# vtk DataFile Version 4.2
vtk output
ASCII
DATASET UNSTRUCTURED_GRID
POINTS 12526 float
-17.9106 -40.6492 2 -17.9106 -40.6492 0 -77.9106 -40.6492 2 
-77.9106 -40.6492 0 -17.9106 59.3508 2 -17.9106 59.3508 0 
-77.9106 59.3508 2 -77.9106 59.3508 0 -62.9116 8.35126 2 
-62.9116 8.35126 0 -32.9116 8.35126 2 -32.9116 8.35126 0 
-32.9116 10.3513 2 -32.9116 10.3513 0 -62.9116 10.3513 2 
-62.9116 10.3513 0 -20.0106 -40.6492 0 -22.2906 -40.6492 0 
-24.4506 -40.6492 0 -26.7306 -40.6492 0 -28.7706 -40.6492 0 
-31.0506 -40.6492 0 -33.0906 -40.6492 0 -35.1906 -40.6492 0 
-37.2306 -40.6492 0 -39.3906 -40.6492 0 -41.7306 -40.6492 0 
-43.9506 -40.6492 0 -46.0506 -40.6492 0 -48.2706 -40.6492 0 
-50.3706 -40.6492 0 -52.4706 -40.6492 0 -54.5106 -40.6492 0 
-56.6106 -40.6492 0 -58.7106 -40.6492 0 -60.9306 -40.6492 0 
-63.0306 -40.6492 0 -65.1306 -40.6492 0 -67.1706 -40.6492 0 
-69.2106 -40.6492 0 -71.3706 -40.6492 0 -73.7106 -40.6492 0 
-75.8106 -40.6492 0 -20.0106 -40.6492 2 -22.3506 -40.6492 2 
-24.4506 -40.6492 2 -26.6706 -40.6492 2 -28.9506 -40.6492 2 
-31.0506 -40.6492 2 -33.4506 -40.6492 2 -35.4906 -40.6492 2 
-37.7706 -40.6492 2 -40.2306 -40.6492 2 -42.3306 -40.6492 2 
-44.6106 -40.6492 2 -46.7706 -40.6492 2 -48.8706 -40.6492 2 
-50.9706 -40.6492 2 -53.1906 -40.6492 2 -55.4706 -40.6492 2 
-57.5706 -40.6492 2 -59.9106 -40.6492 2 -62.0106 -40.6492 2 
-64.2306 -40.6492 2 -66.4506 -40.6492 2 -68.6106 -40.6492 2 
-71.0106 -40.6492 2 -73.2306 -40.6492 2 -75.5106 -40.6492 2 
-75.5106 59.3508 2 -73.4106 59.3508 2 -71.2506 59.3508 2 
-69.0306 59.3508 2 -66.9906 59.3508 2 -64.9506 59.3508 2 
-62.7906 59.3508 2 -60.6306 59.3508 2 -58.5306 59.3508 2 
-56.4906 59.3508 2 -54.4506 59.3508 2 -52.1106 59.3508 2 
-50.1306 59.3508 2 -47.9106 59.3508 2 -45.7506 59.3508 2 
-43.6506 59.3508 2 -41.3706 59.3508 2 -39.3906 59.3508 2 
-37.1706 59.3508 2 -34.7706 59.3508 2 -32.7306 59.3508 2 
-30.5106 59.3508 2 -28.4106 59.3508 2 -26.2506 59.3508 2 
-24.2106 59.3508 2 -22.1106 59.3508 2 -19.8906 59.3508 2 
-77.9106 -38.3492 2 -77.9106 -36.0492 2 -77.9106 -33.8492 2 
-77.9106 -31.6492 2 -77.9106 -29.4492 2 -77.9106 -27.2492 2 
-77.9106 -24.9492 2 -77.9106 -22.8492 2 -77.9106 -20.7492 2 
-77.9106 -18.3492 2 -77.9106 -16.2492 2 -77.9106 -14.1492 2 
-77.9106 -12.0492 2 -77.9106 -9.84918 2 -77.9106 -7.74919 2 
-77.9106 -5.34918 2 -77.9106 -3.14918 2 -77.9106 -0.849185 2 
-77.9106 1.15081 2 -77.9106 3.45081 2 -77.9106 5.45081 2 
-77.9106 7.55082 2 -77.9106 9.75082 2 -77.9106 11.8508 2 
-77.9106 13.9508 2 -77.9106 16.1508 2 -77.9106 18.4508 2 
-77.9106 20.4508 2 -77.9106 22.5508 2 -77.9106 24.7508 2 
-77.9106 26.9508 2 -77.9106 29.0508 2 -77.9106 31.0508 2 
-77.9106 33.4508 2 -77.9106 35.6508 2 -77.9106 38.0508 2 
-77.9106 40.1508 2 -77.9106 42.2508 2 -77.9106 44.4508 2 
-77.9106 46.4508 2 -77.9106 48.5508 2 -77.9106 50.6508 2 
-77.9106 52.9508 2 -77.9106 55.1508 2 -77.9106 57.1508 2 
-17.9106 57.2508 2 -17.9106 54.9508 2 -17.9106 52.9508 2 
-17.9106 50.7508 2 -17.9106 48.7508 2 -17.9106 46.3508 2 
-17.9106 44.2508 2 -17.9106 42.1508 2 -17.9106 39.9508 2 
-17.9106 37.6508 2 -17.9106 35.4508 2 -17.9106 33.3508 2 
-17.9106 31.0508 2 -17.9106 28.9508 2 -17.9106 26.9508 2 
-17.9106 24.6508 2 -17.9106 22.4508 2 -17.9106 20.3508 2 
-17.9106 18.0508 2 -17.9106 15.8508 2 -17.9106 13.7508 2 
-17.9106 11.5508 2 -17.9106 9.35081 2 -17.9106 7.15082 2 
-17.9106 5.05082 2 -17.9106 2.75081 2 -17.9106 0.650815 2 
-17.9106 -1.64919 2 -17.9106 -3.64918 2 -17.9106 -5.84918 2 
-17.9106 -7.94918 2 -17.9106 -10.2492 2 -17.9106 -12.3492 2 
-17.9106 -14.4492 2 -17.9106 -16.6492 2 -17.9106 -19.1492 2 
-17.9106 -21.1492 2 -17.9106 -23.3492 2 -17.9106 -25.5492 2 
-17.9106 -27.7492 2 -17.9106 -30.0492 2 -17.9106 -32.2492 2 
-17.9106 -34.2492 2 -17.9106 -36.4492 2 -17.9106 -38.4492 2 
-60.8116 10.3513 2 -58.7416 10.3513 2 -56.6116 10.3513 2 
-54.5116 10.3513 2 -52.4716 10.3513 2 -50.3416 10.3513 2 
-48.0016 10.3513 2 -45.8116 10.3513 2 -43.7716 10.3513 2 
-41.7316 10.3513 2 -39.5116 10.3513 2 -37.4416 10.3513 2 
-35.0116 10.3513 2 -35.1316 8.35126 2 -37.1716 8.35126 2 
-39.3016 8.35126 2 -41.6116 8.35126 2 -43.6216 8.35126 2 
-45.8716 8.35126 2 -48.0016 8.35126 2 -50.1316 8.35126 2 
-52.4116 8.35126 2 -54.4516 8.35126 2 -56.7016 8.35126 2 
-58.8016 8.35126 2 -60.8716 8.35126 2 -75.7506 59.3508 0 
-73.5906 59.3508 0 -71.4906 59.3508 0 -69.4506 59.3508 0 
-67.3506 59.3508 0 -65.3106 59.3508 0 -63.0906 59.3508 0 
-60.9906 59.3508 0 -58.8906 59.3508 0 -56.4306 59.3508 0 
-54.1506 59.3508 0 -52.0506 59.3508 0 -50.0106 59.3508 0 
-47.6706 59.3508 0 -45.5706 59.3508 0 -43.4706 59.3508 0 
-41.3706 59.3508 0 -39.2106 59.3508 0 -37.1106 59.3508 0 
-34.8906 59.3508 0 -32.7906 59.3508 0 -30.6306 59.3508 0 
-28.5906 59.3508 0 -26.4306 59.3508 0 -24.3906 59.3508 0 
-22.2306 59.3508 0 -19.9506 59.3508 0 -77.9106 -38.5492 0 
-77.9106 -36.4492 0 -77.9106 -34.3492 0 -77.9106 -32.1492 0 
-77.9106 -29.9492 0 -77.9106 -27.8492 0 -77.9106 -25.5492 0 
-77.9106 -23.4492 0 -77.9106 -21.0492 0 -77.9106 -18.9492 0 
-77.9106 -16.6492 0 -77.9106 -14.4492 0 -77.9106 -12.3492 0 
-77.9106 -10.2492 0 -77.9106 -8.14919 0 -77.9106 -6.04919 0 
-77.9106 -3.94919 0 -77.9106 -1.94919 0 -77.9106 0.250815 0 
-77.9106 2.45081 0 -77.9106 4.65082 0 -77.9106 6.85081 0 
-77.9106 8.95082 0 -77.9106 11.0508 0 -77.9106 13.1508 0 
-77.9106 15.3508 0 -77.9106 17.6508 0 -77.9106 19.7508 0 
-77.9106 21.8508 0 -77.9106 24.2508 0 -77.9106 26.3508 0 
-77.9106 28.4508 0 -77.9106 30.6508 0 -77.9106 32.6508 0 
-77.9106 34.9508 0 -77.9106 37.0508 0 -77.9106 39.4508 0 
-77.9106 41.8508 0 -77.9106 43.9508 0 -77.9106 46.1508 0 
-77.9106 48.3508 0 -77.9106 50.4508 0 -77.9106 52.5508 0 
-77.9106 54.8508 0 -77.9106 57.2508 0 -17.9106 57.1508 0 
-17.9106 54.7508 0 -17.9106 52.5508 0 -17.9106 50.4508 0 
-17.9106 48.3508 0 -17.9106 46.0508 0 -17.9106 43.9508 0 
-17.9106 41.9508 0 -17.9106 39.7508 0 -17.9106 37.5508 0 
-17.9106 35.5508 0 -17.9106 33.1508 0 -17.9106 31.0508 0 
-17.9106 28.9508 0 -17.9106 26.7508 0 -17.9106 24.6508 0 
-17.9106 22.5508 0 -17.9106 20.4508 0 -17.9106 18.1508 0 
-17.9106 16.0508 0 -17.9106 13.8508 0 -17.9106 11.6508 0 
-17.9106 9.45082 0 -17.9106 7.15082 0 -17.9106 5.05082 0 
-17.9106 2.75081 0 -17.9106 0.650815 0 -17.9106 -1.44919 0 
-17.9106 -3.64918 0 -17.9106 -6.04919 0 -17.9106 -8.04918 0 
-17.9106 -10.3492 0 -17.9106 -12.7492 0 -17.9106 -14.7492 0 
-17.9106 -16.8492 0 -17.9106 -19.1492 0 -17.9106 -21.1492 0 
-17.9106 -23.4492 0 -17.9106 -25.5492 0 -17.9106 -27.6492 0 
-17.9106 -29.7492 0 -17.9106 -32.0492 0 -17.9106 -34.1492 0 
-17.9106 -36.4492 0 -17.9106 -38.4492 0 -60.7816 10.3513 0 
-58.5016 10.3513 0 -56.2216 10.3513 0 -53.9716 10.3513 0 
-51.6916 10.3513 0 -49.5916 10.3513 0 -47.5516 10.3513 0 
-45.5416 10.3513 0 -43.4416 10.3513 0 -41.3716 10.3513 0 
-39.0916 10.3513 0 -37.0816 10.3513 0 -34.9516 10.3513 0 
-35.1616 8.35126 0 -37.2316 8.35126 0 -39.3016 8.35126 0 
-41.3716 8.35126 0 -43.4416 8.35126 0 -45.6616 8.35126 0 
-47.8516 8.35126 0 -49.9816 8.35126 0 -52.3216 8.35126 0 
-54.3616 8.35126 0 -56.4016 8.35126 0 -58.4716 8.35126 0 
-60.6016 8.35126 0 -74.8623 57.5533 2 -72.6158 57.6484 2 
-70.3022 57.6508 2 -68.2684 57.4737 2 -66.1258 57.3748 2 
-64.0269 57.3781 2 -61.7971 57.357 2 -59.6775 57.3247 2 
-57.4825 57.2995 2 -55.385 57.3324 2 -53.2632 57.3248 2 
-51.1449 57.3216 2 -49.0007 57.3501 2 -46.8252 57.3613 2 
-44.6698 57.3513 2 -42.4431 57.3455 2 -40.3937 57.3573 2 
-38.1868 57.4152 2 -35.9422 57.4475 2 -33.7823 57.4357 2 
-31.5602 57.4109 2 -29.4063 57.3964 2 -27.3077 57.4544 2 
-25.2578 57.5396 2 -23.3354 57.6715 2 -21.2731 57.4813 2 
-19.4317 57.1695 2 -75.9769 -37.6314 2 -75.9848 -35.1627 2 
-75.9749 -32.8952 2 -75.9293 -30.5971 2 -75.8694 -28.4597 2 
-75.8577 -26.2308 2 -75.7937 -23.9313 2 -75.7332 -21.7326 2 
-75.8176 -19.6369 2 -75.7938 -17.4344 2 -75.7821 -15.194 2 
-75.8161 -13.0492 2 -75.8678 -10.9037 2 -75.8467 -8.73751 2 
-75.8067 -6.49617 2 -75.8461 -4.23923 2 -75.8727 -2.10369 2 
-75.8696 0.07885 2 -75.871 2.28566 2 -75.901 4.40913 2 
-75.9691 6.49373 2 -75.926 8.58185 2 -75.9362 10.7063 2 
-75.9672 12.88 2 -75.9294 15.135 2 -75.8996 17.2934 2 
-75.8308 19.3538 2 -75.8396 21.4875 2 -75.8407 23.6583 2 
-75.8512 25.8327 2 -75.8158 27.9091 2 -75.8183 30.1247 2 
-75.8524 32.2267 2 -75.8537 34.5275 2 -75.8848 36.749 2 
-75.8275 39.0068 2 -75.8095 41.2489 2 -75.8512 43.2867 2 
-75.9053 45.4267 2 -75.9463 47.5314 2 -75.8908 49.6785 2 
-75.8901 51.8779 2 -75.9272 53.9593 2 -76.0975 55.9205 2 
-19.4821 53.5201 2 -19.6148 51.7167 2 -19.7157 49.5668 2 
-19.7955 47.3889 2 -19.8446 45.1204 2 -19.924 42.9117 2 
-19.933 40.7608 2 -19.8991 38.5255 2 -19.8982 36.3188 2 
-19.9022 34.1164 2 -19.8791 31.9143 2 -19.8801 29.8101 2 
-19.8838 27.6592 2 -19.8565 25.4252 2 -19.8703 23.2329 2 
-19.8168 21.1408 2 -19.8244 18.8501 2 -19.8241 16.685 2 
-19.9318 14.4761 2 -19.9069 12.2918 2 -19.8512 10.0984 2 
-19.7929 7.98256 2 -19.7612 5.83673 2 -19.8158 3.54637 2 
-19.7639 1.44791 2 -19.7765 -0.800448 2 -19.8095 -2.97065 2 
-19.8075 -5.13001 2 -19.8427 -7.22717 2 -19.8919 -9.40576 2 
-19.8983 -11.6713 2 -19.8685 -13.7641 2 -19.8637 -16.0343 2 
-19.8932 -18.2809 2 -19.9087 -20.4222 2 -19.8886 -22.6476 2 
-19.8293 -24.7854 2 -19.7955 -26.9694 2 -19.8004 -29.2497 2 
-19.7432 -31.3389 2 -19.6817 -33.501 2 -19.6709 -35.6527 2 
-19.6196 -37.8517 2 -21.3203 -39.0236 2 -23.2523 -38.8087 2 
-25.4041 -38.793 2 -27.7199 -38.8079 2 -29.897 -38.6799 2 
-32.0858 -38.6262 2 -34.3865 -38.6057 2 -36.6404 -38.61 2 
-38.9574 -38.6109 2 -41.1306 -38.6014 2 -43.3688 -38.6192 2 
-45.6275 -38.6541 2 -47.742 -38.6355 2 -49.9362 -38.6042 2 
-52.0408 -38.6167 2 -54.2844 -38.6294 2 -56.5176 -38.6508 2 
-58.7729 -38.6671 2 -60.9246 -38.6811 2 -63.2144 -38.6785 2 
-65.3948 -38.7035 2 -67.5569 -38.7109 2 -69.8576 -38.7435 2 
-72.1786 -38.8044 2 -74.1796 -38.9016 2 -62.0825 12.1902 2 
-59.9262 12.2737 2 -57.7818 12.2909 2 -55.57 12.3305 2 
-53.4139 12.4042 2 -51.361 12.3776 2 -49.1461 12.3648 2 
-46.928 12.4224 2 -44.7496 12.4423 2 -42.5946 12.418 2 
-40.5039 12.3924 2 -38.2489 12.3889 2 -35.9621 12.3669 2 
-33.5372 12.1781 2 -31.0011 9.40398 2 -33.6262 6.43304 2 
-35.9122 6.26264 2 -38.1518 6.21143 2 -40.3168 6.2342 2 
-42.585 6.30402 2 -44.8107 6.31664 2 -46.9598 6.32478 2 
-49.0813 6.30003 2 -51.3309 6.27105 2 -53.4845 6.25778 2 
-55.7554 6.22948 2 -58.0195 6.24876 2 -60.1937 6.3316 2 
-62.4302 6.53819 2 -64.7299 9.45851 2 -64.3385 11.7582 2 
-31.3387 11.6253 2 -31.0907 6.84508 2 -64.6719 7.26224 2 
-63.5845 13.9678 2 -71.6035 56.0887 2 -69.558 55.6757 2 
-67.4934 55.4185 2 -65.337 55.2804 2 -63.066 55.2092 2 
-60.8309 55.2441 2 -58.5958 55.2669 2 -56.3686 55.2299 2 
-54.2893 55.2356 2 -52.1904 55.2612 2 -50.111 55.2999 2 
-47.937 55.266 2 -45.7185 55.2941 2 -43.5032 55.222 2 
-41.3946 55.2837 2 -39.3314 55.3329 2 -36.975 55.3734 2 
-34.7813 55.3367 2 -32.5894 55.2905 2 -30.3758 55.3028 2 
-28.2335 55.3503 2 -26.199 55.4961 2 -24.2701 55.6993 2 
-22.4163 55.9375 2 -56.6844 14.3915 2 -21.5996 -37.0773 2 
-74.0688 -34.1317 2 -73.9009 -31.7973 2 -73.759 -29.6047 2 
-73.6377 -27.4845 2 -73.5922 -25.1386 2 -73.5798 -22.8171 2 
-73.5909 -20.6992 2 -73.5948 -18.5625 2 -73.5913 -16.3594 2 
-73.634 -14.0784 2 -73.5889 -12.0122 2 -73.6503 -9.76431 2 
-73.7098 -7.59247 2 -73.7255 -5.31289 2 -73.745 -3.1912 2 
-73.7004 -1.01614 2 -73.7228 1.24861 2 -73.8827 3.35639 2 
-73.855 5.38376 2 -73.7062 7.47375 2 -73.7401 9.57301 2 
-73.8375 11.7345 2 -73.7798 13.9849 2 -73.7219 16.1728 2 
-73.7558 18.2932 2 -73.7935 20.3976 2 -73.7232 22.5125 2 
-73.6403 24.6809 2 -73.6095 26.8203 2 -73.6377 29.0089 2 
-73.696 31.1821 2 -73.6681 33.364 2 -73.6624 35.5643 2 
-73.6081 37.8566 2 -73.5451 40.1234 2 -73.6157 42.2687 2 
-73.6793 44.3048 2 -73.8057 46.4848 2 -73.8164 48.6484 2 
-73.7761 50.8428 2 -73.7855 53.043 2 -73.8667 55.48 2 
-28.7704 8.41515 2 -73.7719 -36.6923 2 -21.2506 52.8209 2 
-21.5339 50.6771 2 -21.7908 48.4319 2 -21.9463 46.1269 2 
-22.0119 43.7827 2 -22.0245 41.6579 2 -22.019 39.3681 2 
-22.0112 37.1249 2 -21.9603 34.9925 2 -21.9868 32.7883 2 
-21.9297 30.6255 2 -21.8478 28.4688 2 -21.8343 26.2942 2 
-21.8544 23.998 2 -21.8943 21.8906 2 -21.8694 19.6723 2 
-21.8883 17.4568 2 -22.0618 15.25 2 -22.0301 13.1128 2 
-21.9306 10.8483 2 -21.7362 8.78138 2 -21.7101 6.56504 2 
-21.8698 4.39404 2 -21.8209 2.22162 2 -21.6944 0.0332128 2 
-21.6543 -2.19608 2 -21.7709 -4.33634 2 -21.879 -6.46843 2 
-21.9429 -8.61808 2 -21.9736 -10.8747 2 -21.9949 -13.0956 2 
-22.0126 -15.3155 2 -21.9914 -17.5267 2 -22.0042 -19.7397 2 
-21.9556 -21.9262 2 -21.9041 -24.0989 2 -21.8705 -26.2054 2 
-21.8649 -28.4694 2 -21.7366 -30.5666 2 -21.6397 -32.7083 2 
-21.6137 -34.9326 2 -23.8195 -36.6546 2 -26.4138 -36.9141 2 
-28.6241 -36.6911 2 -30.882 -36.4896 2 -33.0612 -36.3203 2 
-35.365 -36.3493 2 -37.7338 -36.3398 2 -39.9861 -36.369 2 
-42.1218 -36.3756 2 -44.4387 -36.4128 2 -46.658 -36.4342 2 
-48.7836 -36.4151 2 -50.9573 -36.4744 2 -53.1284 -36.4432 2 
-55.3847 -36.4652 2 -57.632 -36.5138 2 -59.8245 -36.5271 2 
-62.0992 -36.5648 2 -64.3904 -36.5984 2 -66.5825 -36.6076 2 
-68.7841 -36.6865 2 -71.1388 -36.8768 2 -58.9501 14.3375 2 
-29.0309 10.8631 2 -61.1399 14.2445 2 -54.485 14.4667 2 
-52.4155 14.5582 2 -50.2648 14.5876 2 -47.9655 14.5724 2 
-45.7371 14.5384 2 -43.6198 14.5509 2 -41.4838 14.521 2 
-39.1825 14.5339 2 -36.8977 14.4941 2 -34.4406 14.3368 2 
-31.9649 13.969 2 -66.5799 10.8695 2 -32.2669 4.66537 2 
-66.7032 8.34541 2 -34.4675 4.01764 2 -41.3924 3.92456 2 
-43.6425 4.07926 2 -45.9259 4.13201 2 -48.0531 4.03773 2 
-50.2069 3.93247 2 -52.46 3.88726 2 -54.738 3.87223 2 
-57.1557 3.88399 2 -59.4553 3.98879 2 -61.8561 4.27789 2 
-64.3316 4.95964 2 -36.8421 3.86243 2 -39.1785 3.89873 2 
-29.2404 13.2968 2 -20.5781 55.1049 2 -28.563 6.10577 2 
-66.152 13.5649 2 -30.003 4.04385 2 -66.7177 5.91759 2 
-51.2945 16.8869 2 -69.0988 53.4906 2 -66.779 53.176 2 
-64.4883 53.0731 2 -62.0915 52.9448 2 -59.7991 52.8915 2 
-57.4699 52.9434 2 -55.3176 53.0383 2 -53.2545 53.0539 2 
-51.1902 53.0941 2 -48.9881 53.0271 2 -46.8095 52.9044 2 
-44.5475 52.8697 2 -42.4988 52.9236 2 -40.3229 53.0235 2 
-38.1247 53.0655 2 -35.7878 53.1323 2 -33.5472 53.1231 2 
-31.3105 53.1065 2 -29.094 53.1443 2 -26.9541 53.3021 2 
-24.8696 53.5872 2 -53.4334 16.7997 2 -55.6322 16.7475 2 
-71.8978 -33.0511 2 -71.6608 -30.9254 2 -71.4214 -28.6833 2 
-71.2187 -26.455 2 -71.251 -24.049 2 -71.3233 -21.749 2 
-71.2648 -19.6429 2 -71.2481 -17.456 2 -71.255 -15.2011 2 
-71.2813 -12.9616 2 -71.3039 -10.8507 2 -71.353 -8.64258 2 
-71.4255 -6.38267 2 -71.4892 -4.22939 2 -71.4113 -1.96936 2 
-71.2791 0.252989 2 -71.3388 2.52249 2 -71.9057 4.4396 2 
-71.3584 6.33119 2 -71.206 8.43129 2 -71.2076 10.6953 2 
-71.7066 12.8071 2 -71.2203 14.8938 2 -71.4402 17.043 2 
-71.6526 19.2068 2 -71.5643 21.4383 2 -71.4831 23.5324 2 
-71.3745 25.7154 2 -71.3053 27.8311 2 -71.3181 30.0408 2 
-71.3879 32.2546 2 -71.3513 34.4564 2 -71.2744 36.7105 2 
-71.2475 39.0596 2 -71.2935 41.2348 2 -71.3844 43.323 2 
-71.5097 45.4276 2 -71.6727 47.5792 2 -71.5879 49.8254 2 
-71.413 51.9858 2 -71.559 54.1225 2 -72.2412 -35.0948 2 
-65.2314 16.0779 2 -35.3148 1.37498 2 -23.7299 49.7054 2 
-24.0427 47.3744 2 -24.2043 44.9289 2 -24.252 42.6289 2 
-24.3506 40.38 2 -24.2622 38.1027 2 -24.2279 35.8756 2 
-24.2336 33.6051 2 -24.1615 31.4969 2 -24.112 29.3946 2 
-24.0635 27.1951 2 -24.0656 24.9502 2 -24.1037 22.6137 2 
-24.1676 20.4265 2 -23.8901 18.3599 2 -24.3029 16.2359 2 
-24.3417 13.9832 2 -24.2009 11.6623 2 -24.0273 9.35889 2 
-23.5982 7.48484 2 -24.1722 5.36381 2 -24.2369 3.01261 2 
-23.8516 0.853151 2 -23.551 -1.3292 2 -23.7271 -3.48743 2 
-24.0569 -5.51353 2 -24.1864 -7.70025 2 -24.2279 -10.0373 2 
-24.2445 -12.3392 2 -24.2442 -14.5022 2 -24.2605 -16.757 2 
-24.3043 -19.0687 2 -24.2904 -21.1764 2 -24.1547 -23.3475 2 
-24.0205 -25.5235 2 -24.0666 -27.8289 2 -23.9829 -29.8113 2 
-23.5997 -31.8469 2 -47.01 1.79315 2 -25.3197 -35.1857 2 
-26.1019 7.24823 2 -27.3198 -34.8187 2 -29.4619 -34.3473 2 
-31.7149 -34.0539 2 -33.9336 -33.9446 2 -36.4128 -33.8747 2 
-38.7894 -33.8718 2 -40.9716 -33.9532 2 -43.2148 -34.0265 2 
-45.4546 -34.0795 2 -47.6626 -34.1224 2 -49.79 -34.1521 2 
-52.053 -34.1201 2 -54.2326 -34.0632 2 -56.5005 -34.1045 2 
-58.7997 -34.2745 2 -61.0229 -34.3727 2 -63.3195 -34.4357 2 
-65.6718 -34.4469 2 -67.8551 -34.5225 2 -70.1275 -34.7839 2 
-57.9229 16.6479 2 -49.1076 16.9991 2 -46.8597 17.021 2 
-44.6253 16.8484 2 -42.4901 16.7911 2 -40.2078 16.773 2 
-37.8525 16.7415 2 -35.4471 16.5791 2 -32.7553 16.3341 2 
-32.3156 1.73393 2 -68.9238 7.13431 2 -63.8702 2.35475 2 
-29.8537 15.9417 2 -68.9516 12.6494 2 -42.5722 1.72571 2 
-49.0909 1.61335 2 -51.337 1.49418 2 -53.6485 1.43034 2 
-56.0994 1.36303 2 -58.6183 1.47439 2 -61.161 1.70251 2 
-66.4646 3.41474 2 -44.7337 1.80494 2 -68.8382 9.64754 2 
-26.7188 12.4995 2 -23.2959 52.0184 2 -23.4462 -34.0532 2 
-26.9699 4.08921 2 -22.7968 54.0257 2 -26.8745 15.1082 2 
-62.454 16.3069 2 -37.9463 1.33691 2 -60.0662 16.4675 2 
-26.4383 9.91053 2 -69.2072 4.54047 2 -40.2829 1.62071 2 
-68.415 15.7343 2 -66.024 50.8365 2 -63.4652 50.5802 2 
-61.123 50.4228 2 -58.7072 50.4228 2 -56.3948 50.4779 2 
-54.2453 50.615 2 -52.2463 50.7334 2 -50.0913 50.6088 2 
-47.9171 50.3265 2 -45.6904 50.2623 2 -43.4425 50.3324 2 
-41.3855 50.4289 2 -39.1948 50.5125 2 -36.8496 50.6027 2 
-34.5278 50.6897 2 -32.2529 50.709 2 -29.9384 50.7629 2 
-27.6852 50.9612 2 -25.4293 51.3416 2 -52.4615 19.4926 2 
-54.7023 19.3104 2 -66.1953 0.837112 2 -69.0454 -30.1414 2 
-68.8665 -27.8108 2 -68.8116 -25.3654 2 -68.788 -22.8814 2 
-68.7753 -20.6702 2 -68.7608 -18.497 2 -68.7479 -16.2616 2 
-68.7601 -13.9818 2 -68.8091 -11.8378 2 -68.8663 -9.60145 2 
-69.0145 -7.37971 2 -69.1806 -5.18254 2 -69.0912 -2.95117 2 
-68.7252 -0.593334 2 -68.7145 1.91714 2 -69.3899 18.0365 2 
-69.3605 20.195 2 -69.2761 22.3422 2 -68.9598 24.4779 2 
-68.8219 26.6836 2 -68.7802 28.8694 2 -68.874 31.0802 2 
-68.7744 33.3322 2 -68.5503 35.5524 2 -68.515 37.8814 2 
-68.6432 40.2539 2 -68.8156 42.4312 2 -69.0665 44.5238 2 
-69.322 46.6645 2 -69.6891 48.7529 2 -68.6935 51.0105 2 
-25.565 -33.1092 2 -47.9191 19.666 2 -50.1988 19.605 2 
-26.4526 46.4099 2 -26.6363 43.9228 2 -26.722 41.4374 2 
-26.7582 39.2083 2 -26.7473 36.8248 2 -26.6998 34.5375 2 
-26.5786 32.4081 2 -26.3997 30.3331 2 -26.3338 28.1778 2 
-26.3973 25.981 2 -26.2997 23.6359 2 -26.4839 21.2407 2 
-26.9129 18.196 2 -26.4646 1.4166 2 -25.5368 -0.545988 2 
-25.4873 -2.44212 2 -26.3137 -4.23874 2 -26.5861 -6.47638 2 
-26.5929 -8.88918 2 -26.5539 -11.3278 2 -26.6342 -13.7017 2 
-26.7337 -15.9562 2 -26.7743 -18.2945 2 -26.7481 -20.4881 2 
-26.6528 -22.6684 2 -26.4734 -24.8846 2 -26.1004 -26.9932 2 
-27.1059 -29.4233 2 -25.6468 -31.191 2 -50.0396 -0.989359 2 
-33.9112 -1.43228 2 -56.8836 19.1135 2 -27.699 -32.2901 2 
-29.9617 -31.7416 2 -32.3986 -31.5475 2 -34.8756 -31.3738 2 
-37.4049 -31.3189 2 -39.7985 -31.3106 2 -42.0247 -31.3898 2 
-44.3134 -31.6037 2 -46.5214 -31.7167 2 -48.642 -31.7603 2 
-50.927 -31.6548 2 -53.1572 -31.5338 2 -55.3753 -31.5412 2 
-57.6916 -31.7027 2 -60.0314 -31.9053 2 -62.272 -32.1809 2 
-64.769 -32.202 2 -67.1002 -32.1549 2 -45.6734 19.54 2 
-29.1923 1.39157 2 -43.5164 19.186 2 -41.2586 19.1248 2 
-38.9374 19.1727 2 -36.5651 19.0123 2 -30.961 18.3676 2 
-25.933 48.949 2 -47.8407 -0.835927 2 -54.8701 -1.15447 2 
-57.4979 -1.18057 2 -60.1834 -0.985004 2 -63.3659 -0.723441 2 
-69.5775 -32.52 2 -33.8312 18.7348 2 -52.4263 -1.08745 2 
-58.9862 18.7697 2 -36.7453 -1.5046 2 -30.8662 -1.54811 2 
-45.8547 -0.360313 2 -41.587 -0.619143 2 -66.8048 18.4994 2 
-43.7641 -0.901117 2 -63.8351 18.5519 2 -46.6468 22.4785 2 
-62.4738 47.9155 2 -59.9822 47.6103 2 -57.5423 47.5981 2 
-55.2689 47.9421 2 -53.1433 48.1785 2 -51.2331 48.4804 2 
-49.2925 47.6689 2 -46.9255 47.4218 2 -44.5573 47.4982 2 
-42.385 47.6655 2 -40.157 47.7735 2 -37.938 47.8974 2 
-35.5376 48.1154 2 -33.1991 48.3363 2 -30.8334 48.3661 2 
-28.4338 48.3883 2 -61.2614 18.6118 2 -66.2628 -26.7534 2 
-66.1554 -24.1671 2 -66.1431 -21.7043 2 -66.1523 -19.5224 2 
-66.1411 -17.2331 2 -66.0398 -14.9719 2 -66.1634 -12.7282 2 
-66.2599 -10.5129 2 -66.3234 -8.23274 2 -66.6123 -5.97751 2 
-67.1414 -3.90966 2 -66.4349 -1.74773 2 -67.3394 21.0463 2 
-66.7073 23.0677 2 -66.1752 25.306 2 -65.8701 27.6525 2 
-65.8288 30.0239 2 -66.3803 32.1657 2 -65.6831 34.2223 2 
-65.5471 36.5682 2 -65.7757 39.1377 2 -66.0492 41.4969 2 
-66.3433 43.7228 2 -66.7752 46.1369 2 -67.3932 48.6607 2 
-29.2348 45.6383 2 -42.3072 21.3833 2 -29.2266 42.7086 2 
-29.3339 40.3293 2 -29.3988 37.9457 2 -29.3959 35.6029 2 
-29.2898 33.2533 2 -29.0826 31.0484 2 -28.4319 29.1818 2 
-28.8474 27.0795 2 -28.7624 24.7863 2 -28.3267 22.5539 2 
-44.4039 22.116 2 -27.9773 -1.63431 2 -29.1876 -4.55892 2 
-29.0225 -7.57566 2 -29.0392 -10.104 2 -29.1407 -12.7146 2 
-29.3456 -15.0109 2 -29.4453 -17.3553 2 -29.4109 -19.7671 2 
-29.3063 -22.045 2 -29.048 -24.4457 2 -28.5488 -26.9813 2 
-30.5199 -29.2716 2 -35.5238 -4.48629 2 -33.1582 -28.9732 2 
-35.8389 -28.758 2 -38.4998 -28.5312 2 -40.9095 -28.4677 2 
-43.3385 -28.6255 2 -45.4335 -29.3472 2 -47.5446 -28.8291 2 
-49.7022 -29.3302 2 -51.869 -28.6374 2 -54.2945 -28.6225 2 
-56.6953 -28.8847 2 -59.1508 -29.2023 2 -61.4481 -29.6468 2 
-63.6754 -30.2157 2 -40.1332 21.8332 2 -37.7278 21.7374 2 
-39.4054 -1.35361 2 -66.2803 -29.5406 2 -61.7617 -3.70771 2 
-53.7867 22.0479 2 -48.3676 -3.51906 2 -58.8697 -3.89518 2 
-56.1474 -3.97058 2 -64.9147 48.1856 2 -56.0476 21.7515 2 
-53.524 -3.86991 2 -32.5546 -4.26533 2 -51.0545 -3.5941 2 
-51.5079 22.5162 2 -58.1945 21.4752 2 -49.0691 22.6264 2 
-42.1696 -3.94414 2 -29.3413 20.4792 2 -35.0919 21.4204 2 
-65.0064 20.9616 2 -64.6535 -3.65288 2 -38.7851 -4.66746 2 
-32.3028 20.8991 2 -63.6887 -27.9277 2 -58.7753 44.6916 2 
-53.859 45.7424 2 -51.4319 45.4488 2 -48.7562 44.323 2 
-45.988 44.3038 2 -43.4138 44.7887 2 -41.0888 44.9972 2 
-38.8704 45.0647 2 -36.436 45.247 2 -34.0067 45.677 2 
-31.8162 46.3071 2 -63.4516 -25.3904 2 -55.4242 24.3738 2 
-63.3477 -22.8147 2 -63.4482 -20.5717 2 -63.3468 -18.2726 2 
-63.2602 -15.9725 2 -63.3328 -13.6127 2 -63.6576 -11.3771 2 
-63.7225 -8.89708 2 -63.7647 -6.29812 2 -63.927 23.4368 2 
-63.1669 26.0617 2 -62.8362 28.9536 2 -63.0094 31.9921 2 
-62.4554 34.9226 2 -62.4413 37.6913 2 -62.8788 40.4943 2 
-63.4985 43.062 2 -64.1459 45.5354 2 -60.6176 -6.86245 2 
-30.8381 23.0349 2 -39.1451 24.8161 2 -45.0861 25.3601 2 
-32.0003 41.4128 2 -32.1743 39.145 2 -32.1644 36.6624 2 
-32.1652 34.1477 2 -32.0005 31.553 2 -31.4483 28.8818 2 
-31.4449 25.8105 2 -37.3264 -8.27605 2 -31.6756 -8.98235 2 
-31.4581 -11.4624 2 -32.2317 -13.6829 2 -32.2062 -16.2748 2 
-32.1843 -18.8231 2 -32.1535 -21.2714 2 -31.8611 -23.919 2 
-31.3021 -26.6796 2 -42.0298 24.6446 2 -33.9926 -26.2535 2 
-36.9242 -25.7395 2 -39.6639 -25.4613 2 -42.5128 -25.4092 2 
-45.7406 -25.7989 2 -49.4339 -25.6081 2 -52.795 -25.3125 2 
-55.6592 -25.6667 2 -58.3435 -26.2775 2 -61.0896 -27.0513 2 
-57.4614 -6.82147 2 -45.6149 -3.50112 2 -56.1466 44.9289 2 
-60.1827 20.7195 2 -53.14 25.4137 2 -61.4743 44.989 2 
-62.4489 21.064 2 -31.7941 43.9583 2 -57.7807 24.3424 2 
-47.763 25.6643 2 -36.3184 24.3974 2 -54.5489 -6.89386 2 
-31.3046 -6.49285 2 -47.0858 -6.63004 2 -49.5401 -5.91394 2 
-40.8317 -8.27861 2 -50.7681 41.0627 2 -47.45 40.6896 2 
-44.3789 41.0401 2 -42.0144 42.2107 2 -39.7011 41.9106 2 
-37.1222 42.2628 2 -34.5145 42.926 2 -33.4967 23.7375 2 
-60.4921 -21.5865 2 -60.9543 -19.3805 2 -60.19 -17.1633 2 
-60.1358 -14.6045 2 -60.6581 -12.1578 2 -61.3881 -9.81469 2 
-34.6937 -23.1632 2 -59.807 26.834 2 -34.0462 -7.25971 2 
-59.4029 30.0961 2 -59.2121 33.3411 2 -59.4509 36.3013 2 
-52.0265 -6.59987 2 -35.2364 37.8087 2 -34.7497 35.3455 2 
-34.851 29.8074 2 -37.3762 27.6749 2 -34.2246 26.7833 2 
-60.711 -24.2351 2 -50.4532 25.8602 2 -39.1179 -12.816 2 
-44.1968 -7.42875 2 -34.7838 -11.1191 2 -35.5974 -14.6951 2 
-34.9693 -17.5942 2 -35.1788 -20.3247 2 -40.3514 28.3876 2 
-37.8208 -22.2768 2 -40.8141 -21.6317 2 -44.0896 -21.9832 2 
-51.4324 -21.4184 2 -43.5016 28.8932 2 -60.5223 42.3461 2 
-53.8496 42.9352 2 -46.6529 -10.7166 2 -43.1296 -12.1363 2 
-60.6433 23.551 2 -57.1357 41.7628 2 -46.2984 28.3943 2 
-34.89 40.4297 2 -59.939 39.4676 2 -56.2436 27.5074 2 
-35.2217 32.7779 2 -58.6351 -9.71391 2 -47.4447 -20.622 2 
-54.8347 -22.0774 2 -57.7845 -23.003 2 -49.573 -8.98392 2 
-55.4335 -10.1061 2 -55.5023 35.3972 2 -38.1204 35.4184 2 
-41.9356 33.0492 2 -38.3064 -18.1905 2 -57.0669 38.4526 2 
-48.4731 36.7541 2 -44.9029 36.9244 2 -41.3866 38.4508 2 
-37.9413 39.3033 2 -52.6334 29.0496 2 -57.7244 -19.536 2 
-49.1999 29.3253 2 -56.9666 -16.1307 2 -57.3135 -12.8997 2 
-54.2353 39.5458 2 -42.7696 -17.702 2 -55.6094 31.4884 2 
-52.5136 -10.0095 2 -51.9467 36.8853 2 -50.6923 -17.0776 2 
-46.3604 32.4334 2 -38.1615 31.1221 2 -46.4863 -15.4982 2 
-54.1216 -18.2439 2 -53.6782 -13.9322 2 -51.258 33.0477 2 
-49.9121 -12.7626 2 -75.0118 57.5406 0 -72.8913 57.3811 0 
-70.7103 57.3967 0 -68.5373 57.4254 0 -66.3278 57.4424 0 
-64.2154 57.3848 0 -62.0249 57.3275 0 -59.9232 57.2483 0 
-57.6317 57.2887 0 -55.3488 57.2589 0 -53.2166 57.2578 0 
-51.0803 57.3185 0 -48.8035 57.2945 0 -46.7048 57.2616 0 
-44.5085 57.2604 0 -42.3337 57.2761 0 -40.2332 57.2551 0 
-38.1164 57.247 0 -35.91 57.2569 0 -33.7909 57.2855 0 
-31.7005 57.3069 0 -29.5531 57.2643 0 -27.5385 57.3485 0 
-25.3824 57.4504 0 -23.3114 57.5602 0 -21.1723 57.6162 0 
-19.3298 57.7926 0 -76.0988 -37.8971 0 -75.9591 -35.5956 0 
-75.8047 -33.4961 0 -75.721 -31.1733 0 -75.7674 -28.8829 0 
-75.8221 -26.7469 0 -75.7806 -24.4866 0 -75.7793 -22.1627 0 
-75.7101 -19.9942 0 -75.7559 -17.8002 0 -75.7616 -15.646 0 
-75.6845 -13.4425 0 -75.6242 -11.2905 0 -75.581 -9.18918 0 
-75.5453 -7.13108 0 -75.565 -4.97633 0 -75.5844 -2.91112 0 
-75.6546 -0.736459 0 -75.6982 1.32321 0 -75.7377 3.6085 0 
-75.7425 5.77459 0 -75.7832 7.86794 0 -75.8385 9.95505 0 
-75.818 12.1679 0 -75.834 14.2686 0 -75.7899 16.4237 0 
-75.7066 18.6133 0 -75.6844 20.8363 0 -75.649 22.9851 0 
-75.6607 25.2956 0 -75.718 27.4608 0 -75.7268 29.5273 0 
-75.6772 31.7046 0 -75.6764 33.958 0 -75.6566 36.0964 0 
-75.6294 38.3508 0 -75.7256 40.6785 0 -75.7509 42.8539 0 
-75.7479 45.1952 0 -75.7698 47.3591 0 -75.7269 49.5303 0 
-75.812 51.7274 0 -75.968 53.8876 0 -19.7637 55.8264 0 
-19.5043 53.5172 0 -19.6302 51.3591 0 -19.6784 49.2064 0 
-19.767 47.1048 0 -19.7669 44.8517 0 -19.8564 42.6822 0 
-19.8682 40.6218 0 -19.8497 38.4432 0 -19.9335 36.2126 0 
-19.9541 34.0105 0 -19.9054 31.879 0 -19.8953 29.6857 0 
-19.8811 27.5208 0 -19.8383 25.4443 0 -19.8411 23.2496 0 
-19.8049 21.1912 0 -19.7608 18.9849 0 -19.7131 16.9007 0 
-19.7396 14.6845 0 -19.7987 12.3782 0 -19.8476 10.2655 0 
-19.8535 8.06518 0 -19.8683 5.93905 0 -19.8212 3.70219 0 
-19.723 1.53128 0 -19.7057 -0.631292 0 -19.772 -2.85259 0 
-19.8385 -5.09945 0 -19.8284 -7.2292 0 -19.8649 -9.45736 0 
-19.8417 -11.843 0 -19.8846 -13.969 0 -19.8851 -16.1115 0 
-19.8301 -18.2276 0 -19.8653 -20.4089 0 -19.9062 -22.6104 0 
-19.8685 -24.808 0 -19.8488 -26.9879 0 -19.7422 -29.0164 0 
-19.6645 -31.2346 0 -19.6638 -33.4185 0 -19.6584 -35.6172 0 
-19.6392 -37.7785 0 -21.2963 -38.9879 0 -23.174 -38.7064 0 
-25.3768 -38.608 0 -27.5455 -38.6583 0 -29.8094 -38.6351 0 
-31.9672 -38.6249 0 -34.1451 -38.5968 0 -36.2204 -38.5487 0 
-38.3347 -38.5034 0 -40.5276 -38.4838 0 -42.7904 -38.4609 0 
-44.9518 -38.5476 0 -47.1353 -38.5735 0 -49.2295 -38.6073 0 
-51.3355 -38.5923 0 -53.3959 -38.6038 0 -55.5094 -38.5595 0 
-57.661 -38.5447 0 -59.7952 -38.5922 0 -61.959 -38.6467 0 
-64.1486 -38.6398 0 -66.2637 -38.6178 0 -68.37 -38.5894 0 
-70.4504 -38.6076 0 -72.6321 -38.821 0 -74.5016 -39.0688 0 
-62.1506 12.2395 0 -59.8262 12.3467 0 -57.5289 12.4161 0 
-55.1697 12.4786 0 -52.9128 12.4421 0 -50.7201 12.3355 0 
-48.6163 12.3543 0 -46.5977 12.4046 0 -44.4791 12.4188 0 
-42.3588 12.3931 0 -40.2354 12.419 0 -38.0801 12.44 0 
-35.9271 12.4332 0 -33.6194 12.3409 0 -30.9612 9.50497 0 
-33.5352 6.44493 0 -35.8727 6.28051 0 -38.0737 6.2761 0 
-40.2132 6.2593 0 -42.4251 6.22583 0 -44.5135 6.23664 0 
-46.7872 6.26554 0 -48.9221 6.33731 0 -51.1727 6.26821 0 
-53.2888 6.28669 0 -55.454 6.23814 0 -57.5708 6.31536 0 
-59.8432 6.27187 0 -62.2896 6.30818 0 -65.5659 9.37362 0 
-30.7816 6.97393 0 -76.2737 55.8936 0 -64.5733 11.9581 0 
-31.3935 11.9484 0 -65.1273 6.54584 0 -72.0802 55.2584 0 
-74.1933 55.5515 0 -67.5655 55.5176 0 -65.3517 55.385 0 
-63.2247 55.2356 0 -60.9889 55.1966 0 -58.8048 55.1052 0 
-56.5088 55.0633 0 -54.3234 55.0136 0 -52.1386 54.8852 0 
-49.9788 54.9097 0 -47.7807 55.028 0 -45.5787 54.9982 0 
-43.3696 54.9993 0 -41.2269 55.033 0 -39.0873 55.0192 0 
-37.0166 54.9828 0 -34.8467 55.0313 0 -32.7154 55.0396 0 
-30.5329 55.154 0 -28.4776 55.2803 0 -26.3292 55.3857 0 
-24.2275 55.5738 0 -22.1538 55.7919 0 -73.6171 -32.5736 0 
-21.1232 54.2407 0 -34.4953 4.21206 0 -73.7673 -34.8586 0 
-74.0862 -37.0669 0 -73.5833 -30.212 0 -73.6604 -27.9123 0 
-73.5859 -25.6042 0 -73.4526 -23.3351 0 -73.2911 -21.0448 0 
-73.2372 -18.8448 0 -73.4402 -16.714 0 -73.479 -14.5411 0 
-73.3099 -12.4599 0 -73.2098 -10.2888 0 -73.1355 -8.15001 0 
-73.0503 -6.02549 0 -73.064 -3.86852 0 -73.2151 -1.72704 0 
-73.4169 0.385125 0 -73.4035 2.59059 0 -73.3025 4.68831 0 
-73.4384 6.84241 0 -73.5704 8.92548 0 -73.5547 11.0741 0 
-73.556 13.1864 0 -73.5293 15.3281 0 -73.2928 17.4714 0 
-73.2217 19.6628 0 -73.3884 21.8517 0 -73.4757 24.0956 0 
-73.5091 26.3577 0 -73.456 28.4622 0 -73.3244 30.6409 0 
-73.2314 32.9038 0 -73.1707 35.0901 0 -73.2093 37.332 0 
-73.244 39.5649 0 -73.2805 41.834 0 -73.2343 44.0965 0 
-73.3961 46.4071 0 -73.4477 48.671 0 -73.4991 51.0121 0 
-73.6902 53.3242 0 -32.0236 4.64757 0 -63.577 14.1983 0 
-21.3763 52.3276 0 -21.583 50.2891 0 -21.6742 48.1017 0 
-21.8447 45.8719 0 -21.9782 43.5685 0 -22.0115 41.4728 0 
-22.077 39.274 0 -22.1398 36.9788 0 -22.1502 34.8301 0 
-22.111 32.6855 0 -22.0884 30.5372 0 -22.0219 28.3091 0 
-21.9679 26.2212 0 -21.8854 24.0227 0 -21.8145 21.9427 0 
-21.7288 19.7462 0 -21.6041 17.6732 0 -21.5159 15.5352 0 
-21.6774 13.27 0 -21.8669 11.1968 0 -21.7855 9.02209 0 
-21.867 6.74477 0 -22.0127 4.62238 0 -21.7796 2.43643 0 
-21.677 0.227287 0 -21.8913 -1.97907 0 -21.9301 -4.21037 0 
-21.938 -6.38365 0 -21.9061 -8.58416 0 -21.9341 -10.8937 0 
-21.9312 -13.1086 0 -21.9166 -15.2991 0 -21.9474 -17.3688 0 
-22.0013 -19.6194 0 -22.0146 -21.7925 0 -21.9937 -24.0018 0 
-21.8937 -26.3027 0 -21.7683 -28.3725 0 -21.5402 -30.4245 0 
-21.391 -32.6255 0 -21.5234 -34.7589 0 -21.5215 -37.0251 0 
-32.2017 14.4232 0 -26.2864 -36.5746 0 -23.7392 -36.3488 0 
-28.5883 -36.3907 0 -30.7449 -36.3377 0 -32.8953 -36.3811 0 
-35.1844 -36.3941 0 -37.3018 -36.3169 0 -39.4349 -36.2645 0 
-41.6574 -36.1962 0 -43.79 -36.2305 0 -45.9702 -36.314 0 
-48.0934 -36.3976 0 -50.1889 -36.379 0 -52.3385 -36.389 0 
-54.4774 -36.3052 0 -56.5317 -36.2283 0 -58.6788 -36.3469 0 
-60.8476 -36.4462 0 -63.0099 -36.5172 0 -65.2132 -36.5044 0 
-67.5663 -36.3245 0 -69.7531 -36.2719 0 -71.964 -36.5426 0 
-67.3445 11.8649 0 -61.1867 14.4574 0 -29.0747 11.2975 0 
-58.8035 14.6109 0 -56.4107 14.7332 0 -54.1669 14.6719 0 
-51.9203 14.5767 0 -49.7641 14.4935 0 -47.6336 14.4927 0 
-45.5184 14.5377 0 -43.5016 14.5454 0 -41.2752 14.529 0 
-39.1029 14.5625 0 -36.9378 14.5877 0 -34.6138 14.6465 0 
-63.7072 4.15373 0 -68.045 7.45633 0 -36.6933 4.00103 0 
-38.962 3.87768 0 -41.2975 3.86915 0 -43.4659 3.89806 0 
-45.6385 3.89078 0 -47.7887 3.96642 0 -50.12 3.94081 0 
-52.268 3.94057 0 -54.461 3.94821 0 -56.5295 4.01336 0 
-58.8632 4.02359 0 -61.2476 4.08156 0 -28.634 8.74724 0 
-69.8262 55.3973 0 -66.1249 14.1062 0 -29.4232 4.52142 0 
-27.7352 6.27847 0 -29.6771 13.9319 0 -68.776 9.78129 0 
-66.0021 3.98362 0 -68.1216 4.93351 0 -62.2871 52.9946 0 
-66.7642 53.2933 0 -59.9911 52.9823 0 -57.6665 52.8986 0 
-55.4585 52.6808 0 -53.2794 52.5552 0 -51.0761 52.513 0 
-48.9753 52.5135 0 -46.6785 52.5614 0 -44.47 52.5859 0 
-42.2359 52.6144 0 -40.1216 52.619 0 -37.9897 52.6874 0 
-35.8309 52.6681 0 -33.6596 52.6738 0 -31.572 52.7928 0 
-29.3539 52.9664 0 -27.1483 53.1491 0 -24.9824 53.3897 0 
-22.9361 53.7429 0 -65.2038 1.93092 0 -68.8492 14.2077 0 
-71.4374 -29.2373 0 -62.6326 1.94556 0 -71.3649 -31.7261 0 
-33.0651 2.16492 0 -71.0454 -24.4833 0 -70.743 -22.0945 0 
-70.6238 -19.8244 0 -70.7947 -17.6578 0 -71.4006 -15.6621 0 
-70.8409 -13.6442 0 -70.6367 -11.4846 0 -70.5583 -9.20939 0 
-70.5525 -7.0576 0 -70.5182 -4.86002 0 -70.457 -2.62637 0 
-70.6104 -0.341794 0 -71.3572 1.64789 0 -70.8927 3.67809 0 
-70.8514 8.04932 0 -70.5681 12.0851 0 -70.9511 16.2065 0 
-70.7764 18.4438 0 -70.8741 20.6486 0 -71.171 22.8716 0 
-71.2188 25.1347 0 -71.049 27.3562 0 -70.8347 29.5905 0 
-70.7233 31.777 0 -70.693 34.0761 0 -70.6999 36.2423 0 
-70.7356 38.5145 0 -70.7712 40.8075 0 -70.8159 43.0797 0 
-70.8955 45.3444 0 -71.047 47.6777 0 -71.1574 50.1547 0 
-71.1856 52.9117 0 -26.6293 10.6532 0 -30.8309 2.72928 0 
-23.6745 49.4386 0 -23.9712 47.0652 0 -24.1737 44.6835 0 
-24.2746 42.4994 0 -24.3751 40.2679 0 -24.4732 37.966 0 
-24.4685 35.6706 0 -24.4128 33.5893 0 -24.3491 31.4035 0 
-24.2974 29.2011 0 -24.2009 27.1041 0 -24.1416 24.9075 0 
-24.095 22.5948 0 -24.0407 20.4372 0 -23.7099 18.3264 0 
-23.4775 16.3336 0 -23.3124 14.378 0 -24.3949 12.2981 0 
-24.1076 9.90081 0 -23.7364 7.8382 0 -24.6887 5.69143 0 
-24.2326 3.19236 0 -23.5708 1.14706 0 -24.0049 -0.95461 0 
-24.1103 -3.10264 0 -24.1422 -5.34319 0 -24.1898 -7.59454 0 
-24.2009 -9.88534 0 -24.1546 -12.1944 0 -24.107 -14.3532 0 
-24.091 -16.5113 0 -24.2238 -18.6518 0 -24.2969 -20.8548 0 
-24.2706 -23.1435 0 -24.1954 -25.4859 0 -24.0395 -27.8233 0 
-23.7164 -29.9253 0 -23.0899 -31.7794 0 -23.2993 -33.768 0 
-64.9254 16.1089 0 -27.2466 -34.2114 0 -29.4408 -34.1038 0 
-30.6095 16.6894 0 -27.1905 13.1247 0 -62.6219 16.5743 0 
-64.4357 53.0706 0 -31.6522 -34.0939 0 -33.9248 -34.0632 0 
-36.2128 -34.0368 0 -38.337 -33.9584 0 -40.5434 -33.8542 0 
-42.6733 -33.826 0 -44.7912 -33.8444 0 -46.9412 -33.947 0 
-49.1121 -34.0182 0 -51.2195 -33.9997 0 -53.3849 -33.9512 0 
-55.5237 -33.8463 0 -57.5236 -33.8472 0 -59.7032 -33.9176 0 
-61.9471 -34.0409 0 -64.088 -34.236 0 -66.4546 -34.1249 0 
-68.9887 -33.5904 0 -71.4734 -34.2225 0 -71.3366 -26.8469 0 
-57.7293 16.9844 0 -55.4359 17.0559 0 -53.1815 17.0325 0 
-50.9029 16.961 0 -48.7081 16.778 0 -46.6043 16.8128 0 
-44.6055 16.9363 0 -42.495 16.9646 0 -40.2361 16.8619 0 
-37.9401 16.9129 0 -23.3537 51.5974 0 -37.6164 1.41461 0 
-39.9801 1.30307 0 -42.3504 1.42756 0 -44.5513 1.60219 0 
-46.7095 1.5988 0 -49.0048 1.43029 0 -51.2443 1.40139 0 
-53.4108 1.48309 0 -55.5981 1.53386 0 -57.8026 1.58519 0 
-60.1946 1.68941 0 -60.228 16.8206 0 -35.284 1.70706 0 
-68.8537 53.6599 0 -67.8035 16.7678 0 -68.2864 2.06744 0 
-70.6902 5.85022 0 -71.336 10.0025 0 -71.477 14.1822 0 
-27.7664 16.1711 0 -33.1056 17.0047 0 -26.8367 3.77841 0 
-35.5879 17.0516 0 -28.6808 1.9356 0 -25.1616 -34.6145 0 
-61.4134 50.6895 0 -54.5073 49.9001 0 -52.2703 49.8033 0 
-50.1185 49.8635 0 -47.8363 49.9211 0 -45.5822 49.9881 0 
-43.3407 49.9747 0 -41.1269 49.957 0 -39.0039 50.0058 0 
-36.7745 50.0584 0 -34.5672 50.1249 0 -32.3798 50.2425 0 
-30.2101 50.4124 0 -27.8808 50.6667 0 -25.5626 51.059 0 
-69.1682 -28.1274 0 -64.1096 -0.00853511 0 -68.8168 -25.7882 0 
-69.2688 -30.6963 0 -26.0306 8.06948 0 -67.5428 -20.9374 0 
-68.2278 -23.3488 0 -68.2556 -15.6799 0 -68.0148 -12.8848 0 
-67.8479 -10.5187 0 -67.8633 -8.16719 0 -67.942 -5.95197 0 
-67.6558 -3.47694 0 -67.1106 -0.664448 0 -25.2885 -32.0769 0 
-69.0375 23.9321 0 -68.4089 26.0001 0 -68.1454 28.3041 0 
-68.0426 30.5677 0 -67.9934 32.9322 0 -68.0135 35.1772 0 
-68.0672 37.4205 0 -68.1373 39.745 0 -68.1993 42.0746 0 
-68.2835 44.3481 0 -68.3687 46.6991 0 -68.5223 49.1344 0 
-68.7946 51.5655 0 -68.2338 19.3828 0 -30.9654 0.315799 0 
-26.4013 46.1609 0 -26.6179 43.7479 0 -26.7648 41.4982 0 
-26.8852 39.1107 0 -26.9426 36.7982 0 -26.9283 34.6075 0 
-26.8616 32.3969 0 -26.7996 30.1366 0 -26.6886 27.8984 0 
-26.5733 25.7894 0 -26.5689 23.4789 0 -26.6368 21.0502 0 
-26.1582 18.7252 0 -26.1134 0.914964 0 -26.164 -1.77486 0 
-26.3192 -4.14146 0 -26.6103 -6.45098 0 -26.714 -8.73493 0 
-26.5564 -11.0646 0 -26.505 -13.2584 0 -26.5332 -15.4054 0 
-26.5707 -17.6393 0 -26.7856 -19.8529 0 -26.7867 -22.0996 0 
-26.6669 -24.5214 0 -26.5178 -27.1584 0 -26.0583 -29.5665 0 
-28.8163 19.0378 0 -64.7835 18.6355 0 -27.817 -31.6469 0 
-30.2311 -31.8307 0 -38.5836 -1.37934 0 -37.1828 -31.467 0 
-39.3967 -31.3017 0 -41.5389 -31.2568 0 -43.6539 -31.2369 0 
-45.8701 -31.2415 0 -48.0238 -31.318 0 -50.1422 -31.5076 0 
-52.2966 -31.4831 0 -54.4551 -31.2905 0 -56.4862 -31.151 0 
-58.6879 -31.0869 0 -60.9114 -31.3025 0 -63.089 -31.6225 0 
-65.097 -32.187 0 -59.2894 19.2536 0 -56.7018 19.4391 0 
-56.6626 50.239 0 -61.8802 19.0533 0 -54.4255 19.6245 0 
-52.0157 19.7559 0 -49.7149 19.6028 0 -47.7079 18.9811 0 
-45.7795 19.4756 0 -43.6896 19.5708 0 -41.4837 19.3746 0 
-39.0592 19.3551 0 -58.9491 50.6094 0 -34.8866 -31.6116 0 
-41.1479 -1.44378 0 -43.6033 -1.24562 0 -45.6708 -0.542614 0 
-47.7471 -1.18245 0 -50.1185 -1.31947 0 -52.4519 -1.23717 0 
-54.6527 -0.998797 0 -56.7871 -0.820122 0 -67.5196 -18.3456 0 
-26.024 48.6656 0 -68.5893 21.827 0 -25.4576 14.7667 0 
-32.6237 -31.7885 0 -61.6638 -0.492192 0 -31.5718 19.3739 0 
-66.1587 50.8769 0 -25.3358 16.8961 0 -59.1187 -0.767325 0 
-63.8018 50.632 0 -36.065 -1.08664 0 -67.0613 -31.6789 0 
-36.6987 19.558 0 -33.5672 -0.549887 0 -60.901 21.5371 0 
-53.7081 46.8429 0 -46.7464 47.2793 0 -44.3932 47.3401 0 
-42.219 47.1306 0 -40.0317 47.129 0 -37.8105 47.2691 0 
-35.4419 47.399 0 -33.1233 47.5416 0 -30.9159 47.7753 0 
-28.4481 48.0993 0 -67.3015 -29.4481 0 -28.7565 -28.922 0 
-65.0969 -11.8103 0 -63.8619 -16.7674 0 -65.0326 -9.35962 0 
-65.1873 -7.06136 0 -65.4675 -4.87181 0 -29.558 21.8716 0 
-49.0557 46.9332 0 -51.399 46.8104 0 -65.1643 31.6262 0 
-65.1526 34.0365 0 -65.2251 36.3256 0 -65.332 38.713 0 
-65.4397 41.0564 0 -65.6159 43.3889 0 -65.6875 45.8594 0 
-65.7979 48.3903 0 -65.9844 20.9959 0 -28.2409 -2.86474 0 
-29.4163 40.5737 0 -29.1917 43.0067 0 -28.8837 45.4699 0 
-29.5513 38.1338 0 -29.621 35.6733 0 -29.6465 33.4572 0 
-29.5859 31.0536 0 -29.4352 28.7272 0 -29.1501 26.5694 0 
-28.6602 24.435 0 -33.4745 -29.2218 0 -28.5486 -0.657397 0 
-29.358 -7.53497 0 -29.3478 -9.9909 0 -28.7483 -12.1529 0 
-29.2446 -14.189 0 -28.917 -16.3417 0 -29.5643 -18.5271 0 
-29.5517 -20.8655 0 -29.3832 -23.3437 0 -29.057 -26.0687 0 
-42.504 -28.5441 0 -40.2735 -28.3594 0 -29.0088 -5.01412 0 
-65.2753 29.1712 0 -38.1193 -28.6223 0 -44.7387 -28.4693 0 
-46.9518 -28.2381 0 -49.255 -28.3762 0 -51.2613 -29.1529 0 
-53.2578 -28.692 0 -55.4863 -28.4515 0 -57.6486 -28.1616 0 
-59.9319 -28.2596 0 -62.4363 -28.7883 0 -64.9082 -29.5252 0 
-58.2017 21.7339 0 -55.9515 47.1893 0 -65.3773 26.4898 0 
-55.8456 22.2028 0 -65.424 -14.2321 0 -53.2475 22.6394 0 
-50.5708 22.6896 0 -47.7544 22.1085 0 -45.1212 22.4045 0 
-42.5598 22.2769 0 -40.3038 21.7164 0 -34.2114 19.5364 0 
-39.6941 -4.52869 0 -42.8068 -4.55148 0 -45.7629 -3.70981 0 
-48.7571 -3.94034 0 -51.4407 -4.16593 0 -53.8961 -3.91848 0 
-55.9201 -3.16942 0 -35.7544 -28.996 0 -63.4857 21.4557 0 
-64.1593 -2.57194 0 -66.6154 -27.2835 0 -38.062 22.2159 0 
-66.3372 -25.0153 0 -32.6517 22.0149 0 -31.2552 -29.7306 0 
-58.1442 47.8893 0 -58.0596 -3.46121 0 -62.9303 47.9426 0 
-36.8951 -4.08396 0 -64.1287 -19.8976 0 -64.5014 -22.8831 0 
-30.9989 -2.60916 0 -60.3791 48.6803 0 -65.8945 23.7008 0 
-38.7754 44.1268 0 -36.2992 44.2215 0 -33.8096 44.5826 0 
-31.3946 44.9965 0 -55.0601 25.4604 0 -62.189 -7.91072 0 
-60.7634 -3.08896 0 -61.9573 -10.7124 0 -50.1776 43.5427 0 
-62.247 35.2216 0 -53.0111 43.3733 0 -62.1455 32.7902 0 
-62.2812 40.0572 0 -62.844 42.423 0 -63.0966 44.9784 0 
-32.3571 37.089 0 -62.3971 30.3065 0 -32.1343 39.6573 0 
-31.1579 24.4586 0 -32.479 34.6477 0 -32.5279 32.0712 0 
-32.3773 29.5465 0 -31.8841 26.9971 0 -62.6406 24.4023 0 
-34.1655 -3.45849 0 -62.228 37.6684 0 -47.7743 43.9089 0 
-31.8507 -12.0746 0 -32.2098 -8.78742 0 -32.4276 -15.8291 0 
-32.6146 -19.2924 0 -32.4598 -22.0464 0 -31.934 -24.663 0 
-41.2263 -25.3732 0 -45.8281 -25.1457 0 -31.3198 -27.4025 0 
-43.5728 -26.0117 0 -38.5964 -24.9227 0 -51.4091 -25.7585 0 
-54.0013 -25.9539 0 -56.3673 -25.2538 0 -58.9762 -25.0783 0 
-59.8773 23.7357 0 -62.7932 -5.37708 0 -55.9247 43.2121 0 
-41.1292 44.1067 0 -62.7219 27.5334 0 -57.3851 24.637 0 
-52.2545 26.0745 0 -49.2813 25.9686 0 -46.4136 25.5705 0 
-43.4529 25.4519 0 -35.4741 22.1864 0 -44.607 -7.91794 0 
-47.3585 -6.53704 0 -50.3117 -7.11374 0 -53.2816 -7.18858 0 
-43.3983 44.187 0 -64.1414 -26.4682 0 -45.5671 44.6855 0 
-58.0078 44.9398 0 -33.9303 24.7477 0 -40.2867 24.9856 0 
-59.6869 -15.6553 0 -62.2412 -13.6067 0 -36.4668 -26.4801 0 
-31.8116 42.3281 0 -31.8877 -5.63277 0 -48.4484 -24.8634 0 
-56.3302 -6.28837 0 -37.8911 -7.48064 0 -60.361 -18.9074 0 
-61.1949 -22.1663 0 -61.7594 -25.3975 0 -41.0702 -8.02434 0 
-60.4558 46.3665 0 -34.0591 -26.6689 0 -37.1493 41.2841 0 
-42.403 -11.7556 0 -59.9658 26.2881 0 -48.4147 40.5011 0 
-40.1596 -21.7779 0 -58.943 34.0593 0 -60.6544 43.9637 0 
-59.397 41.8899 0 -35.6193 33.2853 0 -34.9179 38.8503 0 
-35.3311 35.9702 0 -34.826 -6.55066 0 -35.4792 -17.9686 0 
-59.6277 -6.02755 0 -58.5021 31.0748 0 -37.1426 -15.3036 0 
-36.2517 -20.995 0 -35.0578 -23.9869 0 -38.7157 -11.5536 0 
-57.7189 -21.7096 0 -54.0488 -22.4001 0 -34.9356 27.603 0 
-59.5641 36.5034 0 -45.5212 41.0276 0 -35.5068 30.425 0 
-39.8727 40.8434 0 -60.0876 28.7766 0 -58.3976 39.3049 0 
-51.3302 30.391 0 -47.838 29.5182 0 -44.8816 28.594 0 
-41.6385 29.4231 0 -37.049 25.0581 0 -45.7006 -11.8215 0 
-34.4462 41.7454 0 -51.5575 -10.5432 0 -55.4214 -10.4721 0 
-54.7696 39.5926 0 -59.0356 -12.1618 0 -51.6551 40.0288 0 
-35.1739 -9.93628 0 -58.8396 -8.9729 0 -54.6975 29.1072 0 
-56.34 -14.1849 0 -56.3467 -18.0438 0 -57.2841 27.6792 0 
-50.2126 -21.6199 0 -46.4989 -20.9433 0 -43.4092 -22.7922 0 
-48.0954 -9.7371 0 -42.5821 40.6571 0 -34.9721 -13.043 0 
-38.3133 28.252 0 -40.8887 -15.266 0 -56.3563 36.2844 0 
-38.4091 34.9243 0 -55.3118 32.896 0 -48.8491 33.3562 0 
-37.8348 38.0067 0 -49.0332 -17.428 0 -45.0158 -15.7061 0 
-52.7457 35.6673 0 -38.6454 31.6384 0 -38.8895 -18.4329 0 
-52.8666 -14.5209 0 -49.6897 37.1789 0 -43.8072 36.885 0 
-46.7343 36.9447 0 -40.8547 37.3064 0 -52.6419 -18.677 0 
-42.5502 -19.0376 0 -41.692 33.8126 0 -48.7435 -13.4264 0 
-45.0527 32.7398 0 -36.1631 9.35889 0.987323 -59.7312 9.33835 0.996747 
-20.6039 58.4097 1.0148 -17.9106 -40.6492 1 -77.9106 -40.6492 1 
-18.9606 -40.6492 0 -21.1506 -40.6492 0 -23.3706 -40.6492 0 
-25.5906 -40.6492 0 -27.7506 -40.6492 0 -29.9106 -40.6492 0 
-32.0706 -40.6492 0 -34.1406 -40.6492 0 -36.2106 -40.6492 0 
-38.3106 -40.6492 0 -40.5606 -40.6492 0 -42.8406 -40.6492 0 
-45.0006 -40.6492 0 -47.1606 -40.6492 0 -49.3206 -40.6492 0 
-51.4206 -40.6492 0 -53.4906 -40.6492 0 -55.5606 -40.6492 0 
-57.6606 -40.6492 0 -59.8206 -40.6492 0 -61.9806 -40.6492 0 
-64.0806 -40.6492 0 -66.1506 -40.6492 0 -68.1906 -40.6492 0 
-70.2906 -40.6492 0 -72.5406 -40.6492 0 -74.7606 -40.6492 0 
-76.8606 -40.6492 0 -18.9606 -40.6492 2 -21.1806 -40.6492 2 
-23.4006 -40.6492 2 -25.5606 -40.6492 2 -27.8106 -40.6492 2 
-30.0006 -40.6492 2 -32.2506 -40.6492 2 -34.4706 -40.6492 2 
-36.6306 -40.6492 2 -39.0006 -40.6492 2 -41.2806 -40.6492 2 
-43.4706 -40.6492 2 -45.6906 -40.6492 2 -47.8206 -40.6492 2 
-49.9206 -40.6492 2 -52.0806 -40.6492 2 -54.3306 -40.6492 2 
-56.5206 -40.6492 2 -58.7406 -40.6492 2 -60.9606 -40.6492 2 
-63.1206 -40.6492 2 -65.3406 -40.6492 2 -67.5306 -40.6492 2 
-69.8106 -40.6492 2 -72.1206 -40.6492 2 -74.3706 -40.6492 2 
-76.7106 -40.6492 2 -76.7106 59.3508 2 -74.4606 59.3508 2 
-72.3306 59.3508 2 -70.1406 59.3508 2 -68.0106 59.3508 2 
-65.9706 59.3508 2 -63.8706 59.3508 2 -61.7106 59.3508 2 
-59.5806 59.3508 2 -57.5106 59.3508 2 -55.4706 59.3508 2 
-53.2806 59.3508 2 -51.1206 59.3508 2 -49.0206 59.3508 2 
-46.8306 59.3508 2 -44.7006 59.3508 2 -42.5106 59.3508 2 
-40.3806 59.3508 2 -38.2806 59.3508 2 -35.9706 59.3508 2 
-33.7506 59.3508 2 -31.6206 59.3508 2 -29.4606 59.3508 2 
-27.3306 59.3508 2 -25.2306 59.3508 2 -23.1606 59.3508 2 
-21.0006 59.3508 2 -18.9006 59.3508 2 -77.9106 -39.4992 2 
-77.9106 -37.1992 2 -77.9106 -34.9492 2 -77.9106 -32.7492 2 
-77.9106 -30.5492 2 -77.9106 -28.3492 2 -77.9106 -26.0992 2 
-77.9106 -23.8992 2 -77.9106 -21.7992 2 -77.9106 -19.5492 2 
-77.9106 -17.2992 2 -77.9106 -15.1992 2 -77.9106 -13.0992 2 
-77.9106 -10.9492 2 -77.9106 -8.79918 2 -77.9106 -6.54919 2 
-77.9106 -4.24919 2 -77.9106 -1.99919 2 -77.9106 0.150815 2 
-77.9106 2.30081 2 -77.9106 4.45081 2 -77.9106 6.50081 2 
-77.9106 8.65082 2 -77.9106 10.8008 2 -77.9106 12.9008 2 
-77.9106 15.0508 2 -77.9106 17.3008 2 -77.9106 19.4508 2 
-77.9106 21.5008 2 -77.9106 23.6508 2 -77.9106 25.8508 2 
-77.9106 28.0008 2 -77.9106 30.0508 2 -77.9106 32.2508 2 
-77.9106 34.5508 2 -77.9106 36.8508 2 -77.9106 39.1008 2 
-77.9106 41.2008 2 -77.9106 43.3508 2 -77.9106 45.4508 2 
-77.9106 47.5008 2 -77.9106 49.6008 2 -77.9106 51.8008 2 
-77.9106 54.0508 2 -77.9106 56.1508 2 -77.9106 58.2508 2 
-17.9106 58.3008 2 -17.9106 56.1008 2 -17.9106 53.9508 2 
-17.9106 51.8508 2 -17.9106 49.7508 2 -17.9106 47.5508 2 
-17.9106 45.3008 2 -17.9106 43.2008 2 -17.9106 41.0508 2 
-17.9106 38.8008 2 -17.9106 36.5508 2 -17.9106 34.4008 2 
-17.9106 32.2008 2 -17.9106 30.0008 2 -17.9106 27.9508 2 
-17.9106 25.8008 2 -17.9106 23.5508 2 -17.9106 21.4008 2 
-17.9106 19.2008 2 -17.9106 16.9508 2 -17.9106 14.8008 2 
-17.9106 12.6508 2 -17.9106 10.4508 2 -17.9106 8.25082 2 
-17.9106 6.10081 2 -17.9106 3.90082 2 -17.9106 1.70081 2 
-17.9106 -0.499185 2 -17.9106 -2.64918 2 -17.9106 -4.74919 2 
-17.9106 -6.89919 2 -17.9106 -9.09918 2 -17.9106 -11.2992 2 
-17.9106 -13.3992 2 -17.9106 -15.5492 2 -17.9106 -17.8992 2 
-17.9106 -20.1492 2 -17.9106 -22.2492 2 -17.9106 -24.4492 2 
-17.9106 -26.6492 2 -17.9106 -28.8992 2 -17.9106 -31.1492 2 
-17.9106 -33.2492 2 -17.9106 -35.3492 2 -17.9106 -37.4492 2 
-17.9106 -39.5492 2 -61.8616 10.3513 2 -59.7766 10.3513 2 
-57.6766 10.3513 2 -55.5616 10.3513 2 -53.4916 10.3513 2 
-51.4066 10.3513 2 -49.1716 10.3513 2 -46.9066 10.3513 2 
-44.7916 10.3513 2 -42.7516 10.3513 2 -40.6216 10.3513 2 
-38.4766 10.3513 2 -36.2266 10.3513 2 -33.9616 10.3513 2 
-32.9116 9.35126 2 -34.0216 8.35126 2 -36.1516 8.35126 2 
-38.2366 8.35126 2 -40.4566 8.35126 2 -42.6166 8.35126 2 
-44.7466 8.35126 2 -46.9366 8.35126 2 -49.0666 8.35126 2 
-51.2716 8.35126 2 -53.4316 8.35126 2 -55.5766 8.35126 2 
-57.7516 8.35126 2 -59.8366 8.35126 2 -61.8916 8.35126 2 
-62.9116 9.35126 2 -76.8306 59.3508 0 -74.6706 59.3508 0 
-72.5406 59.3508 0 -70.4706 59.3508 0 -68.4006 59.3508 0 
-66.3306 59.3508 0 -64.2006 59.3508 0 -62.0406 59.3508 0 
-59.9406 59.3508 0 -57.6606 59.3508 0 -55.2906 59.3508 0 
-53.1006 59.3508 0 -51.0306 59.3508 0 -48.8406 59.3508 0 
-46.6206 59.3508 0 -44.5206 59.3508 0 -42.4206 59.3508 0 
-40.2906 59.3508 0 -38.1606 59.3508 0 -36.0006 59.3508 0 
-33.8406 59.3508 0 -31.7106 59.3508 0 -29.6106 59.3508 0 
-27.5106 59.3508 0 -25.4106 59.3508 0 -23.3106 59.3508 0 
-21.0906 59.3508 0 -18.9306 59.3508 0 -77.9106 -39.5992 0 
-77.9106 -37.4992 0 -77.9106 -35.3992 0 -77.9106 -33.2492 0 
-77.9106 -31.0492 0 -77.9106 -28.8992 0 -77.9106 -26.6992 0 
-77.9106 -24.4992 0 -77.9106 -22.2492 0 -77.9106 -19.9992 0 
-77.9106 -17.7992 0 -77.9106 -15.5492 0 -77.9106 -13.3992 0 
-77.9106 -11.2992 0 -77.9106 -9.19919 0 -77.9106 -7.09918 0 
-77.9106 -4.99919 0 -77.9106 -2.94919 0 -77.9106 -0.849185 0 
-77.9106 1.35081 0 -77.9106 3.55081 0 -77.9106 5.75081 0 
-77.9106 7.90082 0 -77.9106 10.0008 0 -77.9106 12.1008 0 
-77.9106 14.2508 0 -77.9106 16.5008 0 -77.9106 18.7008 0 
-77.9106 20.8008 0 -77.9106 23.0508 0 -77.9106 25.3008 0 
-77.9106 27.4008 0 -77.9106 29.5508 0 -77.9106 31.6508 0 
-77.9106 33.8008 0 -77.9106 36.0008 0 -77.9106 38.2508 0 
-77.9106 40.6508 0 -77.9106 42.9008 0 -77.9106 45.0508 0 
-77.9106 47.2508 0 -77.9106 49.4008 0 -77.9106 51.5008 0 
-77.9106 53.7008 0 -77.9106 56.0508 0 -77.9106 58.3008 0 
-17.9106 58.2508 0 -17.9106 55.9508 0 -17.9106 53.6508 0 
-17.9106 51.5008 0 -17.9106 49.4008 0 -17.9106 47.2008 0 
-17.9106 45.0008 0 -17.9106 42.9508 0 -17.9106 40.8508 0 
-17.9106 38.6508 0 -17.9106 36.5508 0 -17.9106 34.3508 0 
-17.9106 32.1008 0 -17.9106 30.0008 0 -17.9106 27.8508 0 
-17.9106 25.7008 0 -17.9106 23.6008 0 -17.9106 21.5008 0 
-17.9106 19.3008 0 -17.9106 17.1008 0 -17.9106 14.9508 0 
-17.9106 12.7508 0 -17.9106 10.5508 0 -17.9106 8.30081 0 
-17.9106 6.10081 0 -17.9106 3.90082 0 -17.9106 1.70081 0 
-17.9106 -0.399185 0 -17.9106 -2.54919 0 -17.9106 -4.84918 0 
-17.9106 -7.04919 0 -17.9106 -9.19919 0 -17.9106 -11.5492 0 
-17.9106 -13.7492 0 -17.9106 -15.7992 0 -17.9106 -17.9992 0 
-17.9106 -20.1492 0 -17.9106 -22.2992 0 -17.9106 -24.4992 0 
-17.9106 -26.5992 0 -17.9106 -28.6992 0 -17.9106 -30.8992 0 
-17.9106 -33.0992 0 -17.9106 -35.2992 0 -17.9106 -37.4492 0 
-17.9106 -39.5492 0 -61.8466 10.3513 0 -59.6416 10.3513 0 
-57.3616 10.3513 0 -55.0966 10.3513 0 -52.8316 10.3513 0 
-50.6416 10.3513 0 -48.5716 10.3513 0 -46.5466 10.3513 0 
-44.4916 10.3513 0 -42.4066 10.3513 0 -40.2316 10.3513 0 
-38.0866 10.3513 0 -36.0166 10.3513 0 -33.9316 10.3513 0 
-32.9116 9.35126 0 -34.0366 8.35126 0 -36.1966 8.35126 0 
-38.2666 8.35126 0 -40.3366 8.35126 0 -42.4066 8.35126 0 
-44.5516 8.35126 0 -46.7566 8.35126 0 -48.9166 8.35126 0 
-51.1516 8.35126 0 -53.3416 8.35126 0 -55.3816 8.35126 0 
-57.4366 8.35126 0 -59.5366 8.35126 0 -61.7566 8.35126 0 
-62.9116 9.35126 0 -17.9106 59.3508 1 -77.9106 59.3508 1 
-62.9116 8.35126 1 -62.9116 10.3513 1 -32.9116 8.35126 1 
-32.9116 10.3513 1 -18.9606 -40.6492 1 -76.8606 -40.6492 1 
-20.0106 -40.6492 1 -21.1506 -40.6492 1 -22.3206 -40.6492 1 
-23.4006 -40.6492 1 -25.5606 -40.6492 1 -24.4506 -40.6492 1 
-26.7006 -40.6492 1 -27.7206 -40.6492 1 -28.8606 -40.6492 1 
-30.0006 -40.6492 1 -31.0506 -40.6492 1 -32.0706 -40.6492 1 
-33.2706 -40.6492 1 -34.3206 -40.6492 1 -35.3406 -40.6492 1 
-36.3606 -40.6492 1 -37.5006 -40.6492 1 -38.5806 -40.6492 1 
-39.8106 -40.6492 1 -40.9806 -40.6492 1 -42.0306 -40.6492 1 
-43.1406 -40.6492 1 -44.2806 -40.6492 1 -45.3306 -40.6492 1 
-46.4106 -40.6492 1 -47.5206 -40.6492 1 -48.5706 -40.6492 1 
-49.6206 -40.6492 1 -50.6706 -40.6492 1 -51.7206 -40.6492 1 
-52.8306 -40.6492 1 -53.8506 -40.6492 1 -54.9906 -40.6492 1 
-56.0406 -40.6492 1 -57.0906 -40.6492 1 -58.1406 -40.6492 1 
-59.3106 -40.6492 1 -60.4206 -40.6492 1 -61.4706 -40.6492 1 
-62.5206 -40.6492 1 -63.6306 -40.6492 1 -64.6806 -40.6492 1 
-65.7906 -40.6492 1 -66.8106 -40.6492 1 -67.8906 -40.6492 1 
-68.9106 -40.6492 1 -70.1106 -40.6492 1 -71.1906 -40.6492 1 
-72.3006 -40.6492 1 -73.4706 -40.6492 1 -74.6106 -40.6492 1 
-75.6606 -40.6492 1 -76.7106 58.2508 2 -75.1865 58.452 2 
-74.1365 58.452 2 -73.0132 58.4996 2 -71.9332 58.4996 2 
-73.739 57.6009 2 -70.7764 58.5008 2 -69.6664 58.5008 2 
-71.459 57.6496 2 -68.6495 58.4123 2 -67.6295 58.4123 2 
-69.2853 57.5622 2 -66.5582 58.3628 2 -65.5382 58.3628 2 
-67.1971 57.4242 2 -64.4888 58.3644 2 -63.4088 58.3644 2 
-65.0764 57.3764 2 -62.2939 58.3539 2 -61.2139 58.3539 2 
-62.912 57.3675 2 -60.1541 58.3377 2 -59.1041 58.3377 2 
-60.7373 57.3408 2 -58.0066 58.3251 2 -56.9866 58.3251 2 
-58.58 57.3121 2 -55.9378 58.3416 2 -54.9178 58.3416 2 
-56.4338 57.316 2 -53.8569 58.3378 2 -52.6869 58.3378 2 
-54.3241 57.3286 2 -51.6278 58.3362 2 -50.6378 58.3362 2 
-52.204 57.3232 2 -49.5657 58.3505 2 -48.4557 58.3505 2 
-50.0728 57.3358 2 -47.3679 58.3561 2 -46.2879 58.3561 2 
-47.913 57.3557 2 -45.2102 58.3511 2 -44.1602 58.3511 2 
-45.7475 57.3563 2 -43.0468 58.3481 2 -41.9068 58.3481 2 
-43.5564 57.3484 2 -40.8822 58.3541 2 -39.8922 58.3541 2 
-41.4184 57.3514 2 -38.7887 58.383 2 -37.6787 58.383 2 
-39.2903 57.3863 2 -36.5564 58.3992 2 -35.3564 58.3992 2 
-37.0645 57.4314 2 -34.2765 58.3933 2 -33.2565 58.3933 2 
-34.8623 57.4416 2 -32.1454 58.3809 2 -31.0354 58.3809 2 
-32.6712 57.4233 2 -29.9585 58.3736 2 -28.9085 58.3736 2 
-30.4833 57.4037 2 -27.8592 58.4026 2 -26.7792 58.4026 2 
-28.357 57.4254 2 -25.7542 58.4452 2 -24.7342 58.4452 2 
-26.2828 57.497 2 -23.773 58.5111 2 -22.723 58.5111 2 
-24.2966 57.6055 2 -21.6919 58.4161 2 -20.5819 58.4161 2 
-22.3043 57.5764 2 -19.6612 58.2601 2 -18.6712 58.2601 2 
-18.6712 57.2101 2 -20.3524 57.3254 2 -76.7106 -39.4992 2 
-76.9437 -37.9903 2 -76.9437 -36.8403 2 -76.9477 -35.606 2 
-76.9477 -34.506 2 -75.9808 -36.3971 2 -76.9428 -33.3722 2 
-76.9428 -32.2722 2 -75.9799 -34.029 2 -76.92 -31.1231 2 
-76.92 -30.0231 2 -75.9521 -31.7461 2 -76.89 -28.9544 2 
-76.89 -27.8544 2 -75.8994 -29.5284 2 -76.8842 -26.74 2 
-76.8842 -25.59 2 -75.8636 -27.3452 2 -76.8522 -24.4402 2 
-76.8522 -23.3902 2 -75.8257 -25.081 2 -76.8219 -22.2909 2 
-76.8219 -21.2409 2 -75.7634 -22.8319 2 -76.8641 -20.1931 2 
-76.8641 -18.9931 2 -75.7754 -20.6848 2 -76.8522 -17.8918 2 
-76.8522 -16.8418 2 -75.8057 -18.5357 2 -76.8464 -15.7216 2 
-76.8464 -14.6716 2 -75.7879 -16.3142 2 -76.8634 -13.5992 2 
-76.8634 -12.5492 2 -75.7991 -14.1216 2 -76.8892 -11.4765 2 
-76.8892 -10.3765 2 -75.8419 -11.9765 2 -76.8786 -9.29335 2 
-76.8786 -8.24335 2 -75.8572 -9.82063 2 -76.8587 -7.12268 2 
-76.8587 -5.92268 2 -75.8267 -7.61684 2 -76.8784 -4.79421 2 
-76.8784 -3.69421 2 -75.8264 -5.3677 2 -76.8917 -2.62644 2 
-76.8917 -1.47644 2 -75.8594 -3.17146 2 -76.8901 -0.385168 2 
-76.8901 0.614833 2 -75.8711 -1.01242 2 -76.8908 1.71824 2 
-76.8908 2.86824 2 -75.8703 1.18225 2 -76.9058 3.92997 2 
-76.9058 4.92997 2 -75.886 3.34739 2 -76.9399 5.97227 2 
-76.9399 7.02227 2 -75.935 5.45143 2 -76.9183 8.06633 2 
-76.9183 9.16633 2 -75.9475 7.53779 2 -76.9234 10.2286 2 
-76.9234 11.2786 2 -75.9311 9.64408 2 -76.9389 12.3654 2 
-76.9389 13.4154 2 -75.9517 11.7931 2 -76.92 14.5429 2 
-76.92 15.6429 2 -75.9483 14.0075 2 -76.9051 16.7221 2 
-76.9051 17.8721 2 -75.9145 16.2142 2 -76.8707 18.9023 2 
-76.8707 19.9023 2 -75.8652 18.3236 2 -76.8751 20.9692 2 
-76.8751 22.0192 2 -75.8352 20.4206 2 -76.8757 23.1046 2 
-76.8757 24.2046 2 -75.8401 22.5729 2 -76.8809 25.2917 2 
-76.8809 26.3917 2 -75.8459 24.7455 2 -76.8632 27.4299 2 
-76.8632 28.4799 2 -75.8335 26.8709 2 -76.8645 29.5877 2 
-76.8645 30.5877 2 -75.8171 29.0169 2 -76.8815 31.6387 2 
-76.8815 32.8387 2 -75.8354 31.1757 2 -76.8822 33.9891 2 
-76.8822 35.0891 2 -75.853 33.3771 2 -76.8977 36.1999 2 
-76.8977 37.3999 2 -75.8692 35.6382 2 -76.869 38.5288 2 
-76.869 39.5788 2 -75.8561 37.8779 2 -76.8601 40.6998 2 
-76.8601 41.7498 2 -75.8185 40.1279 2 -76.8809 42.7688 2 
-76.8809 43.8688 2 -75.8303 42.2678 2 -76.908 44.9388 2 
-76.908 45.9388 2 -75.8782 44.3567 2 -76.9284 46.9911 2 
-76.9284 48.0411 2 -75.9258 46.4791 2 -76.9007 49.1147 2 
-76.9007 50.1647 2 -75.9185 48.605 2 -76.9004 51.2644 2 
-76.9004 52.4143 2 -75.8904 50.7782 2 -76.9189 53.4551 2 
-76.9189 54.5551 2 -75.9087 52.9186 2 -77.0041 55.5356 2 
-77.0041 56.5356 2 -76.0124 54.9399 2 -36.0466 10.3513 1 
-37.2616 10.3513 1 -18.6712 56.0601 2 -18.6964 54.2354 2 
-18.6964 53.2354 2 -38.2666 10.3513 1 -39.3016 10.3513 1 
-18.7627 52.3337 2 -18.7627 51.2337 2 -19.5485 52.6184 2 
-18.8132 50.1588 2 -18.8132 49.1588 2 -19.6653 50.6418 2 
-18.8531 48.0699 2 -18.8531 46.8699 2 -19.7556 48.4779 2 
-18.8776 45.7356 2 -18.8776 44.6856 2 -19.8201 46.2547 2 
-18.9173 43.5812 2 -18.9173 42.5312 2 -19.8843 44.016 2 
-18.9218 41.4558 2 -18.9218 40.3558 2 -19.9285 41.8363 2 
-18.9049 39.2381 2 -18.9049 38.0881 2 -19.9161 39.6432 2 
-18.9044 36.9848 2 -18.9044 35.8848 2 -19.8987 37.4221 2 
-18.9064 34.7836 2 -18.9064 33.7336 2 -19.9002 35.2176 2 
-18.8949 32.6325 2 -18.8949 31.4825 2 -19.8906 33.0153 2 
-18.8954 30.4305 2 -18.8954 29.3805 2 -19.8796 30.8622 2 
-18.8972 28.305 2 -18.8972 27.305 2 -19.8819 28.7346 2 
-18.8836 26.188 2 -18.8836 25.038 2 -19.8701 26.5422 2 
-18.8905 23.9418 2 -18.8905 22.8418 2 -19.8634 24.3291 2 
-18.8637 21.7958 2 -18.8637 20.7458 2 -19.8435 22.1868 2 
-18.8675 19.6004 2 -18.8675 18.4504 2 -19.8206 19.9954 2 
-18.8674 17.3679 2 -18.8674 16.2679 2 -19.8242 17.7675 2 
-18.9212 15.1635 2 -18.9212 14.1135 2 -19.8779 15.5805 2 
-18.9088 13.0213 2 -18.9088 11.9213 2 -19.9193 13.384 2 
-18.8809 10.8246 2 -18.8809 9.72461 2 -19.879 11.1951 2 
-18.8518 8.66669 2 -18.8518 7.56669 2 -19.8221 9.04048 2 
-18.8359 6.49377 2 -18.8359 5.44377 2 -19.7771 6.90965 2 
-18.8632 4.29859 2 -18.8632 3.14859 2 -19.7885 4.69155 2 
-18.8373 2.09936 2 -18.8373 1.04936 2 -19.7899 2.49714 2 
-18.8436 -0.0748164 2 -18.8436 -1.22482 2 -19.7702 0.323729 2 
-18.8601 -2.30992 2 -18.8601 -3.30992 2 -19.793 -1.88555 2 
-18.8591 -4.3896 2 -18.8591 -5.4896 2 -19.8085 -4.05033 2 
-18.8767 -6.53818 2 -18.8767 -7.58818 2 -19.8251 -6.17859 2 
-18.9013 -8.67747 2 -18.9013 -9.82747 2 -19.8673 -8.31646 2 
-18.9045 -10.9603 2 -18.9045 -12.0103 2 -19.8951 -10.5385 2 
-18.8896 -13.0566 2 -18.8896 -14.1066 2 -19.8834 -12.7177 2 
-18.8872 -15.2417 2 -18.8872 -16.3417 2 -19.8661 -14.8992 2 
-18.9019 -17.4651 2 -18.9019 -18.7151 2 -19.8785 -17.1576 2 
-18.9097 -19.7857 2 -18.9097 -20.7857 2 -19.901 -19.3516 2 
-18.8996 -21.8984 2 -18.8996 -22.9984 2 -19.8987 -21.5349 2 
-18.87 -24.0673 2 -18.87 -25.1673 2 -19.859 -23.7165 2 
-18.853 -26.2593 2 -18.853 -27.3593 2 -19.8124 -25.8774 2 
-18.8555 -28.4994 2 -18.8555 -29.6494 2 -19.7979 -28.1095 2 
-18.8269 -30.694 2 -18.8269 -31.794 2 -19.7718 -30.2943 2 
-18.7962 -32.8751 2 -18.7962 -33.8751 2 -19.7125 -32.4199 2 
-18.7908 -34.9509 2 -18.7908 -36.0509 2 -19.6763 -34.5768 2 
-18.7651 -37.1504 2 -18.7651 -38.1504 2 -19.6453 -36.7522 2 
-18.9606 -39.5492 2 -20.6655 -39.8364 2 -21.8355 -39.8364 2 
-22.8015 -39.729 2 -23.8515 -39.729 2 -22.2863 -38.9162 2 
-24.9274 -39.7211 2 -26.0374 -39.7211 2 -24.3282 -38.8008 2 
-27.1953 -39.7285 2 -28.3353 -39.7285 2 -26.562 -38.8004 2 
-29.4238 -39.6645 2 -30.4738 -39.6645 2 -28.8084 -38.7439 2 
-31.5682 -39.6377 2 -32.7682 -39.6377 2 -30.9914 -38.653 2 
-33.9186 -39.6274 2 -34.9386 -39.6274 2 -33.2362 -38.6159 2 
-36.0655 -39.6296 2 -37.2055 -39.6296 2 -35.5135 -38.6079 2 
-38.364 -39.63 2 -39.594 -39.63 2 -37.7989 -38.6104 2 
-40.6806 -39.6253 2 -41.7306 -39.6253 2 -40.044 -38.6061 2 
-42.8497 -39.6342 2 -43.9897 -39.6342 2 -42.2497 -38.6103 2 
-45.1191 -39.6516 2 -46.1991 -39.6516 2 -44.4981 -38.6367 2 
-47.2563 -39.6423 2 -48.3063 -39.6423 2 -46.6847 -38.6448 2 
-49.4034 -39.6267 2 -50.4534 -39.6267 2 -48.8391 -38.6198 2 
-51.5057 -39.633 2 -52.6157 -39.633 2 -50.9885 -38.6105 2 
-53.7375 -39.6393 2 -54.8775 -39.6393 2 -53.1626 -38.6231 2 
-55.9941 -39.65 2 -57.0441 -39.65 2 -55.401 -38.6401 2 
-58.1717 -39.6581 2 -59.3417 -39.6581 2 -57.6452 -38.6589 2 
-60.4176 -39.6652 2 -61.4676 -39.6652 2 -59.8487 -38.6741 2 
-62.6125 -39.6638 2 -63.7225 -39.6638 2 -62.0695 -38.6798 2 
-64.8127 -39.6764 2 -65.9227 -39.6764 2 -64.3046 -38.691 2 
-67.0038 -39.6801 2 -68.0838 -39.6801 2 -66.4758 -38.7072 2 
-69.2341 -39.6963 2 -70.4341 -39.6963 2 -68.7072 -38.7272 2 
-71.5946 -39.7268 2 -72.7046 -39.7268 2 -71.0181 -38.7739 2 
-73.7051 -39.7754 2 -74.8451 -39.7754 2 -73.1791 -38.853 2 
-61.4471 11.2707 2 -62.4971 11.2707 2 -59.3339 11.3125 2 
-60.3689 11.3125 2 -61.0044 12.232 2 -57.1967 11.3211 2 
-58.2617 11.3211 2 -58.854 12.2823 2 -55.0408 11.3409 2 
-56.0908 11.3409 2 -56.6759 12.3107 2 -52.9428 11.3777 2 
-53.9628 11.3777 2 -54.4919 12.3674 2 -50.8513 11.3644 2 
-51.9163 11.3644 2 -52.3875 12.3909 2 -48.5738 11.358 2 
-49.7438 11.358 2 -50.2536 12.3712 2 -46.3698 11.3868 2 
-47.4648 11.3868 2 -48.0371 12.3936 2 -44.2606 11.3968 2 
-45.2806 11.3968 2 -45.8388 12.4324 2 -42.1631 11.3846 2 
-43.1831 11.3846 2 -43.6721 12.4302 2 -40.0078 11.3718 2 
-41.1178 11.3718 2 -41.5493 12.4052 2 -37.8453 11.3701 2 
-38.8803 11.3701 2 -39.3764 12.3906 2 -35.4868 11.3591 2 
-36.7018 11.3591 2 -37.1055 12.3779 2 -33.2244 11.2647 2 
-34.2744 11.2647 2 -34.7496 12.2725 2 -31.9563 8.87762 2 
-31.9563 9.87762 2 -34.3789 7.39215 2 -33.2689 7.39215 2 
-36.5419 7.30695 2 -35.5219 7.30695 2 -34.7692 6.34784 2 
-38.7267 7.28134 2 -37.6617 7.28134 2 -37.032 6.23704 2 
-40.9642 7.29273 2 -39.8092 7.29273 2 -39.2343 6.22282 2 
-43.1033 7.32764 2 -42.0983 7.32764 2 -41.4509 6.26911 2 
-45.3412 7.33395 2 -44.2162 7.33395 2 -43.6979 6.31033 2 
-47.4807 7.33802 2 -46.4157 7.33802 2 -45.8853 6.32071 2 
-49.6065 7.32564 2 -48.5415 7.32564 2 -48.0206 6.3124 2 
-51.8713 7.31115 2 -50.7313 7.31115 2 -50.2061 6.28554 2 
-53.968 7.30452 2 -52.948 7.30452 2 -52.4077 6.26442 2 
-56.2285 7.29037 2 -55.1035 7.29037 2 -54.6199 6.24363 2 
-58.4105 7.30001 2 -57.3605 7.30001 2 -56.8875 6.23912 2 
-60.5327 7.34143 2 -59.4977 7.34143 2 -59.1066 6.29018 2 
-62.6709 7.44472 2 -61.6509 7.44472 2 -61.312 6.43489 2 
-63.8208 9.90488 2 -63.8208 8.90488 2 -76.3865 57.352 2 
-75.7437 -39.1403 2 -63.2105 11.9742 2 -63.6251 11.0547 2 
-19.8151 -39.2504 2 -31.1699 10.5146 2 -32.1252 10.9883 2 
-32.438 11.9017 2 -32.0012 7.59817 2 -31.0459 8.12453 2 
-32.3585 6.63906 2 -64.7009 8.36038 2 -63.7917 7.80675 2 
-63.551 6.90022 2 -64.5342 10.6083 2 -20.4699 -38.4377 2 
-75.0782 -38.2665 2 -62.8335 13.079 2 -63.9615 12.863 2 
-72.1096 56.8686 2 -70.9529 56.8697 2 -69.9301 56.6632 2 
-68.9132 56.5747 2 -70.5808 55.8822 2 -67.8809 56.4461 2 
-66.8096 56.3967 2 -68.5257 55.5471 2 -65.7314 56.3276 2 
-64.682 56.3292 2 -66.4152 55.3494 2 -63.5465 56.2936 2 
-62.4316 56.2831 2 -64.2015 55.2448 2 -61.314 56.3005 2 
-60.2542 56.2844 2 -61.9484 55.2267 2 -59.1367 56.2958 2 
-58.0391 56.2832 2 -59.7133 55.2555 2 -56.9256 56.2647 2 
-55.8768 56.2812 2 -57.4822 55.2484 2 -54.8372 56.284 2 
-53.7762 56.2802 2 -55.3289 55.2328 2 -52.7268 56.293 2 
-51.6676 56.2914 2 -53.2398 55.2484 2 -50.628 56.3107 2 
-49.5559 56.325 2 -51.1507 55.2805 2 -48.4689 56.3081 2 
-47.3811 56.3137 2 -49.024 55.283 2 -46.2718 56.3277 2 
-45.1941 56.3227 2 -46.8278 55.2801 2 -44.0865 56.2866 2 
-42.9731 56.2837 2 -44.6108 55.258 2 -41.9188 56.3146 2 
-40.8942 56.3205 2 -42.4489 55.2528 2 -39.8626 56.3451 2 
-38.7591 56.3741 2 -40.363 55.3083 2 -37.5809 56.3943 2 
-36.4586 56.4104 2 -38.1532 55.3531 2 -35.3618 56.3921 2 
-34.2818 56.3862 2 -35.8782 55.355 2 -33.1858 56.3631 2 
-32.0748 56.3507 2 -33.6854 55.3136 2 -30.968 56.3569 2 
-29.8911 56.3496 2 -31.4826 55.2966 2 -28.8199 56.3734 2 
-27.7706 56.4023 2 -29.3046 55.3266 2 -26.7534 56.4752 2 
-25.7284 56.5178 2 -27.2162 55.4232 2 -24.764 56.6194 2 
-23.8027 56.6854 2 -25.2346 55.5977 2 -22.8758 56.8045 2 
-21.8447 56.7094 2 -23.3432 55.8184 2 -56.1272 13.361 2 
-57.2331 13.3412 2 -20.6096 -37.4645 2 -21.4599 -38.0505 2 
-20.6353 -36.365 2 -75.4799 56.7369 2 -75.0268 -34.6472 2 
-75.0219 -33.5135 2 -74.9379 -32.3462 2 -74.9151 -31.1972 2 
-73.9849 -32.9645 2 -74.8441 -30.1009 2 -74.8142 -29.0322 2 
-73.8299 -30.701 2 -74.7535 -27.9721 2 -74.7477 -26.8576 2 
-73.6983 -28.5446 2 -74.725 -25.6847 2 -74.693 -24.5349 2 
-73.615 -26.3116 2 -74.6867 -23.3742 2 -74.6565 -22.2749 2 
-73.586 -23.9779 2 -74.662 -21.2159 2 -74.7043 -20.1681 2 
-73.5853 -21.7581 2 -74.7062 -19.0997 2 -74.6943 -17.9985 2 
-73.5929 -19.6309 2 -74.6926 -16.8969 2 -74.6867 -15.7767 2 
-73.5931 -17.461 2 -74.708 -14.6362 2 -74.7251 -13.5638 2 
-73.6127 -15.2189 2 -74.7025 -12.5307 2 -74.7284 -11.458 2 
-73.6115 -13.0453 2 -74.759 -10.334 2 -74.7485 -9.25091 2 
-73.6196 -10.8883 2 -74.7782 -8.16499 2 -74.7582 -7.04432 2 
-73.6801 -8.67839 2 -74.7661 -5.90453 2 -74.7858 -4.77606 2 
-73.7177 -6.45268 2 -74.7956 -3.71522 2 -74.8089 -2.64745 2 
-73.7353 -4.25205 2 -74.7865 -1.55992 2 -74.785 -0.468646 2 
-73.7227 -2.10367 2 -74.7962 0.663729 2 -74.7969 1.76713 2 
-73.7116 0.116233 2 -74.8769 2.82102 2 -74.8919 3.88276 2 
-73.8028 2.3025 2 -74.878 4.89644 2 -74.9121 5.93874 2 
-73.8689 4.37007 2 -74.8377 6.98374 2 -74.8161 8.0278 2 
-73.7806 6.42875 2 -74.8331 9.07743 2 -74.8382 10.1397 2 
-73.7232 8.52338 2 -74.8869 11.2204 2 -74.9023 12.3072 2 
-73.7888 10.6537 2 -74.8735 13.4324 2 -74.8546 14.5599 2 
-73.8087 12.8597 2 -74.8257 15.6539 2 -74.8108 16.7331 2 
-73.7509 15.0788 2 -74.8277 17.7933 2 -74.7933 18.8235 2 
-73.7389 17.233 2 -74.8121 19.8757 2 -74.8165 20.9426 2 
-73.7746 19.3454 2 -74.7814 22 2 -74.7819 23.0854 2 
-73.7583 21.4551 2 -74.7405 24.1696 2 -74.7457 25.2568 2 
-73.6817 23.5967 2 -74.7303 26.3265 2 -74.7126 27.3647 2 
-73.6249 25.7506 2 -74.7267 28.459 2 -74.728 29.5668 2 
-73.6236 27.9146 2 -74.7572 30.6534 2 -74.7742 31.7044 2 
-73.6669 30.0955 2 -74.7603 32.7953 2 -74.7609 33.9457 2 
-73.6821 32.2731 2 -74.7581 35.0459 2 -74.7736 36.1567 2 
-73.6653 34.4641 2 -74.7465 37.3028 2 -74.7178 38.4317 2 
-73.6353 36.7105 2 -74.6863 39.5651 2 -74.6773 40.6861 2 
-73.5766 38.99 2 -74.7126 41.7588 2 -74.7334 42.7777 2 
-73.5804 41.196 2 -74.7652 43.7957 2 -74.7923 44.8657 2 
-73.6475 43.2867 2 -74.8555 45.9558 2 -74.876 47.0081 2 
-73.7425 45.3948 2 -74.8813 48.0899 2 -74.8536 49.1635 2 
-73.8111 47.5666 2 -74.8335 50.2607 2 -74.8331 51.3603 2 
-73.7962 49.7456 2 -74.8378 52.4605 2 -74.8564 53.5012 2 
-73.7808 51.9429 2 -74.897 54.7196 2 -74.9821 55.7002 2 
-73.8261 54.2615 2 -29.9306 7.63011 2 -29.8857 8.90957 2 
-74.8744 -37.1619 2 -74.8783 -35.9275 2 -73.9204 -35.412 2 
-20.3664 53.1705 2 -20.4327 52.2688 2 -20.5744 51.1969 2 
-20.6248 50.122 2 -21.3923 51.749 2 -20.7532 48.9993 2 
-20.7931 47.9104 2 -21.6623 49.5545 2 -20.8709 46.7579 2 
-20.8954 45.6236 2 -21.8685 47.2794 2 -20.9282 44.4515 2 
-20.9679 43.3472 2 -21.9791 44.9548 2 -20.9742 42.2848 2 
-20.9787 41.2094 2 -22.0182 42.7203 2 -20.976 40.0645 2 
-20.9591 38.9468 2 -22.0217 40.513 2 -20.9552 37.8252 2 
-20.9547 36.7219 2 -22.0151 38.2465 2 -20.9293 35.6556 2 
-20.9312 34.5544 2 -21.9858 36.0587 2 -20.9445 33.4523 2 
-20.9329 32.3513 2 -21.9735 33.8904 2 -20.9044 31.2699 2 
-20.9049 30.2178 2 -21.9582 31.7069 2 -20.864 29.1395 2 
-20.8658 28.064 2 -21.8887 29.5472 2 -20.859 26.9767 2 
-20.8454 25.8597 2 -21.8411 27.3815 2 -20.8555 24.7116 2 
-20.8623 23.6154 2 -21.8444 25.1461 2 -20.8823 22.5617 2 
-20.8556 21.5157 2 -21.8743 22.9443 2 -20.8431 20.4065 2 
-20.8469 19.2612 2 -21.8819 20.7814 2 -20.8564 18.1534 2 
-20.8562 17.0709 2 -21.8789 18.5645 2 -20.9429 15.9675 2 
-20.9968 14.8631 2 -21.9751 16.3534 2 -20.981 13.7945 2 
-20.9685 12.7023 2 -22.0459 14.1814 2 -20.9188 11.5701 2 
-20.8909 10.4734 2 -21.9804 11.9806 2 -20.7937 9.43989 2 
-20.7646 8.38197 2 -21.8334 9.81486 2 -20.7515 7.2738 2 
-20.7357 6.20088 2 -21.7232 7.67321 2 -20.8155 5.11538 2 
-20.8428 3.9702 2 -21.7899 5.47954 2 -20.8184 2.88399 2 
-20.7924 1.83476 2 -21.8453 3.30783 2 -20.7291 0.74056 2 
-20.7354 -0.383617 2 -21.7576 1.12742 2 -20.7154 -1.49826 2 
-20.7319 -2.58336 2 -21.6743 -1.08143 2 -20.7902 -3.65349 2 
-20.7892 -4.73317 2 -21.7126 -3.26621 2 -20.8433 -5.79922 2 
-20.8608 -6.8478 2 -21.8249 -5.40238 2 -20.8928 -7.92263 2 
-20.9174 -9.01192 2 -21.9109 -7.54326 2 -20.9327 -10.1402 2 
-20.9359 -11.273 2 -21.9582 -9.7464 2 -20.9466 -12.3835 2 
-20.9317 -13.4298 2 -21.9842 -11.9851 2 -20.9406 -14.5398 2 
-20.9382 -15.6749 2 -22.0037 -14.2055 2 -20.9276 -16.7805 2 
-20.9423 -17.9038 2 -22.002 -16.4211 2 -20.9487 -19.0103 2 
-20.9564 -20.0809 2 -21.9978 -18.6332 2 -20.9322 -21.1742 2 
-20.9221 -22.2869 2 -21.9799 -20.833 2 -20.8964 -23.3732 2 
-20.8667 -24.4421 2 -21.9299 -23.0126 2 -20.8499 -25.4954 2 
-20.833 -26.5874 2 -21.8873 -25.1521 2 -20.8302 -27.7194 2 
-20.8327 -28.8596 2 -21.8677 -27.3374 2 -20.7685 -29.9081 2 
-20.7399 -30.9527 2 -21.8008 -29.518 2 -20.6915 -32.0236 2 
-20.6607 -33.1046 2 -21.6882 -31.6374 2 -20.6477 -34.2168 2 
-20.6423 -35.2926 2 -21.6067 -36.005 2 -21.6267 -33.8204 2 
-74.3645 56.5166 2 -22.426 -37.943 2 -73.9757 -37.7969 2 
-23.5359 -37.7317 2 -24.6118 -37.7238 2 -25.9089 -37.8535 2 
-27.0668 -37.861 2 -25.1166 -36.7844 2 -28.172 -37.7495 2 
-29.2605 -37.6855 2 -27.5189 -36.8026 2 -30.3895 -37.5847 2 
-31.4839 -37.5579 2 -29.7531 -36.5903 2 -32.5735 -37.4733 2 
-33.7238 -37.463 2 -31.9716 -36.405 2 -34.8757 -37.4775 2 
-36.0027 -37.4796 2 -34.2131 -36.3348 2 -37.1871 -37.4749 2 
-38.3456 -37.4753 2 -36.5494 -36.3445 2 -39.4717 -37.4899 2 
-40.5584 -37.4852 2 -38.86 -36.3544 2 -41.6262 -37.4885 2 
-42.7453 -37.4974 2 -41.0539 -36.3723 2 -43.9037 -37.516 2 
-45.0331 -37.5335 2 -43.2802 -36.3942 2 -46.1427 -37.5442 2 
-47.2 -37.5349 2 -45.5483 -36.4235 2 -48.2628 -37.5253 2 
-49.3599 -37.5096 2 -47.7208 -36.4246 2 -50.4467 -37.5393 2 
-51.499 -37.5456 2 -49.8705 -36.4447 2 -52.5846 -37.53 2 
-53.7064 -37.5363 2 -52.0428 -36.4588 2 -54.8345 -37.5473 2 
-55.9512 -37.558 2 -54.2565 -36.4542 2 -57.0748 -37.5823 2 
-58.2024 -37.5904 2 -56.5083 -36.4895 2 -59.2987 -37.5971 2 
-60.3745 -37.6041 2 -58.7282 -36.5205 2 -61.5119 -37.623 2 
-62.6568 -37.6217 2 -60.9619 -36.546 2 -63.8024 -37.6385 2 
-64.8926 -37.651 2 -63.2448 -36.5816 2 -65.9886 -37.6556 2 
-67.0697 -37.6592 2 -65.4864 -36.603 2 -68.1705 -37.6987 2 
-69.3208 -37.715 2 -67.6833 -36.647 2 -70.4982 -37.8102 2 
-71.6587 -37.8406 2 -69.9614 -36.7817 2 -72.9753 -37.7484 2 
-58.366 13.3142 2 -59.4382 13.3056 2 -57.8173 14.3645 2 
-30.016 10.1335 2 -30.1848 11.2442 2 -28.9007 9.63913 2 
-60.5331 13.2591 2 -61.6112 13.2174 2 -62.3622 14.1061 2 
-60.045 14.291 2 -53.9495 13.4355 2 -55.0275 13.3986 2 
-55.5847 14.4291 2 -51.8883 13.4679 2 -52.9147 13.4812 2 
-53.4503 14.5125 2 -49.7054 13.4762 2 -50.8129 13.4826 2 
-51.3402 14.5729 2 -47.4468 13.4974 2 -48.5558 13.4686 2 
-49.1152 14.58 2 -45.2434 13.4904 2 -46.3326 13.4804 2 
-46.8513 14.5554 2 -43.1072 13.4845 2 -44.1847 13.4966 2 
-44.6784 14.5447 2 -40.9938 13.4567 2 -42.0392 13.4695 2 
-42.5518 14.5359 2 -38.7157 13.4614 2 -39.8432 13.4632 2 
-40.3331 14.5275 2 -36.4299 13.4305 2 -37.5733 13.4415 2 
-38.0401 14.514 2 -33.9889 13.2574 2 -35.2014 13.3519 2 
-35.6692 14.4154 2 -31.6518 12.7972 2 -32.751 13.0735 2 
-33.2027 14.1529 2 -65.4592 11.3139 2 -65.6549 10.164 2 
-32.9466 5.54921 2 -31.6788 5.75522 2 -65.7166 8.90196 2 
-65.6876 7.80383 2 -35.1899 5.14014 2 -34.0469 5.22534 2 
-41.9887 5.11429 2 -40.8546 5.07938 2 -44.2266 5.19795 2 
-43.1138 5.19164 2 -42.5174 4.00191 2 -46.4428 5.22839 2 
-45.3683 5.22432 2 -44.7842 4.10563 2 -48.5672 5.16888 2 
-47.5065 5.18126 2 -46.9895 4.08487 2 -50.7689 5.10176 2 
-49.6441 5.11625 2 -49.13 3.9851 2 -52.9722 5.07252 2 
-51.8955 5.07915 2 -51.3335 3.90986 2 -55.2467 5.05086 2 
-54.1112 5.06501 2 -53.599 3.87974 2 -57.5876 5.06638 2 
-56.4556 5.05674 2 -55.9468 3.87811 2 -59.8245 5.1602 2 
-58.7374 5.11878 2 -58.3055 3.93639 2 -62.1432 5.40804 2 
-61.0249 5.30475 2 -60.6557 4.13334 2 -64.5017 6.11094 2 
-63.3809 5.74891 2 -73.2412 56.5642 2 -37.4969 5.03693 2 
-36.3772 5.06253 2 -35.6548 3.94003 2 -39.7477 5.06646 2 
-38.6652 5.05508 2 -38.0103 3.88058 2 -40.2855 3.91164 2 
-29.1357 12.08 2 -30.2896 12.4611 2 -20.9256 56.2931 2 
-20.0049 56.1372 2 -19.2444 55.0279 2 -21.4972 55.5212 2 
-22.7095 -36.866 2 -29.8269 6.47542 2 -28.6667 7.26046 2 
-20.0301 54.3125 2 -64.8682 13.7664 2 -65.2452 12.6616 2 
-72.7351 55.7843 2 -72.4553 -36.7846 2 -66.6416 9.60747 2 
-33.3672 4.34151 2 -30.6027 13.6329 2 -66.3659 12.2172 2 
-31.135 4.35461 2 -30.5469 5.44446 2 -29.283 5.07481 2 
-66.7105 7.1315 2 -65.6948 6.58992 2 -63.0938 4.61877 2 
-65.5246 5.43862 2 -20.9144 53.9629 2 -50.7796 15.7372 2 
-51.855 15.7226 2 -22.7166 -35.7936 2 -69.3284 54.5831 2 
-68.2961 54.4546 2 -67.1362 54.2973 2 -66.058 54.2282 2 
-67.9389 53.3333 2 -64.9127 54.1767 2 -63.7772 54.1411 2 
-65.6336 53.1245 2 -62.5788 54.077 2 -61.4612 54.0944 2 
-63.2899 53.0089 2 -60.315 54.0678 2 -59.1975 54.0792 2 
-60.9453 52.9182 2 -58.0329 54.1051 2 -56.9193 54.0866 2 
-58.6345 52.9174 2 -55.8431 54.1341 2 -54.8035 54.1369 2 
-56.3938 52.9908 2 -53.7719 54.1447 2 -52.7224 54.1575 2 
-54.2861 53.0461 2 -51.6903 54.1776 2 -50.6506 54.197 2 
-52.2223 53.074 2 -49.5496 54.1635 2 -48.4626 54.1465 2 
-50.0892 53.0606 2 -47.3733 54.0852 2 -46.264 54.0993 2 
-47.8988 52.9658 2 -45.133 54.0819 2 -44.0253 54.0458 2 
-45.6785 52.8871 2 -43.001 54.0728 2 -41.9467 54.1037 2 
-43.5232 52.8967 2 -40.8587 54.1536 2 -39.8272 54.1782 2 
-41.4108 52.9736 2 -38.7281 54.1992 2 -37.5499 54.2194 2 
-39.2238 53.0445 2 -36.3814 54.2528 2 -35.2846 54.2345 2 
-36.9563 53.0989 2 -34.1642 54.2299 2 -33.0683 54.2068 2 
-34.6675 53.1277 2 -31.95 54.1985 2 -30.8432 54.2047 2 
-32.4289 53.1148 2 -29.7349 54.2235 2 -28.6637 54.2473 2 
-30.2022 53.1254 2 -27.5938 54.3262 2 -26.5765 54.3991 2 
-28.024 53.2232 2 -25.5343 54.5416 2 -24.5699 54.6432 2 
-25.9118 53.4446 2 -52.9245 15.6789 2 -53.9592 15.6332 2 
-52.3639 16.8433 2 -55.0586 15.6071 2 -56.1583 15.5695 2 
-54.5328 16.7736 2 -72.9833 -33.5914 2 -72.8994 -32.4242 2 
-72.7809 -31.3613 2 -72.7099 -30.265 2 -71.7793 -31.9882 2 
-72.5902 -29.144 2 -72.5295 -28.0839 2 -71.5411 -29.8043 2 
-72.4282 -26.9698 2 -72.4055 -25.7968 2 -71.32 -27.5691 2 
-72.4216 -24.5938 2 -72.4154 -23.4331 2 -71.2348 -25.252 2 
-72.4515 -22.2831 2 -72.4571 -21.2241 2 -71.2871 -22.899 2 
-72.4278 -20.171 2 -72.4298 -19.1027 2 -71.294 -20.696 2 
-72.4215 -18.0093 2 -72.4197 -16.9077 2 -71.2565 -18.5495 2 
-72.4232 -15.7802 2 -72.4445 -14.6398 2 -71.2516 -16.3286 2 
-72.4577 -13.52 2 -72.4351 -12.4869 2 -71.2682 -14.0813 2 
-72.4464 -11.4315 2 -72.4771 -10.3075 2 -71.2926 -11.9061 2 
-72.5017 -9.20344 2 -72.5314 -8.11752 2 -71.3285 -9.74664 2 
-72.5676 -6.98757 2 -72.5755 -5.84778 2 -71.3893 -7.51263 2 
-72.6074 -4.77114 2 -72.6171 -3.7103 2 -71.4574 -5.30603 2 
-72.5782 -2.58028 2 -72.5559 -1.49275 2 -71.4503 -3.09938 2 
-72.4897 -0.381576 2 -72.5009 0.750798 2 -71.3452 -0.858186 2 
-72.5308 1.88555 2 -72.6108 2.93944 2 -71.3089 1.38774 2 
-72.8942 3.898 2 -72.8804 4.91168 2 -71.6223 3.48105 2 
-72.6067 5.85747 2 -72.5323 6.90247 2 -71.632 5.3854 2 
-72.4561 7.95252 2 -72.4731 9.00215 2 -71.2822 7.38124 2 
-72.4739 10.1342 2 -72.5225 11.2149 2 -71.2068 9.56331 2 
-72.772 12.2708 2 -72.7432 13.396 2 -71.4571 11.7512 2 
-72.5 14.4394 2 -72.4711 15.5333 2 -71.4634 13.8505 2 
-72.5811 16.6079 2 -72.598 17.6681 2 -71.3302 15.9684 2 
-72.7042 18.75 2 -72.723 19.8022 2 -71.5464 18.1249 2 
-72.6789 20.918 2 -72.6438 21.9754 2 -71.6085 20.3226 2 
-72.6031 23.0225 2 -72.5617 24.1066 2 -71.5237 22.4854 2 
-72.5074 25.1982 2 -72.492 26.2679 2 -71.4288 24.6239 2 
-72.4574 27.3257 2 -72.4715 28.42 2 -71.3399 26.7732 2 
-72.4779 29.5249 2 -72.5071 30.6115 2 -71.3117 28.9359 2 
-72.542 31.7184 2 -72.528 32.8093 2 -71.353 31.1477 2 
-72.5097 33.9102 2 -72.5069 35.0103 2 -71.3696 33.3555 2 
-72.4684 36.1374 2 -72.4413 37.2835 2 -71.3128 35.5834 2 
-72.4278 38.4581 2 -72.3963 39.5915 2 -71.2609 37.885 2 
-72.4193 40.6791 2 -72.4546 41.7517 2 -71.2705 40.1472 2 
-72.5 42.7958 2 -72.5318 43.8139 2 -71.3389 42.2789 2 
-72.5945 44.8662 2 -72.6577 45.9562 2 -71.4471 44.3753 2 
-72.7392 47.032 2 -72.7445 48.1138 2 -71.5912 46.5034 2 
-72.7021 49.2369 2 -72.682 50.3341 2 -71.6303 48.7023 2 
-72.5945 51.4143 2 -72.5992 52.5144 2 -71.5004 50.9056 2 
-72.6723 53.5828 2 -72.7129 54.8012 2 -71.5813 55.1056 2 
-71.486 53.0541 2 -73.0065 -35.8936 2 -73.155 -34.6133 2 
-72.0695 -34.073 2 -71.69 -35.9858 2 -64.408 15.0229 2 
-65.6917 14.8214 2 -36.0784 2.61871 2 -34.8912 2.69631 2 
-22.6319 50.1913 2 -22.7603 49.0686 2 -22.9167 47.9031 2 
-22.9945 46.7506 2 -23.8863 48.5399 2 -23.0753 45.5279 2 
-23.1081 44.3558 2 -24.1235 46.1516 2 -23.1319 43.2058 2 
-23.1382 42.1434 2 -24.2281 43.7789 2 -23.1875 41.019 2 
-23.1848 39.874 2 -24.3013 41.5044 2 -23.1406 38.7354 2 
-23.1367 37.6138 2 -24.3064 39.2413 2 -23.1196 36.5002 2 
-23.0941 35.434 2 -24.245 36.9891 2 -23.097 34.2988 2 
-23.1102 33.1967 2 -24.2307 34.7404 2 -23.0741 32.1426 2 
-23.0456 31.0612 2 -24.1975 32.551 2 -23.0209 30.0101 2 
-22.9799 28.9317 2 -24.1368 30.4458 2 -22.9557 27.832 2 
-22.9489 26.7446 2 -24.0878 28.2948 2 -22.9499 25.6222 2 
-22.96 24.4741 2 -24.0645 26.0727 2 -22.979 23.3059 2 
-22.999 22.2522 2 -24.0846 23.782 2 -23.0309 21.1585 2 
-23.0185 20.0494 2 -24.1356 21.5201 2 -22.8798 19.0161 2 
-22.8892 17.9084 2 -24.0289 19.3932 2 -23.0956 16.8464 2 
-23.1824 15.743 2 -24.0965 17.2979 2 -23.2017 14.6166 2 
-23.1859 13.548 2 -24.3223 15.1095 2 -23.1155 12.3876 2 
-23.0658 11.2553 2 -24.2713 12.8227 2 -22.979 10.1036 2 
-22.8818 9.07013 2 -24.1141 10.5106 2 -22.6672 8.13311 2 
-22.6541 7.02494 2 -23.8127 8.42186 2 -22.9411 5.96442 2 
-23.021 4.87892 2 -23.8852 6.42432 2 -23.0534 3.70332 2 
-23.0289 2.61711 2 -24.2046 4.18821 2 -22.8362 1.53738 2 
-22.773 0.443182 2 -24.0443 1.93288 2 -22.6227 -0.647993 2 
-22.6026 -1.76264 2 -23.7013 -0.238024 2 -22.6907 -2.84175 2 
-22.749 -3.91189 2 -23.639 -2.40831 2 -22.9139 -4.92493 2 
-22.968 -5.99098 2 -23.892 -4.50048 2 -23.0327 -7.08434 2 
-23.0646 -8.15917 2 -24.1217 -6.60689 2 -23.0854 -9.32768 2 
-23.1008 -10.456 2 -24.2072 -8.86876 2 -23.1091 -11.607 2 
-23.1197 -12.7174 2 -24.2362 -11.1883 2 -23.1195 -13.7989 2 
-23.1284 -14.9088 2 -24.2444 -13.4207 2 -23.1366 -16.0362 2 
-23.126 -17.1418 2 -24.2524 -15.6296 2 -23.1479 -18.2977 2 
-23.1542 -19.4042 2 -24.2824 -17.9128 2 -23.1473 -20.458 2 
-23.123 -21.5513 2 -24.2974 -20.1225 2 -23.0552 -22.6369 2 
-23.0294 -23.7232 2 -24.2225 -22.2619 2 -22.9623 -24.8112 2 
-22.9455 -25.8644 2 -24.0876 -24.4355 2 -22.9685 -27.0171 2 
-22.9658 -28.1492 2 -24.0436 -26.6762 2 -22.9239 -29.1404 2 
-22.8598 -30.1889 2 -24.0248 -28.8201 2 -22.6681 -31.2067 2 
-22.6197 -32.2776 2 -23.7913 -30.8291 2 -47.5316 2.91544 2 
-46.468 2.96258 2 -24.5696 -35.9201 2 -25.8667 -36.0499 2 
-27.3324 6.677 2 -27.4361 7.83169 2 -26.8668 -35.8664 2 
-27.972 -35.7549 2 -26.3198 -35.0022 2 -29.043 -35.5192 2 
-30.172 -35.4184 2 -28.3909 -34.583 2 -31.2984 -35.2717 2 
-32.388 -35.1871 2 -30.5884 -34.2006 2 -33.4974 -35.1325 2 
-34.6493 -35.147 2 -32.8242 -33.9993 2 -35.8889 -35.112 2 
-37.0733 -35.1072 2 -35.1732 -33.9097 2 -38.2616 -35.1058 2 
-39.3877 -35.1204 2 -37.6011 -33.8732 2 -40.4789 -35.1611 2 
-41.5467 -35.1644 2 -39.8805 -33.9125 2 -42.6683 -35.2011 2 
-43.8267 -35.2197 2 -42.0932 -33.9898 2 -44.9466 -35.2462 2 
-46.0563 -35.2569 2 -44.3347 -34.053 2 -47.1603 -35.2783 2 
-48.2231 -35.2687 2 -46.5586 -34.101 2 -49.2868 -35.2836 2 
-50.3736 -35.3132 2 -48.7263 -34.1373 2 -51.5051 -35.2972 2 
-52.5907 -35.2816 2 -50.9215 -34.1361 2 -53.6805 -35.2532 2 
-54.8087 -35.2642 2 -53.1428 -34.0917 2 -55.9426 -35.2849 2 
-57.0663 -35.3092 2 -55.3666 -34.0839 2 -58.2158 -35.3942 2 
-59.3121 -35.4008 2 -57.6501 -34.1895 2 -60.4237 -35.4499 2 
-61.5611 -35.4688 2 -59.9113 -34.3236 2 -62.7094 -35.5002 2 
-63.8549 -35.517 2 -62.1712 -34.4042 2 -65.0311 -35.5227 2 
-66.1271 -35.5272 2 -64.4956 -34.4413 2 -67.2188 -35.565 2 
-68.3196 -35.6045 2 -66.7635 -34.4847 2 -69.4558 -35.7352 2 
-70.6332 -35.8304 2 -71.1844 -34.9394 2 -68.9913 -34.6532 2 
-57.3036 15.5197 2 -58.4365 15.4927 2 -56.7775 16.6977 2 
-48.5366 15.7857 2 -49.6862 15.7933 2 -50.201 16.943 2 
-46.2984 15.7797 2 -47.4126 15.7967 2 -47.9836 17.0101 2 
-44.1225 15.6997 2 -45.1812 15.6934 2 -45.7425 16.9347 2 
-41.9869 15.656 2 -43.0549 15.671 2 -43.5577 16.8197 2 
-39.6952 15.6535 2 -40.8458 15.647 2 -41.3489 16.782 2 
-37.3751 15.6178 2 -38.5175 15.6377 2 -39.0302 16.7572 2 
-34.9438 15.458 2 -36.1724 15.5366 2 -36.6498 16.6603 2 
-32.3601 15.1515 2 -33.5979 15.3354 2 -33.3916 2.87578 2 
-32.2913 3.19965 2 -67.8135 7.73986 2 -67.8207 6.52595 2 
-64.1009 3.6572 2 -62.8631 3.31632 2 -29.5471 14.6193 2 
-30.9093 14.9554 2 -67.5518 13.1072 2 -67.7657 11.7595 2 
-43.1073 2.90249 2 -41.9823 2.82514 2 -49.6489 2.77291 2 
-48.572 2.82554 2 -48.0505 1.70325 2 -51.8985 2.69072 2 
-50.772 2.71332 2 -50.214 1.55376 2 -54.1932 2.65128 2 
-53.0543 2.6588 2 -52.4928 1.46226 2 -56.6276 2.62351 2 
-55.4187 2.61763 2 -54.874 1.39668 2 -59.0368 2.73159 2 
-57.887 2.67919 2 -57.3588 1.41871 2 -61.5085 2.9902 2 
-60.3082 2.84565 2 -59.8896 1.58845 2 -66.5912 4.66617 2 
-65.3981 4.18719 2 -45.3298 2.96847 2 -44.1881 2.9421 2 
-43.653 1.76533 2 -45.8719 1.79905 2 -70.5585 54.8991 2 
-67.709 10.2585 2 -67.7707 8.99648 2 -27.8749 11.6813 2 
-27.9796 12.8981 2 -22.2733 52.4197 2 -22.4149 51.3478 2 
-23.5129 50.8619 2 -22.5299 -34.4929 2 -23.6328 -35.3539 2 
-24.3829 -34.6194 2 -22.5429 -33.3807 2 -28.4864 4.06653 2 
-27.7665 5.09749 2 -70.3289 53.8065 2 -68.881 8.39093 2 
-23.5335 54.8625 2 -22.6065 54.9816 2 -28.0575 14.2025 2 
-28.3641 15.5249 2 -26.7967 13.8038 2 -63.0193 15.1373 2 
-63.8427 16.1924 2 -61.797 15.2757 2 -23.8332 53.8064 2 
-21.6874 54.5653 2 -22.0237 53.4233 2 -65.1674 2.88474 2 
-37.3942 2.59967 2 -36.6305 1.35595 2 -38.5624 2.61782 2 
-33.8152 1.55446 2 -23.5229 -32.95 2 -26.5359 5.66872 2 
-58.9945 16.5577 2 -59.5082 15.4025 2 -60.6031 15.356 2 
-27.6043 9.16284 2 -27.7346 10.3868 2 -26.5785 11.205 2 
-34.1012 16.4566 2 -31.3045 16.1379 2 -31.1593 2.88889 2 
-69.0655 5.83739 2 -67.9624 5.22903 2 -67.8359 3.9776 2 
-62.5156 2.02863 2 -68.8949 11.1485 2 -41.4275 1.67321 2 
-40.8376 2.77264 2 -39.7307 2.75972 2 -66.8232 15.9061 2 
-67.2835 14.6496 2 -68.6833 14.1918 2 -23.0463 53.0221 2 
-26.2701 8.57938 2 -25.0646 8.30356 2 -25.2328 9.63471 2 
-66.4015 52.0062 2 -65.2562 51.9548 2 -63.9767 51.8267 2 
-62.7784 51.7625 2 -64.7446 50.7084 2 -61.6073 51.6838 2 
-60.4611 51.6572 2 -62.2941 50.5015 2 -59.2531 51.6572 2 
-58.0886 51.6831 2 -59.9151 50.4228 2 -56.9324 51.7106 2 
-55.8562 51.7581 2 -57.551 50.4504 2 -54.7815 51.8266 2 
-53.7499 51.8344 2 -55.32 50.5464 2 -52.7504 51.8937 2 
-51.7183 51.9138 2 -53.2458 50.6742 2 -50.6408 51.8514 2 
-49.5397 51.8179 2 -51.1688 50.6711 2 -48.4526 51.6768 2 
-47.3633 51.6155 2 -49.0042 50.4676 2 -46.25 51.5834 2 
-45.119 51.566 2 -46.8038 50.2944 2 -43.995 51.6011 2 
-42.9706 51.628 2 -44.5665 50.2973 2 -41.9421 51.6763 2 
-40.8542 51.7262 2 -42.414 50.3807 2 -39.7589 51.768 2 
-38.6598 51.789 2 -40.2902 50.4707 2 -37.4872 51.8341 2 
-36.3187 51.8675 2 -38.0222 50.5576 2 -35.1578 51.911 2 
-34.0375 51.9064 2 -35.6887 50.6462 2 -32.9 51.916 2 
-31.7817 51.9078 2 -33.3904 50.6993 2 -30.6245 51.9347 2 
-29.5162 51.9536 2 -31.0956 50.736 2 -28.3896 52.0528 2 
-27.3196 52.1317 2 -28.8118 50.8621 2 -26.1917 52.3219 2 
-25.1494 52.4644 2 -26.5572 51.1514 2 -51.878 18.1897 2 
-52.9474 18.1461 2 -54.0679 18.055 2 -55.1673 18.029 2 
-53.5819 19.4015 2 -71.0127 -33.9175 2 -66.3299 2.12593 2 
-65.0327 1.59593 2 -70.3531 -30.5334 2 -70.2334 -29.4124 2 
-70.1439 -28.2471 2 -70.0426 -27.1329 2 -68.9559 -28.9761 2 
-70.0151 -25.9102 2 -70.0313 -24.7072 2 -68.839 -26.5881 2 
-70.0195 -23.4652 2 -70.0557 -22.3152 2 -68.7998 -24.1234 2 
-70.0493 -21.2096 2 -70.02 -20.1566 2 -68.7817 -21.7758 2 
-70.0128 -19.07 2 -70.0045 -17.9765 2 -68.768 -19.5836 2 
-69.998 -16.8588 2 -70.0015 -15.7314 2 -68.7543 -17.3793 2 
-70.0076 -14.5914 2 -70.0207 -13.4717 2 -68.754 -15.1217 2 
-70.0452 -12.3997 2 -70.0565 -11.3443 2 -68.7846 -12.9098 2 
-70.0851 -10.2261 2 -70.1096 -9.12201 2 -68.8377 -10.7196 2 
-70.1838 -8.01114 2 -70.22 -6.88119 2 -68.9404 -8.49058 2 
-70.303 -5.78261 2 -70.3349 -4.70597 2 -69.0976 -6.28113 2 
-70.2902 -3.59028 2 -70.2513 -2.46026 2 -69.1359 -4.06686 2 
-70.0683 -1.28135 2 -70.0021 -0.170173 2 -68.9082 -1.77225 2 
-69.9968 1.08506 2 -70.0267 2.21981 2 -68.7199 0.661901 2 
-70.273 3.53148 2 -70.5564 4.49003 2 -70.2828 5.43583 2 
-70.1411 6.73275 2 -70.0649 7.7828 2 -70.0221 9.03942 2 
-70.0229 10.1714 2 -70.3291 12.7282 2 -70.0859 13.7716 2 
-70.415 17.5398 2 -70.5212 18.6217 2 -70.5065 19.7009 2 
-70.4624 20.8167 2 -69.3752 19.1157 2 -70.4202 21.8903 2 
-70.3796 22.9373 2 -69.3183 21.2686 2 -70.2214 24.0052 2 
-70.1671 25.0967 2 -69.118 23.4101 2 -70.0982 26.1995 2 
-70.0636 27.2573 2 -68.8908 25.5808 2 -70.0427 28.3502 2 
-70.0492 29.4551 2 -68.801 27.7765 2 -70.0961 30.5605 2 
-70.131 31.6674 2 -68.8271 29.9748 2 -70.0812 32.7934 2 
-70.0629 33.8943 2 -68.8242 32.2062 2 -69.9508 35.0044 2 
-69.9123 36.1314 2 -68.6623 34.4423 2 -69.8947 37.2959 2 
-69.8812 38.4705 2 -68.5326 36.7169 2 -69.9454 39.6567 2 
-69.9684 40.7443 2 -68.5791 39.0676 2 -70.0545 41.833 2 
-70.1 42.8771 2 -68.7294 41.3425 2 -70.2255 43.9234 2 
-70.2881 44.9757 2 -68.941 43.4775 2 -70.4158 46.046 2 
-70.4973 47.1218 2 -69.1942 45.5942 2 -70.6809 48.166 2 
-70.6385 49.2892 2 -69.5055 47.7087 2 -70.1407 50.4179 2 
-70.0532 51.4981 2 -69.1913 49.8817 2 -24.5056 -33.5812 2 
-25.4424 -34.1474 2 -24.5824 -32.478 2 -47.3894 18.3435 2 
-48.5133 18.3325 2 -49.6532 18.302 2 -50.7467 18.2459 2 
-51.3301 19.5488 2 -49.0589 19.6355 2 -25.2476 46.8921 2 
-25.3285 45.6694 2 -25.4203 44.4258 2 -25.4441 43.2758 2 
-26.5444 45.1663 2 -25.487 42.0331 2 -25.5363 40.9087 2 
-26.6791 42.6801 2 -25.5544 39.7942 2 -25.5102 38.6555 2 
-26.7401 40.3228 2 -25.5047 37.4637 2 -25.4876 36.3502 2 
-26.7527 38.0165 2 -25.4639 35.2065 2 -25.4667 34.0713 2 
-26.7235 35.6811 2 -25.4061 33.0066 2 -25.37 31.9525 2 
-26.6392 33.4728 2 -25.2806 30.915 2 -25.2558 29.8638 2 
-26.4891 31.3706 2 -25.2229 28.7862 2 -25.1987 27.6864 2 
-26.3667 29.2554 2 -25.2304 26.588 2 -25.2314 25.4656 2 
-26.3656 27.0794 2 -25.1827 24.293 2 -25.2017 23.1248 2 
-26.3485 24.8084 2 -25.2938 21.9272 2 -25.3258 20.8336 2 
-26.3918 22.4383 2 -25.5402 19.3113 2 -25.4015 18.278 2 
-26.6984 19.7184 2 -25.5887 15.672 2 -25.6081 14.5457 2 
-25.5302 13.2413 2 -25.4598 12.0809 2 -25.3196 10.7864 2 
-24.85 7.36654 2 -25.137 6.30602 2 -25.571 4.72651 2 
-25.6034 3.55091 2 -25.3507 2.21461 2 -25.1581 1.13488 2 
-26.7172 2.7529 2 -24.6942 0.153581 2 -24.5439 -0.937594 2 
-26.0007 0.435308 2 -24.5191 -1.88566 2 -24.6072 -2.96477 2 
-25.5121 -1.49405 2 -25.0204 -3.86309 2 -25.1853 -4.87614 2 
-25.9005 -3.34043 2 -25.3215 -5.99495 2 -25.3863 -7.08831 2 
-26.4499 -5.35756 2 -25.3896 -8.29471 2 -25.4104 -9.46323 2 
-26.5895 -7.68278 2 -25.3909 -10.6825 2 -25.3992 -11.8335 2 
-26.5734 -10.1085 2 -25.4394 -13.0205 2 -25.4392 -14.1019 2 
-26.5941 -12.5147 2 -25.489 -15.2292 2 -25.4971 -16.3566 2 
-26.684 -14.8289 2 -25.5174 -17.5258 2 -25.5393 -18.6816 2 
-26.754 -17.1254 2 -25.5262 -19.7784 2 -25.5192 -20.8322 2 
-26.7612 -19.3913 2 -25.4716 -21.9224 2 -25.4038 -23.0079 2 
-26.7005 -21.5782 2 -25.314 -24.116 2 -25.247 -25.2041 2 
-26.5631 -23.7765 2 -25.0605 -26.2584 2 -25.0835 -27.4111 2 
-26.2869 -25.9389 2 -25.5862 -28.6261 2 -25.5444 -29.6173 2 
-26.6031 -28.2082 2 -24.8149 -30.5011 2 -24.6232 -31.5189 2 
-25.6059 -32.1501 2 -26.3763 -30.3071 2 -50.6883 0.252411 2 
-49.5652 0.311994 2 -34.613 -0.028649 2 -33.1134 0.150823 2 
-56.2579 17.9305 2 -57.4032 17.8807 2 -55.793 19.212 2 
-26.4424 -33.964 2 -27.5094 -33.5544 2 -28.5804 -33.3187 2 
-26.632 -32.6997 2 -29.7118 -33.0445 2 -30.8383 -32.8977 2 
-28.8303 -32.0159 2 -32.0568 -32.8007 2 -33.1661 -32.7461 2 
-34.4046 -32.6592 2 -35.6442 -32.6242 2 -33.6371 -31.4606 2 
-36.9089 -32.5968 2 -38.0971 -32.5954 2 -36.1403 -31.3464 2 
-39.2939 -32.5912 2 -40.3851 -32.6319 2 -38.6017 -31.3148 2 
-41.4982 -32.6715 2 -42.6198 -32.7081 2 -40.9116 -31.3502 2 
-43.7641 -32.8151 2 -44.884 -32.8416 2 -43.1691 -31.4967 2 
-45.988 -32.8981 2 -47.092 -32.9196 2 -45.4174 -31.6602 2 
-48.1523 -32.9414 2 -49.216 -32.9562 2 -47.5817 -31.7385 2 
-50.3585 -32.9035 2 -51.49 -32.8875 2 -49.7845 -31.7076 2 
-52.6051 -32.827 2 -53.6949 -32.7985 2 -52.0421 -31.5943 2 
-54.804 -32.8022 2 -55.9379 -32.8229 2 -54.2662 -31.5375 2 
-57.0961 -32.9036 2 -58.2456 -32.9886 2 -56.5334 -31.622 2 
-59.4155 -33.0899 2 -60.5272 -33.139 2 -58.8615 -31.804 2 
-61.6474 -33.2768 2 -62.7957 -33.3083 2 -61.1517 -32.0431 2 
-64.0442 -33.3189 2 -65.2204 -33.3245 2 -63.5205 -32.1915 2 
-66.386 -33.3009 2 -67.4776 -33.3387 2 -65.9346 -32.1785 2 
-45.1493 18.1942 2 -46.2665 18.2805 2 -46.7962 19.603 2 
-29.5976 2.71771 2 -28.0811 2.74039 2 -27.8284 1.40409 2 
-43.0032 17.9885 2 -44.0708 18.0172 2 -44.5949 19.363 2 
-40.7332 17.9489 2 -41.8743 17.9579 2 -42.3875 19.1554 2 
-38.395 17.9571 2 -39.5726 17.9728 2 -40.098 19.1487 2 
-36.0061 17.7957 2 -37.2088 17.8769 2 -37.7512 19.0925 2 
-30.4073 17.1547 2 -31.8581 17.3508 2 -24.8315 49.3272 2 
-24.9879 48.1617 2 -26.1928 47.6795 2 -30.7539 1.56275 2 
-48.4658 0.38871 2 -47.4254 0.478613 2 -48.9401 -0.912643 2 
-55.4848 0.104279 2 -54.2593 0.137934 2 -58.0581 0.146911 2 
-56.7986 0.0912303 2 -56.184 -1.16752 2 -60.6722 0.358755 2 
-59.4009 0.244694 2 -58.8407 -1.08279 2 -63.618 0.815654 2 
-62.2634 0.489536 2 -61.7747 -0.854222 2 -70.7376 -32.7856 2 
-70.6191 -31.7227 2 -69.3114 -31.3307 2 -69.8525 -33.652 2 
-68.8961 52.2505 2 -67.7362 52.0932 2 -24.0827 52.8028 2 
-33.2932 17.5344 2 -34.6391 17.657 2 -35.1981 18.8735 2 
-32.3961 18.5512 2 -53.0374 0.171443 2 -51.8817 0.203364 2 
-51.2329 -1.03841 2 -53.6482 -1.12096 2 -69.8176 15.3141 2 
-24.3626 51.68 2 -70.2559 52.7382 2 -67.3588 50.9235 2 
-31.1802 -31.6445 2 -26.8937 16.6521 2 -28.3833 17.0689 2 
-61.2601 16.3872 2 -67.5896 2.66594 2 -67.4549 1.37712 2 
-68.9609 3.2288 2 -70.0796 11.6724 2 -69.9276 16.3886 2 
-39.1146 1.47881 2 -57.9349 18.9416 2 -58.4545 17.7088 2 
-59.5262 17.6186 2 -36.03 -0.0648061 2 -35.3283 -1.46844 2 
-32.3887 -1.4902 2 -31.5909 0.0929089 2 -30.0292 -0.0782714 2 
-64.7806 0.0568358 2 -28.9369 18.2818 2 -68.7163 -33.5213 2 
-46.8477 -0.59812 2 -46.4323 0.71642 2 -45.2942 0.722312 2 
-68.9024 16.8854 2 -68.3388 -32.3375 2 -42.0796 0.553285 2 
-40.9349 0.500782 2 -66.0181 17.2887 2 -67.6099 17.1168 2 
-68.0973 18.268 2 -37.3458 -0.0838439 2 -44.2489 0.45191 2 
-43.1682 0.412298 2 -42.6756 -0.76013 2 -44.8094 -0.630715 2 
-63.1445 17.4294 2 -64.5332 17.3149 2 -65.3199 18.5257 2 
-24.5796 50.5235 2 -25.6811 50.1453 2 -46.1601 21.0092 2 
-47.2829 21.0723 2 -62.9695 49.2479 2 -61.7984 49.1692 2 
-60.5526 49.0165 2 -59.3447 49.0166 2 -61.228 47.7629 2 
-58.1247 49.0105 2 -56.9685 49.038 2 -58.7623 47.6042 2 
-55.8318 49.21 2 -54.7571 49.2785 2 -56.4056 47.7701 2 
-53.6943 49.3967 2 -52.6948 49.456 2 -54.2061 48.0603 2 
-51.7397 49.6069 2 -50.6622 49.5446 2 -52.1882 48.3294 2 
-49.6919 49.1388 2 -48.6048 48.9977 2 -50.2628 48.0746 2 
-47.4213 48.8741 2 -46.308 48.842 2 -48.109 47.5453 2 
-45.1239 48.8803 2 -43.9999 48.9153 2 -45.7414 47.46 2 
-42.9137 48.9989 2 -41.8852 49.0472 2 -43.4712 47.5819 2 
-40.7712 49.1012 2 -39.6759 49.143 2 -41.271 47.7195 2 
-38.5664 49.205 2 -37.3938 49.2501 2 -39.0475 47.8355 2 
-36.1936 49.3591 2 -35.0327 49.4025 2 -36.7378 48.0064 2 
-33.8634 49.513 2 -32.726 49.5227 2 -34.3683 48.2259 2 
-31.5431 49.5375 2 -30.3859 49.5645 2 -32.0162 48.3512 2 
-29.1861 49.5756 2 -28.0595 49.6748 2 -29.6336 48.3772 2 
-26.8091 49.9551 2 -60.6638 17.5396 2 -61.8577 17.4593 2 
-62.5483 18.5818 2 -60.1238 18.6907 2 -67.5647 -27.2821 2 
-67.5372 -26.0594 2 -67.4835 -24.7663 2 -67.4717 -23.5243 2 
-66.2091 -25.4603 2 -67.4656 -22.2928 2 -67.4592 -21.1873 2 
-66.1493 -22.9357 2 -67.4638 -20.0963 2 -67.4566 -19.0097 2 
-66.1477 -20.6134 2 -67.451 -17.8651 2 -67.4445 -16.7474 2 
-66.1467 -18.3778 2 -67.3938 -15.6168 2 -67.3999 -14.4768 2 
-66.0904 -16.1025 2 -67.4618 -13.355 2 -67.4863 -12.283 2 
-66.1016 -13.85 2 -67.5345 -11.1754 2 -67.5631 -10.0572 2 
-66.2117 -11.6205 2 -67.5949 -8.9171 2 -67.669 -7.80623 2 
-66.2917 -9.3728 2 -67.8134 -6.67861 2 -67.8964 -5.58003 2 
-66.4679 -7.10513 2 -68.161 -4.5461 2 -68.1163 -3.43041 2 
-66.8768 -4.94358 2 -67.7631 -2.34945 2 -67.5801 -1.17053 2 
-66.7881 -2.82869 2 -67.4602 0.121889 2 -68.3499 20.6206 2 
-68.3078 21.6942 2 -67.9917 22.705 2 -67.8336 23.7728 2 
-67.0234 22.057 2 -67.5675 24.892 2 -67.4985 25.9948 2 
-66.4413 24.1869 2 -67.346 27.168 2 -67.3252 28.2609 2 
-66.0227 26.4793 2 -67.3045 29.4467 2 -67.3514 30.5521 2 
-65.8494 28.8382 2 -67.6272 31.623 2 -67.5773 32.749 2 
-66.1045 31.0948 2 -67.2287 33.7772 2 -67.1167 34.8873 2 
-66.0317 33.194 2 -67.0487 36.0603 2 -67.0311 37.2248 2 
-65.6151 35.3953 2 -67.1453 38.5096 2 -67.2094 39.6958 2 
-65.6614 37.853 2 -67.3462 40.8754 2 -67.4324 41.9641 2 
-65.9124 40.3173 2 -67.5794 43.077 2 -67.7049 44.1233 2 
-66.1962 42.6099 2 -67.9209 45.3304 2 -68.0486 46.4007 2 
-66.5592 44.9299 2 -68.3576 47.6626 2 -68.5411 48.7068 2 
-67.0842 47.3988 2 -27.8437 46.0241 2 -27.9355 44.7805 2 
-68.0826 19.3472 2 -41.7829 20.2541 2 -42.9118 20.2847 2 
-27.9314 43.3157 2 -27.9743 42.073 2 -29.2307 44.1734 2 
-28.0279 40.8833 2 -28.046 39.7688 2 -29.2802 41.5189 2 
-28.0785 38.577 2 -28.073 37.3852 2 -29.3664 39.1375 2 
-28.0716 36.2138 2 -28.0478 35.0702 2 -29.3973 36.7743 2 
-27.9948 33.8954 2 -27.9342 32.8307 2 -29.3428 34.4281 2 
-27.8306 31.7282 2 -27.7411 30.6907 2 -29.1862 32.1508 2 
-27.4158 29.7574 2 -27.3829 28.6798 2 -28.7573 30.1151 2 
-27.5906 27.6286 2 -27.6223 26.5302 2 -28.6397 28.1306 2 
-27.5798 25.3837 2 -27.5311 24.2111 2 -28.8049 25.9329 2 
-27.3132 23.0949 2 -27.4053 21.8973 2 -28.5445 23.6701 2 
-25.6079 17.216 2 -43.9601 20.651 2 -45.0386 20.828 2 
-45.5253 22.2973 2 -26.7323 -2.03821 2 -27.1455 -2.93653 2 
-27.7507 -4.39883 2 -27.8869 -5.51765 2 -28.5825 -3.09661 2 
-27.8043 -7.02602 2 -27.8077 -8.23242 2 -29.1051 -6.06729 2 
-27.816 -9.4966 2 -27.7965 -10.7159 2 -29.0309 -8.83984 2 
-27.8473 -12.0212 2 -27.8875 -13.2081 2 -29.09 -11.4093 2 
-27.9899 -14.3563 2 -28.0397 -15.4835 2 -29.2432 -13.8627 2 
-28.0895 -16.6557 2 -28.1098 -17.8249 2 -29.3954 -16.1831 2 
-28.0926 -19.0308 2 -28.0795 -20.1276 2 -29.4281 -18.5612 2 
-28.0272 -21.2665 2 -27.9796 -22.3567 2 -29.3586 -20.906 2 
-27.8504 -23.5571 2 -27.7607 -24.6652 2 -29.1771 -23.2454 2 
-27.5111 -25.9329 2 -27.3246 -26.9873 2 -28.7984 -25.7135 2 
-27.8274 -28.2023 2 -29.5344 -28.1265 2 -28.8129 -29.3475 2 
-36.1346 -2.99544 2 -34.7175 -2.95928 2 -32.7784 -30.2603 2 
-34.0169 -30.1735 2 -26.6729 -31.7406 2 -35.3573 -30.0659 2 
-36.6219 -30.0385 2 -34.4986 -28.8656 2 -37.9523 -29.925 2 
-39.1491 -29.9209 2 -37.1694 -28.6446 2 -40.354 -29.8892 2 
-41.4671 -29.9287 2 -39.7047 -28.4994 2 -42.6816 -30.0076 2 
-43.8259 -30.1146 2 -42.124 -28.5466 2 -44.8734 -30.4754 2 
-45.9775 -30.5319 2 -44.386 -28.9863 2 -47.033 -30.2729 2 
-48.0933 -30.2947 2 -46.489 -29.0881 2 -49.1721 -30.5453 2 
-50.3146 -30.4925 2 -48.6234 -29.0796 2 -51.398 -30.1461 2 
-52.5131 -30.0856 2 -50.7856 -28.9838 2 -53.7259 -30.0782 2 
-54.8349 -30.0819 2 -53.0818 -28.63 2 -56.0353 -30.213 2 
-57.1934 -30.2937 2 -55.4949 -28.7536 2 -58.4212 -30.4525 2 
-59.5911 -30.5538 2 -57.9231 -29.0435 2 -60.7397 -30.776 2 
-61.86 -30.9138 2 -60.2994 -29.4245 2 -62.9737 -31.1983 2 
-64.2222 -31.2089 2 -62.5617 -29.9312 2 -39.5353 20.5029 2 
-40.6959 20.479 2 -41.2202 21.6083 2 -37.1464 20.3748 2 
-38.3326 20.455 2 -38.9305 21.7853 2 -27.1834 48.6687 2 
-27.4432 47.3991 2 -66.3151 -0.455308 2 -64.9004 -1.23558 2 
-39.8441 0.133546 2 -38.6758 -0.00835317 2 -38.0753 -1.4291 2 
-40.4962 -0.986379 2 -67.6628 -29.841 2 -67.5734 -28.6757 2 
-66.2716 -28.147 2 -62.5638 -2.21558 2 -60.9726 -2.34636 2 
-53.1241 20.7703 2 -54.2445 20.6791 2 -49.2036 -2.25421 2 
-48.1042 -2.17749 2 -59.5266 -2.44009 2 -58.1838 -2.53787 2 
-60.3157 -3.80145 2 -56.8227 -2.57557 2 -55.5088 -2.56253 2 
-57.5086 -3.93288 2 -68.0728 -31.1482 2 -65.4694 49.5111 2 
-64.1899 49.3829 2 -63.6943 48.0506 2 -30.2408 -30.5066 2 
-31.4593 -30.4096 2 -55.375 20.531 2 -56.4656 20.4325 2 
-54.9172 21.8997 2 -67.0721 19.7728 2 -66.6902 -30.8478 2 
-31.8391 -29.1224 2 -68.0434 49.8356 2 -66.7086 49.7486 2 
-54.8357 -3.92024 2 -54.1971 -2.51219 2 -52.9751 -2.47868 2 
-43.3555 21.7497 2 -65.5246 -30.8713 2 -33.2329 -2.84881 2 
-31.7104 -2.90672 2 -34.0392 -4.37581 2 -28.8343 47.0133 2 
-50.5471 -2.29173 2 -49.7111 -3.55658 2 -51.7404 -2.34078 2 
-28.5848 -0.121372 2 -27.2209 -0.108853 2 -50.8534 21.0606 2 
-51.9847 21.0044 2 -52.6473 22.2821 2 -57.539 20.2944 2 
-58.5903 20.1225 2 -57.1211 21.6134 2 -48.4941 21.1462 2 
-49.634 21.1157 2 -50.2885 22.5713 2 -47.8579 22.5525 2 
-41.8783 -2.28164 2 -40.7875 -2.64888 2 -27.9126 20.8599 2 
-28.1271 19.3376 2 -30.1512 19.4234 2 -28.834 21.5165 2 
-64.9778 -29.8782 2 -42.9669 -2.42263 2 -40.4416 10.3513 1 
-41.5516 10.3513 1 -28.5338 -30.5824 2 -46.7278 -2.16852 2 
-45.7348 -1.93072 2 -46.9913 -3.51009 2 -35.8285 20.2164 2 
-36.4099 21.5789 2 -34.4616 20.0776 2 -65.9056 19.7305 2 
-66.1729 21.0039 2 -64.4207 19.7567 2 -66.154 48.4232 2 
-65.5442 -2.7003 2 -64.0097 -2.18816 2 -63.2076 -3.6803 2 
-65.8974 -3.78127 2 -39.0952 -3.01054 2 -37.7652 -3.08603 2 
-40.4774 -4.3058 2 -31.6319 19.6333 2 -33.067 19.8169 2 
-33.6974 21.1598 2 -30.8221 20.6891 2 -37.1545 -4.57687 2 
-63.682 -29.0717 2 -64.9845 -28.7342 2 -64.9758 -27.3405 2 
-59.3788 46.1509 2 -58.1588 46.1449 2 -54.5639 46.8423 2 
-53.5011 46.9605 2 -52.2876 46.8137 2 -51.3325 46.9646 2 
-52.6455 45.5956 2 -50.3622 46.5588 2 -42.5866 10.3513 1 
-43.6066 10.3513 1 -49.0244 45.9959 2 -47.8408 45.8724 2 
-50.0941 44.8859 2 -46.4567 45.8628 2 -45.2727 45.901 2 
-47.3721 44.3134 2 -43.9856 46.1435 2 -42.8994 46.2271 2 
-44.7009 44.5462 2 -41.7369 46.3314 2 -40.6229 46.3854 2 
-42.2513 44.8929 2 -39.5137 46.4191 2 -38.4042 46.4811 2 
-39.9796 45.031 2 -37.187 46.5722 2 -35.9868 46.6812 2 
-37.6532 45.1559 2 -34.7721 46.8962 2 -33.6029 47.0067 2 
-35.2214 45.462 2 -32.5076 47.3217 2 -31.3248 47.3366 2 
-32.9114 45.9921 2 -30.0341 47.0022 2 -64.8572 -26.0719 2 
-64.8035 -24.7788 2 -63.5701 -26.6591 2 -54.6055 23.2109 2 
-55.7359 23.0627 2 -64.7516 -23.4909 2 -64.7454 -22.2595 2 
-63.3996 -24.1026 2 -64.7957 -21.138 2 -64.8003 -20.0471 2 
-63.398 -21.6932 2 -64.7496 -18.8975 2 -64.744 -17.7528 2 
-63.3975 -19.4221 2 -64.7007 -16.6028 2 -64.65 -15.4722 2 
-63.3035 -17.1226 2 -64.6863 -14.2923 2 -64.7481 -13.1704 2 
-63.2965 -14.7926 2 -64.9105 -12.0526 2 -64.9588 -10.945 2 
-63.4952 -12.4949 2 -64.9912 -9.70498 2 -65.023 -8.56491 2 
-63.6901 -10.1371 2 -65.0441 -7.26543 2 -65.1885 -6.13781 2 
-63.7436 -7.5976 2 -65.6329 -4.81519 2 -65.8569 22.0147 2 
-27.4024 -30.8567 2 -65.3171 23.2523 2 -65.0511 24.3714 2 
-64.4667 22.1992 2 -64.6711 25.6839 2 -64.5185 26.8571 2 
-64.3532 28.303 2 -64.3325 29.4888 2 -63.0016 27.5076 2 
-64.4191 31.008 2 -64.6948 32.0789 2 -62.9228 30.4728 2 
-64.3462 33.1072 2 -44.6566 10.3513 1 -45.6766 10.3513 1 
-64.0692 34.5725 2 -64.0013 35.7454 2 -62.7324 33.4573 2 
-63.9942 37.1298 2 -64.1085 38.4145 2 -62.4484 36.307 2 
-64.3272 39.816 2 -64.464 40.9956 2 -62.6601 39.0928 2 
-64.7738 42.2795 2 -64.9209 43.3924 2 -63.1886 41.7781 2 
-65.2446 44.6291 2 -65.4606 45.8361 2 -63.8222 44.2987 2 
-61.1897 -5.28508 2 -59.7437 -5.37881 2 -29.5824 22.7944 2 
-30.0897 21.7571 2 -31.5705 21.967 2 -38.4364 23.2767 2 
-39.6391 23.3246 2 -44.745 23.738 2 -45.8664 23.9193 2 
-30.6134 42.0607 2 -30.6671 40.8711 2 -30.7541 39.7371 2 
-30.7866 38.5454 2 -32.0873 40.2789 2 -30.7816 37.3041 2 
-30.7802 36.1326 2 -32.1694 37.9037 2 -30.7805 34.8753 2 
-30.7275 33.7005 2 -32.1648 35.405 2 -30.6452 32.4032 2 
-30.5416 31.3007 2 -32.0829 32.8504 2 -30.2655 29.9651 2 
-29.9401 29.0318 2 -31.7244 30.2174 2 -30.1479 27.9806 2 
-46.6816 10.3513 1 -47.7766 10.3513 1 -30.1461 26.445 2 
-30.1036 25.2984 2 -31.4466 27.3461 2 -29.8003 23.9106 2 
-38.0558 -6.47176 2 -36.4251 -6.38117 2 -26.7571 -1.09015 2 
-30.3491 -8.279 2 -30.3574 -9.54318 2 -30.2487 -10.7832 2 
-30.2994 -12.0885 2 -31.5669 -10.2224 2 -30.6862 -13.1988 2 
-30.7887 -14.3469 2 -31.8449 -12.5727 2 -30.7759 -15.6428 2 
-30.8257 -16.815 2 -32.2189 -14.9789 2 -30.8148 -18.0892 2 
-30.7976 -19.2951 2 -32.1953 -17.5489 2 -30.7822 -20.5192 2 
-30.7299 -21.6582 2 -32.1689 -20.0472 2 -30.5837 -22.982 2 
-30.4546 -24.1824 2 -32.0073 -22.5952 2 -30.1751 -25.5627 2 
-29.9255 -26.8304 2 -31.5816 -25.2993 2 -41.0815 23.2389 2 
-42.1685 23.014 2 -40.5874 24.7303 2 -33.5754 -27.6133 2 
-34.9158 -27.5057 2 -36.3816 -27.2487 2 -37.712 -27.1353 2 
-35.4584 -25.9965 2 -39.0818 -26.9962 2 -40.2867 -26.9645 2 
-38.294 -25.6004 2 -41.7112 -26.9384 2 -42.9256 -27.0174 2 
-41.0884 -25.4352 2 -44.5395 -27.2122 2 -45.587 -27.573 2 
-44.1267 -25.604 2 -46.6426 -27.314 2 -48.7966 10.3513 1 
-49.9666 10.3513 1 -48.4892 -27.2186 2 -49.568 -27.4691 2 
-47.5872 -25.7035 2 -50.6514 -27.1228 2 -51.0166 10.3513 1 
-52.0816 10.3513 1 -52.332 -26.9749 2 -53.5448 -26.9675 2 
-51.1144 -25.4603 2 -54.9768 -27.1446 2 -56.1772 -27.2757 2 
-54.2271 -25.4896 2 -57.5194 -27.5811 2 -58.7471 -27.7399 2 
-57.0013 -25.9721 2 -60.1202 -28.1268 2 -61.2688 -28.349 2 
-59.7165 -26.6644 2 -62.5684 -28.7872 2 -43.2168 23.3803 2 
-58.1655 -5.35833 2 -56.8044 -5.39603 2 -59.0395 -6.84196 2 
-44.6895 -2.20112 2 -43.8922 -3.72263 2 -53.2216 10.3513 1 
-54.2416 10.3513 1 -64.5303 46.8605 2 -63.3099 46.7254 2 
-30.5255 45.9727 2 -56.8445 46.2635 2 -55.7078 46.4355 2 
-55.0028 45.3357 2 -57.461 44.8103 2 -59.5844 19.7446 2 
-60.7221 19.6657 2 -59.1886 21.0974 2 -53.4634 23.7308 2 
-54.2821 24.8937 2 -52.324 23.9649 2 -52.2893 -3.732 2 
-64.2091 -4.9755 2 -43.5579 25.0023 2 -61.9741 46.4523 2 
-60.7283 46.2997 2 -62.8101 45.2622 2 -61.8552 19.8379 2 
-63.142 19.808 2 -63.7276 21.0128 2 -61.3158 20.8918 2 
-63.547 24.7493 2 -62.7632 -5.00291 2 -62.1912 -6.58028 2 
-65.845 47.1613 2 -60.1248 44.8403 2 -30.5145 44.7983 2 
-30.5104 43.3335 2 -31.8972 42.6856 2 -31.8052 45.1327 2 
-56.9141 23.047 2 -57.9876 22.9088 2 -56.6024 24.3581 2 
-47.2049 24.0714 2 -48.4161 24.1454 2 -46.4245 25.5122 2 
-37.0231 23.0674 2 -37.7317 24.6067 2 -35.7052 22.9089 2 
-31.1415 24.4227 2 -30.0269 -3.05351 2 -29.4217 -1.59121 2 
-56.0051 -6.85767 2 -55.3482 -5.43222 2 -54.0364 -5.38188 2 
-30.1636 -7.03426 2 -31.4901 -7.7376 2 -30.2461 -5.52588 2 
-47.7267 -5.07455 2 -46.3503 -5.06558 2 -32.2302 -27.8264 2 
-32.6474 -26.4665 2 -62.3891 -27.4895 2 -50.2973 -4.75402 2 
-48.9539 -4.7165 2 -48.3129 -6.27199 2 -41.5006 -6.11137 2 
-39.8084 -6.47303 2 -30.911 -27.9756 2 -31.9296 -5.37909 2 
-30.8711 -4.41213 2 -39.0791 -8.27733 2 -55.3666 10.3513 1 
-56.4166 10.3513 1 -51.1 43.2557 2 -49.7622 42.6928 2 
-57.5566 10.3513 1 -58.6216 10.3513 1 -48.1031 42.5063 2 
-46.719 42.4967 2 -49.109 40.8761 2 -45.1834 42.672 2 
-43.8963 42.9144 2 -45.9144 40.8649 2 -42.7141 43.4997 2 
-41.5516 43.604 2 -43.1967 41.6254 2 -40.395 43.4539 2 
-39.2858 43.4877 2 -40.8578 42.0607 2 -37.9963 43.6637 2 
-36.7791 43.7549 2 -38.4117 42.0867 2 -35.4753 44.0865 2 
-34.2606 44.3015 2 -35.8184 42.5944 2 -62.2706 -26.2208 2 
-32.1674 23.3862 2 -32.8998 22.3183 2 -34.2943 22.579 2 
-32.4708 24.774 2 -61.9199 -22.2006 2 -61.9702 -21.0791 2 
-62.2012 -19.9761 2 -62.1505 -18.8265 2 -60.7232 -20.4835 2 
-61.7684 -17.7179 2 -61.7251 -16.5679 2 -60.5721 -18.2719 2 
-61.698 -15.2885 2 -61.7343 -14.1086 2 -60.1629 -15.8839 2 
-61.9954 -12.8852 2 -62.1578 -11.7674 2 -60.3969 -13.3811 2 
-62.5229 -10.5959 2 -62.5553 -9.35589 2 -61.0231 -10.9862 2 
-62.1701 -7.87977 2 -34.3431 -24.7083 2 -35.8089 -24.4513 2 
-62.4864 44.0255 2 -61.487 26.4479 2 -61.3216 27.8938 2 
-34.785 -5.873 2 -33.3004 -5.76252 2 -63.1879 22.2504 2 
-61.1195 29.5248 2 -61.2061 31.0441 2 -59.6049 28.465 2 
-34.9816 10.3513 1 -33.9316 10.3513 1 -59.7616 10.3513 1 
-60.7966 10.3513 1 -61.1108 32.6666 2 -60.8338 34.1319 2 
-59.3075 31.7186 2 -60.9532 35.612 2 -60.9461 36.9963 2 
-59.3315 34.8212 2 -52.7752 -5.23489 2 -51.5405 -5.09698 2 
-50.7833 -6.2569 2 -53.2877 -6.74686 2 -33.7054 38.4768 2 
-33.7004 37.2355 2 -33.457 36.0039 2 -33.4574 34.7466 2 
-34.993 36.5771 2 -33.4258 30.6802 2 -33.1497 29.3446 2 
-34.5378 28.2954 2 -36.1136 28.7411 2 -35.8004 27.2291 2 
-32.8365 27.8326 2 -32.8347 26.2969 2 -33.8607 25.2604 2 
-60.9003 -25.6432 2 -62.0813 -24.8128 2 -62.0294 -23.5249 2 
-49.7612 24.2433 2 -50.9806 24.1882 2 -51.7966 25.6369 2 
-49.1081 25.7622 2 -39.9748 -10.5473 2 -38.2222 -10.546 2 
-45.6413 -7.02939 2 -44.9058 -5.46493 2 -33.121 -11.2908 2 
-33.5077 -12.401 2 -33.9146 -14.189 2 -33.9018 -15.4849 2 
-35.1906 -12.9071 2 -33.5878 -16.9345 2 -33.5768 -18.2086 2 
-35.2834 -16.1446 2 -33.6816 -19.5739 2 -33.6661 -20.798 2 
-35.074 -18.9594 2 -33.4236 -22.2173 2 -33.2774 -23.5411 2 
-32.9269 -25.0862 2 -39.7482 26.6018 2 -41.1906 26.5161 2 
-37.3725 -24.0081 2 -38.7423 -23.8691 2 -36.2572 -22.72 2 
-40.239 -23.5465 2 -41.6635 -23.5204 2 -39.3175 -21.9543 2 
-43.3012 -23.6962 2 -44.9151 -23.8911 2 -42.4519 -21.8074 2 
-50.4331 -23.5132 2 -52.1137 -23.3654 2 -43.1832 -5.68644 2 
-42.5142 -7.85368 2 -35.6863 -7.76788 2 -42.7657 26.7689 2 
-44.2939 27.1266 2 -41.9265 28.6404 2 -61.0029 -8.33857 2 
-60.9983 43.6676 2 -59.6488 43.5189 2 -62.0104 42.7041 2 
-53.8543 44.3388 2 -52.6408 44.192 2 -52.3089 41.9989 2 
-46.8694 -8.67333 2 -45.4249 -9.07268 2 -43.6632 -9.78251 2 
-41.9806 -10.2074 2 -41.1238 -12.4761 2 -44.8913 -11.4264 2 
-32.9004 44.8177 2 -62.2851 23.4939 2 -61.9051 24.8063 2 
-58.829 42.0544 2 -57.9555 43.2272 2 -44.9 28.6438 2 
-45.6922 26.8772 2 -47.0307 27.0293 2 -33.4452 40.9212 2 
-33.5322 39.7873 2 -60.2251 25.1925 2 -61.5461 22.3075 2 
-45.7672 -21.3026 2 -46.5927 -23.2104 2 -61.1902 38.5795 2 
-61.4089 39.9809 2 -59.695 37.8845 2 -61.7005 41.4202 2 
-60.2306 40.9069 2 -55.8339 25.9406 2 -57.0121 25.9249 2 
-35.0632 39.1192 2 -34.9076 24.0674 2 -33.6935 33.4628 2 
-33.6111 32.1655 2 -35.0364 31.2927 2 -60.6016 -22.9108 2 
-33.1543 43.4422 2 -60.0116 -9.7643 2 -59.6264 -8.28818 2 
-58.0482 -8.26769 2 -34.9362 -21.7439 2 -38.2606 26.2455 2 
-38.8638 28.0312 2 -36.9509 -11.9676 2 -36.0551 -9.6976 2 
-56.6412 43.3459 2 -48.4393 -23.115 2 -53.8149 -23.6949 2 
-55.2469 -23.8721 2 -53.1336 -21.7479 2 -56.7218 -24.3349 2 
-58.064 -24.6403 2 -56.3096 -22.5402 2 -59.5272 -25.2563 2 
-34.415 -9.18942 2 -49.5566 -7.44893 2 -48.3294 -7.80698 2 
-48.113 -9.85027 2 -54.6918 26.4605 2 -32.6754 -6.87628 2 
-32.8609 -8.12103 2 -57.0343 -9.91001 2 -56.4474 -8.46379 2 
-54.9912 -8.49998 2 -59.2478 -23.6191 2 -33.2297 -10.0507 2 
-34.9857 34.0617 2 -33.2574 42.1694 2 -49.4386 -21.0202 2 
-36.435 35.3819 2 -36.671 34.0981 2 -58.5374 40.6152 2 
-34.7023 41.6779 2 -59.212 23.9467 2 -58.7938 25.5882 2 
-60.413 22.1353 2 -58.0253 27.1707 2 -57.8232 28.8018 2 
-57.3572 34.3691 2 -57.4766 35.8493 2 -59.1383 -22.2948 2 
-36.8473 26.0361 2 -36.6784 36.6135 2 -54.9981 43.9321 2 
-59.4189 22.5131 2 -41.1435 30.7184 2 -42.7186 30.9712 2 
-36.4998 -21.3007 2 -36.7426 -19.2576 2 -38.0636 -20.2337 2 
-58.503 38.9601 2 -57.1013 40.1077 2 -58.2589 37.377 2 
-55.4927 42.349 2 -49.6206 38.9084 2 -47.9615 38.7219 2 
-46.1764 38.807 2 -44.6409 38.9823 2 -46.688 36.8393 2 
-42.8828 39.7455 2 -41.7005 40.3308 2 -43.1447 37.6876 2 
-38.8212 40.6069 2 -37.5318 40.783 2 -51.5433 27.4549 2 
-52.8867 27.2316 2 -54.4385 28.2785 2 -59.1082 -20.5613 2 
-59.3393 -19.4583 2 -57.7544 -21.2695 2 -47.7491 28.8598 2 
-48.4814 27.4948 2 -49.8265 27.5928 2 -58.9572 -18.3496 2 
-58.5783 -16.647 2 -58.5512 -15.3676 2 -57.3455 -17.8334 2 
-58.7247 -13.7521 2 -58.9858 -12.5287 2 -57.1401 -14.5152 2 
-59.6466 -10.9358 2 -56.2846 36.9249 2 -42.9496 -14.9191 2 
-40.9438 -15.259 2 -54.0425 41.2405 2 -52.5017 40.3042 2 
-43.4296 -19.8426 2 -45.1072 -19.162 2 -40.538 -17.9463 2 
-38.7122 -15.5033 2 -55.6856 40.6543 2 -57.5061 30.7922 2 
-57.4108 32.4147 2 -55.5559 33.4428 2 -53.5312 -8.45168 2 
-52.27 -8.30469 2 -53.9735 -10.0578 2 -36.4156 39.8665 2 
-36.5889 38.556 2 -51.3574 38.974 2 -50.2099 36.8197 2 
-53.091 38.2155 2 -37.3577 -13.7555 2 -57.9743 -11.3068 2 
-49.0685 -18.8498 2 -51.0624 -19.248 2 -44.148 32.7413 2 
-44.931 30.6633 2 -56.3735 -11.5029 2 -36.6379 -17.8923 2 
-37.7688 29.3985 2 -39.2564 29.7548 2 -40.0486 32.0856 2 
-50.7998 -7.79189 2 -36.6916 31.95 2 -36.5063 30.4647 2 
-44.628 -16.6001 2 -46.9655 -18.0601 2 -39.5603 -19.9111 2 
-38.1409 33.2702 2 -52.777 -19.8311 2 -54.4781 -20.1606 2 
-56.2795 -20.8067 2 -52.4069 -17.6607 2 -44.808 -13.8172 2 
-35.2715 25.5904 2 -41.7919 -19.6668 2 -55.923 -18.8899 2 
-36.0061 41.3462 2 -40.5439 40.1807 2 -39.6639 38.877 2 
-36.9519 -16.4428 2 -55.9265 29.4979 2 -43.4192 34.9868 2 
-41.6611 35.75 2 -48.5893 -16.2879 2 -46.3294 30.4139 2 
-55.4959 -13.416 2 -54.5558 -12.0192 2 -53.0959 -11.9709 2 
-52.1852 -15.5049 2 -53.8999 -16.088 2 -40.028 34.2338 2 
-61.8616 10.3513 1 -51.0433 -9.49672 2 -47.4167 34.5938 2 
-45.6316 34.6789 2 -55.5441 -17.1873 2 -55.3224 -15.0315 2 
-54.1214 30.269 2 -32.9116 9.35126 1 -50.9166 29.1875 2 
-38.0308 37.3608 2 -47.7801 30.8793 2 -48.8092 32.7405 2 
-50.2289 31.1865 2 -54.8688 37.4715 2 -55.6511 38.9992 2 
-49.7426 -10.8732 2 -48.2825 -11.7396 2 -49.8655 34.9009 2 
-53.7245 36.1412 2 -53.3801 34.2224 2 -51.6023 34.9665 2 
-51.2128 -11.386 2 -60.7366 8.35126 1 -59.7016 8.35126 1 
-39.7535 36.9346 2 -51.7952 -13.3474 2 -48.1992 -14.1304 2 
-50.3022 -14.9201 2 -53.4337 32.268 2 -46.5696 -13.1074 2 
-51.9457 31.0487 2 -58.6366 8.35126 1 -57.5866 8.35126 1 
-76.8306 58.3008 0 -74.3012 58.4457 0 -75.3812 58.4457 0 
-72.191 58.3659 0 -73.241 58.3659 0 -73.9515 57.4608 0 
-70.0805 58.3737 0 -71.1005 58.3737 0 -71.8008 57.3889 0 
-67.944 58.3881 0 -68.994 58.3881 0 -69.6238 57.411 0 
-65.8192 58.3966 0 -66.8392 58.3966 0 -67.4325 57.4339 0 
-63.653 58.3678 0 -64.763 58.3678 0 -65.2716 57.4136 0 
-61.5078 58.3392 0 -62.5578 58.3392 0 -63.1202 57.3562 0 
-59.4069 58.2995 0 -60.4569 58.2995 0 -60.9741 57.2879 0 
-57.0312 58.3198 0 -58.2612 58.3198 0 -58.7775 57.2685 0 
-54.7497 58.3049 0 -55.8897 58.3049 0 -56.4903 57.2738 0 
-52.6336 58.3043 0 -53.6836 58.3043 0 -54.2827 57.2584 0 
-50.5455 58.3346 0 -51.5655 58.3346 0 -52.1485 57.2881 0 
-48.2371 58.3227 0 -49.4071 58.3227 0 -49.9419 57.3065 0 
-46.1377 58.3062 0 -47.1877 58.3062 0 -47.7541 57.2781 0 
-43.9896 58.3056 0 -45.0396 58.3056 0 -45.6067 57.261 0 
-41.8522 58.3135 0 -42.9022 58.3135 0 -43.4211 57.2683 0 
-39.7219 58.3029 0 -40.8019 58.3029 0 -41.2834 57.2656 0 
-37.6135 58.2989 0 -38.6635 58.2989 0 -39.1748 57.251 0 
-35.4003 58.3038 0 -36.5103 58.3038 0 -37.0132 57.2519 0 
-33.2908 58.3182 0 -34.3408 58.3182 0 -34.8505 57.2712 0 
-31.1656 58.3289 0 -32.2456 58.3289 0 -32.7457 57.2962 0 
-29.0719 58.3076 0 -30.0919 58.3076 0 -30.6268 57.2856 0 
-26.9846 58.3496 0 -28.0646 58.3496 0 -28.5458 57.3064 0 
-24.8865 58.4006 0 -25.9065 58.4006 0 -26.4605 57.3994 0 
-22.771 58.4555 0 -23.851 58.4555 0 -24.3469 57.5053 0 
-20.5615 58.4835 0 -21.7015 58.4835 0 -22.2418 57.5882 0 
-18.6202 58.5717 0 -19.6402 58.5717 0 -20.251 57.7044 0 
-18.6202 57.4717 0 -76.8606 -39.5992 0 -77.0047 -37.1731 0 
-77.0047 -38.2231 0 -76.9348 -34.9724 0 -76.9348 -36.0224 0 
-76.0289 -36.7463 0 -76.8577 -32.8226 0 -76.8577 -33.9226 0 
-75.8819 -34.5458 0 -76.8158 -30.5612 0 -76.8158 -31.6612 0 
-75.7629 -32.3347 0 -76.839 -28.366 0 -76.839 -29.416 0 
-75.7442 -30.0281 0 -76.8663 -26.148 0 -76.8663 -27.298 0 
-75.7947 -27.8149 0 -76.8456 -23.9679 0 -76.8456 -25.0179 0 
-75.8014 -25.6167 0 -76.845 -21.6059 0 -76.845 -22.8059 0 
-75.78 -23.3246 0 -76.8103 -19.4717 0 -76.8103 -20.5217 0 
-75.7447 -21.0785 0 -76.8333 -17.2247 0 -76.8333 -18.3747 0 
-75.733 -18.8972 0 -76.8361 -15.0476 0 -76.8361 -16.1476 0 
-75.7588 -16.7231 0 -76.7976 -12.8959 0 -76.7976 -13.9458 0 
-75.7231 -14.5442 0 -76.7674 -10.7698 0 -76.7674 -11.8198 0 
-75.6544 -12.3665 0 -76.7458 -8.66918 0 -76.7458 -9.71918 0 
-75.6026 -10.2398 0 -76.728 -6.59013 0 -76.728 -7.64013 0 
-75.5631 -8.16013 0 -76.7378 -4.46276 0 -76.7378 -5.51276 0 
-75.5551 -6.0537 0 -76.7475 -2.43015 0 -76.7475 -3.43015 0 
-75.5747 -3.94373 0 -76.7826 -0.242822 0 -76.7826 -1.34282 0 
-75.6195 -1.82379 0 -76.8044 1.88701 0 -76.8044 0.787015 0 
-75.6764 0.293377 0 -76.8242 4.12966 0 -76.8242 3.02966 0 
-75.718 2.46586 0 -76.8266 6.3127 0 -76.8266 5.2127 0 
-75.7401 4.69155 0 -76.8469 8.40938 0 -76.8469 7.35938 0 
-75.7629 6.82126 0 -76.8745 10.5029 0 -76.8745 9.45293 0 
-75.8108 8.9115 0 -76.8643 12.6594 0 -76.8643 11.6094 0 
-75.8282 11.0615 0 -76.8723 14.8097 0 -76.8723 13.7097 0 
-75.826 13.2183 0 -76.8503 17.0373 0 -76.8503 15.8873 0 
-75.812 15.3462 0 -76.8086 19.1821 0 -76.8086 18.1321 0 
-75.7483 17.5185 0 -76.7975 21.3436 0 -76.7975 20.2936 0 
-75.6955 19.7248 0 -76.7798 23.618 0 -76.7798 22.418 0 
-75.6667 21.9107 0 -76.7857 25.8232 0 -76.7857 24.7732 0 
-75.6549 24.1404 0 -76.8143 27.9558 0 -76.8143 26.9058 0 
-75.6893 26.3782 0 -76.8187 30.089 0 -76.8187 28.989 0 
-75.7224 28.494 0 -76.7939 32.1777 0 -76.7939 31.1777 0 
-75.702 30.6159 0 -76.7935 34.4544 0 -76.7935 33.3044 0 
-75.6768 32.8313 0 -76.7836 36.5736 0 -76.7836 35.5236 0 
-75.6665 35.0272 0 -76.77 38.9008 0 -76.77 37.7008 0 
-75.643 37.2236 0 -76.8181 41.2647 0 -76.8181 40.0647 0 
-75.6775 39.5146 0 -76.8308 43.4024 0 -76.8308 42.3524 0 
-75.7383 41.7662 0 -76.8293 45.673 0 -76.8293 44.573 0 
-75.7494 44.0245 0 -76.8402 47.855 0 -76.8402 46.755 0 
-75.7588 46.2771 0 -76.8188 49.9906 0 -76.8188 48.9406 0 
-75.7484 48.4447 0 -76.8613 52.1391 0 -76.8613 51.0891 0 
-75.7694 50.6288 0 -76.9393 54.3692 0 -76.9393 53.2192 0 
-75.89 52.8075 0 -75.9547 -39.2731 0 -18.8372 55.2886 0 
-18.8372 56.4886 0 -19.5467 56.8095 0 -18.7075 53.034 0 
-18.7075 54.134 0 -19.634 54.6718 0 -18.7704 50.9049 0 
-18.7704 51.9549 0 -19.5673 52.4381 0 -18.7945 48.7786 0 
-18.7945 49.8286 0 -19.6543 50.2827 0 -18.8388 46.5778 0 
-18.8388 47.7278 0 -19.7227 48.1556 0 -18.8388 44.4012 0 
-18.8388 45.4512 0 -19.767 45.9782 0 -18.8835 42.3165 0 
-18.8835 43.3165 0 -19.8117 43.7669 0 -18.8894 40.1863 0 
-18.8894 41.2863 0 -19.8623 41.652 0 -18.8802 37.997 0 
-18.8802 39.097 0 -19.8589 39.5325 0 -18.9221 35.8817 0 
-18.9221 36.8817 0 -19.8916 37.3279 0 -18.9323 33.5807 0 
-18.9323 34.7807 0 -19.9438 35.1115 0 -18.908 31.4649 0 
-18.908 32.5149 0 -19.9297 32.9448 0 -18.903 29.3183 0 
-18.903 30.3683 0 -19.9004 30.7824 0 -18.8958 27.1358 0 
-18.8958 28.2358 0 -19.8882 28.6032 0 -18.8745 25.0475 0 
-18.8745 26.0975 0 -19.8597 26.4825 0 -18.8759 22.9002 0 
-18.8759 23.9502 0 -19.8397 24.3469 0 -18.8578 20.821 0 
-18.8578 21.871 0 -19.823 22.2204 0 -18.8357 18.5679 0 
-18.8357 19.7179 0 -19.7828 20.0881 0 -18.8118 16.4758 0 
-18.8118 17.5258 0 -19.7369 17.9428 0 -18.8251 14.2677 0 
-18.8251 15.3677 0 -19.7263 15.7926 0 -18.8547 12.0145 0 
-18.8547 13.1145 0 -19.7691 13.5313 0 -18.8791 9.85815 0 
-18.8791 10.9581 0 -19.8231 11.3218 0 -18.8821 7.608 0 
-18.8821 8.758 0 -19.8505 9.16533 0 -18.8895 5.49493 0 
-18.8895 6.54493 0 -19.8609 7.00212 0 -18.8659 3.2265 0 
-18.8659 4.3765 0 -19.8447 4.82062 0 -18.8168 1.09105 0 
-18.8168 2.14105 0 -19.7721 2.61673 0 -18.8082 -1.04024 0 
-18.8082 0.00976165 0 -19.7143 0.449993 0 -18.8413 -3.25089 0 
-18.8413 -2.15089 0 -19.7388 -1.74194 0 -18.8746 -5.57432 0 
-18.8746 -4.37432 0 -19.8053 -3.97602 0 -18.8695 -7.63919 0 
-18.8695 -6.63919 0 -19.8335 -6.16432 0 -18.8877 -9.90327 0 
-18.8877 -8.75327 0 -19.8467 -8.34328 0 -18.8762 -12.2961 0 
-18.8762 -11.0961 0 -19.8533 -10.6502 0 -18.8976 -14.3591 0 
-18.8976 -13.3591 0 -19.8632 -12.906 0 -18.8979 -16.4803 0 
-18.8979 -15.4303 0 -19.8849 -15.0403 0 -18.8704 -18.6884 0 
-18.8704 -17.5384 0 -19.8576 -17.1695 0 -18.8879 -20.779 0 
-18.8879 -19.779 0 -19.8477 -19.3182 0 -18.9084 -23.0298 0 
-18.9084 -21.8798 0 -19.8857 -21.5096 0 -18.8896 -25.1786 0 
-18.8896 -24.1286 0 -19.8874 -23.7092 0 -18.8797 -27.3185 0 
-18.8797 -26.2685 0 -19.8587 -25.898 0 -18.8264 -29.3828 0 
-18.8264 -28.3328 0 -19.7955 -28.0021 0 -18.7876 -31.6419 0 
-18.7876 -30.4919 0 -19.7034 -30.1255 0 -18.7872 -33.7838 0 
-18.7872 -32.7338 0 -19.6642 -32.3266 0 -18.7845 -36.0332 0 
-18.7845 -34.8832 0 -19.6611 -34.5179 0 -18.7749 -38.1138 0 
-18.7749 -37.1138 0 -19.6488 -36.6978 0 -18.9606 -39.5492 0 
-21.7935 -39.8185 0 -20.6535 -39.8185 0 -23.8123 -39.6778 0 
-22.7323 -39.6778 0 -22.2352 -38.8472 0 -26.0537 -39.6286 0 
-24.9137 -39.6286 0 -24.2754 -38.6572 0 -28.1581 -39.6537 0 
-27.1381 -39.6537 0 -26.4612 -38.6331 0 -30.43 -39.6421 0 
-29.29 -39.6421 0 -28.6775 -38.6467 0 -32.5289 -39.637 0 
-31.5089 -39.637 0 -30.8883 -38.63 0 -34.6679 -39.623 0 
-33.6179 -39.623 0 -33.0562 -38.6108 0 -36.7255 -39.5989 0 
-35.7055 -39.5989 0 -35.1828 -38.5727 0 -38.8627 -39.5763 0 
-37.7827 -39.5763 0 -37.2776 -38.5261 0 -41.1291 -39.5665 0 
-39.9591 -39.5665 0 -39.4312 -38.4936 0 -43.3705 -39.555 0 
-42.2605 -39.555 0 -41.659 -38.4723 0 -45.5012 -39.5984 0 
-44.4512 -39.5984 0 -43.8711 -38.5042 0 -47.703 -39.6114 0 
-46.593 -39.6114 0 -46.0436 -38.5606 0 -49.8001 -39.6282 0 
-48.7501 -39.6282 0 -48.1824 -38.5904 0 -51.9031 -39.6207 0 
-50.8531 -39.6207 0 -50.2825 -38.5998 0 -53.9533 -39.6265 0 
-52.9333 -39.6265 0 -52.3657 -38.5981 0 -56.06 -39.6043 0 
-55.01 -39.6043 0 -54.4526 -38.5816 0 -58.1858 -39.597 0 
-57.1358 -39.597 0 -56.5852 -38.5521 0 -60.3629 -39.6207 0 
-59.2529 -39.6207 0 -58.7281 -38.5684 0 -62.4948 -39.6479 0 
-61.4448 -39.6479 0 -60.8771 -38.6194 0 -64.6396 -39.6445 0 
-63.5896 -39.6445 0 -63.0538 -38.6432 0 -66.7172 -39.6335 0 
-65.6972 -39.6335 0 -65.2062 -38.6288 0 -68.7903 -39.6193 0 
-67.7703 -39.6193 0 -67.3169 -38.6036 0 -70.9105 -39.6284 0 
-69.8305 -39.6284 0 -69.4102 -38.5985 0 -73.1714 -39.7351 0 
-72.0014 -39.7351 0 -71.5413 -38.7143 0 -75.1561 -39.859 0 
-74.1061 -39.859 0 -73.5668 -38.9449 0 -75.3002 -38.4829 0 
-62.5311 11.2954 0 -61.4661 11.2954 0 -60.3039 11.349 0 
-59.1639 11.349 0 -60.9884 12.2931 0 -58.0152 11.3837 0 
-56.8752 11.3837 0 -58.6775 12.3814 0 -55.6957 11.4149 0 
-54.5707 11.4149 0 -56.3493 12.4473 0 -53.4422 11.3967 0 
-52.3022 11.3967 0 -54.0413 12.4603 0 -51.2059 11.3434 0 
-50.1559 11.3434 0 -51.8165 12.3888 0 -49.1039 11.3528 0 
-48.0839 11.3528 0 -49.6682 12.3449 0 -47.0747 11.378 0 
-46.0697 11.378 0 -47.607 12.3795 0 -45.0103 11.385 0 
-43.9603 11.385 0 -45.5384 12.4117 0 -42.9002 11.3722 0 
-41.8652 11.3722 0 -43.4189 12.4059 0 -40.8035 11.3851 0 
-39.6635 11.3851 0 -41.2971 12.406 0 -38.5859 11.3956 0 
-37.5809 11.3956 0 -39.1578 12.4295 0 -36.5043 11.3922 0 
-35.4393 11.3922 0 -37.0036 12.4366 0 -34.2855 11.3461 0 
-33.2655 11.3461 0 -34.7732 12.387 0 -31.9364 9.92811 0 
-31.9364 8.92811 0 -33.2234 7.3981 0 -34.3484 7.3981 0 
-35.5172 7.31588 0 -36.5522 7.31588 0 -34.704 6.36272 0 
-37.6526 7.31368 0 -38.6876 7.31368 0 -36.9732 6.2783 0 
-39.7574 7.30528 0 -40.7924 7.30528 0 -39.1434 6.2677 0 
-41.8984 7.28854 0 -42.9334 7.28854 0 -41.3191 6.24256 0 
-43.9775 7.29395 0 -45.0875 7.29395 0 -43.4693 6.23123 0 
-46.2244 7.3084 0 -47.3194 7.3084 0 -45.6503 6.25109 0 
-48.3868 7.34429 0 -49.4518 7.34429 0 -47.8546 6.30143 0 
-50.5772 7.30973 0 -51.7472 7.30973 0 -50.0474 6.30276 0 
-52.8052 7.31897 0 -53.8252 7.31897 0 -52.2308 6.27745 0 
-54.9078 7.2947 0 -55.9278 7.2947 0 -54.3714 6.26241 0 
-56.9862 7.33331 0 -58.0212 7.33331 0 -56.5124 6.27675 0 
-59.1574 7.31156 0 -60.2224 7.31156 0 -58.707 6.29361 0 
-61.4456 7.32972 0 -62.6006 7.32972 0 -61.0664 6.29003 0 
-64.2388 8.86244 0 -64.2388 9.86244 0 -76.4612 57.3957 0 
-30.8714 8.23945 0 -31.8466 7.66259 0 -32.1584 6.70943 0 
-77.0922 56.5722 0 -77.0922 55.3722 0 -76.1209 54.8906 0 
-19.8249 -39.2138 0 -20.4677 -38.3832 0 -63.7425 11.1547 0 
-63.362 12.0988 0 -32.5064 12.1446 0 -32.1525 11.1498 0 
-31.1773 10.7267 0 -65.0696 10.6659 0 -63.7085 6.42701 0 
-64.0195 7.44855 0 -65.3466 7.95973 0 -75.6427 56.7171 0 
-71.3953 56.3275 0 -72.4858 56.3197 0 -73.5423 56.4663 0 
-74.6025 56.546 0 -75.2335 55.7225 0 -73.1367 55.4049 0 
-66.9466 56.48 0 -68.0514 56.4715 0 -64.7836 56.3849 0 
-65.8398 56.4137 0 -66.4586 55.4513 0 -62.6248 56.2816 0 
-63.7201 56.3102 0 -64.2882 55.3103 0 -60.456 56.2224 0 
-61.5069 56.2621 0 -62.1068 55.2161 0 -58.2183 56.197 0 
-59.364 56.1768 0 -59.8968 55.1509 0 -55.9288 56.1611 0 
-57.0703 56.176 0 -57.6568 55.0842 0 -53.77 56.1357 0 
-54.8361 56.1362 0 -55.4161 55.0384 0 -51.6095 56.1018 0 
-52.6776 56.0715 0 -53.231 54.9494 0 -49.3911 56.1021 0 
-50.5296 56.1141 0 -51.0587 54.8974 0 -47.2427 56.1448 0 
-48.2921 56.1613 0 -48.8797 54.9688 0 -45.0436 56.1293 0 
-46.1417 56.1299 0 -46.6797 55.0131 0 -42.8517 56.1377 0 
-43.9391 56.1299 0 -44.4742 54.9988 0 -40.73 56.144 0 
-41.7803 56.1545 0 -42.2983 55.0162 0 -38.6018 56.1331 0 
-39.6602 56.1371 0 -40.1571 55.0261 0 -36.4633 56.1198 0 
-37.5665 56.1149 0 -38.0519 55.001 0 -34.3188 56.1584 0 
-35.3784 56.1441 0 -35.9316 55.0071 0 -32.208 56.1733 0 
-33.2532 56.1626 0 -33.7811 55.0355 0 -30.043 56.2091 0 
-31.1167 56.2304 0 -31.6241 55.0968 0 -28.0081 56.3144 0 
-29.0153 56.2723 0 -29.5052 55.2171 0 -25.8558 56.418 0 
-26.9339 56.3671 0 -27.4034 55.333 0 -23.7694 56.567 0 
-24.8049 56.5121 0 -25.2784 55.4798 0 -21.663 56.7041 0 
-22.7326 56.6761 0 -23.1906 55.6829 0 -74.6691 -31.8734 0 
-74.7109 -33.0348 0 -20.3137 53.8789 0 -20.4434 55.0335 0 
-34.0152 5.3285 0 -35.184 5.24628 0 -74.786 -34.1773 0 
-74.8632 -35.2271 0 -73.6922 -33.7161 0 -75.0226 -36.3313 0 
-75.0925 -37.482 0 -74.2939 -38.0679 0 -73.9268 -35.9628 0 
-74.6754 -29.5475 0 -74.6522 -30.6927 0 -73.6002 -31.3928 0 
-74.7412 -27.3296 0 -74.7139 -28.3976 0 -73.6218 -29.0622 0 
-74.6833 -25.0454 0 -74.704 -26.1755 0 -73.6231 -26.7583 0 
-74.6159 -22.7489 0 -74.6166 -23.9108 0 -73.5192 -24.4696 0 
-74.5006 -20.5195 0 -74.5352 -21.6037 0 -73.3718 -22.1899 0 
-74.4965 -18.3225 0 -74.4736 -19.4195 0 -73.2641 -19.9448 0 
-74.6009 -16.18 0 -74.5981 -17.2571 0 -73.3387 -17.7794 0 
-74.5817 -13.9918 0 -74.6203 -15.0935 0 -73.4596 -15.6275 0 
-74.4671 -11.8752 0 -74.4972 -12.9512 0 -73.3944 -13.5005 0 
-74.3954 -9.73898 0 -74.417 -10.7896 0 -73.2599 -11.3743 0 
-74.3404 -7.64054 0 -74.3582 -8.66959 0 -73.1727 -9.21939 0 
-74.3076 -5.50091 0 -74.2978 -6.57828 0 -73.0929 -7.08775 0 
-74.3242 -3.38982 0 -74.3145 -4.42242 0 -73.0572 -4.947 0 
-74.4349 -1.23175 0 -74.3998 -2.31908 0 -73.1396 -2.79778 0 
-74.5575 0.85417 0 -74.5357 -0.175667 0 -73.316 -0.670957 0 
-74.5706 3.09955 0 -74.5509 1.9569 0 -73.4102 1.48786 0 
-74.5225 5.23145 0 -74.5201 4.14841 0 -73.353 3.63945 0 
-74.6108 7.35517 0 -74.5905 6.3085 0 -73.3705 5.76536 0 
-74.7044 9.44026 0 -74.6768 8.39671 0 -73.5044 7.88394 0 
-74.6864 11.621 0 -74.6966 10.5146 0 -73.5626 9.99981 0 
-74.695 13.7275 0 -74.687 12.6772 0 -73.5554 12.1303 0 
-74.6596 15.8759 0 -74.6817 14.7984 0 -73.5427 14.2573 0 
-74.4997 18.0424 0 -74.5414 16.9476 0 -73.4111 16.3998 0 
-74.4531 20.2495 0 -74.4642 19.1381 0 -73.2573 18.5671 0 
-74.5187 22.4184 0 -74.5364 21.344 0 -73.3051 20.7572 0 
-74.5682 24.6956 0 -74.5624 23.5404 0 -73.4321 22.9736 0 
-74.6135 26.9093 0 -74.5849 25.8267 0 -73.4924 25.2267 0 
-74.5914 28.9947 0 -74.587 27.9615 0 -73.4825 27.41 0 
-74.5008 31.1727 0 -74.5256 30.0841 0 -73.3902 29.5516 0 
-74.4539 33.4309 0 -74.4543 32.3042 0 -73.2779 31.7724 0 
-74.4137 35.5933 0 -74.4236 34.5241 0 -73.2011 33.997 0 
-74.4193 37.8414 0 -74.4329 36.7142 0 -73.19 36.2111 0 
-74.4848 40.1217 0 -74.4367 38.9578 0 -73.2266 38.4484 0 
-74.5157 42.3439 0 -74.5031 41.2562 0 -73.2623 40.6994 0 
-74.4911 44.6458 0 -74.4926 43.4752 0 -73.2574 42.9652 0 
-74.5829 46.8831 0 -74.572 45.8012 0 -73.3152 45.2518 0 
-74.5873 49.1007 0 -74.6087 48.0151 0 -73.4219 47.5391 0 
-74.6555 51.3698 0 -74.613 50.2712 0 -73.4734 49.8416 0 
-74.8291 53.6059 0 -74.7511 52.5258 0 -73.5947 52.1682 0 
-31.4026 5.81075 0 -32.7794 5.54625 0 -64.0752 13.0782 0 
-62.8638 13.2189 0 -75.0807 54.7195 0 -20.5032 51.8433 0 
-20.4403 52.9224 0 -21.2497 53.2841 0 -20.6307 49.7477 0 
-20.6066 50.8241 0 -21.4797 51.3083 0 -20.7206 47.6033 0 
-20.6763 48.6541 0 -21.6286 49.1954 0 -20.8058 45.3618 0 
-20.8058 46.4884 0 -21.7594 46.9868 0 -20.9173 43.1254 0 
-20.8725 44.2101 0 -21.9114 44.7202 0 -20.9398 41.0473 0 
-20.934 42.0775 0 -21.9948 42.5206 0 -20.9633 38.8586 0 
-20.9726 39.9479 0 -22.0442 40.3734 0 -21.0367 36.5957 0 
-20.9947 37.711 0 -22.1084 38.1264 0 -21.0521 34.4203 0 
-21.0419 35.5213 0 -22.145 35.9045 0 -21.0082 32.2823 0 
-21.0325 33.348 0 -22.1306 33.7578 0 -20.9919 30.1114 0 
-20.9969 31.2081 0 -22.0997 31.6113 0 -20.9515 27.9149 0 
-20.9586 28.9974 0 -22.0552 29.4231 0 -20.9031 25.8327 0 
-20.9245 26.871 0 -21.9949 27.2652 0 -20.8633 23.6361 0 
-20.8619 24.7335 0 -21.9267 25.122 0 -20.8097 21.567 0 
-20.8278 22.5962 0 -21.85 22.9827 0 -20.7448 19.3656 0 
-20.7668 20.4687 0 -21.7716 20.8445 0 -20.6586 17.2869 0 
-20.6824 18.329 0 -21.6664 18.7097 0 -20.6277 15.1098 0 
-20.6145 16.2179 0 -21.56 16.6042 0 -20.7381 12.8241 0 
-20.7085 13.9772 0 -21.5966 14.4026 0 -20.8572 10.7311 0 
-20.8328 11.7875 0 -21.7722 12.2334 0 -20.8195 8.54364 0 
-20.8165 9.64379 0 -21.8262 10.1094 0 -20.8676 6.34191 0 
-20.8602 7.40498 0 -21.8262 7.88343 0 -20.9169 4.16228 0 
-20.9405 5.28072 0 -21.9398 5.68358 0 -20.7513 1.98385 0 
-20.8004 3.06931 0 -21.8962 3.5294 0 -20.6913 -0.202002 0 
-20.7 0.879283 0 -21.7283 1.33186 0 -20.8317 -2.41583 0 
-20.7985 -1.30518 0 -21.7842 -0.875891 0 -20.8843 -4.65491 0 
-20.851 -3.53148 0 -21.9107 -3.09472 0 -20.8832 -6.80642 0 
-20.8883 -5.74155 0 -21.934 -5.29701 0 -20.8855 -9.02076 0 
-20.8673 -7.90668 0 -21.922 -7.48391 0 -20.8879 -11.3683 0 
-20.8995 -10.1755 0 -21.9201 -9.73891 0 -20.9079 -13.5388 0 
-20.8865 -12.4758 0 -21.9326 -12.0011 0 -20.9009 -15.7053 0 
-20.9006 -14.6341 0 -21.9239 -14.2039 0 -20.8888 -17.7982 0 
-20.9163 -16.7401 0 -21.932 -16.334 0 -20.9333 -20.0141 0 
-20.9157 -18.9235 0 -21.9744 -18.4941 0 -20.9604 -22.2014 0 
-20.9399 -21.1007 0 -22.0079 -20.7059 0 -20.9311 -24.4049 0 
-20.9499 -23.3061 0 -22.0041 -22.8972 0 -20.8712 -26.6453 0 
-20.8811 -25.5554 0 -21.9437 -25.1523 0 -20.7553 -28.6944 0 
-20.8086 -27.6802 0 -21.831 -27.3376 0 -20.6023 -30.8296 0 
-20.6412 -29.7204 0 -21.6543 -29.3985 0 -20.5274 -33.022 0 
-20.5277 -31.9301 0 -21.4656 -31.525 0 -20.5909 -35.188 0 
-20.5936 -34.0887 0 -21.4572 -33.6922 0 -20.5803 -37.4018 0 
-20.5899 -36.3212 0 -21.5224 -35.892 0 -21.4089 -38.0065 0 
-32.9106 13.382 0 -31.7976 13.1858 0 -26.916 -37.6164 0 
-25.8316 -37.5913 0 -24.558 -37.4784 0 -23.4566 -37.5276 0 
-25.0128 -36.4617 0 -22.3477 -37.8658 0 -29.1988 -37.5129 0 
-28.0669 -37.5245 0 -27.4373 -36.4827 0 -31.3561 -37.4813 0 
-30.2771 -37.4864 0 -29.6666 -36.3642 0 -33.5202 -37.4889 0 
-32.4312 -37.503 0 -31.8201 -36.3594 0 -35.7024 -37.4714 0 
-34.6648 -37.4954 0 -34.0398 -36.3876 0 -37.8183 -37.4102 0 
-36.7611 -37.4328 0 -36.2431 -36.3555 0 -39.9813 -37.3742 0 
-38.8848 -37.384 0 -38.3684 -36.2907 0 -42.2239 -37.3286 0 
-41.0925 -37.34 0 -40.5462 -36.2304 0 -44.3709 -37.389 0 
-43.2902 -37.3457 0 -42.7237 -36.2134 0 -46.5528 -37.4438 0 
-45.461 -37.4308 0 -44.8801 -36.2722 0 -48.6615 -37.5024 0 
-47.6144 -37.4856 0 -47.0318 -36.3558 0 -50.7622 -37.4856 0 
-49.7092 -37.4931 0 -49.1412 -36.3883 0 -52.8672 -37.4964 0 
-51.837 -37.4907 0 -51.2637 -36.384 0 -54.9934 -37.4324 0 
-53.9366 -37.4545 0 -53.4079 -36.3471 0 -57.0963 -37.3865 0 
-56.0205 -37.3939 0 -55.5045 -36.2668 0 -59.237 -37.4695 0 
-58.1699 -37.4458 0 -57.6052 -36.2876 0 -61.4033 -37.5464 0 
-60.3214 -37.5192 0 -59.7632 -36.3965 0 -63.5793 -37.5785 0 
-62.4845 -37.5819 0 -61.9288 -36.4817 0 -65.7385 -37.5611 0 
-64.6809 -37.5721 0 -64.1116 -36.5108 0 -67.9681 -37.457 0 
-66.915 -37.4712 0 -66.3898 -36.4145 0 -70.1018 -37.4397 0 
-69.0615 -37.4306 0 -68.6597 -36.2982 0 -72.298 -37.6818 0 
-71.2072 -37.5751 0 -70.8585 -36.4072 0 -66.4552 10.6193 0 
-65.9589 11.9115 0 -61.6687 13.3484 0 -60.5065 13.402 0 
-62.3819 14.3279 0 -30.2341 11.623 0 -30.0179 10.4012 0 
-59.3148 13.4788 0 -58.1662 13.5135 0 -59.9951 14.5342 0 
-56.9698 13.5746 0 -55.7902 13.6059 0 -57.6071 14.672 0 
-54.6683 13.5752 0 -53.5398 13.557 0 -55.2888 14.7025 0 
-52.4166 13.5094 0 -51.3202 13.4561 0 -53.0436 14.6243 0 
-50.2421 13.4145 0 -49.1902 13.4239 0 -50.8422 14.5351 0 
-48.1249 13.4235 0 -47.1156 13.4487 0 -48.6988 14.4931 0 
-46.0581 13.4712 0 -44.9988 13.4782 0 -46.576 14.5152 0 
-43.9903 13.4821 0 -42.9302 13.4693 0 -44.51 14.5416 0 
-41.817 13.461 0 -40.7553 13.474 0 -42.3884 14.5372 0 
-39.6692 13.4907 0 -38.5915 13.5012 0 -40.1891 14.5457 0 
-37.5089 13.5138 0 -36.4324 13.5104 0 -38.0203 14.5751 0 
-35.2704 13.5398 0 -34.1166 13.4937 0 -33.4078 14.5348 0 
-35.7758 14.6171 0 -62.9984 5.23096 0 -64.4173 5.34979 0 
-66.5862 7.00109 0 -66.8055 8.41498 0 -36.283 5.14077 0 
-37.3835 5.13856 0 -35.5943 4.10654 0 -38.5178 5.07689 0 
-39.5876 5.06849 0 -37.8277 3.93935 0 -40.7553 5.06422 0 
-41.8613 5.04749 0 -40.1297 3.87341 0 -42.9455 5.06194 0 
-43.9897 5.06735 0 -42.3817 3.8836 0 -45.076 5.06371 0 
-46.2128 5.07816 0 -44.5522 3.89442 0 -47.2879 5.11598 0 
-48.3554 5.15187 0 -46.7136 3.9286 0 -49.521 5.13906 0 
-50.6463 5.10451 0 -48.9543 3.95362 0 -51.7203 5.10439 0 
-52.7784 5.11363 0 -51.194 3.94069 0 -53.8749 5.11745 0 
-54.9575 5.09318 0 -53.3645 3.94439 0 -55.9918 5.12575 0 
-57.0502 5.16436 0 -55.4953 3.98079 0 -58.217 5.16948 0 
-59.3532 5.14773 0 -57.6964 4.01848 0 -60.5454 5.17672 0 
-61.7686 5.19487 0 -60.0554 4.05258 0 -29.7976 9.1261 0 
-29.7078 7.86058 0 -69.1818 56.4113 0 -70.2683 56.397 0 
-70.9532 55.3278 0 -68.6959 55.4575 0 -20.468 56.7213 0 
-21.6385 55.0163 0 -20.9588 55.8092 0 -62.4774 4.11765 0 
-65.3491 13.0321 0 -64.851 14.1522 0 -33.2594 4.42981 0 
-73.9417 54.4378 0 -30.1024 5.74768 0 -30.7234 4.58449 0 
-28.8543 10.0224 0 -66.7347 12.9856 0 -29.2584 6.6262 0 
-28.5792 5.39995 0 -28.1846 7.51285 0 -22.6303 -36.687 0 
-30.9394 14.1775 0 -30.5353 12.9401 0 -29.3759 12.6147 0 
-73.3591 -37.944 0 -73.0251 -36.8048 0 -67.171 9.57746 0 
-68.0603 10.8231 0 -68.4105 8.61881 0 -64.8546 4.06868 0 
-65.5647 5.26473 0 -66.6245 5.73968 0 -68.0833 6.19492 0 
-67.0618 4.45857 0 -61.638 54.0956 0 -62.7559 54.1151 0 
-66.058 54.3391 0 -67.1649 54.4055 0 -59.3979 54.0438 0 
-60.49 54.0894 0 -61.1391 52.9884 0 -57.0877 53.9809 0 
-58.2356 54.0019 0 -58.8288 52.9404 0 -54.891 53.8472 0 
-55.9837 53.872 0 -56.5625 52.7897 0 -52.709 53.7202 0 
-53.8014 53.7844 0 -54.369 52.618 0 -50.5274 53.7113 0 
-51.6074 53.6991 0 -52.1777 52.5341 0 -48.378 53.7707 0 
-49.477 53.7116 0 -50.0257 52.5132 0 -46.1286 53.7798 0 
-47.2296 53.7947 0 -47.8269 52.5374 0 -43.9198 53.7926 0 
-45.0243 53.7921 0 -45.5742 52.5736 0 -41.7314 53.8237 0 
-42.8028 53.8069 0 -43.3529 52.6002 0 -39.6044 53.8191 0 
-40.6743 53.826 0 -41.1787 52.6167 0 -37.5031 53.8351 0 
-38.5385 53.8533 0 -39.0556 52.6532 0 -35.3388 53.8497 0 
-36.4237 53.8255 0 -36.9103 52.6777 0 -33.1875 53.8567 0 
-34.2531 53.8526 0 -34.7452 52.6709 0 -31.0524 53.9734 0 
-32.1437 53.9162 0 -32.6158 52.7333 0 -28.9158 54.1234 0 
-29.9434 54.0602 0 -30.463 52.8796 0 -26.7387 54.2674 0 
-27.8129 54.2147 0 -28.2511 53.0577 0 -24.6049 54.4818 0 
-25.6558 54.3877 0 -26.0653 53.2694 0 -22.545 54.7674 0 
-23.5818 54.6583 0 -23.9593 53.5663 0 -22.0296 53.9918 0 
-64.4555 3.04233 0 -65.6029 2.95727 0 -68.0969 13.0363 0 
-67.4871 14.1569 0 -72.5489 -28.5748 0 -72.5104 -29.7247 0 
-61.9401 3.01356 0 -63.1699 3.04964 0 -63.9182 1.93824 0 
-72.4741 -30.9691 0 -72.491 -32.1498 0 -71.4011 -30.4817 0 
-72.8656 -35.7006 0 -32.5444 3.40624 0 -33.7802 3.18849 0 
-72.249 -23.9092 0 -72.3157 -25.0437 0 -72.017 -21.5696 0 
-72.0978 -22.7148 0 -70.8942 -23.2889 0 -71.9305 -19.3346 0 
-71.9574 -20.4346 0 -70.6834 -20.9594 0 -72.1175 -17.1859 0 
-72.016 -18.2513 0 -70.7093 -18.7411 0 -72.4398 -15.1016 0 
-72.4204 -16.1881 0 -71.0977 -16.66 0 -72.0754 -13.0521 0 
-72.1599 -14.0927 0 -71.1207 -14.6532 0 -71.9233 -10.8867 0 
-71.9733 -11.9723 0 -70.7388 -12.5644 0 -71.8469 -8.6797 0 
-71.8841 -9.74908 0 -70.5975 -10.347 0 -71.8014 -6.54155 0 
-71.844 -7.60381 0 -70.5554 -8.13349 0 -71.7911 -4.36427 0 
-71.7843 -5.44275 0 -70.5354 -5.95881 0 -71.8361 -2.1767 0 
-71.7605 -3.24744 0 -70.4876 -3.74319 0 -72.0137 0.0216656 0 
-71.9128 -1.03442 0 -70.5337 -1.48408 0 -72.3804 2.11924 0 
-72.387 1.01651 0 -70.9838 0.653048 0 -72.0976 4.1832 0 
-72.1481 3.13434 0 -71.125 2.66299 0 -72.2109 8.4874 0 
-72.1449 7.44587 0 -72.062 12.6358 0 -72.0614 11.5796 0 
-72.122 16.8389 0 -72.2402 15.7673 0 -71.9991 19.0533 0 
-72.0346 17.9576 0 -70.8637 17.3251 0 -72.1313 21.2501 0 
-72.0479 20.1557 0 -70.8253 19.5462 0 -72.3233 23.4836 0 
-72.2797 22.3616 0 -71.0226 21.7601 0 -72.3639 25.7462 0 
-72.3472 24.6152 0 -71.1949 24.0031 0 -72.2525 27.9092 0 
-72.2791 26.857 0 -71.1339 26.2455 0 -72.0796 30.1157 0 
-72.1453 29.0264 0 -70.9419 28.4734 0 -71.9773 32.3404 0 
-72.0238 31.2089 0 -70.779 30.6837 0 -71.9319 34.5831 0 
-71.9622 33.49 0 -70.7082 32.9265 0 -71.9546 36.7872 0 
-71.9353 35.6662 0 -70.6964 35.1592 0 -71.9898 39.0397 0 
-71.9724 37.9233 0 -70.7177 37.3784 0 -72.0258 41.3207 0 
-72.0076 40.1862 0 -70.7534 39.661 0 -72.0251 43.5881 0 
-72.0482 42.4569 0 -70.7935 41.9436 0 -72.1458 45.8757 0 
-72.0649 44.7204 0 -70.8557 44.212 0 -72.2474 48.1744 0 
-72.2215 47.0424 0 -70.9713 46.511 0 -72.3282 50.5834 0 
-72.3025 49.4128 0 -71.1022 48.9162 0 -72.4379 53.1179 0 
-72.3423 51.9619 0 -71.1715 51.5332 0 -27.852 10.9754 0 
-27.6317 9.70022 0 -30.127 3.62535 0 -31.4272 3.68842 0 
-31.948 2.4471 0 -22.6744 48.7702 0 -22.6288 49.8638 0 
-72.8852 54.2913 0 -22.9079 46.4686 0 -22.8227 47.5835 0 
-23.8228 48.2519 0 -23.0759 44.126 0 -23.0092 45.2777 0 
-24.0724 45.8743 0 -23.143 41.9861 0 -23.1264 43.0339 0 
-24.2241 43.5914 0 -23.2261 39.771 0 -23.1933 40.8703 0 
-24.3249 41.3836 0 -23.3065 37.4724 0 -23.2751 38.62 0 
-24.4242 39.117 0 -23.3094 35.2504 0 -23.3041 36.3247 0 
-24.4709 36.8183 0 -23.2619 33.1374 0 -23.2815 34.2097 0 
-24.4406 34.63 0 -23.2188 30.9703 0 -23.2301 32.0445 0 
-24.3809 32.4964 0 -23.1597 28.7551 0 -23.1929 29.8691 0 
-24.3233 30.3023 0 -23.0844 26.6626 0 -23.1114 27.7066 0 
-24.2491 28.1526 0 -23.0135 24.4651 0 -23.0547 25.5644 0 
-24.1712 26.0058 0 -22.9547 22.2688 0 -22.9902 23.3088 0 
-24.1183 23.7512 0 -22.8847 20.0917 0 -22.9276 21.1899 0 
-24.0678 21.516 0 -22.657 17.9998 0 -22.7193 19.0363 0 
-23.8753 19.3818 0 -22.4967 15.9344 0 -22.5408 17.0034 0 
-23.5937 17.33 0 -22.4949 13.824 0 -22.4141 14.9566 0 
-23.395 15.3558 0 -23.1309 11.7475 0 -23.0361 12.7841 0 
-23.8536 13.338 0 -22.9466 9.46145 0 -22.9872 10.5488 0 
-24.2512 11.0995 0 -22.8017 7.29149 0 -22.761 8.43015 0 
-23.922 8.8695 0 -23.3507 5.1569 0 -23.2778 6.2181 0 
-24.2125 6.76481 0 -23.0061 2.81439 0 -23.1226 3.90737 0 
-24.4606 4.44189 0 -22.6239 0.687174 0 -22.6752 1.79174 0 
-23.9017 2.16971 0 -22.9481 -1.46684 0 -22.841 -0.363661 0 
-23.7879 0.0962248 0 -23.0202 -3.6565 0 -23.0008 -2.54085 0 
-24.0576 -2.02862 0 -23.0401 -5.86342 0 -23.0362 -4.77678 0 
-24.1262 -4.22291 0 -23.048 -8.08935 0 -23.0639 -6.9891 0 
-24.166 -6.46886 0 -23.0675 -10.3895 0 -23.0535 -9.23475 0 
-24.1953 -8.73994 0 -23.0429 -12.6515 0 -23.0443 -11.544 0 
-24.1777 -11.0399 0 -23.0118 -14.8262 0 -23.0191 -13.7309 0 
-24.1308 -13.2738 0 -23.0192 -16.94 0 -23.0038 -15.9052 0 
-24.099 -15.4323 0 -23.1125 -19.1356 0 -23.0856 -18.0103 0 
-24.1574 -17.5816 0 -23.1557 -21.3237 0 -23.1491 -20.2371 0 
-24.2603 -19.7533 0 -23.1321 -23.5727 0 -23.1426 -22.468 0 
-24.2837 -21.9992 0 -23.0445 -25.8943 0 -23.0945 -24.7439 0 
-24.233 -24.3147 0 -22.9039 -28.0979 0 -22.9666 -27.063 0 
-24.1175 -26.6546 0 -22.6283 -30.1749 0 -22.7424 -29.1489 0 
-23.878 -28.8743 0 -22.2404 -32.2024 0 -22.315 -31.1019 0 
-23.4031 -30.8523 0 -22.4113 -34.2635 0 -22.3451 -33.1968 0 
-23.1946 -32.7737 0 -22.6313 -35.5538 0 -65.5251 15.1075 0 
-64.2512 15.1536 0 -27.9175 -35.301 0 -26.7665 -35.393 0 
-30.0928 -35.2208 0 -29.0145 -35.2472 0 -28.3437 -34.1576 0 
-31.4056 15.5563 0 -30.1433 15.3106 0 -28.4338 13.5283 0 
-28.1326 12.2111 0 -63.0995 15.3863 0 -61.9043 15.5159 0 
-63.7736 16.3416 0 -63.8302 54.1531 0 -64.8937 54.2278 0 
-65.6 53.182 0 -63.3614 53.0326 0 -32.2737 -35.2375 0 
-31.1986 -35.2158 0 -30.5465 -34.0988 0 -34.5546 -35.2286 0 
-33.4101 -35.2221 0 -32.7885 -34.0785 0 -36.7573 -35.1768 0 
-35.6986 -35.2154 0 -35.0688 -34.05 0 -38.886 -35.1114 0 
-37.8194 -35.1376 0 -37.2749 -33.9976 0 -41.1004 -35.0252 0 
-39.9892 -35.0594 0 -39.4402 -33.9063 0 -43.2317 -35.0283 0 
-42.1654 -35.0111 0 -41.6084 -33.8401 0 -45.3807 -35.0792 0 
-44.2906 -35.0374 0 -43.7323 -33.8352 0 -47.5173 -35.1723 0 
-46.4557 -35.1305 0 -45.8662 -33.8957 0 -49.6505 -35.1986 0 
-48.6027 -35.2079 0 -48.0266 -33.9826 0 -51.779 -35.1943 0 
-50.7042 -35.1893 0 -50.1658 -34.0089 0 -53.9312 -35.1282 0 
-52.8617 -35.1701 0 -52.3022 -33.9754 0 -56.0277 -35.0373 0 
-55.0005 -35.0758 0 -54.4543 -33.8987 0 -58.1012 -35.097 0 
-57.0276 -35.0377 0 -56.5236 -33.8468 0 -60.2754 -35.1819 0 
-59.191 -35.1323 0 -58.6134 -33.8824 0 -62.4785 -35.279 0 
-61.3974 -35.2435 0 -60.8252 -33.9792 0 -64.6506 -35.3702 0 
-63.549 -35.3766 0 -63.0175 -34.1384 0 -67.0104 -35.2247 0 
-65.8339 -35.3146 0 -65.2713 -34.1804 0 -69.3709 -34.9311 0 
-68.2775 -34.9575 0 -67.7216 -33.8576 0 -71.7187 -35.3825 0 
-70.6133 -35.2472 0 -70.2311 -33.9064 0 -72.6204 -34.5405 0 
-72.4613 -26.2255 0 -72.4985 -27.3796 0 -71.387 -28.0421 0 
-58.2664 15.7976 0 -57.07 15.8588 0 -55.9233 15.8946 0 
-54.8014 15.8639 0 -56.5826 17.0202 0 -53.6742 15.8522 0 
-52.5509 15.8046 0 -54.3087 17.0442 0 -51.4116 15.7688 0 
-50.3335 15.7272 0 -52.0422 16.9967 0 -49.2361 15.6358 0 
-48.1708 15.6353 0 -49.8055 16.8695 0 -47.1189 15.6527 0 
-46.0614 15.6752 0 -47.6562 16.7954 0 -45.062 15.737 0 
-44.0535 15.7409 0 -45.6049 16.8746 0 -42.9983 15.755 0 
-41.8851 15.7468 0 -43.5502 16.9505 0 -40.7556 15.6954 0 
-39.6695 15.7122 0 -41.3655 16.9133 0 -38.5215 15.7377 0 
-37.4389 15.7503 0 -39.0881 16.8874 0 -22.4683 50.9432 0 
-22.365 51.9625 0 -23.5141 50.518 0 -37.1549 2.70782 0 
-38.2892 2.64614 0 -39.471 2.59037 0 -40.6388 2.58611 0 
-38.7982 1.35884 0 -41.8239 2.64835 0 -42.9081 2.66281 0 
-41.1652 1.36532 0 -44.0086 2.75013 0 -45.0949 2.74649 0 
-43.4509 1.51488 0 -46.174 2.74479 0 -47.2491 2.78261 0 
-45.6304 1.6005 0 -48.3968 2.69836 0 -49.5624 2.68555 0 
-47.8572 1.51455 0 -50.6821 2.6711 0 -51.7561 2.67098 0 
-50.1246 1.41584 0 -52.8394 2.71183 0 -53.9359 2.71565 0 
-52.3276 1.44224 0 -55.0295 2.74103 0 -56.0638 2.77361 0 
-54.5044 1.50847 0 -57.1661 2.79927 0 -58.3329 2.80439 0 
-56.7003 1.55952 0 -59.5289 2.8565 0 -60.7211 2.88549 0 
-61.4136 1.81749 0 -58.9986 1.6373 0 -72.5453 -33.398 0 
-60.7074 15.639 0 -59.5157 15.7158 0 -58.9787 16.9025 0 
-34.8896 2.95956 0 -35.9886 2.85404 0 -36.4502 1.56083 0 
-34.1746 1.93599 0 -71.6329 54.085 0 -23.5192 -35.0584 0 
-22.1562 53.0352 0 -67.809 53.4766 0 -68.2096 54.5888 0 
-69.34 54.5286 0 -71.4192 -32.9743 0 -68.9563 11.975 0 
-69.7086 13.1464 0 -68.3263 15.4877 0 -66.9642 15.437 0 
-66.7451 1.99918 0 -67.1442 3.02553 0 -71.191 -25.6651 0 
-70.7708 6.94977 0 -72.0643 6.34631 0 -71.9963 5.26926 0 
-70.7914 4.76415 0 -72.4453 10.5383 0 -72.4532 9.46397 0 
-72.5032 14.7551 0 -72.5165 13.6843 0 -26.9099 11.8889 0 
-69.4482 7.75283 0 -69.8137 8.91531 0 -71.0226 13.1336 0 
-23.1449 52.6701 0 -29.1879 16.4303 0 -28.7218 15.0515 0 
-66.3644 16.4383 0 -32.6537 15.7139 0 -31.8575 16.8471 0 
-33.8597 15.8256 0 -61.425 16.6975 0 -71.0937 9.02589 0 
-27.286 5.02844 0 -28.13 4.14992 0 -69.672 10.9332 0 
-68.204 3.50047 0 -70.5059 54.1545 0 -27.4785 14.6479 0 
-69.3676 6.65327 0 -69.4059 5.39186 0 -36.764 16.9823 0 
-36.2628 15.8197 0 -35.1009 15.8491 0 -29.052 3.22851 0 
-29.7558 2.33244 0 -27.7588 2.85701 0 -25.724 -35.5946 0 
-24.4504 -35.4817 0 -71.2141 15.1943 0 -24.2304 -34.1913 0 
-26.2041 -34.4129 0 -60.7022 51.8359 0 -61.8502 51.842 0 
-53.8934 51.2276 0 -54.9829 51.2905 0 -51.6732 51.1581 0 
-52.7748 51.1792 0 -53.3888 49.8517 0 -49.5469 51.1885 0 
-50.5973 51.1882 0 -51.1944 49.8334 0 -47.2574 51.2412 0 
-48.4058 51.2173 0 -48.9774 49.8923 0 -45.0261 51.287 0 
-46.1304 51.2747 0 -46.7092 49.9546 0 -42.7883 51.2946 0 
-43.9053 51.2803 0 -44.4614 49.9814 0 -40.6242 51.288 0 
-41.6814 51.2857 0 -42.2338 49.9658 0 -38.4968 51.3466 0 
-39.5627 51.3124 0 -40.0654 49.9814 0 -36.3027 51.3633 0 
-37.3821 51.3729 0 -37.8892 50.0321 0 -34.1134 51.3993 0 
-35.199 51.3965 0 -35.6708 50.0917 0 -31.9759 51.5176 0 
-33.0197 51.4582 0 -33.4735 50.1837 0 -29.782 51.6894 0 
-30.891 51.6026 0 -31.2949 50.3274 0 -27.5145 51.9079 0 
-28.6174 51.8165 0 -29.0454 50.5395 0 -25.2725 52.2243 0 
-26.3554 52.104 0 -26.7217 50.8628 0 -24.168 52.4935 0 
-69.5895 2.87276 0 -69.5072 4.3058 0 -70.0196 53.2858 0 
-70.2524 -27.4871 0 -70.3028 -28.6823 0 -63.3711 0.968512 0 
-64.6567 0.961194 0 -69.9311 -25.1357 0 -70.0767 -26.3175 0 
-68.9925 -26.9578 0 -70.3531 -29.9668 0 -70.3168 -31.2112 0 
-69.2185 -29.4119 0 -27.3323 8.40836 0 -26.8829 7.17397 0 
-69.0833 -20.3809 0 -69.1429 -21.516 0 -69.4854 -22.7217 0 
-69.6366 -23.916 0 -68.5223 -24.5685 0 -67.8853 -22.1431 0 
-69.8281 -15.671 0 -69.5252 -16.6689 0 -69.5482 -14.6621 0 
-56.5516 8.35126 1 -55.4266 8.35126 1 -69.3258 -12.1847 0 
-69.4279 -13.2645 0 -68.1352 -14.2824 0 -69.2031 -9.86404 0 
-69.2423 -11.0017 0 -67.9314 -11.7017 0 -69.2079 -7.6124 0 
-69.2108 -8.68829 0 -67.8556 -9.34294 0 -69.2301 -5.40599 0 
-69.2473 -6.50478 0 -67.9027 -7.05958 0 -69.0564 -3.05165 0 
-69.087 -4.16848 0 -67.7989 -4.71445 0 -68.8605 -0.503121 0 
-68.7838 -1.64541 0 -67.3832 -2.07069 0 -70.952 11.0438 0 
-25.225 -33.3457 0 -24.2939 -32.9225 0 -24.1892 -31.9281 0 
-25.7927 12.7114 0 -25.5121 11.4757 0 -69.29 17.6058 0 
-69.3773 16.4871 0 -70.1282 24.5334 0 -70.1042 23.4018 0 
-69.729 26.6782 0 -69.8138 25.5674 0 -68.7232 24.9661 0 
-69.4901 28.9473 0 -69.5972 27.8302 0 -68.2771 27.1521 0 
-69.3829 31.1723 0 -69.4386 30.0791 0 -68.094 29.4359 0 
-69.3432 33.5042 0 -69.3584 32.3546 0 -68.018 31.7499 0 
-69.3567 35.7098 0 -69.3532 34.6267 0 -68.0034 34.0547 0 
-69.4014 37.9675 0 -69.3835 36.8314 0 -68.0403 36.2989 0 
-69.4542 40.2763 0 -69.4364 39.1298 0 -68.1022 38.5828 0 
-69.5076 42.5772 0 -69.4852 41.441 0 -68.1683 40.9098 0 
-69.5895 44.8462 0 -69.5497 43.7139 0 -68.2414 43.2114 0 
-69.7078 47.1884 0 -69.6321 46.0217 0 -68.3261 45.5236 0 
-69.8399 49.6445 0 -69.7847 48.4061 0 -68.4455 47.9168 0 
-69.9901 52.2386 0 -69.976 50.8601 0 -68.8241 52.6127 0 
-26.33 9.36134 0 -26.2676 -33.1441 0 -69.554 20.0157 0 
-69.5051 18.9133 0 -68.0187 18.0753 0 -70.1631 14.1949 0 
-30.8981 1.52254 0 -32.0153 1.24036 0 -25.2875 45.4222 0 
-25.1862 46.613 0 -25.4462 43.1236 0 -25.3958 44.2157 0 
-26.5096 44.9544 0 -25.57 40.8831 0 -25.5197 41.9988 0 
-26.6913 42.6231 0 -25.6792 38.5383 0 -25.6302 39.6893 0 
-26.825 40.3044 0 -25.7056 36.2344 0 -25.7079 37.3821 0 
-26.9139 37.9544 0 -25.6705 34.0984 0 -25.6984 35.1391 0 
-26.9354 35.7029 0 -25.6054 31.9002 0 -25.6372 32.9931 0 
-26.895 33.5022 0 -25.5485 29.6688 0 -25.5744 30.77 0 
-26.8306 31.2668 0 -25.4447 27.5012 0 -25.493 28.5497 0 
-26.7441 29.0175 0 -25.3574 25.3484 0 -25.3871 26.4467 0 
-26.6309 26.8439 0 -25.3319 23.0369 0 -25.3552 24.1932 0 
-26.5711 24.6341 0 -25.3387 20.7437 0 -25.3659 21.8225 0 
-26.6029 22.2646 0 -24.9341 18.5258 0 -25.0994 19.5812 0 
-26.3975 19.8877 0 -25.3685 10.277 0 -24.8835 7.95384 0 
-25.0691 8.98514 0 -25.5347 3.48539 0 -25.7627 4.73492 0 
-25.0592 -0.0198232 0 -24.8421 1.03101 0 -25.1371 -2.43875 0 
-25.0844 -1.36473 0 -26.1387 -0.429947 0 -25.2307 -4.74232 0 
-25.2147 -3.62205 0 -26.2416 -2.95816 0 -25.4 -7.02276 0 
-25.3762 -5.89708 0 -26.4647 -5.29622 0 -25.4574 -9.31014 0 
-25.4519 -8.16474 0 -26.6621 -7.59296 0 -25.3555 -11.6295 0 
-25.3786 -10.475 0 -26.6352 -9.89978 0 -25.306 -13.8058 0 
-25.3298 -12.7264 0 -26.5307 -12.1615 0 -25.3121 -15.9584 0 
-25.3201 -14.8793 0 -26.5191 -14.3319 0 -25.3972 -18.1456 0 
-25.3308 -17.0753 0 -26.5519 -16.5224 0 -25.5412 -20.3539 0 
-25.5047 -19.2524 0 -26.6781 -18.7461 0 -25.5287 -22.6215 0 
-25.5418 -21.4772 0 -26.7862 -20.9762 0 -25.4312 -25.0036 0 
-25.4687 -23.8324 0 -26.7268 -23.3105 0 -25.2787 -27.4909 0 
-25.3566 -26.3221 0 -26.5924 -25.8399 0 -24.8874 -29.7459 0 
-25.0489 -28.6949 0 -26.2881 -28.3624 0 -24.5024 -31.0011 0 
-29.7129 17.8636 0 -28.2914 17.6045 0 -66.2935 17.7016 0 
-64.8544 17.3722 0 -66.5086 19.0091 0 -28.6289 -32.8754 0 
-27.5318 -32.9291 0 -30.9417 -32.9623 0 -29.8359 -32.9673 0 
-29.024 -31.7388 0 -38.1 0.0176313 0 -39.2818 -0.0381388 0 
-37.7599 -32.7127 0 -36.6978 -32.7519 0 -39.97 -32.578 0 
-38.8669 -32.63 0 -38.2897 -31.3844 0 -42.1061 -32.5414 0 
-41.0411 -32.5555 0 -40.4678 -31.2793 0 -44.2225 -32.5407 0 
-43.1636 -32.5315 0 -42.5964 -31.2469 0 -46.4056 -32.5942 0 
-45.3306 -32.5429 0 -44.762 -31.2392 0 -48.5679 -32.6681 0 
-47.4825 -32.6325 0 -46.9469 -31.2797 0 -50.6809 -32.7536 0 
-49.6272 -32.7629 0 -49.083 -31.4128 0 -52.8407 -32.7171 0 
-51.758 -32.7414 0 -51.2194 -31.4954 0 -54.9894 -32.5684 0 
-53.92 -32.6208 0 -53.3758 -31.3868 0 -57.0049 -32.4991 0 
-56.0049 -32.4987 0 -55.4706 -31.2207 0 -59.1955 -32.5022 0 
-58.1057 -32.467 0 -57.587 -31.119 0 -61.4293 -32.6717 0 
-60.3073 -32.6101 0 -59.7996 -31.1947 0 -63.5885 -32.9292 0 
-62.5181 -32.8317 0 -62.0002 -31.4625 0 -65.7758 -33.156 0 
-64.5925 -33.2115 0 -64.093 -31.9048 0 -70.1768 -32.6582 0 
-26.2119 5.98495 0 -59.7587 18.0371 0 -58.5094 18.119 0 
-57.2155 18.2118 0 -56.0688 18.2475 0 -57.9956 19.3464 0 
-56.0606 51.4599 0 -57.1645 51.5688 0 -55.585 50.0695 0 
-62.2511 17.8138 0 -61.0541 17.937 0 -60.5848 19.1535 0 
-54.9307 18.3402 0 -53.8035 18.3285 0 -55.5637 19.5318 0 
-52.5986 18.3942 0 -51.4593 18.3584 0 -53.2206 19.6902 0 
-50.3089 18.2819 0 -49.2115 18.1904 0 -50.8653 19.6793 0 
-48.208 17.8796 0 -47.1561 17.897 0 -48.7114 19.292 0 
-46.1919 18.1442 0 -45.1925 18.206 0 -46.7437 19.2284 0 
-44.1475 18.2536 0 -43.0923 18.2677 0 -44.7345 19.5232 0 
-41.9893 18.1696 0 -40.8599 18.1182 0 -42.5866 19.4727 0 
-39.6476 18.1085 0 -38.4996 18.134 0 -40.2714 19.3648 0 
-24.6185 50.2488 0 -24.4581 51.3282 0 -58.3078 51.754 0 
-59.4701 51.7958 0 -60.1812 50.6494 0 -57.8058 50.4242 0 
-35.5497 -32.8242 0 -34.4057 -32.8374 0 -36.0347 -31.5393 0 
-40.564 -0.0703547 0 -41.7491 -0.00810657 0 -39.8657 -1.41156 0 
-42.9768 0.09097 0 -44.0773 0.178286 0 -42.3756 -1.3447 0 
-45.1111 0.52979 0 -46.1902 0.528093 0 -44.637 -0.894119 0 
-47.2283 0.208174 0 -48.3759 0.123922 0 -46.7089 -0.862532 0 
-49.5617 0.0554101 0 -50.6814 0.0409553 0 -48.9328 -1.25096 0 
-51.8481 0.08211 0 -52.9314 0.122962 0 -51.2852 -1.27832 0 
-54.0318 0.242146 0 -55.1254 0.267529 0 -53.5523 -1.11798 0 
-56.1926 0.356867 0 -57.2949 0.382533 0 -55.7199 -0.90946 0 
-69.1572 -18.0017 0 -69.0717 -19.085 0 -67.5312 -19.6415 0 
-67.8876 -17.0128 0 -24.9976 47.8654 0 -24.8493 49.0521 0 
-25.7933 49.8623 0 -69.8801 22.3493 0 -69.7317 21.2378 0 
-68.8134 22.8795 0 -26.612 15.4689 0 -26.3241 13.9457 0 
-69.9001 15.2071 0 -33.2743 -32.9259 0 -32.1379 -32.9412 0 
-31.4274 -31.8096 0 -63.7027 17.6049 0 -69.1288 -32.1434 0 
-67.7794 52.4294 0 -62.1482 0.726683 0 -62.8867 -0.250364 0 
-60.9292 0.59861 0 -69.8218 1.85766 0 -31.0906 18.0317 0 
-30.1941 19.2059 0 -25.3596 6.88045 0 -32.3387 18.1893 0 
-66.4614 52.0851 0 -67.4766 51.2212 0 -65.2972 51.9737 0 
-65.6101 -0.336492 0 -66.1572 0.633237 0 -26.5527 -31.8619 0 
-69.4484 0.862822 0 -70.056 9.89187 0 -63.3319 18.8444 0 
-24.9263 13.5324 0 -68.6585 50.3499 0 -68.4115 20.6049 0 
-34.3468 17.0282 0 -29.8231 1.1257 0 -26.2126 47.4132 0 
-27.4873 18.8815 0 -26.9623 17.4482 0 -25.173 2.05366 0 
-26.4751 2.34669 0 -24.4066 16.6148 0 -24.5228 17.6113 0 
-24.385 14.5723 0 -24.4676 15.5501 0 -33.7551 -31.7001 0 
-67.6985 0.701494 0 -25.6734 -30.8217 0 -57.9529 -0.793723 0 
-58.4606 0.408932 0 -59.6567 0.461044 0 -62.6076 50.6607 0 
-63.0444 51.8133 0 -64.1187 51.8513 0 -36.8407 0.163984 0 
-37.3243 -1.23299 0 -35.6745 0.31021 0 -68.025 -32.6347 0 
-66.7579 -32.9019 0 -66.0792 -31.933 0 -68.1651 -31.1876 0 
-37.8789 19.4565 0 -37.3194 18.2354 0 -36.1433 18.3048 0 
-27.3971 1.42528 0 -33.3162 0.807517 0 -34.4256 0.578587 0 
-34.8161 -0.818263 0 -32.2663 -0.117044 0 -25.3967 15.8314 0 
-61.3906 20.2952 0 -60.0952 20.3954 0 -52.9892 48.3231 0 
-54.1077 48.3715 0 -46.1643 48.6337 0 -47.2913 48.6002 0 
-43.8669 48.6574 0 -44.9877 48.6641 0 -45.5698 47.3097 0 
-41.6729 48.5438 0 -42.7798 48.5527 0 -43.3061 47.2354 0 
-39.5178 48.5674 0 -40.5793 48.543 0 -41.1253 47.1298 0 
-37.2925 48.6638 0 -38.4072 48.6375 0 -38.9211 47.1991 0 
-35.0045 48.7619 0 -36.1082 48.7287 0 -36.6262 47.3341 0 
-32.7515 48.892 0 -33.8453 48.8332 0 -34.2826 47.4703 0 
-30.563 49.0938 0 -31.6478 49.0089 0 -32.0196 47.6584 0 
-28.1644 49.383 0 -29.3291 49.2559 0 -29.682 47.9373 0 
-26.9524 49.6661 0 -26.9376 -30.6067 0 -68.2348 -28.7878 0 
-68.2851 -30.0722 0 -67.1814 -30.5635 0 -28.2867 -30.2845 0 
-27.4074 -29.2442 0 -66.4724 -11.1645 0 -66.5559 -12.3476 0 
-54.4066 8.35126 1 -53.3866 8.35126 1 -66.4479 -8.76341 0 
-66.4402 -9.93915 0 -65.0647 -10.585 0 -66.5647 -6.50666 0 
-66.5253 -7.61428 0 -65.1099 -8.21049 0 -66.5616 -4.17437 0 
-66.7048 -5.41189 0 -65.3274 -5.96658 0 -30.5649 20.6228 0 
-29.1872 20.4547 0 -48.446 48.4272 0 -49.5871 48.3983 0 
-47.901 47.1062 0 -50.7588 48.3369 0 -51.8347 48.3068 0 
-50.2274 46.8718 0 -67.3405 50.0056 0 -67.1517 24.8504 0 
-67.466 23.8164 0 -66.5789 32.2792 0 -66.6035 31.0969 0 
-66.583 34.6069 0 -66.573 33.4843 0 -65.1585 32.8313 0 
-66.6462 36.873 0 -66.6193 35.7514 0 -65.1889 35.181 0 
-66.7346 39.229 0 -66.6996 38.0668 0 -65.2786 37.5193 0 
-66.8195 41.5655 0 -66.7885 40.4007 0 -65.3858 39.8847 0 
-66.9497 43.8685 0 -66.9076 42.7318 0 -65.5278 42.2227 0 
-67.0281 46.2793 0 -66.9855 45.1038 0 -65.6517 44.6242 0 
-67.1601 48.7623 0 -67.0833 47.5447 0 -65.7427 47.1248 0 
-65.9783 49.6336 0 -67.2869 21.4114 0 -67.1091 20.1893 0 
-65.384 19.8157 0 -27.2801 -3.5031 0 -27.2025 -2.3198 0 
-28.1508 39.8422 0 -28.0905 41.036 0 -27.9782 42.2525 0 
-27.9048 43.3773 0 -29.304 41.7902 0 -27.7266 20.044 0 
-27.7508 44.6089 0 -27.6425 45.8154 0 -29.0377 44.2383 0 
-28.247 37.466 0 -28.2183 38.6222 0 -29.4838 39.3538 0 
-28.2746 35.1404 0 -28.2818 36.2358 0 -29.5861 36.9036 0 
-28.2541 32.9271 0 -28.2874 34.0324 0 -29.6337 34.5653 0 
-28.1928 30.5951 0 -28.2237 31.7253 0 -29.6162 32.2554 0 
-28.0619 28.3128 0 -28.1174 29.4319 0 -29.5105 29.8904 0 
-27.8617 26.1794 0 -27.9194 27.2339 0 -29.2927 27.6483 0 
-27.6145 23.957 0 -27.6167 25.1122 0 -28.9051 25.5022 0 
-28.0974 21.4609 0 -28.0635 22.6752 0 -25.747 17.8107 0 
-34.1806 -30.4167 0 -33.0491 -30.5052 0 -27.3563 -1.21613 0 
-27.331 0.128783 0 -28.6147 0.6391 0 -28.3948 -1.76107 0 
-28.036 -8.13495 0 -27.9841 -6.99298 0 -27.9521 -10.5278 0 
-28.0309 -9.36291 0 -29.3529 -8.76293 0 -27.6266 -12.7056 0 
-27.6524 -11.6088 0 -29.0481 -11.0719 0 -27.8889 -14.7972 0 
-27.8748 -13.7237 0 -28.9964 -13.171 0 -27.7439 -16.9905 0 
-27.7251 -15.8736 0 -29.0808 -15.2654 0 -28.1749 -19.19 0 
-28.0675 -18.0832 0 -29.2407 -17.4344 0 -28.1692 -21.4825 0 
-28.1686 -20.3592 0 -29.558 -19.6963 0 -28.0251 -23.9325 0 
-28.085 -22.7216 0 -29.4675 -22.1046 0 -27.7874 -26.6136 0 
-27.862 -25.295 0 -29.2201 -24.7062 0 -27.6372 -28.0402 0 
-43.0789 -29.8905 0 -42.0214 -29.9005 0 -40.9062 -29.8081 0 
-39.8351 -29.8305 0 -41.3887 -28.4517 0 -29.757 -0.170799 0 
-29.4938 -30.3764 0 -27.8095 -5.73255 0 -27.664 -4.57779 0 
-28.6248 -3.93943 0 -29.1834 -6.27455 0 -66.6589 29.8695 0 
-66.7103 28.7377 0 -65.2198 30.3987 0 -38.758 -29.962 0 
-37.6511 -30.0446 0 -39.1964 -28.4908 0 -45.3044 -29.8554 0 
-44.1963 -29.8531 0 -43.6213 -28.5067 0 -47.4878 -29.778 0 
-46.4109 -29.7398 0 -45.8453 -28.3537 0 -49.6986 -29.9419 0 
-48.6394 -29.8471 0 -48.1034 -28.3071 0 -51.7789 -30.318 0 
-50.7017 -30.3303 0 -50.2581 -28.7646 0 -53.8564 -29.9912 0 
-52.7772 -30.0875 0 -52.2595 -28.9224 0 -55.9862 -29.8012 0 
-54.9707 -29.871 0 -54.372 -28.5717 0 -58.1682 -29.6242 0 
-57.0674 -29.6563 0 -56.5674 -28.3065 0 -60.4216 -29.7811 0 
-59.3099 -29.6732 0 -58.7902 -28.2106 0 -62.7627 -30.2054 0 
-61.6739 -30.0454 0 -61.1841 -28.524 0 -65.0026 -30.8561 0 
-63.9986 -30.5739 0 -63.6723 -29.1568 0 -58.7456 20.4938 0 
-57.4517 20.5865 0 -59.5514 21.6355 0 -55.2294 48.5447 0 
-56.307 48.7141 0 -54.8298 47.0161 0 -66.7614 27.397 0 
-66.8931 26.245 0 -65.3263 27.8305 0 -56.2737 20.8209 0 
-55.1356 20.9136 0 -57.0237 21.9683 0 -26.5511 16.5336 0 
-66.7194 -13.5584 0 -66.8398 -14.956 0 -64.6429 -15.4997 0 
-66.0587 -16.2237 0 -65.2605 -13.0212 0 -53.8365 21.132 0 
-52.6316 21.1976 0 -54.5466 22.4211 0 -51.2933 21.2228 0 
-50.1428 21.1462 0 -51.9091 22.6645 0 -48.7347 20.8556 0 
-47.7312 20.5448 0 -49.1626 22.3991 0 -46.767 20.7921 0 
-52.3666 8.35126 1 -51.2266 8.35126 1 -45.4504 20.9401 0 
-44.4054 20.9877 0 -46.4378 22.2565 0 -43.1247 20.9239 0 
-42.0218 20.8258 0 -43.8405 22.3407 0 -40.8937 20.5455 0 
-39.6815 20.5358 0 -41.4318 21.9967 0 -34.8997 18.294 0 
-33.6585 18.2705 0 -32.8916 19.4551 0 -35.455 19.5472 0 
-27.4247 47.1301 0 -27.236 48.3825 0 -39.1389 -2.95402 0 
-40.421 -2.98623 0 -41.9773 -2.99763 0 -43.205 -2.89855 0 
-41.2505 -4.54008 0 -44.6831 -2.47772 0 -45.7169 -2.12621 0 
-44.2849 -4.13064 0 -46.755 -2.44613 0 -50.0566 8.35126 1 
-48.9916 8.35126 1 -48.2521 -2.5614 0 -49.4378 -2.62991 0 
-47.26 -3.82507 0 -50.7796 -2.7427 0 -51.9463 -2.70155 0 
-50.0989 -4.05314 0 -53.174 -2.57782 0 -54.2744 -2.45864 0 
-52.6684 -4.0422 0 -55.2864 -2.08411 0 -56.3536 -1.99477 0 
-54.9081 -3.54395 0 -36.4686 -30.2315 0 -35.3205 -30.3038 0 
-34.6145 -29.1089 0 -36.9369 -28.8091 0 -64.1346 20.0456 0 
-62.683 20.2545 0 -62.1934 21.4964 0 -64.7351 21.2258 0 
-65.6359 25.0953 0 -52.5536 46.8266 0 -64.9802 50.7544 0 
-64.1344 -1.29024 0 -65.635 -1.61819 0 -65.9076 -3.02444 0 
-67.7161 -26.5359 0 -67.8918 -27.7055 0 -66.9584 -28.3658 0 
-39.1829 21.9662 0 -38.5606 20.7855 0 -37.3803 20.887 0 
-67.2825 -24.182 0 -67.577 -25.4017 0 -66.4763 -26.1494 0 
-47.9266 8.35126 1 -46.8616 8.35126 1 -65.6908 -17.5565 0 
-32.1117 20.6944 0 -31.1049 21.9432 0 -60.3912 -0.629758 0 
-31.9395 -30.7596 0 -30.7432 -30.7807 0 -30.0059 -29.3263 0 
-29.1091 23.1533 0 -28.6659 46.7846 0 -32.3649 -29.4762 0 
-57.0478 47.5393 0 -57.4034 49.0641 0 -58.5467 49.2494 0 
-28.9068 -27.4954 0 -57.4234 -2.14067 0 -58.5892 -2.11427 0 
-56.9899 -3.31532 0 -33.4315 20.7756 0 -62.1718 49.3161 0 
-63.3661 49.2873 0 -36.4801 -2.5853 0 -37.7394 -2.73165 0 
-38.2946 -4.30632 0 -65.8242 -19.1216 0 -65.8357 -20.4175 0 
-63.9953 -18.3325 0 -66.0221 -21.9103 0 -66.3646 -23.116 0 
-64.315 -21.3904 0 -65.9848 -30.6021 0 -30.9821 -1.14668 0 
-32.283 -1.57952 0 -59.6641 49.6448 0 -60.8962 49.6849 0 
-61.6547 48.3115 0 -67.2419 22.7639 0 -65.9395 22.3483 0 
-45.7666 8.35126 1 -44.6416 8.35126 1 -62.9116 -1.53207 0 
-29.7737 -1.63328 0 -38.2929 45.698 0 -39.4035 45.6279 0 
-35.8705 45.8103 0 -37.0548 45.7453 0 -37.5373 44.1742 0 
-33.4665 46.0621 0 -34.6257 45.9908 0 -35.0544 44.4021 0 
-31.1552 46.3859 0 -32.2589 46.269 0 -32.6021 44.7896 0 
-29.8998 46.6226 0 -55.4529 23.8316 0 -54.1538 24.0499 0 
-63.6881 -7.48604 0 -63.6108 -8.63517 0 -61.2136 -1.79057 0 
-62.4614 -2.83045 0 -59.9411 -1.92814 0 -64.3641 48.1664 0 
-64.7999 49.5111 0 -63.4949 -10.036 0 -63.5271 -11.2614 0 
-62.0731 -9.31156 0 -64.8134 -3.72187 0 -66.1048 -29.4867 0 
-49.6166 45.2379 0 -50.7883 45.1765 0 -63.7361 35.7736 0 
-63.6998 34.6291 0 -52.2051 45.0918 0 -53.3596 45.1081 0 
-51.5943 43.458 0 -63.649 33.4133 0 -63.6549 32.2082 0 
-62.1963 34.0059 0 -63.8604 40.5568 0 -63.8066 39.3851 0 
-64.23 42.9059 0 -64.1418 41.7397 0 -62.5626 41.2401 0 
-64.3921 45.4189 0 -64.3563 44.1837 0 -62.9703 43.7007 0 
-30.9891 36.3811 0 -30.9542 37.6114 0 -63.7807 30.9664 0 
-63.8362 29.7389 0 -62.2713 31.5484 0 -30.8428 38.8955 0 
-30.7753 40.1155 0 -32.2457 38.3731 0 -30.358 23.1651 0 
-29.909 24.4468 0 -31.9048 23.2367 0 -30.2931 44.0016 0 
-30.1391 45.2332 0 -31.0627 34.0525 0 -31.05 35.1605 0 
-32.4181 35.8684 0 -31.0569 31.5624 0 -31.0872 32.7642 0 
-32.5034 33.3595 0 -30.9062 29.1369 0 -30.9816 30.3001 0 
-32.4526 30.8089 0 -30.5171 26.7832 0 -30.6596 27.8622 0 
-32.1307 28.2718 0 -30.154 25.514 0 -64.009 25.4461 0 
-64.2676 24.0515 0 -33.8663 -2.00419 0 -35.1153 -2.27257 0 
-32.5822 -3.03382 0 -63.78 38.1907 0 -63.7266 36.997 0 
-62.2375 36.445 0 -47.2604 45.5941 0 -48.415 45.4211 0 
-48.976 43.7258 0 -30.5476 -13.1318 0 -30.2995 -12.1137 0 
-30.7788 -9.38916 0 -30.7839 -8.1612 0 -30.6723 -16.0854 0 
-30.8361 -15.0091 0 -32.1391 -13.9518 0 -30.996 -17.1781 0 
-43.5316 8.35126 1 -42.5266 8.35126 1 -31.0832 -20.079 0 
-31.0894 -18.9098 0 -32.5211 -17.5608 0 -30.9215 -22.6951 0 
-31.0058 -21.456 0 -32.5372 -20.6694 0 -30.4955 -25.3659 0 
-30.6586 -24.0034 0 -32.1969 -23.3547 0 -41.8651 -26.9587 0 
-40.7499 -26.8663 0 -46.3899 -26.6919 0 -45.2834 -26.8075 0 
-31.2875 -28.5666 0 -30.0382 -28.1623 0 -30.1884 -26.7356 0 
-32.3972 -28.3122 0 -44.1558 -27.2405 0 -43.0384 -27.2779 0 
-42.3996 -25.6925 0 -44.7004 -25.5787 0 -39.4349 -26.641 0 
-38.3579 -26.7725 0 -39.9114 -25.148 0 -52.3334 -27.2252 0 
-51.3352 -27.4557 0 -54.7438 -27.2027 0 -53.6296 -27.3229 0 
-52.7052 -25.8562 0 -57.008 -26.7077 0 -55.9268 -26.8526 0 
-55.1843 -25.6039 0 -59.4541 -26.6689 0 -58.3124 -26.6199 0 
-57.6718 -25.1661 0 -60.3892 22.6364 0 -59.0395 22.7348 0 
-64.1303 -5.12444 0 -63.9902 -6.21922 0 -62.4911 -6.6439 0 
-63.4762 -3.97451 0 -54.8164 45.0275 0 -55.9381 45.2007 0 
-54.4679 43.2927 0 -40.5804 45.6179 0 -41.6741 45.6187 0 
-39.9523 44.1168 0 -63.9986 28.3523 0 -64.0496 27.0116 0 
-62.5595 28.92 0 -57.7934 23.1855 0 -56.6154 23.4199 0 
-56.2226 25.0487 0 -58.6312 24.1864 0 -30.5992 -11.0327 0 
-32.0302 -10.431 0 -41.4916 8.35126 1 -40.3366 8.35126 1 
-52.751 24.357 0 -51.4126 24.3821 0 -53.6573 25.7675 0 
-49.926 24.3291 0 -48.5179 24.0385 0 -50.7679 26.0215 0 
-38.2666 8.35126 1 -37.2016 8.35126 1 -36.1666 8.35126 1 
-35.1466 8.35126 1 -47.084 23.8395 0 -45.7674 23.9875 0 
-47.8474 25.7695 0 -44.2871 23.9282 0 -43.0064 23.8644 0 
-44.9332 25.5112 0 -41.4233 23.6313 0 -40.2952 23.351 0 
-41.8698 25.2188 0 -36.0864 20.8722 0 -34.8427 20.8614 0 
-36.768 22.2012 0 -34.0629 22.1007 0 -43.7069 -6.23471 0 
-45.185 -5.81388 0 -61.8916 8.35126 1 -46.5607 -5.12342 0 
-48.0578 -5.23869 0 -45.9828 -7.22749 0 -49.5344 -5.52704 0 
-50.8762 -5.63983 0 -48.8351 -6.82539 0 -52.3611 -5.67725 0 
-53.5889 -5.55353 0 -51.7967 -7.15116 0 -55.1132 -5.10342 0 
-56.1251 -4.72889 0 -54.8059 -6.73847 0 -65.7618 -28.4044 0 
-42.8086 45.6588 0 -43.8958 45.7635 0 -42.2637 44.1468 0 
-65.3784 -26.8759 0 -64.5248 -27.9967 0 -63.2889 -27.6282 0 
-65.2393 -25.7417 0 -44.9802 46.0128 0 -46.1567 45.9824 0 
-46.6707 44.2972 0 -56.9663 44.076 0 -56.9796 46.0646 0 
-58.076 46.4146 0 -61.7783 -4.23302 0 -64.3089 46.901 0 
-29.6199 -2.73695 0 -34.7022 23.4671 0 -33.291 23.3813 0 
-32.5441 24.6032 0 -39.1743 23.6008 0 -30.0038 -3.81164 0 
-62.0992 -12.1596 0 -63.6691 -12.7085 0 -63.8326 -13.9194 0 
-44.4827 44.4362 0 -59.2616 48.2848 0 -62.2546 38.8628 0 
-63.0632 22.929 0 -61.7708 22.9697 0 -63.0135 46.4605 0 
-59.4115 -3.27508 0 -37.5316 -25.7014 0 -37.2931 -27.5512 0 
-36.1106 -27.7381 0 -30.614 41.4509 0 -30.5017 42.6674 0 
-31.973 40.9927 0 -31.6031 43.6623 0 -31.521 25.7279 0 
-31.4433 -4.12097 0 -33.0266 -4.54563 0 -62.6813 25.9679 0 
-47.7001 -26.5508 0 -47.1382 -25.0046 0 -48.8517 -26.6198 0 
-30.4482 -5.32345 0 -35.5303 -3.77123 0 -63.0515 -15.1871 0 
-60.9641 -14.631 0 -61.7744 -16.2113 0 -61.259 24.069 0 
-64.6901 22.5782 0 -32.0487 -7.2101 0 -30.6229 -6.58387 0 
-31.6269 -26.0328 0 -57.1949 -4.87479 0 -37.3931 -5.7823 0 
-38.7926 -6.00466 0 -62.1114 -17.8374 0 -62.2448 -19.4025 0 
-60.024 -17.2813 0 -62.6618 -21.0319 0 -62.8481 -22.5247 0 
-60.7779 -20.5368 0 -50.332 -27.0674 0 -49.9287 -25.311 0 
-62.0979 -27.0929 0 -60.8456 -26.8286 0 -60.3678 -25.2379 0 
-62.9504 -25.9328 0 -40.3821 -6.27652 0 -41.9385 -6.28791 0 
-42.8386 -7.97114 0 -60.4174 47.5234 0 -61.693 47.1546 0 
-61.7762 45.6725 0 -59.3 47.1279 0 -34.9068 -27.8325 0 
-33.7668 -27.9454 0 -35.263 -26.5745 0 -39.4806 -7.75249 0 
-32.6895 -27.0357 0 -36.7242 42.7528 0 -37.9623 42.7054 0 
-41.7366 -9.88995 0 -43.505 -9.83675 0 -61.3032 25.3452 0 
-59.9216 25.0119 0 -61.3438 26.9107 0 -48.0945 42.205 0 
-49.2962 42.0219 0 -40.693 -23.5755 0 -39.378 -23.3503 0 
-60.595 34.6404 0 -60.5443 33.4247 0 -61.8755 44.471 0 
-61.7492 43.1933 0 -60.5551 45.1651 0 -61.1205 42.1564 0 
-60.8391 40.9735 0 -60.0257 42.9268 0 -34.0736 32.6783 0 
-34.0492 33.9665 0 -33.6375 37.9696 0 -33.5261 39.2538 0 
-33.9051 35.309 0 -33.8441 36.5296 0 -35.4752 34.6278 0 
-34.4958 -5.00458 0 -35.8606 -5.31731 0 -36.3585 -7.01565 0 
-33.3568 -6.09172 0 -34.0469 -18.6305 0 -33.9534 -16.8989 0 
-33.5179 -7.66904 0 -60.1956 -4.55826 0 -61.2105 -5.70232 0 
-60.9084 -6.96914 0 -58.8437 -4.74438 0 -60.3238 31.9325 0 
-60.4496 30.6907 0 -58.7226 32.567 0 -36.3109 -16.6361 0 
-34.7851 -15.5663 0 -32.9965 -25.666 0 -34.3557 -21.5207 0 
-34.4331 -20.1437 0 -35.8654 -19.4818 0 -33.4959 -24.325 0 
-33.7588 -23.0167 0 -35.6547 -22.4909 0 -34.5585 -25.3279 0 
-38.3034 -9.5171 0 -39.8929 -9.78895 0 -40.5593 -11.6546 0 
-58.3476 -23.3939 0 -57.0431 -23.4817 0 -55.2081 -23.827 0 
-54.0251 -24.177 0 -55.8838 -22.0549 0 -52.7289 -24.0793 0 
-32.9072 25.8724 0 -34.4329 26.1753 0 -33.4098 27.3 0 
-60.8961 37.0859 0 -60.9056 35.8625 0 -59.2536 35.2813 0 
-45.5442 42.8566 0 -46.6478 42.4683 0 -46.968 40.7644 0 
-33.942 29.9858 0 -34.0173 31.2481 0 -35.5631 31.8552 0 
-39.3241 42.4851 0 -40.5009 42.475 0 -38.511 41.0637 0 
-61.2424 29.5416 0 -61.4048 28.155 0 -60.0267 27.5323 0 
-60.3394 39.6811 0 -60.3128 38.4867 0 -58.9809 37.9042 0 
-58.8973 40.5974 0 -51.7923 28.2327 0 -50.3057 28.1798 0 
-39.3016 8.35126 1 -48.5596 27.7434 0 -47.1258 27.5444 0 
-49.5841 29.9546 0 -45.6476 27.0822 0 -44.1673 27.023 0 
-46.3598 29.0561 0 -42.5457 27.4375 0 -40.9626 27.2043 0 
-43.2601 29.0085 0 -37.5555 23.637 0 -36.2615 23.6223 0 
-35.4897 24.9029 0 -38.6679 25.0218 0 -44.0518 -11.7885 0 
-45.1538 -9.8697 0 -32.8106 43.4554 0 -33.1289 42.0368 0 
-34.1279 43.164 0 -50.9346 -8.82846 0 -52.4196 -8.86587 0 
-54.3515 -8.83033 0 -55.8758 -8.38022 0 -53.4895 -10.5076 0 
-35.3727 42.9835 0 -58.6754 25.4626 0 -53.8903 41.483 0 
-55.3471 41.4024 0 -65.4193 -23.9492 0 -60.4965 -11.4371 0 
-60.6384 -12.8843 0 -50.9163 41.7858 0 -52.3331 41.7011 0 
-53.2124 39.8107 0 -38.2057 -21.3864 0 -37.424 -22.9588 0 
-35 -8.24347 0 -36.5325 -8.70846 0 -36.9448 -10.7449 0 
-35.073 -11.4896 0 -36.8439 -12.2983 0 -33.6919 -9.36185 0 
-35.7623 -25.2335 0 -61.4771 -23.7819 0 -63.1304 -24.1403 0 
-33.2903 40.7013 0 -35.1245 37.4103 0 -59.2337 -7.50023 0 
-60.5143 -8.44181 0 -60.3984 -9.84265 0 -33.6564 28.5747 0 
-64.3214 -24.6757 0 -57.979 -6.15796 0 -54.8788 27.2838 0 
-53.476 27.5908 0 -53.0139 29.7491 0 -59.2318 45.6532 0 
-33.6999 -14.4361 0 -33.4114 -12.5588 0 -36.0574 -14.1733 0 
-60.0856 -23.6223 0 -57.2285 -11.3169 0 -55.8807 -12.3285 0 
-57.6878 -13.1734 0 -59.4569 -21.938 0 -59.2948 29.9257 0 
-58.0168 -16.8496 0 -58.3538 -18.4756 0 -58.9376 -10.5673 0 
-33.5123 -11.0054 0 -34.6821 40.2979 0 -56.1721 26.5698 0 
-55.9908 28.3932 0 -57.3346 26.1581 0 -58.0135 -14.9201 0 
-56.3434 -16.1144 0 -34.0216 8.35126 1 -52.1307 -22.01 0 
-50.8108 -23.6892 0 -35.7978 41.5148 0 -35.2212 29.014 0 
-56.5836 39.4488 0 -57.1611 41.2585 0 -47.4736 -22.9034 0 
-46.1635 -23.0445 0 -44.4598 42.6073 0 -42.3178 -24.0827 0 
-41.7844 -22.285 0 -43.491 -24.402 0 -46.3512 -8.82752 0 
-47.727 -8.13707 0 -46.898 -10.7793 0 -49.2036 -8.42542 0 
-49.8265 -10.1401 0 -41.8556 42.3819 0 -42.9902 42.422 0 
-41.2274 40.7502 0 -58.6249 26.9837 0 -62.9116 9.35126 1 
-41.3716 9.35126 0 -40.3366 9.35126 0 -39.9759 28.8375 0 
-39.3 26.6188 0 -49.3305 -23.2417 0 -48.3557 -21.2816 0 
-57.5849 -7.63063 0 -44.6186 -23.969 0 -42.4066 9.35126 0 
-43.4416 9.35126 0 -44.954 -21.8678 0 -39.8022 -13.4098 0 
-41.6459 -13.5108 0 -50.0349 40.265 0 -57.9602 36.3939 0 
-57.6497 35.1718 0 -37.0142 34.1048 0 -36.8701 35.4473 0 
-59.0399 -20.3085 0 -59.3311 44.4517 0 -35.9923 26.3305 0 
-36.0336 40.0672 0 -57.1274 33.4776 0 -56.907 31.9854 0 
-55.8341 34.5902 0 -57.0328 -19.8767 0 -44.0516 40.8423 0 
-50.0897 31.8736 0 -48.3435 31.4372 0 -36.583 36.9885 0 
-36.3764 38.4285 0 -37.4921 39.6454 0 -38.122 36.4655 0 
-49.6229 -19.5239 0 -47.766 -19.1856 0 -58.4866 9.35126 0 
-57.4516 9.35126 0 -36.6244 27.9275 0 -36.91 29.3385 0 
-57.1305 -9.72249 0 -36.8271 -24.4548 0 -43.7094 -13.7309 0 
-45.3582 -13.7638 0 -42.9523 -15.486 0 -52.2004 37.8481 0 
-53.7577 37.63 0 -37.0761 31.0317 0 -37.1324 32.4619 0 
-38.5272 33.2814 0 -39.5246 -20.1054 0 -37.5706 -19.7139 0 
-57.8931 29.377 0 -58.6859 28.2279 0 -58.7024 43.4149 0 
-54.6033 -14.3529 0 -54.6066 -16.2824 0 -49.0522 38.84 0 
-50.6724 38.6039 0 -37.1843 -18.2007 0 -38.016 -16.8682 0 
-47.0245 -16.567 0 -45.7574 -18.3247 0 -55.1977 -20.222 0 
-43.1946 38.771 0 -44.6642 38.9563 0 -54.551 35.9758 0 
-55.563 37.9385 0 -51.2177 36.4231 0 -46.8797 -14.5663 0 
-48.8884 -15.4272 0 -56.5998 30.091 0 -55.0047 31.0016 0 
-46.1278 38.9861 0 -47.5745 38.7229 0 -48.212 37.0618 0 
-57.3769 37.7947 0 -38.8538 39.425 0 -52.038 33.0292 0 
-53.321 31.6435 0 -54.0288 34.2816 0 -39.0157 -15.2848 0 
-37.9291 -13.4286 0 -52.2121 -12.532 0 -54.144 -12.4965 0 
-40.3637 39.0749 0 -41.7184 38.9817 0 -42.3309 37.0957 0 
-39.3448 37.6565 0 -39.8891 -16.8494 0 -54.4943 -18.3604 0 
-53.3454 -20.5385 0 -52.7543 -16.5989 0 -38.4793 29.9452 0 
-59.5516 9.35126 0 -41.3549 -20.4077 0 -40.7198 -18.7352 0 
-51.4273 -20.1484 0 -40.142 30.5308 0 -41.6653 31.6179 0 
-40.1687 32.7255 0 -44.5245 -19.9904 0 -42.9797 -20.9149 0 
-48.4195 -11.5817 0 -50.1505 -11.9848 0 -50.8051 -13.9736 0 
-61.8466 9.35126 0 -60.6916 9.35126 0 -41.7194 -17.1518 0 
-43.3456 31.0815 0 -43.3723 33.2762 0 -50.9499 -15.9744 0 
-59.3613 -13.9085 0 -45.2707 36.9148 0 -39.6319 36.1154 0 
-56.3116 9.35126 0 -55.2916 9.35126 0 -46.4453 31.129 0 
-44.9671 30.6669 0 -46.9509 33.048 0 -43.783 -17.3719 0 
-57.6608 42.551 0 -44.4299 34.8124 0 -45.8935 34.8423 0 
-47.7917 35.1504 0 -42.7496 35.3488 0 -41.2733 35.5595 0 
-54.1666 9.35126 0 -53.1466 9.35126 0 -40.0505 34.3685 0 
-50.8376 -18.0525 0 -49.2694 35.2675 0 -47.222 -12.6239 0 
-52.0066 9.35126 0 -50.8366 9.35126 0 -50.7974 34.5117 0 
-49.7866 9.35126 0 -48.7216 9.35126 0 -37.6811 26.655 0 
-47.7016 9.35126 0 -46.6066 9.35126 0 -17.9106 58.3008 1 
-17.9106 -39.5492 1 -17.9106 57.2008 1 -17.9106 56.0508 1 
-17.9106 54.8508 1 -17.9106 53.8508 1 -17.9106 52.7508 1 
-17.9106 51.6508 1 -17.9106 50.6008 1 -17.9106 49.6008 1 
-17.9106 48.5508 1 -17.9106 47.3508 1 -17.9106 46.2008 1 
-17.9106 45.1508 1 -17.9106 44.1008 1 -17.9106 43.0508 1 
-17.9106 42.0508 1 -17.9106 40.9508 1 -17.9106 39.8508 1 
-17.9106 38.7008 1 -17.9106 37.6008 1 -17.9106 36.6008 1 
-17.9106 35.5008 1 -17.9106 34.4508 1 -17.9106 33.2508 1 
-17.9106 32.1008 1 -17.9106 31.0508 1 -17.9106 30.0008 1 
-17.9106 27.9508 1 -17.9106 26.8508 1 -17.9106 25.7008 1 
-17.9106 24.6508 1 -17.9106 23.6008 1 -17.9106 22.5008 1 
-17.9106 21.4508 1 -17.9106 20.4008 1 -17.9106 19.2508 1 
-17.9106 18.1008 1 -17.9106 17.0508 1 -17.9106 15.9508 1 
-17.9106 14.8508 1 -17.9106 13.8008 1 -17.9106 12.7008 1 
-17.9106 11.6008 1 -17.9106 10.5008 1 -17.9106 9.40082 1 
-17.9106 8.25082 1 -17.9106 7.15082 1 -17.9106 6.10081 1 
-17.9106 5.05082 1 -17.9106 3.90082 1 -17.9106 2.75081 1 
-17.9106 1.70081 1 -17.9106 0.650815 1 -17.9106 -0.399185 1 
-17.9106 -1.54919 1 -17.9106 -2.64918 1 -17.9106 -4.74919 1 
-17.9106 -5.94918 1 -17.9106 -6.99919 1 -17.9106 -7.99919 1 
-17.9106 -9.14919 1 -17.9106 -10.2992 1 -17.9106 -11.3492 1 
-17.9106 -12.5492 1 -17.9106 -13.5992 1 -17.9106 -14.5992 1 
-17.9106 -15.6992 1 -17.9106 -16.7492 1 -17.9106 -17.9992 1 
-17.9106 -19.1492 1 -17.9106 -20.1492 1 -17.9106 -22.2492 1 
-17.9106 -23.3992 1 -17.9106 -24.4992 1 -17.9106 -25.5492 1 
-17.9106 -26.5992 1 -17.9106 -27.6992 1 -17.9106 -28.7492 1 
-17.9106 -29.8992 1 -17.9106 -31.0492 1 -17.9106 -32.1492 1 
-17.9106 -33.1992 1 -17.9106 -34.1992 1 -17.9106 -35.3492 1 
-17.9106 -36.4492 1 -17.9106 -37.4492 1 -17.9106 28.9508 1 
-17.9106 -3.64918 1 -17.9106 -21.1492 1 -17.9106 -38.4492 1 
-77.9106 -39.5992 1 -77.9106 58.3008 1 -77.9106 57.2008 1 
-77.9106 -38.4492 1 -77.9106 -37.3992 1 -77.9106 -36.2492 1 
-77.9106 -35.1992 1 -77.9106 -34.0992 1 -77.9106 -32.9992 1 
-77.9106 -31.8992 1 -77.9106 -30.7992 1 -77.9106 -29.6992 1 
-77.9106 -28.6492 1 -77.9106 -27.5492 1 -77.9106 -26.3992 1 
-77.9106 -25.2492 1 -77.9106 -24.1992 1 -77.9106 -23.1492 1 
-77.9106 -21.9492 1 -77.9106 -20.8992 1 -77.9106 -19.8492 1 
-77.9106 -18.6492 1 -77.9106 -17.4992 1 -77.9106 -16.4492 1 
-77.9106 -15.3492 1 -77.9106 -14.2992 1 -77.9106 -13.2492 1 
-77.9106 -12.1992 1 -77.9106 -11.1492 1 -77.9106 -10.0492 1 
-77.9106 -8.99918 1 -77.9106 -7.94918 1 -77.9106 -6.89919 1 
-77.9106 -5.69918 1 -77.9106 -4.64919 1 -77.9106 -3.54919 1 
-77.9106 -2.54919 1 -77.9106 -1.39919 1 -77.9106 -0.299185 1 
-77.9106 0.700815 1 -77.9106 1.80081 1 -77.9106 2.95081 1 
-77.9106 4.05082 1 -77.9106 5.05082 1 -77.9106 6.15082 1 
-77.9106 7.20081 1 -77.9106 8.25082 1 -77.9106 9.35081 1 
-77.9106 10.4008 1 -77.9106 11.4508 1 -77.9106 12.5008 1 
-77.9106 13.5508 1 -77.9106 14.6508 1 -77.9106 15.7508 1 
-77.9106 16.9008 1 -77.9106 18.0508 1 -77.9106 19.1008 1 
-77.9106 20.1008 1 -77.9106 21.1508 1 -77.9106 22.2008 1 
-77.9106 23.4008 1 -77.9106 24.5008 1 -77.9106 25.5508 1 
-77.9106 26.6508 1 -77.9106 27.7008 1 -77.9106 28.7508 1 
-77.9106 29.8508 1 -77.9106 30.8508 1 -77.9106 31.8508 1 
-77.9106 33.0508 1 -77.9106 34.2008 1 -77.9106 35.3008 1 
-77.9106 36.3508 1 -77.9106 37.5508 1 -77.9106 38.7508 1 
-77.9106 39.8008 1 -77.9106 41.0008 1 -77.9106 42.0508 1 
-77.9106 43.1008 1 -77.9106 44.2008 1 -77.9106 45.3008 1 
-77.9106 46.3008 1 -77.9106 47.4008 1 -77.9106 48.4508 1 
-77.9106 49.5008 1 -77.9106 50.5508 1 -77.9106 51.6008 1 
-77.9106 52.7508 1 -77.9106 53.9008 1 -77.9106 55.0008 1 
-77.9106 56.2008 1 -76.8306 59.3508 1 -18.9006 59.3508 1 
-19.9206 59.3508 1 -75.6306 59.3508 1 -74.5506 59.3508 1 
-73.5006 59.3508 1 -72.4506 59.3508 1 -71.3706 59.3508 1 
-70.3506 59.3508 1 -69.2406 59.3508 1 -68.1906 59.3508 1 
-67.1706 59.3508 1 -66.1506 59.3508 1 -65.1306 59.3508 1 
-64.0206 59.3508 1 -62.9406 59.3508 1 -61.8906 59.3508 1 
-60.8106 59.3508 1 -59.7606 59.3508 1 -58.7106 59.3508 1 
-57.4806 59.3508 1 -55.4406 59.3508 1 -54.3006 59.3508 1 
-53.1306 59.3508 1 -52.0806 59.3508 1 -51.0906 59.3508 1 
-50.0706 59.3508 1 -48.9606 59.3508 1 -47.7906 59.3508 1 
-46.7106 59.3508 1 -45.6606 59.3508 1 -44.6106 59.3508 1 
-43.5606 59.3508 1 -42.4206 59.3508 1 -41.3706 59.3508 1 
-40.3806 59.3508 1 -39.3006 59.3508 1 -38.1906 59.3508 1 
-37.1406 59.3508 1 -36.0306 59.3508 1 -34.8306 59.3508 1 
-33.7806 59.3508 1 -32.7606 59.3508 1 -31.6806 59.3508 1 
-30.5706 59.3508 1 -29.5506 59.3508 1 -28.5006 59.3508 1 
-27.4206 59.3508 1 -26.3406 59.3508 1 -25.3206 59.3508 1 
-24.3006 59.3508 1 -23.2206 59.3508 1 -22.1706 59.3508 1 
-21.0306 59.3508 1 -56.4606 59.3508 1 -61.8916 9.35126 2 
-60.8416 9.35126 2 -59.8066 9.35126 2 -58.7716 9.35126 2 
-57.7216 9.35126 2 -56.6566 9.35126 2 -55.5316 9.35126 2 
-54.4816 9.35126 2 -53.4616 9.35126 2 -52.4416 9.35126 2 
-51.3766 9.35126 2 -50.2366 9.35126 2 -49.0666 9.35126 2 
-46.9366 9.35126 2 -48.0016 9.35126 2 -45.8416 9.35126 2 
-44.8216 9.35126 2 -43.6966 9.35126 2 -42.6766 9.35126 2 
-41.6716 9.35126 2 -40.5616 9.35126 2 -39.4066 9.35126 2 
-38.3716 9.35126 2 -37.3066 9.35126 2 -36.0916 9.35126 2 
-33.9616 9.35126 2 -35.0716 9.35126 2 -45.6016 9.35126 0 
-44.4916 9.35126 0 -39.1966 9.35126 0 -37.1566 9.35126 0 
-38.1616 9.35126 0 -35.0566 9.35126 0 -36.1216 9.35126 0 
-33.9316 9.35126 0 -45.7366 9.35126 1 -44.7166 9.35126 1 
-20.2773 58.8802 0.507402 -19.9668 58.1011 0.507402 -20.2473 58.8802 1.5074 
-19.6102 58.5717 1 -41.5516 9.35126 1 -54.2116 9.35126 1 
-55.3366 9.35126 1 -38.3716 9.35126 1 -39.4066 9.35126 1 
-40.4416 9.35126 1 -50.9116 9.35126 1 -56.4616 9.35126 1 
-57.6016 9.35126 1 -33.9316 9.35126 1 -48.7966 9.35126 1 
-49.8616 9.35126 1 -46.7116 9.35126 1 -61.8916 9.35126 1 
-60.8266 9.35126 1 -35.0416 9.35126 1 -42.5866 9.35126 1 
-19.7035 -32.3787 1 -18.8269 -31.694 1 -19.7039 -31.2868 1 
-36.8023 9.85507 1.49366 -36.6223 9.85507 0.493661 -35.5873 9.85507 1.49366 
-47.7766 9.35126 1 -20.8881 58.0129 0.507402 -58.6516 9.35126 1 
-52.0516 9.35126 1 -53.1916 9.35126 1 -36.6673 8.85507 1.49366 
-25.3953 6.46983 1 -24.1434 6.58813 1 -24.4304 5.52762 1 
-43.6066 9.35126 1 -37.3366 9.35126 1 -36.6973 8.85507 0.493661 
-35.6623 8.85507 0.493661 -35.5574 9.85507 0.493661 -20.0178 57.7896 1.5074 
-19.3807 57.4811 1 -60.2714 9.8448 1.49837 -60.2564 9.8448 0.498374 
-60.3014 8.8448 1.49837 -76.9477 -34.756 1 -59.2664 8.8448 1.49837 
-59.2364 9.8448 1.49837 -35.6473 8.85507 1.49366 -54.9528 7.2947 1 
-55.6047 6.23381 1 -54.4692 6.24796 1 -47.2808 13.4575 1 
-46.6853 14.5155 1 -46.7629 12.4135 1 -46.1674 13.4715 1 
-24.1751 -24.4167 1 -25.3344 -25.1852 1 -24.108 -25.5047 1 
-24.2126 -23.2455 1 -23.0742 -23.6747 1 -25.8251 0.184488 1 
-25.8504 -1.16042 1 -27.0427 -0.601693 1 -56.6631 6.27242 1 
-56.1425 5.12142 1 -38.6759 13.4757 1 -38.1645 12.4144 1 
-39.2422 12.4039 1 -39.9998 44.5857 1 -39.451 46.0969 1 
-38.8229 44.5958 1 -69.7864 -8.29455 1 -70.9557 -8.92598 1 
-69.7123 -9.40542 1 -60.4714 -31.6039 1 -60.0311 -30.2524 1 
-61.1797 -30.4746 1 -25.5449 -19.4608 1 -26.7668 -20.1705 1 
-26.7799 -19.0737 1 -60.7511 49.5516 1 -61.2682 50.5561 1 
-60.0361 50.5161 1 -59.2595 56.2576 1 -60.377 56.2462 1 
-58.7003 55.186 1 -59.8178 55.1747 1 -25.9785 48.8073 1 
-26.2383 47.5378 1 -25.0334 48.02 1 -71.0405 33.1654 1 
-72.3096 32.5792 1 -71.0556 32.0158 1 -56.5287 50.3584 1 
-57.0306 51.6882 1 -57.6849 50.3309 1 -58.1868 51.6607 1 
-21.5154 -32.6669 1 -21.5816 -33.7336 1 -20.5363 -33.0633 1 
-20.6025 -34.1299 1 -59.8003 57.2865 1 -58.1374 54.0243 1 
-59.302 53.9984 1 -57.5682 52.921 1 -58.7328 52.8951 1 
-52.7523 41.482 1 -53.4303 43.1542 1 -51.2116 40.5457 1 
-51.8896 42.218 1 -20.8446 -26.6361 1 -19.832 -25.8887 1 
-19.8221 -26.9786 1 -28.0493 40.9137 1 -26.7615 40.3533 1 
-28.1095 39.72 1 -26.8217 39.1595 1 -34.6101 -8.59799 1 
-34.4361 -6.90518 1 -36.2502 -9.10617 1 -36.0762 -7.41336 1 
-66.2314 45.9982 1 -67.572 46.418 1 -66.2866 47.2636 1 
-32.9633 -25.4583 1 -31.618 -25.6713 1 -34.0259 -26.4612 1 
-32.6806 -26.6743 1 -32.6524 55.165 1 -33.1902 56.288 1 
-33.7484 55.1881 1 -34.2861 56.3111 1 -52.2557 -39.633 1 
-34.3365 58.3933 1 -35.4164 58.3992 1 -20.3026 53.8804 1 
-21.1869 53.5308 1 -19.4932 53.5186 1 -20.3775 53.1691 1 
-72.3188 -24.8109 1 -73.5224 -24.2368 1 -73.589 -25.3714 1 
-62.7852 46.447 1 -61.4648 47.141 1 -62.2854 44.9837 1 
-60.965 45.6778 1 -61.0644 44.4763 1 -72.2814 -9.46568 1 
-72.2569 -10.5697 1 -73.4301 -10.0265 1 -36.5264 58.3992 1 
-35.9261 57.3522 1 -52.2348 52.8246 1 -52.7629 51.6443 1 
-53.2669 52.8045 1 -61.5708 18.8325 1 -62.8577 18.8026 1 
-61.9417 17.593 1 -63.2285 17.5631 1 -74.9368 -33.8139 1 
-75.8898 -33.1956 1 -73.843 -33.3527 1 -74.796 -32.7344 1 
-71.5514 -36.7097 1 -71.0457 -35.6633 1 -72.1026 -35.8187 1 
-60.1807 48.1453 1 -60.219 46.9884 1 -59.0632 47.7498 1 
-74.8655 -36.144 1 -75.968 -36.6135 1 -75.9719 -35.3792 1 
-51.6644 53.9896 1 -52.6966 53.9695 1 -46.4856 40.8586 1 
-47.6121 42.2992 1 -47.9323 40.5953 1 -45.0718 15.693 1 
-44.0634 15.6969 1 -44.6154 16.8924 1 -48.2653 44.1159 1 
-46.8812 44.1063 1 -66.8457 56.4462 1 -67.9169 56.4957 1 
-66.2268 57.4086 1 -67.2981 57.4581 1 -65.7388 56.3799 1 
-22.018 41.5653 1 -22.0153 40.4204 1 -23.181 40.9264 1 
-69.7229 -11.6612 1 -70.9703 -11.1677 1 -69.7515 -10.543 1 
-76.92 15.2429 1 -18.87 -24.1173 1 -76.8522 -23.6902 1 
-75.7865 -23.047 1 -75.7872 -24.2089 1 -62.5546 -36.541 1 
-62.0232 -35.3028 1 -63.1647 -35.4764 1 -62.6333 -34.2383 1 
-75.7443 22.2363 1 -76.7798 22.768 1 -75.7448 23.3217 1 
-76.9389 13.0154 1 -75.9006 13.5743 1 -75.8926 12.5239 1 
-66.4226 55.4018 1 -67.5295 55.4681 1 -58.1138 56.2778 1 
-58.6546 57.3067 1 -75.8031 17.9534 1 -75.8447 16.8586 1 
-74.5962 17.3824 1 -68.4836 27.4939 1 -68.6154 26.3419 1 
-67.0078 27.9783 1 -67.1395 26.8263 1 -53.2912 14.6151 1 
-53.8002 15.7358 1 -54.326 14.5693 1 -60.6063 51.7905 1 
-59.3741 51.7505 1 -63.4808 6.78521 1 -64.8996 6.90404 1 
-63.7917 7.80675 1 -32.2156 58.3289 1 -31.6304 57.3589 1 
-32.7414 57.3713 1 -44.1253 11.385 1 -56.5476 14.5623 1 
-56.0215 15.7404 1 -55.4479 14.5999 1 -73.4359 36.4482 1 
-74.6595 35.8304 1 -73.4087 37.5943 1 -74.6323 36.9765 1 
-19.5596 52.6169 1 -21.3135 52.5743 1 -20.4956 52.0221 1 
-38.7292 26.534 1 -37.8447 27.9634 1 -38.097 24.9371 1 
-37.2126 26.3665 1 -23.7022 49.572 1 -22.6565 49.9973 1 
-23.5418 50.6514 1 -53.923 7.30452 1 -53.3867 6.27224 1 
-52.8502 7.31897 1 -21.8102 47.1143 1 -22.9587 46.596 1 
-22.8584 47.7381 1 -24.0069 47.2198 1 -56.6808 16.866 1 
-55.5341 16.9017 1 -23.8902 16.2847 1 -24.8803 15.5013 1 
-24.8194 16.566 1 -33.8831 49.2306 1 -34.5475 50.4073 1 
-32.7894 49.2894 1 -33.4538 50.4661 1 -44.1603 -38.5834 1 
-44.6952 -37.4802 1 -45.2897 -38.6008 1 -30.2316 16.3156 1 
-29.7654 14.9368 1 -28.81 16.0564 1 -20.9724 36.6687 1 
-20.9469 35.6025 1 -19.9159 36.2657 1 -54.8996 15.7097 1 
-42.4613 1.57664 1 -41.9687 0.40421 1 -41.3166 1.52414 1 
-38.9632 1.31999 1 -39.6927 -0.0252733 1 -40.1315 1.46189 1 
-25.499 -18.4732 1 -26.6725 -17.9669 1 -25.2207 24.2717 1 
-24.1226 23.7606 1 -25.1974 23.1154 1 -24.0993 22.6043 1 
-18.8601 -3.30992 1 -18.8413 -2.25089 1 -19.7908 -2.91162 1 
-24.1313 21.5107 1 -25.2895 21.9177 1 -24.1041 20.4318 1 
-25.2623 20.8389 1 -74.7988 5.57917 1 -73.5788 5.03603 1 
-74.7964 4.49613 1 -61.0746 -20.7734 1 -62.3215 -21.369 1 
-62.5415 -19.639 1 -63.7884 -20.2346 1 -66.3572 -39.6335 1 
-28.9423 22.2127 1 -28.4934 23.4944 1 -30.1981 22.4533 1 
-29.7492 23.735 1 -41.7559 48.8112 1 -41.2562 50.1929 1 
-40.6419 48.8652 1 -27.9957 42.1034 1 -29.3215 41.6412 1 
-29.3751 40.4515 1 -27.8575 -24.4836 1 -29.0525 -25.2572 1 
-26.5701 -24.703 1 -27.7652 -25.4767 1 -70.4712 -32.1231 1 
-71.6313 -32.3886 1 -71.5128 -31.3257 1 -20.5671 -31.9822 1 
-38.1127 6.24376 1 -37.4225 5.10623 1 -38.5569 5.04455 1 
-39.1427 14.5482 1 -39.709 13.4765 1 -20.8716 29.0773 1 
-21.9349 28.3889 1 -21.9681 29.503 1 -24.1332 26.0271 1 
-25.2991 26.5425 1 -24.1322 27.1496 1 -23.5609 -0.0910694 1 
-22.614 -0.550956 1 -23.778 -1.1419 1 -41.8642 56.2799 1 
-42.9184 56.249 1 -42.3884 57.3108 1 -19.7743 -1.82652 1 
-20.8339 -1.38976 1 -19.7411 -0.71587 1 -18.8436 -1.12482 1 
-19.7912 4.76946 1 -18.8659 4.3765 1 -19.8185 3.62428 1 
-34.1228 -36.3572 1 -34.7854 -37.4999 1 -35.2747 -36.3717 1 
-20.7892 6.25205 1 -20.869 5.16654 1 -19.8148 5.88789 1 
-33.6034 52.8984 1 -34.1969 54.0772 1 -33.1313 54.0813 1 
-41.3637 57.3167 1 -24.2805 -22.1599 1 -24.2936 -21.0156 1 
-23.1525 -21.4844 1 -25.4617 -22.906 1 -21.9964 -18.573 1 
-23.1076 -18.0893 1 -23.1528 -19.344 1 -24.2641 -18.8603 1 
-20.9309 -22.2683 1 -20.9052 -23.3546 1 -21.9746 -22.964 1 
-21.9489 -24.0504 1 -19.8678 -23.6979 1 -19.8489 -24.7967 1 
-20.8863 -24.4535 1 -74.7501 19.5055 1 -74.739 20.617 1 
-73.5076 20.0302 1 -24.03 -26.6734 1 -25.0699 -27.4083 1 
-25.1479 -26.2396 1 -18.9084 -22.9798 1 -19.8974 -22.629 1 
-69.7987 31.4286 1 -71.0207 30.9089 1 -52.57 46.1459 1 
-53.4257 47.5107 1 -51.4155 46.1296 1 -52.2711 47.4944 1 
-63.6251 11.0547 1 -64.4559 11.8581 1 -63.2446 11.9988 1 
-29.1576 12.2972 1 -29.4588 13.6143 1 -30.317 12.6226 1 
-20.8695 -25.5067 1 -21.9321 -25.1036 1 -21.8821 -26.254 1 
-25.3744 30.8683 1 -26.6306 31.365 1 -25.4639 31.9058 1 
-26.7201 32.4025 1 -74.6754 -18.1814 1 -73.416 -18.7037 1 
-74.6525 -19.2784 1 -21.8614 5.59371 1 -21.9412 4.50821 1 
-48.0573 -2.35075 1 -47.7939 -1.00919 1 -46.681 -2.34179 1 
-27.2968 7.08762 1 -26.0662 7.65885 1 -28.1491 6.19212 1 
-26.9185 6.76335 1 -45.2942 -21.4633 1 -44.9588 -23.5645 1 
-43.7494 -22.3877 1 -26.8688 56.4223 1 -27.886 56.3494 1 
-26.2641 55.4409 1 -27.2813 55.368 1 -48.4385 -36.4063 1 
-47.878 -35.26 1 -48.9479 -35.2166 1 -48.3873 -34.0703 1 
-59.8951 52.9369 1 -68.744 51.288 1 -67.7868 52.3707 1 
-68.9467 52.528 1 -18.8836 26.088 1 -36.8202 -2.79428 1 
-36.4052 -1.29562 1 -35.4554 -2.48154 1 -59.5431 49.5516 1 
-58.8281 50.5161 1 -67.7409 -27.5472 1 -68.084 -28.6295 1 
-66.4478 -28.4121 1 -66.7909 -29.4944 1 -25.8293 4.89032 1 
-27.3525 5.18384 1 -26.9033 3.93381 1 -35.5022 7.31588 1 
-34.7495 6.35678 1 -35.8925 6.27158 1 -73.5158 -16.5367 1 
-72.3442 -17.085 1 -73.5175 -17.6383 1 -36.8888 52.9098 1 
-35.8094 52.9002 1 -36.4022 54.0576 1 -27.2253 -39.7285 1 
-28.2453 -39.7285 1 -29.7131 4.28264 1 -30.4169 3.38656 1 
-29.3419 2.98972 1 -51.1531 -39.6207 1 -51.6882 -38.6045 1 
-38.5844 -36.3022 1 -39.7105 -36.3167 1 -39.1121 -35.0681 1 
-30.0116 2.06042 1 -28.9365 1.66358 1 -37.4876 -38.5567 1 
-36.9355 -39.6296 1 -36.4304 -38.5794 1 -32.1693 -32.9212 1 
-32.5112 -31.668 1 -30.973 -32.9423 1 -31.3149 -31.6891 1 
-54.8997 58.3049 1 -54.306 57.2919 1 -55.3669 57.2957 1 
-63.0155 15.2526 1 -64.4042 15.1381 1 -63.6897 16.2079 1 
-65.0784 16.0934 1 -46.1926 -28.7926 1 -45.0861 -28.9082 1 
-46.3462 -27.0185 1 -45.2397 -27.1341 1 -63.5808 14.0831 1 
-62.3585 14.2214 1 -19.8784 -9.43156 1 -19.8602 -8.31748 1 
-20.899 -8.99496 1 -18.6202 58.5717 1 -18.8695 -7.58919 1 
-19.8356 -7.22818 1 -65.3626 12.7615 1 -65.5766 11.4138 1 
-39.8735 11.3851 1 -58.2104 1.52979 1 -56.951 1.47411 1 
-57.6502 0.20231 1 -23.1131 -22.5349 1 -40.9378 11.3718 1 
-20.302 57.3928 1 -52.1369 12.4098 1 -51.0406 12.3565 1 
-51.6407 13.4771 1 -52.7183 -38.6103 1 -57.0889 -31.4269 1 
-56.4934 -32.6278 1 -57.6076 -32.775 1 -57.0121 -33.9758 1 
-72.5178 49.2482 1 -72.5602 48.1251 1 -71.3174 48.7516 1 
-71.3598 47.6285 1 -71.0764 29.8156 1 -69.8544 30.3353 1 
-58.1897 -31.3948 1 -29.4426 39.2316 1 -40.3697 12.4057 1 
-41.4313 12.3928 1 -38.6703 11.3701 1 -38.9848 47.5132 1 
-37.8742 47.5833 1 -38.3404 46.1669 1 -21.9694 -17.4477 1 
-21.98 -16.3421 1 -20.9056 -16.7015 1 -20.7819 -27.6709 1 
-19.7688 -27.9929 1 -20.7844 -28.8111 1 -19.7713 -29.133 1 
-48.4876 5.18752 1 -49.0017 6.31867 1 -47.9409 6.33105 1 
-65.7941 18.5674 1 -64.3093 18.5937 1 -64.895 19.7985 1 
-71.1373 12.4461 1 -70.8878 11.3902 1 -72.6306 11.9406 1 
-72.3811 10.8847 1 -60.0184 6.30173 1 -59.3224 7.31156 1 
-58.9313 6.26032 1 -46.3294 7.3084 1 -46.8735 6.29516 1 
-47.4057 7.33802 1 -47.3743 5.1456 1 -69.6996 -20.2473 1 
-68.159 -20.8038 1 -69.7591 -21.3824 1 -18.6202 57.5217 1 
-64.7295 5.75274 1 -65.9225 6.23172 1 -65.8342 2.67283 1 
-65.6995 1.38402 1 -64.537 2.14284 1 -68.5227 6.03391 1 
-68.4844 7.29532 1 -67.4197 5.42555 1 -67.3814 6.68696 1 
-72.2766 -4.04895 1 -71.0037 -4.5447 1 -72.2698 -5.12744 1 
-55.4274 -10.2891 1 -53.9675 -10.2408 1 -54.5498 -12.2022 1 
-76.8464 -14.8216 1 -59.2514 -34.0961 1 -58.1616 -34.0608 1 
-58.6974 -32.8102 1 -75.7285 -2.50741 1 -76.8917 -2.02644 1 
-76.7475 -3.03015 1 -23.1363 32.0912 1 -24.2553 31.4502 1 
-23.1249 31.017 1 -47.2222 -6.58354 1 -48.4658 -7.76048 1 
-48.4493 -6.22549 1 -50.6758 49.1719 1 -51.7517 49.1418 1 
-51.1824 50.2984 1 -52.2583 50.2683 1 -29.4751 38.0398 1 
-28.142 38.5282 1 -28.1707 37.372 1 -19.8306 6.96081 1 
-73.558 24.3882 1 -73.5747 25.5193 1 -72.4295 24.9078 1 
-72.4418 26.0366 1 -71.2966 25.4251 1 -27.4167 52.0551 1 
-27.783 50.814 1 -26.6239 51.0101 1 -20.9511 43.2401 1 
-19.8454 43.8817 1 -21.995 43.6756 1 -20.8894 44.3172 1 
-25.2058 52.3657 1 -25.9682 53.3459 1 -24.926 53.4884 1 
-43.019 2.81189 1 -43.5542 3.98866 1 -44.0998 2.8515 1 
-52.1645 55.0732 1 -30.7852 17.5285 1 -29.8886 18.7027 1 
-31.2664 18.8708 1 -54.3809 -37.4673 1 -53.8401 -38.6166 1 
-54.8969 -38.5944 1 -29.322 49.4004 1 -30.0742 50.5877 1 
-28.1573 49.5275 1 -28.9096 50.7148 1 -25.388 -7.03546 1 
-26.6501 -7.60565 1 -25.3913 -8.24186 1 -26.6534 -8.81205 1 
-28.1211 53.1467 1 -27.0512 53.2256 1 -26.8692 58.4026 1 
-18.8518 7.56669 1 -29.335 17.4897 1 -26.3451 57.4524 1 
-27.4231 57.4014 1 -62.58 40.2757 1 -62.3613 38.8742 1 
-64.1054 39.6036 1 -63.8867 38.2022 1 -72.9328 54.1507 1 
-71.8196 54.6904 1 -73.7378 53.1836 1 -72.6246 53.7233 1 
-75.8546 8.2249 1 -76.8469 7.70938 1 -76.9183 8.76633 1 
-27.6909 54.2497 1 -26.6417 54.3439 1 -28.9419 56.3384 1 
-28.4724 57.3725 1 -29.4797 57.3304 1 -57.4826 -8.00114 1 
-58.7373 -9.3434 1 -57.0282 -10.093 1 -72.3072 -21.3969 1 
-73.441 -20.872 1 -72.2779 -20.3439 1 -70.0831 18.2402 1 
-70.1705 17.1215 1 -71.1083 17.7434 1 -71.1956 16.6247 1 
-72.4794 23.814 1 -71.327 23.202 1 -71.3509 24.3336 1 
-32.0333 17.6862 1 -34.2658 -38.6012 1 -35.3035 -38.5772 1 
-27.4817 21.802 1 -27.9891 20.7647 1 -29.4497 21.1754 1 
-21.8899 22.9566 1 -22.9946 22.2427 1 -22.9946 23.3182 1 
-73.4494 -12.236 1 -72.2956 -12.7107 1 -73.472 -13.2692 1 
-66.4688 52.0264 1 -66.7716 53.2346 1 -39.174 -39.63 1 
-39.7425 -38.5473 1 -40.3791 -39.5665 1 -76.8044 1.23701 1 
-75.7839 0.701032 1 -75.7846 1.80444 1 -70.9915 38.787 1 
-69.6253 38.198 1 -69.6894 39.3842 1 -31.5962 -6.06281 1 
-30.5377 -5.09585 1 -30.1567 -5.75348 1 -29.0982 -4.78652 1 
-28.441 48.2438 1 -27.2289 48.527 1 -65.7763 25.8979 1 
-65.6237 27.0711 1 -67.292 25.6531 1 -72.2913 33.6801 1 
-73.4498 33.1339 1 -55.2958 37.9151 1 -55.9293 35.8408 1 
-56.7116 37.3685 1 -67.4261 50.9437 1 -23.2125 12.7055 1 
-22.6712 13.7454 1 -21.8537 13.1914 1 -20.913 -10.1497 1 
-21.9538 -10.8842 1 -20.9162 -11.2825 1 -74.6775 -0.8763 1 
-73.5586 -0.315508 1 -73.4578 -1.37159 1 -75.7636 -1.42008 1 
-76.7826 -0.792822 1 -75.7621 -0.328805 1 -25.2674 27.6409 1 
-67.8163 53.4179 1 -70.2064 53.8912 1 -69.2059 54.6678 1 
-70.6926 54.7599 1 -69.6921 55.5365 1 -25.5486 40.8527 1 
-25.4983 41.9684 1 -26.7434 41.4678 1 -57.6916 -29.9858 1 
-56.5907 -30.0179 1 -57.172 -28.5231 1 -71.2192 21.0435 1 
-71.2634 19.9277 1 -70.1173 20.4218 1 -31.6824 16.5118 1 
-32.9304 16.6694 1 -29.1413 27.9034 1 -28.9336 28.9545 1 
-27.768 27.4889 1 -27.5603 28.5401 1 -65.1189 8.31793 1 
-75.7648 31.9656 1 -76.7939 31.3777 1 -76.8815 32.4387 1 
-76.9284 47.9411 1 -75.8366 48.5308 1 -75.858 47.4453 1 
-65.3235 51.975 1 -64.145 51.8525 1 -64.462 53.0718 1 
-35.4568 11.3591 1 -36.5218 11.3591 1 -35.3173 54.0818 1 
-73.3879 -5.66919 1 -74.6452 -5.14461 1 -74.6354 -6.22198 1 
-71.2784 46.5527 1 -70.1845 47.1711 1 -76.8293 44.823 1 
-75.8266 45.311 1 -75.7995 44.2409 1 -74.7931 48.0038 1 
-74.7878 46.922 1 -71.1158 3.10029 1 -71.348 2.08519 1 
-72.3712 2.55654 1 -56.2768 -21.8935 1 -54.4417 -22.2388 1 
-55.5907 -20.0606 1 -38.0527 -39.5763 1 -59.8673 -32.9115 1 
-59.3596 -31.4961 1 -56.4467 29.5838 1 -57.0557 31.2816 1 
-58.3435 28.8877 1 -58.9525 30.5855 1 -72.3094 43.7097 1 
-72.3325 42.5785 1 -73.425 43.1826 1 -73.4481 42.0513 1 
-34.9881 -1.25946 1 -35.6899 0.144172 1 -75.7802 42.0514 1 
-75.7676 40.9637 1 -76.8601 41.5498 1 -75.762 21.1619 1 
-76.8751 21.6692 1 -76.7975 20.6436 1 -68.9762 53.5752 1 
-70.1422 53.2011 1 -56.0121 -33.9754 1 -56.5161 -35.1664 1 
-42.9342 53.9615 1 -43.4844 52.7548 1 -43.9586 53.9345 1 
-44.5088 52.7278 1 -76.4612 57.3457 1 -75.5546 56.7305 1 
-77.0922 56.5222 1 -76.1856 55.907 1 -69.8053 -37.5077 1 
-69.2686 -36.4792 1 -70.4459 -36.5744 1 -27.6913 -12.9273 1 
-27.6511 -11.7403 1 -26.5696 -13.48 1 -26.5294 -12.2931 1 
-74.8768 53.4653 1 -74.7987 52.3852 1 -75.9291 52.8827 1 
-75.851 51.8026 1 -29.1903 -7.55532 1 -27.8164 -7.01332 1 
-27.8683 -8.1553 1 -54.0883 -2.43435 1 -52.9879 -2.55354 1 
-53.5395 -1.04313 1 -52.4391 -1.16231 1 -49.4573 56.2972 1 
-50.0449 55.1048 1 -48.3703 56.2803 1 -48.9579 55.0879 1 
-50.5309 11.3434 1 -30.4957 -12.3946 1 -29.1927 -13.4518 1 
-32.0412 -12.8787 1 -30.7381 -13.936 1 -19.87 -11.7572 1 
-19.8816 -10.5643 1 -21.9245 -8.60112 1 -21.8926 -7.52629 1 
-20.8744 -7.90566 1 -33.2865 58.3933 1 -33.7866 57.3606 1 
-55.2341 -18.1438 1 -53.4941 -16.3824 1 -56.6567 -17.0873 1 
-54.9166 -15.3258 1 -20.67 16.1101 1 -19.7686 16.7928 1 
-20.7141 17.1791 1 -20.1709 55.4657 1 -18.8372 55.3886 1 
-19.5977 56.4979 1 -44.078 5.15795 1 -44.6405 3.98502 1 
-29.0251 -35.369 1 -28.3543 -34.2794 1 -29.4513 -34.2256 1 
-24.5538 0.300536 1 -24.7709 -0.750299 1 -20.5705 -37.4384 1 
-20.458 -38.4198 1 -19.6294 -37.8151 1 -29.2951 -14.6 1 
-73.5723 7.15808 1 -73.6467 6.11308 1 -72.3984 6.5868 1 
-22.7991 17.8916 1 -22.7896 18.9993 1 -21.7462 17.565 1 
-21.7368 18.6727 1 -27.9411 30.5925 1 -29.3342 31.051 1 
-27.9721 31.7226 1 -26.3211 19.9829 1 -27.6501 20.1392 1 
-26.5604 21.1455 1 -22.9675 21.1639 1 -22.955 20.0547 1 
-33.5783 12.2595 1 -32.7921 13.1549 1 -34.03 13.3388 1 
-18.8896 -13.2566 1 -25.3201 57.495 1 -24.2846 57.5499 1 
-24.8242 58.4452 1 -24.613 17.628 1 -26.1243 17.5461 1 
-36.7497 -11.3363 1 -38.9168 -12.1848 1 -34.878 -12.0811 1 
-37.045 -12.9295 1 -45.621 30.5137 1 -45.59 28.4942 1 
-47.0992 30.9758 1 -47.0682 28.9563 1 -35.9109 55.2023 1 
-36.9958 55.1781 1 -28.9445 -12.4337 1 -40.0033 -14.041 1 
-38.1303 -14.0598 1 -65.6784 -11.1616 1 -65.6462 -9.93624 1 
-67.0539 -10.5158 1 -46.3141 -36.3741 1 -46.7996 -35.1906 1 
-47.3757 -36.4159 1 -29.3591 -30.3318 1 -30.6085 -30.7361 1 
-30.0964 -31.7862 1 -59.2839 11.349 1 -60.3539 11.3125 1 
-59.8762 12.3102 1 -73.5698 0.816866 1 -74.7105 1.28591 1 
-73.5632 1.9196 1 -72.7535 57.5147 1 -71.663 57.5226 1 
-72.2474 56.7349 1 -71.1569 56.7427 1 -64.1896 -39.6445 1 
-25.3642 -5.90978 1 -26.5982 -6.46368 1 -19.7687 17.8754 1 
-20.7143 18.2616 1 -37.0057 0.125134 1 -37.7813 1.37576 1 
-36.4656 1.3948 1 -20.8537 -6.84881 1 -21.9085 -6.42604 1 
-20.8588 -5.78394 1 -62.5379 16.4406 1 -33.9292 -34.0039 1 
-33.493 -35.1918 1 -32.8199 -34.0585 1 -23.7793 -36.5017 1 
-22.6764 -35.6407 1 -23.5927 -35.201 1 -22.4132 -31.173 1 
-23.3448 -31.8131 1 -22.7265 -30.2459 1 -23.658 -30.8861 1 
-28.5985 7.42651 1 -31.8269 -30.639 1 -23.8586 48.4065 1 
-38.5632 -33.9151 1 -38.0354 -35.1491 1 -37.3749 -33.9165 1 
-45.2362 7.33395 1 -45.799 6.29109 1 -44.6621 6.27664 1 
-75.8184 -28.6713 1 -76.89 -28.1544 1 -75.8457 -27.6033 1 
-33.2786 -32.8666 1 -24.8038 49.1938 1 -40.7575 -33.9037 1 
-41.8225 -33.8896 1 -41.2553 -32.605 1 -66.9103 -38.6644 1 
-65.8292 -38.6607 1 -49.9222 -30.4189 1 -48.863 -30.3241 1 
-49.4786 -28.8532 1 -68.9987 24.205 1 -68.6843 25.239 1 
-70.0893 24.8063 1 -51.2941 31.7193 1 -51.9818 29.7203 1 
-50.265 29.8581 1 -69.9355 27.0199 1 -69.9146 28.1128 1 
-71.1772 27.5936 1 -41.4306 -39.6253 1 -44.1143 -36.3217 1 
-43.5794 -37.4249 1 -42.9559 -36.3031 1 -73.759 -32.1854 1 
-72.6329 -31.7617 1 -73.7421 -31.0047 1 -58.1554 -36.4304 1 
-57.5778 -35.1805 1 -58.7392 -35.3107 1 -63.1122 -37.5979 1 
-63.6815 -38.6591 1 -63.7002 -36.5578 1 -64.2695 -37.6191 1 
-33.4684 17.8698 1 -34.0213 19.1356 1 -32.7015 19.0544 1 
-48.8138 42.1161 1 -63.7037 -34.3358 1 -23.0924 4.99309 1 
-24.2024 4.27808 1 -56.5494 12.3733 1 -57.0702 11.3837 1 
-57.6553 12.3535 1 -35.0771 38.3295 1 -33.5461 38.9976 1 
-33.7968 37.4488 1 -32.2657 38.117 1 -73.6961 11.4043 1 
-73.6474 10.3236 1 -18.8949 31.4825 1 -18.8949 32.5325 1 
-19.8923 31.8967 1 -64.7717 -38.6716 1 -54.9152 -31.4158 1 
-55.4308 -29.9963 1 -55.9307 -31.3461 1 -47.7996 14.5325 1 
-18.8972 28.305 1 -23.1723 33.1453 1 -22.0489 32.7369 1 
-44.6144 12.4305 1 -45.1456 11.3968 1 -45.6737 12.4235 1 
-46.2047 11.378 1 -67.2931 4.17413 1 -66.2333 3.69918 1 
-66.3599 4.95061 1 -73.6431 2.97349 1 -72.6546 3.5151 1 
-60.0329 -26.0648 1 -60.5107 -27.6554 1 -61.4245 -26.2244 1 
-66.7774 -33.1399 1 -67.1548 -34.3237 1 -66.0632 -34.2859 1 
-46.8009 -0.771382 1 -29.6845 -36.5144 1 -28.6062 -36.5409 1 
-30.1034 -35.3425 1 -59.1055 -21.6481 1 -57.7216 -20.6228 1 
-60.4265 -20.247 1 -59.0427 -19.2217 1 -45.2197 5.18432 1 
-58.1981 21.6046 1 -57.1247 21.7427 1 -57.9912 23.0382 1 
-43.5618 1.66395 1 -44.6425 1.70357 1 -44.1577 0.350539 1 
-45.7627 -0.451464 1 -45.203 0.620941 1 -44.7175 -0.721865 1 
-44.0675 7.29395 1 -46.8573 4.04922 1 -45.7822 4.01139 1 
-46.3565 5.19878 1 -41.9348 2.79743 1 -51.6363 -34.0599 1 
-52.1957 -35.2546 1 -52.719 -34.0356 1 -40.238 3.88394 1 
-39.0703 3.8882 1 -40.7902 2.74493 1 -39.6224 2.74919 1 
-42.4291 3.91131 1 -41.9088 5.0752 1 -41.3449 3.89685 1 
-46.9718 -20.7826 1 -44.6342 -19.3227 1 -48.4228 0.297184 1 
-47.2751 0.381436 1 -48.0074 1.61172 1 -46.8598 1.69598 1 
-40.8442 7.29273 1 -40.265 6.24675 1 -39.7574 7.30528 1 
-40.8291 -38.5426 1 -41.9605 -38.5311 1 -41.394 -37.3988 1 
-73.9894 54.2973 1 -62.5148 -0.607816 1 -62.9993 0.611059 1 
-61.4124 0.605161 1 -61.8968 1.82404 1 -61.1633 14.3509 1 
-61.6453 13.242 1 -18.8388 46.7278 1 -59.7148 44.3276 1 
-59.6155 45.5291 1 -64.3582 49.4088 1 -65.3563 48.2879 1 
-63.9225 48.0641 1 -30.491 -24.5544 1 -29.2156 -23.8947 1 
-31.8975 -24.291 1 -30.6222 -23.6313 1 -71.3723 53.5171 1 
-72.5516 52.655 1 -71.2993 52.4487 1 -43.5368 12.4184 1 
-43.0481 13.4817 1 -42.4767 12.4055 1 -55.3698 12.4046 1 
-55.8958 11.3409 1 -18.8954 30.4305 1 -19.8928 30.8446 1 
-37.9488 43.1948 1 -39.2383 43.0187 1 -25.0177 1.28183 1 
-26.289 1.16578 1 -45.1135 56.2772 1 -45.6486 55.1461 1 
-46.2116 56.2778 1 -41.5718 43.1587 1 -40.4151 43.0087 1 
-40.9436 41.5271 1 -39.7869 41.377 1 -70.9735 -20.7867 1 
-71.0331 -21.9218 1 -57.1024 48.9185 1 -57.8433 47.7437 1 
-56.7469 47.3937 1 -61.4265 48.2979 1 -62.7021 47.9291 1 
-61.9436 49.3025 1 -68.0444 -32.8727 1 -67.0807 -31.9169 1 
-67.1916 -23.758 1 -68.5079 -23.1151 1 -67.1855 -22.5266 1 
-50.5957 56.3092 1 -50.0405 57.3343 1 -51.1126 57.32 1 
-51.6612 51.6232 1 -51.1331 52.8035 1 -52.9185 0.197818 1 
-52.3739 1.48864 1 -53.5297 1.45671 1 -29.6407 48.2327 1 
-28.8414 46.8688 1 -30.8746 48.0707 1 -30.0753 46.7068 1 
-30.5217 49.3892 1 -53.8253 49.0393 1 -54.3763 50.2575 1 
-52.7068 48.9909 1 -53.2578 50.2091 1 -42.3673 52.769 1 
-18.8388 44.5512 1 -63.8403 35.6241 1 -65.3861 36.4469 1 
-63.8332 37.0084 1 -64.6521 24.9633 1 -63.2838 23.9196 1 
-64.9107 23.5688 1 -31.6066 49.3043 1 -72.7575 -32.8123 1 
-73.649 -27.6984 1 -73.7097 -28.7585 1 -74.7649 -28.186 1 
-75.7333 -14.3182 1 -74.6592 -13.7605 1 -74.6305 -14.8675 1 
-73.5565 -14.3098 1 -62.0729 5.29304 1 -62.7817 4.21581 1 
-61.5519 4.17973 1 -66.8304 -17.7894 1 -65.0015 -17.0002 1 
-67.1983 -16.4565 1 -18.8555 -29.4994 1 -58.3997 -28.682 1 
-57.996 -27.2195 1 -65.1405 -19.71 1 -66.836 -18.934 1 
-65.1349 -18.5653 1 -68.9327 22.0846 1 -67.9643 21.4366 1 
-68.9749 21.011 1 -49.5333 51.5611 1 -48.4462 51.42 1 
-48.9817 52.7703 1 -31.2315 50.5607 1 -32.3163 50.4758 1 
-35.1794 51.6789 1 -34.0937 51.6817 1 -34.7237 52.903 1 
-65.7444 41.2767 1 -65.6077 40.0971 1 -67.0932 40.621 1 
-66.9565 39.4414 1 -68.8118 18.7097 1 -68.7971 19.7889 1 
-70.0684 19.3194 1 -41.8896 -36.2859 1 -40.8218 -36.2826 1 
-54.3975 -39.6393 1 -50.5731 -36.4267 1 -51.0884 -35.237 1 
-51.6479 -36.4317 1 -73.5162 -23.0761 1 -72.3518 -23.6921 1 
-26.3501 -36.7444 1 -26.9797 -37.7862 1 -27.501 -36.6524 1 
-72.3665 17.2572 1 -29.0788 19.7585 1 -27.8646 18.6169 1 
-50.079 -1.15442 1 -48.8933 -1.0859 1 -49.2431 -2.41927 1 
-20.7132 -2.52433 1 -47.5906 -8.18357 1 -48.8342 -9.36051 1 
-67.1242 41.7858 1 -65.8326 42.4429 1 -67.2713 42.8987 1 
-65.9796 43.5559 1 -72.3132 -1.8482 1 -72.2471 -0.737025 1 
-63.8565 54.1543 1 -64.2809 55.258 1 -64.8863 54.1755 1 
-50.5837 51.5609 1 -50.1049 50.2361 1 -73.3945 39.8441 1 
-72.2687 40.3998 1 -72.2457 39.3122 1 -74.6833 42.5613 1 
-21.9283 44.8273 1 -71.1001 43.2014 1 -71.0547 42.1573 1 
-72.287 41.5344 1 -68.3194 -32.0995 1 -69.4231 -31.6082 1 
-68.0533 -30.9102 1 -69.1571 -30.4189 1 -55.49 -39.6043 1 
-56.5641 -39.65 1 -56.0135 -38.6051 1 -38.4252 41.5973 1 
-68.4389 -7.77345 1 -67.0934 -8.19997 1 -68.3648 -8.88432 1 
-47.8631 -5.02805 1 -48.5624 -3.7297 1 -47.0653 -3.61443 1 
-69.7835 -7.21866 1 -57.0002 56.2593 1 -55.8587 56.2444 1 
-56.4387 55.1466 1 -65.3444 55.3327 1 -56.0132 -25.4603 1 
-57.3554 -25.7657 1 -56.6539 -26.9142 1 -34.7886 -39.6274 1 
-23.0191 10.3746 1 -24.0674 9.62985 1 -24.1542 10.7815 1 
-21.5585 50.4831 1 -20.6494 49.928 1 -21.6869 49.3605 1 
-65.678 -8.79618 1 -67.0856 -9.37571 1 -35.283 21.8034 1 
-35.8953 20.4892 1 -36.6009 21.9619 1 -37.2132 20.6477 1 
-59.8529 -39.6207 1 -60.9276 -39.6652 1 -60.3599 -38.6367 1 
-30.9058 33.8025 1 -32.3221 34.3977 1 -32.3465 33.1094 1 
-74.8102 3.48245 1 -75.8194 4.00882 1 -38.4777 15.652 1 
-37.3951 15.6646 1 -38.0003 14.5283 1 -36.9177 14.5409 1 
-19.824 -4.03505 1 -19.823 -5.11473 1 -20.8047 -4.71789 1 
-30.9304 21.3853 1 -32.4772 21.457 1 -31.7449 22.5249 1 
-30.998 23.7468 1 -33.0742 22.8762 1 -32.3273 24.098 1 
-36.5356 37.9077 1 -37.8881 38.655 1 -36.4296 39.0768 1 
-30.8913 8.18896 1 -30.9362 6.9095 1 -29.776 7.69454 1 
-27.4478 23.0164 1 -67.3638 -39.6801 1 -67.9635 -38.6502 1 
-27.7103 26.4344 1 -26.4853 25.8852 1 -26.5429 26.9397 1 
-68.3571 -10.0601 1 -36.8928 -18.0796 1 -37.279 -19.5927 1 
-35.329 -19.1466 1 -35.7152 -20.6598 1 -21.7991 19.7092 1 
-21.8115 20.8184 1 -36.4425 56.3151 1 -37.5457 56.3102 1 
-37.0293 57.3472 1 -18.8879 -20.779 1 -21.8055 -39.8364 1 
-22.2472 -38.865 1 -21.3083 -39.0058 1 -64.3775 -9.12835 1 
-64.3451 -10.3684 1 -52.2386 19.6243 1 -52.8215 18.2625 1 
-53.4435 19.5586 1 -68.3285 -11.1783 1 -68.412 -12.3613 1 
-62.8075 -11.0448 1 -64.3773 -11.5937 1 -21.8793 -27.3861 1 
-21.8166 -28.421 1 -27.6158 29.6592 1 -31.4413 52.9496 1 
-30.3322 53.0365 1 -30.7552 51.7778 1 -29.6462 51.8647 1 
-54.5995 3.91022 1 -53.9727 5.103 1 -53.4605 3.91774 1 
-34.441 0.412548 1 -35.2994 1.54102 1 -25.3746 -13.8803 1 
-25.3748 -12.7988 1 -24.1756 -14.4277 1 -24.1758 -13.3462 1 
-46.7313 -32.8318 1 -47.7916 -32.8537 1 -47.2726 -31.5173 1 
-48.3329 -31.5392 1 -23.2132 -38.7576 1 -22.7715 -39.729 1 
-33.3172 -11.5969 1 -31.6544 -11.7685 1 -28.0982 -19.81 1 
-29.4813 -20.3163 1 -29.4876 -19.1471 1 -38.0343 -37.4216 1 
-37.5178 -36.3284 1 -43.4557 -27.3186 1 -44.0386 -28.5474 1 
-44.6567 -25.9053 1 -28.3555 55.3153 1 -34.2444 11.2647 1 
-33.2244 11.2647 1 -62.9558 -8.4039 1 -62.8399 -9.80474 1 
-35.0304 15.6128 1 -35.7557 14.5703 1 -34.5272 14.4917 1 
-22.3868 -37.8919 1 -21.448 -38.0326 1 -57.3065 18.049 1 
-56.1598 18.0847 1 -56.7927 19.2763 1 -68.3902 39.9995 1 
-69.7072 40.5307 1 -38.9482 -29.9164 1 -39.3866 -28.4453 1 
-39.5976 -31.3062 1 -40.036 -29.835 1 -58.8768 14.4742 1 
-58.2395 13.3768 1 -57.744 14.5012 1 -57.1066 13.4038 1 
-19.8151 -39.2504 1 -20.6655 -39.8364 1 -62.3347 37.6799 1 
-62.3442 36.4565 1 -73.6712 -29.9084 1 -72.5982 -29.421 1 
-72.6221 -30.5687 1 -71.5491 -30.0813 1 -23.0518 -15.9134 1 
-21.9646 -15.3073 1 -33.6142 29.677 1 -31.9128 29.2141 1 
-33.3009 28.1649 1 -71.4294 -28.9603 1 -68.2911 37.651 1 
-68.3261 38.8132 1 -40.2569 -37.4264 1 -60.2755 -18.0353 1 
-60.6576 -19.1439 1 -30.8927 36.1679 1 -29.5099 36.8095 1 
-29.5084 35.6381 1 -32.4653 12.0632 1 -66.9214 38.2791 1 
-66.8072 36.9944 1 -49.4835 53.9684 1 -48.3844 54.0275 1 
-45.2044 -36.3634 1 -45.7989 -37.484 1 -37.2526 17.9626 1 
-37.8963 16.8272 1 -38.4387 18.0428 1 -39.6554 15.6677 1 
-61.7128 -2.09995 1 -60.9236 -0.738598 1 -59.9385 -16.4093 1 
-58.2683 -17.6035 1 -69.7031 10.8663 1 -70.0871 9.825 1 
-68.8071 9.71442 1 -55.6338 3.94279 1 -55.096 5.05518 1 
-29.5212 34.5301 1 -28.1621 35.1052 1 -47.7722 12.3884 1 
-48.8812 12.3596 1 -48.2909 13.4634 1 -34.814 55.184 1 
-32.3297 -14.756 1 -76.8707 19.5523 1 -76.8086 18.5321 1 
-75.7687 18.9836 1 -21.8581 9.93521 1 -20.8184 9.56025 1 
-20.8891 10.5569 1 -19.8494 10.1819 1 -22.3648 -32.2438 1 
-57.3633 5.09967 1 -57.7952 6.28206 1 -30.1032 -11.8077 1 
-28.8938 -11.1285 1 -48.4077 17.9901 1 -49.4113 18.3009 1 
-47.8135 19.3236 1 -48.817 19.6344 1 -30.8866 -15.42 1 
-25.0206 -29.6889 1 -26.5821 -29.4949 1 -25.0625 -28.6977 1 
-65.152 -27.6056 1 -63.9151 -27.1979 1 -64.2985 -28.7265 1 
-34.8811 -31.4927 1 -35.6497 -32.7431 1 -36.0292 -31.4204 1 
-36.7978 -32.6708 1 -76.908 45.7888 1 -71.2718 10.3489 1 
-24.8997 14.375 1 -26.1661 14.9374 1 -68.3087 36.4865 1 
-41.7067 -28.5059 1 -42.2644 -29.9669 1 -42.9212 -28.5848 1 
-18.8894 40.2863 1 -28.2629 -1.14585 1 -27.5066 0.379603 1 
-32.0833 14.1961 1 -30.821 13.9504 1 -31.0277 15.1824 1 
-23.3248 51.8079 1 -24.3915 51.4695 1 -46.1979 -34.0133 1 
-45.7124 -35.1968 1 -76.77 38.2008 1 -75.7571 37.5499 1 
-76.8977 36.8999 1 -19.8357 14.5803 1 -19.8653 13.4272 1 
-20.8046 13.8731 1 -40.7473 17.9933 1 -41.3711 19.2497 1 
-41.8768 18.0447 1 -52.6569 58.3378 1 -53.2399 57.2913 1 
-51.5978 58.3362 1 -52.1807 57.2897 1 -40.2766 -1.3987 1 
-38.9945 -1.36648 1 -41.7818 -31.3233 1 -41.2242 -29.8622 1 
-44.5437 -30.2921 1 -45.6518 -30.2943 1 -43.9836 -31.4203 1 
-45.0917 -31.4226 1 -30.0319 58.3076 1 -28.9985 58.3736 1 
-28.0757 32.8251 1 -26.7807 33.4672 1 -46.744 52.7329 1 
-46.1941 53.9513 1 -47.2951 53.9662 1 -66.7803 35.8727 1 
-69.9403 -35.5279 1 -68.8041 -35.3972 1 -69.5581 -34.1872 1 
-68.4219 -34.0564 1 -55.9657 49.0906 1 -34.3205 47.8676 1 
-35.4897 47.7572 1 -34.7243 46.538 1 -33.7979 -39.623 1 
-76.9399 6.67227 1 -73.929 -36.8796 1 -75.0315 -37.3492 1 
-60.8435 -21.8764 1 -70.154 -38.6755 1 -70.7946 -37.7422 1 
-29.6382 -29.0968 1 -30.8876 -29.5011 1 -30.9199 -28.3371 1 
-37.6226 7.31368 1 -36.993 6.26937 1 -36.5222 7.31588 1 
-71.3145 -38.706 1 -50.6055 58.3346 1 -35.6512 50.374 1 
-36.8121 50.3306 1 -36.3403 51.6354 1 -56.3145 2.68819 1 
-55.8487 1.44844 1 -70.7305 -39.6284 1 -68.2819 35.3648 1 
-71.1321 -25.4691 1 -69.9285 -24.9243 1 -71.1482 -24.2661 1 
-56.0908 -28.6681 1 -62.0259 -16.9653 1 -63.6043 -17.52 1 
-63.561 -16.37 1 -40.9509 -8.15147 1 -40.2629 -6.40365 1 
-39.3614 -7.87962 1 -69.2831 -33.0552 1 -50.0321 52.77 1 
-55.8818 -8.19724 1 -21.9719 -14.212 1 -23.0598 -14.8343 1 
-67.3755 2.74109 1 -67.2408 1.45227 1 -68.5005 1.99229 1 
-68.7468 3.30395 1 -60.8601 57.3026 1 -61.393 56.2768 1 
-61.911 57.3423 1 -70.0499 4.10928 1 -69.8036 2.79761 1 
-72.54 1.44825 1 -51.5263 11.3644 1 -61.0027 37.0974 1 
-23.8515 -39.729 1 -49.9331 12.3502 1 -49.4551 13.4291 1 
-50.4924 13.4615 1 -50.0145 14.5405 1 -40.8139 56.2694 1 
-40.3134 57.3062 1 -39.7823 56.294 1 -47.2849 15.6926 1 
-46.1707 15.6756 1 -27.0325 14.1164 1 -28.2758 14.52 1 
-28.2155 13.2107 1 -69.8157 42.7555 1 -67.3986 -3.6933 1 
-68.4182 -4.32974 1 -67.5417 -4.93081 1 -68.5613 -5.56726 1 
-68.5074 42.2529 1 -68.4213 41.1642 1 -57.5523 55.1651 1 
-68.5495 43.3897 1 -26.4269 46.2854 1 -25.3028 45.5449 1 
-26.5188 45.0418 1 -38.646 -38.5572 1 -39.1962 -37.4377 1 
-29.2092 42.8577 1 -27.9223 43.2283 1 -58.9193 -30.1446 1 
-32.9669 -6.44624 1 -32.2211 -4.94905 1 -33.6903 -5.408 1 
-72.2377 -2.91894 1 -73.4045 -3.52986 1 -38.021 -9.9148 1 
-37.6088 -7.87835 1 -72.3293 27.0882 1 -71.2118 26.5358 1 
-25.4349 43.1884 1 -26.67 42.5927 1 -26.6271 43.8354 1 
-59.5075 36.4024 1 -60.849 35.7615 1 -35.8962 23.2919 1 
-37.1902 23.3067 1 -37.8949 21.9767 1 -36.6837 24.7278 1 
-20.8869 11.7443 1 -19.8528 12.335 1 -20.7921 12.7809 1 
-51.0941 -30.4039 1 -51.5651 -28.8952 1 -51.6118 -31.5689 1 
-52.0828 -30.0603 1 -28.1091 -2.24953 1 -27.2773 -3.55174 1 
-28.7143 -3.71183 1 -22.9935 -4.86195 1 -22.8286 -3.8489 1 
-21.8505 -4.27335 1 -39.5962 20.5941 1 -39.0976 22.0246 1 
-40.2185 21.7748 1 -49.2406 27.6469 1 -50.7272 27.6999 1 
-67.2378 -7.07235 1 -38.3935 20.5462 1 -18.8359 5.44377 1 
-18.8674 16.3679 1 -21.7609 8.90174 1 -22.9064 9.19049 1 
-65.3011 47.0225 1 -63.2975 44.0202 1 -64.5572 43.2255 1 
-63.1712 42.7425 1 -32.4906 -37.5036 1 -32.9782 -36.3507 1 
-31.8886 -36.4353 1 -22.8665 53.8843 1 -22.4753 54.9088 1 
-23.5121 54.7998 1 -57.7751 46.269 1 -46.7496 55.161 1 
-58.3916 44.8157 1 -60.7296 34.2813 1 -59.0776 33.7002 1 
-60.6788 33.0656 1 -23.0196 6.05429 1 -22.7326 7.11481 1 
-46.732 16.9169 1 -32.9366 -30.3846 1 -32.1453 4.65647 1 
-32.9011 5.55515 1 -33.3811 4.43872 1 -20.8698 -3.59051 1 
-66.9871 29.164 1 -66.9357 30.2958 1 -65.552 29.5976 1 
-36.1529 -27.6191 1 -36.9791 -28.6901 1 -35.7967 -28.877 1 
-59.284 -38.6296 1 -37.4833 -27.5056 1 -38.3096 -28.5767 1 
-38.6843 -3.0234 1 -37.8401 -4.37571 1 -39.2396 -4.59807 1 
-26.8031 -35.6967 1 -27.954 -35.6047 1 -27.2832 -34.515 1 
-36.8573 -35.0958 1 -75.8514 50.703 1 -74.794 51.2851 1 
-76.8187 29.289 1 -75.7726 29.826 1 -76.8645 30.3877 1 
-48.877 -32.8893 1 -45.6148 16.8306 1 -63.0559 -29.502 1 
-61.9422 -29.2175 1 -63.3822 -30.9191 1 -62.2685 -30.6346 1 
-61.7629 -27.9198 1 -60.69 -28.9532 1 -59.5414 -28.731 1 
-43.0133 7.32764 1 -42.5051 6.26492 1 -43.5492 6.27033 1 
-27.4503 47.2546 1 -59.197 35.1803 1 -48.4618 7.34429 1 
-27.0706 -1.70458 1 -69.1138 -38.6664 1 -49.392 21.1146 1 
-47.8368 20.8872 1 -48.4118 22.3675 1 -75.8948 -34.3294 1 
-25.4156 -17.1981 1 -25.3969 -16.0812 1 -24.1757 -16.6341 1 
-65.6887 -30.8638 1 -65.5943 -29.5329 1 -64.3862 -31.2014 1 
-64.2918 -29.8705 1 -31.0133 4.34571 1 -31.5489 3.69733 1 
-70.1038 51.7756 1 -26.6599 -23.5949 1 -26.7198 -22.384 1 
-21.963 -13.1021 1 -23.0509 -13.7244 1 -31.7572 -7.64014 1 
-30.3313 -7.01391 1 -22.0027 -19.6795 1 -68.5618 55.5967 1 
-33.9082 45.1298 1 -32.8129 45.4449 1 -32.8019 44.2705 1 
-49.5222 0.220468 1 -49.0479 1.52182 1 -27.6612 -4.62643 1 
-26.3165 -4.1901 1 -74.6367 -12.7274 1 -55.6102 47.5657 1 
-55.4511 50.189 1 -54.8881 48.9211 1 -45.7065 32.5866 1 
-44.2771 30.8165 1 -43.4941 32.8945 1 -38.5979 -18.3117 1 
-28.5195 51.9638 1 -23.0071 -24.7627 1 -35.7927 -37.449 1 
-36.3334 -36.3331 1 -24.1234 -6.55403 1 -23.0344 -7.03148 1 
-24.1881 -7.6474 1 -19.8772 11.2786 1 -24.2422 -17.7044 1 
-20.8902 -15.6667 1 -19.8742 -15.0017 1 -19.8744 -16.0729 1 
-32.4785 15.3786 1 -30.8235 32.5051 1 -30.7932 31.3033 1 
-32.2642 31.8121 1 -25.0289 8.71418 1 -26.2345 8.99 1 
-25.2729 9.90567 1 -49.0814 36.9665 1 -47.6037 36.8494 1 
-48.6611 35.0552 1 -49.4669 43.9328 1 -50.4728 42.3027 1 
-50.8048 44.4958 1 -42.0184 7.28854 1 -38.0654 -25.9707 1 
-38.8916 -27.0418 1 -39.1302 -25.192 1 -74.7136 44.75 1 
-29.4378 32.1535 1 -28.9651 -32.0604 1 -29.8465 -33.089 1 
-28.5699 -33.1969 1 -32.2067 -29.3519 1 -32.239 -28.1879 1 
-33.3164 -29.0975 1 -34.0384 -2.44539 1 -33.3601 -3.86191 1 
-34.8447 -3.97239 1 -30.9217 54.1302 1 -29.8134 54.1491 1 
-29.224 53.0553 1 -29.4681 33.3553 1 -34.8757 -23.5751 1 
-33.5767 -22.6048 1 -35.4727 -22.0791 1 -33.8967 -19.8085 1 
-33.8193 -21.1855 1 -18.903 29.3183 1 -19.8896 28.6724 1 
-19.8877 29.7479 1 -18.8745 25.0475 1 -58.1417 11.3211 1 
-58.804 12.3188 1 -21.7728 -2.08757 1 -21.7929 -0.972928 1 
-63.7626 -1.64769 1 -63.7377 -0.365988 1 -68.6644 4.73699 1 
-32.384 -20.2819 1 -32.3066 -21.6589 1 -41.3675 -1.03146 1 
-40.7836 0.341962 1 -18.9606 -39.5492 1 -64.1592 40.7754 1 
-54.8191 56.2473 1 -65.5538 38.9254 1 -52.1679 14.5675 1 
-51.0926 14.5821 1 -35.2037 5.23735 1 -34.0608 5.32255 1 
-34.4814 4.11485 1 -71.005 37.6125 1 -61.4736 -15.8139 1 
-59.9114 -15.1299 1 -26.5996 30.2348 1 -26.814 34.5725 1 
-28.109 33.9304 1 -63.2514 2.15015 1 -39.9062 34.6155 1 
-38.3829 33.5284 1 -38.2647 35.1713 1 -68.6079 50.0724 1 
-67.9578 48.8976 1 -66.7759 49.7688 1 -22.7212 -1.65413 1 
-47.9177 -37.5165 1 -75.7138 -8.96334 1 -74.6156 -9.47674 1 
-75.7244 -10.0465 1 -58.8571 32.2079 1 -76.8784 -4.09421 1 
-25.3542 -11.7611 1 -26.5551 -11.1962 1 -60.3046 24.9195 1 
-61.642 23.9767 1 -60.2603 23.6434 1 -63.8208 9.90488 1 
-74.6694 34.7611 1 -75.7651 34.2427 1 -74.6723 33.661 1 
-64.6516 10.7083 1 -24.3677 38.0343 1 -25.6103 37.3954 1 
-24.3506 36.9208 1 -34.0125 -15.2621 1 -35.2848 -13.869 1 
-33.6019 -13.363 1 -41.8629 53.9783 1 -62.779 28.2435 1 
-62.9444 26.7976 1 -61.2644 27.1837 1 -47.4387 -38.6045 1 
-46.8967 -37.5039 1 -62.4971 11.2707 1 -61.4321 11.2707 1 
-62.1166 12.2149 1 -39.0739 16.843 1 -51.4207 -23.5885 1 
-52.102 -25.5355 1 -52.7406 -21.9093 1 -53.4219 -23.8563 1 
-41.3795 14.525 1 -40.2289 14.5315 1 -40.8896 13.4607 1 
-30.0933 -3.58404 1 -61.0384 12.2566 1 -52.7334 -36.4161 1 
-18.9045 -11.0103 1 -18.8877 -9.85327 1 -28.1692 36.2006 1 
-64.8799 -34.3415 1 -64.4285 -33.219 1 -45.6889 -3.60546 1 
-71.3244 -16.5591 1 -71.0214 -17.5569 1 -70.0742 -15.9619 1 
-69.7713 -16.9597 1 -60.3977 7.34143 1 -61.5806 7.32972 1 
-61.2417 6.31989 1 -19.8524 9.08179 1 -18.8821 8.708 1 
-19.8232 8.02387 1 -24.2047 29.2979 1 -23.067 28.8518 1 
-23.1002 29.9659 1 -52.364 3.91391 1 -52.9354 2.68517 1 
-43.0181 11.3846 1 -42.0452 11.3722 1 -53.9419 18.1714 1 
-54.5639 19.4675 1 -55.0691 18.1832 1 -73.6267 47.5779 1 
-73.6009 46.446 1 -20.9572 34.5015 1 -20.9704 33.3994 1 
-19.9281 34.0634 1 -24.8262 56.5748 1 -23.7907 56.6297 1 
-71.14 44.3337 1 -71.2026 45.386 1 -69.981 44.9341 1 
-56.4157 57.2792 1 -56.9566 58.3251 1 -57.5571 57.2941 1 
-50.0052 16.98 1 -51.0987 16.9239 1 -50.5509 18.283 1 
-74.617 -17.0742 1 -53.1937 24.0265 1 -54.1001 25.437 1 
-54.3359 23.5066 1 -55.2422 24.9171 1 -62.2775 -4.5424 1 
-63.2789 -5.8376 1 -63.7234 -4.51498 1 -32.2167 -1.049 1 
-30.9158 -0.616155 1 -32.9414 0.59202 1 -31.6405 1.02486 1 
-45.6428 -2.02187 1 -33.3138 -23.9131 1 -34.5252 -25.1202 1 
-51.3538 25.9674 1 -52.4439 27.5621 1 -41.8192 -6.41504 1 
-43.5018 -5.99011 1 -42.6335 -7.72655 1 -19.8744 38.4843 1 
-20.9881 38.8997 1 -20.9305 37.7841 1 -22.0441 38.1994 1 
-20.772 1.87645 1 -19.7434 1.48959 1 -19.7694 2.53882 1 
-65.6302 -12.2693 1 -64.2148 -12.7115 1 -73.4166 35.3272 1 
-72.261 34.7732 1 -73.4194 34.2271 1 -51.2374 3.93652 1 
-50.6898 5.10034 1 -50.1634 3.93664 1 -64.476 -6.67974 1 
-62.9768 -7.10442 1 -71.271 9.21687 1 -72.5381 9.78773 1 
-42.2715 44.4477 1 -42.8164 45.9596 1 -43.406 44.4878 1 
-59.3882 13.3421 1 -60.0684 14.3974 1 -60.4831 13.2956 1 
-20.8455 4.04811 1 -75.8192 -25.3587 1 -76.8456 -24.7179 1 
-76.8842 -25.89 1 -62.9494 -12.4919 1 -75.8047 -39.2731 1 
-75.0061 -39.859 1 -40.5602 46.0631 1 -41.109 44.552 1 
-41.6539 46.0639 1 -39.0994 50.2591 1 -39.5805 48.8897 1 
-40.1608 50.2347 1 -66.1547 -3.56491 1 -67.0453 -2.61233 1 
-64.3784 -13.9224 1 -62.787 -13.6097 1 -67.0273 -13.9283 1 
-67.0891 -12.8065 1 -65.7319 -14.602 1 -65.7937 -13.4801 1 
-27.4614 -30.5351 1 -26.7319 -31.419 1 -27.758 -31.9685 1 
-35.2838 36.8895 1 -31.0954 58.3809 1 -26.8641 -2.65343 1 
-25.9033 -3.29179 1 -25.8256 -2.10849 1 -53.6654 29.0784 1 
-52.6972 25.7441 1 -53.9188 27.2604 1 -22.9974 -5.94859 1 
-24.0996 -5.42836 1 -35.3457 56.2968 1 -63.3877 53.0338 1 
-64.933 -32.1945 1 -59.1683 39.3863 1 -61.0835 38.568 1 
-59.7516 37.9855 1 -38.907 40.0733 1 -39.398 38.3048 1 
-65.4541 35.2739 1 -66.8483 34.6998 1 -18.9218 41.3558 1 
-20.8506 54.6728 1 -47.9906 47.1775 1 -47.3809 48.6715 1 
-46.8359 47.3505 1 -72.4764 21.645 1 -72.4357 22.692 1 
-73.5558 22.1821 1 -21.5638 -31.596 1 -34.0775 25.7655 1 
-33.7135 24.2426 1 -32.6876 25.2791 1 -37.7609 11.3956 1 
-74.7455 10.8902 1 -74.8278 11.9512 1 -75.8771 11.4371 1 
-57.1362 7.33331 1 -56.0785 7.29037 1 -26.5112 28.0381 1 
-69.7741 -2.78877 1 -70.9342 -2.29786 1 -69.5911 -1.60985 1 
-52.9012 20.9019 1 -54.1061 20.8362 1 -63.18 -33.2085 1 
-62.1095 -33.1109 1 -35.991 -24.8632 1 -36.6955 -26.1098 1 
-35.2297 -26.3668 1 -45.6278 14.538 1 -44.5691 14.5443 1 
-39.3323 28.3198 1 -38.2374 29.687 1 -58.4257 49.1561 1 
-34.9039 39.64 1 -37.5453 40.2937 1 -69.5341 -39.6963 1 
-49.1486 -4.92714 1 -36.7107 43.2422 1 -37.1358 41.7734 1 
-21.7888 15.3926 1 -20.7238 15.0057 1 -66.8382 33.5772 1 
-68.3839 33.1322 1 -67.1868 32.549 1 -50.7285 2.7175 1 
-51.2907 1.44778 1 -49.6054 2.77708 1 -50.1676 1.50737 1 
-34.8461 57.3463 1 -35.7842 42.0041 1 -33.128 -8.02357 1 
-34.2764 16.7919 1 -34.7095 17.8932 1 -35.5175 16.8154 1 
-55.4705 28.3073 1 -55.6518 26.4839 1 -58.0865 19.1836 1 
-54.1479 -27.2882 1 -54.8904 -28.537 1 -53.7761 -28.6572 1 
-24.1804 28.1981 1 -25.3156 28.6894 1 -48.1928 -26.9231 1 
-48.9411 -25.2358 1 -47.0945 -25.3312 1 -65.8651 17.3041 1 
-67.3042 17.6336 1 -25.4957 32.9987 1 -24.2128 43.6562 1 
-24.2633 42.5641 1 -23.1151 43.0987 1 -47.9466 -22.7427 1 
-30.5168 -8.25866 1 -31.9427 -8.88488 1 -19.8474 25.4347 1 
-45.7843 -25.4723 1 -61.341 16.5638 1 -61.8204 15.3821 1 
-60.1471 16.6441 1 -60.6265 15.4625 1 -62.1646 20.0587 1 
-19.7818 15.6847 1 -35.1244 24.5726 1 -43.9035 46.0644 1 
-34.4854 22.9619 1 -46.6364 -22.8838 1 -32.666 3.41515 1 
-33.7663 3.09128 1 -32.6904 1.94942 1 -63.8208 8.90488 1 
-24.6462 50.3822 1 -25.4959 51.2003 1 -25.7478 50.004 1 
-41.9021 26.9197 1 -40.319 26.6866 1 -40.9949 28.9053 1 
-50.4738 35.1133 1 -50.8182 37.0321 1 -23.6838 17.3467 1 
-22.6829 16.8952 1 -23.8 18.3432 1 -54.1515 36.5848 1 
-52.3462 36.2763 1 -54.124 35.5323 1 -62.6167 29.6301 1 
-64.0557 29.0624 1 -38.6035 23.516 1 -25.6079 36.2477 1 
-24.3482 35.7731 1 -62.3512 35.0721 1 -62.3005 33.8564 1 
-44.0727 -13.9212 1 -44.4151 -11.9789 1 -45.7511 -15.6022 1 
-46.0934 -13.6598 1 -65.1479 9.41606 1 -60.7447 17.7162 1 
-66.6619 21.0211 1 -66.3459 22.0318 1 -67.6483 22.4474 1 
-47.3742 -10.2269 1 -46.1768 -11.269 1 -45.63 -9.31728 1 
-26.8449 36.8115 1 -26.8378 35.7161 1 -34.6517 20.4784 1 
-52.2215 44.4111 1 -22.0091 30.5813 1 -62.8614 41.4586 1 
-61.675 21.3006 1 -61.0315 19.8864 1 -60.5419 21.1283 1 
-57.7667 40.5339 1 -57.7322 38.8788 1 -55.9527 40.6777 1 
-55.9183 39.0226 1 -58.2664 41.8263 1 -59.9596 42.118 1 
-59.0861 43.2908 1 -57.0772 44.9344 1 -54.8918 44.4773 1 
-54.9052 46.4659 1 -53.7836 46.2927 1 -63.1453 55.2224 1 
-62.6766 54.1019 1 -56.4047 24.5054 1 -55.6349 23.2883 1 
-19.8766 -13.8665 1 -18.8976 -14.2091 1 -24.189 44.8062 1 
-24.0877 45.9971 1 -72.3304 5.50975 1 -72.6041 4.56395 1 
-54.2225 -5.40617 1 -53.9153 -7.04122 1 -52.9613 -5.25917 1 
-52.6541 -6.89422 1 -57.1035 -3.7159 1 -58.4647 -3.6782 1 
-57.7605 -5.14134 1 -53.5171 22.3437 1 -57.5829 24.4897 1 
-56.8131 23.2726 1 -71.3181 0.950439 1 -62.5535 -24.1061 1 
-62.6055 -25.394 1 -63.9245 -22.8489 1 -63.9765 -24.1368 1 
-24.3006 -19.9618 1 -55.9466 21.9771 1 -68.4628 28.5868 1 
-40.7812 20.4206 1 -41.3055 21.5499 1 -37.818 19.3653 1 
-38.9983 19.2639 1 -47.0921 38.8171 1 -48.4439 38.6276 1 
-36.37 -14.9993 1 -37.7245 -16.7471 1 -59.1378 19.0117 1 
-60.2754 18.9327 1 -59.7361 19.9866 1 -64.3802 17.3304 1 
-24.1996 -12.2668 1 -25.405 44.3031 1 -52.3777 22.5778 1 
-51.8812 24.2954 1 -62.5867 -38.6626 1 -61.9848 -39.6479 1 
-63.1225 -39.6638 1 -65.3284 -23.5251 1 -65.3223 -22.2937 1 
-75.6858 -5.73625 1 -76.8587 -6.27268 1 -76.7378 -5.16276 1 
-52.0018 34.3575 1 -45.7498 25.4653 1 -47.0883 25.6174 1 
-46.356 26.9824 1 -56.049 46.0591 1 -56.0357 44.0705 1 
-39.5976 -16.7282 1 -44.4019 -7.67334 1 -76.8757 23.9546 1 
-25.2132 55.535 1 -24.2488 55.6366 1 -24.5485 54.5805 1 
-27.7978 -10.5843 1 -19.8058 44.986 1 -18.8776 45.5856 1 
-29.1935 -10.0475 1 -43.0796 -38.5401 1 -43.6597 -39.6342 1 
-42.5605 -39.555 1 -44.6091 -2.37337 1 -43.6837 -1.07337 1 
-26.4956 -26.0215 1 -73.4226 -7.87124 1 -72.2443 -8.39629 1 
-72.2805 -7.26634 1 -76.9393 53.4192 1 -75.9476 53.9234 1 
-76.9189 54.4051 1 -77.0922 55.5222 1 -70.9528 -7.85009 1 
-70.989 -6.72014 1 -48.9059 45.6281 1 -49.1741 47.301 1 
-57.0355 -18.7899 1 -30.5567 57.3376 1 -29.9645 56.2836 1 
-71.2145 18.8253 1 -27.9746 58.3496 1 -46.2821 0.619243 1 
-50.6419 0.206013 1 -51.8353 0.156966 1 -51.4126 -8.56162 1 
-52.0355 -10.2763 1 -49.9424 -8.04883 1 -50.5653 -9.76355 1 
-21.8544 -5.36 1 -59.4897 -22.5847 1 -57.7517 -22.3563 1 
-57.5718 43.3513 1 -56.5302 42.4874 1 -30.4543 55.2284 1 
-31.0381 56.3049 1 -57.9036 36.2929 1 -73.5593 26.589 1 
-74.6637 27.1405 1 -74.6801 26.0952 1 -75.7846 26.6467 1 
-68.675 44.436 1 -67.3134 44.0355 1 -27.8456 -17.3181 1 
-27.8254 -16.149 1 -26.6522 -16.7977 1 -35.315 -30.1849 1 
-34.1751 -30.2978 1 -34.6567 -28.9899 1 -20.9203 -17.8249 1 
-19.8892 -17.1962 1 -35.2242 -17.7814 1 -74.7312 18.4533 1 
-73.5243 17.8823 1 -73.6118 -26.5444 1 -72.4872 -27.1657 1 
-72.4023 -26.0296 1 -71.2777 -26.6509 1 -54.6233 1.4821 1 
-54.1506 0.215771 1 -44.0058 56.2412 1 -43.4364 55.1107 1 
-67.5294 45.2425 1 -66.0154 44.7911 1 -27.8766 -9.41947 1 
-70.4648 -30.8109 1 -74.7218 -25.9175 1 -75.8399 -26.4888 1 
-74.7299 -27.1157 1 -49.0178 50.095 1 -49.7055 48.7662 1 
-47.8767 50.1238 1 -48.5644 48.795 1 -42.8392 51.4734 1 
-43.9562 51.4592 1 -74.8109 -31.4853 1 -75.848 -32.0342 1 
-22.048 39.321 1 -18.8547 11.9645 1 -18.8547 13.0645 1 
-26.5746 -9.9769 1 -70.9447 -0.0444024 1 -72.348 0.319057 1 
-41.371 6.23001 1 -18.7962 -33.8251 1 -71.0093 39.9335 1 
-71.0323 41.0211 1 -20.8999 -13.4363 1 -19.8551 -12.8035 1 
-20.9147 -12.39 1 -74.6432 0.231988 1 -69.7934 41.6193 1 
-73.9181 -34.4952 1 -74.545 41.5414 1 -75.801 43.0703 1 
-74.6373 2.43813 1 -37.7621 -29.9706 1 -36.5797 -30.1575 1 
-71.3676 22.1549 1 -50.2289 39.1208 1 -51.8009 38.4571 1 
-69.1057 48.9437 1 -68.5967 17.4021 1 -67.5193 18.9411 1 
-72.393 20.5506 1 -73.5909 21.1246 1 -50.6358 -38.5982 1 
-44.5891 57.3059 1 -45.6873 57.3065 1 -46.1388 18.1764 1 
-76.8663 -26.998 1 -22.7326 48.9352 1 -37.0211 12.4034 1 
-57.5324 26.0108 1 -58.8732 25.3152 1 -54.8871 43.0736 1 
-33.1612 47.9389 1 -21.7325 48.2668 1 -74.6582 23.877 1 
-73.5994 23.3041 1 -63.0625 -28.358 1 -70.959 -12.2231 1 
-19.6971 49.3866 1 -20.7346 48.8191 1 -63.9748 -21.7274 1 
-70.0178 -26.1216 1 -60.6947 -4.86763 1 -60.1227 -6.445 1 
-59.2487 -4.96137 1 -75.8089 49.6044 1 -74.7717 49.0894 1 
-74.7632 -29.2438 1 -75.8375 46.3929 1 -76.8402 46.905 1 
-18.9013 -8.72747 1 -43.0428 -25.7105 1 -42.961 -24.1007 1 
-41.8695 -25.3912 1 -36.0559 -16.4489 1 -57.0818 -36.371 1 
-75.7478 30.9146 1 -20.9723 41.1168 1 -62.6805 -31.9017 1 
-61.5917 -31.7417 1 -33.2234 7.3981 1 -34.3334 7.3981 1 
-36.7677 3.93173 1 -37.9021 3.87005 1 -19.8836 39.5736 1 
-20.9436 39.9949 1 -75.7576 20.095 1 -23.0928 44.2331 1 
-21.7021 16.496 1 -38.4709 48.9516 1 -18.8251 15.2677 1 
-27.3205 15.6397 1 -18.8118 17.4758 1 -18.8675 18.5004 1 
-19.7926 18.9175 1 -59.8166 -3.49207 1 -50.3458 47.2396 1 
-50.2438 46.191 1 -65.9153 7.44563 1 -26.3091 -27.0758 1 
-18.8591 -5.5896 1 -18.8767 -6.63818 1 -23.0245 45.4004 1 
-21.8955 45.9994 1 -22.0013 42.6132 1 -23.1495 42.0786 1 
-24.3126 41.4397 1 -18.7872 -32.8339 1 -19.6728 -33.4598 1 
-21.6384 -30.4956 1 -18.8264 -28.3828 1 -59.4065 1.5819 1 
-59.825 2.8391 1 -60.6778 1.69596 1 -22.6326 0.590136 1 
-22.6958 1.68434 1 -21.6857 0.13025 1 -21.7489 1.22445 1 
-58.7258 -37.507 1 -58.2169 -38.6059 1 -57.6465 -37.5293 1 
-76.8643 12.0094 1 -21.7885 6.65491 1 -29.7074 -1.10275 1 
-30.0788 0.853683 1 -28.8704 0.367085 1 -60.3631 -34.1452 1 
-23.6673 7.66152 1 -29.6723 6.53985 1 -28.7022 8.58119 1 
-62.0291 -37.6058 1 -61.4418 -38.6639 1 -61.4734 -36.5055 1 
-60.8861 -37.5637 1 -60.336 -36.4866 1 -60.9353 -35.4095 1 
-18.87 -25.1673 1 -19.8376 22.212 1 -20.8424 22.5878 1 
-19.8557 23.2412 1 -29.8658 8.96006 1 -31.906 41.8705 1 
-30.7083 40.9933 1 -30.5191 42.5184 1 -66.8475 -20.2299 1 
-66.843 -21.3209 1 -60.9893 -32.9731 1 -18.8082 0.00976165 1 
-19.7348 0.408308 1 -18.8168 1.09105 1 -20.7204 0.837597 1 
-54.2918 12.4414 1 -54.8274 13.4727 1 -68.1752 -36.5055 1 
-67.5616 -37.5177 1 -67.0744 -36.466 1 -77.0047 -38.1231 1 
-76.8606 -39.4992 1 -26.9069 49.8078 1 -23.0412 -17.019 1 
-22.7907 -29.1973 1 -21.7026 -29.447 1 -63.9899 1.17311 1 
-30.9811 9.45448 1 -30.2067 11.4614 1 -29.0528 11.0803 1 
-19.737 48.2977 1 -29.9961 10.184 1 -50.127 6.28412 1 
-49.6006 5.12042 1 -45.2121 38.976 1 -45.8186 36.9346 1 
-28.9931 5.3136 1 -30.257 5.68325 1 -31.9563 9.87762 1 
-32.1252 10.9883 1 -31.15 10.5651 1 -33.6032 -37.4586 1 
-71.0109 -1.15558 1 -69.6678 -0.467564 1 -76.1005 54.9264 1 
-35.8555 -39.5989 1 -66.4391 -27.0185 1 -67.5398 -26.2708 1 
-68.8417 -26.7995 1 -76.845 -22.5059 1 -75.7562 -21.9477 1 
-72.9735 55.3692 1 -71.8419 55.6735 1 -45.613 52.7155 1 
-45.0631 53.934 1 -53.8029 -36.3742 1 -54.9311 -36.3852 1 
-30.9321 -38.6524 1 -30.4738 -39.6645 1 -29.8532 -38.6575 1 
-44.4904 44.7371 1 -45.0622 46.0919 1 -45.7775 44.4946 1 
-73.3947 -4.5907 1 -49.4863 -36.397 1 -49.0066 -37.5112 1 
-66.3946 19.7476 1 -65.4954 20.9787 1 -22.9801 -27.0658 1 
-22.9571 -25.9131 1 -63.1978 49.2614 1 -62.4393 50.6349 1 
-33.6985 -16.7116 1 -39.4875 36.3624 1 -40.5915 -28.4135 1 
-41.0679 -26.9205 1 -39.9687 -26.9103 1 -40.4451 -25.4173 1 
-72.8679 -36.6175 1 -73.7696 -35.7754 1 -73.0043 -34.9767 1 
-39.8518 -20.0323 1 -40.4869 -21.7048 1 -41.6822 -20.3346 1 
-67.2772 -5.96474 1 -68.4783 -6.66584 1 -70.9443 -19.7336 1 
-75.7216 -20.8634 1 -76.8103 -20.3717 1 -76.8219 -21.3909 1 
-22.8092 -2.73325 1 -69.9167 -23.6823 1 -69.7655 -22.488 1 
-34.4101 -32.7781 1 -32.013 54.0731 1 -32.5596 52.9579 1 
-43.4818 22.1964 1 -42.4335 21.8301 1 -44.0467 20.8434 1 
-42.9984 20.4771 1 -74.5121 -21.3887 1 -74.6505 -20.3467 1 
-70.997 -23.0718 1 -35.0732 -33.9907 1 -35.7889 -35.193 1 
-34.6449 -35.2062 1 -68.5197 -24.3571 1 -18.8879 -19.779 1 
-19.8792 -19.3449 1 -18.8704 -18.6884 1 -19.8617 -18.2543 1 
-74.6275 -7.36177 1 -74.6454 -8.39082 1 -68.1654 -21.9094 1 
-75.676 -6.81362 1 -76.728 -7.44013 1 -75.696 -7.93429 1 
-75.7644 33.0923 1 -70.0359 1.78251 1 -76.8908 2.36824 1 
-66.5174 16.4228 1 -68.1093 16.251 1 -74.7151 43.5793 1 
-76.9058 4.52997 1 -75.8217 5.09186 1 -76.7857 25.0232 1 
-64.0869 31.8091 1 -62.7033 31.1493 1 -62.5775 32.3911 1 
-52.7035 56.2595 1 -75.7713 28.7182 1 -74.6823 29.2681 1 
-21.4551 51.5024 1 -23.1696 38.6883 1 -23.201 37.5408 1 
-24.2306 30.399 1 -73.5327 27.6412 1 -74.6359 28.1856 1 
-73.5468 28.7356 1 -37.2939 -31.393 1 -53.7069 58.3378 1 
-40.1589 19.2399 1 -20.955 -20.0208 1 -20.9473 -18.9502 1 
-19.887 -20.4155 1 -72.3806 28.1466 1 -74.03 55.5157 1 
-75.0603 54.7554 1 -75.7777 -16.5402 1 -76.8361 -15.9476 1 
-75.7719 -15.42 1 -55.9271 13.4351 1 -52.6642 13.5001 1 
-53.1634 12.4231 1 -53.7904 13.538 1 -58.3577 17.877 1 
-22.4438 51.1373 1 -36.3128 -33.9557 1 -21.9851 -21.8594 1 
-40.8295 -18.0674 1 -42.6599 -18.3698 1 -59.7639 -35.2224 1 
-59.2516 -36.437 1 -76.8901 0.164832 1 -20.9125 30.1556 1 
-59.8098 -37.5596 1 -75.7868 -18.7186 1 -75.7638 -19.8156 1 
-21.8696 14.26 1 -22.6871 14.814 1 -75.7749 -17.6173 1 
-76.8522 -17.0418 1 -76.8333 -18.0747 1 -47.3209 56.2638 1 
-46.765 57.3115 1 -50.5845 54.0019 1 -24.3683 13.1407 1 
-23.827 14.1806 1 -76.8892 -10.5765 1 -18.8791 10.9081 1 
-62.9605 -3.13983 1 -64.4064 -3.11241 1 -32.3217 35.6551 1 
-30.8931 34.9105 1 -76.7976 -13.7958 1 -76.9234 10.8786 1 
-23.0747 -12.645 1 -21.9645 -11.9946 1 -23.0872 -10.38 1 
-23.0641 -11.5346 1 -59.8436 -24.6567 1 -58.6599 -25.6779 1 
-72.496 -16.0108 1 -73.5352 -15.4502 1 -61.4619 28.8651 1 
-59.9473 27.8053 1 -59.7452 29.4363 1 -68.3735 -3.21405 1 
-70.2603 23.7322 1 -22.6694 -36.7131 1 -21.5605 -37.0512 1 
-33.6087 -27.8211 1 -34.949 -27.7135 1 -51.6074 15.7318 1 
-50.5838 15.7743 1 -75.8874 10.3307 1 -74.7893 9.76403 1 
-75.8822 9.26845 1 -76.8188 49.0406 1 -67.3741 7.90087 1 
-48.8648 14.533 1 -27.4005 8.24231 1 -27.5361 9.32888 1 
-51.316 47.6454 1 -42.349 -32.6079 1 -66.4231 -37.6127 1 
-65.8979 -36.556 1 -66.6708 -30.6098 1 -68.4903 -39.6193 1 
-26.5264 22.3598 1 -38.3381 -6.07405 1 -20.7349 47.7453 1 
-19.7813 47.2469 1 -23.8819 8.59854 1 -22.7363 8.30979 1 
-21.8544 21.9167 1 -66.1346 8.85952 1 -45.8464 -7.27399 1 
-47.1616 44.5042 1 -47.7513 45.8011 1 -37.871 -32.6386 1 
-62.2444 3.11173 1 -59.6493 5.13033 1 -59.1593 4.00619 1 
-58.4414 5.13618 1 -53.6928 11.3777 1 -38.4541 2.60729 1 
-36.0765 18.032 1 -35.1789 30.1162 1 -34.8933 28.7052 1 
-61.2043 2.89204 1 -58.2455 7.30001 1 -24.351 34.6379 1 
-23.1919 34.2176 1 -24.3232 33.5972 1 -29.0156 -6.29489 1 
-27.7974 -5.74525 1 -56.9894 54.0033 1 -69.0477 56.5505 1 
-31.5732 2.2316 1 -70.7149 55.743 1 -70.9805 58.3737 1 
-63.5588 58.3644 1 -68.784 58.3881 1 -69.4198 57.5381 1 
-68.4028 57.4495 1 -64.583 58.3678 1 -64.1212 57.3815 1 
-25.372 -24.0141 1 -76.9428 -32.5222 1 -31.9124 51.7509 1 
-61.6727 -10.2635 1 -73.414 -19.772 1 -72.3213 30.3409 1 
-72.3561 31.4478 1 -68.1009 -1.80781 1 -66.7728 -1.20609 1 
-67.9179 -0.628891 1 -61.4496 -12.8823 1 -61.1885 -14.1056 1 
-31.5611 55.2222 1 -65.7182 58.3628 1 -66.6592 58.3966 1 
-28.1965 4.30532 1 -37.6487 58.383 1 -38.1516 57.3311 1 
-21.9111 25.1096 1 -20.9122 25.8232 1 -21.8699 24.0103 1 
-20.871 24.724 1 -37.6644 -1.44197 1 -20.7818 7.31511 1 
-66.3044 -4.39073 1 -66.0399 -5.42466 1 -65.0605 -4.26234 1 
-19.655 -36.7156 1 -18.7749 -37.1138 1 -23.1505 -20.2972 1 
-65.8998 -6.51943 1 -64.6161 -5.58496 1 -20.7949 8.42328 1 
-21.8016 7.76308 1 -69.8665 -6.12007 1 -69.8494 -5.02128 1 
-70.9718 -5.62135 1 -32.313 6.64501 1 -31.5572 5.74632 1 
-35.1749 -5.51848 1 -38.6987 58.383 1 -72.2379 -6.20408 1 
-73.3994 -11.1505 1 -74.6066 -11.6513 1 -74.6373 -10.5274 1 
-26.1051 16.0021 1 -38.606 54.0424 1 -39.1231 52.8422 1 
-39.7051 54.0214 1 -40.2222 52.8212 1 -70.0203 25.9092 1 
-25.212 -3.67069 1 -23.9187 -3.29503 1 -24.7988 -2.77238 1 
-72.2426 -18.1504 1 -72.5435 50.4187 1 -71.3726 49.99 1 
-72.4561 51.499 1 -71.2852 51.0702 1 -72.3069 -11.6553 1 
-54.8407 11.4149 1 -49.5315 7.32564 1 -67.1288 54.3559 1 
-75.8044 2.94708 1 -76.8242 3.52966 1 -47.2978 51.4439 1 
-47.8924 52.709 1 -25.5841 35.1041 1 -25.5563 34.0634 1 
-48.9021 57.3223 1 -38.0311 55.1963 1 -39.2094 55.176 1 
-22.3361 52.173 1 -23.116 52.8806 1 -25.5994 54.4864 1 
-37.1233 46.2581 1 -36.674 47.6923 1 -32.1889 30.5498 1 
-58.3268 -15.893 1 -76.92 -30.2731 1 -74.876 -35.0107 1 
-37.0362 -21.6359 1 -38.9902 -22.0273 1 -38.2086 -23.5998 1 
-76.8577 -33.6726 1 -55.4606 32.1922 1 -55.1534 30.2978 1 
-64.3421 -15.1023 1 -72.2418 37.0213 1 -72.2226 35.9003 1 
-70.9871 36.4764 1 -21.8988 11.0226 1 -23.0339 11.4295 1 
-20.9486 -14.6422 1 -25.3887 -14.9538 1 -76.8634 -12.6992 1 
-18.8591 -4.3896 1 -25.4676 -31.6339 1 -26.4937 -32.1835 1 
-19.7325 -30.2422 1 -20.6703 -29.8371 1 -20.6417 -30.8817 1 
-23.0167 25.5857 1 -21.9011 26.2577 1 -23.0157 26.7082 1 
-34.19 1.76995 1 -41.3145 -35.0747 1 -40.2647 -35.1116 1 
-26.4343 23.5574 1 -26.5837 -14.5536 1 -27.9394 -13.9454 1 
-23.4968 -37.6805 1 -44.6149 -35.1286 1 -45.1229 -33.9619 1 
-37.2293 2.63852 1 -36.063 2.78474 1 -54.8781 -33.9548 1 
-55.4495 -32.6938 1 -70.8005 -34.5032 1 -50.4524 -19.3488 1 
-51.6671 -17.8773 1 -49.8627 -17.2528 1 -62.3599 6.42318 1 
-62.6709 7.44472 1 -67.7107 -35.4235 1 -54.3096 41.2639 1 
-52.9452 39.7873 1 -54.5025 39.5692 1 -42.2948 23.4608 1 
-31.7767 -3.43725 1 -48.8287 -21.1209 1 -48.239 -19.025 1 
-67.1477 -15.3259 1 -56.8958 -6.55492 1 -64.4691 42.0592 1 
-23.9039 2.07983 1 -24.2348 3.10248 1 -23.0083 2.72452 1 
-21.8003 2.32902 1 -23.0512 3.7932 1 -21.8247 3.41523 1 
-33.5807 6.43899 1 -38.3551 -20.3549 1 -57.1425 -1.00035 1 
-56.4433 0.271453 1 -20.9385 57.9455 1.5074 -25.0242 18.5426 1 
-46.5473 34.689 1 -44.9778 34.8321 1 -20.7766 19.2981 1 
-20.7728 20.4435 1 -37.4197 51.645 1 -76.7836 35.8736 1 
-75.7707 36.4227 1 -68.8142 -25.5768 1 -57.0893 -38.5977 1 
-47.8589 55.147 1 -28.1499 -20.6768 1 -29.429 -21.4553 1 
-74.937 57.5469 1 -75.1454 55.736 1 -74.5278 56.5524 1 
-68.1338 -17.3036 1 -68.1402 -18.4213 1 -69.7778 -18.0774 1 
-25.5386 -21.638 1 -26.7674 -21.2938 1 -72.3871 29.2515 1 
-28.0465 -22.0723 1 -25.5225 -20.6714 1 -24.3628 40.324 1 
-26.0882 13.6331 1 -26.9547 12.8121 1 -30.5171 29.9677 1 
-65.2971 -2.15983 1 -73.5926 4.02235 1 -54.7614 -1.07663 1 
-31.2299 -35.1958 1 -31.6835 -34.0739 1 -30.5571 -34.2206 1 
-65.2722 -0.878131 1 -32.3051 -35.2175 1 -30.8135 -36.4136 1 
-30.4418 28.8045 1 -65.4396 37.6406 1 -73.4128 40.9787 1 
-41.9068 58.3481 1 -40.8822 58.3541 1 -28.1693 -18.4108 1 
-33.6143 34.9966 1 -22.0553 34.9113 1 -22.0501 35.9857 1 
-24.5981 -37.6313 1 -39.6664 -33.863 1 -42.0092 -13.7011 1 
-41.8292 -16.484 1 -47.3019 -34.0347 1 -26.5356 18.4606 1 
-74.7482 8.75367 1 -73.6553 9.24924 1 -71.0243 6.0907 1 
-71.2979 5.14491 1 -73.3801 -6.80898 1 -72.8326 -33.9548 1 
-59.6071 17.7952 1 -56.7638 27.5933 1 -23.9347 -4.41531 1 
-19.8109 21.166 1 -18.8637 20.7958 1 -19.7888 20.0628 1 
-55.3881 52.8596 1 -54.8205 54.0259 1 -54.2985 52.7967 1 
-32.5882 -39.6377 1 -25.7907 56.4732 1 -21.2227 57.5488 1 
-20.5184 56.6539 1 -22.783 58.5111 1 -23.863 58.5111 1 
-23.3234 57.6158 1 -41.8954 20.379 1 -30.3657 27.0383 1 
-31.6662 27.9395 1 -49.451 -34.0852 1 -46.1957 -31.4791 1 
-46.7073 -30.0353 1 -58.742 20.3644 1 -45.6563 -32.7805 1 
-47.7842 -30.0735 1 -66.0506 54.2868 1 -22.0685 33.8092 1 
-61.5402 54.0707 1 -60.9099 55.2203 1 -62.0274 55.2029 1 
-32.4104 -17.7836 1 -33.7919 -18.4433 1 -32.3169 -16.052 1 
-45.7216 1.70187 1 -61.2352 -24.8163 1 -20.5972 -35.2058 1 
-20.5962 -36.3389 1 -19.6646 -35.6349 1 -38.4008 -31.3103 1 
-47.9209 4.00208 1 -49.0865 3.98927 1 -48.4398 2.78989 1 
-47.3994 2.87979 1 -70.0751 21.4954 1 -67.7866 20.2145 1 
-26.462 -5.34486 1 -72.4372 19.4348 1 -39.7159 24.9008 1 
-41.1582 24.8151 1 -41.1668 23.1805 1 -40.2099 23.4094 1 
-65.1524 0.414289 1 -59.2841 58.3377 1 -60.2769 58.2995 1 
-32.9562 51.6914 1 -58.8685 0.353533 1 -58.3083 -0.973946 1 
-35.1228 44.9148 1 -35.939 46.323 1 -36.3676 44.7343 1 
-19.9166 32.9624 1 -55.9267 51.5794 1 -54.8519 51.6479 1 
-18.9323 33.6807 1 -23.7112 1.00011 1 -19.67 -34.5591 1 
-69.8764 58.5008 1 -70.5063 57.5237 1 -53.7889 54.0337 1 
-22.4695 -33.2382 1 -31.8029 43.1432 1 -34.1621 43.7543 1 
-35.4069 43.5738 1 -30.8628 38.6394 1 -32.1543 39.4011 1 
-47.2479 58.3561 1 -51.6354 56.2898 1 -41.8138 33.4309 1 
-42.8714 34.9671 1 -26.8162 37.9677 1 -31.5944 44.4774 1 
-30.4929 43.4825 1 -47.8144 57.3279 1 -30.9325 -2.07863 1 
-29.1313 -15.6763 1 -27.9394 -15.2082 1 -26.6334 -15.6808 1 
-23.3219 55.7557 1 -40.171 -32.5824 1 -40.6687 -31.2837 1 
-43.5024 -35.1285 1 -44.003 -33.9354 1 -42.9441 -33.9263 1 
-22.7697 15.7918 1 -50.512 24.2749 1 -51.0393 22.6029 1 
-50.5346 -31.5812 1 -49.9661 -32.8299 1 -51.0733 -32.8272 1 
-50.5047 -34.0759 1 -72.3882 8.67839 1 -71.0287 8.24031 1 
-66.0913 50.8567 1 -42.5084 -26.9767 1 -44.1704 -25.2774 1 
-46.3243 2.84197 1 -27.8253 3.0124 1 -58.7417 -39.6581 1 
-57.6158 -39.597 1 -64.9167 45.6974 1 -21.7519 58.4161 1 
-22.2922 57.5207 1 -65.6263 53.1832 1 -59.1377 -27.2686 1 
-58.3804 -24.0406 1 -57.0759 -24.1284 1 -55.5727 -27.0591 1 
-25.8165 58.4006 1 -27.76 44.6963 1 -68.6321 14.971 1 
-69.6831 15.9704 1 -70.0347 14.5508 1 -71.0857 15.5502 1 
-75.7507 24.477 1 -45.134 13.49 1 -47.1773 20.7298 1 
-46.6906 19.2605 1 -46.2131 20.9771 1 -45.7264 19.5078 1 
-18.8759 23.9502 1 -18.8759 22.8502 1 -45.1394 18.2381 1 
-31.5089 -39.637 1 -51.7336 -5.3829 1 -20.9176 31.2523 1 
-20.9461 32.3337 1 -31.4246 -37.5572 1 -30.3457 -37.5623 1 
-55.702 19.3748 1 -18.853 -27.3093 1 -49.8199 22.658 1 
-49.1752 24.2975 1 -42.302 47.3981 1 -41.188 47.4521 1 
-30.8579 37.3981 1 -26.0793 -28.2799 1 -42.4882 -4.24781 1 
-44.2108 -4.0263 1 -36.2095 -4.28513 1 -36.7075 -5.98346 1 
-56.2388 -5.12947 1 -55.4396 -6.59111 1 -65.1359 -20.8009 1 
-43.0338 5.15254 1 -32.0673 40.535 1 -33.5121 40.0435 1 
-36.8699 34.3519 1 -35.4205 33.0316 1 -35.1845 34.3154 1 
-76.8266 5.6127 1 -75.8558 6.13416 1 -58.8353 -10.9378 1 
-61.2626 -3.39834 1 -59.7286 -7.91768 1 -58.1505 -7.89719 1 
-58.5446 -6.42451 1 -43.8927 -16.7041 1 -49.9259 -6.51384 1 
-50.4904 -5.03994 1 -51.1691 -6.8568 1 -61.4033 -7.38659 1 
-61.7885 -8.86271 1 -53.2724 -14.2266 1 -52.6179 -12.2377 1 
-51.3894 -13.6417 1 -50.7348 -11.6529 1 -56.6533 -15.1578 1 
-55.0091 -14.0586 1 -56.8268 -13.5423 1 -49.3278 -13.0945 1 
-49.0038 -11.2498 1 -52.1896 -37.5029 1 -68.1734 -29.7948 1 
-64.8809 44.4621 1 -27.5727 1.6761 1 -62.2713 -22.4905 1 
-60.953 -23.2007 1 -53.435 44.5579 1 -43.949 48.7365 1 
-44.4753 47.4192 1 -45.0698 48.7432 1 -68.5017 -15.9708 1 
-44.5523 -32.724 1 -33.3212 14.38 1 -76.8306 58.2508 1 
-65.4178 34.1294 1 -76.8143 27.2058 1 -75.7669 27.6849 1 
-44.5409 55.1101 1 -34.9789 -10.5277 1 -22.0934 53.2819 1 
-23.0719 -9.25171 1 -21.9385 -9.75588 1 -50.4817 -29.2416 1 
-54.722 -3.51967 1 -56.0338 -3.57 1 -53.71 -3.89419 1 
-55.0218 -3.94453 1 -75.7503 -13.2458 1 -61.7054 -6.11976 1 
-47.2482 -28.5336 1 -48.3998 -28.6027 1 -70.1935 -27.2912 1 
-70.2948 -28.4053 1 -71.379 -27.7651 1 -52.7269 -31.5085 1 
-52.5634 -28.6647 1 -53.2075 -30.1129 1 -49.3444 -26.9922 1 
-70.368 48.2153 1 -70.4232 49.4538 1 -53.4698 30.9397 1 
-18.8809 9.77461 1 -46.1845 51.4118 1 -46.7633 50.0917 1 
-18.8979 -16.3803 1 -62.8762 51.7874 1 -63.6335 50.6061 1 
-41.3951 35.1778 1 -19.8688 26.473 1 -20.8577 26.9075 1 
-19.8824 27.59 1 -33.7392 -0.991084 1 -21.9485 12.1548 1 
-31.311 -27.0411 1 -69.7337 33.7042 1 -69.7489 32.5546 1 
-59.0359 22.6055 1 -58.829 24.0391 1 -32.455 -2.02072 1 
-76.9348 -35.8224 1 -74.7515 50.1865 1 -73.6119 49.7569 1 
-73.632 48.6597 1 -62.9038 25.232 1 -64.2721 26.2758 1 
-30.8526 -21.0684 1 -36.4393 -23.1319 1 -45.1202 58.3511 1 
-65.7664 33.1011 1 -65.7723 31.896 1 -64.081 33.0143 1 
-27.3396 17.1836 1 -60.7207 5.20658 1 -49.5057 58.3505 1 
-39.6582 51.5657 1 -38.5923 51.5999 1 -44.9501 41.0339 1 
-45.7546 42.6657 1 -43.8886 42.6136 1 -44.6931 44.2454 1 
-50.3848 21.1473 1 -51.1073 19.6804 1 -49.9569 19.6039 1 
-19.818 -6.1796 1 -62.7507 -14.7896 1 -39.5498 -2.94115 1 
-51.7618 21.136 1 -76.0378 -37.7642 1 -58.5002 -14.2775 1 
-18.8531 47.8699 1 -74.6505 24.9883 1 -60.1138 -9.3938 1 
-60.2118 -10.9882 1 -59.5857 -13.3831 1 -47.6982 -12.0715 1 
-44.528 -11.2361 1 -43.2999 -9.59215 1 -42.7663 -11.9459 1 
-51.6822 18.2268 1 -18.7876 -30.6419 1 -24.2979 11.9802 1 
-46.2303 -18.1641 1 -24.0112 -28.8173 1 -23.8497 -29.8683 1 
-55.3761 0.182116 1 -48.5189 29.4218 1 -27.9312 -29.1726 1 
-36.8904 32.2037 1 -38.4035 31.3802 1 -36.8342 30.7736 1 
-50.0535 33.2019 1 -45.1036 23.8823 1 -45.884 22.4415 1 
-44.7625 22.2603 1 -24.3039 -34.3339 1 -23.3727 -33.9106 1 
-27.6678 25.2879 1 -26.4365 24.7126 1 -27.48 24.0355 1 
-28.7113 24.6107 1 -18.8359 6.49377 1 -28.0848 -37.6747 1 
-54.854 -24.0334 1 -42.8628 48.8201 1 -66.3009 23.3843 1 
-65.4505 22.3312 1 -68.7176 45.6115 1 -73.5102 30.9115 1 
-73.481 29.8249 1 -74.5714 30.3828 1 -29.5048 -17.9412 1 
-36.1924 15.5834 1 -43.5607 14.5482 1 -40.8071 5.05167 1 
-55.168 2.70304 1 -18.8872 -15.3917 1 -31.3014 25.1345 1 
-28.7646 -38.7215 1 -29.38 -39.6421 1 -34.7907 12.3539 1 
-43.3916 50.1535 1 -18.7651 -38.1504 1 -26.4058 -33.6603 1 
-27.4728 -33.2507 1 -28.2277 -30.606 1 -38.2649 -0.0212187 1 
-53.3075 16.9161 1 -54.4347 16.9278 1 -52.1748 -32.8016 1 
-53.2711 -32.7425 1 -72.3222 7.63685 1 -66.0729 10.1216 1 
-67.6779 10.3254 1 -67.7396 9.06335 1 -72.4529 45.9174 1 
-72.5344 46.9932 1 -53.8088 -34.0072 1 -71.0222 34.2662 1 
-39.5867 18.0173 1 -71.0298 -18.6504 1 -38.0572 52.8764 1 
-37.5707 54.0242 1 -25.3486 2.30448 1 -26.6507 2.59751 1 
-25.6012 3.64078 1 -40.2219 16.8174 1 -76.8786 -8.44335 1 
-36.7202 16.8965 1 -73.6679 13.5857 1 -73.6546 14.6565 1 
-72.6284 14.0835 1 -74.6727 32.5343 1 -62.6155 -26.7597 1 
-75.7559 25.5641 1 -76.8809 26.0917 1 -76.7935 33.7044 1 
-76.8822 34.7391 1 -51.7532 -2.41563 1 -74.6866 31.4433 1 
-51.2724 -1.20346 1 -56.3747 20.5953 1 -57.1668 15.6905 1 
-18.7627 52.1337 1 -28.7858 54.2123 1 -29.4267 55.2916 1 
-21.7135 56.6366 1 -21.3659 55.4484 1 -19.673 50.4629 1 
-18.8132 50.0088 1 -66.9622 11.3672 1 -66.7483 12.7149 1 
-18.7945 48.9786 1 -18.8762 -12.0961 1 -20.5821 51.0181 1 
-19.6225 51.5379 1 -76.8613 51.1891 1 -76.9007 50.0647 1 
-31.6054 45.6518 1 -31.366 47.0412 1 -32.4698 46.9244 1 
-26.2888 52.2453 1 -44.061 18.0612 1 -43.603 19.3784 1 
-43.0057 18.0753 1 -25.5568 12.3988 1 -26.6741 11.5763 1 
-25.4151 11.1577 1 -75.7055 -4.60778 1 -18.8578 21.821 1 
-42.3631 50.2018 1 -41.8107 51.5217 1 -50.5865 -2.45679 1 
-20.8779 23.6278 1 -19.8488 24.3374 1 -68.4337 32.0062 1 
-68.4583 30.8239 1 -68.1481 12.2572 1 -67.5006 13.8863 1 
-68.9004 13.4285 1 -21.9281 27.3016 1 -53.7623 51.5851 1 
-19.8902 42.7969 1 -19.8947 41.7215 1 -18.8835 42.4165 1 
-76.8181 40.4147 1 -20.8644 27.9948 1 -23.0663 -8.10631 1 
-18.8632 3.14859 1 -18.8168 2.14105 1 -41.9213 13.457 1 
-18.8357 19.6679 1 -39.6959 5.07901 1 -63.6604 20.0038 1 
-62.9673 21.2599 1 -59.5478 21.5062 1 -54.3576 -8.64734 1 
-48.4858 -38.6214 1 -49.0501 -39.6282 1 -49.5829 -38.6057 1 
-60.189 0.352204 1 -44.5124 50.1602 1 -45.6363 50.1252 1 
-45.0802 51.4241 1 -48.9078 16.8886 1 -72.2284 38.1958 1 
-48.3089 11.3528 1 -47.2398 11.3868 1 -30.403 -10.7267 1 
-37.9268 50.3042 1 -37.3562 48.9779 1 -30.1796 -26.3742 1 
-54.8302 -25.8103 1 -59.8864 26.561 1 -61.5664 26.1749 1 
-36.156 49.0869 1 -34.5801 27.1931 1 -35.6368 25.9207 1 
-35.0524 49.1202 1 -28.9987 26.8244 1 -30.2975 26.1899 1 
-28.9562 25.6778 1 -68.3875 -13.4333 1 -53.2933 -39.6265 1 
-26.2407 -34.7166 1 -23.2138 39.827 1 -25.3633 -33.8619 1 
-25.4268 -32.593 1 -28.8029 -26.525 1 -27.5333 -27.0698 1 
-48.3571 58.3227 1 -24.9191 7.54322 1 -56.5246 -37.4395 1 
-32.2608 36.8757 1 -63.7377 -19.0851 1 -30.868 -19.8443 1 
-30.8743 -18.6751 1 -32.3995 -19.0578 1 -39.8119 58.3029 1 
-49.9894 -35.2655 1 -63.7965 -25.9293 1 -65.2021 -26.6108 1 
-72.3879 -22.542 1 -22.8638 56.7489 1 -34.4804 42.3357 1 
-67.2114 31.3667 1 -18.9084 -21.8798 1 -24.2871 32.5431 1 
-60.9 30.2013 1 -60.7742 31.4432 1 -72.9314 -39.7351 1 
-68.5058 0.737051 1 -66.6529 0.0863322 1 -48.0063 -39.6423 1 
-73.9451 -39.7754 1 -38.7239 56.2899 1 -72.4054 -38.8127 1 
-73.4058 -38.8613 1 -42.1117 -22.212 1 -43.3199 -20.5104 1 
-30.7341 39.9933 1 -76.8632 28.1799 1 -53.2569 55.1374 1 
-65.1706 57.3798 1 -54.3063 55.1246 1 -40.2792 55.1829 1 
-30.3389 44.7141 1 -69.6625 0.787671 1 -76.9004 52.2143 1 
-32.0265 -38.6255 1 -33.1155 -38.6115 1 -25.8953 -37.7611 1 
-60.3515 4.03518 1 -75.8484 -29.74 1 -76.839 -29.166 1 
-71.6856 -33.6368 1 -70.5255 -33.3712 1 -72.5409 -28.2978 1 
-23.1891 35.3528 1 -64.296 27.5929 1 -62.1893 52.9697 1 
-61.7524 51.8171 1 -36.3027 5.13183 1 -67.27 14.9202 1 
-33.6845 15.4903 1 -23.9029 53.665 1 -76.8809 43.6188 1 
-76.8308 42.5524 1 -62.5448 22.7332 1 -73.426 38.7107 1 
-74.5357 39.2858 1 -68.4416 8.55194 1 -46.953 -39.6114 1 
-46.3814 -38.6138 1 -45.8391 -39.6516 1 -64.6893 56.3815 1 
-63.6258 56.3068 1 -50.0625 -37.4916 1 -66.2463 -24.5912 1 
-67.5744 -25.1903 1 -66.3 -25.8843 1 -42.3976 -35.1008 1 
-55.3951 -2.16195 1 -69.6923 -19.1607 1 -21.7922 -3.20322 1 
-69.0174 -27.9691 1 -49.7179 -15.252 1 -47.6149 -14.4623 1 
-47.7598 -16.4631 1 -24.1936 -8.7928 1 -26.8119 -28.2908 1 
-39.7737 -9.91608 1 -20.7977 2.9914 1 -46.2277 58.3062 1 
-18.7845 -36.0332 1 -18.7845 -34.9332 1 -22.9755 24.4864 1 
-24.1036 24.9288 1 -25.2694 25.4442 1 -42.4561 -37.4183 1 
-22.0094 -20.7661 1 -23.8077 15.3069 1 -40.7605 -12.2858 1 
-70.9731 -3.42788 1 -53.3817 -18.4604 1 -60.4734 -2.03698 1 
-61.4018 41.2016 1 -61.6832 42.3845 1 -41.6174 -10.0171 1 
-49.3688 11.358 1 -20.9616 -21.1073 1 -21.3573 58.8802 1.5074 
-38.6876 7.31368 1 -39.1825 6.23536 1 -55.9078 58.3416 1 
-32.145 56.2987 1 -75.8252 -30.8852 1 -64.8018 -36.5514 1 
-27.6327 -38.7331 1 -58.9942 -2.33125 1 -59.6511 -0.876164 1 
-73.1032 58.4996 1 -74.2265 58.452 1 -73.8768 57.4672 1 
-63.7887 3.25424 1 -64.0194 4.55669 1 -63.3106 5.63391 1 
-76.9051 17.4721 1 -27.6681 45.9399 1 -73.6256 15.7505 1 
-74.7293 15.2316 1 -74.7559 16.2983 1 -75.8597 15.7794 1 
-76.8503 16.2873 1 -42.8393 -31.3133 1 -43.4934 -32.7148 1 
-75.7284 38.6788 1 -75.7766 39.8427 1 -69.9254 50.5826 1 
-76.869 39.2288 1 -18.8958 27.2358 1 -26.5667 29.1572 1 
-25.3485 29.7671 1 -62.4078 58.3392 1 -61.3939 58.3539 1 
-31.9373 20.1365 1 -30.4566 19.9265 1 -39.21 57.3352 1 
-44.2695 25.406 1 -42.7413 25.0482 1 -43.4773 27.1726 1 
-51.7794 -15.7993 1 -71.8573 -34.6586 1 -64.2392 -35.4172 1 
-76.7674 -11.6698 1 -75.746 -11.0971 1 -41.0202 -23.5024 1 
-73.6968 12.4605 1 -76.9437 -37.0403 1 -75.7202 -12.1698 1 
-74.8069 14.1267 1 -75.8817 14.7018 1 -76.8723 14.1097 1 
-69.825 -12.741 1 -69.8005 -13.813 1 -71.3278 -15.4316 1 
-46.2463 46.0536 1 -74.6232 -23.6332 1 -28.6527 -27.9516 1 
-29.9343 -27.1919 1 -71.0256 35.3493 1 -69.6251 35.8974 1 
-44.1916 28.7436 1 -44.9839 26.977 1 -72.372 44.762 1 
-73.4568 44.2006 1 -73.5377 45.356 1 -33.8748 32.4245 1 
-35.3643 31.6015 1 -19.9006 40.6913 1 -30.35 45.8885 1 
-31.6645 26.4038 1 -23.8306 -2.21592 1 -33.8504 33.7128 1 
-21.96 54.1332 1 -18.9019 -17.5651 1 -73.4801 -2.45912 1 
-74.6647 -3.05116 1 -74.6424 -1.96363 1 -74.7768 45.84 1 
-68.1735 54.5392 1 -33.2233 41.5791 1 -34.6681 41.0876 1 
-33.6895 30.9393 1 -48.3368 15.6752 1 -20.8446 45.4961 1 
-74.655 -4.08377 1 -76.7458 -9.51918 1 -68.1475 -19.5079 1 
-46.4243 -5.16993 1 -70.2236 22.6069 1 -61.1101 39.7624 1 
-70.9311 -10.03 1 -76.8745 9.85293 1 -75.2612 58.4457 1 
-18.9064 34.8336 1 -19.9178 35.1645 1 -19.9075 -21.5163 1 
-22.0204 31.6555 1 -26.5338 10.2819 1 -75.7551 35.3119 1 
-29.2167 -37.6631 1 -29.2133 44.3225 1 -27.914 43.4648 1 
-21.5676 -35.9789 1 -55.447 -37.5124 1 -65.304 -37.604 1 
-54.355 -35.1842 1 -57.4792 2.73459 1 -58.7408 2.74899 1 
-58.0095 3.95379 1 -61.3077 -11.4351 1 -36.4124 13.4636 1 
-35.9446 12.4 1 -35.1838 13.385 1 -52.7985 15.7953 1 
-72.6313 12.9968 1 -71.5918 13.4946 1 -35.0404 35.6579 1 
-51.8025 2.71737 1 -51.8263 7.31115 1 -58.3155 37.478 1 
-44.355 36.9047 1 -51.2518 6.26963 1 -50.6522 7.30973 1 
-72.0713 -37.6735 1 -70.1342 56.5362 1 -61.485 -34.2068 1 
-65.4966 30.8251 1 -73.4637 32.043 1 -56.8426 3.94867 1 
-43.5478 16.8637 1 -42.9958 15.6683 1 -47.8005 27.5913 1 
-48.5221 25.8164 1 -69.9487 5.19534 1 -71.3992 4.05884 1 
-50.1534 -39.6267 1 -74.7037 6.66807 1 -64.0789 12.9629 1 
-40.0943 47.4513 1 -39.9118 -23.6196 1 -18.9044 35.9348 1 
-52.8976 -8.59904 1 -59.8468 -12.1598 1 -65.6781 15.092 1 
-66.1385 13.8356 1 -72.3802 -13.7513 1 -72.367 -14.8711 1 
-71.07 28.7108 1 -69.8075 29.2299 1 -67.881 47.6799 1 
-66.5956 48.5255 1 -68.5078 -14.8309 1 -41.3108 55.1583 1 
-73.6383 8.19961 1 -24.2144 -9.96131 1 -28.8325 9.80517 1 
-23.4495 -32.8075 1 -66.5185 -35.3662 1 -50.562 -28.5068 1 
-21.5685 -34.8457 1 -25.2407 -34.9001 1 -58.5455 27.2566 1 
-69.8448 8.84843 1 -64.246 21.2086 1 -49.3921 -31.634 1 
-23.0427 27.7521 1 -58.1746 -12.5307 1 -69.1568 23.1371 1 
-67.8724 23.4999 1 -57.8261 16.8161 1 -67.6064 24.6191 1 
-68.8453 46.6818 1 -73.6423 52.0276 1 -53.7529 56.2467 1 
-25.3969 -9.38726 1 -30.5117 -9.48662 1 -29.1852 -8.78328 1 
-49.9058 -3.76722 1 -59.1164 9.8448 0.498374 -62.8676 13.1036 1 
-69.7598 12.3672 1 -29.1811 -16.8485 1 -40.2905 32.3438 1 
-41.7871 31.2361 1 -39.4984 30.013 1 -59.668 40.6788 1 
-33.316 -10.6993 1 -31.834 -10.1249 1 -33.5534 36.2172 1 
-66.0349 24.5034 1 -18.9044 36.9348 1 -25.5667 39.7381 1 
-18.9049 39.1381 1 -33.2571 20.2177 1 -29.3447 -22.6943 1 
-52.9352 -27.2957 1 -51.639 -27.198 1 -52.238 16.9597 1 
-63.7063 22.4463 1 -65.911 49.6134 1 -33.1631 42.6271 1 
-68.4114 29.7185 1 -51.1464 -37.5333 1 -47.7839 16.8995 1 
-63.804 34.4796 1 -47.2838 18.0011 1 -64.4549 -7.97922 1 
-65.7554 -7.64705 1 -68.8638 11.2153 1 -43.4962 -29.9312 1 
-49.5914 40.7819 1 -45.6519 47.3888 1 -42.4925 16.8779 1 
-75.7152 -3.57518 1 -36.1559 27.6389 1 -25.8526 -30.3787 1 
-42.5701 29.1581 1 -37.4889 13.467 1 -27.8967 11.8985 1 
-69.1068 -29.1344 1 -43.0573 0.263223 1 -41.6588 -2.69396 1 
-42.8865 -2.59488 1 -42.5952 -0.932383 1 -44.6815 19.5554 1 
-45.0917 20.7958 1 -35.5804 4.00933 1 -34.8758 2.86235 1 
-53.2849 32.9718 1 -55.4071 34.1466 1 -74.7447 7.67084 1 
-75.8761 7.18084 1 -42.9568 58.3481 1 -56.3675 -11.6859 1 
-45.1861 2.84786 1 -21.4173 58.8802 0.507402 -19.874 37.381 1 
-19.8058 46.1126 1 -72.0532 58.4996 1 -72.251 -19.2438 1 
-58.0812 58.3198 1 -31.9563 8.87762 1 -70.1087 46.0044 1 
-31.6792 12.9587 1 -31.3661 11.7869 1 -69.9412 43.8018 1 
-42.4927 14.5332 1 -32.0012 7.59817 1 -18.9173 43.4312 1 
-69.0289 47.726 1 -44.0796 58.3056 1 -69.8876 7.59182 1 
-69.807 6.49226 1 -73.4888 18.978 1 -74.6354 40.4009 1 
-25.8031 -35.8801 1 -53.3582 38.239 1 -24.3187 39.1853 1 
-29.0593 45.5541 1 -40.9319 -4.23641 1 -39.093 -32.5868 1 
-53.3982 -25.6332 1 -63.929 -31.9123 1 -56.709 -2.175 1 
-57.7788 -2.32089 1 -71.3486 14.538 1 -43.7425 38.7908 1 
-37.9776 36.7125 1 -64.9508 -15.8697 1 -71.0611 -13.3029 1 
-65.5727 28.4118 1 -60.5884 43.1549 1 -29.0089 30.1177 1 
-20.8156 21.5418 1 -54.3748 -29.9565 1 -53.8061 -31.4121 1 
-41.8826 15.66 1 -49.4359 15.7463 1 -41.3631 16.8265 1 
-55.4542 -35.1558 1 -73.6376 50.9274 1 -36.6319 19.2851 1 
-52.8744 5.08698 1 -64.113 30.1652 1 -49.8672 25.9144 1 
-72.4727 18.3391 1 -46.5302 24.0245 1 -47.2006 22.2935 1 
-52.3099 6.27887 1 -55.9582 -36.3468 1 -51.7994 5.10581 1 
-69.6074 37.0619 1 -61.8539 -18.59 1 -71.0479 -14.4227 1 
-70.0804 -14.822 1 -62.1592 43.706 1 -60.7722 22.5441 1 
-52.4823 -4.01792 1 -51.2476 -3.88001 1 -22.4848 -34.406 1 
-62.5455 56.2684 1 -33.7496 -31.5811 1 -20.8566 46.6158 1 
-32.1604 -22.9827 1 -53.7383 -20.3772 1 -30.883 -22.0457 1 
-54.3439 -32.6768 1 -55.601 -23.6656 1 -42.2982 41.4339 1 
-43.4805 40.8486 1 -41.9843 39.5539 1 -42.5969 37.6679 1 
-50.4215 -25.6833 1 -33.8718 21.7177 1 -55.2366 20.688 1 
-57.262 33.1185 1 -47.6047 32.8948 1 -74.6864 -24.8126 1 
-20.7 -0.299039 1 -47.7587 23.8864 1 -51.1248 55.0925 1 
-22.285 55.8647 1 -74.6795 -22.4899 1 -73.4354 -21.931 1 
-54.4885 47.3925 1 -37.6057 44.6869 1 -23.1839 36.4272 1 
-24.1391 52.7041 1 -25.6157 38.5872 1 -65.4425 -35.4757 1 
-53.2621 -37.5235 1 -44.7812 -39.5984 1 -33.0543 26.8902 1 
-76.8158 -31.4112 1 -40.7415 15.651 1 -74.7616 13.0332 1 
-73.5074 16.8221 1 -72.4847 16.1856 1 -42.3821 55.1415 1 
-57.2227 34.7282 1 -74.6765 -16.0027 1 -63.0259 57.3528 1 
-40.6297 39.6471 1 -18.8372 56.5386 1 -18.6964 54.1354 1 
-76.8641 -19.2931 1 -50.8225 -21.5191 1 -52.0372 -20.0477 1 
-25.3922 -10.551 1 -64.8547 14.037 1 -46.2539 48.7049 1 
-43.4758 57.3029 1 -52.6922 11.3967 1 -73.379 56.4305 1 
-25.053 -36.6146 1 -18.7704 51.0549 1 -26.0674 -39.7211 1 
-26.4748 -38.7256 1 -71.7746 -39.7268 1 -20.9404 42.1701 1 
-44.9798 -5.56928 1 -74.614 21.6696 1 -72.3748 15.111 1 
-73.3929 -8.95716 1 -24.1913 -11.1158 1 -18.8251 14.2177 1 
-71.1049 7.19026 1 -25.3904 -38.7005 1 -24.9274 -39.7211 1 
-58.3632 15.6294 1 -28.018 -23.0061 1 -53.2567 -35.1972 1 
-65.3844 -33.317 1 -18.7075 53.234 1 -25.2119 46.7375 1 
-41.2794 52.819 1 -24.3146 -38.7084 1 -70.2143 13.4158 1 
-36.9711 -37.4635 1 -73.202 -37.7567 1 -35.3882 19.2743 1 
-74.3406 -38.9852 1 -75.2392 -38.3501 1 -74.1329 -37.9842 1 
-32.0575 48.0558 1 -24.0531 -27.8261 1 -54.8162 22.1253 1 
-74.6188 38.1037 1 -56.4642 52.8121 1 -37.7603 -25.3311 1 
-55.9132 54.0508 1 -55.346 55.1217 1 -63.6212 45.2569 1 
-69.6216 34.8143 1 -74.7563 -30.4046 1 -66.0986 -32.171 1 
-43.9284 23.7839 1 -42.5001 19.2803 1 -24.1676 -15.5068 1 
-25.1629 19.5758 1 -55.8286 -0.987296 1 -60.411 54.1132 1 
-61.0413 52.9636 1 -24.5294 -35.7672 1 -33.4248 -9.45931 1 
-41.1206 37.8786 1 -40.7749 54.0282 1 -25.228 -4.79097 1 
-30.5616 -16.3083 1 -44.0494 13.4849 1 -40.7535 51.5239 1 
-59.4348 15.5392 1 -22.9522 -28.1464 1 -70.2414 -29.6894 1 
-54.0548 2.68928 1 -64.9361 3.16918 1 -43.3891 47.5028 1 
-69.8047 -3.90559 1 -18.8802 38.047 1 -49.0245 31.3407 1 
-36.7257 35.6943 1 -24.6816 -30.5581 1 -22.0755 37.0519 1 
-74.6861 22.7488 1 -33.565 46.6093 1 -24.4441 -31.9619 1 
-24.4321 -33.4386 1 -30.8852 -17.4009 1 -68.5771 -37.6379 1 
-65.2627 -39.6764 1 -67.8095 58.4123 1 -18.853 -26.2593 1 
-59.0754 16.7343 1 -23.9654 19.3985 1 -27.8301 10.7582 1 
-67.0056 -11.6234 1 -68.3939 34.2547 1 -36.0196 40.8569 1 
-24.7461 -1.69836 1 -29.5536 -2.20643 1 -57.4481 20.4572 1 
-64.9129 50.7342 1 -63.5381 46.739 1 -42.7064 43.1989 1 
-29.9601 24.6225 1 -65.1668 4.47163 1 -56.8143 26.0722 1 
-58.995 46.2751 1 -64.8944 -25.2028 1 -49.8232 -23.614 1 
-36.4415 29.05 1 -19.6229 54.6732 1 -60.1664 8.8448 0.498374 
-59.1014 8.8448 0.498374 
CELLS 6049 66539
10 193 347 194 336 8689 8690 2346 4979 8681 4978 
10 194 347 193 204 8690 8689 2346 8670 7821 8669 
10 2160 238 1290 95 8691 5593 8692 8693 8601 8694 
10 345 337 338 195 8285 2497 8277 8695 4907 4872 
10 332 331 208 351 2491 8697 8696 8403 8392 7527 
10 188 331 208 189 5166 8697 8660 2341 5165 8661 
10 197 344 339 196 8698 8683 2797 2349 8699 2798 
10 196 344 338 345 8699 8278 4871 8700 2506 8277 
10 333 350 206 349 8409 7720 8701 8410 2511 7745 
10 209 331 330 352 8702 2490 8703 7131 8391 8313 
10 341 198 12 10 5223 2351 5224 8704 8679 2352 
10 205 334 206 349 8705 8706 2360 7746 8412 7745 
10 193 204 335 192 8669 8707 5022 2345 8667 5023 
10 209 331 352 208 8702 8391 7131 2363 8697 7132 
10 9 15 329 211 2517 2488 8382 7999 8708 8709 
10 329 9 211 354 8382 7999 8709 8383 2516 5503 
10 341 11 342 199 8688 2503 8686 8710 8254 7983 
10 347 204 348 335 7821 7783 2509 8416 8707 8415 
10 345 337 195 346 8285 4907 8695 2507 8286 8711 
10 1375 325 465 1374 5850 8713 8712 5851 5846 8714 
10 2158 197 340 198 8715 2793 8716 8717 2350 2792 
10 344 196 338 339 8699 4871 8278 8683 2798 2498 
10 193 204 347 335 8669 7821 8689 5022 8707 8416 
10 335 205 204 348 8718 2359 8707 8415 7782 7783 
10 330 209 352 353 8703 7131 8313 8312 5513 2514 
10 2160 1290 238 1289 8692 5593 8691 8719 5594 5589 
10 210 330 353 209 8720 8312 5512 2364 8703 5513 
10 333 207 191 206 8721 8664 5078 8701 2361 8665 
10 210 330 209 187 8720 8703 2364 8657 5170 8658 
10 208 207 332 351 2362 8722 8696 7527 7528 8403 
10 208 331 332 189 8697 2491 8696 8661 5165 5100 
10 9 211 14 15 7999 8654 8276 2517 8708 2521 
10 345 195 196 202 8695 2348 8700 7972 8673 8674 
10 333 206 334 349 8701 8706 2493 8410 7745 8412 
10 336 193 347 335 4979 8689 8681 2495 5022 8416 
10 202 345 195 346 7972 8695 8673 7915 2507 8711 
10 2158 197 198 200 8715 2350 8717 8723 8677 8678 
10 209 187 330 188 8658 5170 8703 8659 2340 5169 
10 190 207 332 208 8663 8722 5099 8662 2362 8696 
10 196 195 345 338 2348 8695 8700 4871 4872 8277 
10 334 206 333 191 8706 8701 2493 5073 8665 5078 
10 1694 807 786 787 8724 4338 8725 8726 4339 3883 
10 195 346 194 203 8711 8727 2347 8672 7914 8671 
10 208 190 189 332 8662 2342 8661 8696 5099 5100 
10 207 350 332 351 7719 8404 8722 7528 2512 8403 
10 203 202 195 346 2357 8673 8672 7914 7915 8711 
10 15 186 329 211 5481 5226 2488 8708 8655 8709 
10 14 15 211 186 2521 8708 8654 2338 5481 8655 
10 201 197 343 200 8676 8728 7980 2355 8677 7981 
10 209 331 208 188 8702 8697 2363 8659 5166 8660 
10 197 344 196 201 8698 8699 2349 8676 8178 8675 
10 205 334 192 206 8705 5072 8668 2360 8706 8666 
10 209 331 188 330 8702 5166 8659 8703 2490 5169 
10 207 333 332 350 8721 2492 8722 7719 8409 8404 
10 11 341 13 10 8688 2501 2502 2522 8704 5488 
10 204 347 203 194 7821 7822 2358 8670 8690 8671 
10 343 2158 342 200 8729 8730 2504 7981 8723 7982 
10 197 344 201 343 8698 8178 8676 8728 2505 7980 
10 331 352 208 351 8391 7132 8697 8392 2513 7527 
10 343 2158 200 197 8729 8723 7981 8728 8715 8677 
10 334 205 348 349 8705 7782 8413 8412 7746 2510 
10 198 341 340 2158 5223 2500 2792 8717 8731 8716 
10 332 333 207 190 2492 8721 8722 5099 5079 8663 
10 2160 1290 381 95 8692 8733 8732 8693 8694 2656 
10 186 329 211 2159 5226 8709 8655 8734 8735 8736 
10 241 98 383 97 8515 2664 8737 8514 2248 2663 
10 335 205 348 334 8718 7782 8415 2494 8705 8413 
10 210 186 211 2159 8656 8655 2365 8738 8734 8736 
10 186 187 329 2159 2339 5225 5226 8734 8739 8735 
10 333 190 191 207 5079 2343 5078 8721 8663 8664 
10 207 333 350 206 8721 8409 7719 2361 8701 7720 
10 210 187 186 2159 8657 2339 8656 8738 8739 8734 
10 341 11 199 10 8688 8254 8710 8704 2522 2353 
10 9 14 211 8 8276 8654 7999 2520 2367 2366 
10 198 341 199 10 5223 8710 8680 8679 8704 2353 
10 334 191 192 206 5073 2344 5072 8706 8665 8666 
10 194 346 195 337 8727 8711 2347 4908 8286 4907 
10 335 205 334 192 8718 8705 2494 5023 8668 5072 
10 197 339 343 340 2797 8685 8728 2793 2499 8684 
10 2158 200 198 199 8723 8678 8717 8740 2354 8680 
10 201 196 202 345 8675 8674 2356 7973 8700 7972 
10 201 344 196 345 8178 8699 8675 7973 2506 8700 
10 197 344 343 339 8698 2505 8728 2797 8683 8685 
10 335 205 192 204 8718 8668 5023 8707 2359 8667 
10 208 519 518 1429 3073 3074 3069 8741 8742 8743 
10 341 12 13 10 5224 2523 2501 8704 2352 5488 
10 336 194 337 346 4978 4908 2496 8682 8727 8286 
10 1583 501 669 1411 8744 3527 8745 6469 8746 8747 
10 800 946 801 1708 4378 4379 3925 8748 8749 8750 
10 194 347 203 346 8690 7822 8671 8727 2508 7914 
10 198 341 2158 199 5223 8731 8717 8680 8710 8740 
10 336 347 194 346 8681 8690 4978 8682 2508 8727 
10 1707 1544 1708 800 6838 6842 6843 8751 8752 8748 
10 1834 935 1835 1946 8753 8754 7252 7614 8755 7613 
10 1430 519 1429 1601 8756 8742 6014 6522 8757 6521 
10 1587 505 1415 1414 8758 8759 6481 6480 8760 5971 
10 2052 1110 1909 2007 8761 8762 7960 7962 8763 7826 
10 897 734 896 1646 4215 4213 4217 8764 8765 8766 
10 967 1075 1076 1864 4788 4792 4790 8767 8768 8769 
10 1843 798 944 943 8770 4372 8771 8772 4370 4374 
10 2005 1776 1879 867 7817 7384 7816 8773 8774 8775 
10 1271 535 1445 534 8776 8778 6060 8777 3124 8779 
10 978 921 768 1890 4474 4295 4473 8780 8781 8782 
10 1663 1497 753 1662 6708 8784 8783 6709 6704 8785 
10 869 868 1869 1616 4135 8788 8786 8787 8789 7351 
10 638 466 1548 1549 3429 8792 8790 8791 8793 6370 
10 1271 535 534 362 8776 3124 8777 8794 3122 3120 
10 1445 705 1616 704 8795 8797 6573 8796 3639 8798 
10 1221 2123 1180 2017 8799 8801 5300 8800 8210 8802 
10 1545 463 1371 1372 8803 8804 6357 6356 8805 5842 
10 1823 1041 924 1824 8806 4687 8807 7215 8808 8809 
10 1196 1144 2124 2095 5290 8812 8810 8811 8813 8214 
10 1931 1036 1816 1932 8814 8815 7566 7571 8816 7570 
10 2039 2083 1154 1152 8137 8819 8817 8818 8820 5154 
10 547 1457 1283 546 8821 6096 8822 3160 8823 8824 
10 483 57 31 58 2967 2555 8825 2968 2206 2556 
10 231 88 374 373 8639 2635 8826 8827 2633 2637 
10 1464 426 1335 599 8828 8830 6115 8829 3312 8831 
10 1639 1471 559 1470 6639 8833 8832 6640 6137 8834 
10 996 2021 1169 2082 8835 8837 5117 8836 8088 8838 
10 2021 2090 1169 2082 8108 8839 8837 8088 8110 8838 
10 1477 734 733 566 8840 3725 8841 8842 3723 3721 
10 87 231 230 373 8638 2387 8637 2632 8827 8843 
10 231 1282 230 373 5568 5569 2387 8827 8844 8843 
10 708 871 1618 707 4140 8846 8845 3648 4139 8847 
10 1870 1012 1718 994 8848 8850 7353 8849 4602 8851 
10 1293 1463 555 384 6114 8854 8852 8853 8855 3183 
10 661 827 764 1574 3999 4000 3817 8856 8857 8858 
10 2005 2082 997 1998 8086 8860 8859 8038 8089 8861 
10 598 382 1292 383 3309 8863 8862 3310 2665 8864 
10 708 1618 1448 707 8845 6578 8865 3648 8847 8866 
10 1181 2107 2033 2087 8867 8161 8868 8869 8162 8102 
10 831 1584 1585 1746 8870 6476 8871 8872 6953 6954 
10 1181 1106 2033 1107 5171 8873 8868 5172 4914 8874 
10 1441 359 358 1268 8875 2592 8876 6048 8877 8878 
10 1441 1442 359 1268 6052 8879 8875 6048 6051 8877 
10 604 605 1514 771 3331 8881 8880 3833 3834 8882 
10 1645 895 733 896 8883 4210 8884 8885 4214 4212 
10 121 264 120 406 8561 8560 2271 2733 8886 2732 
10 178 462 179 321 2904 2905 2330 8490 8887 8491 
10 246 1298 1297 388 5618 5619 5614 8888 8889 8890 
10 657 1570 1734 824 8891 6917 8892 3989 8893 8894 
10 1319 409 124 410 8895 2742 8896 8897 2746 2744 
10 263 1315 1314 405 5669 5670 5665 8898 8899 8900 
10 1442 1441 359 531 6052 8875 8879 8901 8902 3111 
10 1271 535 362 1272 8776 3122 8794 5540 8903 8904 
10 407 1317 1316 1490 8905 5676 8906 8907 6192 6193 
10 906 1808 1807 1028 8908 7166 8909 4648 8910 8911 
10 666 721 665 1580 3685 3686 3519 8912 8913 8914 
10 704 1776 867 1879 8915 8774 4128 8916 7384 8775 
10 1432 527 1438 9 8917 8918 6038 6019 8919 6039 
10 1284 89 375 374 8920 2638 8921 8922 2636 2640 
10 1412 336 194 337 5960 4978 8923 5961 2496 4908 
10 1579 553 722 665 8924 3689 8925 8926 3516 3688 
10 587 1499 588 1325 8927 8929 3282 8928 6220 8930 
10 1335 1509 599 427 6249 8932 8831 8931 8933 3313 
10 2136 1135 1204 2116 8934 5339 8935 8414 8936 8937 
10 767 1674 1510 1750 8938 6740 8939 8940 6967 6965 
10 351 518 207 1428 8941 3070 7528 6007 8942 8943 
10 602 1511 768 1675 8944 8946 3825 8945 6743 8947 
10 1579 1740 1741 722 6937 6940 6938 8925 8948 8949 
10 1689 1892 1897 782 7462 7487 7459 8950 8951 8952 
10 1786 1009 879 1787 8953 4590 8954 7096 8955 8956 
10 479 649 480 1389 3464 3465 2960 8957 8958 8959 
10 840 1716 1609 1770 8960 6865 8961 8962 7036 7037 
10 606 607 434 1343 3337 3335 3333 8963 8964 8965 
10 1741 1579 722 1580 6938 8925 8949 6939 6461 8966 
10 842 1753 991 863 8967 8968 4535 4112 8969 4536 
10 859 1080 1752 863 4807 8971 8970 4518 4806 8972 
10 1705 943 1843 1842 8973 8772 7275 7271 8974 7276 
10 1685 1686 931 779 6777 8977 8975 8976 8978 4325 
10 312 168 452 1361 8473 2874 8979 5807 8980 8981 
10 1686 780 1687 932 8982 8984 6780 8983 4328 8985 
10 1311 1484 1310 573 6174 6175 5658 8986 8987 8988 
10 2079 2002 1189 1117 8074 8991 8989 8990 8992 5196 
10 1399 37 38 64 5922 2185 5921 8993 2568 2569 
10 1049 1922 1944 1134 8994 7791 8995 4997 8996 8997 
10 1783 1005 876 1006 8998 4579 8999 9000 4583 4581 
10 1040 1041 1823 1935 4688 8806 9001 9002 9003 7579 
10 1060 946 1845 1955 4744 9006 9004 9005 9007 7641 
10 984 723 1637 724 4490 9009 9008 4491 3695 9010 
10 466 638 1548 465 3429 8790 8792 2918 3428 9011 
10 1421 1592 1593 511 6495 6499 6497 9012 9013 9014 
10 1587 505 1414 672 8758 8760 6480 9015 3535 9016 
10 1346 1520 1519 610 6282 6283 6278 9017 9018 9019 
10 778 930 1684 777 4322 9021 9020 3856 4321 9022 
10 1696 790 1533 1697 9023 9024 6805 6810 9025 6809 
10 543 542 1279 370 3148 9027 9026 3146 3144 9028 
10 1361 451 1534 1360 9029 9030 6323 5809 9031 6324 
10 451 1361 311 1360 9029 5808 9032 9031 5809 5804 
10 448 165 1358 449 2863 9034 9033 2867 2865 9035 
10 644 475 1557 645 3450 9037 9036 3454 3452 9038 
10 620 1357 621 448 9039 9040 3379 3375 9041 3377 
10 1627 1456 1457 716 6606 6097 6605 9042 9043 9044 
10 371 543 1279 370 3147 9026 9045 2628 3146 9028 
10 1707 1706 1543 799 6840 6835 6839 9046 9047 9048 
10 1707 800 945 799 8751 4376 9049 9046 3922 4375 
10 631 798 1542 1705 3914 9052 9050 9051 9053 6832 
10 1370 633 634 1544 9054 3418 9055 6354 9056 9057 
10 1370 462 1371 634 9058 9059 5839 9055 3417 9060 
10 1317 580 1318 1491 9061 9062 5679 6196 9063 6195 
10 801 947 1709 1708 4381 9065 9064 8750 9066 6846 
10 1370 178 462 461 9067 2904 9058 9068 2902 2906 
10 908 752 1662 753 4256 9070 9069 4257 3782 8785 
10 1905 1105 1000 1924 9071 4903 9072 7768 9073 9074 
10 15 1436 1404 524 6032 6033 5937 9075 9076 9077 
10 693 1577 1609 1437 9078 6554 9079 9080 6451 6553 
10 635 1371 1544 1545 9081 6353 9082 9083 6357 6358 
10 928 1682 927 1827 9084 9086 4317 9085 7222 9087 
10 1300 1473 1299 562 6141 6142 5625 9088 9089 9090 
10 462 178 1370 321 2904 9067 9058 8887 8490 5834 
10 620 1531 621 1357 9091 9092 3379 9039 6315 9040 
10 1084 979 1884 1165 4818 9094 9093 4876 4874 9095 
10 1795 695 807 1608 9096 3939 9097 7121 9098 9099 
10 2131 2041 1217 2132 8262 9101 9100 8287 8284 9102 
10 1286 550 1460 549 9103 9105 6105 9104 3169 9106 
10 1563 651 1728 817 9107 9109 6900 9108 3969 9110 
10 1776 704 1615 1879 8915 9111 7063 7384 8916 7383 
10 917 701 700 1818 4495 3627 4494 9112 9113 9114 
10 439 156 155 298 2836 2307 2835 9115 8447 8446 
10 2001 1900 2031 988 7804 7898 8059 9116 9117 9118 
10 868 2005 1879 867 9119 7816 9120 4132 8773 8775 
10 888 1993 1915 1081 9121 7775 9122 4811 9123 9124 
10 855 1694 1608 1772 9125 7344 9126 9127 7247 7044 
10 1420 199 509 510 9128 3043 9129 9130 3046 3047 
10 1474 563 730 562 9131 3712 9132 9133 3207 3711 
10 715 1625 1626 1455 9134 6604 9135 9136 6599 6603 
10 19 472 46 20 9137 2934 2532 2167 9138 2533 
10 697 1607 1673 1774 9139 6736 9140 9141 7055 7056 
10 1392 57 31 483 9142 2555 5900 9143 2967 8825 
10 1271 535 1272 1445 8776 8903 5540 6060 8778 6059 
10 1559 646 647 813 9144 3460 9145 9146 3956 3957 
10 972 697 1673 1774 4455 9140 9147 9148 9141 7056 
10 1386 24 476 1385 5883 9150 9149 5884 5879 9151 
10 1893 1851 810 955 7428 9154 9152 9153 9155 4405 
10 1273 79 365 364 9156 2608 9157 9158 2606 2610 
10 1508 858 765 1713 9159 4086 9160 6858 9161 9162 
10 1069 1962 1961 1158 9163 7666 9164 5069 9165 9166 
10 528 858 1508 664 4085 9159 9167 3512 4087 9168 
10 455 1364 1363 1537 9169 5818 9170 9171 6332 6333 
10 4 1290 95 381 9172 8694 2245 2657 8733 2656 
10 171 455 1363 454 2883 9170 9173 2881 2885 9174 
10 696 1436 676 524 9175 9176 3611 3605 9076 3547 
10 338 1414 339 196 5966 5967 2498 4871 9177 2798 
10 1760 847 846 981 9178 4054 9179 9180 4481 4482 
10 1707 633 800 799 9181 3920 8751 9046 3918 3922 
10 338 195 504 196 4872 3030 9182 4871 2348 3029 
10 2160 381 1290 1289 8732 8733 8692 8719 9183 5594 
10 499 1408 1409 1581 9184 5953 9185 9186 6462 6463 
10 483 1392 1393 31 9143 5905 9187 8825 5900 5904 
10 1862 1732 966 821 7328 9190 9188 9189 9191 4437 
10 1504 761 1669 760 9192 9194 6725 9193 3806 9195 
10 1661 752 1662 908 9196 9070 6706 9197 4256 9069 
10 1862 1863 966 1732 7333 9198 9188 7328 7332 9190 
10 1938 1935 1824 1041 7589 7578 7588 9199 9003 8808 
10 338 1414 504 1413 5966 9200 9182 5964 5968 9201 
10 505 197 339 196 3032 2797 9202 3033 2349 2798 
10 1909 1007 1910 1110 9203 9204 7505 8762 4922 9205 
10 1541 631 630 458 9206 3409 9207 9208 3407 3405 
10 463 1546 464 1373 9209 9211 2912 9210 6359 9212 
10 683 516 1426 515 3563 9214 9213 3564 3065 9215 
10 992 994 1098 1849 4547 4882 4880 9216 9217 9218 
10 1654 1487 744 743 6683 9221 9219 9220 9222 3755 
10 521 210 1431 520 3079 9224 9223 3080 3075 9225 
10 204 1425 348 515 9226 5998 7783 3061 9227 9228 
10 1425 1597 1426 515 6509 6510 6002 9227 9229 9215 
10 1641 891 1796 1640 9230 9231 7122 6646 9232 7123 
10 4 1290 141 5 9172 9233 2292 2518 5592 8417 
10 690 1438 527 698 9234 8918 3584 3618 9235 3616 
10 849 886 839 1633 4184 4185 4091 9236 9237 9238 
10 838 1612 698 1591 9239 9241 4031 9240 6563 9242 
10 1480 736 1648 1479 9243 9244 6665 6164 9245 6666 
10 1236 1254 2120 1261 5434 9247 9246 5476 5477 9248 
10 250 107 392 106 8533 2691 9249 8532 2257 2690 
10 822 1733 1732 966 9250 6916 9251 4438 9252 9190 
10 398 112 1307 256 2708 9255 9253 9254 8544 5644 
10 1733 1863 1732 966 7331 7332 6916 9252 9198 9190 
10 1518 1682 775 1519 6764 9257 9256 6280 6763 9258 
10 2061 1177 1235 1178 9259 5354 9260 9261 5158 5353 
10 1001 1779 871 1778 9262 9264 4566 9263 7072 9265 
10 1938 1042 1824 1825 9266 9267 7588 7587 9268 7218 
10 620 1357 448 447 9039 9041 3375 3374 9269 2864 
10 1493 582 1494 1659 9270 9271 6206 6696 9272 6695 
10 582 750 1494 1659 3771 9273 9271 9272 9274 6695 
10 882 1630 1789 1790 9275 7100 9276 9277 7104 7105 
10 431 1513 1339 603 9278 6261 9279 3324 9280 9281 
10 883 719 1631 720 4175 9283 9282 4176 3684 9284 
10 842 1595 681 850 9285 9286 4038 4062 9287 4061 
10 538 708 1448 707 3646 8865 9288 3644 3648 8866 
10 1716 1848 977 1895 7290 9290 9289 7436 7437 9291 
10 1566 484 1393 1394 9292 9293 6420 6419 9294 5908 
10 1788 1011 881 1789 9295 4596 9296 7102 9297 9298 
10 938 939 1700 1838 4359 9301 9299 9300 9302 7260 
10 1630 882 718 719 9275 4172 9303 9304 4173 3681 
10 92 235 91 377 8647 8646 2241 2645 9305 2644 
10 164 307 163 447 8464 8463 2315 2860 9306 2859 
10 1848 1716 977 840 7290 9289 9290 9307 8960 4470 
10 1287 235 377 1286 5584 9305 9308 5585 5580 9309 
10 2019 1130 1129 1928 9310 4988 9311 7862 9312 9313 
10 1439 595 763 1506 9314 3810 9315 6741 9316 9317 
10 1312 261 403 117 5659 9320 9318 9319 8554 2723 
10 1630 719 549 1460 9304 3679 9321 6614 9322 9106 
10 376 1459 1286 1285 9323 6101 9324 9325 6102 5582 
10 1231 2076 2125 2120 9326 8283 9327 9328 8200 8316 
10 728 561 1472 729 3706 9330 9329 3710 3708 9331 
10 902 1656 746 1655 9332 9334 4239 9333 6688 9335 
10 1493 1658 749 1659 6692 9337 9336 6696 6697 9338 
10 261 118 403 117 8555 2724 9320 8554 2268 2723 
10 1771 1716 977 1895 7040 9289 9339 7439 7436 9291 
10 1557 475 1384 1385 9037 9340 6393 6392 9341 5881 
10 1832 1049 1096 1922 9342 4868 9343 7608 8994 9344 
10 613 1522 779 1686 9345 9347 3858 9346 6776 8978 
10 1476 565 732 564 9348 3718 9349 9350 3213 3717 
10 701 1896 1614 1818 9351 7440 9352 9113 7441 7431 
10 477 52 25 1387 2950 2544 9353 9354 9355 5886 
10 114 1309 399 400 9356 9357 2712 2714 9358 2716 
10 756 1665 911 912 9359 9360 4266 4268 9361 4270 
10 2074 1958 1176 1052 8058 9364 9362 9363 9365 5150 
10 1011 1914 1890 1789 9366 7735 9367 9297 7515 7518 
10 1973 1027 1807 1028 9368 9370 7698 9369 4650 8911 
10 754 1497 586 753 9371 9372 3783 3785 8784 3781 
10 2138 1251 1237 1241 9373 5494 9374 9375 5495 5419 
10 917 1896 701 1818 9376 9351 4495 9112 7441 9113 
10 1691 617 1690 1527 9377 9378 6792 6791 9379 6787 
10 455 628 456 1538 3398 3399 2888 9380 9381 9382 
10 1308 1482 1481 570 6169 6170 6165 9383 9384 9385 
10 1308 398 113 399 9386 2709 9387 9388 2713 2711 
10 1684 930 929 777 9021 4323 9389 9022 4321 4319 
10 1764 701 1614 1818 9390 9352 7012 7196 9113 7431 
10 1764 763 1605 530 9391 9393 7014 9392 4064 9394 
10 1678 1677 923 1823 6753 9396 9395 7210 7211 9397 
10 1863 1862 1074 1967 7333 9399 9398 7679 7680 9400 
10 748 747 903 1657 3767 4241 4242 9401 9402 9403 
10 836 1716 977 1771 9404 9289 4471 9405 7040 9339 
10 1942 1047 1046 1829 9406 4706 9407 7599 9408 9409 
10 527 1438 9 1433 8918 6039 8919 9410 6040 6021 
10 1323 272 414 128 5692 9413 9411 9412 8576 2756 
10 279 1331 1330 421 5717 5718 5713 9414 9415 9416 
10 272 129 414 128 8577 2757 9413 8576 2279 2756 
10 1896 1899 702 1719 7769 9418 9417 7442 7471 9419 
10 341 198 340 506 5223 2792 2500 9420 3035 9421 
10 1456 715 1626 1455 9422 9135 6602 6094 9136 6603 
10 1479 1306 568 1305 6159 9424 9423 6160 5643 9425 
10 759 915 760 1669 4277 4278 3803 9426 9427 9195 
10 134 420 1329 419 2774 9429 9428 2772 2776 9430 
10 1330 593 592 421 9431 3297 9432 9416 3295 3293 
10 1652 739 1651 1483 9433 9434 6679 6678 9435 6674 
10 1233 2103 2104 2128 9436 8152 9437 9438 8302 8339 
10 24 1386 51 25 5883 9439 2542 2172 5882 2543 
10 1733 1863 966 967 7331 9198 9252 9440 9441 4442 
10 1253 1197 2129 2098 5429 9444 9442 9443 9445 8328 
10 758 1502 590 1501 9446 9448 3795 9447 6230 9449 
10 1694 855 807 787 9125 4097 8724 8726 4340 4339 
10 951 1900 766 988 9450 9451 4393 4523 9117 4522 
10 1328 418 1327 276 9452 9453 5709 5708 9454 5704 
10 409 123 1318 267 2741 9457 9455 9456 8566 5677 
10 1764 1671 700 1818 7109 9459 9458 7196 7194 9114 
10 1731 1567 1732 821 6908 6912 6913 9460 9461 9191 
10 712 1452 711 1622 9462 9464 3660 9463 6590 9465 
10 1264 1435 140 425 6041 9468 9466 9467 9469 2790 
10 140 1435 1264 283 9468 6041 9466 8510 6027 6023 
10 491 1573 660 661 9470 9471 3498 3500 9472 3502 
10 1949 941 940 1840 9473 4365 9474 7622 9475 9476 
10 1290 4 141 381 9172 2292 9233 8733 2657 2658 
10 595 1333 423 1332 9477 9479 3301 9478 5724 9480 
10 1947 1837 1838 1053 7618 7261 7617 9481 9482 9483 
10 1089 986 1887 1886 4841 9486 9484 9485 9487 7409 
10 539 1276 1449 540 9488 6071 9489 3139 9490 9491 
10 334 191 333 1409 5073 5078 2493 5952 9492 5951 
10 1055 2034 1147 1950 9493 9495 5036 9494 7906 9496 
10 1365 1364 456 1538 5821 9498 9497 6335 6336 9382 
10 1537 627 626 454 9499 3397 9500 9501 3395 3393 
10 231 374 232 1283 8826 9502 2388 5572 9503 5571 
10 1260 1249 2128 2148 5485 9506 9504 9505 9507 8332 
10 1526 1352 443 1525 6300 9509 9508 6301 6296 9510 
10 694 142 381 1334 3598 2794 3597 9511 9512 9513 
10 681 1595 1424 1596 9286 6504 9514 9515 6508 6506 
10 809 1554 1714 1715 9516 6859 9517 9518 6862 6863 
10 1696 935 1697 1834 9519 9520 6810 7249 8753 7248 
10 468 1550 1378 1377 9521 6374 9522 9523 6371 6031 
10 1056 1055 1147 1950 4733 5036 5037 9524 9494 9496 
10 574 1485 573 741 9525 9526 3240 3745 9527 3744 
10 1688 615 614 1525 9528 3361 9529 6781 9530 9531 
10 1828 1045 1941 1827 9532 9533 7596 7227 9534 7597 
10 1833 932 1848 1832 9535 9536 7455 7242 9537 7583 
10 1687 613 614 780 9538 3358 9539 8984 3860 3861 
10 507 675 674 1417 3545 3546 3541 9540 9541 9542 
10 173 457 174 316 2889 2890 2325 8481 9543 8482 
10 378 1287 1288 236 9544 5588 9545 9546 5583 5587 
10 781 782 1897 933 3868 8952 9547 4331 4713 9548 
10 2102 1210 2135 1208 9549 9551 8218 9550 5341 9552 
10 2114 2113 1257 1226 8184 9555 9553 9554 9556 5474 
10 715 1456 545 1455 9422 9557 3667 9136 6094 9558 
10 1949 1055 1950 2034 9559 9494 7627 7907 9493 7906 
10 2137 2102 2099 1208 8288 8358 8357 9560 9550 9561 
10 1020 1917 1919 1800 9562 7531 9563 9564 7525 7530 
10 1562 1727 650 1563 6897 9566 9565 6412 6896 9567 
10 1916 1997 954 1851 7790 9569 9568 7650 7789 9570 
10 187 495 329 1405 3002 9572 5225 9571 9573 5939 
10 1482 1309 1483 571 6168 6172 6173 9574 9575 9576 
10 356 1265 529 1266 9577 9579 3105 9578 5522 9580 
10 37 63 1398 36 2567 9581 5918 2184 2566 5919 
10 1700 1699 938 1837 6819 9582 9299 7256 7257 9583 
10 442 1352 1525 443 9584 6296 9585 2849 9509 9510 
10 1900 859 1751 766 9586 9587 7472 9451 4093 9588 
10 1363 626 1536 1362 9589 9590 6329 5815 9591 6330 
10 1012 858 1718 994 4601 9592 8850 4602 4545 8851 
10 811 644 810 1721 3950 3948 3952 9593 9594 9595 
10 640 1553 639 854 9596 9597 3622 4073 9598 4072 
10 1711 637 804 1710 9599 3932 9600 6852 9601 9602 
10 1795 695 1608 1604 9096 9098 7121 7120 9603 6550 
10 954 1997 955 1851 9569 9604 4509 9570 7789 9155 
10 1675 1674 768 1890 6744 9605 8947 7417 7418 8782 
10 813 646 812 1723 3956 3954 3958 9606 9607 9608 
10 347 1425 514 1424 5997 9610 9609 5995 5999 9611 
10 1295 244 1296 386 5608 5612 5613 9612 9613 9614 
10 811 1893 1721 810 9615 7426 9593 3952 9152 9595 
10 1674 978 768 1890 9616 4473 9605 7418 8780 8782 
10 1724 814 1725 1855 9617 9618 6892 7308 9619 7307 
10 1399 490 489 64 9620 2990 9621 8993 2988 2986 
10 1071 1859 1858 1963 9622 7321 9623 9624 7667 7668 
10 905 1806 1807 1659 9625 7163 9626 9627 7159 7162 
10 1262 2112 1246 1248 9628 9629 5511 5493 9630 5489 
10 906 1660 907 751 9631 9632 4255 4251 9633 4253 
10 26 52 53 478 2545 2201 2546 9634 2952 2953 
10 649 479 648 1561 3464 3462 3466 9635 9636 9637 
10 556 1463 1637 1468 9638 6634 9639 9640 6128 6633 
10 655 1568 1732 822 9641 6911 9642 3983 9643 9251 
10 488 1570 658 1398 9644 9646 3491 9645 6431 9647 
10 1771 1982 1895 985 7731 7732 7439 9648 9649 9650 
10 1181 2015 2087 2033 9651 8103 8869 8868 7905 8102 
10 1570 1735 1734 824 6921 6922 6917 8893 9652 8894 
10 701 1764 700 1818 9390 9458 3627 9113 7196 9114 
10 1531 1694 787 1695 6799 8726 9653 6803 6804 9654 
10 497 188 1406 496 3009 9656 9655 3010 3005 9657 
10 2093 1201 1138 2022 9658 5237 9659 8116 9660 9661 
10 165 308 1358 309 8466 5799 9034 8467 2467 5798 
10 1487 576 743 575 9662 3751 9222 9663 3246 3750 
10 436 296 295 1345 9664 2454 9665 9666 5759 5760 
10 63 488 489 1398 2983 2987 2985 9581 9645 9667 
10 965 1861 1966 1862 9668 7677 9669 9670 7330 7676 
10 668 501 669 1583 3523 3527 3528 9671 8744 8745 
10 154 297 438 155 8504 9672 2832 2306 8445 2833 
10 1518 774 608 775 9673 3843 9674 9256 3847 3845 
10 1412 336 1411 502 5960 5958 5962 9675 9676 9677 
10 193 501 1411 502 3020 8746 9678 3024 3025 9677 
10 849 1612 1611 698 9679 6564 9680 4058 9241 9681 
10 1361 451 168 452 9029 2872 8980 8981 2876 2874 
10 739 572 1483 740 3739 9682 9435 3743 3741 9683 
10 2048 1163 1968 2080 9684 9685 7948 8081 9686 8080 
10 970 1736 826 825 9687 9688 4450 4449 9689 3997 
10 979 990 1884 1165 4530 9690 9094 4874 4875 9095 
10 642 1555 1554 809 9691 6388 9692 3944 9693 9516 
10 2103 1188 2078 1247 9694 9696 8295 9695 5405 9697 
10 682 514 1424 681 3561 9611 9698 3562 3557 9514 
10 1093 1971 1088 1172 9699 9700 4858 5134 9701 5133 
10 842 850 993 1754 4062 4541 4542 9702 9703 9704 
10 990 1883 993 1754 9705 9707 4544 9706 7395 9704 
10 514 347 1424 203 9609 5995 9611 3058 7822 9708 
10 682 1597 1596 1425 9709 6511 9710 9711 6509 6507 
10 1753 1595 1594 842 6974 6505 6973 8967 9285 9712 
10 1900 859 766 988 9586 4093 9451 9117 4540 4522 
10 1729 1565 1730 819 6902 6906 6907 9713 9714 9715 
10 692 1594 863 1593 9716 9718 4114 9717 6502 9719 
10 1595 1423 1594 680 6503 6501 6505 9720 9721 9722 
10 2131 1232 1252 1217 9723 5425 9724 9100 5319 5424 
10 979 805 1756 1755 4477 9727 9725 9726 9728 6984 
10 345 512 201 1422 9729 3052 7973 5989 9730 9731 
10 1387 1388 1560 478 5890 6401 6402 9732 9733 9734 
10 595 1440 1333 1506 9735 6247 9477 9316 6543 6240 
10 983 1894 848 1636 9736 9738 4488 9737 7432 9739 
10 1508 664 1576 1404 9168 9740 6450 6246 9741 6448 
10 288 146 289 1338 8428 8429 2447 5739 9742 5738 
10 1103 2090 2082 1169 9743 8110 9744 5128 8839 8838 
10 1899 1932 1087 2000 7845 9746 9745 7803 7844 9747 
10 1060 2039 1954 1151 9748 7923 9749 5049 9750 9751 
10 763 1506 762 1671 9317 9753 3813 9752 6731 9754 
10 1412 503 1585 1413 9755 9756 6474 5965 9757 6475 
10 497 1407 1406 331 9758 5947 9655 9759 5945 5943 
10 436 296 1345 437 9664 5759 9666 2831 9760 9761 
10 1185 1110 1184 2007 5183 5181 5185 9762 8763 9763 
10 935 1696 934 1834 9519 9764 4347 8753 7249 9765 
10 1278 541 1451 1277 9766 9767 6077 5558 9768 6078 
10 868 704 867 1879 4130 4128 4132 9120 8916 8775 
10 2052 1183 1184 2109 9769 5182 9770 8167 9771 9772 
10 1641 728 1640 1472 9773 9774 6646 6645 9329 6641 
10 998 1869 1998 1972 9775 7795 9776 9777 7695 7794 
10 2005 996 2000 1776 9778 9779 7818 7817 9780 7802 
10 1568 1733 1732 822 6915 6916 6911 9643 9250 9251 
10 1737 1736 970 1901 6928 9687 9781 7475 7476 9782 
10 1797 1014 890 1015 9783 4607 9784 9785 4611 4609 
10 539 367 366 1275 3135 2616 3134 9786 9787 9788 
10 1619 871 1618 708 9789 8846 6583 9790 4140 8845 
10 986 844 845 1758 4502 4048 4501 9791 9792 9793 
10 1914 1010 1038 1913 9794 4933 9795 7517 9796 9797 
10 1914 1788 1010 1913 7516 9798 9794 7517 7512 9796 
10 1788 1914 1010 1011 7516 9794 9798 9295 9366 4598 
10 1777 1000 870 1778 9799 4563 9800 7069 9801 9802 
10 1452 1623 1622 712 6594 6595 6590 9462 9803 9463 
10 147 290 289 1339 8431 2448 8430 9804 5741 5742 
10 1927 1128 1032 1129 9805 4981 9806 9807 4985 4983 
10 1445 705 704 535 8795 3639 8796 8778 3637 3635 
10 1973 1124 2030 2006 9808 9809 7895 7767 9810 7896 
10 1788 1913 1787 1010 7512 7513 7099 9798 9796 9811 
10 1463 556 1637 723 9638 9639 6634 9812 3692 9009 
10 1469 558 557 386 9813 3192 9814 9815 3190 3188 
10 1302 1475 392 564 6147 9818 9816 9817 9819 3208 
10 1432 1590 689 1603 6490 9821 9820 6528 6539 9822 
10 1889 1918 1017 1798 7784 9824 9823 7416 7707 9825 
10 464 180 324 181 2910 8495 9826 2911 2332 8496 
10 1075 1074 1162 1967 4789 5086 5087 9827 9400 9828 
10 1016 2002 1017 1889 9829 9831 4617 9830 7807 9823 
10 904 1025 1891 903 4641 9833 9832 4246 4640 9834 
10 872 873 709 1620 4147 4145 4143 9835 9836 9837 
10 880 1788 1787 1010 9838 7099 9839 4593 9798 9811 
10 879 715 1626 1627 4163 9135 9840 9841 9842 6607 
10 1929 1034 1033 1813 9843 4668 9844 7561 9845 9846 
10 902 1819 903 1656 9847 9848 4243 9332 7200 9849 
10 648 478 647 1560 3461 3459 3463 9850 9734 9851 
10 484 59 58 32 2971 2207 2970 9852 2558 2557 
10 1564 1729 652 1565 6903 9854 9853 6418 6902 9855 
10 560 1471 559 727 9856 8833 3198 3703 9857 3702 
10 1630 719 1460 1631 9304 9322 6614 6619 9283 6618 
10 1552 1381 1554 641 6377 6384 6385 9858 9859 9860 
10 1490 1656 1655 746 6687 6688 6684 9861 9334 9335 
10 1096 1848 977 933 9862 9290 4867 4866 9863 4528 
10 950 1885 1084 1884 9864 9866 4817 9865 7403 9093 
10 1487 576 744 743 9662 3753 9221 9222 3751 3755 
10 624 451 1361 452 3386 9029 9867 3387 2876 8981 
10 1177 2061 1235 2133 9259 9260 5354 9868 8268 9869 
10 1034 1814 1930 1035 9870 7564 9871 4671 9872 9873 
10 737 738 570 1481 3737 3735 3733 9874 9875 9385 
10 979 950 1084 1884 4478 4817 4818 9094 9865 9093 
10 702 1443 532 1719 9876 9877 3628 9419 6871 9878 
10 871 1619 1779 872 9789 7071 9264 4144 9879 9880 
10 1500 589 757 756 9881 3792 9882 9883 3790 3794 
10 1328 1502 1501 590 6229 6230 6225 9884 9448 9449 
10 1513 1339 603 1512 6261 9281 9280 6262 6257 9885 
10 758 1667 1501 757 9886 6720 9447 3797 9887 9888 
10 984 1901 887 1794 9889 9891 4492 9890 7478 9892 
10 59 33 1394 485 2559 5906 9893 2973 9894 9895 
10 2007 2109 1184 2084 8166 9772 9763 8096 8168 9896 
10 1801 897 1021 896 9897 4628 9898 9899 4217 4627 
10 2061 1084 1986 1985 9900 9901 8001 8000 9902 7749 
10 1647 897 1801 1646 9903 9897 7139 6664 8764 7140 
10 1272 536 1273 1446 9904 9905 5543 6063 9906 6062 
10 1443 532 1719 1442 9877 9878 6871 6055 9907 6872 
10 2047 1161 1967 1162 9908 9910 7945 9909 5088 9828 
10 50 475 23 49 2944 9911 2540 2198 2943 2539 
10 618 785 1692 784 3875 9913 9912 3873 3877 9914 
10 600 428 1510 601 3315 9916 9915 3319 3317 9917 
10 1020 1919 1021 1800 9563 9918 4629 9564 7530 9919 
10 1919 1801 1021 1800 7529 9898 9918 7530 7141 9919 
10 1097 2059 1079 1902 9920 9922 4878 9921 7993 9923 
10 61 35 1396 487 2563 5912 9924 2979 9925 9926 
10 1940 2026 1140 2027 7882 9928 9927 7886 7887 9929 
10 573 572 1310 401 3237 9930 8988 3235 3233 9931 
10 834 1587 673 1588 9932 9934 4020 9933 6485 9935 
10 452 453 1362 625 2879 9937 9936 3389 3390 9938 
10 50 24 476 51 2541 9150 2946 2199 2542 2947 
10 1922 1101 1996 1134 9939 9940 7786 8996 4999 9941 
10 1134 1187 1996 2025 5190 9943 9941 9942 9944 7879 
10 1619 871 1779 1778 9789 9264 7071 7067 9265 7072 
10 1686 780 613 1687 8982 3860 9346 6780 8984 9538 
10 1201 1245 2142 2093 5436 9946 9945 9658 9947 8307 
10 508 1434 526 597 9948 9949 3095 3308 9950 3307 
10 1922 1049 1944 1831 8994 8995 7791 7609 9951 7605 
10 1399 490 38 1400 9620 9952 5921 5926 9953 5925 
10 1830 1047 1829 930 9954 9408 7233 9955 4705 9956 
10 1020 896 1800 1021 4625 9957 9564 4629 4627 9919 
10 1833 932 1832 1687 9535 9537 7242 7241 8985 7237 
10 1240 2096 2100 1213 9958 8140 9959 5386 9960 9961 
10 1687 1524 614 613 6778 9962 9539 9538 9963 3358 
10 545 1282 373 1281 9964 8844 3153 9965 5570 9966 
10 177 319 1369 320 8488 5832 9967 8506 2478 5831 
10 17 1379 1378 469 5862 5863 5859 9968 9969 9970 
10 1122 1020 1121 1919 4957 4955 4959 9971 9563 9972 
10 1000 871 870 1778 4564 4141 4563 9801 9265 9802 
10 1872 884 1742 1871 9973 9974 7359 7361 9975 7357 
10 1645 895 1800 1799 8883 9976 7137 7133 9977 7138 
10 2014 1121 1917 1919 9978 9979 7847 7846 9972 7531 
10 1545 636 463 1546 9980 3422 8803 6361 9981 9209 
10 1828 1942 1046 1829 7600 9407 9982 7230 7599 9409 
10 717 1628 881 1629 9983 9985 4169 9984 6613 9986 
10 686 518 1600 685 3573 9988 9987 3574 3569 9989 
10 1900 1903 766 1763 7485 9990 9451 7474 7484 9991 
10 1840 796 795 1703 9992 3910 9993 7265 9994 9995 
10 1727 961 962 1858 9996 4427 9997 7317 9998 9999 
10 1379 17 470 469 5862 10001 10000 9969 9968 2930 
10 1616 704 1879 1615 8798 8916 7382 6574 9111 7383 
10 1210 1146 2034 1147 5261 10003 10002 5262 5038 9495 
10 1843 1058 1953 1952 10004 10005 7635 7631 10006 7636 
10 646 1386 1558 1559 10007 6395 10008 9144 6399 6400 
10 1068 2043 1158 1961 10009 10011 5068 10010 7933 9166 
10 1460 549 1459 1286 9106 10012 6106 6105 9104 6101 
10 341 13 507 1417 2501 10014 10013 5975 5976 9540 
10 2012 1122 2014 1919 10015 10016 7848 7840 9971 7846 
10 835 673 674 1589 4024 3543 4023 10017 10018 10019 
10 554 1379 469 1378 10020 9969 3179 10021 5863 9970 
10 952 1740 1741 1868 10022 6940 10023 10024 7347 7348 
10 1379 554 469 470 10020 3179 9969 10000 3436 2930 
10 912 1665 1813 1666 9361 7180 10025 10026 6718 7179 
10 1066 1854 1957 958 10027 7647 10028 4761 10029 10030 
10 662 553 1578 1406 3506 10033 10031 10032 10034 6454 
10 1997 1893 955 1851 7788 9153 9604 7789 7428 9155 
10 468 469 16 1378 3101 10036 10035 9522 9970 5860 
10 1927 2032 2016 1129 7901 7902 7853 9807 10037 10038 
10 557 1468 724 1635 10039 10041 3694 10040 6629 10042 
10 1704 1540 1541 630 6830 6346 6829 10043 10044 9207 
10 2028 1203 1142 1205 10045 5243 10046 10047 5244 5247 
10 725 557 724 1635 3696 3694 3698 10048 10040 10042 
10 1665 1812 911 1813 7176 10049 9360 7180 7181 10050 
10 1387 1559 647 1560 6398 9145 10051 6402 6403 9851 
10 1033 912 911 1813 4664 4270 4663 9846 10025 10050 
10 1190 1247 2078 1189 5411 9697 10052 5201 5406 10053 
10 896 1801 1800 1021 9899 7141 9957 4627 9898 9919 
10 1139 1042 1939 1043 5009 10055 10054 5010 4694 10056 
10 507 13 1437 1417 10014 6035 10057 9540 5976 6034 
10 1033 1812 911 1032 10058 10049 4663 4665 10059 4661 
10 1620 1449 1450 709 6585 6076 6584 9837 10060 10061 
10 1562 649 1389 480 10062 8958 6408 10063 3465 8959 
10 1749 976 834 975 10064 4468 10065 10066 4469 4464 
10 672 833 1587 834 4017 10067 9015 4021 4022 9932 
10 983 1894 1082 982 9736 10068 4813 4489 10069 4814 
10 1190 2070 2078 2128 10070 8073 10052 10071 8244 8245 
10 1654 1768 851 1610 7151 10073 10072 7046 7447 10074 
10 686 1601 1600 1429 10075 6523 9987 10076 6521 6519 
10 1940 1826 1043 1939 7594 10078 10077 7595 7590 10056 
10 1410 501 500 668 10079 3022 10080 10081 3523 3524 
10 1457 1456 1283 546 6097 6092 6096 8823 10082 8824 
10 2034 2036 1147 1950 7912 10083 9495 7906 7911 9496 
10 266 1317 122 408 5674 10085 8564 10084 10086 2738 
10 1529 618 1355 446 10087 10089 6309 10088 3369 10090 
10 1711 638 804 637 10091 3933 9600 9599 3430 3932 
10 1430 519 687 520 8756 3576 10092 10093 3077 3575 
10 1146 1949 1055 1054 10094 9559 5034 5033 10095 4730 
10 829 1874 919 1873 10096 10098 4290 10097 7367 10099 
10 2036 1056 1147 1950 10100 5037 10083 7911 9524 9496 
10 803 948 1847 802 4385 10102 10101 3931 4384 10103 
10 1993 1102 2065 1970 10104 10105 8016 8012 10106 8017 
10 649 1562 650 480 10062 9565 3469 3465 10063 3467 
10 1880 956 812 1853 10107 4408 10108 7388 10109 10110 
10 420 134 278 135 2774 8588 10111 2775 2285 8589 
10 1487 1654 1768 743 6683 7151 7027 9222 9220 10112 
10 1892 783 857 782 10113 4334 10114 8951 3871 4333 
10 1812 910 911 1032 10115 4267 10049 10059 4660 4661 
10 1067 959 1956 1068 4764 10117 10116 4768 4766 10118 
10 292 149 1341 291 8435 10119 5747 2450 8434 5748 
10 935 1051 1946 934 5030 10120 8755 4347 4852 10121 
10 675 1551 1609 840 10122 6552 10123 4035 10124 8961 
10 853 767 1750 883 4071 8940 10125 4506 4548 10126 
10 1727 1562 650 816 6897 9565 9566 10127 10128 3966 
10 1326 131 416 274 10129 2763 10130 5702 8581 10131 
10 1353 444 1354 1527 10132 10133 5788 6303 10134 6302 
10 974 1748 1877 1747 10135 7375 10136 10137 6961 7374 
10 365 366 223 1274 2613 10140 10138 10139 10141 5544 
10 693 675 1609 840 3610 10123 9079 4034 4035 8961 
10 1080 1881 1852 1752 10142 7391 10143 8971 7389 7301 
10 959 1067 1956 1855 4764 10116 10117 10144 10145 7645 
10 1069 1856 1961 1857 10146 7662 9164 10147 7315 7661 
10 1069 1856 1857 960 10146 7315 10147 4769 10148 10149 
10 90 234 1285 376 8644 5577 10150 2641 10151 9325 
10 1044 926 1827 927 4695 10153 10152 4696 4314 9087 
10 710 1621 1451 1450 10154 6587 10155 10156 6588 6079 
10 1927 1812 1032 1811 7554 10059 9806 7555 7178 10157 
10 1573 827 1737 826 10158 10160 6926 10159 4001 10161 
10 998 869 1869 999 4558 8786 9775 4562 4560 10162 
10 1009 1911 1008 1112 10163 10164 4592 4928 10165 4927 
10 22 23 1384 49 2170 5876 5877 2538 2539 10166 
10 402 116 260 117 2720 8552 10167 2721 2267 8553 
10 1467 598 382 1292 10168 3309 10169 6122 8862 8863 
10 1188 2079 1189 1117 10170 8989 5198 5195 8990 5196 
10 491 1573 661 1401 9470 9472 3500 10171 6440 10172 
10 1916 1062 1997 2042 10173 10174 7790 7930 10175 7929 
10 1421 200 1420 510 10176 10178 5987 10177 3045 9130 
10 1401 492 661 491 10179 3501 10172 10171 2996 3500 
10 367 81 366 1275 2614 2612 2616 9787 10180 9788 
10 1785 879 1626 1786 10181 9840 7088 7093 8954 7092 
10 1785 879 878 1626 10181 4165 10182 7088 9840 10183 
10 1760 1601 1759 846 6994 6992 6996 9179 10184 10185 
10 205 204 348 515 2359 7783 7782 3060 3061 9228 
10 1401 66 492 491 10186 2994 10179 10171 2992 2996 
10 1812 910 1032 1811 10115 4660 10059 7178 10187 10157 
10 726 1639 889 727 10188 10189 4191 3704 10190 4192 
10 1862 1966 1074 1967 7676 10191 9399 7680 7681 9400 
10 1918 1190 1118 1119 10192 5199 10193 10194 5200 4950 
10 2081 1179 1983 2077 10195 10196 8083 8093 10197 8070 
10 984 1901 1794 1737 9889 7478 9890 10198 7475 7430 
10 1619 872 709 1620 9879 4143 10199 6586 9835 9837 
10 1231 2076 2120 1236 9326 8200 9328 5359 10200 9246 
10 1539 630 1540 1703 10201 10044 6343 6827 10202 6826 
10 849 886 1766 901 4184 10204 10203 4513 4514 10205 
10 862 849 1766 901 4109 10203 10206 4515 4513 10205 
10 1271 1444 1270 361 6056 6057 5537 10207 10208 10209 
10 1652 862 1766 901 10210 10206 7107 10211 4515 10205 
10 739 571 1651 1483 3738 10212 9434 9435 9576 6674 
10 191 499 190 333 3014 3015 2343 5078 10213 5079 
10 1639 726 559 727 10188 3700 8832 10190 3704 3702 
10 1652 739 862 901 9433 4230 10210 10211 4228 4515 
10 1129 2016 2106 2032 10038 8158 10214 10037 7902 8157 
10 44 17 470 18 2528 10001 2928 2529 2165 10215 
10 500 1409 1582 667 10216 6465 10217 3520 10218 10219 
10 1280 543 371 544 10220 3147 10221 10222 3151 3149 
10 668 1583 669 1745 9671 8745 3528 10223 6950 10224 
10 857 693 1717 1609 4082 10227 10225 10226 9079 6866 
10 341 198 506 507 5223 3035 9420 10013 3039 3040 
10 1667 913 757 758 10228 4271 9887 9886 4272 3797 
10 1803 1023 1802 898 10229 10231 7147 10230 4633 10232 
10 913 1034 1814 912 4667 9870 10233 4273 4666 10234 
10 1272 536 1446 535 9904 9906 6063 8903 3127 10235 
10 43 17 16 469 2527 2164 2526 2926 9968 10036 
10 913 1815 1667 1814 10236 7186 10228 10233 7187 7182 
10 1821 921 769 922 10237 4296 10238 10239 4299 4297 
10 2043 1068 1956 1961 10009 10118 7934 7933 10010 7663 
10 477 1386 646 1559 10240 10007 3456 10241 6399 9144 
10 1936 1040 1822 1823 10242 10243 7581 7580 9001 7212 
10 1075 1863 1074 1967 10244 9398 4789 9827 7679 9400 
10 1196 2074 1090 2095 10245 10246 5218 8811 8124 10247 
10 1480 737 736 569 10248 3734 9243 10249 3732 3730 
10 1144 2102 2124 2077 10250 8216 8812 10251 8145 8215 
10 583 750 751 1660 3772 3776 3774 10252 10253 9633 
10 770 923 1822 922 4300 10255 10254 4298 4302 10256 
10 1386 477 476 51 10240 2951 9149 9439 2949 2947 
10 2106 2016 1129 1199 8158 10038 10214 10257 10258 5231 
10 2059 1174 1079 1994 10259 5139 9922 7995 10260 10261 
10 2059 2116 1174 1994 8189 10262 10259 7995 8188 10260 
10 1528 1354 445 1527 6306 10264 10263 6307 6302 10265 
10 1964 963 1860 1072 10266 10268 7670 10267 4778 10269 
10 1051 937 1934 1052 4718 10271 10270 4721 4719 10272 
10 1535 792 791 625 10273 3898 10274 10275 3896 3894 
10 1078 1878 1994 1981 10276 7777 10277 10278 7728 7776 
10 2056 2112 1248 2055 8177 9630 10279 7979 8176 10280 
10 897 1801 1021 1022 9897 9898 4628 4630 10281 4632 
10 1994 1878 1078 1079 7777 10276 10277 10261 10282 4801 
10 1902 1878 1994 1079 7479 7777 7778 9923 10282 10261 
10 1357 308 1358 448 5795 5799 5800 9041 10283 9033 
10 303 160 443 159 8456 2848 10284 8455 2311 2847 
10 1529 618 619 785 10087 3373 10285 10286 3875 3876 
10 1931 1932 2000 1087 7571 7844 8027 10287 9746 9747 
10 2021 1930 1131 2020 7867 10289 10288 7868 7863 10290 
10 474 644 1556 643 3449 10292 10291 3447 3451 10293 
10 1632 1462 856 1461 6620 10295 10294 6621 6112 10296 
10 998 2067 1972 1998 10297 8024 9777 9776 8025 7794 
10 541 710 1451 1450 3653 10155 9767 10298 10156 6079 
10 2067 2090 2082 1103 8296 8110 8234 10299 9743 9744 
10 2016 1198 2089 2018 10300 10301 8106 7860 10302 8107 
10 787 1694 1530 786 8726 6800 10303 3883 8725 10304 
10 830 668 669 1745 4009 3528 4008 10305 10223 10224 
10 1893 1997 955 1945 7788 9604 9153 7612 7793 10306 
10 1507 1419 677 1465 6244 10308 10307 6542 6117 10309 
10 452 1535 1362 1361 10310 6326 9936 8981 6327 5812 
10 1808 1029 1809 1959 10311 10312 7169 7656 10313 7655 
10 2072 1960 1065 1990 8045 10315 10314 8046 7762 10316 
10 486 61 1396 487 2977 9924 10317 2981 2979 9926 
10 2072 1066 1065 1960 10318 4762 10314 8045 10319 10315 
10 451 167 311 168 2871 8471 9032 2872 2319 8472 
10 1524 1688 614 1525 6782 9529 9962 6298 6781 9531 
10 1852 1100 2001 1983 10320 10321 7805 7736 10322 7806 
10 1552 1554 1714 808 6385 6859 6860 10323 10324 10325 
10 646 1558 812 1723 10008 10326 3954 9607 6885 9608 
10 422 594 423 1332 3298 3299 2785 10327 10328 9480 
10 1322 127 271 413 10329 8574 5689 10330 2753 10331 
10 477 52 1387 478 2950 9355 9354 2954 2952 9732 
10 1727 1858 962 1728 7317 9999 9997 6901 7316 10332 
10 831 830 669 1745 4013 4008 4012 10333 10305 10224 
10 1969 1865 1077 1076 7685 10336 10334 10335 10337 4795 
10 1969 1163 1968 1076 10338 9685 7687 10335 5090 10339 
10 1163 1075 1968 1076 5089 10340 9685 5090 4792 10339 
10 346 1423 1424 513 5992 5996 5994 10341 10342 10343 
10 1914 921 1011 1890 10344 4803 9366 7735 8781 9367 
10 2016 1198 1199 2089 10300 5232 10258 8106 10301 10345 
10 495 187 329 186 3002 5225 9572 3003 2339 5226 
10 842 1595 1594 680 9285 6505 9712 4039 9720 9722 
10 205 348 1426 515 7782 6000 10346 3060 9228 9215 
10 1051 935 1946 1835 5030 8755 10120 10347 8754 7613 
10 491 1573 1401 1400 9470 6440 10171 10348 6441 5929 
10 1101 1187 1996 1134 5191 9943 9940 4999 5190 9941 
10 1873 919 1094 1978 10099 4859 10349 7715 10350 10351 
10 203 202 346 513 2357 7915 7914 3054 3055 10341 
10 241 1293 1292 383 5603 5604 5599 8737 10352 8864 
10 1842 797 1841 1704 10353 10354 7273 7272 10355 7268 
10 1081 1866 1077 1970 10356 10358 4869 10357 7688 10359 
10 1507 697 1673 677 10360 9140 6737 10307 3612 10361 
10 762 917 700 1818 4284 4494 4507 10362 9112 9114 
10 1845 1707 945 1844 7281 9049 10363 7282 7277 10364 
10 1539 630 1703 629 10201 10202 6827 10365 3406 10366 
10 2035 1947 1176 2074 7909 10368 10367 8065 8066 9362 
10 1542 798 631 632 9052 3914 9050 10369 3915 3412 
10 530 1441 531 358 10370 8902 3112 3108 8876 3110 
10 1112 1113 2009 1171 4932 10372 10371 5307 5132 10373 
10 979 950 1756 843 4478 10374 9725 4476 4392 10375 
10 1934 1958 937 1836 7653 10376 10271 7576 7652 10377 
10 1051 1946 1934 1835 10120 7616 10270 10347 7613 7577 
10 565 1476 1302 564 9348 6151 10378 3213 9350 9817 
10 998 1869 1972 999 9775 7695 9777 4562 10162 10379 
10 869 1777 1869 999 10380 7352 8786 4560 10381 10162 
10 123 266 122 408 8565 8564 2273 2739 10084 2738 
10 1257 2157 1219 1239 10382 10383 5445 5444 10384 5384 
10 2147 2096 2100 1240 8335 8140 8327 10385 9958 9959 
10 882 881 1789 1629 4174 9298 9276 10386 9986 7101 
10 800 1544 801 634 8752 10387 3925 3921 9057 3923 
10 1557 1385 1558 645 6392 6396 6397 9038 10388 10389 
10 1700 792 626 793 10390 3897 10391 10392 3901 3899 
10 1040 1936 1935 1823 10242 7582 9002 9001 7580 7579 
10 1528 1355 445 1354 6305 10393 10263 6306 5791 10264 
10 1705 943 1842 797 8973 8974 7271 10394 4369 10353 
10 871 1779 1001 872 9264 9262 4566 4144 9880 4567 
10 2116 1135 1204 1174 8936 5339 8937 10262 5140 5379 
10 1540 1366 1367 458 6342 5827 6341 10395 10396 10397 
10 1551 836 1771 1716 10398 9405 7039 6864 9404 7040 
10 1940 1141 1941 2027 10399 10400 7598 7886 10401 7885 
10 785 1795 1692 861 10402 7245 9913 4121 10403 10404 
10 2149 2151 2141 1242 8351 8400 8407 10405 10406 10407 
10 2015 1106 1180 1105 10408 5168 10409 10410 4911 5167 
10 202 1423 346 513 10411 5992 7915 3055 10342 10341 
10 2072 1156 1960 2044 10412 10413 8045 8044 10414 7938 
10 591 420 419 1329 3290 2776 3289 10415 9429 9430 
10 1045 1141 1941 1044 5016 10400 9533 4700 5015 10416 
10 1851 953 1715 809 10417 10419 7298 10418 4400 9518 
10 1064 1997 2042 1945 10420 7929 10421 10422 7793 7932 
10 951 1090 2031 1063 4844 10424 10423 4753 4846 10425 
10 1476 1302 564 1475 6151 9817 9350 6152 6147 9819 
10 717 1458 1629 718 10426 6612 9984 3678 10427 10428 
10 880 1788 1010 881 9838 9798 4593 4171 9296 4594 
10 1044 1940 1941 1827 10429 7598 10416 10152 7593 7597 
10 1194 2101 2038 2100 10430 8142 10431 10432 8143 8138 
10 2037 2100 1213 2038 8139 9961 10433 7921 8138 10434 
10 1346 154 438 437 10435 2832 10436 10437 2830 2834 
10 156 1348 299 298 10438 5768 8448 8447 5769 2457 
10 330 187 1405 496 5170 9571 5940 10439 3006 10440 
10 451 624 1534 623 3386 10441 9030 3384 3388 10442 
10 1894 983 1992 1792 9736 10443 7823 7433 10444 7770 
10 862 838 1612 698 4107 9239 10445 4108 4031 9241 
10 1150 2037 1213 2038 10446 10433 5270 10447 7921 10434 
10 1881 1753 1752 991 7390 6975 7389 10448 8968 10449 
10 1 43 16 328 2524 2526 2163 2487 10450 5858 
10 2019 1929 1130 1928 7861 10451 9310 7862 7562 9312 
10 536 1273 537 364 9905 10452 3130 3126 9158 3128 
10 1812 1033 1813 1928 10058 9846 7181 7558 10453 7557 
10 666 499 667 1581 3517 3521 3522 10454 9186 10455 
10 1465 510 509 679 10456 3047 10457 10458 3553 3554 
10 756 1665 755 911 9359 10459 3791 4266 9360 4265 
10 2070 1190 1119 1191 10070 5200 10460 10461 5204 5202 
10 2100 1194 1213 2038 10432 5338 9961 8138 10431 10434 
10 657 1570 824 658 8891 8893 3989 3493 9646 3990 
10 928 1828 1682 1827 10462 7226 9084 9085 7227 7222 
10 928 1045 1827 927 4699 9534 9085 4317 4698 9087 
10 1826 926 1827 1044 10463 10153 7224 10464 4695 10152 
10 1045 1044 1827 927 4700 10152 9534 4698 4696 9087 
10 1636 983 839 848 9737 4487 10465 9739 4488 4110 
10 1238 2155 2146 2139 10466 8376 10467 10468 8405 8325 
10 917 1817 1037 1896 10469 10470 4837 9376 7546 10471 
10 1534 624 790 623 10441 3891 10472 10442 3388 3890 
10 677 1465 509 679 10309 10457 3549 3609 10458 3554 
10 1194 1150 1213 2038 5272 5270 5338 10431 10447 10434 
10 481 651 1563 650 3470 9107 10473 3468 3472 9567 
10 1304 395 566 394 10474 3215 10475 10476 2701 3214 
10 2098 1198 1253 1197 10477 5430 9443 9445 5229 5429 
10 255 112 397 111 8543 2706 10478 8542 2262 2705 
10 1702 1839 940 1840 7262 10480 10479 7266 7267 9476 
10 1224 2086 2030 2049 10481 8099 10482 10483 8100 8063 
10 523 15 14 524 10484 2521 3084 3100 9075 3089 
10 587 1324 415 586 10485 10486 3277 3279 10487 3275 
10 15 523 1436 524 10484 10488 6032 9075 3100 9076 
10 772 925 773 1679 4306 4307 3841 10489 10490 10491 
10 1211 2036 1147 2135 10492 10083 5263 10493 8235 10494 
10 1452 1623 712 1453 6594 9803 9462 6085 6593 10495 
10 1126 1125 1195 2053 4973 5215 5216 10496 10497 10498 
10 1390 481 1563 650 10499 10473 6411 10500 3468 9567 
10 1364 455 456 1538 9169 2888 9498 6336 9380 9382 
10 15 329 494 1404 2488 10502 10501 5937 5938 10503 
10 833 1749 1587 834 10504 6962 10067 4022 10065 9932 
10 2045 1218 1160 2104 10505 5287 10506 8153 10507 10508 
10 1586 671 672 504 10509 3537 10510 10511 3532 3536 
10 1958 2004 1934 1052 8033 8028 7653 9365 10512 10272 
10 728 891 1641 1640 4197 9230 9773 9774 9232 6646 
10 1826 1940 1043 1044 7594 10077 10078 10464 10429 4697 
10 1405 495 329 1404 9573 9572 5939 5941 10513 5938 
10 653 652 819 1565 3478 3974 3975 10514 9855 9714 
10 456 1364 315 172 9498 5816 10515 2886 10516 8479 
10 1826 1825 1043 1939 7221 10517 10078 7590 7591 10056 
10 825 1735 824 969 10518 9652 3994 4447 10519 4446 
10 1165 1084 1985 1884 4876 9902 10520 9095 9093 7744 
10 730 893 1643 1642 4203 10523 10521 10522 10524 6652 
10 354 211 521 1432 5503 3078 10525 6018 10526 10527 
10 1356 446 163 447 10528 2857 10529 10530 2861 2859 
10 1683 1520 776 1519 6766 10532 10531 6767 6283 10533 
10 1599 685 1758 1600 10534 10535 6988 6520 9989 6989 
10 503 195 1413 337 3026 10537 9757 10536 4907 5963 
10 1742 1871 885 1741 7357 10539 10538 6943 7356 10540 
10 1330 1504 1503 592 6235 6236 6231 9432 10541 10542 
10 607 1344 608 435 10543 10544 3340 3336 10545 3338 
10 1287 378 1288 551 9544 9545 5588 10546 3170 10547 
10 1446 1445 1272 535 6064 6059 6063 10235 8778 8903 
10 758 759 1668 914 3800 10549 10548 4274 4275 10550 
10 363 1273 221 1272 10551 5542 10552 10553 5543 5538 
10 829 699 1743 920 4007 10555 10554 4291 4292 10556 
10 563 1474 391 562 9131 10557 3205 3207 9133 3203 
10 1168 1115 1976 2011 5112 10560 10558 10559 10561 7838 
10 2050 1082 1123 1099 10562 5125 10563 10564 4886 5115 
10 989 1903 1820 837 10565 7486 10566 4525 10567 10568 
10 990 1883 1884 1165 9705 7400 9690 4875 10569 9095 
10 1194 1154 2039 2101 5212 8817 10570 10430 10571 8141 
10 336 1412 194 502 5960 8923 4978 9676 9675 3023 
10 1207 1246 2055 1248 5402 10573 10572 5410 5489 10280 
10 1984 1179 2081 1209 10574 10195 8084 10575 5289 10576 
10 433 1342 1515 606 10577 6266 10578 3332 10579 10580 
10 622 1359 450 449 10581 10582 3381 3380 10583 2870 
10 1121 1917 1019 1120 9979 10584 4954 4956 10585 4952 
10 1498 587 754 586 10586 3784 10587 10588 3279 3783 
10 1599 684 1427 1598 10589 10590 6515 6517 10591 6513 
10 2050 1920 1123 2012 7954 10592 10563 7955 7839 10593 
10 1993 1915 1081 1970 7775 9124 9123 8012 7850 10357 
10 1768 743 742 575 10112 3752 10594 10595 3750 3748 
10 2052 1908 1108 2064 7961 10597 10596 8015 8013 10598 
10 662 664 1405 1576 3513 10601 10599 10600 9740 6449 
10 448 1357 621 1358 9041 9040 3377 9033 5800 10602 
10 1297 387 245 102 10603 10605 5615 10604 2676 8523 
10 1121 2014 1917 2071 9978 7847 9979 10606 8034 8035 
10 1291 68 1403 42 10607 10608 5936 5725 2577 5933 
10 1909 2052 1908 1109 7960 7961 7502 10609 10610 10611 
10 1183 2052 1109 1108 9769 10610 5178 5177 10596 4920 
10 1784 877 1006 1783 10612 4582 10613 7087 10614 9000 
10 1023 1099 1024 1803 4887 4884 4638 10229 10615 10616 
10 1917 1975 1120 2071 7708 10617 10585 8035 8036 10618 
10 1799 1018 1019 1975 10619 4623 10620 7704 10621 10622 
10 1850 948 949 953 10623 4390 10624 10625 4965 4756 
10 1201 2094 2022 2093 10626 8119 9660 9658 8224 8116 
10 1044 1940 1043 1140 10429 10077 4697 5013 9927 5012 
10 1284 89 233 375 8920 8642 5574 8921 2638 10627 
10 1934 1836 936 1835 7576 10629 10628 7577 7255 10630 
10 1246 1168 2055 2126 5403 10632 10573 10631 10633 8232 
10 1535 792 1536 1699 10273 10634 6331 6815 10635 6814 
10 545 1282 546 373 9964 10636 3157 3153 8844 3155 
10 702 1443 1719 1613 9876 6871 9419 10637 6566 6874 
10 1077 1866 1081 969 10358 10356 4869 4794 10638 4843 
10 1045 1828 1046 928 9532 9982 4703 4699 10462 4701 
10 2111 2032 1228 2106 8173 10640 10639 8174 8157 10641 
10 1245 2109 2152 2142 10642 8361 10643 9946 8353 8364 
10 1031 1927 1032 1811 10644 9806 4662 10645 7555 10157 
10 149 432 291 148 2815 10646 8434 2300 2814 8433 
10 1464 426 599 694 8828 3312 8829 10647 3603 3619 
10 1923 1003 1780 1906 10648 10649 7540 7542 10650 7493 
10 748 749 581 1492 3770 3768 3766 10651 10652 10653 
10 545 1456 546 1282 9557 10082 3157 9964 6093 10636 
10 1108 1908 2052 1109 10597 7961 10596 4920 10611 10610 
10 1548 638 637 465 8790 3430 10654 9011 3428 3426 
10 1205 2068 1187 1143 10655 10656 5249 5248 10657 5193 
10 340 197 339 1415 2793 2797 2499 5970 10658 5969 
10 1141 1940 1140 2027 10399 9927 5017 10401 7886 9929 
10 1487 576 404 1314 9662 3244 10659 6183 10660 10661 
10 209 352 1430 519 7131 6012 10662 3072 10663 8756 
10 1047 1046 1829 929 4706 9409 9408 4704 4702 10664 
10 836 1771 977 985 9405 9339 4471 4497 9648 4500 
10 899 737 1649 900 4222 10666 10665 4226 4224 10667 
10 1562 1390 1563 650 6407 6411 6412 9565 10500 9567 
10 884 1872 1083 1871 9973 10668 4815 9975 7361 10669 
10 1944 1922 2025 1134 7791 7877 7878 8997 8996 9942 
10 968 1735 824 1734 10670 9652 4444 10671 6922 8894 
10 2101 1155 1154 2072 10672 5061 10571 8220 10673 10674 
10 1218 1233 1160 2104 5347 5345 5287 10507 9437 10508 
10 831 1584 669 670 8870 10675 4012 4011 10676 3531 
10 1529 618 785 1692 10087 3875 10286 6793 9912 9913 
10 1214 2136 1204 1258 10677 8935 5340 5449 10678 5448 
10 868 998 1998 997 4557 9776 10679 4555 4559 8861 
10 1245 1201 1227 2093 5436 5328 5435 9947 9658 10680 
10 1865 1077 1866 1970 10336 10358 7342 7689 10359 7688 
10 2109 1245 2084 2142 10642 10681 8168 8353 9946 8308 
10 805 979 1756 843 4477 9725 9727 4042 4476 10375 
10 1401 66 491 39 10186 2992 10171 5928 2572 10682 
10 2061 1084 1178 1986 9900 5157 9261 8001 9901 10683 
10 1185 2008 2007 2084 10684 7829 9762 10685 8095 8096 
10 616 444 443 1526 3363 2852 3362 10686 10687 9508 
10 1031 1810 909 1030 10688 10689 4657 4659 10690 4655 
10 844 843 1598 1757 4045 10693 10691 10692 10694 6985 
10 1282 374 1283 546 10695 9503 5573 10636 3156 8824 
10 2118 2008 1185 2084 8202 10684 10696 8257 8095 10685 
10 374 1284 232 1283 8922 5575 9502 9503 5576 5571 
10 2074 2035 1196 1176 8065 10697 10245 9362 10367 5357 
10 1771 1773 985 835 7452 10699 9648 10698 10700 4498 
10 1229 1168 2126 2011 5356 10633 10701 10702 10559 8231 
10 1867 1740 952 1868 7346 10022 10703 7349 7347 10024 
10 1115 1168 1229 2011 5112 5356 5326 10561 10559 10702 
10 1073 2046 1966 1965 10704 7942 10705 10706 7943 7678 
10 1683 776 777 929 10531 3853 10707 10708 4318 4319 
10 1196 2074 1176 1090 10245 9362 5357 5218 10246 5162 
10 1159 1962 1158 2075 10709 9165 5076 10710 8055 10711 
10 1713 992 1765 1849 10712 10713 7038 7293 9216 7292 
10 1827 1682 927 1681 7222 9086 9087 7223 6765 10714 
10 770 1676 1677 1513 10715 6750 10716 10717 6745 6749 
10 1159 1232 2075 1158 5344 10718 10710 5076 5320 10711 
10 1947 2035 1176 1145 7909 10367 10368 10719 10720 5149 
10 156 1348 298 439 10438 5769 8447 2836 10721 9115 
10 1962 2041 1158 2075 7927 10722 9165 8055 8056 10711 
10 858 860 1762 1576 4512 10725 10723 10724 10726 7002 
10 1870 1012 994 1170 8848 4602 8849 10727 5120 5121 
10 1526 1353 443 1352 6299 10728 9508 6300 5785 9509 
10 2068 1205 1187 1174 10655 5249 10656 10729 5463 5329 
10 1108 1907 2064 1908 10730 8014 10598 10597 7499 8013 
10 2059 1097 1174 1187 9920 5141 10259 10731 5192 5329 
10 2068 2059 1174 1187 8029 10259 10729 10656 10731 5329 
10 1232 2041 2075 1158 10732 8056 10718 5320 10722 10711 
10 677 679 837 1638 3609 4028 4029 10733 10734 10735 
10 523 15 9 14 10484 2517 10736 3084 2521 8276 
10 767 1790 883 978 10737 10738 4548 4472 10739 4549 
10 1214 2058 2069 2115 10740 7992 10741 10742 8185 8186 
10 2136 1214 2069 2115 10677 10741 8280 8279 10742 8186 
10 2149 1262 1255 1242 10743 5501 10744 10405 5498 5438 
10 1689 781 1688 615 10745 10747 6786 10746 3864 9528 
10 1255 2138 1237 2145 10748 9374 5499 10749 8342 10750 
10 1126 2023 1959 2053 10751 7872 10752 10496 7965 7963 
10 1174 1135 1079 1994 5140 5000 5139 10260 10753 10261 
10 925 1680 773 1679 10754 10755 4307 10490 6759 10491 
10 2016 1198 2018 1128 10300 10302 7860 10756 5228 10757 
10 1914 1038 1011 921 9795 4847 9366 10344 4678 4803 
10 1883 1165 1985 1884 10569 10520 7742 7400 9095 7744 
10 1223 2144 2117 1259 10758 8319 10759 5462 10760 10761 
10 1628 1788 881 1629 7098 9296 9985 6613 7097 9986 
10 523 15 1433 9 10484 6022 10762 10736 2517 6021 
10 996 2005 2000 2082 9778 7818 9779 8836 8086 8087 
10 1012 1870 1718 1762 8848 7353 8850 10763 7354 7042 
10 1933 1025 1891 1026 10764 9833 7573 10765 4644 10766 
10 1222 2133 2117 2060 10767 8269 10768 10769 8267 8193 
10 1825 1826 1043 925 7221 10078 10517 10770 10771 4692 
10 1982 2059 1097 1902 7994 9920 10772 7733 7993 9921 
10 2017 2015 1180 1105 7857 10409 8802 10773 10410 5167 
10 1790 1674 1890 978 7380 7418 7419 10739 9616 8780 
10 609 776 1519 775 3848 10533 10774 3846 3850 9258 
10 2019 1929 2020 1130 7861 7864 7865 9310 10451 10775 
10 1170 1870 1167 1904 10727 10777 5123 10776 7488 10778 
10 2111 1225 2121 1241 10779 10781 8259 10780 5389 10782 
10 1225 1220 2091 1103 5310 10784 10783 5311 5296 10785 
10 1166 998 1103 2067 5104 4900 5107 10786 10297 10299 
10 2051 1104 1972 1905 10787 10788 7958 7957 10789 7696 
10 702 1443 1613 533 9876 6566 10637 3629 10790 10791 
10 1115 2054 1974 2011 10792 7967 10793 10561 7968 7837 
10 1366 457 174 458 10794 2890 10795 10396 2894 2892 
10 1821 1676 769 1675 7205 10796 10238 7206 6747 10797 
10 741 1484 573 740 10798 8987 3744 3746 10799 3742 
10 1175 1200 1988 2063 5236 10802 10800 10801 10803 8007 
10 1086 1999 1085 1164 10804 10805 4824 5095 10806 5094 
10 1168 1115 1083 1976 5112 4937 5111 10558 10560 10807 
10 1971 1172 2054 1974 9701 10808 7966 7702 10809 7967 
10 739 571 738 1651 3738 3736 3740 9434 10212 10810 
10 2080 2003 1116 1114 8222 10813 10811 10812 10814 4941 
10 1705 798 1706 1843 9053 10815 6837 7275 8770 7274 
10 2112 1246 2055 2126 9629 10573 8176 8233 10631 8232 
10 1115 1172 1088 1974 5135 5133 4938 10793 10809 10816 
10 906 1808 907 1660 8908 10817 4255 9631 7165 9632 
10 1078 974 1981 1039 4797 10818 10278 4798 4681 10819 
10 1075 1863 1968 1864 10244 7683 10340 8768 7336 7682 
10 1749 1902 975 1878 7480 10820 10066 7378 7479 10821 
10 1181 2151 2087 1242 10822 8350 8869 5393 10406 10823 
10 2151 2149 2087 1242 8351 8333 8350 10406 10405 10823 
10 1211 1240 2099 1208 5469 10825 10824 5440 5427 9561 
10 987 1012 1867 1167 4603 10827 10826 5108 5109 10828 
10 994 858 1713 765 4545 9161 10829 4546 4086 9162 
10 1702 795 1703 1840 10830 9995 6828 7266 9993 7265 
10 770 1676 922 1822 10715 10831 4298 10254 7208 10256 
10 1092 1168 1976 2055 5113 10558 10832 10833 10632 7974 
10 1397 488 62 36 10834 2982 10835 5915 10836 2565 
10 849 886 1633 1766 4184 9237 9236 10203 10204 7020 
10 8 523 9 14 3085 10736 2520 2367 3084 8276 
10 1014 1797 2003 1015 9783 7811 10837 4611 9785 10838 
10 396 1306 111 254 10839 10841 2703 10840 5642 8541 
10 2149 2145 1255 1262 8344 10749 10744 10743 10842 5501 
10 2057 1136 1173 1226 10843 5138 10844 10845 5313 5314 
10 1245 2109 2084 1184 10642 8168 10681 5400 9772 9896 
10 950 979 1756 1884 4478 9725 10374 9865 9094 7399 
10 1972 1104 2051 1166 10788 10787 7958 10846 5106 10847 
10 1240 2137 2099 1208 10848 8357 10825 5427 9560 9561 
10 2123 2015 1180 2017 8209 10409 8801 8210 7857 8802 
10 1209 2081 1984 2060 10576 8084 10575 10849 8085 7997 
10 125 268 124 410 8569 8568 2275 2745 10850 2744 
10 550 551 1461 720 3172 10852 10851 3682 3683 10853 
10 1949 1839 940 1054 7623 10480 9474 10095 10854 4726 
10 147 1339 289 430 9804 5742 8430 2809 10855 10856 
10 1211 2036 2135 2099 10492 8235 10493 10824 8136 8237 
10 2135 1211 2099 1208 10493 10824 8237 9552 5440 9561 
10 1839 1949 1948 1054 7623 7624 7619 10854 10095 10857 
10 479 1388 27 53 10858 5888 10859 2955 10860 2547 
10 1165 1883 1882 993 10569 7397 10861 5097 9707 10862 
10 1845 946 1708 1846 9006 8749 7280 7285 10863 7284 
10 567 1478 734 735 10864 10865 3724 3726 10866 3728 
10 2074 1176 1090 1052 9362 5162 10246 9363 5150 5163 
10 138 1333 424 282 10867 10868 2786 8596 5722 10869 
10 140 283 139 1435 8510 8598 2290 9468 6027 10870 
10 860 858 664 1576 4512 4087 4100 10726 10724 9740 
10 223 366 365 80 10140 2613 10138 8623 2611 2609 
10 935 1834 1835 1697 8753 7252 8754 9520 7248 7251 
10 734 1478 1647 735 10865 6663 10871 3728 10866 10872 
10 1923 1003 1106 1002 10648 4910 10873 10874 4574 4909 
10 2103 1247 2128 1233 9695 10875 8302 9436 5460 9438 
10 375 376 1285 548 2643 9325 10876 3161 3162 10877 
10 1656 902 746 747 9332 4239 9334 10878 4240 3764 
10 1286 376 91 377 9324 2642 10879 9309 2646 2644 
10 990 979 1755 805 4530 9726 10880 4531 4477 9728 
10 844 950 1757 986 4391 10881 10692 4502 4503 10882 
10 1254 1235 2062 2119 5482 10885 10883 10884 10886 8197 
10 1362 625 626 1536 9938 3394 9591 6330 10887 9590 
10 2079 1188 2103 1234 10170 9694 8242 10888 5378 10889 
10 2067 1225 2051 2091 10890 10891 8023 8330 10783 8397 
10 1458 1284 1285 548 6099 5579 6098 10892 10893 10877 
10 1199 2138 1237 1241 10894 9374 5377 5390 9375 5419 
10 583 411 1494 1321 3265 10897 10895 10896 10898 6204 
10 1815 913 914 1035 10236 4276 10899 10900 4669 4670 
10 1951 943 942 1842 10901 4371 10902 7628 8974 10903 
10 1990 956 1065 1945 10904 4757 10316 7761 10905 10906 
10 458 1541 459 1367 9208 10907 2897 10397 6345 10908 
10 1212 2096 1240 1213 10909 9958 5447 5271 9960 5386 
10 407 1317 1490 579 8905 6192 8907 3253 10910 10911 
10 558 726 1470 1739 3699 10914 10912 10913 10915 6933 
10 1759 1887 845 1758 7408 10917 10916 6993 7407 9793 
10 1278 1452 542 1279 6081 10919 10918 5561 6080 9027 
10 1317 407 408 579 8905 2740 10086 10910 3253 3254 
10 1036 1815 1035 1931 10920 10900 4674 8814 7567 10921 
10 1839 1838 1054 1948 7264 10922 10854 7619 7620 10857 
10 1794 984 1637 724 9890 9008 7118 10923 4491 9010 
10 387 558 1470 1296 3191 10912 10924 10925 10926 6133 
10 1779 873 1780 1002 10927 10929 7075 10928 4570 10930 
10 1623 875 1622 712 10931 10932 6595 9803 4152 9463 
10 556 1463 1294 384 9638 6113 10933 3184 8855 10934 
10 926 1826 1043 1044 10463 10078 4693 4695 10464 4697 
10 924 1041 1823 923 4687 8806 8807 4305 4686 9397 
10 605 433 1515 606 3330 10578 10935 3334 3332 10580 
10 305 162 1354 161 8460 10936 5786 8459 2313 10937 
10 1839 939 1054 1838 10938 4725 10854 7264 9302 10922 
10 1308 398 399 570 9386 2713 9388 9383 3226 3227 
10 1650 1482 738 1481 6671 10940 10939 6672 6170 9875 
10 1423 202 512 513 10411 3051 10941 10342 3055 3056 
10 182 466 183 326 2916 2917 2334 8499 10942 8500 
10 756 912 757 1666 4268 4269 3794 10943 10026 10944 
10 457 456 1539 1365 2891 10947 10945 10946 9497 6339 
10 1482 1308 399 570 6169 9388 10948 9384 9383 3227 
10 913 1667 757 1666 10228 9887 4271 10949 6721 10944 
10 1463 1293 555 1466 6114 8852 8854 6121 6119 10950 
10 1328 418 590 1501 9452 3286 9884 6225 10951 9449 
10 418 1328 590 419 9452 9884 3286 2773 10952 3287 
10 1309 400 1483 571 9358 10953 6172 9575 3230 9576 
10 1960 957 1065 1990 10954 4758 10315 7762 10955 10316 
10 748 1658 749 1492 10956 9337 3770 10651 6693 10652 
10 2149 2123 1180 1255 8334 8801 10957 10744 10958 5437 
10 1817 917 1037 916 10469 4837 10470 10959 4285 4676 
10 902 992 1819 1765 4539 10961 9847 10960 10713 7201 
10 2032 2019 1129 1928 8039 9311 10037 7900 7862 9313 
10 1491 748 580 1492 10962 3765 9063 6200 10651 10963 
10 1392 57 483 482 9142 2967 9143 10964 2965 2969 
10 541 1278 369 1277 9766 10965 3141 9768 5558 10966 
10 971 1745 830 831 10967 10305 4453 4452 10333 4013 
10 244 101 1296 386 8521 10968 5612 9613 2673 9614 
10 957 1960 1065 1066 10954 10315 4758 4760 10319 4762 
10 1674 767 1510 601 8938 8939 6740 10969 3823 9917 
10 197 506 1415 340 3036 10970 10658 2793 9421 5970 
10 2129 2086 1172 2054 8275 10972 10971 8251 8203 10808 
10 1221 1166 1225 2051 5381 5343 5391 10973 10847 10891 
10 1786 1009 1787 1912 8953 8955 7096 7510 10974 7509 
10 1511 1674 1510 601 6739 6740 6256 10975 10969 9917 
10 1309 400 571 399 9358 3230 9575 9357 2716 3229 
10 582 1493 410 581 9270 10976 3262 3264 10977 3260 
10 1102 1969 2065 1970 10978 8018 10105 10106 7690 8017 
10 1060 2039 1151 1152 9748 9750 5049 5051 8818 5053 
10 732 895 733 1645 4209 4210 3722 10979 8883 8884 
10 428 1337 1510 601 10980 6251 9916 3317 10981 9917 
10 1337 1511 1510 601 6255 6256 6251 10981 10975 9917 
10 2079 2002 1117 2003 8074 8992 8990 8075 7812 10982 
10 726 1639 1739 1793 10188 7022 10915 10983 7114 7115 
10 1082 1133 1085 2097 4995 4996 4821 10984 10985 10986 
10 422 1331 421 593 10987 9415 2782 3296 10988 3295 
10 1401 1573 661 1574 6440 9472 10172 6444 6445 8856 
10 1295 1469 557 386 6130 9814 10989 9612 9815 3188 
10 1312 261 117 260 5659 8554 9319 5660 2418 8553 
10 420 1330 421 135 10990 9416 2779 2775 10991 2777 
10 455 171 314 172 2883 8477 10992 2884 2323 8478 
10 2043 1157 2132 2040 10993 10994 8266 7935 10995 8264 
10 2099 1212 2096 1240 10996 10909 8135 10825 5447 9958 
10 1567 655 1732 821 10997 9642 6912 9461 3981 9191 
10 1009 1786 1911 1912 8953 7506 10163 10974 7510 7511 
10 1322 413 271 1323 10330 10331 5689 5694 10998 5693 
10 604 605 432 1514 3331 3329 3327 8880 8881 10999 
10 968 1865 1864 1076 11000 7339 11001 4791 10337 8769 
10 10 1419 11 199 11002 5980 2522 2353 11003 8254 
10 1592 511 691 1593 9013 3587 11004 6499 9014 11005 
10 1342 433 1515 1341 10577 10578 6266 5752 11006 6267 
10 433 605 1515 1341 3330 10935 10578 11006 11007 6267 
10 1865 968 1077 1076 11000 4793 10336 10337 4791 4795 
10 123 266 408 1318 8565 10084 2739 9457 5678 11008 
10 1676 770 603 1513 10715 3830 11009 6745 10717 9280 
10 615 1526 443 1525 11010 9508 3360 9530 6301 9510 
10 1007 1784 877 1006 11011 10612 4584 4586 10613 4582 
10 950 1885 1756 1757 9864 7401 10374 10881 7402 6987 
10 1353 160 443 303 11012 2848 10728 5784 8456 10284 
10 1036 1815 1931 1816 10920 7567 8814 8815 7190 7566 
10 857 840 1609 1770 4083 8961 10226 11013 8962 7037 
10 303 1352 302 159 5780 5781 2461 8455 11014 8454 
10 442 302 1351 1352 11015 5777 11016 9584 5781 5782 
10 1999 2013 1085 2097 8043 11017 10805 8131 8128 10986 
10 171 314 313 1363 8477 2472 8476 9173 5813 5814 
10 1924 1002 1923 1105 11018 10874 7545 9073 4906 11019 
10 1363 455 171 314 9170 2883 9173 5813 10992 8477 
10 1438 527 698 678 8918 3616 9235 11020 3552 3615 
10 1537 626 1363 454 9500 9589 6333 9501 3393 9174 
10 686 519 1429 518 3572 8742 10076 3573 3074 8743 
10 946 947 1708 1846 4383 9066 8749 10863 11021 7284 
10 453 454 170 313 2882 2880 2878 11022 11023 8475 
10 769 602 1512 603 3827 11025 11024 3828 3325 9885 
10 770 1513 604 603 10717 11026 3831 3830 9280 3328 
10 770 604 1677 771 3831 11027 10716 3835 3833 11028 
10 182 325 181 465 8498 8497 2333 2914 8713 2913 
10 1375 182 465 325 11029 2914 8712 5850 8498 8713 
10 1375 466 465 182 11030 2918 8712 11029 2916 2914 
10 437 1346 296 1345 10437 5763 9760 9761 5764 5759 
10 1548 1711 1547 637 6850 6851 6367 10654 9599 11031 
10 605 1515 1341 1514 10935 6267 11007 8881 6268 6263 
10 180 464 324 1373 2910 9826 8495 11032 9212 5843 
10 847 688 848 1761 4052 4056 4057 11033 11034 11035 
10 1385 475 476 645 9341 2948 9151 10388 3452 3453 
10 968 967 1076 1864 4445 4790 4791 11001 8767 8769 
10 477 1386 476 646 10240 9149 2951 3456 10007 3455 
10 1696 1533 623 622 6805 11038 11036 11037 11039 3385 
10 486 655 1568 1395 3483 9641 11040 11041 11042 6426 
10 1314 263 405 119 5665 8898 8900 11043 8558 2729 
10 620 787 1530 786 3881 10303 11044 3879 3883 10304 
10 989 972 1820 1946 4526 11046 10566 11045 11047 7649 
10 822 1733 967 823 9250 9440 4440 3988 11048 4441 
10 1694 1693 1530 786 6801 6796 6800 8725 11049 10304 
10 695 1434 1604 597 11050 6531 9603 3602 9950 11051 
10 1397 657 1569 487 11052 11054 6428 11053 3488 11055 
10 1372 1546 1545 463 6360 6361 6356 8805 9209 8803 
10 657 656 823 1569 3490 3986 3987 11054 11056 11057 
10 321 462 179 322 8887 2905 8491 2480 11058 8492 
10 1773 1771 985 1982 7452 9648 10699 7730 7731 9649 
10 1350 440 1523 1349 11059 11060 6290 5776 11061 6291 
10 719 550 549 1460 3680 3169 3679 9322 9105 9106 
10 1418 597 1604 1434 11062 11051 6530 6024 9950 6531 
10 1137 1040 2073 1935 5004 11065 11063 11064 9002 8047 
10 1016 891 1015 1796 4612 4610 4614 11066 9231 11067 
10 967 968 1734 1864 4445 10671 11068 8767 11001 7334 
10 1360 1359 167 450 5806 11071 11069 11070 10582 2869 
10 662 1405 1406 1578 10599 5944 10032 10031 6453 6454 
10 1533 622 450 623 11039 3381 11072 11038 3385 3383 
10 497 1407 498 665 9758 11073 3013 3515 11074 3514 
10 167 451 311 1360 2871 9032 8471 11069 9031 5804 
10 660 490 659 1572 3497 3495 3499 11075 11076 11077 
10 662 495 496 1405 3505 3007 3504 10599 9573 10440 
10 96 1291 239 42 11078 5598 8511 11079 5725 5596 
10 978 1011 1890 1789 4802 9367 8780 11080 9297 7518 
10 1705 631 1704 1541 9051 11081 6834 6833 9206 6829 
10 1710 637 636 1547 9601 3427 11082 6847 11031 11083 
10 1 43 328 0 2524 10450 2487 2161 2191 8418 
10 695 1608 1604 1434 9098 6550 9603 11050 6548 6531 
10 1636 1792 1633 839 7112 7113 6632 10465 11084 9238 
10 1418 597 1434 508 11062 9950 6024 11085 3308 9948 
10 693 1577 525 663 9078 11086 3595 3594 11087 3508 
10 1337 429 601 428 11088 3318 10981 10980 2807 3317 
10 970 1736 1737 826 9687 6928 9781 4450 9688 10161 
10 1418 597 508 663 11062 3308 11085 11089 3509 3507 
10 516 1427 1598 1426 11090 6513 11091 9214 6005 6512 
10 352 208 351 1429 7132 7527 2513 6010 8741 6009 
10 352 519 208 1429 10663 3073 7132 6010 8742 8741 
10 660 1573 827 661 9471 10158 3998 3502 9472 3999 
10 68 1291 96 42 10607 11078 2660 2577 5725 11079 
10 1181 1243 2107 2151 5394 11092 8867 10822 11093 8349 
10 1434 695 1607 526 11050 11094 6544 9949 3601 11095 
10 1042 1825 1043 925 9268 10517 4694 4690 10770 4692 
10 2 96 239 42 2246 8511 8508 2525 11079 5596 
10 508 525 13 1418 3091 11097 11096 11085 11098 5978 
10 1370 1544 634 1371 6354 9057 9055 5839 6353 9060 
10 1388 26 27 53 5889 2174 5888 10860 2546 2547 
10 2 68 96 42 2217 2660 2246 2525 2577 11079 
10 1513 770 604 1677 10717 3831 11026 6749 10716 11027 
10 6 283 212 7 8509 5514 8599 2519 2441 2368 
10 644 1557 1384 1556 9036 6393 11099 10292 6394 6389 
10 1650 737 738 900 11100 3737 10939 11101 4224 4225 
10 139 1435 424 425 10870 11102 2787 2789 9469 2791 
10 50 24 23 1385 2541 2171 2540 11103 5879 5880 
10 1993 1793 1013 888 7773 11105 11104 9121 11106 4604 
10 1573 827 661 1574 10158 3999 9472 6445 8857 8856 
10 54 479 27 53 2956 10859 2548 2202 2955 2547 
10 750 582 749 1659 3771 3769 3773 9274 9272 9338 
10 103 1298 388 389 11107 8889 2679 2681 11108 2683 
10 763 596 1439 529 3811 11109 9315 3812 3606 11110 
10 39 66 491 65 2572 2992 10682 2571 2214 2991 
10 710 1621 711 1451 10154 11111 3657 10155 6587 11112 
10 484 653 654 1566 3477 3481 3479 9292 11113 11114 
10 1714 1554 809 808 6859 9516 9517 10325 10324 3946 
10 582 1493 749 1659 9270 9336 3769 9272 6696 9338 
10 1863 1075 967 1864 10244 4788 9441 7336 8768 8767 
10 473 1383 21 1382 11115 5874 11116 11117 5875 5870 
10 1108 1004 1107 2066 4915 4913 4917 11118 11119 11120 
10 1480 1306 568 1479 6163 9424 11121 6164 6159 9423 
10 1388 26 53 478 5889 2546 10860 9733 9634 2953 
10 651 1564 1391 1563 11122 6414 11123 9107 6415 6410 
10 992 1025 1933 1098 4834 10764 11124 4880 4881 11125 
10 635 802 1545 801 3926 11126 9083 3924 3928 11127 
10 996 866 2000 1776 4552 11128 9779 9780 11129 7802 
10 551 720 856 1461 3683 4088 4080 10852 10853 10296 
10 2099 1212 2036 2096 10996 11130 8136 8135 10909 8126 
10 1238 2155 2139 2152 10466 8405 10468 11131 8402 8390 
10 1067 1957 1156 2040 11132 11134 5063 11133 7926 11135 
10 598 1574 764 1466 11136 8858 3814 11137 6636 11138 
10 2147 1216 2088 2154 11139 11140 8326 8372 11141 8371 
10 1022 897 1802 898 4630 11143 11142 4631 4220 10232 
10 741 1485 573 1484 9527 9526 3744 10798 6179 8987 
10 1102 1969 1970 1077 10978 7690 10106 4896 10334 10359 
10 728 891 729 1641 4197 4198 3710 9773 9230 11144 
10 1299 389 247 104 11145 11147 5621 11146 2682 8527 
10 624 791 1534 790 3893 11148 10441 3891 3895 10472 
10 1639 1797 890 1640 7125 9784 11149 6643 7124 11150 
10 1439 595 1506 1440 9314 9316 6741 6047 9735 6543 
10 956 811 1880 812 4407 11151 10107 4408 3955 10108 
10 88 231 374 232 8639 8826 2635 8640 2388 9502 
10 717 1628 1457 716 9983 6609 11152 3675 11153 9044 
10 1980 1876 1050 1039 7724 11156 11154 11155 11157 4842 
10 389 561 1299 1472 3199 11159 11145 11158 9330 6138 
10 233 1284 375 1285 5574 8921 10627 5578 5579 10876 
10 728 890 1640 727 4195 11150 9774 3707 4194 11160 
10 811 1722 645 1721 11161 11162 3951 9593 6883 11163 
10 1797 1639 890 889 7125 11149 9784 11164 10189 4196 
10 1369 1368 176 459 5833 11167 11165 11166 11168 2896 
10 1469 558 386 1296 9813 3190 9815 6129 10926 9614 
10 567 1478 1305 1304 10864 6156 11169 11170 6157 5640 
10 890 891 1796 1015 4199 9231 11171 4609 4610 11067 
10 1722 1557 645 1721 6882 9038 11162 6883 6878 11163 
10 396 110 395 1305 2702 2700 2704 11172 11173 11174 
10 415 1324 414 586 10486 11175 2761 3275 10487 3274 
10 739 901 1651 738 4228 11176 9434 3740 4227 10810 
10 1309 114 258 400 9356 8548 5650 9358 2714 11177 
10 992 765 1765 864 4537 11178 10713 4538 4115 11179 
10 571 1482 1651 1483 9574 6675 10212 9576 6173 6674 
10 1328 591 590 419 11180 3291 9884 10952 3289 3287 
10 259 1311 1310 401 5657 5658 5653 11181 11182 9931 
10 1320 125 268 269 11183 8569 5684 5683 8570 2426 
10 1925 2023 1127 2018 7871 11185 11184 7859 7873 11186 
10 972 989 1820 837 4526 10566 11046 4475 4525 10568 
10 365 538 366 1274 3131 3132 2613 10139 11187 10141 
10 413 1322 412 584 10330 11188 2755 3269 11189 3268 
10 600 1509 427 599 11190 8933 3314 3316 8932 3313 
10 772 1515 1679 1516 11191 6755 10489 11192 6271 6754 
10 719 1630 549 718 9304 9321 3679 3681 9303 3677 
10 1548 1375 465 1374 6365 8712 9011 6366 5851 8714 
10 776 928 1682 775 4316 9084 11193 3850 4315 9257 
10 1495 583 412 584 11194 3266 11195 11196 3270 3268 
10 956 957 812 1853 4412 4410 4408 10109 11197 10110 
10 365 222 1274 223 11198 5545 10139 10138 2379 5544 
10 1878 974 1748 1877 11199 10135 7377 7379 10136 7375 
10 1122 1121 2014 1919 4959 9978 10016 9971 9972 7846 
10 906 1808 1660 1807 8908 7165 9631 8909 7166 7161 
10 1542 460 459 1369 11200 2900 11201 6347 11202 11166 
10 583 1495 1660 751 11194 6698 10252 3774 11203 9633 
10 595 1440 596 424 9735 11204 3306 3302 11205 3304 
10 1301 391 106 392 11206 2688 11207 11208 2692 2690 
10 595 1440 424 1333 9735 11205 3302 9477 6247 10868 
10 762 1506 763 595 9753 9317 3813 3808 9316 3810 
10 1407 1579 665 553 6457 8926 11074 11209 8924 3516 
10 1573 660 827 826 9471 3998 10158 10159 3996 4001 
10 1408 666 498 1580 11210 3518 11211 6460 8912 11212 
10 952 1740 1867 987 10022 7346 10703 4519 11213 10826 
10 347 204 203 514 7821 2358 7822 9609 3057 3058 
10 600 853 767 1750 4070 4071 3822 11214 10125 8940 
10 1722 1880 812 1853 7386 10108 11215 7303 7388 10110 
10 1544 1707 1543 633 6838 6839 6355 9056 9181 11216 
10 1252 1216 2147 2154 5464 11139 11217 11218 11141 8372 
10 1275 223 366 1274 5548 10140 9788 5549 5544 10141 
10 1733 1568 1569 656 6915 6430 6914 11219 11220 11056 
10 257 1309 1308 399 5651 5652 5647 11221 9357 9388 
10 609 1346 1519 610 11222 6278 10774 3346 9017 9019 
10 1396 1568 656 1569 6425 11220 11223 6429 6430 11056 
10 1300 562 1299 390 9088 9090 5625 11224 3202 11225 
10 1526 616 1527 1690 10686 11226 6304 6788 11227 6787 
10 1300 391 249 1301 11228 11229 5623 5628 11206 5627 
10 1300 105 249 391 11230 8530 5623 11228 2687 11229 
10 540 541 368 1277 3142 3140 3138 11231 9768 11232 
10 708 1619 1449 1448 9790 6581 11233 8865 6582 6073 
10 1396 486 487 656 10317 2981 9926 11223 3485 3486 
10 783 1892 1691 1690 10113 7449 11234 11235 7461 6792 
10 1354 444 161 445 10133 2851 10937 10264 2855 2853 
10 109 252 108 394 8537 8536 2259 2697 11236 2696 
10 162 1355 1354 445 11237 5791 10936 2854 10393 10264 
10 983 1082 1992 1099 4813 11238 10443 4885 4886 11239 
10 2026 1139 1939 1140 11240 10054 7883 9928 5014 11241 
10 1302 107 250 251 11242 8533 5630 5629 8534 2408 
10 1053 939 1838 1054 4723 9302 9483 4727 4725 10922 
10 1314 404 262 119 10661 11243 5666 11043 2727 8557 
10 1702 629 1538 1539 11244 11245 6824 6823 10365 6340 
10 1539 456 457 629 10947 2891 10945 10365 3401 3402 
10 628 1701 1702 1538 11246 6825 11247 9381 6820 6824 
10 2048 1163 1206 1162 9684 5250 11248 11249 5091 5351 
10 563 1474 1643 1475 9131 6651 11250 11251 6149 6650 
10 1568 486 1396 656 11040 10317 6425 11220 3485 11223 
10 1126 1195 1197 2110 5216 5222 5220 11252 11253 11254 
10 899 1023 1024 1803 4634 4638 4636 11255 10229 10616 
10 1806 749 1659 905 11256 9338 7159 9625 4247 9627 
10 554 1553 1379 1550 11257 6380 10020 11258 6551 6382 
10 2083 1064 1945 1065 11259 10422 8091 11260 4759 10906 
10 699 1581 667 1743 11261 10455 3620 10555 6944 11262 
10 1313 404 575 403 11263 3242 11264 11265 2728 3241 
10 136 1331 279 421 11266 5717 8591 2778 9415 9414 
10 829 699 667 1743 4007 3620 4006 10554 10555 11262 
10 838 698 678 1591 4031 3615 4030 9240 9242 11267 
10 1409 1581 1582 667 6463 6467 6465 10218 10455 10219 
10 668 1410 1582 500 10081 6466 11268 3524 10080 10217 
10 597 1795 861 1604 11269 10403 4101 11051 7120 11270 
10 1924 1002 1105 1001 11018 4906 9073 11271 4571 4904 
10 363 362 535 1272 2604 3122 3123 10553 8904 8903 
10 814 959 1725 1855 4416 11272 9618 9619 10144 7307 
10 698 1438 678 1591 9235 11020 3615 9242 6492 11267 
10 1828 1045 1827 928 9532 9534 7227 10462 4699 9085 
10 659 1399 1571 1572 11273 6434 11274 11077 6438 6439 
10 1081 1970 1901 1866 10357 7813 11275 10356 7688 7477 
10 490 65 38 1400 2989 2570 9952 9953 11276 5925 
10 1832 1049 1831 932 9342 9951 7239 9537 4711 11277 
10 1410 501 1583 1411 10079 8744 6468 5959 8746 6469 
10 1100 1144 2077 1179 5028 10251 11278 5160 5164 10197 
10 1694 1608 1795 807 7344 7121 7438 8724 9099 9097 
10 1511 429 1337 1338 11279 11088 6255 6254 11280 5740 
10 785 1529 1693 619 10286 6797 11281 3876 10285 11282 
10 1524 1687 1523 613 6778 6779 6295 9963 9538 11283 
10 1438 1433 678 1591 6040 11284 11020 6492 6493 11267 
10 1222 2060 1177 2133 10769 11285 5301 10767 8267 9868 
10 1106 2066 1906 2033 11286 8021 11287 8873 8022 7903 
10 756 1665 912 1666 9359 9361 4268 10943 6718 10026 
10 321 462 322 1371 8887 11058 2480 5838 9059 5837 
10 1853 957 812 1723 11197 4410 10110 7302 11288 9608 
10 848 1636 689 839 9739 11289 4055 4110 10465 4033 
10 1431 688 520 1602 11290 3579 9225 6525 11291 11292 
10 189 332 190 498 5100 5099 2342 3012 11293 3011 
10 1832 1049 1922 1831 9342 8994 7608 7239 9951 7609 
10 330 1405 1406 496 5940 5944 5942 10439 10440 9657 
10 202 345 512 201 7972 9729 3051 2356 7973 3052 
10 859 1752 1593 863 8970 6970 11294 4518 8972 9719 
10 345 201 344 1422 7973 8178 2506 5989 9731 5988 
10 985 1773 976 835 10699 11295 4499 4498 10700 4467 
10 1203 2028 2108 2105 10045 8163 11296 11297 8228 8258 
10 208 351 518 207 7527 8941 3069 2362 7528 3070 
10 354 211 210 521 5503 2365 5504 10525 3078 3079 
10 521 688 520 1431 3578 3579 3080 9223 11290 9225 
10 1603 1636 689 848 6630 11289 9822 11298 9739 4055 
10 210 353 1431 520 5512 6015 9224 3075 11299 9225 
10 1680 774 1517 1681 11300 11301 6757 6762 11302 6761 
10 530 1441 1605 1764 10370 6535 9394 9392 7013 7014 
10 1958 1837 1053 938 7651 9482 11303 11304 9583 4722 
10 1445 705 1446 1616 8795 11305 6064 6573 8797 6572 
10 1441 530 1605 1267 10370 9394 6535 6049 11306 6532 
10 972 837 1820 1673 4475 10568 11046 9147 11307 7203 
10 763 1605 529 1439 9393 11308 3812 9315 6534 11110 
10 1266 71 214 215 11309 8606 5521 5520 8607 2371 
10 360 74 218 75 2593 8613 11310 2594 2224 8614 
10 72 1267 357 358 11311 11312 2585 2587 11313 2589 
10 1269 74 218 360 11314 8613 5529 11315 2593 11310 
10 1707 946 1708 1845 11316 8749 6843 7281 9006 7280 
10 2067 1225 2091 1103 10890 10783 8330 10299 5311 10785 
10 1293 242 1294 384 5602 5606 5607 8853 11317 10934 
10 2052 1110 2007 1184 8761 8763 7962 9770 5181 9763 
10 1452 712 711 542 9462 3660 9464 10919 3658 3656 
10 734 897 1647 1646 4215 9903 10871 8765 8764 6664 
10 1166 998 2067 1972 5104 10297 10786 10846 9777 8024 
10 739 1652 1651 901 9433 6679 9434 4228 10211 11176 
10 880 1628 1787 1788 11318 7094 9839 9838 7098 7099 
10 1122 1121 1193 2014 4959 5208 5209 10016 9978 11319 
10 1473 561 1299 562 11320 11159 6142 9089 3204 9090 
10 752 1496 1662 753 11321 6705 9070 3782 11322 8785 
10 899 1804 1024 900 11323 11324 4636 4226 11325 4637 
10 1192 1191 2071 1120 5207 11327 11326 5205 5203 10618 
10 717 1458 547 1457 10426 11328 3673 11152 6100 8821 
10 715 1456 1627 716 9422 6606 9842 3672 9043 9042 
10 217 1268 73 359 5526 11330 8611 11329 8877 2590 
10 2052 1110 1184 1109 8761 5181 9770 10610 4923 5180 
10 2052 1110 1109 1909 8761 4923 10610 7960 8762 10609 
10 1456 715 1627 1626 9422 9842 6606 6602 9135 6607 
10 1608 855 1772 1607 9126 9127 7044 6549 11331 7045 
10 837 1638 1820 1673 10735 7204 10568 11307 6738 7203 
10 1465 677 1638 679 10309 10733 6638 10458 3609 10734 
10 426 1335 599 427 8830 8831 3312 2801 8931 3313 
10 1465 1507 1638 677 6542 6637 6638 10309 10307 10733 
10 1788 1011 1010 881 9295 4598 9798 9296 4596 4594 
10 230 373 1281 372 8843 9966 5565 11332 2634 11333 
10 1521 612 439 1522 11334 3350 11335 6289 11336 11337 
10 1852 1900 2001 988 7473 7804 7805 11338 9117 9116 
10 2035 1196 2124 2095 10697 8810 8219 8127 8811 8214 
10 1356 620 1357 1530 11339 9039 5797 6312 11044 6311 
10 1023 1022 1099 1921 4635 4963 4887 11340 11341 11342 
10 1377 468 467 184 9523 2924 11343 11344 2922 2920 
10 1803 1099 1992 1921 10615 11239 7772 7535 11342 7849 
10 798 1706 799 632 10815 9047 3919 3915 11345 3917 
10 956 1880 1945 1990 10107 7611 10905 10904 7760 7761 
10 1022 1920 1123 1921 11346 10592 4961 11341 7537 11347 
10 1356 620 1530 619 11339 11044 6312 11348 3376 11349 
10 1647 898 735 1648 11350 4218 10872 6667 11351 11352 
10 1419 1507 526 1434 6244 11354 11353 6026 6243 9949 
10 1144 1196 1063 2095 5290 5217 5029 8813 8811 11355 
10 87 230 229 372 8637 2386 8636 2630 11332 11356 
10 497 189 331 188 3008 5165 9759 3009 2341 5166 
10 736 1479 735 1648 9245 11357 3731 9244 6666 11352 
10 1743 1581 667 1582 6944 10455 11262 6945 6467 10219 
10 61 35 34 1396 2563 2182 2562 9924 5912 5913 
10 652 1729 819 1565 9854 9713 3974 9855 6902 9714 
10 558 387 1470 559 3191 10924 10912 3195 3193 8834 
10 774 1518 1517 1681 9673 6277 11301 11302 6760 6761 
10 1477 565 1303 566 11358 11359 6154 8842 3216 11360 
10 1892 857 1770 1897 10114 11013 7423 7487 11361 7703 
10 714 1454 713 1624 11362 11364 3666 11363 6596 11365 
10 1922 1101 1134 1096 9939 4999 8996 9344 4894 4998 
10 1195 1126 2053 2110 5216 10496 10498 11253 11252 8170 
10 250 1302 1301 392 5630 5631 5626 9249 9816 11208 
10 906 750 905 1659 4250 4248 4252 11366 9274 9627 
10 937 1698 791 936 11367 11368 4351 4353 11369 4349 
10 1474 730 1473 562 9132 11370 6146 9133 3711 9089 
10 1658 1806 749 1659 7160 11256 9337 6697 7159 9338 
10 761 762 1505 1670 3809 11373 11371 11372 11374 6728 
10 1917 1975 1019 1120 7708 10622 10584 10585 10617 4952 
10 1476 732 733 1645 9349 3722 11375 6657 10979 8884 
10 189 497 1407 498 3008 9758 11376 3012 3013 11073 
10 1476 565 733 732 9348 3720 11375 9349 3718 3722 
10 349 206 205 516 7745 2360 7746 11377 3063 3064 
10 1441 1614 531 1442 6568 11378 8902 6052 6567 8901 
10 1310 400 258 115 11379 11177 5654 11380 2715 8549 
10 1645 1476 1477 733 6657 6155 6656 8884 11375 8841 
10 2090 2067 2091 1103 8296 8330 8113 9743 10299 10785 
10 873 1621 710 1620 11381 10154 4146 9836 6589 11382 
10 1826 926 1680 1681 10463 11383 7220 7219 11384 6762 
10 539 1276 540 367 9488 9490 3139 3135 11385 3137 
10 1284 375 1285 548 8921 10876 5579 10893 3161 10877 
10 1454 545 714 544 11386 3665 11362 11387 3154 3664 
10 1476 565 1477 733 9348 11358 6155 11375 3720 8841 
10 1511 602 768 601 8944 3825 8946 10975 3322 3824 
10 1509 1632 853 1750 7011 11389 11388 6966 7035 10125 
10 719 1460 1631 720 9322 6618 9283 3684 11390 9284 
10 1007 1111 1008 1910 4924 4925 4589 9204 11391 11392 
10 431 1513 603 604 9278 9280 3324 3326 11026 3328 
10 1628 880 717 881 11318 4167 9983 9985 4171 4169 
10 1141 2028 1941 2027 11393 7889 10400 10401 7890 7885 
10 774 926 927 1681 4310 4314 4312 11302 11384 10714 
10 2070 1190 1191 1249 10070 5204 10461 11394 5412 5413 
10 99 385 100 243 2669 2670 2250 8518 11395 8519 
10 1293 1466 1292 383 6119 6120 5604 10352 11396 8864 
10 1215 2100 2088 2044 11397 8212 11398 11399 8213 8105 
10 1018 1975 1120 1019 10621 10617 4951 4623 10622 4952 
10 98 1293 383 384 11400 10352 2664 2666 8853 2668 
10 851 1768 1654 743 10073 7151 10072 4236 10112 9220 
10 662 860 664 1576 4099 4100 3513 10600 10726 9740 
10 384 1293 383 555 8853 10352 2668 3183 8852 3182 
10 2098 2140 2126 1253 8300 8348 8347 9443 11401 11402 
10 1975 1018 1120 1119 10621 4951 10617 11403 4949 4953 
10 1499 1498 755 1664 6221 11405 11404 6710 6711 11406 
10 1528 618 1692 784 11407 9912 6794 11408 3873 9914 
10 1539 630 457 1366 10201 3404 10945 6338 11409 10794 
10 587 1498 755 1499 10586 11405 3786 8927 6221 11404 
10 1541 459 1368 1542 10907 11168 6344 6349 11201 6348 
10 1541 459 1542 631 10907 11201 6349 9206 3408 9050 
10 1840 796 1703 1841 9992 9994 7265 7270 11410 7269 
10 107 393 108 251 2693 2694 2258 8534 11411 8535 
10 312 453 169 170 11412 2877 8505 8474 2878 2321 
10 1924 2015 1105 1923 7852 10410 9073 7545 7851 11019 
10 1805 1850 949 953 7445 10624 11413 11414 10625 4756 
10 464 1374 1547 465 11415 6362 11416 2915 8714 11417 
10 2015 1106 1105 1923 10408 4911 10410 7851 10873 11019 
10 1619 871 708 872 9789 4140 9790 9879 4144 4142 
10 778 611 777 1521 3854 3852 3856 11418 11419 11420 
10 1903 1638 766 1763 7483 11421 9990 7484 7008 9991 
10 446 1355 162 445 10090 11237 2856 2858 10393 2854 
10 644 475 1384 1557 3450 9340 11099 9036 9037 6393 
10 814 1724 1560 647 9617 6887 11422 3959 11423 9851 
10 1638 1903 766 837 7483 9990 11421 10735 10567 4095 
10 1900 1751 1763 766 7472 7007 7474 9451 9588 9991 
10 932 1686 931 1831 8983 8977 4329 11277 7234 11424 
10 941 1841 1840 1950 11425 7270 9475 11426 7625 7626 
10 1379 1553 554 640 6380 11257 10020 11427 9596 3600 
10 649 1562 1561 1726 10062 6409 9635 11428 6893 6894 
10 1562 649 816 1726 10062 3965 10128 6893 11428 11429 
10 1751 1763 766 691 7007 9991 9588 11430 11431 3820 
10 1731 820 821 965 11432 3982 9460 11433 4434 4435 
10 631 1705 797 798 9051 10394 3912 3914 9053 3916 
10 1573 1738 1737 827 6930 6931 6926 10158 11434 10160 
10 2130 1256 2153 2143 11435 11436 8373 8310 11437 8406 
10 263 1314 262 119 5665 5666 2420 8558 11043 8557 
10 1432 527 9 522 8917 8919 6019 11438 3099 11439 
10 1572 1573 1737 826 6442 6926 6927 11440 10159 10161 
10 1221 2123 2121 1251 8799 8211 11441 5422 11442 11443 
10 1039 1980 1153 1050 11155 11444 5055 4842 11154 5093 
10 2004 2074 2031 1090 8052 8053 7899 11445 10246 10424 
10 660 1573 1572 826 9471 6442 11075 3996 10159 11440 
10 2130 1256 2143 1232 11435 11437 8310 11446 5442 11447 
10 1799 1018 1975 1798 10619 10621 7704 7135 11448 7705 
10 1231 2076 1236 1164 9326 10200 5359 5337 11449 5360 
10 1051 936 1835 1934 4717 10630 10347 10270 10628 7577 
10 1929 1930 2020 1131 7565 7863 7864 11450 10289 10290 
10 1696 1695 1532 788 6807 6802 6806 11451 11452 11453 
10 622 1696 1532 788 11037 6806 11454 3885 11451 11453 
10 1695 1532 788 621 6802 11453 11452 11455 11456 3884 
10 5 1290 238 95 5592 5593 2395 8600 8694 8601 
10 10 1419 199 509 11002 11003 2353 3044 11457 3043 
10 2147 2100 2088 1215 8327 8212 8326 11458 11397 11398 
10 981 1760 1888 846 9180 7411 11459 4482 9179 11460 
10 2160 381 380 95 8732 2659 11461 8693 2656 2654 
10 4 1290 5 95 9172 5592 2518 2245 8694 8600 
10 342 200 2158 199 7982 8723 8730 7983 2354 8740 
10 1834 935 1946 934 8753 8755 7614 9765 4347 10121 
10 1532 622 788 621 11454 3885 11453 11456 3382 3884 
10 534 1271 362 361 8777 8794 3120 3119 10207 2601 
10 781 1688 1833 1897 10747 7240 11462 9547 7460 7610 
10 376 1286 91 234 9324 10879 2642 10151 5581 8645 
10 2151 1243 2157 1257 11093 11464 8399 11463 5484 10382 
10 1524 442 614 441 11465 3357 9962 11466 2846 3356 
10 715 1625 878 1626 9134 11467 4161 9135 6604 10183 
10 274 1325 130 416 5698 11468 8580 10131 11469 2762 
10 1689 781 1897 1688 10745 9547 7459 6786 10747 7460 
10 1185 2007 1184 2084 9762 9763 5185 10685 8096 9896 
10 613 1524 614 441 9963 9962 3358 3354 11466 3356 
10 1639 726 889 1793 10188 4191 10189 7114 10983 11470 
10 655 486 485 1395 3483 2978 3482 11042 11041 11471 
10 488 1397 62 487 10834 10835 2982 2984 11053 2980 
10 541 540 1450 1277 3142 11472 10298 9768 11231 6074 
10 1326 274 416 1325 5702 10131 10130 5703 5698 11469 
10 1953 1058 944 1059 10005 4738 11473 11474 4742 4740 
10 114 1309 257 399 9356 5651 8547 2712 9357 11221 
10 737 1650 1649 900 11100 6673 10666 4224 11101 10667 
10 1264 1440 425 355 6045 11476 9467 11475 11477 3181 
10 1889 893 892 1642 11478 4205 11479 7413 10524 11480 
10 799 945 1844 944 4375 10364 11481 4373 4377 11482 
10 983 1894 1992 1082 9736 7823 10443 4813 10068 11238 
10 1479 1647 735 1648 6662 10872 11357 6666 6667 11352 
10 1496 1661 1495 752 6701 6702 6212 11321 9196 11483 
10 906 750 1659 1660 4250 9274 11366 9631 10253 6700 
10 1020 895 1800 896 4624 9976 9564 4625 4214 9957 
10 1078 1878 975 1079 10276 10821 4796 4801 10282 4800 
10 945 1059 1844 944 4741 11484 10364 4377 4740 11482 
10 1843 1706 1844 944 7274 7278 7279 8771 11485 11482 
10 923 1677 1678 771 9396 6753 9395 4301 11028 11486 
10 857 1892 1717 852 10114 7424 10225 4084 11487 11488 
10 1141 1045 1941 1142 5016 9533 10400 5020 5018 11489 
10 1953 1843 1844 944 7635 7279 7634 11473 8771 11482 
10 767 1790 1750 883 10737 7381 8940 4548 10738 10126 
10 1804 1803 1024 1992 7150 10616 11324 7771 7772 11490 
10 1484 572 573 740 11491 3237 8987 10799 3741 3742 
10 1887 986 1089 980 9486 4841 9484 11492 4504 4840 
10 1555 810 1720 809 11493 11494 6876 9693 3949 11495 
10 1792 1804 1024 1992 7443 11324 11496 7770 7771 11490 
10 1803 1099 1024 1992 10615 4884 10616 7772 11239 11490 
10 810 1556 643 1555 11497 10293 3947 11493 6391 11498 
10 1929 1034 1930 1131 9843 9871 7565 11450 4989 10289 
10 532 1442 359 531 9907 8879 3113 3115 8901 3111 
10 1942 2028 1941 1142 7888 7889 7601 11499 10046 11489 
10 1812 1927 1032 1928 7554 9806 10059 7558 7559 11500 
10 589 1501 757 590 11501 9888 3792 3288 9449 3793 
10 228 370 371 1279 11502 2628 11503 5559 9028 9045 
10 1951 943 1842 1952 10901 8974 7628 7633 11504 7632 
10 2026 1139 1140 1202 11240 5014 9928 11505 5239 5240 
10 607 1517 1343 1516 11506 6273 8964 11507 6274 6269 
10 1553 640 1379 1380 9596 11427 6380 6379 11508 5866 
10 1851 953 809 954 10417 4400 10418 9570 4404 4402 
10 1724 1559 647 813 6888 9145 11423 11509 9146 3957 
10 2147 1240 2137 2099 10385 10848 8365 8336 10825 8357 
10 1555 810 809 643 11493 3949 9693 11498 3947 3945 
10 810 1556 1555 1720 11497 6391 11493 11494 6875 6876 
10 1938 1042 1825 1939 9266 9268 7587 7592 10055 7591 
10 1223 2137 1252 1208 11510 11511 5420 5305 9560 5421 
10 1539 1365 456 1538 6339 9497 10947 6340 6335 9382 
10 1727 816 650 817 10127 3966 9566 11512 3970 3968 
10 1933 1025 1026 1098 10764 4644 10765 11125 4881 4964 
10 1848 932 1833 933 9536 9535 7455 9863 4332 11513 
10 1313 1486 403 575 6180 11514 11265 11264 11515 3241 
10 741 1484 740 1767 10798 10799 3746 11516 7025 11517 
10 261 1313 1312 403 5663 5664 5659 9320 11265 9318 
10 1537 626 1536 1363 9500 9590 6334 6333 9589 6329 
10 567 1478 1479 1305 10864 6161 11518 11169 6156 6160 
10 643 1556 810 644 10293 11497 3947 3451 10292 3948 
10 736 1479 568 735 9245 9423 3729 3731 11357 3727 
10 1862 965 821 966 9670 4435 9189 9188 4439 4437 
10 1732 822 966 821 9251 4438 9190 9191 3985 4437 
10 1612 1438 1611 698 6562 6561 6564 9241 9235 9681 
10 723 1466 555 764 11519 10950 3691 3816 11138 3815 
10 965 1862 1074 966 9670 9399 4784 4439 9188 4785 
10 1894 1636 1761 848 7432 6999 7434 9738 9739 11035 
10 992 902 864 1765 4539 4533 4538 10713 10960 11179 
10 1762 1740 987 1867 7004 11213 11520 7345 7346 10826 
10 2129 1197 1253 1229 9444 5429 9442 11521 5375 5470 
10 1621 873 1780 1620 11381 10929 7073 6589 9836 7074 
10 1535 792 1699 791 10273 10635 6815 10274 3898 11522 
10 2138 2111 2121 1241 8352 8259 8343 9375 10780 10782 
10 1350 301 1351 441 5774 5778 5779 11523 11524 11525 
10 1617 706 1447 1618 11526 11527 6575 6580 11528 6579 
10 22 48 49 474 2537 2197 2538 11529 2940 2941 
10 550 1287 1460 1461 11530 6104 9105 10851 6108 6109 
10 1289 380 381 1334 11531 2659 9183 6536 11532 9513 
10 379 237 236 1288 11533 2393 11534 11535 5586 5587 
10 1386 477 25 1387 10240 9353 5882 5887 9354 5886 
10 974 1981 1039 1877 10818 10819 4681 10136 7727 11536 
10 131 274 130 416 8581 8580 2281 2763 10131 2762 
10 1047 1942 1142 2029 9406 11499 5021 11537 7892 11538 
10 650 1727 817 1563 9566 11512 3968 9567 6896 9108 
10 1728 818 962 817 11539 4426 10332 9110 3973 4425 
10 750 1660 1494 1659 10253 6699 9273 9274 6700 6695 
10 1069 961 1857 1070 4770 11540 10147 4774 4772 11541 
10 1093 987 1867 1167 4857 10826 11542 5110 5108 10828 
10 961 1069 1857 960 4770 10147 11540 4424 4769 10149 
10 961 1727 1726 1857 9996 6898 11543 11540 7313 7314 
10 961 1858 1857 1070 9998 7318 11540 4772 11544 11541 
10 917 1817 1896 1818 10469 7546 9376 9112 7450 7441 
10 1040 923 922 1822 4684 4302 4683 10243 10255 10256 
10 532 1614 1719 1442 11545 6873 9878 9907 6567 6872 
10 1518 774 1517 608 9673 11301 6277 9674 3843 11546 
10 703 534 533 1444 3632 3121 3631 11547 11548 11549 
10 2037 1148 1212 2036 11550 5266 11551 7918 11552 11130 
10 1680 1826 1825 925 7220 7221 7216 10754 10771 10770 
10 990 805 1755 850 4531 9728 10880 4532 4063 11553 
10 1942 2028 1142 2029 7888 10046 11499 7892 7893 11538 
10 1163 2048 1206 2080 9684 11248 5250 9686 8081 11554 
10 1549 1550 467 1376 6373 11556 11555 6368 6372 11557 
10 957 1960 1853 1990 10954 7659 11197 10955 7762 7759 
10 1960 957 1853 1854 10954 11197 7659 7658 11558 7306 
10 2100 1194 1215 1213 10432 5279 11397 9961 5338 5385 
10 683 1597 1598 843 11559 6514 11560 4041 11561 10693 
10 1064 2083 1154 1065 11259 8819 5057 4759 11260 5058 
10 805 1597 683 843 11562 11559 3935 4042 11561 4041 
10 904 1891 1657 903 9832 7421 11563 4246 9834 9403 
10 1025 1819 1891 903 11564 7451 9833 4640 9848 9834 
10 747 1656 903 1657 10878 9849 4241 9402 6691 9403 
10 1837 1958 937 938 7651 10376 11565 9583 11304 4356 
10 1491 1656 747 1657 6686 10878 11566 6690 6691 9402 
10 1214 1135 2069 1153 5275 11567 10741 5276 5056 11568 
10 1990 2083 1945 1065 8090 8091 7761 10316 11260 10906 
10 1153 1039 1981 1980 5055 10819 11569 11444 11155 7729 
10 2069 1078 1135 1994 11570 5001 11567 8032 10277 10753 
10 886 983 839 1792 4527 4487 4185 11571 10444 11084 
10 1981 1980 2069 1153 7729 7990 7991 11569 11444 11568 
10 879 1786 1787 1627 8954 7096 8956 9841 7091 7095 
10 220 1271 76 362 5535 11573 8617 11572 8794 2599 
10 1628 880 1787 1627 11318 9839 7094 6610 11574 7095 
10 847 1760 1898 981 9178 7467 11575 4481 9180 11576 
10 1819 1656 1657 903 7200 6691 7199 9848 9849 9403 
10 1111 2009 1911 2008 11577 7831 11578 11579 7832 7827 
10 992 1819 1765 1849 10961 7201 10713 9216 7294 7292 
10 880 879 1787 1627 4168 8956 9839 11574 9841 7095 
10 1345 1344 295 436 5761 5756 5760 9666 11580 9665 
10 1617 869 706 870 11581 4134 11526 11582 4138 4136 
10 236 237 379 93 2393 11533 11534 8649 8650 2650 
10 1344 294 295 152 5757 2453 5756 11583 8440 8441 
10 1696 935 789 790 9519 4345 11584 9023 4346 3892 
10 466 1376 1549 467 11585 6368 8793 2921 11557 11555 
10 1267 215 357 1266 5524 11586 11312 5525 5520 11587 
10 1618 1447 1448 707 6579 6070 6578 8847 11588 8866 
10 1548 638 1549 1712 8790 8791 6370 6854 11589 6853 
10 1495 583 584 751 11194 3270 11196 11203 3774 3775 
10 1040 1137 2073 1171 5004 11063 11065 5130 5131 11590 
10 1445 705 535 1446 8795 3637 8778 6064 11305 10235 
10 761 1504 1670 1505 9192 6729 11372 11371 6239 6728 
10 1111 2009 2008 1186 11577 7832 11579 5186 11591 11592 
10 1938 2024 1138 2022 7874 11594 11593 7870 7876 9661 
10 83 82 368 225 2232 2617 2618 8628 8627 11595 
10 1275 538 1448 1274 11596 9288 6068 5549 11187 6069 
10 695 697 855 1607 3614 4076 4077 11094 9139 11331 
10 2155 2157 2150 1239 8386 8398 8401 11597 10384 11598 
10 925 1825 1679 1824 10770 7217 10490 11599 7218 7213 
10 2010 1936 2073 1171 7880 8048 8050 11600 11601 11590 
10 1676 769 1512 603 10796 11024 6746 11009 3828 9885 
10 1276 367 368 540 11385 2619 11602 9490 3137 3138 
10 1903 1638 1820 837 7483 7204 7486 10567 10735 10568 
10 989 2004 1946 1820 11603 7824 11045 10566 7814 7649 
10 1056 1951 1950 2036 11604 7630 9524 10100 7910 7911 
10 1056 1841 942 941 11605 11606 4732 4731 11425 4368 
10 1196 1090 1063 2095 5218 4846 5217 8811 10247 11355 
10 552 551 856 1461 3175 4080 4081 11607 10852 10296 
10 1724 1854 958 1855 7304 10029 11608 7308 7309 11609 
10 1561 1726 1725 815 6894 6895 6890 11610 11611 11612 
10 1434 695 526 597 11050 3601 9949 9950 3602 3307 
10 2080 1114 1116 1206 10812 4941 10811 11554 5251 5252 
10 1100 1852 2001 988 10320 7805 10321 4889 11338 9116 
10 616 1689 1526 615 11613 6784 10686 3364 10746 11010 
10 1977 1207 1092 2055 11614 5254 11615 7975 10572 10833 
10 1859 1729 963 818 7319 11618 11616 11617 11619 4428 
10 1768 1486 742 1653 7028 11620 10594 7043 6680 11621 
10 1896 917 865 1037 9376 4508 11622 10471 4837 4838 
10 1157 2043 1956 2040 10993 7934 11623 10995 7935 7925 
10 1217 2041 1157 2132 9101 11624 5283 9102 8284 10994 
10 682 805 1596 1597 3936 11625 9710 9709 11562 6511 
10 1832 1687 932 1686 7237 8985 9537 7238 6780 8983 
10 697 972 855 1774 4455 4456 4076 9141 9148 11626 
10 917 1896 865 701 9376 11622 4508 4495 9351 4122 
10 486 34 60 1395 11627 2561 2976 11041 5909 11628 
10 1036 1931 1132 1087 8814 11629 4993 5127 10287 5101 
10 702 1443 533 532 9876 10790 3629 3628 9877 3118 
10 380 237 1288 1289 11630 5586 11631 11531 5590 5591 
10 1614 702 532 1719 11632 3628 11545 6873 9419 9878 
10 1102 1969 1077 1076 10978 10334 4896 5092 10335 4795 
10 2048 1968 1162 1967 7948 11633 11249 7949 7684 9828 
10 2048 1234 2103 2047 11634 10889 8148 7950 11635 8149 
10 1161 1073 1966 1074 5083 10705 11636 5084 4786 10191 
10 1280 228 371 1279 5563 11503 10221 5564 5559 9045 
10 1287 92 235 236 11637 8647 5584 5583 8648 2392 
10 719 550 1460 720 3680 9105 9322 3684 3682 11390 
10 1937 1821 1822 922 7585 7209 7584 11638 10239 10256 
10 1683 1684 1829 929 6771 7228 7229 10708 9389 10664 
10 864 1634 1655 745 11639 7425 11640 4505 11641 11642 
10 906 905 1807 1659 4252 9626 8909 11366 9627 7162 
10 1320 268 410 1319 5684 10850 11643 5685 5680 8897 
10 1584 670 502 669 10676 3530 11644 10675 3531 3526 
10 750 906 751 1660 4250 4251 3776 10253 9631 9633 
10 910 1031 1032 1811 4658 4662 4660 10187 10645 10157 
10 1874 995 1875 971 11645 11647 7370 11646 4550 11648 
10 1349 156 157 440 11649 2308 11650 11061 2838 2839 
10 971 1745 831 1746 10967 10333 4452 11651 6955 8872 
10 1192 1121 1120 2071 5206 4956 5205 11326 10606 10618 
10 209 352 519 208 7131 10663 3072 2363 7132 3073 
10 48 1383 21 473 11652 5874 2536 2938 11115 11116 
10 950 1757 1756 843 10881 6987 10374 4392 10694 10375 
10 1988 2063 1200 1987 8007 10803 10802 7755 8006 11653 
10 457 630 1539 629 3404 10201 10945 3402 3406 10365 
10 1288 237 380 379 5586 11630 11631 11535 11533 2655 
10 436 1344 295 152 11580 5756 9665 2826 11583 8441 
10 609 608 1345 436 3343 11655 11654 3341 3339 9666 
10 847 1760 1761 1898 9178 7000 11033 11575 7467 7468 
10 1073 965 1966 1074 4782 9669 10705 4786 4784 10191 
10 561 389 1299 390 3199 11145 11159 3200 2686 11225 
10 1383 1555 1382 643 6386 6387 5875 11656 11498 11657 
10 629 1702 1538 628 11244 6824 11245 3403 11247 9381 
10 1741 1871 885 1868 7356 10539 10540 7348 7358 11658 
10 637 464 1547 465 3425 11416 11031 3426 2915 11417 
10 463 1373 323 1372 9210 5844 11659 8805 5845 5840 
10 1977 2056 1978 1094 7977 7978 7717 11660 11661 10351 
10 666 1408 1581 1580 11210 6462 10454 8912 6460 6464 
10 858 1012 1718 1762 4601 8850 9592 10723 10763 7042 
10 1981 1039 1153 1078 10819 5055 11569 10278 4798 5054 
10 1012 1762 987 1867 10763 11520 4603 10827 7345 10826 
10 1005 1006 1908 1109 4583 11663 11662 4918 4919 10611 
10 1938 1139 1138 1042 11664 5011 11593 9266 5009 5007 
10 1709 1847 1846 947 7287 7288 7283 9065 11665 11021 
10 1984 1095 1209 1165 11666 5288 10575 11667 5098 5260 
10 2095 2001 1063 2077 8122 11668 11355 8123 8069 11669 
10 1234 1188 2103 1247 5378 9694 10889 5407 5405 9695 
10 1086 2076 1164 1175 11670 11449 5095 5146 11671 5145 
10 2002 1016 1015 1796 9829 4614 11672 7808 11066 11067 
10 1356 307 163 306 5792 8463 10529 5793 2465 8462 
10 1423 681 1424 513 11673 9514 5996 10342 3558 10343 
10 602 769 1675 768 3827 10797 8945 3825 3829 8947 
10 2024 1137 1138 1227 11674 5008 11594 11675 5315 5316 
10 1238 2092 1230 1202 11676 11677 5368 5367 11678 5364 
10 1311 116 402 401 11679 2720 11680 11182 2718 2722 
10 2120 2125 1231 2122 8316 9327 9328 8239 8246 11681 
10 2013 1082 1085 2097 11682 4821 11017 8128 10984 10986 
10 2125 1133 2097 1164 11683 10985 8225 11684 5096 11685 
10 1223 2144 1259 1252 10758 10760 5462 5420 11686 5454 
10 1178 1200 2062 1987 5235 11689 11687 11688 11653 8004 
10 798 1706 944 799 10815 11485 4372 3919 9047 4373 
10 1133 1122 1193 2012 5211 5209 5294 11690 10015 11691 
10 1261 2148 1263 2119 11692 11694 5506 11693 8359 11695 
10 1249 2127 1261 1250 11696 11697 5486 5417 11698 5475 
10 2156 2133 1263 2119 8379 11700 11699 8380 8271 11695 
10 483 653 1565 652 3476 10514 11701 3474 3478 9855 
10 1081 887 1901 1915 4810 9891 11275 9124 11702 7522 
10 1132 1931 1035 1930 11629 10921 4992 11703 7568 9873 
10 1834 934 1946 1774 9765 10121 7614 7482 11704 7615 
10 2079 2080 1116 1206 8221 10811 11705 11706 11554 5252 
10 1221 1104 2017 1105 5298 11707 8800 5299 4905 10773 
10 1782 1907 1781 1004 7494 7495 7081 11708 11709 11710 
10 1643 893 1798 1642 10523 11711 7128 6652 10524 7129 
10 1313 404 262 1314 11263 11243 5662 5667 10661 5666 
10 1726 816 960 815 11429 4420 11712 11611 3967 4419 
10 1035 1034 1131 1930 4671 4989 4990 9873 9871 10289 
10 1551 674 1417 1589 11713 9542 6375 6488 10019 6487 
10 1999 1085 1164 2097 10805 5094 10806 8131 10986 11685 
10 1309 114 257 258 9356 8547 5651 5650 8548 2415 
10 1915 888 1081 887 9122 4811 9124 11702 4190 4810 
10 6 140 212 283 2291 11714 8599 8509 8510 5514 
10 1031 1810 1926 1811 10688 7552 11715 10645 7175 7551 
10 1841 1056 1951 1950 11605 11604 7629 7625 9524 7630 
10 1321 270 126 269 5686 8572 11716 5687 2427 8571 
10 411 583 412 1321 3265 3266 2752 10898 10896 11717 
10 1210 2034 2135 1147 10002 8236 9551 5262 9495 10494 
10 1278 1452 1451 542 6081 6082 6077 10918 10919 11718 
10 1144 1210 1196 2124 5342 5352 5290 8812 11719 8810 
10 1632 853 856 599 11389 4118 10294 11720 4069 4090 
10 1287 550 377 378 11530 3167 9308 9544 3168 2649 
10 634 633 1370 461 3418 9054 9055 3416 3414 9068 
10 628 1701 1538 627 11246 6820 9381 3400 11721 11722 
10 963 1071 1072 1964 4776 4780 4778 10266 11723 10267 
10 1232 2041 2131 2075 10732 8262 9723 10718 8056 8261 
10 1989 1089 1988 1086 11724 11726 7758 11725 4839 11727 
10 565 1302 393 564 10378 11728 3211 3213 9817 3209 
10 1495 1322 412 1321 6207 11188 11195 6208 5691 11717 
10 1133 1082 1123 2050 4995 5125 5126 11729 10562 10563 
10 1962 1858 1963 1070 7664 7668 7669 11730 11544 11731 
10 1791 726 725 1739 11732 3701 11733 7110 10915 11734 
10 1860 1072 964 1965 10269 4779 11735 7674 11736 11737 
10 1159 1962 1963 1070 10709 7669 11738 5074 11730 11731 
10 1669 761 1670 916 9194 11372 6730 11739 4281 11740 
10 1858 1071 1963 1070 9623 9624 7668 11544 4777 11731 
10 2112 1253 1246 2126 11741 5487 9629 8233 11402 10631 
10 572 400 1310 401 3232 11379 9930 3233 2719 9931 
10 2129 1229 1253 2126 11521 5470 9442 8250 10701 11402 
10 446 1356 163 306 10528 10529 2857 11742 5793 8462 
10 1253 1229 1246 2126 5470 5404 5487 11402 10701 10631 
10 1168 1229 2126 1246 5356 10701 10633 5403 5404 10631 
10 873 1621 1780 874 11381 7073 10929 4150 11743 11744 
10 318 175 1367 317 8485 11745 5825 2476 8484 5826 
10 488 1397 1570 1398 10834 6432 9644 9645 5920 6431 
10 866 1776 1613 1899 11129 7064 11746 11747 7469 7470 
10 1238 2155 2152 1239 10466 8402 11131 5480 11597 11748 
10 439 611 1347 438 3348 11750 11749 2837 3347 11751 
10 1920 1022 1802 1921 11346 11142 7532 7537 11341 7536 
10 2005 996 1776 867 9778 9780 7817 8773 4553 8774 
10 312 453 313 1362 11412 11022 2471 5811 9937 5810 
10 866 996 867 1776 4552 4553 4129 11129 9780 8774 
10 1903 1900 766 951 7485 9451 9990 11752 9450 4393 
10 1528 618 784 617 11407 3873 11408 11753 3370 3872 
10 1614 702 701 532 11632 3630 9352 11545 3628 3626 
10 897 1647 1802 898 9903 7143 11143 4220 11350 10232 
10 486 61 34 1396 2977 2562 11627 10317 9924 5913 
10 631 1704 1541 630 11081 6829 9206 3409 10043 9207 
10 1439 595 1440 596 9314 9735 6047 11109 3306 11204 
10 468 1550 1377 467 9521 6371 9523 2924 11556 11343 
10 2079 1188 1189 2078 10170 5198 8989 8076 9696 10053 
10 2002 2079 1189 2078 8074 8989 8991 8072 8076 10053 
10 1069 1068 1158 1961 4771 5068 5069 9164 10010 9166 
10 1647 897 1802 1801 9903 11143 7143 7139 9897 7144 
10 1064 2083 2042 1152 11259 8094 10421 5153 8820 11754 
10 1663 1662 753 909 6709 8785 8783 11755 11756 4259 
10 1093 1172 1224 2049 5134 5371 5382 11757 11758 10483 
10 1568 655 1732 1567 9641 9642 6911 6427 10997 6912 
10 1733 1863 967 1864 7331 9441 9440 7335 7336 8767 
10 2004 1903 951 2031 7815 11752 11759 7899 7897 10423 
10 1663 1810 1662 909 7170 7171 6709 11755 10689 11756 
10 1292 241 383 97 5599 8737 8864 11760 8514 2663 
10 594 1331 593 1504 11761 10988 3300 11762 6234 11763 
10 2030 1973 2053 1125 7895 7964 8054 11764 11765 10497 
10 1150 2037 2038 1953 10446 7921 10447 11766 7916 7920 
10 2101 1155 1215 1194 10672 5277 11767 10430 5213 5279 
10 1957 1067 1956 2040 11132 10116 7648 7926 11133 7925 
10 203 346 1424 513 7914 5994 9708 3054 10341 10343 
10 1696 790 789 623 9023 3892 11584 11036 3890 3888 
10 1278 226 369 1277 5557 11768 10965 5558 5553 10966 
10 1030 1127 1926 1925 4975 11771 11769 11770 11184 7553 
10 1770 857 933 1897 11013 4510 11772 7703 11361 9548 
10 521 1432 1603 1431 10527 6528 11773 9223 6020 6527 
10 521 1432 689 1603 10527 9820 3582 11773 6528 9822 
10 1960 1066 1957 1156 10319 10028 7660 10413 5062 11134 
10 224 1276 1275 367 5551 5552 5547 11774 11385 9787 
10 1784 877 1624 1625 10612 11775 7086 7085 11776 6601 
10 1506 1333 595 1332 6240 9477 9316 6241 5724 9478 
10 1500 756 757 1666 9883 3794 9882 6717 10943 10944 
10 1181 2015 2033 1106 9651 7905 8868 5171 10408 8873 
10 1352 442 159 443 9584 2845 11014 9509 2849 2847 
10 235 1286 91 377 5580 10879 8646 9305 9309 2644 
10 2106 2032 1228 1129 8157 10640 10641 10214 10037 5321 
10 2107 1182 1107 2064 11777 5174 11778 8263 11779 11780 
10 1276 540 368 1277 9490 3138 11602 5555 11231 11232 
10 1810 1031 1926 1030 10688 11715 7552 10690 4659 11769 
10 2067 1225 1103 1166 10890 5311 10299 10786 5343 5107 
10 1977 1872 920 1873 7712 11782 11781 7713 7364 11783 
10 1973 1027 1028 1125 9368 4650 9369 11765 4969 4970 
10 1363 453 1362 313 11784 9937 5815 5814 11022 5810 
10 65 39 1400 491 2571 5924 11276 2991 10682 10348 
10 1235 2133 2062 2119 9869 8270 10885 10886 8271 8197 
10 1918 1975 2071 1119 7706 8036 8060 10194 11403 11785 
10 1080 1100 1852 1983 4888 10320 10143 11786 10322 7736 
10 1872 1977 920 1092 7712 11781 11782 11787 11615 4853 
10 664 1405 1576 1404 10601 6449 9740 9741 5941 6448 
10 1467 1291 1292 382 6123 5601 6122 10169 11788 8863 
10 902 992 903 1819 4539 4680 4243 9847 10961 9848 
10 1249 2070 1250 1191 11394 11789 5417 5413 10461 5415 
10 429 288 1337 1338 11790 5735 11088 11280 5739 5740 
10 1536 1535 1362 625 6331 6326 6330 10887 10275 9938 
10 1493 1320 1494 582 6201 6205 6206 9270 11791 9271 
10 313 453 312 170 11022 11412 2471 8475 2878 8474 
10 1661 1496 1662 752 6701 6705 6706 9196 11321 9070 
10 2125 1231 2122 1193 9327 11681 8246 11792 5335 11793 
10 1121 1020 1917 1919 4955 9562 9979 9972 9563 7531 
10 869 1617 1777 870 11581 7066 10380 4138 11582 9800 
10 475 50 23 1385 2944 2540 9911 9341 11103 5880 
10 1537 1700 1536 626 6817 6818 6334 9500 10391 9590 
10 1790 882 883 978 9277 4177 10738 10739 4599 4549 
10 230 1281 229 372 5565 5566 2386 11332 11333 11356 
10 1872 1873 1743 920 7364 7362 7360 11782 11783 10556 
10 2122 2070 2071 1191 8388 8061 8208 11794 10461 11327 
10 2156 2133 2117 1222 8379 8269 8408 11795 10767 10768 
10 2085 1222 2060 1209 11796 10769 8098 11797 5302 10849 
10 94 237 93 379 8651 8650 2243 2651 11533 2650 
10 2085 1222 1209 1223 11796 5302 11797 11798 5306 5303 
10 1222 2133 1235 1263 10767 9869 5355 5497 11700 5496 
10 1743 920 884 1872 10556 4293 11799 7360 11782 9973 
10 464 1374 181 324 11415 11800 2911 9826 5847 8496 
10 2070 1190 1249 2128 10070 5412 11394 8244 10071 9506 
10 1474 1300 391 562 6145 11228 10557 9133 9088 3203 
10 1691 1528 784 617 6790 11408 11801 9377 11753 3872 
10 1232 2144 2143 2131 11802 8337 11447 9723 8338 8311 
10 1709 803 1710 1847 11803 11804 6849 7287 10101 7286 
10 846 1887 845 1759 11805 10917 4051 10185 7408 10916 
10 2144 2131 1252 2154 8338 9724 11686 8396 8377 11218 
10 1374 325 181 324 5846 8497 11800 5847 2483 8496 
10 2113 1257 1226 1248 9555 5474 9556 11806 5491 5408 
10 948 1916 1062 954 11807 10173 4751 4873 9568 4829 
10 164 308 448 165 8465 10283 2862 2316 8466 2863 
10 499 191 500 1409 3014 3018 3019 9185 9492 10216 
10 1258 2092 2146 2108 11808 8324 11809 11810 8165 8323 
10 2149 2145 1262 2141 8344 10842 10743 8407 8411 11811 
10 1136 1979 995 1050 11812 11813 5003 5002 11814 4716 
10 666 699 1581 667 3621 11261 10454 3522 3620 10455 
10 1775 1553 854 1712 7059 9598 11815 7061 7010 11816 
10 930 1830 1048 931 9955 11817 4707 4326 11818 4708 
10 1049 1944 1831 931 8995 7605 9951 4710 11819 11424 
10 1944 1049 1048 931 8995 4712 11820 11819 4710 4708 
10 1357 308 448 307 5795 10283 9041 5796 2466 11821 
10 1381 642 1554 641 11822 9692 6384 9859 3445 9860 
10 1944 1830 1831 931 7606 7236 7605 11819 11818 11424 
10 1233 1161 1160 2104 5346 5085 5345 9437 11823 10508 
10 1784 1007 1910 1909 11011 9204 7504 7500 9203 7505 
10 34 33 60 1395 2181 2560 2561 5909 5910 11628 
10 1783 1005 1006 1908 8998 4583 9000 7497 11662 11663 
10 1005 1782 1908 1783 11824 7498 11662 8998 7084 7497 
10 2006 1933 1026 1098 7820 10765 11825 11826 11125 4964 
10 914 1815 1816 1668 10899 7190 11827 10550 7185 7189 
10 1496 585 584 413 11828 3273 11829 11830 3271 3269 
10 1412 1584 502 1411 6472 11644 9675 5962 6471 9677 
10 1182 1108 1107 2064 5175 4917 5174 11779 10598 11780 
10 1830 1944 1048 931 7606 11820 11817 11818 11819 4708 
10 1058 943 1057 1952 4737 4735 4739 10006 11504 11831 
10 1773 1588 835 1589 7053 11832 10700 7054 6489 10017 
10 1585 1584 831 670 6476 8870 8871 11833 10676 4011 
10 512 1423 680 1594 10941 9721 3556 11834 6501 9722 
10 316 1366 174 317 5823 10795 8482 2475 5822 8483 
10 686 846 845 1759 4050 4051 4046 11835 10185 10916 
10 682 681 1424 1596 3562 9514 9698 9710 9515 6506 
10 1595 842 681 680 9285 4038 9286 9720 4039 3559 
10 202 345 346 1423 7972 2507 7915 10411 5991 5992 
10 1367 175 458 317 11745 2893 10397 5826 8484 11836 
10 1143 1187 1134 2025 5193 5190 5142 11837 9944 9942 
10 472 473 47 1382 2939 2937 2935 11838 11117 11839 
10 934 972 1946 1774 4457 11047 10121 11704 9148 7615 
10 506 507 674 1417 3040 3541 3542 11840 9540 9542 
10 934 1696 935 789 9764 9519 4347 4343 11584 4345 
10 2076 1999 1164 2097 8068 10806 11449 8230 8131 11685 
10 1782 1005 1004 875 11824 4580 11708 11841 4578 4576 
10 866 1899 1087 2000 11747 9745 4827 11128 7803 9747 
10 468 43 185 328 3090 2925 2923 11842 10450 8507 
10 1089 1086 1175 1988 4839 5146 5147 11726 11727 10800 
10 1251 2138 2121 1241 9373 8343 11443 5495 9375 10782 
10 717 1628 1458 1457 9983 6608 10426 11152 6609 6100 
10 468 328 184 1377 11842 8503 2922 9523 5855 11344 
10 210 209 353 520 2364 5513 5512 3075 3076 11299 
10 918 808 1714 953 4398 10325 11843 4401 4399 11844 
10 953 1916 1851 1850 11845 7650 10417 10625 7523 7299 
10 1852 1751 859 1752 7300 9587 11846 7301 6972 8970 
10 1851 953 1850 1715 10417 10625 7299 7298 10419 7295 
10 899 1804 1649 1803 11323 7149 10665 11255 7150 7145 
10 1077 1102 1081 1970 4896 4897 4869 10359 10106 10357 
10 956 957 1853 1990 4412 11197 10109 10904 10955 7759 
10 1559 646 813 1723 9144 3956 9146 6884 9607 9606 
10 2125 1133 1231 1193 11683 5336 9327 11792 5294 5335 
10 721 1742 885 1741 11847 10538 4180 11848 6943 10540 
10 953 1916 1850 948 11845 7523 10625 4965 11807 10623 
10 953 1916 948 954 11845 11807 4965 4404 9568 4873 
10 1860 1730 964 819 7322 11850 11735 11849 9715 4431 
10 574 1485 741 742 9525 9527 3745 3747 11851 3749 
10 1433 1610 676 678 6557 11853 11852 11284 11854 3608 
10 1669 759 1503 760 9426 11855 6726 9195 3803 11856 
10 1730 820 964 819 11857 4432 11850 9715 3979 4431 
10 1988 1200 1175 1089 10802 5236 10800 11726 5233 5147 
10 52 26 25 1387 2545 2173 2544 9355 5885 5886 
10 1498 1663 1497 754 6707 6708 6218 10587 11858 9371 
10 1199 2089 2106 2016 10345 8159 10257 10258 8106 8158 
10 184 328 468 185 8503 11842 2922 2336 8507 2923 
10 974 1878 1748 975 11199 7377 10135 4466 10821 11859 
10 92 378 93 236 2647 2648 2242 8648 9546 8649 
10 1680 1825 1679 925 7216 7217 6759 10754 10770 10490 
10 892 730 729 1642 4201 3713 4200 11480 10522 11860 
10 92 1287 378 236 11637 9544 2647 8648 5583 9546 
10 1141 1940 1941 1044 10399 7598 10400 5015 10429 10416 
10 615 442 614 1525 3359 3357 3361 9530 9585 9531 
10 1298 103 247 389 11107 8526 5617 11108 2681 11147 
10 1454 1625 714 1455 6600 11861 11362 6091 6599 11862 
10 934 1695 855 1772 11863 11865 4344 11864 7246 9127 
10 1903 2004 989 1820 7815 11603 10565 7486 7814 10566 
10 833 974 1748 975 4461 10135 11866 4465 4466 11859 
10 673 1588 835 834 9935 11832 4024 4020 9933 4025 
10 253 1304 395 1305 5635 10474 11867 5639 5640 11174 
10 1749 1773 1588 834 7052 7053 6963 10065 11868 9933 
10 583 1495 1494 1660 11194 6209 10895 10252 6698 6699 
10 1488 1489 1769 577 6191 7029 7030 11869 11870 11871 
10 952 1093 987 1867 4856 4857 4519 10703 11542 10826 
10 1603 1590 689 1636 6539 9821 9822 6630 6631 11289 
10 1878 1749 1748 975 7378 6964 7377 10821 10066 11859 
10 1749 833 1748 975 10504 11866 6964 10066 4465 11859 
10 1658 748 1657 1492 10956 9401 6694 6693 10651 6689 
10 1027 906 1807 1028 4646 8909 9370 4650 4648 8911 
10 1012 858 860 1762 4601 4512 4600 10763 10723 10725 
10 586 1324 414 1323 10487 11175 3274 11872 5697 9411 
10 1124 1973 2030 1125 9808 7895 9809 5124 11765 11764 
10 1102 1969 1163 2065 10978 10338 5155 10105 8018 11873 
10 844 685 845 1758 4043 4047 4048 9792 10535 9793 
10 1320 411 269 1321 11874 11875 5683 5688 10898 5687 
10 1324 129 273 415 11876 8578 5695 10486 2759 11877 
10 1089 1091 986 1886 5114 4850 4841 9485 11878 9487 
10 490 65 64 38 2989 2213 2988 9952 2570 2569 
10 1958 1947 1176 1053 7654 10368 9364 11303 9481 5148 
10 585 586 414 1323 3276 3274 3272 11879 11872 9411 
10 986 1885 1757 1886 11880 7402 10882 9487 7406 7404 
10 1088 1971 1868 1974 9700 7692 11881 10816 7702 7700 
10 1579 553 828 722 8924 4002 11882 8925 3689 4004 
10 1984 1179 1209 1095 10574 5289 10575 11666 5159 5288 
10 411 125 269 126 2747 8570 11875 2748 2276 8571 
10 512 692 1594 680 3590 9716 11834 3556 3593 9722 
10 143 286 427 144 8423 11883 2799 2295 8424 2800 
10 549 718 1459 548 3677 11884 10012 3166 3676 11885 
10 1320 125 269 411 11183 8570 5683 11874 2747 11875 
10 1331 136 279 280 11266 8591 5717 5716 8592 2437 
10 1579 1407 665 1580 6457 11074 8926 6461 6459 8914 
10 1462 380 1334 694 11886 11532 6538 11887 3596 9511 
10 1337 428 1336 287 10980 11888 5737 5736 11889 5732 
10 1575 1436 676 696 6447 9176 11890 11891 9175 3611 
10 1337 145 428 287 11892 2803 10980 5736 8426 11889 
10 1718 858 1508 1713 9592 9159 6868 6870 9161 6858 
10 457 173 456 1365 2889 2887 2891 10946 11893 9497 
10 600 428 427 1336 3315 2804 3314 11894 11888 11895 
10 991 1753 1752 863 8968 6975 10449 4536 8969 8972 
10 198 341 12 507 5223 5224 2351 3039 10013 3038 
10 1332 422 280 137 10327 11897 5720 11896 2781 8593 
10 541 710 711 1451 3653 3657 3655 9767 10155 11112 
10 1113 2010 1913 1912 11898 7833 11899 11900 7834 7514 
10 1630 882 883 1790 9275 4177 11901 7104 9277 10738 
10 1746 1876 1747 973 7371 7372 6958 11902 11903 11904 
10 1691 1672 852 784 7156 11906 11905 11801 11907 4336 
10 1331 422 280 1332 10987 11897 5716 5721 10327 5720 
10 136 422 137 280 2780 2781 2287 8592 11897 8593 
10 136 1331 422 280 11266 10987 2780 8592 5716 11897 
10 396 1306 397 111 10839 11908 2707 2703 10841 2705 
10 301 1350 157 441 5774 11909 8451 11524 11523 2841 
10 875 1782 876 1623 11841 11910 4156 10931 7079 11911 
10 1885 1091 1886 986 11912 11878 7406 11880 4850 9487 
10 1522 440 439 1349 11913 2840 11337 6287 11061 11914 
10 950 1091 1885 986 4848 11912 9864 4503 4850 11880 
10 506 198 340 197 3035 2792 9421 3036 2350 2793 
10 908 1810 1662 1809 11915 7171 9069 11916 7172 7167 
10 1575 1634 696 841 6626 11918 11891 11917 11919 4036 
10 1764 763 530 700 9391 4064 9392 9458 4078 3623 
10 1619 708 709 872 9790 3651 10199 9879 4142 4143 
10 611 1520 1521 1347 11920 6286 11419 11750 6281 6285 
10 1777 870 1618 1778 9800 11921 7065 7069 9802 7068 
10 431 432 148 1340 2816 2814 2812 11922 11923 11924 
10 132 275 1327 276 8583 5705 11925 8584 2433 5704 
10 2136 1258 2146 2108 10678 11809 8369 8315 11810 8323 
10 1458 717 548 718 10426 3674 10892 10427 3678 3676 
10 1511 429 602 601 11279 3320 8944 10975 3318 3322 
10 1705 943 797 798 8973 4369 10394 9053 4370 3916 
10 1520 1346 1347 610 6282 5767 6281 9018 9017 11926 
10 611 610 1347 438 3349 11926 11750 3347 3345 11751 
10 1210 1211 2135 1208 5265 10493 9551 5341 5440 9552 
10 677 1419 526 509 10308 11353 3550 3549 11457 3096 
10 1700 627 626 1537 11927 3397 10391 6817 9499 9500 
10 309 449 166 1359 11928 2866 8468 5802 10583 11929 
10 1530 620 786 619 11044 3879 10304 11349 3376 3878 
10 1414 338 504 196 5966 9182 9200 9177 4871 3029 
10 1586 671 504 1413 10509 3532 10511 6477 11930 9201 
10 934 1695 1772 1834 11863 7246 11864 9765 7457 7458 
10 505 1414 504 196 8760 9200 3034 3033 9177 3029 
10 796 629 1703 630 3908 10366 9994 3909 3406 10202 
10 1893 1720 810 1851 7427 11494 9152 7428 7297 9154 
10 1362 1535 452 625 6326 10310 9936 9938 10275 3389 
10 301 158 302 1351 8452 8453 2460 5778 11931 5777 
10 1594 692 1422 1593 9716 11932 6500 6502 9717 6498 
10 442 302 1352 159 11015 5781 9584 2845 8454 11014 
10 583 750 1494 582 3772 9273 10895 3267 3771 9271 
10 1991 1870 994 1170 7764 8849 11933 11934 10727 5121 
10 1498 587 586 1324 10586 3279 10588 6217 10485 10487 
10 454 171 170 313 2881 2322 2880 11023 8476 8475 
10 1904 1867 1093 1971 7489 11542 11935 7693 7691 9699 
10 1012 1870 1762 1867 8848 7354 10763 10827 7355 7345 
10 1700 627 1537 1701 11927 9499 6817 6822 11721 6821 
10 1363 171 454 313 9173 2881 9174 5814 8476 11023 
10 1361 451 311 168 9029 9032 5808 8980 2872 8472 
10 316 173 1365 315 8481 11893 5819 2474 8480 5820 
10 1133 1082 2050 2097 4995 10562 11729 10985 10984 8129 
10 1169 1103 997 2082 5128 4899 5118 8838 9744 8860 
10 1236 2063 2076 2120 11936 8011 10200 9246 8199 8200 
10 1886 1757 986 1758 7404 10882 9487 7405 6990 9791 
10 481 56 1391 482 2962 11938 11937 2966 2964 11939 
10 1989 1089 1887 1988 11724 9484 7756 7758 11726 7754 
10 2041 1232 2131 1217 10732 9723 8262 9101 5319 9100 
10 1702 629 1703 795 11244 10366 6828 10830 3906 9995 
10 848 847 1761 982 4057 11033 11035 4484 4485 11940 
10 896 1645 1800 1646 8885 7137 9957 8766 6661 7136 
10 452 168 312 169 2874 8473 8979 2875 2320 8505 
10 464 1374 324 1373 11415 5847 9826 9212 5848 5843 
10 1221 1104 2051 2017 5298 10787 10973 8800 11707 7959 
10 875 1781 1622 874 11941 7076 10932 4153 11942 11943 
10 173 456 315 172 2887 10515 8480 2324 2886 8479 
10 961 1726 960 1857 11543 11712 4424 11540 7314 10149 
10 1744 829 1743 1873 11944 10554 6949 7363 10097 7362 
10 629 1702 1703 1539 11244 6828 10366 10365 6823 6827 
10 868 998 1869 1998 4557 9775 8788 10679 9776 7795 
10 1330 279 421 135 5713 9414 9416 10991 8590 2777 
10 455 1364 456 172 9169 9498 2888 2884 10516 2886 
10 1665 1500 756 1499 6713 9883 9359 6714 6224 11945 
10 180 464 1373 463 2910 9212 11032 2908 2912 9210 
10 1546 1372 1373 463 6360 5845 6359 9209 8805 9210 
10 1410 501 335 192 10079 11947 5955 11946 3021 5023 
10 635 462 1371 463 3419 9059 9081 3420 2909 8804 
10 501 1410 335 1411 10079 5955 11947 8746 5959 5957 
10 448 447 307 164 2864 9306 11821 2862 2860 8464 
10 63 488 1398 36 2983 9645 9581 2566 10836 5919 
10 1370 462 634 461 9058 3417 9055 9068 2906 3416 
10 1823 1041 1040 923 8806 4688 9001 9397 4686 4684 
10 1368 1542 459 1369 6348 11201 11168 5833 6347 11166 
10 2005 868 1998 997 9119 10679 8038 8859 4555 8861 
10 1146 1949 1948 2034 10094 7624 11948 10003 7907 7970 
10 868 704 1879 1616 4130 8916 9120 8789 8798 7382 
10 1784 1007 878 1785 11011 4585 11949 7090 11950 10182 
10 1231 2076 1164 2125 9326 11449 5337 9327 8283 11684 
10 1152 2039 2042 1955 8818 8067 11754 11951 7922 7931 
10 17 44 470 469 2528 2928 10001 9968 2927 2930 
10 1067 1157 1956 2040 5065 11623 10116 11133 10995 7925 
10 2046 1073 1966 1161 10704 10705 7942 11952 5083 11636 
10 193 336 194 502 4979 4978 2346 3024 9676 3023 
10 1007 1784 878 877 11011 11949 4585 4584 10612 4162 
10 1195 1125 2086 2053 5215 11954 11953 10498 10497 8101 
10 1007 1785 1008 878 11950 11955 4589 4585 10182 4587 
10 1784 877 1625 878 10612 11776 7085 11949 4162 11467 
10 1267 530 357 358 11306 3107 11312 11313 3108 2589 
10 2068 2105 1205 2116 8155 11956 10655 8190 8297 11957 
10 13 525 12 507 11097 3092 2523 10014 3093 3038 
10 1786 1911 1785 1008 7506 7507 7093 11958 10164 11955 
10 1047 1143 1048 1943 5024 5025 4709 11959 11960 11961 
10 629 796 1703 795 3908 9994 10366 3906 3910 9995 
10 1018 1799 1019 894 10619 10620 4623 4619 11962 4621 
10 32 484 1393 58 9852 9293 5903 2557 2970 11963 
10 1301 250 392 106 5626 9249 11208 11207 8532 2690 
10 1297 387 102 388 10603 2676 10604 8890 2680 2678 
10 1799 895 1019 894 9977 4622 10620 11962 4211 4621 
10 1775 808 1552 1714 11964 10323 7058 7062 10325 6860 
10 771 1515 1514 1678 11965 6268 8882 11486 6751 6752 
10 1775 1805 918 1714 7152 11967 11966 7062 7198 11843 
10 1955 946 1846 1061 9007 10863 7640 11968 4746 11969 
10 222 365 80 223 11198 2609 8622 2379 10138 8623 
10 82 1276 368 225 11970 11602 2617 8627 5550 11595 
10 880 1628 1788 881 11318 7098 9838 4171 9985 9296 
10 807 1693 785 1795 11971 11281 4120 9097 7244 10402 
10 301 1350 300 157 5774 5775 2459 8451 11909 8450 
10 1276 1277 368 225 5555 11232 11602 5550 5554 11595 
10 485 655 1395 1567 3482 11042 11471 11972 10997 6422 
10 1139 1938 1138 2022 11664 11593 5011 11973 7870 9661 
10 1407 498 665 1580 11073 3514 11074 6459 11212 8914 
10 378 1288 379 236 9545 11535 2652 9546 5587 11534 
10 1016 2002 1118 1017 9829 11974 4945 4617 9831 4946 
10 1149 1953 1952 2037 11975 7636 11976 11977 7916 7917 
10 2076 1236 1164 1175 10200 5360 11449 11671 5361 5145 
10 936 1836 1934 937 10629 7576 10628 4353 10377 10271 
10 66 1401 40 39 10186 5927 2573 2572 5928 2187 
10 1280 228 229 86 5563 2385 5562 11978 8634 8635 
10 1163 2048 1968 1162 9684 7948 9685 5091 11249 11633 
10 1564 1729 1728 818 6903 6904 6899 11979 11619 11539 
10 486 1396 34 1395 10317 5913 11627 11041 5914 5909 
10 1102 2065 1114 1013 10105 11980 4936 4898 11981 4934 
10 1471 728 727 560 11982 3707 9857 9856 3705 3703 
10 552 551 1288 379 3175 10547 11983 3173 3171 11535 
10 1685 1830 931 1831 7231 11818 8975 7235 7236 11424 
10 551 378 1288 379 3170 9545 10547 3171 2652 11535 
10 90 376 91 234 2641 2642 2240 8644 10151 8645 
10 1284 89 374 232 8920 2636 8922 5575 8641 9502 
10 846 1887 1759 1888 11805 7408 10185 11460 7412 7410 
10 809 1555 1554 1715 9693 6388 9516 9518 6861 6862 
10 684 683 1598 843 3568 11560 10591 4040 4041 10693 
10 2118 2008 1186 1185 8202 11592 11984 10696 10684 5188 
10 908 1810 1809 1030 11915 7172 11916 4654 10690 11985 
10 1247 2103 2128 2078 9695 8302 10875 9697 8295 8245 
10 1601 686 1759 846 10075 11835 6992 10184 4050 10185 
10 1029 908 1809 1030 4652 11916 10312 4656 4654 11985 
10 1063 2001 2031 988 11668 8059 10425 4752 9116 9118 
10 695 697 1607 526 3614 9139 11094 3601 3613 11095 
10 2008 1111 1186 1185 11579 5186 11592 10684 5184 5188 
10 558 726 559 1470 3699 3700 3195 10912 10914 8834 
10 1370 177 1369 320 11986 9967 5836 5835 8506 5831 
10 774 1518 1681 775 9673 6760 11302 3847 9256 11987 
10 2023 1127 2018 1197 11185 11186 7873 11988 5221 11989 
10 164 308 307 448 8465 2466 8464 2862 10283 11821 
10 1726 1856 960 1857 7310 10148 11712 7314 7315 10149 
10 1310 259 401 115 5653 11181 9931 11380 8550 2717 
10 259 116 401 115 8551 2718 11181 8550 2266 2717 
10 893 730 892 1642 4203 4201 4205 10524 10522 11480 
10 1969 1102 1163 1076 10978 5155 10338 10335 5092 5090 
10 1234 2079 2048 2103 10888 8238 11634 10889 8242 8148 
10 67 41 40 1402 2575 2188 2574 11990 5930 5931 
10 1766 900 886 1804 11991 4639 10204 7464 11325 11992 
10 1390 481 29 1391 10499 11993 5894 5899 11937 5898 
10 68 41 67 493 2576 2575 2216 2998 11994 2997 
10 1454 1280 1281 544 6087 5567 6086 11387 10222 11995 
10 864 1634 1765 1655 11639 7018 11179 11640 7425 7158 
10 67 492 493 1402 2995 2999 2997 11990 11996 11997 
10 1216 1217 2132 2154 5285 9102 11998 11141 11999 8378 
10 2046 1161 1966 2047 11952 11636 7942 7947 9908 7946 
10 2024 1938 1041 1935 7874 9199 12000 7875 7589 9003 
10 656 1733 823 1569 11219 11048 3986 11056 6914 11057 
10 2024 1137 1041 1138 11674 5005 12000 11594 5008 5006 
10 1321 270 412 126 5686 12001 11717 11716 8572 2750 
10 1447 707 538 1448 11588 3644 12002 6070 8866 9288 
10 74 1269 359 360 11314 12003 2591 2593 11315 2595 
10 538 707 1447 537 3644 11588 12002 3133 3643 12004 
10 1280 1454 1453 544 6087 6088 6083 10222 11387 12005 
10 1937 1171 1936 2010 12006 11601 7586 7881 11600 7880 
10 763 530 529 1605 4064 3109 3812 9393 9394 11308 
10 901 1650 738 900 12007 10939 4227 4229 11101 4225 
10 270 127 412 126 8573 2751 12001 8572 2277 2750 
10 1137 2024 1041 1935 11674 12000 5005 11064 7875 9003 
10 1127 1198 2018 1197 5227 10302 11186 5221 5229 11989 
10 281 1332 137 423 5719 11896 8594 12008 9480 2783 
10 138 281 137 423 8595 8594 2288 2784 12008 2783 
10 2098 2023 2018 1197 8133 7873 8132 9445 11988 11989 
10 1383 22 1384 474 5873 5877 5878 12009 11529 12010 
10 1552 1381 641 1380 6377 9859 9858 6378 5869 12011 
10 1786 1009 1008 879 8953 4592 11958 8954 4590 4588 
10 688 1603 848 1761 12012 11298 4056 11034 6998 11035 
10 385 1295 386 100 12013 9612 2674 2670 12014 2672 
10 1463 556 723 555 9638 3692 9812 8854 3186 3691 
10 244 101 386 100 8521 2673 9613 8520 2251 2672 
10 1791 726 1739 1793 11732 10915 7110 7116 10983 7115 
10 1738 723 1637 984 12015 9009 7015 12016 4490 9008 
10 989 2004 1090 1052 11603 11445 4845 5143 10512 5163 
10 558 1469 725 1739 9813 12017 3697 10913 6934 11734 
10 1958 1053 1052 938 11303 4724 9365 11304 4722 4720 
10 607 774 1517 773 3842 11301 11506 3840 3844 12018 
10 736 1480 568 1479 9243 11121 3729 9245 6164 9423 
10 1306 255 397 111 5641 10478 11908 10841 8542 2705 
10 937 1958 1052 938 10376 9365 4719 4356 11304 4720 
10 1125 1126 1028 2053 4973 4971 4970 10497 10496 12019 
10 1308 398 1307 256 9386 9253 5649 5648 9254 5644 
10 866 703 1613 1776 4125 12020 11746 11129 12021 7064 
10 409 1319 267 1318 8895 5681 9456 9455 5682 5677 
10 1421 510 1592 511 10177 12022 6495 9012 3050 9013 
10 1606 864 1634 1765 12023 11639 6627 7019 11179 7018 
10 2004 2074 1090 1052 8052 10246 11445 10512 9363 5163 
10 836 1551 1589 674 10398 6488 12024 4027 11713 10019 
10 1317 407 122 408 8905 2736 10085 10086 2740 2738 
10 1631 1632 720 1461 6622 12025 9284 6617 6621 10853 
10 1863 1075 1074 966 10244 4789 9398 9198 4787 4785 
10 442 1524 1351 441 11465 6293 11016 2846 11466 11525 
10 2004 1958 2074 1052 8033 8058 8052 10512 9365 9363 
10 1938 2024 1041 1138 7874 12000 9199 11593 11594 5006 
10 1872 884 1083 1092 9973 4815 10668 11787 4854 4855 
10 277 134 419 133 8587 2772 12026 8586 2284 2771 
10 1676 770 1677 1822 10715 10716 6750 7208 10254 7207 
10 418 1328 419 133 9452 10952 2773 2769 12027 2771 
10 618 1528 445 617 11407 10263 3368 3370 11753 3366 
10 1170 1124 2030 1224 5219 9809 12028 5318 5308 10482 
10 1641 728 1472 729 9773 9329 6645 11144 3710 9331 
10 618 1355 445 1528 10089 10393 3368 11407 6305 10263 
10 428 145 144 287 2803 2296 2802 11889 8426 8425 
10 288 145 1337 287 8427 11892 5735 2446 8426 5736 
10 1500 589 588 417 9881 3285 12029 12030 3283 3281 
10 1509 600 1336 1510 11190 11894 6248 6253 9915 6252 
10 1325 274 130 273 5698 8580 11468 5699 2431 8579 
10 1695 787 621 788 9654 3882 11455 11452 3886 3884 
10 1591 851 1610 678 12031 10074 6559 11267 4066 11854 
10 1504 1669 1503 760 6725 6726 6236 9193 9195 11856 
10 428 1337 1336 1510 10980 5737 11888 9916 6251 6252 
10 1093 1867 1904 1167 11542 7489 11935 5110 10828 10778 
10 55 1390 28 480 12032 5895 2550 2959 12033 12034 
10 360 1442 532 1443 12035 9907 3114 12036 6055 9877 
10 600 428 1336 1510 3315 11888 11894 9915 9916 6252 
10 30 56 1391 29 2553 11938 5897 2177 2552 5898 
10 1392 1564 1391 482 6413 6414 5902 10964 12037 11939 
10 565 1477 733 566 11358 8841 3720 3216 8842 3721 
10 1014 1995 889 1013 12038 12039 4606 4608 12040 4605 
10 648 814 1725 1560 3960 9618 12041 9850 11422 6891 
10 1355 618 445 446 10089 3368 10393 10090 3369 2858 
10 1989 1089 1086 980 11724 4839 11725 12042 4840 4823 
10 1993 1102 1970 1081 10104 10106 8012 9123 4897 10357 
10 611 1520 1347 610 11920 6281 11750 3349 9018 11926 
10 1075 1163 1968 1162 5089 9685 10340 5087 5091 11633 
10 1766 1650 901 900 7446 12007 10205 11991 11101 4229 
10 484 1394 32 1393 9294 5907 9852 9293 5908 5903 
10 1889 1641 1642 892 7414 6649 7413 11479 12043 11480 
10 1535 624 452 625 12044 3387 10310 10275 3391 3389 
10 1090 2074 2031 2095 10246 8053 10424 10247 8124 8121 
10 728 1471 727 1640 11982 9857 3707 9774 6642 11160 
10 1471 1639 727 1640 6639 10190 9857 6642 6643 11160 
10 1295 1469 386 1296 6130 9815 9612 5613 6129 9614 
10 1791 726 1793 888 11732 10983 7116 12045 4189 11106 
10 1256 2156 2143 1259 12046 8346 11437 5473 12047 12048 
10 2147 1216 1252 1240 11139 5464 11217 10385 5456 5426 
10 1711 638 637 1548 10091 3430 9599 6850 8790 10654 
10 1700 627 1701 793 11927 11721 6822 10392 3900 12049 
10 948 1847 947 1846 10102 11665 4386 12050 7288 11021 
10 1900 859 988 1852 9586 4540 9117 7473 11846 11338 
10 309 449 1359 1358 11928 10583 5802 5798 9035 5803 
10 1498 754 1497 586 10587 9371 6218 10588 3783 9372 
10 2081 1179 2077 2102 10195 10197 8093 8146 12051 8145 
10 1532 1359 449 1358 6317 10583 12052 6318 5803 9035 
10 1331 594 593 422 11761 3300 10988 10987 3298 3296 
10 1532 1531 1358 621 6319 6314 6318 11456 9092 10602 
10 1332 422 137 423 10327 2781 11896 9480 2785 2783 
10 2001 1100 1063 2077 10321 4895 11668 8069 11278 11669 
10 1042 1938 1824 1041 9266 7588 9267 4691 9199 8808 
10 1161 1966 1967 1074 11636 7681 9910 5084 10191 9400 
10 226 83 1277 225 8629 12053 5553 2382 8628 5554 
10 442 302 158 1351 11015 8453 2844 11016 5777 11931 
10 1198 2098 2018 1197 10477 8132 10302 5229 9445 11989 
10 1144 1179 1208 2102 5164 5257 5258 10250 12051 9550 
10 1376 184 467 183 12054 2920 11557 12055 2335 2919 
10 1522 1685 778 779 6772 12057 12056 9347 8976 3859 
10 1045 1044 1941 1827 4700 10416 9533 9534 10152 7597 
10 1376 184 183 327 12054 2335 12055 5852 8502 8501 
10 435 1344 608 436 10545 10544 3338 2828 11580 3339 
10 1376 184 327 1377 12054 8502 5852 5857 11344 5856 
10 930 1685 778 1684 12058 12057 4322 9021 6774 9020 
10 1376 184 1377 467 12054 11344 5857 11557 2920 11343 
10 776 1682 1519 775 11193 6763 10533 3850 9257 9258 
10 1388 479 648 478 10858 3462 12059 9733 2957 3461 
10 646 477 1559 647 3456 10241 9144 3460 3458 9145 
10 1388 648 1561 1560 12059 9637 6405 6401 9850 6406 
10 1706 1543 799 632 6835 9048 9047 11345 12060 3917 
10 1511 602 1512 1675 8944 11025 6259 6743 8945 6742 
10 1805 949 918 953 11413 4389 11967 11414 4756 4401 
10 814 1724 647 813 9617 11423 3959 3961 11509 3957 
10 473 48 47 21 2938 2196 2937 11116 2536 2535 
10 921 978 1011 1890 4474 4802 4803 8781 8780 9367 
10 1420 199 510 200 9128 3046 9130 10178 2354 3045 
10 488 1397 1398 36 10834 5920 9645 10836 5915 5919 
10 697 1507 526 677 10360 11354 3613 3612 10307 3550 
10 1388 648 1560 478 12059 9850 6401 9733 3461 9734 
10 1356 620 619 447 11339 3376 11348 10530 3374 3372 
10 1419 11 199 342 5980 8254 11003 5981 2503 7983 
10 446 1355 1356 306 10090 5794 10528 11742 5789 5793 
10 616 1689 782 1690 11613 8950 3867 11227 6789 12061 
10 2085 2102 2137 1208 8147 8288 8289 12062 9550 9560 
10 737 1480 736 1649 10248 9243 3734 10666 6669 12063 
10 1223 2085 2137 1208 11798 8289 11510 5305 12062 9560 
10 2153 1260 2128 2148 12064 9504 8366 8368 9505 8332 
10 490 1399 38 64 9620 5921 9952 2988 8993 2569 
10 1865 968 1734 1735 11000 10671 7338 7337 10670 6922 
10 1366 1367 458 317 5827 10397 10396 5822 5826 11836 
10 2047 2048 1162 1967 7950 11249 9909 7945 7949 9828 
10 1966 1161 1967 2047 11636 9910 7681 7946 9908 7945 
10 468 1377 16 328 9523 6030 10035 11842 5855 5858 
10 2101 2039 1194 2038 8141 10570 10430 8142 7924 10431 
10 1840 796 1841 941 9992 11410 7270 9475 4364 11425 
10 209 352 353 1430 7131 2514 5513 10662 6012 6013 
10 1543 633 799 632 11216 3918 9048 12060 3415 3917 
10 2013 1082 982 1085 11682 4814 12065 11017 4821 4819 
10 1220 2019 2091 2020 12066 8112 10784 12067 7865 8111 
10 1179 2085 1208 2102 12068 12062 5257 12051 8147 9550 
10 1779 873 1002 872 10927 4570 10928 9880 4147 4569 
10 191 334 500 1409 5073 12069 3018 9492 5952 10216 
10 1542 460 1369 1543 11200 11202 6347 6352 12070 6351 
10 435 1344 436 152 10545 11580 2828 2824 11583 2826 
10 94 2160 95 238 12071 8693 2244 8652 8691 8601 
10 334 1410 500 1409 5954 10080 12069 5952 5956 10216 
10 1410 334 500 192 5954 12069 10080 11946 5072 3017 
10 334 191 500 192 5073 3018 12069 5072 2344 3017 
10 767 600 1510 601 3822 9915 8939 3823 3319 9917 
10 1421 511 1422 201 9012 12073 5990 12072 3048 9731 
10 360 1442 1443 1269 12035 6055 12036 11315 6050 6054 
10 376 549 377 1286 3164 3165 2646 9324 9104 9309 
10 79 78 364 221 2228 2605 2606 8620 8653 12074 
10 1179 1223 1208 2085 5304 5305 5257 12068 11798 12062 
10 662 495 1405 664 3505 9573 10599 3513 3510 10601 
10 1284 547 1457 1283 12075 8821 6095 5576 8822 6096 
10 664 858 1508 1576 4087 9159 9168 9740 10724 6450 
10 55 1390 29 28 12032 5894 2551 2550 5895 2176 
10 651 650 817 1563 3472 3968 3969 9107 9567 9108 
10 374 547 1283 546 3158 8822 9503 3156 3160 8824 
10 2160 380 381 1289 11461 2659 8732 8719 11531 9183 
10 1390 1562 1389 480 6407 6408 5896 12033 10063 8959 
10 1157 2041 1217 1158 11624 9101 5283 5070 10722 5284 
10 55 1390 480 481 12032 12033 2959 2961 10499 2963 
10 1573 1738 827 1574 6930 11434 10158 6445 6929 8857 
10 490 1399 1572 1400 9620 6438 11076 9953 5926 6437 
10 2158 341 340 342 8731 2500 8716 8730 8686 8687 
10 385 1295 100 243 12013 12014 2670 11395 5609 8519 
10 385 556 1294 384 3185 10933 12076 2671 3184 10934 
10 1570 1398 1571 658 6431 6435 6436 9646 9647 12077 
10 1421 1422 344 201 5990 5988 5986 12072 9731 8178 
10 19 472 20 1381 9137 9138 2167 5868 12078 5867 
10 1901 887 1081 970 9891 4810 11275 9782 4825 4835 
10 598 1467 1466 1292 10168 6125 11137 8862 6122 6120 
10 1466 1293 555 383 6119 8852 10950 11396 10352 3182 
10 343 2158 340 342 8729 8716 8684 2504 8730 8687 
10 110 253 395 1305 8539 11867 2700 11173 5639 11174 
10 1394 33 1395 485 5906 5910 5911 9895 9894 11471 
10 486 1568 1396 1395 11040 6425 10317 11041 6426 5914 
10 396 1306 254 1305 10839 5642 10840 11172 5643 5638 
10 2013 1898 1085 982 7843 12079 11017 12065 12080 4819 
10 356 213 355 1265 12081 12082 2583 9577 5518 12083 
10 1636 1590 689 839 6631 9821 11289 10465 12084 4033 
10 1590 1432 689 690 6490 9820 9821 12085 12086 3617 
10 1276 539 1449 1275 9488 9489 6071 5552 9786 6072 
10 688 1603 689 848 12012 9822 3583 4056 11298 4055 
10 1317 407 265 122 8905 12087 5675 10085 2736 8563 
10 1277 83 368 225 12053 2618 11232 5554 8628 11595 
10 1821 1914 921 1937 7734 10344 10237 7585 7792 12088 
10 534 1445 1271 1444 8779 6060 8777 11548 6061 6056 
10 407 121 265 122 2735 8562 12087 2736 2272 8563 
10 1628 880 716 717 11318 4166 11153 9983 4167 3675 
10 1489 578 406 1316 12089 3250 12090 6189 12091 12092 
10 407 121 406 1316 2735 2733 2737 8906 12093 12092 
10 959 1856 960 1725 12094 10148 4421 11272 7311 12095 
10 132 418 133 276 2768 2769 2283 8584 9454 8585 
10 761 594 593 1504 3805 3300 3804 9192 11762 11763 
10 1326 1500 417 1327 6223 12030 12096 5706 6222 12097 
10 917 762 1670 1818 4284 11374 12098 9112 10362 7195 
10 418 1328 133 276 9452 12027 2769 9454 5708 8585 
10 1320 411 582 410 11874 3263 11791 11643 2749 3262 
10 2137 1240 1252 1208 10848 5426 11511 9560 5427 5421 
10 275 1326 417 1327 5701 12096 12099 5705 5706 12097 
10 690 1432 689 522 12086 9820 3617 3585 11438 3581 
10 1898 2013 1085 1999 7843 11017 12079 7799 8043 10805 
10 281 1332 280 137 5719 5720 2438 8594 11896 8593 
10 155 439 1347 438 2835 11749 12100 2833 2837 11751 
10 767 1674 1750 1790 8938 6967 8940 10737 7380 7381 
10 1348 439 1347 298 10721 11749 5770 5769 9115 5765 
10 155 297 1347 298 8445 5766 12100 8446 2456 5765 
10 1828 1683 929 928 7225 10708 12101 10462 12102 4320 
10 985 1771 977 1895 9648 9339 4500 9650 7439 9291 
10 532 1443 533 360 9877 10790 3118 3114 12036 3116 
10 1270 219 361 75 5532 12104 10209 12103 8615 2596 
10 1101 1922 1895 1096 9939 7538 12105 4894 9344 12106 
10 219 76 361 75 8616 2597 12104 8615 2225 2596 
10 219 1271 1270 361 5536 5537 5532 12104 10207 10209 
10 1922 1848 1895 1096 7539 7437 7538 9344 9862 12106 
10 166 310 309 1359 8469 2468 8468 11929 5801 5802 
10 1696 1533 622 1532 6805 11039 11037 6806 6322 11454 
10 1051 937 936 1934 4718 4353 4717 10270 10271 10628 
10 1371 463 1545 635 8804 8803 6357 9081 3420 9083 
10 1281 1280 229 372 5567 5562 5566 11333 12107 11356 
10 86 87 229 372 2236 8636 8635 2629 2630 11356 
10 1136 2058 1153 1219 12108 12109 5116 5292 12110 5291 
10 1256 2153 2143 2148 11436 8406 11437 12111 8368 8387 
10 1738 827 764 723 11434 4000 12112 12015 4183 3816 
10 1735 825 824 658 10518 3994 9652 12113 3992 3990 
10 252 1303 108 394 5632 12114 8536 11236 12115 2696 
10 1157 1216 2040 1156 5281 12116 10995 5067 5280 11135 
10 2129 2098 2126 1253 8328 8347 8250 9442 9443 11402 
10 98 1293 241 383 11400 5603 8515 2664 10352 8737 
10 598 661 764 1574 3607 3817 3814 11136 8856 8858 
10 598 1466 764 555 11137 11138 3814 3311 10950 3815 
10 686 1429 1600 518 10076 6519 9987 3573 8743 9988 
10 1101 1895 977 1096 12105 9291 4891 4894 12106 4867 
10 576 1487 1488 1314 9662 6188 12117 10660 6183 6187 
10 2107 1181 1107 1182 8867 5172 11778 11777 5176 5174 
10 382 96 240 97 2661 8512 12118 2662 2247 8513 
10 358 359 1441 531 2592 8875 8876 3110 3111 8902 
10 1291 96 240 382 11078 8512 5597 11788 2661 12118 
10 222 79 80 365 8621 2229 8622 11198 2608 2609 
10 393 1302 1303 251 11728 5634 12119 11411 5629 5633 
10 2058 1214 1153 1219 10740 5276 12109 12110 5293 5291 
10 1489 1315 577 1488 6190 12120 11870 6191 6186 11869 
10 81 224 367 82 8625 11774 2614 2231 8626 2615 
10 1315 1489 577 406 6190 11870 12120 12121 12090 3248 
10 1181 2015 1106 1180 9651 10408 5171 5173 10409 5168 
10 1106 2066 2033 1107 11286 8022 8873 4914 11120 8874 
10 120 1315 263 405 12122 5669 8559 2730 8899 8898 
10 895 1799 1644 894 9977 7134 12123 4211 11962 12124 
10 563 730 731 1643 3712 3716 3714 11250 10521 12125 
10 1315 120 406 405 12122 2732 12121 8899 2730 2734 
10 246 1297 245 102 5614 5615 2403 8524 10604 8523 
10 1004 1003 1107 2066 4577 4912 4913 11119 12126 11120 
10 1471 1298 388 1297 6135 8889 12127 6136 5619 8890 
10 1665 756 755 1499 9359 3791 10459 6714 11945 11404 
10 1916 1955 1061 2042 7797 11968 12128 7930 7931 12129 
10 2002 1016 1118 1117 9829 4945 11974 8992 4943 4947 
10 257 1308 256 113 5647 5648 2414 8546 9387 8545 
10 1397 488 657 487 10834 3489 11052 11053 2984 3488 
10 1804 1650 1766 900 7148 7446 7464 11325 11101 11991 
10 1273 79 364 221 9156 2606 9158 5542 8620 12074 
10 1482 1309 571 399 6168 9575 9574 10948 9357 3229 
10 78 363 364 221 2603 2607 2605 8653 10552 12074 
10 363 1273 364 221 10551 9158 2607 10552 5542 12074 
10 754 910 755 1664 4262 4263 3788 12130 12131 11406 
10 1665 1499 755 1664 6714 11404 10459 6715 6710 11406 
10 580 748 581 1492 3765 3766 3261 10963 10651 10653 
10 2058 2114 1219 1136 8183 12132 12110 12108 12133 5292 
10 136 1331 421 422 11266 9415 2778 2780 10987 2782 
10 1458 717 547 548 10426 3673 11328 10892 3674 3163 
10 90 233 375 1285 8643 10627 2639 10150 5578 10876 
10 1502 759 591 1503 12134 3798 12135 6233 11855 12136 
10 2027 2092 1230 2108 8114 11677 12137 8164 8165 12138 
10 432 1341 1340 1514 12139 5749 11923 10999 6263 6264 
10 600 1509 599 853 11190 8932 3316 4070 11388 4069 
10 1674 767 768 978 8938 3826 9605 9616 4472 4473 
10 767 1674 1790 978 8938 7380 10737 4472 9616 10739 
10 1937 1113 1171 2010 12140 5132 12006 7881 11898 11600 
10 1937 1113 2010 1913 12140 11898 7881 7836 11899 7833 
10 1143 1047 1142 2029 5024 5021 5026 12141 11537 11538 
10 1825 1042 1043 1939 9268 4694 10517 7591 10055 10056 
10 1684 778 777 1521 9020 3856 9022 6769 11418 11420 
10 1698 1697 1534 790 6813 6808 6812 12142 9025 10472 
10 1794 984 724 887 9890 4491 10923 9892 4492 4186 
10 1738 1463 1637 723 7001 6634 7015 12015 9812 9009 
10 677 697 1673 837 3612 9140 10361 4029 4106 11307 
10 624 451 1534 1361 3386 9030 10441 9867 9029 6323 
10 2092 2026 1230 1202 8115 12143 11677 11678 11505 5364 
10 1149 1953 2037 1150 11975 7916 11977 5047 11766 10446 
10 1462 856 694 1464 10295 4089 11887 6537 12144 10647 
10 318 459 175 176 12145 2895 8485 8486 2896 2327 
10 1287 550 551 1461 11530 3172 10546 6108 10851 10852 
10 2027 1141 1230 1140 10401 5331 12137 9929 5017 5330 
10 1128 1927 2016 1129 9805 7853 10756 4985 9807 10038 
10 569 1481 570 1307 12146 9385 3228 12147 6166 12148 
10 437 1346 610 438 10437 9017 3344 2834 10436 3345 
10 409 123 408 1318 2741 2739 2743 9455 9457 11008 
10 439 155 1347 298 2835 12100 11749 9115 8446 5765 
10 155 297 438 1347 8445 9672 2833 12100 5766 11751 
10 510 1465 1420 1592 10456 6118 9130 12022 6496 6494 
10 297 1346 438 1347 5762 10436 9672 5766 5767 11751 
10 610 1346 1347 438 9017 5767 11926 3345 10436 11751 
10 347 204 514 1425 7821 3057 9609 5997 9226 9610 
10 1269 74 217 218 11314 8612 5530 5529 8613 2374 
10 591 1502 1329 1328 12135 6228 10415 11180 6229 5712 
10 1439 595 596 763 9314 3306 11109 9315 3810 3811 
10 1503 1330 592 1329 6231 9432 10542 6232 5715 12149 
10 1614 532 531 1442 11545 3115 11378 6567 9907 8901 
10 1764 701 700 531 9390 3627 9458 12150 3625 3624 
10 1623 1782 876 1783 7079 11910 11911 7083 7084 8999 
10 1137 2024 2118 1227 11674 8223 12151 5315 11675 12152 
10 622 1359 449 1532 10581 10583 3380 11454 6317 12052 
10 2028 1203 2027 1141 10045 12153 7890 11393 5242 10401 
10 1744 668 1583 1582 12154 9671 6948 6947 11268 6470 
10 404 118 262 119 2726 8556 11243 2727 2269 8557 
10 770 1676 603 769 10715 11009 3830 3832 10796 3828 
10 1339 430 603 1512 10855 3323 9281 6257 12155 9885 
10 448 621 449 1358 3377 3378 2867 9033 10602 9035 
10 1287 92 377 235 11637 2645 9308 5584 8647 9305 
10 1306 569 568 397 12156 3225 9424 11908 3223 3221 
10 389 103 247 104 2681 8526 11147 2682 2254 8527 
10 1304 253 395 109 5635 11867 10474 12157 8538 2699 
10 891 1641 1796 1889 9230 7122 9231 12158 7414 7415 
10 890 1639 1640 727 11149 6643 11150 4194 10190 11160 
10 1797 890 1796 1015 9784 11171 7127 9785 4609 11067 
10 2061 1084 1985 1177 9900 9902 8000 9259 5151 12159 
10 1927 2032 1129 1928 7901 10037 9807 7559 7900 9313 
10 309 449 165 166 11928 2865 8467 8468 2866 2317 
10 1199 2106 1228 1129 10257 10641 5323 5231 10214 5321 
10 478 1387 647 1560 9732 10051 3459 9734 6402 9851 
10 523 1436 676 1433 10488 9176 3548 10762 6037 11852 
10 748 904 749 1658 4244 4245 3770 10956 12160 9337 
10 1130 2019 1228 1220 9310 12161 5322 5324 12066 5325 
10 1848 840 933 1770 9307 4511 9863 7291 8962 11772 
10 1645 896 733 1646 8885 4212 8884 6661 8766 12162 
10 1258 1203 1230 2108 5453 5332 5452 11810 11296 12138 
10 1354 444 445 1527 10133 2855 10264 6302 10134 10265 
10 752 1495 584 751 11483 11196 3777 3779 11203 3775 
10 1313 118 262 404 12163 8556 5662 11263 2726 11243 
10 1264 140 69 355 9466 2578 12164 11475 3086 2579 
10 1506 1671 1505 762 6731 6732 6242 9753 9754 11373 
10 158 301 157 441 8452 8451 2309 2842 11524 2841 
10 435 294 1343 1344 12165 5753 12166 10545 5757 5758 
10 1513 604 1514 1677 11026 8880 6265 6749 11027 6748 
10 626 625 1362 453 3394 9938 9591 3392 3390 9937 
10 608 1344 1345 436 10544 5761 11655 3339 11580 9666 
10 624 1535 791 625 12044 10274 3893 3391 10275 3894 
10 633 1370 461 460 9054 9068 3414 3413 12167 2903 
10 609 1518 608 775 12168 9674 3343 3846 9256 3845 
10 783 1892 1690 782 10113 7461 11235 3871 8951 12061 
10 1795 1672 1692 861 7197 7243 7245 10403 12169 10404 
10 616 1689 1690 1526 11613 6789 11227 10686 6784 6788 
10 415 1325 130 273 12170 11468 2760 11877 5699 8579 
10 177 319 176 1369 8488 8487 2328 9967 5832 11165 
10 415 1324 1325 273 10486 5700 12170 11877 5695 5699 
10 2026 2027 1230 1140 7887 12137 12143 9928 9929 5330 
10 2039 1154 1194 1151 8817 5212 10570 9750 5274 5273 
10 1383 473 474 643 11115 2942 12009 11656 3446 3447 
10 642 1381 1382 472 11822 5872 12171 3443 12078 11838 
10 176 177 1369 460 2328 9967 11165 2898 2899 11202 
10 1542 460 1543 632 11200 12070 6352 10369 3411 12060 
10 1038 1936 1040 922 12172 10242 4685 4679 12173 4683 
10 554 1550 467 639 11258 11556 3180 3433 12174 3432 
10 323 180 324 1373 8494 8495 2482 5844 11032 5843 
10 1546 1710 636 1547 6848 11082 9981 6364 6847 11083 
10 1383 474 1384 1556 12009 12010 5878 6390 10291 6389 
10 822 655 821 1732 3983 3981 3985 9251 9642 9191 
10 2026 2092 1230 2027 8115 11677 12143 7887 8114 12137 
10 475 1385 23 1384 9341 5880 9911 9340 5881 5876 
10 484 1394 654 485 9294 12175 3479 2975 9895 3480 
10 23 475 1384 49 9911 9340 5876 2539 2943 10166 
10 48 1383 473 474 11652 11115 2938 2940 12009 2942 
10 48 1383 474 22 11652 12009 2940 2537 5873 11529 
10 48 1383 22 21 11652 5873 2537 2536 5874 2169 
10 659 1399 489 1571 11273 9621 3494 11274 6434 12176 
10 1566 653 654 820 11113 3481 11114 12177 3977 3978 
10 1394 485 1395 1567 9895 11471 5911 6423 11972 6422 
10 1874 971 1875 1745 11646 11648 7370 7366 10967 7368 
10 1016 891 1889 892 4612 12158 9830 4613 4202 11479 
10 484 1566 654 1394 9292 11114 3479 9294 6419 12175 
10 721 1741 885 722 11848 10540 4180 3690 8949 4181 
10 1157 2041 1158 2043 11624 10722 5070 10993 7936 10011 
10 1740 952 1741 722 10022 10023 6940 8948 4395 8949 
10 1741 952 885 722 10023 4397 10540 8949 4395 4181 
10 1805 918 1714 953 11967 11843 7198 11414 4401 11844 
10 1742 721 1580 1741 11847 8913 6941 6943 11848 6939 
10 1407 1579 553 1406 6457 8924 11209 5947 6456 10034 
10 1405 662 1406 496 10599 10032 5944 10440 3504 9657 
10 662 496 553 1406 3504 3177 3506 10032 9657 10034 
10 1760 847 1602 687 9178 12179 6995 12178 4053 12180 
10 1995 1793 889 1013 7780 11470 12039 12040 11105 4605 
10 642 1555 809 643 9691 9693 3944 3448 11498 3945 
10 553 1579 1578 1406 8924 6458 10033 10034 6456 6454 
10 2048 2079 1206 2080 8238 11706 11248 8081 8221 11554 
10 1878 974 1877 1981 11199 10136 7379 7728 10818 7727 
10 1121 1192 2014 2071 5206 12181 9978 10606 11326 8034 
10 538 539 366 1275 3136 3134 3132 11596 9786 9788 
10 498 666 665 1580 3518 3519 3514 11212 8912 8914 
10 1936 1040 922 1822 10242 4683 12173 7581 10243 10256 
10 673 506 674 1416 3538 3542 3543 12182 12183 12184 
10 360 1442 1269 359 12035 6050 11315 2595 8879 12003 
10 666 1742 721 1580 12185 11847 3685 8912 6941 8913 
10 1488 1654 744 1769 6682 9219 12186 7030 7034 12187 
10 1221 2017 2051 2121 8800 7959 10973 11441 8204 8205 
10 2026 2092 2094 1202 8115 8120 8118 11505 11678 12188 
10 1599 684 844 685 10589 4044 12189 10534 3571 4043 
10 351 208 518 1429 7527 3069 8941 6009 8741 8743 
10 206 517 350 207 3067 12190 7720 2361 3066 7719 
10 2106 1241 1228 2111 12191 5388 10641 8174 10780 10639 
10 2157 1243 2150 1239 11464 12192 8398 10384 5471 11598 
10 44 470 45 18 2928 2929 2193 2529 10215 2531 
10 517 206 350 1427 3067 7720 12190 12193 12194 6004 
10 1654 1487 1488 744 6683 6188 6682 9219 9221 12186 
10 1163 2080 1206 1114 9686 11554 5250 5189 10812 5251 
10 492 1401 661 1574 10179 10172 3501 12195 6444 8856 
10 237 94 380 379 8651 2653 11630 11533 2651 2655 
10 530 1267 357 1266 11306 11312 3107 12196 5525 11587 
10 1267 72 357 215 11311 2585 11312 5524 8608 11586 
10 2111 2138 2106 1241 8352 8291 8174 10780 9375 12191 
10 1266 71 215 357 11309 8607 5520 11587 2584 11586 
10 657 1569 823 1734 11054 11057 3987 8892 6918 12197 
10 189 332 1407 331 5100 5946 11376 5165 2491 5945 
10 2138 1199 2106 1241 10894 10257 8291 9375 5390 12191 
10 1225 2111 1228 1241 10779 10639 5369 5389 10780 5388 
10 1029 1925 1127 1030 12198 11184 4974 4656 11770 4975 
10 83 369 1277 368 2620 10966 12053 2618 2622 11232 
10 2111 1225 2051 2121 10779 10891 8260 8259 10781 8205 
10 1449 539 540 709 9489 3139 9491 10060 3649 3650 
10 1497 585 1323 586 12199 11879 6214 9372 3276 11872 
10 589 1500 588 756 9881 12029 3285 3790 9883 3789 
10 720 1632 856 1461 12025 10294 4088 10853 6621 10296 
10 1601 1760 687 846 6994 12178 12200 10184 9179 4049 
10 1287 550 378 551 11530 3168 9544 10546 3172 3170 
10 832 1746 831 1585 12201 8872 4016 12202 6954 8871 
10 598 492 661 1574 3503 3501 3607 11136 12195 8856 
10 1460 550 1461 720 9105 10851 6109 11390 3682 10853 
10 93 378 379 236 2648 2652 2650 8649 9546 11534 
10 1760 847 687 846 9178 4053 12178 9179 4054 4049 
10 1601 1430 687 1602 6522 10092 12200 6526 6524 12180 
10 439 612 1521 611 3350 11334 11335 3348 3352 11419 
10 307 447 448 1357 9306 2864 11821 5796 9269 9041 
10 1841 1951 942 1842 7629 10902 11606 7273 7628 10903 
10 1698 937 1836 936 11367 10377 7254 11369 4353 10629 
10 1603 688 1431 1602 12012 11290 6527 6529 11291 6525 
10 391 105 249 106 2687 8530 11229 2688 2256 8531 
10 1421 344 343 201 5986 2505 5985 12072 8178 7980 
10 2113 1173 2056 1248 12203 12204 8179 11806 5409 10279 
10 1433 1610 678 1591 6557 11854 11284 6493 6559 11267 
10 862 1652 1767 740 10210 7026 12205 4231 12206 11517 
10 473 642 1382 472 3444 12171 11117 2939 3443 11838 
10 2113 1173 2057 2056 12203 10844 8180 8179 12204 7986 
10 1311 1485 1484 573 6178 6179 6174 8986 9526 8987 
10 1583 1584 669 1745 6473 10675 8745 6950 6951 10224 
10 30 57 482 56 2554 2965 12207 2553 2205 2964 
10 1485 1311 402 573 6178 11680 12208 9526 8986 3236 
10 1496 1322 584 1495 6211 11189 11829 6212 6207 11196 
10 1322 1496 584 413 6211 11829 11189 10330 11830 3269 
10 2151 1243 2150 2157 11093 12192 8389 8399 11464 8398 
10 1412 503 1413 337 9755 9757 5965 5961 10536 5963 
10 1612 1438 698 1591 6562 9235 9241 6563 6492 9242 
10 858 1718 1508 1576 9592 6868 9159 10724 6869 6450 
10 528 1436 696 524 12209 9175 3604 3104 9076 3605 
10 330 187 329 1405 5170 5225 2489 5940 9571 5939 
10 1909 1110 1109 1006 8762 4923 10609 12210 4921 4919 
10 1449 1619 709 1620 6581 10199 10060 6585 6586 9837 
10 693 840 1609 857 4034 8961 9079 4082 4083 10226 
10 1770 857 1717 1609 11013 10225 7049 7037 10226 6866 
10 211 1432 522 521 10526 11438 3082 3078 10527 3083 
10 708 1619 709 1449 9790 10199 3651 11233 6581 10060 
10 1084 1986 1985 1884 9901 7749 9902 9093 7747 7744 
10 1216 1156 2088 2040 5280 12211 11140 12116 11135 8104 
10 1333 281 423 1332 5723 12008 9479 5724 5719 9480 
10 1531 620 1530 1357 9091 11044 6316 6315 9039 6311 
10 1696 934 1834 1695 9764 9765 7249 6807 11863 7457 
10 934 1695 788 855 11863 11452 4342 4344 11865 4341 
10 1850 1805 1714 953 7445 7198 7296 10625 11414 11844 
10 1504 761 1670 1669 9192 11372 6729 6725 9194 6730 
10 308 165 1358 448 8466 9034 5799 10283 2863 9033 
10 446 1355 306 162 10090 5789 11742 2856 11237 8461 
10 762 1671 1670 1818 9754 6733 11374 10362 7194 7195 
10 1779 873 872 1620 10927 4147 9880 7070 9836 9835 
10 710 540 709 1450 3652 3650 3654 10156 11472 10061 
10 499 1581 1409 667 9186 6463 9185 3521 10455 10218 
10 1764 763 700 1671 9391 4078 9458 7109 9752 9459 
10 435 434 294 151 2825 12212 12165 2823 2821 8439 
10 1011 882 881 1789 4597 4174 4596 9297 9276 9298 
10 767 1674 768 601 8938 9605 3826 3823 10969 3824 
10 2148 1256 1261 1263 12111 5478 11692 11694 5508 5506 
10 1300 1474 1473 562 6145 6146 6141 9088 9133 9089 
10 1236 2063 2120 1254 11936 8199 9246 5434 12213 9247 
10 552 380 379 1288 3174 2655 3173 11983 11631 11535 
10 2122 1192 2071 2014 12214 11326 8208 8207 12181 8034 
10 2156 1256 2148 1263 12046 12111 8381 11699 5508 11694 
10 1804 886 1633 1792 11992 9237 7444 7443 11571 7113 
10 607 435 434 1343 3336 2825 3335 8964 12166 8965 
10 1718 858 1713 994 9592 9161 6870 8851 4545 10829 
10 765 1606 864 696 12215 12023 4115 3819 12216 4116 
10 750 583 1494 1660 3772 10895 9273 10253 10252 6699 
10 853 1632 856 720 11389 10294 4118 4496 12025 4088 
10 1462 1632 856 1464 6620 10294 10295 6537 6623 12144 
10 1498 1324 586 1497 6217 10487 10588 6218 6213 9372 
10 1475 732 731 564 12217 3719 12218 9819 3717 3715 
10 752 1661 751 907 9196 12219 3779 4254 12220 4253 
10 72 215 71 357 8608 8607 2221 2585 11586 2584 
10 1605 763 1671 1439 9393 9752 7048 6534 9315 7009 
10 1817 1816 1037 1932 7193 12221 10470 7569 7570 12222 
10 1018 893 1798 894 4618 11711 11448 4619 4208 12223 
10 563 1475 731 564 11251 12218 3714 3210 9819 3715 
10 926 1826 1680 925 10463 7220 11383 4311 10771 10754 
10 543 1280 1453 544 10220 6083 12224 3151 10222 12005 
10 563 1643 731 1475 11250 12125 3714 11251 6650 12218 
10 503 1412 194 337 9755 8923 3027 10536 5961 4908 
10 791 1698 1534 790 11368 6812 11148 3895 12142 10472 
10 1485 1486 1653 742 6182 6680 6681 11851 11620 11621 
10 1485 574 1486 742 9525 12225 6182 11851 3747 11620 
10 618 1529 1528 1692 10087 6310 11407 9912 6793 6794 
10 785 1529 1692 1693 10286 6793 9913 11281 6797 6798 
10 1927 1031 1926 1811 10644 11715 7556 7555 10645 7551 
10 627 455 1538 628 3396 9380 11722 3400 3398 9381 
10 459 176 1369 460 2896 11165 11166 2900 2898 11202 
10 627 794 1701 793 3902 12226 11721 3900 3904 12049 
10 1949 941 1840 1950 9473 9475 7622 7627 11426 7626 
10 1700 627 793 626 11927 3900 10392 10391 3397 3899 
10 1418 597 663 1604 11062 3509 11089 6530 11051 12227 
10 2129 2098 1197 2110 8328 9445 9444 8329 8243 11254 
10 1693 1530 786 619 6796 10304 11049 11282 11349 3878 
10 1937 1936 922 1822 7586 12173 11638 7584 7581 10256 
10 1795 695 1604 597 9096 9603 7120 11269 3602 11051 
10 1711 638 1712 804 10091 11589 6855 9600 3933 12228 
10 825 659 1736 826 3993 12229 9689 3997 3995 9688 
10 1240 2100 1215 1213 9959 11397 5387 5386 9961 5385 
10 1860 963 964 1072 10268 4433 11735 10269 4778 4779 
10 1159 1071 1963 1072 5075 9624 11738 5077 4780 12230 
10 1550 1377 467 1376 6371 11343 11556 6372 5857 11557 
10 639 466 1549 467 3431 8793 12231 3432 2921 11555 
10 2030 2086 1224 1125 8099 10481 10482 11764 11954 5309 
10 1125 2030 2086 2053 11764 8099 11954 10497 8054 8101 
10 891 1641 1889 892 9230 7414 12158 4202 12043 11479 
10 1976 1168 2011 2055 10558 10559 7838 7974 10632 7976 
10 585 1496 752 753 11828 11321 3778 3780 11322 3782 
10 806 1775 854 918 12232 11815 4074 4287 11966 4286 
10 836 1551 675 840 10398 10122 4026 4105 10124 4035 
10 1551 836 1716 840 10398 9404 6864 10124 4105 8960 
10 1172 2086 2129 1195 10972 8275 10971 5372 11953 12233 
10 693 1577 1717 1609 9078 6867 10227 9079 6554 6866 
10 1247 1190 2078 2128 5411 10052 9697 10875 10071 8245 
10 1222 2156 1263 1259 11795 11699 5497 5510 12047 5507 
10 851 1610 1768 1653 10074 7447 10073 12234 7033 7043 
10 1727 1728 962 817 6901 10332 9997 11512 9110 4425 
10 849 862 1612 698 4109 10445 9679 4058 4108 9241 
10 1234 2079 1206 2048 10888 11706 5362 11634 8238 11248 
10 816 1727 961 817 10127 9996 4422 3970 11512 4423 
10 1991 994 1098 1170 11933 4882 12235 11934 5121 5122 
10 1898 1894 1761 982 7787 7434 7468 12080 10069 11940 
10 1432 527 522 690 8917 3099 11438 12086 3584 3585 
10 1859 818 963 962 11617 4428 11616 12236 4426 4430 
10 1188 2079 1206 1234 10170 11706 5333 5378 10888 5362 
10 827 1738 764 1574 11434 12112 4000 8857 6929 8858 
10 1005 1782 1783 876 11824 7084 8998 4579 11910 8999 
10 723 1738 1466 764 12015 6932 11519 3816 12112 11138 
10 1234 2048 1206 1162 11634 11248 5362 5349 11249 5351 
10 503 195 504 1413 3026 3030 3031 9757 10537 9201 
10 195 338 504 1413 4872 9182 3030 10537 5964 9201 
10 1718 858 1762 1576 9592 10723 7042 6869 10724 7002 
10 1414 1586 504 1413 6478 10511 9200 5968 6477 9201 
10 1661 752 751 1495 9196 3779 12219 6702 11483 11203 
10 2156 1256 1263 1259 12046 5508 11699 12047 5473 5507 
10 1520 1683 777 1684 6766 10707 12237 6770 6771 9022 
10 1608 695 855 1607 9098 4077 9126 6549 11094 11331 
10 2070 2122 1250 1191 8388 12238 11789 10461 11794 5415 
10 1231 1192 2122 1193 5418 12214 11681 5335 5210 11793 
10 1474 563 1643 730 9131 11250 6651 9132 3712 10521 
10 1177 2060 1222 1209 11285 10769 5301 5259 10849 5302 
10 1806 904 905 1026 12239 4249 9625 12240 4642 4643 
10 1425 204 514 515 9226 3057 9610 9227 3061 3062 
10 1740 1579 828 722 6937 11882 12241 8948 8925 4004 
10 1027 1806 905 1026 12242 9625 4645 4647 12240 4643 
10 682 1597 515 683 9709 9229 3560 3565 11559 3564 
10 761 1669 760 916 9194 9195 3806 4281 11739 4280 
10 1036 915 1816 1037 4673 12243 8815 4677 4675 12221 
10 595 1506 1505 762 9316 6242 12244 3808 9753 11373 
10 516 205 1426 515 3064 10346 9214 3065 3060 9215 
10 609 1346 610 437 11222 9017 3346 3342 10437 3344 
10 538 1447 1274 537 12002 6065 11187 3133 12004 12245 
10 348 1425 1426 515 5998 6002 6000 9228 9227 9215 
10 1700 939 793 1701 9301 4357 10392 6822 12246 12049 
10 939 794 793 1701 4358 3904 4357 12246 12226 12049 
10 1145 1053 1948 1054 5031 12248 12247 5032 4727 10857 
10 1202 2026 1230 1140 11505 12143 5364 5240 9928 5330 
10 1156 1215 2088 2044 5278 11398 12211 10414 11399 8105 
10 1091 1084 1986 1178 4849 9901 12249 5156 5157 10683 
10 2159 329 330 187 8735 2489 12250 8739 5225 5170 
10 807 1693 1795 1694 11971 7244 9097 8724 6801 7438 
10 528 1436 1404 1508 12209 6033 12251 9167 6245 6246 
10 1071 1159 1963 1070 5075 11738 9624 4777 5074 11731 
10 807 1693 1694 786 11971 6801 8724 4338 11049 8725 
10 704 868 705 1616 4130 4131 3639 8798 8789 8797 
10 1066 1067 1957 1156 4765 11132 10028 5062 5063 11134 
10 868 869 705 1616 4135 4133 4131 8789 8787 8797 
10 807 1693 786 785 11971 11049 4338 4120 11281 3880 
10 1561 648 1725 1560 9637 12041 6890 6406 9850 6891 
10 1544 1371 635 634 6353 9081 9082 9057 9060 3421 
10 2008 2118 1186 2009 8202 11984 11592 7832 8196 11591 
10 1588 673 1589 1416 9935 10018 6489 6484 12182 6486 
10 879 880 716 1627 4168 4166 4164 9841 11574 9042 
10 1082 2013 1992 2050 11682 7842 11238 10562 8026 7956 
10 184 1377 328 327 11344 5855 8503 8502 5856 2486 
10 648 1561 1725 815 9637 6890 12041 3962 11610 11612 
10 1319 268 124 267 5680 8568 8896 5681 2425 8567 
10 688 521 689 1603 3578 3582 3583 12012 11773 9822 
10 796 1841 941 942 11410 11425 4364 4366 11606 4368 
10 2076 2125 2097 1164 8283 8225 8230 11449 11684 11685 
10 1654 1575 841 1634 7016 11917 12252 7017 6626 11919 
10 1951 943 1952 1057 10901 11504 7633 12253 4735 11831 
10 365 1273 537 1274 9157 10452 3129 10139 5546 12245 
10 1002 1779 1923 1780 10928 7541 10874 10930 7075 7540 
10 365 79 1273 222 2608 9156 9157 11198 8621 5541 
10 1239 1214 2146 2115 5383 12256 12254 12255 10742 8374 
10 2032 2019 1228 1129 8039 12161 10640 10037 9311 5321 
10 2019 2032 1228 2111 8039 10640 12161 8172 8173 10639 
10 718 1458 1459 548 10427 6103 11884 3676 10892 11885 
10 2111 2019 2091 1228 8172 8112 8175 10639 12161 12257 
10 1247 1249 2128 1260 5414 9506 10875 5465 5485 9504 
10 891 728 890 1640 4197 4195 4199 9232 9774 11150 
10 1308 1481 1307 570 6165 6166 5649 9383 9385 12148 
10 2124 1146 2035 2034 12258 12259 8219 8247 10003 7971 
10 2094 1201 2022 1202 10626 9660 8119 12188 5241 12260 
10 1482 571 570 399 9574 3231 9384 10948 3229 3227 
10 1497 585 586 753 12199 3276 9372 8784 3780 3781 
10 1812 910 1811 1664 10115 10187 7178 7177 12131 7173 
10 906 1808 1028 907 8908 8910 4648 4255 10817 4649 
10 1027 1124 1973 2006 4967 9808 9368 12261 9810 7767 
10 150 294 293 434 8438 2452 8437 2820 12212 12262 
10 1458 547 1457 1284 11328 8821 6100 6099 12075 6095 
10 1678 924 923 771 12263 4305 9395 11486 4303 4301 
10 1111 2009 1186 1112 11577 11591 5186 4929 10371 5187 
10 2019 1220 2091 1228 12066 10784 8112 12161 5325 12257 
10 433 1342 292 1341 10577 5751 12264 11006 5752 5747 
10 1201 1227 2093 1138 5328 10680 9658 5237 5316 9659 
10 737 569 1481 570 3732 12146 9874 3733 3228 9385 
10 1981 1980 1039 1877 7729 11155 10819 7727 7725 11536 
10 398 569 570 1307 3224 3228 3226 9253 12147 12148 
10 1416 673 1589 674 12182 10018 6486 12184 3543 10019 
10 1982 985 1097 1101 9649 4879 10772 12265 4892 4893 
10 467 1550 1549 639 11556 6373 11555 3432 12174 12231 
10 1059 1060 1954 1151 4745 9749 12266 5048 5049 9751 
10 1949 1146 1055 2034 10094 5034 9559 7907 10003 9493 
10 17 1378 16 469 5859 5860 2164 9968 9970 10036 
10 1949 941 1950 1055 9473 11426 7627 9559 4729 9494 
10 2146 2155 1239 2115 8376 11597 12254 8374 8375 12255 
10 684 517 1427 516 3566 12193 10590 3567 3068 11090 
10 904 1806 749 1658 12239 11256 4245 12160 7160 9337 
10 1860 1729 1730 819 7323 6907 7322 11849 9713 9715 
10 963 1729 1860 819 11618 7323 10268 4429 9713 11849 
10 893 1889 1017 1798 11478 9823 4616 11711 7416 9825 
10 983 1636 839 1792 9737 10465 4487 10444 7112 11084 
10 1478 567 1479 735 10864 11518 6161 10866 3726 11357 
10 759 760 592 1503 3803 3801 3799 11855 11856 10542 
10 1257 2114 1226 1219 9553 9554 5474 5445 12132 5312 
10 1072 2046 1965 2045 12267 7943 11736 12268 7944 7940 
10 1870 1012 1170 1167 8848 5120 10727 10777 5109 5123 
10 902 1656 903 747 9332 9849 4243 4240 10878 4241 
10 1742 884 699 721 9974 4178 12269 11847 4179 3687 
10 1124 1991 1098 1170 12270 12235 4968 5219 11934 5122 
10 884 1742 1871 885 9974 7357 9975 4182 10538 10539 
10 1456 715 545 546 9422 3667 9557 10082 3668 3157 
10 1037 1896 1932 865 10471 7572 12222 4838 11622 12271 
10 2094 1201 2142 2093 10626 9945 8306 8224 9658 8307 
10 1776 866 2000 1899 11129 11128 7802 7469 11747 7803 
10 1171 1137 2073 1186 5131 11063 11590 5334 5365 12272 
10 1324 129 272 273 11876 8577 5696 5695 8578 2430 
10 1977 1207 1094 1092 11614 5253 11660 11615 5254 4861 
10 1808 1661 1809 907 7164 7168 7169 10817 12220 12273 
10 1564 1392 652 482 6413 12274 9853 12037 10964 3473 
10 1744 668 830 1745 12154 4009 12275 6952 10223 10305 
10 1927 1128 1926 1031 9805 12276 7556 10644 4980 11715 
10 971 1745 1746 1875 10967 6955 11651 11648 7368 7369 
10 1652 1484 740 1483 6677 10799 12206 6678 6176 9683 
10 2145 1262 1237 1255 10842 5500 10750 10749 5501 5499 
10 1874 971 1745 830 11646 10967 7366 12277 4453 10305 
10 1168 1207 1246 2055 5255 5402 5403 10632 10572 10573 
10 609 1518 775 1519 12168 9256 3846 10774 6280 9258 
10 1744 1874 1745 830 7365 7366 6952 12275 12277 10305 
10 1584 1583 669 1411 6473 8745 10675 6471 6469 8747 
10 593 1504 1330 592 11763 6235 9431 3297 10541 9432 
10 717 881 718 1629 4169 4170 3678 9984 9986 10428 
10 1122 1920 1021 1919 12278 12279 4958 9971 7534 9918 
10 1947 1837 1053 1958 7618 9482 9481 7654 7651 11303 
10 657 824 1734 823 3989 8894 8892 3987 3991 12197 
10 841 1610 676 1575 12280 11853 4037 11917 6558 11890 
10 1524 1350 1351 441 6294 5779 6293 11466 11523 11525 
10 1856 1068 1961 1956 12281 10010 7662 7644 10118 7663 
10 841 1610 1575 1654 12280 6558 11917 12252 7046 7016 
10 939 1053 1838 938 4723 9483 9302 4359 4722 9300 
10 1806 904 1891 1658 12239 9832 7422 7160 12160 7420 
10 1025 992 1933 1819 4834 11124 10764 11564 10961 7574 
10 398 112 256 113 2708 8544 9254 2709 2263 8545 
10 1700 1837 938 1838 7256 9583 9299 7260 7261 9300 
10 1053 1837 1838 938 9482 7261 9483 4722 9583 9300 
10 2087 1181 1242 1180 8869 5393 10823 12282 5173 5392 
10 2057 1979 1136 2058 7985 11812 10843 7989 7987 12108 
10 770 923 1677 1822 4300 9396 10716 10254 10255 7207 
10 1924 1002 1001 1779 11018 4571 11271 7543 10928 9262 
10 58 483 1393 31 2968 9187 11963 2556 8825 5904 
10 1003 1004 1906 2066 4577 12283 10650 12126 11119 8021 
10 832 1746 1585 1747 12201 6954 12202 12284 6958 6956 
10 2063 1988 1175 2076 8007 10800 10801 8011 8009 11671 
10 2114 1136 1226 1219 12133 5313 9554 12132 5292 5312 
10 1306 569 397 1307 12156 3223 11908 5646 12147 12285 
10 463 636 1545 635 3422 9980 8803 3420 3424 9083 
10 2136 2105 2116 1204 8314 8297 8414 8935 12286 8937 
10 2136 1135 2069 1214 8934 11567 8280 10677 5275 10741 
10 1850 1847 1805 949 7519 7465 7445 10624 12287 11413 
10 2113 2114 1257 2157 8184 9553 9555 8393 8394 10382 
10 2157 2114 1219 2115 8394 12132 10383 8385 8187 12288 
10 673 1588 1415 1416 9935 6483 12289 12182 6484 5974 
10 2114 2057 2113 1226 8182 8180 8184 9554 10845 9556 
10 2146 2092 1238 2139 8324 11676 10467 8325 8293 10468 
10 693 1577 663 852 9078 11087 3594 4068 12290 4067 
10 1561 649 1726 815 9635 11428 6894 11610 3963 11611 
10 648 649 1561 815 3466 9635 9637 3962 3963 11610 
10 822 1733 966 967 9250 9252 4438 4440 9440 4442 
10 1124 1991 2030 2006 12270 8040 9809 9810 8064 7896 
10 2015 2123 1180 2087 8209 8801 10409 8103 8290 12282 
10 1902 1878 1079 975 7479 10282 9923 10820 10821 4800 
10 984 1901 1737 970 9889 7475 10198 4534 9782 9781 
10 1915 1794 1791 887 7521 7119 7520 11702 9892 12291 
10 1753 842 991 993 8967 4535 8968 12292 4542 4543 
10 1577 693 1717 852 9078 10227 6867 12290 4068 11488 
10 1947 1958 1176 2074 7654 9364 10368 8066 8058 9362 
10 1638 677 1673 837 10733 10361 6738 10735 4029 11307 
10 1696 622 623 789 11037 3385 11036 11584 3887 3888 
10 2079 1188 2078 2103 10170 9696 8076 8242 9694 8295 
10 1419 1465 509 677 6117 10457 11457 10308 10309 3549 
10 886 900 1766 901 4639 11991 10204 4514 4229 10205 
10 1751 1592 1763 691 6968 7006 7007 11430 11004 11431 
10 1095 1881 991 1882 12293 10448 4863 12294 7394 12295 
10 1876 971 1875 1050 12296 11648 7373 11156 4715 12297 
10 1592 679 1763 691 12298 12299 7006 11004 3589 11431 
10 1465 679 1763 1592 10458 12299 7005 6496 12298 7006 
10 2140 2145 1262 1237 8356 10842 12300 12301 10750 5500 
10 880 1628 716 1627 11318 11153 4166 11574 6610 9042 
10 1763 679 766 691 12299 3821 9991 11431 3589 3820 
10 1214 2058 2115 1219 10740 8185 10742 5293 12110 12288 
10 220 1271 219 76 5535 5536 2376 8617 11573 8616 
10 1636 1603 1761 848 6630 6998 6999 9739 11298 11035 
10 1894 983 848 982 9736 4488 9738 10069 4489 4484 
10 1594 1753 863 1752 6973 8969 9718 6971 6975 8972 
10 776 1683 1519 1682 10531 6767 10533 11193 6768 6763 
10 1430 1431 520 1602 6017 9225 10093 6524 6525 11292 
10 847 1898 1761 982 11575 7468 11033 4485 12080 11940 
10 1625 715 878 714 9134 4161 11467 11861 3669 4160 
10 657 488 1570 658 3489 9644 8891 3493 3491 9646 
10 1465 679 1638 1763 10458 10734 6638 7005 12299 7008 
10 2002 1918 1017 1889 7809 9824 9831 7807 7784 9823 
10 105 1300 390 391 11230 11224 2685 2687 11228 2689 
10 664 528 1404 1508 3512 12251 9741 9168 9167 6246 
10 1331 594 422 1332 11761 3298 10987 5721 10328 10327 
10 842 1753 863 1594 8967 8969 4112 9712 6973 9718 
10 1485 574 402 1312 9525 3238 12208 6177 12302 12303 
10 864 1634 745 841 11639 11641 4505 4117 11919 4238 
10 1080 1881 1752 991 10142 7389 8971 4809 10448 10449 
10 1080 1852 859 1752 10143 11846 4807 8971 7301 8970 
10 1225 2111 2091 1228 10779 8175 10783 5369 10639 12257 
10 228 370 1279 227 11502 9028 5559 2384 12304 5560 
10 2120 1231 1250 2122 9328 5441 12305 8239 11681 12238 
10 2120 1236 1250 1231 9246 5446 12305 9328 5359 5441 
10 1596 1595 1754 850 6508 6976 6977 12306 9287 9703 
10 94 2160 237 380 12071 12307 8651 2653 11461 11630 
10 1881 1080 1095 991 10142 4864 12293 10448 4809 4863 
10 1451 1621 711 1622 6587 11111 11112 6591 6592 9465 
10 1342 433 434 606 10577 2822 12308 10579 3332 3333 
10 871 870 1618 707 4141 11921 8846 4139 4137 8847 
10 145 429 1337 428 2805 11088 11892 2803 2807 10980 
10 435 294 1344 152 12165 5757 10545 2824 8440 11583 
10 1518 1344 1345 608 6276 5761 6275 9674 10544 11655 
10 1346 154 437 296 10435 2830 10437 5763 8444 9760 
10 436 296 437 153 9664 9760 2831 2827 8443 2829 
10 1621 874 711 1622 11743 4149 11111 6592 11943 9465 
10 180 323 179 463 8494 8493 2331 2908 11659 2907 
10 1166 998 1972 999 5104 9777 10846 5105 4562 10379 
10 2127 2120 1250 2122 8240 12305 11698 8241 8239 12238 
10 1676 770 922 769 10715 4298 10831 10796 3832 4297 
10 1621 710 711 874 10154 3657 11111 11743 4148 4149 
10 2133 1235 1263 2119 9869 5496 11700 8271 10886 11695 
10 1335 1509 1464 599 6249 6250 6115 8831 8932 8829 
10 952 1740 828 722 10022 12241 4396 4395 8948 4004 
10 429 430 146 1338 2810 2808 2806 11280 12309 9742 
10 213 70 214 356 8604 8605 2370 12081 2581 12310 
10 1558 1722 812 1723 6881 11215 10326 6885 6886 9608 
10 1273 1447 537 1274 6066 12004 10452 5546 6065 12245 
10 1473 1641 729 1642 6644 11144 12311 6648 6649 11860 
10 730 1473 729 1642 11370 12311 3713 10522 6648 11860 
10 1414 505 339 196 8760 9202 5967 9177 3033 2798 
10 1863 1075 1968 1967 10244 10340 7683 7679 9827 7684 
10 1562 1390 650 480 6407 10500 9565 10063 12033 3467 
10 1467 598 1466 1574 10168 11137 6125 6556 11136 6636 
10 1236 2120 1250 1261 9246 12305 5446 5476 9248 5475 
10 2120 2127 1250 1261 8240 11698 12305 9248 11697 5475 
10 2127 2120 2148 1261 8240 8360 8331 11697 9248 11692 
10 734 1477 733 1646 8840 8841 3725 8765 6660 12162 
10 1249 1260 1261 2148 5485 5479 5486 9507 9505 11692 
10 1260 1256 1261 2148 5461 5478 5479 9505 12111 11692 
10 1881 1984 1882 1095 7738 7739 7394 12293 11666 12294 
10 77 220 1272 221 8618 5539 12312 8619 2377 5538 
10 508 11 1434 1418 12313 6025 9948 11085 5979 6024 
10 915 759 914 1668 4277 4275 4279 12314 10549 10550 
10 693 675 525 1437 3610 3544 3595 9080 12315 12316 
10 1667 913 758 914 10228 4272 9886 12317 4276 4274 
10 671 670 1585 832 3534 11833 12318 4014 4015 12202 
10 11 508 1434 526 12313 9948 6025 12319 3095 9949 
10 1815 913 1667 914 10236 10228 7186 10899 4276 12317 
10 533 703 1613 702 3631 12020 10791 3629 3633 10637 
10 290 431 1340 1339 12320 11922 5745 5741 9279 5746 
10 1817 1816 916 1037 7193 12321 10959 10470 12221 4676 
10 1269 74 359 217 11314 2591 12003 5530 8612 11329 
10 1661 752 908 907 9196 4256 9197 12220 4254 4258 
10 605 433 432 1341 3330 2819 3329 11007 11006 12139 
10 1623 875 712 876 10931 4152 9803 11911 4156 4154 
10 1280 228 86 371 5563 8634 11978 10221 11503 2627 
10 226 1278 84 227 5557 12322 8630 2383 5556 8631 
10 1660 1661 907 751 6703 12220 9632 9633 12219 4253 
10 882 1630 718 1629 9275 9303 4172 10386 6616 10428 
10 490 65 1400 491 2989 11276 9953 2993 2991 10348 
10 492 1401 1574 1402 10179 6444 12195 11996 5932 6443 
10 926 774 1680 1681 4310 11300 11383 11384 11302 6762 
10 430 602 603 1512 3321 3325 3323 12155 11025 9885 
10 1574 1738 764 1466 6929 12112 8858 6636 6932 11138 
10 935 1051 936 1835 5030 4717 4350 8754 10347 10630 
10 838 1653 1767 1591 12323 7023 12324 9240 7032 7050 
10 1799 1975 1019 1917 7704 10622 10620 7526 7708 10584 
10 1836 1698 936 1835 7254 11369 10629 7255 7250 10630 
10 983 1792 1024 1992 10444 11496 4805 10443 7770 11490 
10 1306 396 568 1305 10839 3220 9424 5643 11172 9425 
10 580 1491 579 747 9063 12325 3258 3763 11566 3762 
10 1808 1661 907 1660 7164 12220 10817 7165 6703 9632 
10 1507 1419 526 677 6244 11353 11354 10307 10308 3550 
10 1891 1819 1657 903 7451 7199 7421 9834 9848 9403 
10 1696 790 623 1533 9023 3890 11036 6805 9024 11038 
10 761 1504 593 760 9192 11763 3804 3806 9193 3802 
10 1500 589 417 1327 9881 3283 12030 6222 12326 12097 
10 913 912 1814 1666 4273 10234 10233 10949 10026 7183 
10 77 363 1272 362 2602 10553 12312 2600 2604 8904 
10 1775 808 806 1552 11964 3943 12232 7058 10323 12327 
10 1255 2138 2145 2121 10748 8342 10749 12328 8343 8322 
10 771 1515 1678 772 11965 6751 11486 3838 11191 12329 
10 600 1509 853 1750 11190 11388 4070 11214 6966 10125 
10 1914 1038 921 1937 9795 4678 10344 7792 12330 12088 
10 953 1916 954 1851 11845 9568 4404 10417 7650 9570 
10 220 77 1272 362 8618 12312 5539 11572 2600 8904 
10 363 221 77 1272 10552 8619 2602 10553 5538 12312 
10 613 1522 1686 1523 9345 6776 9346 11283 6292 6775 
10 1686 780 932 779 8982 4328 8983 8978 3862 4327 
10 1418 1577 1604 663 6452 6546 6530 11089 11087 12227 
10 1652 862 1767 1612 10210 12205 7026 7108 10445 7051 
10 611 1520 610 777 11920 9018 3349 3852 12237 3851 
10 404 576 405 1314 3244 3245 2731 10661 10660 8900 
10 783 1691 617 1690 11234 9377 3870 11235 6792 9378 
10 1152 1060 1955 1061 5051 9005 11951 5052 4748 11968 
10 1984 1179 1095 1983 10574 5159 11666 7740 10196 12331 
10 622 1359 1532 1533 10581 6317 11454 11039 6321 6322 
10 77 221 363 78 8619 10552 2602 2227 8653 2603 
10 1958 1837 937 1836 7651 11565 10376 7652 7258 10377 
10 1854 1724 958 813 7304 11608 10029 12332 11509 4413 
10 518 1429 1600 1428 8743 6519 9988 8942 6011 6518 
10 1364 455 314 172 9169 10992 5817 10516 2884 8478 
10 1724 814 958 813 9617 4414 11608 11509 3961 4413 
10 1067 959 958 1855 4764 4418 4763 10145 10144 11609 
10 642 1381 472 641 11822 12078 3443 3445 9859 3441 
10 1854 1957 958 1855 7647 10030 10029 7309 7646 11609 
10 1939 1139 1043 1140 10054 5010 10056 11241 5014 5012 
10 1072 2046 2045 1160 12267 7944 12268 5080 12333 10506 
10 1735 968 824 969 10670 4444 9652 10519 4448 4446 
10 1865 968 1735 969 11000 10670 7337 12334 4448 10519 
10 1757 1885 986 950 7402 11880 10882 10881 9864 4503 
10 739 1652 862 740 9433 10210 4230 3743 12206 4231 
10 1201 1139 2022 1202 5238 11973 9660 5241 5239 12260 
10 959 1856 1068 960 12094 12281 4766 4421 10148 4767 
10 1993 1102 1081 1013 10104 4897 9123 11104 4898 4812 
10 242 99 384 98 8517 2667 11317 8516 2249 2666 
10 1949 1146 1948 1054 10094 11948 7624 10095 5033 10857 
10 1392 483 1565 652 9143 11701 6417 12274 3474 9855 
10 637 803 804 1710 3930 3934 3932 9601 11804 9602 
10 981 1086 1989 1999 4822 11725 12335 12336 10804 7800 
10 981 1999 1989 1888 12336 7800 12335 11459 7798 7757 
10 1989 1089 980 1887 11724 4840 12042 7756 9484 11492 
10 511 692 691 1593 3591 3592 3587 9014 9717 11005 
10 505 1414 339 1415 8760 5967 9202 8759 5971 5969 
10 783 1691 784 617 11234 11801 3874 3870 9377 3872 
10 1285 234 90 233 5577 8644 10150 5578 2390 8643 
10 857 693 852 1717 4082 4068 4084 10225 10227 11488 
10 1781 1907 1906 1004 7495 7496 7492 11710 11709 12283 
10 1924 1002 1779 1923 11018 10928 7543 7545 10874 7541 
10 1282 374 546 373 10695 3156 10636 8844 2637 3155 
10 1755 979 1884 1756 9726 9094 7398 6984 9725 7399 
10 682 805 1597 683 3936 11562 9709 3565 3935 11559 
10 1221 2017 1180 1105 8800 8802 5300 5299 10773 5167 
10 1780 1003 1923 1002 10649 10648 7540 10930 4574 10874 
10 1905 1104 1105 2017 10789 4905 9071 7856 11707 10773 
10 1993 1793 1995 1013 7773 7780 7781 11104 11105 12040 
10 888 1793 1013 889 11106 11105 4604 4193 11470 4605 
10 1993 1995 2065 1013 7781 8019 8016 11104 12040 11981 
10 745 1634 1655 1769 11641 7425 11642 12337 7202 7060 
10 1055 1949 940 1054 9559 9474 4728 4730 10095 4726 
10 2001 2095 1063 2031 8122 11355 11668 8059 8121 10425 
10 1903 2004 951 989 7815 11759 11752 10565 11603 4524 
10 1900 951 2031 988 9450 10423 7898 9117 4523 9118 
10 589 418 1327 1501 3284 9453 12326 11501 10951 6226 
10 1647 898 1648 1802 11350 11351 6667 7143 10232 7142 
10 2123 1251 1180 1255 11442 5423 8801 10958 5439 5437 
10 1243 2134 2107 2150 12338 8303 11092 12192 8340 8341 
10 1238 2142 2152 2139 12339 8364 11131 10468 8309 8390 
10 983 886 1024 1792 4527 4804 4805 10444 11571 11496 
10 886 1804 1024 1792 11992 11324 4804 11571 7443 11496 
10 288 429 146 1338 11790 2806 8428 5739 11280 9742 
10 1282 374 373 231 10695 2637 8844 5568 8826 8827 
10 1023 1022 1802 898 4635 11142 10231 4633 4631 10232 
10 1918 1018 1975 1119 12340 10621 7706 10194 4949 11403 
10 1130 1929 2020 1131 10451 7864 10775 4991 11450 10290 
10 1473 730 729 562 11370 3713 12311 9089 3711 3709 
10 732 1476 1644 1645 9349 6653 12341 10979 6657 6658 
10 1487 576 1488 744 9662 12117 6188 9221 3753 12186 
10 1900 859 1852 1751 9586 11846 7473 7472 9587 7300 
10 1768 851 1653 742 10073 12234 7043 10594 4235 11621 
10 1859 1858 1728 962 7321 7316 7320 12236 9999 10332 
10 1029 1808 1028 1959 10311 8910 4653 10313 7656 12342 
10 1126 2023 1197 1127 10751 11988 5220 4976 11185 5221 
10 1220 2090 2091 1103 12343 8113 10784 5296 9743 10785 
10 1033 1812 1032 1928 10058 10059 4665 10453 7558 11500 
10 1034 1929 1130 1131 9843 10451 4987 4989 11450 4991 
10 1814 1815 1930 1035 7187 7563 7564 9872 10900 9873 
10 1142 1046 1941 1942 5019 12344 11489 11499 9407 7601 
10 818 1859 1728 962 11617 7320 11539 4426 12236 10332 
10 1203 2028 1142 1141 10045 10046 5243 5242 11393 5020 
10 1350 1524 1523 441 6294 6295 6290 11523 11466 12345 
10 1942 1047 1142 1046 9406 5021 11499 9407 4706 5019 
10 1056 1841 1951 942 11605 7629 11604 4732 11606 10902 
10 1705 1704 797 1842 6834 10355 10394 7271 7272 10353 
10 1056 1951 1057 942 11604 12253 4736 4732 10902 4734 
10 1841 797 1842 942 10354 10353 7273 11606 4367 10903 
10 1374 464 181 465 11415 2911 11800 8714 2915 2913 
10 1282 374 231 1283 10695 8826 5568 5573 9503 5572 
10 1722 1557 1558 645 6882 6397 6881 11162 9038 10389 
10 2101 2039 2083 1154 8141 8137 8144 10571 8817 8819 
10 1295 385 1294 243 12013 12076 5610 5609 11395 5605 
10 1062 1997 955 954 10174 9604 4830 4829 9569 4509 
10 2083 2072 1154 1065 8092 10674 8819 11260 10314 5058 
10 2107 1107 2033 2066 11778 8874 8161 8160 11120 8022 
10 1073 1861 965 964 12346 9668 4782 4781 12347 4436 
10 831 1746 973 971 8872 11902 4459 4452 11651 4460 
10 1876 971 1050 973 12296 4715 11156 11903 4460 4714 
10 943 797 942 1842 4369 4367 4371 8974 10353 10903 
10 1586 671 1585 832 10509 12318 6479 12348 4014 12202 
10 1962 2041 1961 1158 7927 7928 7666 9165 10722 9166 
10 829 1874 830 919 10096 12277 4010 4290 10098 4289 
10 814 1724 1725 1560 9617 6892 9618 11422 6887 6891 
10 1742 884 721 885 9974 4179 11847 10538 4182 4180 
10 829 1744 1743 1582 11944 6949 10554 12349 6947 6945 
10 1205 2116 1204 1174 11957 8937 5246 5463 10262 5379 
10 1748 832 1586 1747 12350 12348 6959 6961 12284 6957 
10 692 859 1593 863 4094 11294 9717 4114 4518 9719 
10 1594 1752 863 1593 6971 8972 9718 6502 6970 9719 
10 1196 2035 1145 1176 10697 10720 5358 5357 10367 5149 
10 1753 842 993 1754 8967 4542 12292 6978 9702 9704 
10 1157 2043 1068 1956 10993 10009 5066 11623 7934 10118 
10 965 1731 1862 821 11433 7329 9670 4435 9460 9189 
10 1738 827 723 984 11434 4183 12015 12016 4493 4490 
10 1311 116 259 260 11679 8551 5657 5656 8552 2417 
10 486 655 656 1568 3483 3487 3485 11040 9641 11220 
10 1731 1566 654 820 6909 11114 12351 11432 12177 3978 
10 594 1331 1505 1332 11761 6238 12352 10328 5721 6237 
10 1749 1773 834 976 7052 11868 10065 10064 11295 4468 
10 970 1737 984 826 9781 10198 4534 4450 10161 4529 
10 1737 827 984 826 10160 4493 10198 10161 4001 4529 
10 975 1902 1749 976 10820 7480 10066 4469 12353 10064 
10 1286 376 1285 234 9324 9325 5582 5581 10151 5577 
10 1100 1080 1852 988 4888 10143 10320 4889 4808 11338 
10 739 572 571 1483 3739 3234 3738 9435 9682 9576 
10 1785 1911 1910 1008 7507 7508 7503 11955 10164 11392 
10 715 879 1626 878 4163 9840 9135 4161 4165 10183 
10 1599 685 1600 1428 10534 9989 6520 6516 12354 6518 
10 488 1398 658 489 9645 9647 3491 2987 9667 3492 
10 1903 989 951 837 10565 4524 11752 10567 4525 4394 
10 891 890 1796 1640 4199 11171 9231 9232 11150 7123 
10 989 2004 951 1090 11603 11759 4524 4845 11445 4844 
10 1852 1080 859 988 10143 4807 11846 11338 4808 4540 
10 1973 1125 1028 2053 11765 4970 9369 7964 10497 12019 
10 396 110 1305 254 2702 11173 11172 10840 8540 5638 
10 110 253 1305 254 8539 5639 11173 8540 2411 5638 
10 1029 1925 1959 2023 12198 7657 10313 12355 7871 7872 
10 1991 2006 1098 1933 8064 11826 12235 7766 7820 11125 
10 1922 1134 1996 2025 8996 9941 7786 7877 9942 7879 
10 1991 1870 1849 994 7764 7448 7763 11933 8849 9217 
10 1977 1207 2056 1094 11614 12356 7977 11660 5253 11661 
10 1933 992 1098 1849 11124 4880 11125 7575 9216 9218 
10 1656 1491 747 1490 6686 11566 10878 6687 6197 12357 
10 2059 2068 1996 1187 8029 8030 7996 10731 10656 9943 
10 268 1319 124 410 5680 8896 8568 10850 8897 2744 
10 1491 748 747 580 10962 3767 11566 9063 3765 3763 
10 836 1716 840 977 9404 8960 4105 4471 9289 4470 
10 1047 1942 2029 1943 9406 7892 11537 11959 7604 7891 
10 351 207 350 1428 7528 7719 2512 6007 8943 6006 
10 985 1982 1895 1101 9649 7732 9650 4892 12265 12105 
10 613 440 1522 1523 3353 11913 9345 11283 11060 6292 
10 2057 1979 1978 995 7985 7723 7984 12358 11813 12359 
10 376 1459 1285 548 9323 6102 9325 3162 11885 10877 
10 1304 1477 1303 566 6153 6154 5637 10475 8842 11360 
10 919 1873 1094 920 10099 10349 4859 4294 11783 4860 
10 1784 1625 1785 878 7085 7089 7090 11949 11467 10182 
10 2035 1947 1948 1145 7909 7621 7908 10720 10719 12247 
10 1009 1786 1008 1911 8953 11958 4592 10163 7506 10164 
10 1133 2050 1123 2012 11729 10563 5126 11690 7955 10593 
10 1672 1577 1717 852 6734 6867 7031 11906 12290 11488 
10 1122 1133 1123 2012 5211 5126 4962 10015 11690 10593 
10 207 517 350 1428 3066 12190 7719 8943 12360 6006 
10 1729 818 652 819 11619 3972 9854 9713 3976 3974 
10 1566 1731 654 1567 6909 12351 11114 6424 6908 12361 
10 1394 1566 654 1567 6419 11114 12175 6423 6424 12361 
10 1909 1007 1110 1006 9203 4922 8762 12210 4586 4921 
10 685 518 1600 1428 3569 9988 9989 12354 8942 6518 
10 1564 1392 1565 652 6413 6417 6418 9853 12274 9855 
10 334 1410 335 192 5954 5955 2494 5072 11946 5023 
10 2086 1224 1125 1195 10481 5309 11954 11953 5317 5215 
10 1479 567 568 735 11518 3222 9423 11357 3726 3727 
10 1183 2052 1184 1109 9769 9770 5182 5178 10610 5180 
10 1353 444 1527 1526 10132 10134 6303 6299 10687 6304 
10 829 1743 667 1582 10554 11262 4006 12349 6945 10219 
10 1143 2068 1187 2025 10657 10656 5193 11837 8031 9944 
10 668 500 1582 667 3524 10217 11268 3525 3520 10219 
10 517 1599 1427 1428 12362 6515 12193 12360 6516 6008 
10 517 1599 1428 685 12362 6516 12360 3570 10534 12354 
10 2124 1146 2034 1210 12258 10003 8247 11719 5261 10002 
10 1887 986 845 1758 9486 4501 10917 7407 9791 9793 
10 1665 1812 1664 911 7176 7177 6715 9360 10049 12363 
10 1918 1018 1119 1017 12340 4949 10194 9824 4620 4948 
10 1918 1190 2078 1118 10192 10052 8071 10193 5199 12364 
10 1613 702 1899 1719 10637 9418 7470 6874 9419 7471 
10 866 703 1776 867 4125 12021 11129 4129 4127 8774 
10 1914 1788 1789 1011 7516 7102 7515 9366 9295 9297 
10 2078 1190 1189 1118 10052 5201 10053 12364 5199 5197 
10 1104 1166 1972 999 5106 10846 10788 4901 5105 10379 
10 1117 2002 1189 1118 8992 8991 5196 4947 11974 5197 
10 1000 1105 1905 1104 4903 9071 9072 4902 4905 10789 
10 2002 2078 1189 1118 8072 10053 8991 11974 12364 5197 
10 2002 1918 2078 1118 7809 8071 8072 11974 10193 12364 
10 1475 1643 731 1644 6650 12125 12218 6654 6655 12365 
10 1643 894 1644 1798 12366 12124 6655 7128 12223 7130 
10 1590 1636 1633 839 6631 6632 6624 12084 10465 9238 
10 418 132 417 1327 2768 2766 2770 9453 11925 12097 
10 132 275 417 1327 8583 12099 2766 11925 5705 12097 
10 1816 1036 1037 1932 8815 4677 12221 7570 8816 12222 
10 2023 1126 1197 2110 10751 5220 11988 8169 11252 11254 
10 1169 2020 1220 2090 12367 12067 5295 8839 8109 12343 
10 1170 2030 1904 1224 12028 8041 10776 5318 10482 12368 
10 1929 1034 1130 1033 9843 4987 10451 9844 4668 4986 
10 1167 1170 1904 1224 5123 10776 10778 5373 5318 12368 
10 2024 1227 2093 2118 11675 10680 8117 8223 12152 8248 
10 1683 1520 777 776 6766 12237 10707 10531 10532 3853 
10 1124 2030 1224 1125 9809 10482 5308 5124 11764 5309 
10 1046 1828 1829 929 9982 7230 9409 4702 12101 10664 
10 2028 1203 1205 2105 10045 5244 10047 8228 11297 11956 
10 1089 1091 1987 1200 5114 12370 12369 5233 5234 11653 
10 1107 2107 2064 2066 11778 8263 11780 11120 8160 8037 
10 638 854 1549 1712 4075 12371 8791 11589 11816 6853 
10 1707 946 1845 945 11316 9006 7281 9049 4380 10363 
10 1149 1953 1150 1058 11975 11766 5047 5043 10005 5045 
10 533 1444 361 1270 11549 10208 3117 12372 6057 10209 
10 1073 2046 1160 1161 10704 12333 5081 5083 11952 5085 
10 1209 2081 2060 2085 10576 8085 10849 11797 8097 8098 
10 1858 1962 1857 1070 7664 7665 7318 11544 11730 11541 
10 1988 1086 1175 2076 11727 5146 10800 8009 11670 11671 
10 954 1997 1916 1062 9569 7790 9568 4829 10174 10173 
10 1957 1067 958 1855 11132 4763 10030 7646 10145 11609 
10 1027 906 905 1807 4646 4252 4645 9370 8909 9626 
10 1806 1027 1807 2006 12242 9370 7163 7548 12261 7547 
10 1806 1027 905 1807 12242 4645 9625 7163 9370 9626 
10 1977 1873 1094 1978 7713 10349 11660 7717 7715 10351 
10 534 1444 361 533 11548 10208 3119 3121 11549 3117 
10 2112 2140 1253 2126 8355 11401 11741 8233 8348 11402 
10 895 1645 1800 896 8883 7137 9976 4214 8885 9957 
10 1179 1223 2085 1209 5304 11798 12068 5289 5303 11797 
10 1247 1188 2078 1189 5405 9696 9697 5406 5198 10053 
10 692 1422 1593 511 11932 6498 9717 3591 12073 9014 
10 2123 1251 1255 2121 11442 5439 10958 8211 11443 12328 
10 950 1091 1084 1885 4848 4849 4817 9864 11912 9866 
10 1797 1014 1995 889 9783 12038 7779 11164 4606 12039 
10 1980 1876 1039 1877 7724 11157 11155 7725 7376 11536 
10 890 1797 1796 1640 9784 7127 11171 11150 7124 7123 
10 1880 956 1945 1893 10107 10905 7611 7463 12373 7612 
10 602 1511 1512 1338 8944 6259 11025 12374 6254 6258 
10 748 1491 747 1657 10962 11566 3767 9401 6690 9402 
10 1236 2063 1254 1175 11936 12213 5434 5361 10801 5432 
10 1819 992 1933 1849 10961 11124 7574 7294 9216 7575 
10 1718 994 1713 1849 8851 10829 6870 7429 9217 7293 
10 1876 973 1050 1039 11903 4714 11156 11157 4682 4842 
10 2067 1166 1972 2051 10786 10846 8024 8023 10847 7958 
10 1876 971 973 1746 12296 4460 11903 7371 11651 11902 
10 1104 1905 2051 2017 10789 7957 10787 11707 7856 7959 
10 1304 252 394 1303 5636 11236 10476 5637 5632 12115 
10 1620 710 709 1450 11382 3654 9837 6584 10156 10061 
10 1940 2026 1939 1140 7882 7883 7595 9927 9928 11241 
10 1201 1139 1138 2022 5238 5011 5237 9660 11973 9661 
10 1940 1939 1043 1140 7595 10056 10077 9927 11241 5012 
10 1236 2063 1175 2076 11936 10801 5361 10200 8011 11671 
10 1949 941 1055 940 9473 4729 9559 9474 4365 4728 
10 947 1709 1708 1846 9065 6846 9066 11021 7283 7284 
10 1150 1194 1151 2038 5272 5273 5050 10447 10431 12375 
10 429 1511 602 1338 11279 8944 3320 11280 6254 12374 
10 2147 1240 1252 2137 10385 5426 11217 8365 10848 11511 
10 1960 1854 1957 1066 7658 7647 7660 10319 10027 10028 
10 1210 1144 2102 2124 5342 10250 9549 11719 8812 8216 
10 1894 2013 1992 1082 7841 7842 7823 10068 11682 11238 
10 896 734 733 1646 4213 3725 4212 8766 8765 12162 
10 1192 2122 1191 1250 12214 11794 5207 5416 12238 5415 
10 1254 1261 1263 2119 5477 5506 5502 10884 11693 11695 
10 1223 2085 2117 2144 11798 8192 10759 10758 8318 8319 
10 1200 2063 2062 1987 10803 8008 11689 11653 8006 8004 
10 503 1412 502 194 9755 9675 3028 3027 8923 3023 
10 1210 2102 2135 2124 9549 8218 9551 11719 8216 8217 
10 1222 1223 2117 1259 5306 10759 10768 5510 5462 10761 
10 2040 1156 2088 2044 11135 12211 8104 7939 10414 8105 
10 1597 805 1756 843 11562 9727 6982 11561 4042 10375 
10 1232 2144 2131 1252 11802 8338 9723 5425 11686 9724 
10 1572 659 1736 1571 11077 12229 6923 6439 11274 6924 
10 2039 2083 1152 2042 8137 8820 8818 8067 8094 11754 
10 948 1916 1061 1062 11807 12128 4749 4751 10173 4750 
10 1233 2153 2128 2104 12376 8366 9438 9437 8367 8339 
10 1953 1150 1059 2038 11766 5046 11474 7920 10447 12377 
10 820 1861 1730 964 12378 7326 11857 4432 12347 11850 
10 730 1474 1642 1643 9132 6647 10522 10521 6651 6652 
10 2101 2072 1154 2083 8220 10674 10571 8144 8092 8819 
10 1854 1724 813 1723 7304 11509 12332 7305 6889 9606 
10 646 1559 1558 1723 9144 6400 10008 9607 6884 6885 
10 1233 2103 2047 2104 9436 8149 12379 9437 8152 8150 
10 1245 1201 2142 1238 5436 9945 9946 5490 5380 12339 
10 1161 2046 1160 2104 11952 12333 5085 11823 8151 10508 
10 1861 820 965 964 12378 4434 9668 12347 4432 4436 
10 101 387 245 1296 2675 10605 8522 10968 10925 5611 
10 1183 2134 1182 1244 12380 12381 5179 5398 12382 5397 
10 1938 1139 1939 2022 11664 10054 7592 7870 11973 7869 
10 1243 2134 2150 1244 12338 8340 12192 5399 12382 12383 
10 2136 1135 2116 2069 8934 8936 8414 8280 11567 8191 
10 927 774 1681 775 4312 11302 10714 4313 3847 11987 
10 1691 1528 1692 784 6790 6794 6795 11801 11408 9914 
10 1159 1218 1160 2045 5286 5287 5082 12384 10505 10506 
10 1826 926 1681 1827 10463 11384 7219 7224 10153 7223 
10 1038 921 1937 922 4678 12088 12330 4679 4299 11638 
10 924 1042 1824 1041 4689 9267 8809 4687 4691 8808 
10 1181 2015 1180 2087 9651 10409 5173 8869 8103 12282 
10 605 1341 432 1514 11007 12139 3329 8881 6263 10999 
10 1097 1187 1996 1101 5192 9943 12385 4893 5191 9940 
10 1795 695 597 807 9096 3602 11269 9097 3939 3940 
10 1078 1135 1994 1079 5001 10753 10277 4801 5000 10261 
10 393 1303 108 251 12119 12114 2694 11411 5633 8535 
10 1871 1088 1083 885 12386 4833 10669 10539 4831 4816 
10 1254 2063 2120 2119 12213 8199 9247 10884 8198 8201 
10 1209 2081 2085 1179 10576 8097 11797 5289 10195 12068 
10 2070 1918 2071 1119 8062 8060 8061 10460 10194 11785 
10 2070 1190 2078 1918 10070 10052 8073 8062 10192 8071 
10 2140 2098 2089 1198 8300 8134 8299 12387 10477 10301 
10 1496 585 413 1323 11828 3271 11830 6210 11879 10998 
10 1199 2138 2106 2089 10894 8291 10257 10345 8292 8159 
10 2123 1221 2121 2017 8799 11441 8211 8210 8800 8204 
10 2145 2138 1237 2140 8342 9374 10750 8356 8301 12301 
10 1130 2019 1129 1228 9310 9311 4988 5322 12161 5321 
10 1243 1181 1242 2151 5394 5393 5396 11093 10822 10406 
10 2140 1198 1237 1253 12387 5376 12301 11401 5430 5431 
10 2140 1262 1253 1237 12300 5509 11401 12301 5500 5431 
10 2149 2087 1242 1180 8333 10823 10405 10957 12282 5392 
10 1262 1242 2141 1257 5498 10407 11811 5492 5483 12388 
10 244 101 245 1296 8521 8522 2402 5612 10968 5611 
10 1392 30 482 1391 5901 12207 10964 5902 5897 11939 
10 529 356 1266 357 3105 9578 9580 3106 2586 11587 
10 1522 440 1349 1523 11913 11061 6287 6292 11060 6291 
10 2034 1210 2135 2124 10002 9551 8236 8247 11719 8217 
10 1522 440 613 612 11913 3353 9345 11336 3351 3355 
10 1498 587 755 754 10586 3786 11405 10587 3784 3788 
10 1266 71 357 356 11309 2584 11587 9578 2582 2586 
10 1471 1297 559 1470 6136 12389 8833 6137 6132 8834 
10 112 255 1307 256 8543 5645 9255 8544 2413 5644 
10 1265 356 214 1266 9577 12310 5517 5522 9578 5521 
10 1705 943 798 1843 8973 4370 9053 7275 8772 8770 
10 1161 1234 2047 1233 5348 11635 9908 5346 5350 12379 
10 1984 1179 1983 2081 10574 10196 7740 8084 10195 8083 
10 990 1883 1755 1884 9705 7396 10880 9690 7400 7398 
10 1449 540 1450 709 9491 11472 6076 10060 3650 10061 
10 1463 1293 1294 384 6114 5607 6113 8855 8853 10934 
10 1621 710 1620 1450 10154 11382 6589 6588 10156 6584 
10 1466 598 1292 383 11137 8862 6120 11396 3310 8864 
10 1591 851 1653 1610 12031 12234 7032 6559 10074 7033 
10 451 1534 1360 623 9030 6324 9031 3384 10442 12390 
10 1133 2125 2012 1193 11683 8226 11690 5294 11792 11691 
10 1452 1451 711 1622 6082 11112 9464 6590 6591 9465 
10 995 1094 1978 1173 4862 10351 12359 5136 5137 12391 
10 1621 873 710 874 11381 4146 10154 11743 4150 4148 
10 875 1782 1781 1004 11841 7081 11941 4576 11708 11710 
10 1001 1779 1778 1924 9262 7072 9263 11271 7543 7544 
10 539 708 1449 1448 3647 11233 9489 12392 8865 6073 
10 1534 1533 1360 623 6325 6320 6324 10442 11038 12390 
10 1036 1931 1035 1132 8814 10921 4674 4993 11629 4992 
10 723 556 1637 724 3692 9639 9009 3695 3693 9010 
10 2056 1207 1173 1094 12356 5256 12204 11661 5253 5137 
10 765 858 1508 528 4086 9159 9160 3818 4085 9167 
10 1000 1001 1924 1105 4568 11271 9074 4903 4904 9073 
10 1289 380 1462 1288 11531 11886 6110 5591 11631 6111 
10 1410 1409 1582 500 5956 6465 6466 10080 10216 10217 
10 1874 829 830 1744 10096 4010 12277 7365 11944 12275 
10 1755 1596 1754 850 6979 6977 6981 11553 12306 9703 
10 952 1741 885 1868 10023 10540 4397 10024 7348 11658 
10 380 552 1462 1288 3174 12393 11886 11631 11983 6111 
10 739 1652 740 1483 9433 12206 3743 9435 6678 9683 
10 1740 952 828 987 10022 4396 12241 11213 4519 4520 
10 1473 561 1472 1299 11320 9330 6143 6142 11159 6138 
10 1300 391 562 390 11228 3203 9088 11224 2689 3202 
10 1474 730 1642 1473 9132 10522 6647 6146 11370 6648 
10 666 1742 699 721 12185 12269 3621 3685 11847 3687 
10 1203 2105 1204 1205 11297 12286 5245 5244 11956 5246 
10 1370 462 321 1371 9058 8887 5834 5839 9059 5838 
10 1298 103 246 247 11107 8525 5618 5617 8526 2404 
10 681 1595 1596 850 9286 6508 9515 4061 9287 12306 
10 598 1466 555 383 11137 10950 3311 3310 11396 3182 
10 1084 1885 1986 1884 9866 7748 9901 9093 7403 7747 
10 1298 1471 560 1472 6135 9856 12394 6139 6140 12395 
10 1298 389 1299 1472 11108 11145 5622 6139 11158 6138 
10 1104 1905 999 1972 10789 12396 4901 10788 7696 10379 
10 566 565 1303 394 3216 11359 11360 3214 3212 12115 
10 870 706 1618 707 4136 11528 11921 4137 3645 8847 
10 2079 2003 1116 2080 8075 10813 11705 8221 8222 10811 
10 473 21 47 1382 11116 2535 2937 11117 5870 11839 
10 2017 2015 1105 1924 7857 10410 10773 7855 7852 9073 
10 1905 1777 999 1972 7491 10381 12396 7696 7694 10379 
10 565 393 1303 394 3211 12119 11359 3212 2698 12115 
10 1014 2003 1116 1015 10837 10813 4939 4611 10838 4940 
10 642 1555 1382 1554 9691 6387 12171 9692 6388 6383 
10 2003 1117 1116 1015 10982 4944 10813 10838 4942 4940 
10 1324 129 415 414 11876 2759 10486 11175 2757 2761 
10 1306 255 1307 397 5641 5645 5646 11908 10478 12285 
10 329 495 494 1404 9572 3004 10502 5938 10513 10503 
10 1310 259 115 258 5653 8550 11380 5654 2416 8549 
10 1029 1126 1127 2023 4972 4976 4974 12355 10751 11185 
10 400 114 258 115 2714 8548 11177 2715 2265 8549 
10 1612 838 1767 1591 9239 12324 7051 6563 9240 7050 
10 1810 1925 1809 1030 7549 7550 7172 10690 11770 11985 
10 400 1310 401 115 11379 9931 2719 2715 11380 2717 
10 270 1322 1321 412 5690 5691 5686 12001 11188 11717 
10 2098 1198 2018 2089 10477 10302 8132 8134 10301 8107 
10 355 213 356 70 12082 12081 2583 2580 8604 2581 
10 594 595 423 1332 3303 3301 3299 10328 9478 9480 
10 1435 424 1333 282 11102 10868 6029 6028 10869 5722 
10 762 1671 1505 1670 9754 6732 11373 11374 6733 6728 
10 279 136 421 135 8591 2778 9414 8590 2286 2777 
10 1926 1925 1127 2018 7553 11184 11771 7858 7859 11186 
10 1321 411 269 126 10898 11875 5687 11716 2748 8571 
10 1926 1127 1030 1031 11771 4975 11769 11715 4977 4659 
10 1111 1185 2007 1110 5184 9762 12397 4926 5183 8763 
10 1031 1128 1926 1127 4980 12276 11715 4977 4982 11771 
10 2024 2093 1138 2022 8117 9659 11594 7876 8116 9661 
10 424 1333 423 595 10868 9479 2788 3302 9477 3301 
10 472 46 20 47 2934 2533 9138 2935 2195 2534 
10 875 712 711 1622 4152 3660 4151 10932 9463 9465 
10 1509 1335 1336 427 6249 5734 6248 8933 8931 11895 
10 694 1462 1464 1334 11887 6537 10647 9511 6538 6116 
10 439 1347 1521 1348 11749 6285 11335 10721 5770 6284 
10 1348 1522 439 1349 6288 11337 10721 5773 6287 11914 
10 1680 1517 773 1516 6757 12018 10755 6758 6274 12398 
10 607 1344 1343 1517 10543 5758 8964 11506 6272 6273 
10 1513 431 1339 1340 9278 9279 6261 6260 11922 5746 
10 1790 1750 883 1631 7381 10126 10738 7103 7106 9282 
10 1258 1238 1239 2146 5457 5480 5450 11809 10467 12254 
10 1632 853 1750 1631 11389 10125 7035 6622 12399 7106 
10 613 1687 1523 1686 9538 6779 11283 9346 6780 6775 
10 924 925 1679 1824 4308 10490 12400 8809 11599 7213 
10 1521 1347 439 611 6285 11749 11335 11419 11750 3348 
10 1212 2037 1213 1149 11551 10433 5271 5267 11977 5269 
10 659 825 1736 1571 3993 9689 12229 11274 12401 6924 
10 1356 620 447 1357 11339 3374 10530 5797 9039 9269 
10 1529 446 1356 619 10088 10528 6308 10285 3371 11348 
10 506 341 507 1417 9420 10013 3040 11840 5975 9540 
10 310 167 311 1360 8470 8471 2469 5805 11069 5804 
10 483 653 1393 1565 3476 12402 9187 11701 10514 6416 
10 305 1354 304 161 5786 5787 2463 8459 10937 8458 
10 312 1361 311 168 5807 5808 2470 8473 8980 8472 
10 783 616 782 1690 3869 3867 3871 11235 11227 12061 
10 484 653 1393 483 3477 12402 9293 2972 3476 9187 
10 795 1702 940 1840 10830 10479 4361 9993 7266 9476 
10 1706 1542 1543 632 6836 6352 6835 11345 10369 12060 
10 653 1566 1393 1565 11113 6420 12402 10514 6421 6416 
10 230 1282 1281 373 5569 5570 5565 8843 8844 9966 
10 627 1537 1701 1538 9499 6821 11721 11722 6337 6820 
10 1058 1057 1149 1952 4739 5042 5043 10006 11831 11976 
10 1750 853 883 1631 10125 4506 10126 7106 12399 9282 
10 1264 213 69 212 5515 8603 12164 5516 2369 8602 
10 653 484 1393 1566 3477 9293 12402 11113 9292 6420 
10 528 494 1404 524 3103 10503 12251 3104 3088 9077 
10 1128 1198 2018 1127 5228 10302 10757 4982 5227 11186 
10 70 213 69 355 8604 8603 2219 2580 12082 2579 
10 1264 140 355 425 9466 3086 11475 9467 2790 3181 
10 1436 528 1404 524 12209 12251 6033 9076 3104 9077 
10 494 524 15 1404 3088 9075 10501 10503 9077 5937 
10 15 524 494 14 9075 3088 10501 2521 3089 3001 
10 2101 1194 1215 2100 10430 5279 11767 8143 10432 11397 
10 1137 2118 2073 1186 12151 8195 11063 5365 11984 12272 
10 1379 554 1550 1378 10020 11258 6382 5863 10021 6374 
10 1375 466 182 326 11030 2916 11029 5849 10942 8499 
10 1711 638 1548 1712 10091 8790 6850 6855 11589 6854 
10 468 1377 1378 16 9523 6031 9522 10035 6030 5860 
10 1549 854 638 639 12371 4075 8791 12231 4072 3434 
10 1392 57 482 30 9142 2965 10964 5901 2554 12207 
10 2037 1212 1213 2096 11551 5271 10433 8125 10909 9960 
10 479 1388 1389 27 10858 5893 8957 10859 5888 5892 
10 481 56 29 1391 2962 2552 11993 11937 11938 5898 
10 54 479 1389 27 2956 8957 12403 2548 10859 5892 
10 481 651 1391 1563 3470 11123 11937 10473 9107 6410 
10 558 1469 1470 1296 9813 6134 10912 10926 6129 6133 
10 239 2 42 3 8508 2525 5596 2396 2162 2190 
10 68 1403 42 41 10608 5933 2577 2576 5934 2189 
10 1205 2028 2029 1142 10047 7893 12404 5247 10046 11538 
10 1106 2066 1107 1003 11286 11120 4914 4910 12126 4912 
10 1399 490 659 489 9620 3495 11273 9621 2990 3494 
10 1107 1108 2066 2064 4917 11118 11120 11780 10598 8037 
10 99 385 1294 384 2669 12076 12405 2667 2671 10934 
10 1724 1559 1560 647 6888 6403 6887 11423 9145 9851 
10 1562 649 1561 1389 10062 9635 6409 6408 8958 6404 
10 648 814 1560 647 3960 11422 9850 3463 3959 9851 
10 1587 505 672 673 8758 3535 9015 9934 3539 3540 
10 1748 832 833 1586 12350 4019 11866 6959 12348 12406 
10 33 59 60 485 2559 2208 2560 9894 2973 2974 
10 1862 1863 1074 966 7333 9398 9399 9188 9198 4785 
10 784 785 1692 861 3877 9913 9914 4337 4121 10404 
10 1055 1146 1147 2034 5034 5038 5036 9493 10003 9495 
10 574 1486 403 1312 12225 11514 3239 12302 6181 9318 
10 1308 398 256 113 9386 9254 5648 9387 2709 8545 
10 118 1313 261 403 12163 5663 8555 2724 11265 9320 
10 1121 1192 1193 2014 5206 5210 5208 9978 12181 11319 
10 825 659 658 1571 3993 3496 3992 12401 11274 12077 
10 1268 358 73 359 8878 2588 11330 8877 2592 2590 
10 1267 1441 358 1268 6049 8876 11313 5528 6048 8878 
10 1254 2063 2062 1200 12213 8008 10883 5433 10803 11689 
10 1106 2066 1003 1906 11286 12126 4910 11287 8021 10650 
10 224 1276 367 82 5551 11385 11774 8626 11970 2615 
10 1598 1597 1756 843 6514 6982 6983 10693 11561 10375 
10 1243 2134 1244 1182 12338 12382 5399 5395 12381 5397 
10 2146 1214 1239 1258 12256 5383 12254 11809 5449 5450 
10 2160 94 95 380 12071 2244 8693 11461 2653 2654 
10 1631 1460 1461 720 6618 6109 6617 9284 11390 10853 
10 576 1488 405 1314 12117 12407 3245 10660 6187 8900 
10 1488 576 405 577 12117 3245 12407 11869 3249 3247 
10 1290 1289 381 1334 5594 9183 8733 5728 6536 9513 
10 1597 683 1598 1426 11559 11560 6514 6510 9213 6512 
10 1177 1084 1985 1165 5151 9902 12159 5152 4876 10520 
10 508 11 10 526 12313 2522 3041 3095 12319 3094 
10 683 516 1598 1426 3563 11091 11560 9213 9214 6512 
10 1476 732 1475 564 9349 12217 6152 9350 3717 9819 
10 562 561 1299 390 3204 11159 9090 3202 3200 11225 
10 1425 682 515 514 9711 3560 9227 9610 3561 3062 
10 1420 199 200 342 9128 2354 10178 5982 7983 7982 
10 1486 1768 742 575 7028 10594 11620 11515 10595 3748 
10 200 343 1420 342 7981 5983 10178 7982 2504 5982 
10 1420 200 1421 343 10178 10176 5987 5983 7981 5985 
10 1597 683 1426 515 11559 9213 6510 9229 3564 9215 
10 578 1489 746 1490 12089 12409 3759 12408 6194 9861 
10 272 1323 271 128 5692 5693 2429 8576 9412 8575 
10 832 1746 1747 973 12201 6958 12284 4458 11902 11904 
10 1495 583 1494 1321 11194 10895 6209 6208 10896 6204 
10 123 266 1318 267 8565 5678 9457 8566 2424 5677 
10 1496 585 752 584 11828 3778 11321 11829 3273 3777 
10 1322 127 413 412 10329 2753 10330 11188 2751 2755 
10 209 1430 353 520 10662 6013 5513 3076 10093 11299 
10 210 354 1431 353 5504 6016 9224 5512 2515 6015 
10 521 354 1431 210 10525 6016 9223 3079 5504 9224 
10 2147 1240 2100 1215 10385 9959 8327 11458 5387 11397 
10 1779 873 1620 1780 10927 9836 7070 7075 10929 7074 
10 587 415 1325 416 3277 12170 8928 3278 2764 11469 
10 1156 1216 2088 1215 5280 11140 12211 5278 5282 11398 
10 148 290 1340 291 8432 5745 11924 8433 2449 5744 
10 2113 1173 1248 1226 12203 5409 11806 9556 5314 5408 
10 1665 1664 755 911 6715 11406 10459 9360 12363 4265 
10 932 1686 779 931 8983 8978 4327 4329 8977 4325 
10 543 1452 712 1453 12410 9462 3659 12224 6085 10495 
10 1149 1953 1058 1952 11975 10005 5043 11976 7636 10006 
10 877 1784 1624 1783 10612 7086 11775 10614 7087 7082 
10 314 1364 172 315 5817 10516 8478 2473 5816 8479 
10 341 506 1416 1417 9420 12183 5973 5975 11840 5977 
10 2157 1243 1239 1257 11464 5471 10384 10382 5484 5444 
10 2157 2115 1219 1239 8385 12288 10383 10384 12255 5384 
10 1562 649 650 816 10062 3469 9565 10128 3965 3966 
10 1632 1464 599 856 6623 8829 11720 10294 12144 4090 
10 539 538 1448 1275 3136 9288 12392 9786 11596 6068 
10 1544 633 634 800 9056 3418 9057 8752 3920 3921 
10 321 178 1370 320 8490 9067 5834 2479 8489 5835 
10 1449 539 1448 1275 9489 12392 6073 6072 9786 6068 
10 380 694 381 1334 3596 3597 2659 11532 9511 9513 
10 1199 2138 2089 1237 10894 8292 10345 5377 9374 12411 
10 2140 1198 2089 1237 12387 10301 8299 12301 5376 12411 
10 201 512 511 1422 3052 3053 3048 9731 9730 12073 
10 2138 2140 2089 1237 8301 8299 8292 9374 12301 12411 
10 2112 2056 1248 2113 8177 10279 9630 8181 8179 11806 
10 673 1587 834 672 9934 9932 4020 3540 9015 4021 
10 832 1746 973 831 12201 11902 4458 4016 8872 4459 
10 844 1599 685 1758 12189 10534 4043 9792 6988 10535 
10 1422 1421 1593 511 5990 6497 6498 12073 9012 9014 
10 1474 563 391 1301 9131 3205 10557 6144 12412 11206 
10 1893 956 1945 955 12373 10905 7612 9153 4409 10306 
10 530 1267 1266 1605 11306 5525 12196 9394 6532 6533 
10 1266 71 356 214 11309 2582 9578 5521 8606 12310 
10 529 530 357 1266 3109 3107 3106 9580 12196 11587 
10 530 1605 1266 529 9394 6533 12196 3109 11308 9580 
10 1475 563 392 564 11251 3206 9818 9819 3210 3208 
10 360 533 361 1270 3116 3117 2598 12413 12372 10209 
10 563 1474 1475 1301 9131 6149 11251 12412 6144 6148 
10 1280 543 1453 1279 10220 12224 6083 5564 9026 6084 
10 538 1447 1448 1274 12002 6070 9288 11187 6065 6069 
10 1183 2109 1244 1184 9771 12414 5398 5182 9772 5467 
10 1334 141 142 381 12415 2293 9512 9513 2658 2794 
10 143 426 285 142 2796 12416 8422 2294 2795 8421 
10 1591 851 678 838 12031 4066 11267 9240 4079 4030 
10 1790 1630 1631 883 7104 6619 7103 10738 11901 9282 
10 1460 1630 1459 549 6614 6615 6106 9106 9321 10012 
10 1311 1485 402 1312 6178 12208 11680 5661 6177 12303 
10 250 1301 249 106 5626 5627 2407 8532 11207 8531 
10 248 1300 1299 390 5624 5625 5620 12417 11224 11225 
10 1298 389 247 1299 11108 11147 5617 5622 11145 5621 
10 574 1485 1486 1312 9525 6182 12225 12302 6177 6181 
10 572 1484 1483 740 11491 6176 9682 3741 10799 9683 
10 1309 1482 1308 399 6168 6169 5652 9357 10948 9388 
10 118 1313 403 404 12163 11265 2724 2726 11263 2728 
10 2130 1256 1218 2153 11435 5443 12418 8373 11436 12419 
10 116 1311 259 401 11679 5657 8551 2718 11182 11181 
10 2085 1222 1223 2117 11796 5306 11798 8192 10768 10759 
10 1326 275 417 131 5701 12099 12096 10129 8582 2765 
10 1322 1495 412 584 6207 11195 11188 11189 11196 3268 
10 127 1322 270 412 10329 5690 8573 2751 11188 12001 
10 1486 574 403 575 12225 3239 11514 11515 3243 3241 
10 1323 413 271 128 10998 10331 5693 9412 2754 8575 
10 1324 587 415 1325 10485 3277 10486 5700 8928 12170 
10 138 424 139 282 2786 2787 2289 8596 10869 8597 
10 1342 606 434 1343 10579 3333 12308 5755 8963 8965 
10 277 134 1329 419 8587 9428 5711 12026 2772 9430 
10 2111 1225 2091 2051 10779 10783 8175 8260 10891 8397 
10 2156 1256 2143 2148 12046 11437 8346 8381 12111 8387 
10 956 1064 1945 955 4755 10422 10905 4409 4754 10306 
10 841 1610 1654 851 12280 7046 12252 4111 10074 10072 
10 1269 1443 360 1270 6054 12036 11315 5534 6053 12413 
10 1689 616 782 615 11613 3867 8950 10746 3364 3866 
10 444 1353 443 1526 10132 10728 2852 10687 6299 9508 
10 1443 1444 533 1270 6058 11549 10790 6053 6057 12372 
10 1621 1781 1780 874 7077 7078 7073 11743 11942 11744 
10 765 1606 1508 1713 12215 6541 9160 9162 6857 6858 
10 1839 794 940 939 12420 4360 10480 10938 4358 4362 
10 1211 1210 2135 1147 5265 9551 10493 5263 5262 10494 
10 528 1606 1436 1508 12421 6540 12209 9167 6541 6245 
10 1361 312 1362 452 5807 5811 5812 8981 8979 9936 
10 1003 1781 1780 1906 12422 7078 10649 10650 7492 7493 
10 17 1379 470 18 5862 10000 10001 2165 5861 10215 
10 325 1374 181 465 5846 11800 8497 8713 8714 2913 
10 360 1443 533 1270 12036 10790 3116 12413 6053 12372 
10 1630 1629 1459 718 6616 6611 6615 9303 10428 11884 
10 1707 946 800 1708 11316 4378 8751 6843 8749 8748 
10 542 1278 1279 370 10918 5561 9027 3144 12423 9028 
10 549 1630 1459 718 9321 6615 10012 3677 9303 11884 
10 1200 1178 2062 1235 5235 11687 11689 5451 5353 10885 
10 437 609 1345 436 3342 11654 9761 2831 3341 9666 
10 1812 910 1664 911 10115 12131 7177 10049 4267 12363 
10 517 1427 350 1428 12193 6004 12190 12360 6008 6006 
10 1887 1886 986 1758 7409 9487 9486 7407 7405 9791 
10 1531 620 787 1530 9091 3881 9653 6316 11044 10303 
10 1694 1531 787 1530 6799 9653 8726 6800 6316 10303 
10 230 87 373 372 8637 2632 8843 11332 2630 2634 
10 228 85 86 371 8633 2235 8634 11503 2626 2627 
10 1542 1705 1541 631 6832 6833 6349 9050 9051 9206 
10 1671 762 700 1818 9754 4507 9459 7194 10362 9114 
10 1441 530 1267 358 10370 11306 6049 8876 3108 11313 
10 332 1408 333 190 5948 5949 2492 5099 12424 5079 
10 1265 596 356 529 12425 3586 9577 9579 3606 3105 
10 1452 543 712 542 12410 3659 9462 10919 3148 3658 
10 371 1280 544 372 10221 10222 3149 2631 12107 3150 
10 541 1451 711 542 9767 11112 3655 3145 11718 3656 
10 387 1297 245 1296 10603 5615 10605 10925 5616 5611 
10 226 1278 369 84 5557 10965 11768 8630 12322 2621 
10 1276 367 82 368 11385 2615 11970 11602 2619 2617 
10 640 1553 1552 1380 9596 6381 12426 11508 6379 6378 
10 380 552 694 1462 3174 3599 3596 11886 12393 11887 
10 144 286 427 1336 8424 11883 2800 12427 5733 11895 
10 1335 286 1336 427 5729 5733 5734 8931 11883 11895 
10 877 1625 878 714 11776 11467 4162 4158 11861 4160 
10 545 373 372 1281 3153 2634 3152 9965 9966 11333 
10 107 1302 393 251 11242 11728 2693 8534 5629 11411 
10 105 1300 249 248 11230 5623 8530 8529 5624 2406 
10 1476 565 1303 1477 9348 11359 6150 6155 11358 6154 
10 101 387 1296 386 2675 10925 10968 2673 2677 9614 
10 640 1552 806 641 12426 12327 3937 3442 9858 3938 
10 1484 572 1310 573 11491 9930 6175 8987 3237 8988 
10 1309 400 258 1310 9358 11177 5650 5655 11379 5654 
10 574 1485 402 573 9525 12208 3238 3240 9526 3236 
10 1490 1489 746 1655 6194 12409 9861 6684 6685 9335 
10 19 472 1381 471 9137 12078 5868 12428 2936 12429 
10 1027 1973 1807 2006 9368 7698 9370 12261 7767 7547 
10 1471 1639 559 727 6639 8832 8833 9857 10190 3702 
10 1325 415 130 416 12170 2760 11468 11469 2764 2762 
10 1471 560 559 388 9856 3198 8833 12127 3196 3194 
10 134 420 278 1329 2774 10111 8588 9428 9429 5710 
10 418 1328 1327 1501 9452 5709 9453 10951 6225 6226 
10 915 1669 1668 1816 9427 6727 12314 12243 7188 7189 
10 241 1292 240 97 5599 5600 2398 8514 11760 8513 
10 1292 382 97 383 8863 2662 11760 8864 2665 2663 
10 1333 138 423 281 10867 2784 9479 5723 8595 12008 
10 595 594 1505 1332 3303 12352 12244 9478 10328 6237 
10 1859 1729 818 1728 7319 11619 11617 7320 6904 11539 
10 609 776 610 1519 3848 3849 3346 10774 10533 9019 
10 1678 772 1515 1679 12329 11191 6751 6756 10489 6755 
10 772 605 1515 606 3836 10935 11191 3837 3334 10580 
10 1682 928 927 775 9084 4317 9086 9257 4315 4313 
10 1071 1858 962 1070 9623 9999 4775 4777 11544 4773 
10 1676 1821 922 1822 7205 10239 10831 7208 7209 10256 
10 277 134 278 1329 8587 8588 2435 5711 9428 5710 
10 492 66 40 67 2994 2573 12430 2995 2215 2574 
10 255 112 1307 397 8543 9255 5645 10478 2706 12285 
10 307 1356 163 447 5792 10529 8463 9306 10530 2859 
10 109 1304 394 395 12157 10476 2697 2699 10474 2701 
10 112 398 1307 397 2708 9253 9255 2706 2710 12285 
10 162 1354 161 445 10936 10937 2313 2854 10264 2853 
10 1693 1529 1530 619 6797 6313 6796 11282 10285 11349 
10 1704 1540 630 1703 6830 10044 10043 6831 6826 10202 
10 1366 457 316 174 10794 9543 5823 10795 2890 8482 
10 173 1365 315 456 11893 5820 8480 2887 9497 10515 
10 455 627 1538 1537 3396 11722 9380 9171 9499 6337 
10 1303 252 108 251 5632 8536 12114 5633 2409 8535 
10 1414 1586 672 504 6478 10510 9016 9200 10511 3536 
10 398 1308 1307 570 9386 5649 9253 3226 9383 12148 
10 520 688 687 1602 3579 3580 3575 11292 11291 12180 
10 1881 1080 1983 1095 10142 11786 7737 12293 4864 12331 
10 906 1660 1659 1807 9631 6700 11366 8909 7161 7162 
10 16 469 468 43 10036 3101 10035 2526 2926 3090 
10 554 468 1378 469 3178 9522 10021 3179 3101 9970 
10 604 432 1340 1514 3327 11923 12431 8880 10999 6264 
10 479 1388 53 478 10858 10860 2955 2957 9733 2953 
10 1881 1080 1852 1983 10142 10143 7391 7737 11786 7736 
10 481 1390 480 650 10499 12033 2963 3468 10500 3467 
10 28 54 1389 27 2549 12403 5891 2175 2548 5892 
10 1964 2045 1963 1072 7941 8077 7672 10267 12268 12230 
10 1100 1179 1983 1095 5160 10196 10322 4890 5159 12331 
10 1165 1177 1209 1985 5152 5259 5260 10520 12159 12432 
10 726 1793 888 889 10983 11106 4189 4191 11470 4193 
10 2125 2122 2014 1193 8246 8207 8227 11792 11793 11319 
10 105 1300 248 390 11230 5624 8529 2685 11224 12417 
10 1192 1231 2122 1250 5418 11681 12214 5416 5441 12238 
10 604 431 1340 432 3326 11922 12431 3327 2816 11923 
10 859 692 1593 691 4094 9717 11294 4092 3592 11005 
10 684 516 1598 683 3567 11091 10591 3568 3563 11560 
10 1280 86 229 372 11978 8635 5562 12107 2629 11356 
10 1984 1165 1985 1882 11667 10520 7743 7739 10861 7741 
10 193 501 335 1411 3020 11947 5022 9678 8746 5957 
10 1507 677 1673 1638 10307 10361 6737 6637 10733 6738 
10 1421 200 510 511 10176 3045 10177 9012 3049 3050 
10 580 409 1318 1492 3257 9455 9062 10963 12433 6199 
10 345 202 512 1423 7972 3051 9729 5991 10411 10941 
10 343 1421 201 200 5985 12072 7980 7981 10176 2355 
10 1834 934 1774 1772 9765 11704 7482 7458 11864 7057 
10 1423 345 1422 512 5991 5989 5993 10941 9729 9730 
10 527 8 9 522 3098 2520 8919 3099 3081 11439 
10 745 1489 1769 1655 12434 7029 12337 11642 6685 7060 
10 697 1507 1673 1607 10360 6737 9140 9139 6545 6736 
10 708 539 538 1448 3647 3136 3646 8865 12392 9288 
10 1319 409 1492 1318 8895 12433 6198 5682 9455 6199 
10 81 224 1275 367 8625 5547 10180 2614 11774 9787 
10 877 1625 714 1624 11776 11861 4158 11775 6601 11363 
10 1003 1781 1906 1004 12422 7492 10650 4577 11710 12283 
10 1111 1911 1008 1910 11578 10164 4925 11391 7508 11392 
10 1459 1458 1285 548 6103 6098 6102 11885 10892 10877 
10 544 1280 1281 372 10222 5567 11995 3150 12107 11333 
10 90 233 89 375 8643 8642 2239 2639 10627 2638 
10 1227 2024 2093 1138 11675 8117 10680 5316 11594 9659 
10 1915 1970 1901 1081 7850 7813 7522 9124 10357 11275 
10 468 1550 467 554 9521 11556 2924 3178 11258 3180 
10 1799 894 1798 1644 11962 12223 7135 7134 12124 7130 
10 1478 734 1477 566 10865 8840 6158 12435 3723 8842 
10 2133 1177 1222 1235 9868 5301 10767 9869 5354 5355 
10 1478 567 734 566 10864 3724 10865 12435 3219 3723 
10 881 882 718 1629 4174 4172 4170 9986 10386 10428 
10 708 539 1449 709 3647 9489 11233 3651 3649 10060 
10 1513 604 1340 1514 11026 12431 6260 6265 8880 6264 
10 1330 420 1329 278 10990 9429 5715 5714 10111 5710 
10 110 396 111 254 2702 2703 2261 8540 10840 8541 
10 1702 794 795 940 12436 3907 10830 10479 4360 4361 
10 376 1459 548 549 9323 11885 3162 3164 10012 3166 
10 688 1603 1761 1602 12012 6998 11034 11291 6529 6997 
10 1328 277 1329 419 5707 5711 5712 10952 12026 9430 
10 561 389 560 1472 3199 3197 3201 9330 11158 12395 
10 55 1390 481 29 12032 10499 2961 2551 5894 11993 
10 415 129 273 130 2759 8578 11877 2760 2280 8579 
10 728 561 560 1472 3706 3201 3705 9329 9330 12395 
10 591 759 592 1503 3798 3799 3294 12136 11855 10542 
10 389 1298 560 1472 11108 12394 3197 11158 6139 12395 
10 429 145 1337 288 2805 11892 11088 11790 8427 5735 
10 1509 600 427 1336 11190 3314 8933 6248 11894 11895 
10 1504 593 760 592 11763 3802 9193 10541 3297 3801 
10 1498 587 1325 1499 10586 8928 6216 6221 8927 6220 
10 1522 1348 439 1521 6288 10721 11337 6289 6284 11335 
10 587 1498 1325 1324 10586 6216 8928 10485 6217 5700 
10 928 1828 1046 929 10462 9982 4701 4320 12101 4702 
10 1592 1751 1593 691 6968 6969 6499 11004 11430 11005 
10 622 1359 1533 450 10581 6321 11039 3381 10582 11072 
10 569 1480 1307 1306 10249 6162 12147 12156 6163 5646 
10 1496 1497 1662 753 6215 6704 6705 11322 8784 8785 
10 1513 431 1340 604 9278 11922 6260 11026 3326 12431 
10 1926 1128 2016 2018 12276 10756 7854 7858 10757 7860 
10 459 1541 458 631 10907 9208 2897 3408 9206 3407 
10 1661 908 1662 1809 9197 9069 6706 7168 11916 7167 
10 1029 1925 1809 1959 12198 7550 10312 10313 7657 7655 
10 591 420 1329 592 3290 9429 10415 3294 3292 12149 
10 1678 771 1677 1514 11486 11028 6753 6752 8882 6748 
10 771 604 1677 1514 3833 11027 11028 8882 8880 6748 
10 1696 622 789 788 11037 3887 11584 11451 3885 3889 
10 161 1353 1354 304 12437 5788 10937 8458 5783 5787 
10 1856 959 1956 1855 12094 10117 7644 7312 10144 7645 
10 2046 2045 1160 2104 7944 10506 12333 8151 8153 10508 
10 1685 1830 1684 930 7231 7232 6774 12058 9955 9021 
10 2072 2083 1990 1065 8092 8090 8046 10314 11260 10316 
10 484 59 1394 485 2971 9893 9294 2975 2973 9895 
10 1397 488 1570 657 10834 9644 6432 11052 3489 8891 
10 1684 930 1829 929 9021 9956 7228 9389 4323 10664 
10 1088 1871 1868 885 12386 7358 11881 4831 10539 11658 
10 1683 928 776 929 12102 4316 10531 10708 4320 4318 
10 671 503 1585 670 3533 9756 12318 3534 3529 11833 
10 1742 666 699 1581 12185 3621 12269 6942 10454 11261 
10 1423 1595 681 680 6503 9286 11673 9721 9720 3559 
10 10 1419 509 526 11002 11457 3044 3094 11353 3096 
10 930 1047 1829 929 4705 9408 9956 4323 4704 10664 
10 1080 991 1752 863 4809 10449 8971 4806 4536 8972 
10 990 1883 1754 1755 9705 7395 9706 10880 7396 6981 
10 959 1856 1956 1068 12094 7644 10117 4766 12281 10118 
10 442 1352 1351 1525 9584 5782 11016 9585 6296 6297 
10 1689 615 1688 1525 10746 9528 6786 6785 9530 6781 
10 1430 209 519 520 10662 3072 8756 10093 3076 3077 
10 1689 1526 615 1525 6784 11010 10746 6785 6301 9530 
10 1748 832 1747 974 12350 12284 6961 10135 4462 10137 
10 934 855 1774 1772 4344 11626 11704 11864 9127 7057 
10 1742 699 1743 1581 12269 10555 6946 6942 11261 6944 
10 1876 971 1746 1875 12296 11651 7371 7373 11648 7369 
10 1524 442 1351 1525 11465 11016 6293 6298 9585 6297 
10 1619 1779 872 1620 7071 9880 9879 6586 7070 9835 
10 1451 1452 711 542 6082 9464 11112 11718 10919 3656 
10 871 1001 1778 1000 4566 9263 9265 4564 4568 9801 
10 1779 1001 872 1002 9262 4567 9880 10928 4571 4569 
10 1617 706 1618 870 11526 11528 6580 11582 4136 11921 
10 226 83 369 1277 8629 2620 11768 5553 12053 10966 
10 1126 2023 2053 2110 10751 7965 10496 11252 8169 8170 
10 1255 2138 2121 1251 10748 8343 12328 5439 9373 11443 
10 633 1707 1543 799 9181 6839 11216 3918 9046 9048 
10 1749 833 1587 1748 10504 10067 6962 6964 11866 6960 
10 1543 1370 460 1369 6350 12167 12070 6351 5836 11202 
10 39 1401 1400 491 5928 5929 5924 10682 10171 10348 
10 2063 1254 1175 1200 12213 5432 10801 10803 5433 5236 
10 633 1544 1370 1543 9056 6354 9054 11216 6355 6350 
10 895 732 1644 1645 4209 12341 12123 8883 10979 6658 
10 1542 631 459 632 9050 3408 11201 10369 3412 3410 
10 633 1370 460 1543 9054 12167 3413 11216 6350 12070 
10 741 838 742 1653 4233 4234 3749 12438 12323 11621 
10 1380 19 471 18 5864 12428 12439 5865 2166 12440 
10 123 409 124 267 2741 2742 2274 8566 9456 8567 
10 1484 1652 740 1767 6677 12206 10799 7025 7026 11517 
10 743 851 1768 742 4236 10073 10112 3752 4235 10594 
10 1551 1716 1609 840 6864 6865 6552 10124 8960 8961 
10 1531 1357 1358 621 6315 5800 6314 9092 9040 10602 
10 1564 651 1728 1563 11122 9109 6899 6415 9107 6900 
10 651 1564 1728 818 11122 6899 9109 3971 11979 11539 
10 19 46 471 18 2532 2932 12428 2166 2530 12440 
10 19 1381 1380 471 5868 5869 5864 12428 12429 12439 
10 1927 1928 1129 1032 7559 9313 9807 9806 11500 4983 
10 323 1373 463 180 5844 9210 11659 8494 11032 2908 
10 1740 1579 1578 828 6937 6458 6936 12241 11882 12441 
10 1023 1803 1802 1921 10229 7147 10231 11340 7535 7536 
10 622 1532 449 621 11454 12052 3380 3382 11456 3378 
10 1359 450 449 166 10582 2870 10583 11929 2868 2866 
10 882 1630 883 719 9275 11901 4177 4173 9304 4175 
10 19 472 471 46 9137 2936 12428 2532 2934 2932 
10 1685 1522 1686 779 6772 6776 6777 8976 9347 8978 
10 1830 1685 931 930 7231 8975 11818 9955 12058 4326 
10 1542 460 632 459 11200 3411 10369 11201 2900 3410 
10 1895 1848 977 1096 7437 9290 9291 12106 9862 4867 
10 1049 1944 1048 1134 8995 11820 4712 4997 8997 5027 
10 177 1370 460 461 11986 12167 2899 2901 9068 2903 
10 13 525 507 1437 11097 3093 10014 6035 12316 10057 
10 1608 1694 855 807 7344 9125 9126 9099 8724 4097 
10 1698 1535 1699 791 6811 6815 6816 11368 10274 11522 
10 981 847 982 1898 4481 4485 4486 11576 11575 12080 
10 1053 1838 1948 1054 9483 7620 12248 4727 10922 10857 
10 945 1845 1844 1954 10363 7282 10364 12442 7637 7638 
10 1374 1548 1547 465 6366 6367 6362 8714 9011 11417 
10 1381 642 1382 1554 11822 12171 5872 6384 9692 6383 
10 633 1543 460 632 11216 12070 3413 3415 12060 3411 
10 1577 693 525 1437 9078 3595 11086 6451 9080 12316 
10 1880 956 1853 1990 10107 10109 7388 7760 10904 7759 
10 466 1375 1548 1549 11030 6365 8792 8793 6369 6370 
10 641 1552 808 1554 9858 10323 3941 9860 6385 10324 
10 1370 177 178 461 11986 2329 9067 9068 2901 2902 
10 1016 2002 1889 1796 9829 7807 9830 11066 7808 7415 
10 651 818 1728 817 3971 11539 9109 3969 3973 9110 
10 1564 651 1391 482 11122 11123 6414 12037 3471 11939 
10 1565 653 1730 819 10514 12443 6906 9714 3975 9715 
10 1735 825 1736 1866 10518 9689 6925 7341 12444 7340 
10 1072 1073 964 1965 4783 4781 4779 11736 10706 11737 
10 336 193 1411 502 4979 9678 5958 9676 3024 9677 
10 1694 855 787 1695 9125 4340 8726 6804 11865 9654 
10 833 1586 1587 1748 12406 6482 10067 11866 6959 6960 
10 1694 855 1695 1772 9125 11865 6804 7247 9127 7246 
10 972 855 1774 934 4456 11626 9148 4457 4344 11704 
10 640 641 471 1380 3442 3440 3439 11508 12011 12439 
10 682 1425 1424 514 9711 5999 9698 3561 9610 9611 
10 855 1607 1774 1772 11331 7055 11626 9127 7045 7057 
10 697 855 1607 1774 4076 11331 9139 9141 11626 7055 
10 1423 512 680 513 10941 3556 9721 10342 3056 3555 
10 1595 842 1754 850 9285 9702 6976 9287 4062 9703 
10 853 883 1631 720 4506 9282 12399 4496 4176 9284 
10 1381 472 641 471 12078 3441 9859 12429 2936 3440 
10 1509 1632 599 853 7011 11720 8932 11388 11389 4069 
10 1335 143 427 426 12445 2799 8931 8830 2796 2801 
10 1630 719 1631 883 9304 9283 6619 11901 4175 9282 
10 921 1675 768 1890 12446 8947 4295 8781 7417 8782 
10 870 871 1618 1778 4141 8846 11921 9802 9265 7068 
10 1993 1102 1013 2065 10104 4898 11104 8016 10105 11981 
10 1625 1454 714 1624 6600 11362 11861 6601 6596 11363 
10 187 495 1405 496 3002 9573 9571 3006 3007 10440 
10 712 1623 876 713 9803 11911 4154 3663 12447 4155 
10 1185 1245 2084 1184 5401 10681 10685 5185 5400 9896 
10 1782 1005 875 876 11824 4578 11841 11910 4579 4156 
10 877 1783 876 1006 10614 8999 4159 4582 9000 4581 
10 1786 879 1626 1627 8954 9840 7092 7091 9841 6607 
10 46 45 471 18 2194 2931 2932 2530 2531 12440 
10 1003 1781 1004 874 12422 11710 4577 4573 11942 4575 
10 1874 919 1873 1978 10098 10099 7367 7716 10350 7715 
10 1737 1738 1637 984 6931 7015 7343 10198 12016 9008 
10 470 1380 471 18 12448 12439 2933 10215 5865 12440 
10 651 1564 652 482 11122 9853 3475 3471 12037 3473 
10 30 56 482 1391 2553 2964 12207 5897 11938 11939 
10 1577 525 1418 1437 11086 11098 6452 6451 12316 6036 
10 1775 808 1714 918 11964 10325 7062 11966 4398 11843 
10 1711 637 1710 1547 9599 9601 6852 6851 11031 6847 
10 577 1488 744 1769 11869 12186 3754 11871 7030 12187 
10 1159 2045 1160 1072 12384 10506 5082 5077 12268 5080 
10 1487 1313 575 1486 6184 11264 9663 6185 6180 11515 
10 642 641 808 1554 3445 3941 3942 9692 9860 10324 
10 1499 587 588 755 8927 3282 8929 11404 3786 3787 
10 1654 841 744 1769 12252 4237 9219 7034 12449 12187 
10 1126 1029 1959 2023 4972 10313 10752 10751 12355 7872 
10 1815 1036 914 1816 10920 4672 10899 7190 8815 11827 
10 1029 1126 1959 1028 4972 10752 10313 4653 4971 12342 
10 1036 915 914 1816 4673 4279 4672 8815 12243 11827 
10 2057 995 1978 1173 12358 12359 7984 10844 5136 12391 
10 1873 829 1743 920 10097 10554 7362 11783 4291 10556 
10 759 1669 1503 1668 9426 6726 11855 10549 6727 6722 
10 1502 759 1503 1668 12134 11855 6233 6723 10549 6722 
10 1815 1667 1668 914 7186 6724 7185 10899 12317 10550 
10 1667 758 1668 914 9886 10548 6724 12317 4274 10550 
10 1826 1940 1044 1827 7594 10429 10464 7224 7593 10152 
10 1682 927 1681 775 9086 10714 6765 9257 4313 11987 
10 1518 1682 1681 775 6764 6765 6760 9256 9257 11987 
10 161 1353 444 1354 12437 10132 2851 10937 5788 10133 
10 631 1704 630 797 11081 10043 3409 3912 10355 3911 
10 1386 1385 476 1558 5884 9151 9149 6395 6396 12450 
10 646 1386 476 1558 10007 9149 3455 10008 6395 12450 
10 884 920 1743 699 4293 10556 11799 4178 4292 10555 
10 492 598 1402 1574 3503 12451 11996 12195 11136 6443 
10 1700 939 938 793 9301 4359 9299 10392 4357 4355 
10 2045 1159 1963 1072 12384 11738 8077 12268 5077 12230 
10 1700 792 793 938 10390 3901 10392 9299 4354 4355 
10 1859 963 1860 1964 11616 10268 7324 7671 10266 7670 
10 2045 1964 1965 1072 7941 7675 7940 12268 10267 11736 
10 598 1467 1402 1574 10168 6555 12451 11136 6556 6443 
10 794 1839 1702 1701 12420 7262 12436 12226 7263 6825 
10 1214 2115 1239 1219 10742 12255 5383 5293 12288 5384 
10 985 1982 1097 976 9649 10772 4879 4499 12452 4877 
10 1749 1773 976 1902 7052 11295 10064 7480 7481 12353 
10 68 1403 493 382 10608 12453 2998 3087 12454 3102 
10 1713 992 1849 994 10712 9216 7293 10829 4547 9217 
10 186 15 494 14 5481 10501 3000 2338 2521 3001 
10 833 1749 834 975 10504 10065 4022 4465 10066 4464 
10 1214 2136 2146 2115 10677 8369 12256 10742 8279 8374 
10 1588 1773 835 834 7053 10700 11832 9933 11868 4025 
10 1713 992 994 765 10712 4547 10829 9162 4537 4546 
10 1221 1166 2051 1104 5381 10847 10973 5298 5106 10787 
10 1269 217 359 1268 5530 11329 12003 5531 5526 8877 
10 1764 763 1671 1605 9391 9752 7109 7014 9393 7048 
10 1403 1467 1402 493 6124 6555 5935 12453 12455 11997 
10 1034 1929 1930 1814 9843 7565 9871 9870 7560 7564 
10 224 81 1275 223 8625 10180 5547 2380 8624 5548 
10 1037 865 1932 1087 4838 12271 12222 4883 4826 9746 
10 503 671 1585 1413 3533 12318 9756 9757 11930 6475 
10 2150 2155 1239 2152 8401 11597 11598 8363 8402 11748 
10 1111 2008 2007 1185 11579 7829 12397 5184 10684 9762 
10 1113 1009 1913 1010 4930 12456 11899 4931 4595 9796 
10 671 1586 1585 1413 10509 6479 12318 11930 6477 6475 
10 1038 1936 1937 1171 12172 7586 12330 5129 11601 12006 
10 1913 1009 1787 1010 12456 8955 7513 9796 4595 9811 
10 35 1397 62 36 5916 10835 2564 2183 5915 2565 
10 2002 2003 1796 1015 7812 7810 7808 11672 10838 11067 
10 1709 802 1847 947 12457 10103 7287 9065 4382 11665 
10 804 638 1712 854 3933 11589 12228 4096 4075 11816 
10 1385 476 1558 645 9151 12450 6396 10388 3453 10389 
10 476 646 1558 645 3455 10008 12450 3453 3457 10389 
10 1731 1861 1730 820 7325 7326 6910 11432 12378 11857 
10 1731 1566 820 1730 6909 12177 11432 6910 6905 11857 
10 829 1874 1873 1744 10096 7367 10097 11944 7365 7363 
10 653 820 1730 819 3977 11857 12443 3975 3979 9715 
10 924 1678 923 1823 12263 9395 4305 8807 7210 9397 
10 1570 657 1734 1569 8891 8892 6917 6433 11054 6918 
10 653 1566 1730 820 11113 6905 12443 3977 12177 11857 
10 952 1088 1868 885 4832 11881 10024 4397 4831 11658 
10 1396 487 1569 656 9926 11055 6429 11223 3486 11056 
10 1678 924 1679 1824 12263 12400 6756 7214 8809 7213 
10 1871 1088 1974 1083 12386 10816 7701 10669 4833 12458 
10 1042 1938 1041 1138 9266 9199 4691 5007 11593 5006 
10 1172 1971 1088 1974 9701 9700 5133 10809 7702 10816 
10 1146 2035 1948 1145 12259 7908 11948 5035 10720 12247 
10 679 1638 766 837 10734 11421 3821 4028 10735 4095 
10 309 449 1358 165 11928 9035 5798 8467 2865 9034 
10 1396 1397 1569 487 5917 6428 6429 9926 11053 11055 
10 624 1535 452 1361 12044 10310 3387 9867 6327 8981 
10 1064 2083 1152 1154 11259 8820 5153 5057 8819 5154 
10 1397 35 62 487 5916 2564 10835 11053 9925 2980 
10 506 673 1415 1416 3538 12289 10970 12183 12182 5974 
10 205 349 1426 348 7746 6001 10346 7782 2510 6000 
10 1207 2056 1173 1248 12356 12204 5256 5410 10279 5409 
10 1256 1260 2153 2148 5461 12064 11436 12111 9505 8368 
10 2156 2144 2143 1259 8345 8337 8346 12047 10760 12048 
10 1423 1595 1424 681 6503 6504 5996 11673 9286 9514 
10 1595 1753 1754 842 6974 6978 6976 9285 8967 9702 
10 1984 1095 1165 1882 11666 5098 11667 7739 12294 10861 
10 424 1435 139 282 11102 10870 2787 10869 6028 8597 
10 1179 2081 2085 2102 10195 8097 12068 12051 8146 8147 
10 1410 668 1582 1583 10081 11268 6466 6468 9671 6470 
10 1144 2095 1063 2077 8813 11355 5029 10251 8123 11669 
10 2095 1090 1063 2031 10247 4846 11355 8121 10424 10425 
10 841 745 744 1769 4238 3758 4237 12449 12337 12187 
10 336 193 335 1411 4979 5022 2495 5958 9678 5957 
10 1753 991 1882 993 8968 12295 7392 12292 4543 10862 
10 1242 2149 1180 1255 10405 10957 5392 5438 10744 5437 
10 1363 453 313 454 11784 11022 5814 9174 2882 11023 
10 1506 595 1505 1332 9316 12244 6242 6241 9478 6237 
10 1435 140 425 139 9468 2790 9469 10870 2290 2789 
10 810 1556 1720 1721 11497 6875 11494 9595 6879 6880 
10 1851 954 810 955 9570 4403 9154 9155 4509 4405 
10 811 1893 810 955 9615 9152 3952 4406 9153 4405 
10 1889 893 1017 892 11478 4616 9823 11479 4205 4615 
10 1997 1062 955 1064 10174 4830 9604 10420 4836 4754 
10 1731 654 1567 821 12351 12361 6908 9460 3980 9461 
10 1467 598 1402 493 10168 12451 6555 12455 3437 11997 
10 1190 2070 1119 1918 10070 10460 5200 10192 8062 10194 
10 15 186 494 329 5481 3000 10501 2488 5226 10502 
10 1435 424 425 1440 11102 2791 9469 6046 11205 11476 
10 1500 1326 588 1499 6223 12459 12029 6224 6219 8929 
10 1034 913 1814 1035 4667 10233 9870 4671 4669 9872 
10 1810 908 1662 909 11915 9069 7171 10689 4261 11756 
10 1258 2092 1230 1238 11808 11677 5452 5457 11676 5368 
10 1941 1046 1142 1045 12344 5019 11489 9533 4703 5018 
10 1141 1203 2027 1230 5242 12153 10401 5331 5332 12137 
10 1867 1870 1904 1167 7355 7488 7489 10828 10777 10778 
10 1435 424 1440 1333 11102 11205 6046 6029 10868 6247 
10 1093 1971 1172 2049 9699 9701 5134 11757 7952 11758 
10 716 1456 1457 546 9043 6097 9044 3670 10082 8823 
10 2002 1918 1118 1017 7809 10193 11974 9831 9824 4946 
10 1971 1093 1904 2049 9699 11935 7693 7952 11757 7951 
10 809 1851 954 810 10418 9570 4402 3949 9154 4403 
10 1616 1617 705 1446 6577 12460 8797 6572 6576 11305 
10 2072 1156 2044 1155 10412 10414 8044 10673 5064 12461 
10 706 1447 536 1446 11527 12463 3640 12462 6067 9906 
10 706 1617 1447 1446 11526 6575 11527 12462 6576 6067 
10 1073 1861 1966 965 12346 7677 10705 4782 9668 9669 
10 1735 825 1866 969 10518 12444 7341 10519 4447 10638 
10 654 655 1567 821 3484 10997 12361 3980 3981 9461 
10 1794 1737 1637 984 7430 7343 7118 9890 10198 9008 
10 706 536 705 1446 3640 3638 3642 12462 9906 11305 
10 1661 908 1809 907 9197 11916 7168 12220 4258 12273 
10 1170 1991 1904 2030 11934 7765 10776 12028 8040 8041 
10 1991 1124 2030 1170 12270 9809 8040 11934 5219 12028 
10 1617 706 705 1446 11526 3642 12460 6576 12462 11305 
10 1078 974 975 1878 4797 4466 4796 10276 11199 10821 
10 1363 453 454 626 11784 2882 9174 9589 3392 3393 
10 1810 908 909 1030 11915 4261 10689 10690 4654 4655 
10 1007 1785 1910 1008 11950 7503 9204 4589 11955 11392 
10 1664 910 755 911 12131 4263 11406 12363 4267 4265 
10 1282 1456 546 1283 6093 10082 10636 5573 6092 8824 
10 1363 453 626 1362 11784 3392 9589 5815 9937 9591 
10 1056 1841 941 1950 11605 11425 4731 9524 7625 11426 
10 2021 1931 1132 1930 7866 11629 12464 7867 7568 11703 
10 466 638 639 1549 3429 3434 3431 8793 8791 12231 
10 810 1556 1721 644 11497 6879 9595 3948 10292 9594 
10 1830 1047 1943 1829 9954 11959 7602 7233 9408 7603 
10 665 721 722 1580 3686 3690 3688 8914 8913 8966 
10 976 1097 1079 1902 4877 4878 4799 12353 9921 9923 
10 1187 2068 1996 2025 10656 8030 9943 9944 8031 7879 
10 1135 2136 1204 1214 8934 8935 5339 5275 10677 5340 
10 910 1663 1811 1664 12465 7174 10187 12131 6712 7173 
10 2128 2153 1233 1260 8366 12376 9438 9504 12064 5459 
10 2046 1161 2047 2104 11952 9908 7947 8151 11823 8150 
10 2003 2065 1114 2080 8229 11980 10814 8222 8082 10812 
10 1260 1218 2153 1233 5458 12419 12064 5459 5347 12376 
10 2073 1171 1186 2009 11590 5334 12272 8194 10373 11591 
10 721 1741 722 1580 11848 8949 3690 8913 6939 8966 
10 1823 1040 1822 923 9001 10243 7212 9397 4684 10255 
10 923 1823 1677 1822 9397 7211 9396 10255 7212 7207 
10 1937 1113 1913 1038 12140 11899 7836 12330 5103 9797 
10 1113 2010 2009 1171 11898 7835 10372 5132 11600 10373 
10 2092 1258 1230 2108 11808 5452 11677 8165 11810 12138 
10 1139 2026 1939 2022 11240 7883 10054 11973 7884 7869 
10 1586 671 833 672 10509 4018 12406 10510 3537 4017 
10 868 1869 1879 1998 8788 7385 9120 10679 7795 7796 
10 1423 512 1422 1594 10941 9730 5993 6501 11834 6500 
10 1038 1914 1913 1937 9795 7517 9797 12330 7792 7836 
10 556 385 1468 557 3185 12466 9640 3189 3187 10039 
10 505 1414 672 504 8760 9016 3535 3034 9200 3536 
10 477 52 51 25 2950 2200 2949 9353 2544 2543 
10 941 795 940 1840 4363 4361 4365 9475 9993 9476 
10 1839 794 1702 940 12420 12436 7262 10480 4360 10479 
10 1146 1145 1948 1054 5035 12247 11948 5033 5032 10857 
10 2099 1212 1240 1211 10996 5447 10825 10824 5268 5469 
10 1194 2039 1151 2038 10570 9750 5273 10431 7924 12375 
10 536 705 1446 535 3638 11305 9906 3127 3637 10235 
10 1366 458 174 317 10396 2892 10795 5822 11836 8483 
10 1269 360 218 1270 11315 11310 5529 5534 12413 5533 
10 312 453 1362 452 11412 9937 5811 8979 2879 9936 
10 2090 1220 2091 2020 12343 10784 8113 8109 12067 8111 
10 1625 1785 878 1626 7089 10182 11467 6604 7088 10183 
10 1295 385 557 1468 12013 3187 10989 6126 12466 10039 
10 1130 2019 1220 2020 9310 12066 5324 10775 7865 12067 
10 242 99 1294 384 8517 12405 5606 11317 2667 10934 
10 1840 796 941 795 9992 4364 9475 9993 3910 4363 
10 1293 242 384 98 5602 11317 8853 11400 8516 2666 
10 2016 1198 1128 1199 10300 5228 10756 10258 5232 5230 
10 1927 1128 2016 1926 9805 10756 7853 7556 12276 7854 
10 103 1298 246 388 11107 5618 8525 2679 8889 8888 
10 1077 1865 1866 969 10336 7342 10358 4794 12334 10638 
10 96 1291 240 239 11078 5597 8512 8511 5598 2397 
10 1304 566 1303 394 10475 11360 5637 10476 3214 12115 
10 1794 1915 1901 887 7521 7522 7478 9892 11702 9891 
10 898 736 735 1648 4219 3731 4218 11351 9244 11352 
10 1304 109 394 252 12157 2697 10476 5636 8537 11236 
10 1484 572 1483 1310 11491 9682 6176 6175 9930 6171 
10 578 407 1490 579 3251 8907 12408 3255 3253 10911 
10 970 1866 1081 1901 12467 10356 4835 9782 7477 11275 
10 1295 385 1468 1294 12013 12466 6126 5610 12076 6127 
10 1315 1488 405 577 6186 12407 8899 12120 11869 3247 
10 970 1736 1866 1901 9687 7340 12467 9782 7476 7477 
10 1979 1980 1050 2058 7726 11154 11814 7987 7988 12468 
10 275 132 417 131 8583 2766 12099 8582 2282 2765 
10 2069 1078 1994 1981 11570 10277 8032 7991 10278 7776 
10 708 1619 1448 1618 9790 6582 8865 8845 6583 6578 
10 594 761 1505 1504 3805 11371 12352 11762 9192 6239 
10 973 974 1877 1747 4463 10136 12469 11904 10137 7374 
10 763 1506 1671 1439 9317 6731 9752 9315 6741 7009 
10 312 453 452 169 11412 2879 8979 8505 2877 2875 
10 427 143 1335 286 2799 12445 8931 11883 8423 5729 
10 973 1876 1877 1039 11903 7376 12469 4682 11157 11536 
10 2116 1135 1994 2069 8936 10753 8188 8191 11567 8032 
10 1704 796 630 797 12470 3909 10043 10355 3913 3911 
10 898 1803 1648 1802 10230 7146 11351 10232 7147 7142 
10 1022 1023 1802 1921 4635 10231 11142 11341 11340 7536 
10 741 838 1767 862 4233 12324 11516 4232 4107 12205 
10 1014 1797 1995 2003 9783 7779 12038 10837 7811 8206 
10 1350 440 157 441 11059 2839 11909 11523 2843 2841 
10 741 862 1767 740 4232 12205 11516 3746 4231 11517 
10 156 1348 439 1349 10438 10721 2836 11649 5773 11914 
10 1597 682 515 1425 9709 3560 9229 6509 9711 9227 
10 618 1529 619 446 10087 10285 3373 3369 10088 3371 
10 1531 787 621 1695 9653 3882 9092 6803 9654 11455 
10 1696 934 1695 788 9764 11863 6807 11451 4342 11452 
10 734 897 735 1647 4215 4216 3728 10871 9903 10872 
10 891 1016 1889 1796 4612 9830 12158 9231 11066 7415 
10 1953 1059 1954 2038 11474 12266 7639 7920 12377 7919 
10 473 1383 1382 643 11115 5875 11117 3446 11656 11657 
10 464 1546 463 636 9211 9209 2912 3423 9981 3422 
10 1191 1119 2071 1120 5202 11785 11327 5203 4953 10618 
10 2070 1119 2071 1191 10460 11785 8061 10461 5202 11327 
10 554 640 470 1379 3600 3438 3436 10020 11427 10000 
10 1121 1917 1120 2071 9979 10585 4956 10606 8035 10618 
10 2145 2123 1255 2121 8321 10958 10749 8322 8211 12328 
10 1097 2059 1996 1187 9920 7996 12385 5192 10731 9943 
10 484 483 1393 58 2972 9187 9293 2970 2968 11963 
10 1101 1922 1996 1895 9939 7786 9940 12105 7538 7785 
10 264 1315 406 1316 5668 12121 8886 5672 5673 12092 
10 33 59 1394 32 2559 9893 5906 2180 2558 5907 
10 121 264 406 1316 8561 8886 2733 12093 5672 12092 
10 1403 1467 493 382 6124 12455 12453 12454 10169 3102 
10 68 1291 382 96 10607 11788 3087 2660 11078 2661 
10 68 1291 1403 382 10607 5936 10608 3087 11788 12454 
10 2114 2157 1219 1257 8394 10383 12132 9553 10382 5445 
10 353 1430 1431 520 6013 6017 6015 11299 10093 9225 
10 1832 1848 1096 932 7583 9862 9343 9537 9536 4865 
10 780 781 1833 933 3865 11462 12471 4330 4331 11513 
10 1551 836 1589 1771 10398 12024 6488 7039 9405 7041 
10 1425 682 1424 1596 9711 9698 5999 6507 9710 6506 
10 981 980 1888 1989 4483 12472 11459 12335 12042 7757 
10 517 206 1427 516 3067 12194 12193 3068 3063 11090 
10 1179 1100 1983 2077 5160 10322 10196 10197 11278 8070 
10 985 1101 1895 977 4892 12105 9650 4500 4891 9291 
10 578 407 1316 1490 3251 8906 12091 12408 8907 6193 
10 589 418 417 1327 3284 2770 3283 12326 9453 12097 
10 1148 1056 1147 2036 5039 5037 5041 11552 10100 10083 
10 1212 2037 2036 2096 11551 7918 11130 10909 8125 8126 
10 2037 1148 1149 1212 11550 5044 11977 11551 5266 5267 
10 2099 1212 1211 2036 10996 5268 10824 8136 11130 10492 
10 187 330 188 496 5170 5169 2340 3006 10439 3005 
10 1225 1221 2051 2121 5391 10973 10891 10781 11441 8205 
10 1212 1148 1211 2036 5266 5264 5268 11130 11552 10492 
10 1000 1777 870 999 9799 9800 4563 4565 10381 4561 
10 869 1617 1869 1777 11581 7350 8786 10380 7066 7352 
10 543 1452 1453 1279 12410 6085 12224 9026 6080 6084 
10 1968 1075 1162 1967 10340 5087 11633 7684 9827 9828 
10 547 717 1457 716 3673 11152 8821 3671 3675 9044 
10 1628 1627 1457 716 6610 6605 6609 11153 9042 9044 
10 1284 89 232 233 8920 8641 5575 5574 8642 2389 
10 847 688 1761 1602 4052 11034 11033 12179 11291 6997 
10 1218 2153 1233 2104 12419 12376 5347 10507 8367 9437 
10 343 2158 197 340 8729 8715 8728 8684 8716 2793 
10 1793 1639 1797 889 7114 7125 7126 11470 10189 11164 
10 659 660 1572 826 3499 11075 11077 3995 3996 11440 
10 589 418 1501 590 3284 10951 11501 3288 3286 9449 
10 1480 569 568 1306 10249 3225 11121 6163 12156 9424 
10 741 838 1653 1767 4233 12323 12438 11516 12324 7023 
10 396 1306 568 397 10839 9424 3220 2707 11908 3221 
10 1760 847 1761 1602 9178 11033 7000 6995 12179 6997 
10 396 567 568 1305 3218 3222 3220 11172 11169 9425 
10 1247 1260 2128 1233 5465 9504 10875 5460 5459 9438 
10 829 1744 668 830 11944 12154 4005 4010 12275 4009 
10 1933 1991 1849 1098 7766 7763 7575 11125 12235 9218 
10 407 121 1316 265 2735 12093 8906 12087 8562 5671 
10 591 1502 590 758 12135 9448 3291 3796 9446 3795 
10 1979 2057 1136 995 7985 10843 11812 11813 12358 5003 
10 912 913 757 1666 4273 4271 4269 10026 10949 10944 
10 534 704 1615 703 3634 9111 12473 3632 3636 12474 
10 1667 913 1814 1666 10228 10233 7182 6721 10949 7183 
10 1501 1667 1666 757 6720 6721 6716 9888 9887 10944 
10 602 769 1512 1675 3827 11024 11025 8945 10797 6742 
10 772 924 1678 771 4304 12263 12329 3838 4303 11486 
10 432 1341 291 1340 12139 5748 10646 11923 5749 5744 
10 2069 1078 1981 1153 11570 10278 7991 11568 5054 11569 
10 771 1515 772 605 11965 11191 3838 3834 10935 3836 
10 769 1676 1512 1675 10796 6746 11024 10797 6747 6742 
10 2058 1214 2069 1153 10740 10741 7992 12109 5276 11568 
10 1353 444 443 160 10132 2852 10728 11012 2850 2848 
10 1513 1676 1512 603 6745 6746 6262 9280 11009 9885 
10 1529 618 1528 1355 10087 11407 6310 6309 10089 6305 
10 1848 1770 933 1833 7291 11772 9863 7455 7456 11513 
10 431 1339 430 603 9279 10855 2813 3324 9281 3323 
10 1524 613 1523 441 9963 11283 6295 11466 3354 12345 
10 156 1348 1349 299 10438 5773 11649 8448 5768 5772 
10 1163 1969 1968 2080 10338 7687 9685 9686 8079 8080 
10 792 1700 1536 1699 10390 6818 10634 10635 6819 6814 
10 629 1539 456 1538 10365 10947 3401 11245 6340 9382 
10 1535 624 1534 1361 12044 10441 6328 6327 9867 6323 
10 1969 1163 2065 2080 10338 11873 8018 8079 9686 8082 
10 778 611 1521 612 3854 11419 11418 3855 3352 11334 
10 554 1553 1550 639 11257 6551 11258 3433 9597 12174 
10 1553 640 806 854 9596 3937 12475 9598 4073 4074 
10 440 1350 1523 441 11059 6290 11060 2843 11523 12345 
10 54 28 1389 480 2549 5891 12403 2958 12034 8959 
10 1265 213 214 356 5518 2370 5517 9577 12081 12310 
10 613 440 1523 441 3353 11060 11283 3354 2843 12345 
10 166 310 1359 167 8469 5801 11929 2318 8470 11071 
10 356 70 214 71 2581 8605 12310 2582 2220 8606 
10 1383 474 1556 643 12009 10291 6390 11656 3447 10293 
10 50 475 476 1385 2944 2948 2946 11103 9341 9151 
10 219 1270 218 75 5532 5533 2375 8615 12103 8614 
10 1374 464 1547 1373 11415 11416 6362 5848 9212 6363 
10 644 811 645 1721 3950 3951 3454 9594 9593 11163 
10 1533 1697 790 1534 6809 9025 9024 6325 6808 10472 
10 1856 1069 1068 960 10146 4771 12281 10148 4769 4767 
10 33 485 60 1395 9894 2974 2560 5910 11471 11628 
10 488 63 62 36 2983 2211 2982 10836 2566 2565 
10 2144 1223 2137 1252 10758 11510 8320 11686 5420 11511 
10 1232 2041 1158 1217 10732 10722 5320 5319 9101 5284 
10 1207 1168 1092 2055 5255 5113 5254 10572 10632 10833 
10 1696 935 790 1697 9519 4346 9023 6810 9520 9025 
10 499 1409 500 667 9185 10216 3019 3521 10218 3520 
10 1579 665 722 1580 8926 3688 8925 6461 8914 8966 
10 1407 1408 498 1580 5950 11211 11073 6459 6460 11212 
10 1243 2134 1182 2107 12338 12381 5395 11092 8303 11777 
10 1485 741 1653 1767 9527 12438 6681 7024 11516 7023 
10 1432 1590 1438 690 6490 6491 6038 12086 12085 9234 
10 2057 2114 1136 1226 8182 12133 10843 10845 9554 5313 
10 523 1433 676 678 10762 11852 3548 3551 11284 3608 
10 684 1599 844 1598 10589 12189 4044 10591 6517 10691 
10 624 1535 1534 791 12044 6328 10441 3893 10274 11148 
10 1535 1698 1534 791 6811 6812 6328 10274 11368 11148 
10 1445 704 1615 534 8796 9111 6569 8779 3634 12473 
10 686 519 1601 1429 3572 8757 10075 10076 8742 6521 
10 2061 1178 1235 2062 9261 5353 9260 8005 11687 10885 
10 2145 2112 1262 2141 8354 9628 10842 8411 8304 11811 
10 1586 833 1587 672 12406 10067 6482 10510 4017 9015 
10 1100 1144 1063 2077 5028 5029 4895 11278 10251 11669 
10 686 519 687 1601 3572 3576 3577 10075 8757 12200 
10 1210 1196 2124 1145 5352 8810 11719 5363 5358 12476 
10 1196 2035 2124 1145 10697 8219 8810 5358 10720 12476 
10 2124 1146 1210 1145 12258 5261 11719 12476 5035 5363 
10 574 1486 742 575 12225 11620 3747 3243 11515 3748 
10 1650 1766 901 1651 7446 10205 12007 6676 7435 11176 
10 901 1650 1651 738 12007 6676 11176 4227 10939 10810 
10 2124 1144 2077 2095 8812 10251 8215 8214 8813 8123 
10 1781 875 1004 874 11941 4576 11710 11942 4153 4575 
10 2035 2074 1196 2095 8065 10245 10697 8127 8124 8811 
10 1784 1007 1909 1006 11011 9203 7500 10613 4586 12210 
10 541 1278 542 369 9766 10918 3145 3141 10965 3143 
10 464 1546 1547 1373 9211 6364 11416 9212 6359 6363 
10 2005 868 1879 1998 9119 9120 7816 8038 10679 7796 
10 2102 2135 2099 1208 8218 8237 8358 9550 9552 9561 
10 841 1610 851 676 12280 10074 4111 4037 11853 4065 
10 1575 1610 676 1433 6558 11853 11890 6446 6557 11852 
10 864 1634 841 696 11639 11919 4117 4116 11918 4036 
10 1436 1575 676 1433 6447 11890 9176 6037 6446 11852 
10 2002 1117 2003 1015 8992 10982 7812 11672 4942 10838 
10 1920 1122 2012 1919 12278 10015 7839 7534 9971 7840 
10 895 1645 1644 1799 8883 6658 12123 9977 7133 7134 
10 1801 897 1802 1022 9897 11143 7144 10281 4630 11142 
10 1544 800 801 1708 8752 3925 10387 6842 8748 8750 
10 983 1894 1636 1792 9736 7432 9737 10444 7433 7112 
10 635 802 636 1545 3926 3927 3424 9083 11126 9980 
10 1489 578 746 745 12089 3759 12409 12434 3757 3761 
10 1223 2085 2144 2137 11798 8318 10758 11510 8289 8320 
10 1575 696 676 841 11891 3611 11890 11917 4036 4037 
10 1489 745 746 1655 12434 3761 12409 6685 11642 9335 
10 902 864 1655 746 4533 11640 9333 4239 4517 9335 
10 576 1488 744 577 12117 12186 3753 3249 11869 3754 
10 1812 1033 911 1813 10058 4663 10049 7181 9846 10050 
10 464 637 1547 636 3425 11031 11416 3423 3427 11083 
10 1662 908 753 909 9069 4257 8785 11756 4261 4259 
10 2088 1216 2132 2154 11140 11998 8265 8371 11141 8378 
10 1238 1245 1244 2152 5490 5468 5505 11131 10643 12477 
10 1203 2027 1230 2108 12153 12137 5332 11296 8164 12138 
10 1445 534 1615 1444 8779 12473 6569 6061 11548 6570 
10 2136 1214 2146 1258 10677 12256 8369 10678 5449 11809 
10 158 442 1351 441 2844 11016 11931 2842 2846 11525 
10 1848 1716 840 1770 7290 8960 9307 7291 7036 8962 
10 1623 712 1453 713 9803 10495 6593 12447 3663 12478 
10 1203 2028 2027 2108 10045 7890 12153 11296 8163 8164 
10 1722 811 1880 1721 11161 11151 7386 6883 9593 7387 
10 937 1837 1699 1836 11565 7257 12479 10377 7258 7253 
10 1623 1453 1624 713 6593 6597 6598 12447 12478 11365 
10 1262 2149 2141 1242 10743 8407 11811 5498 10405 10407 
10 1698 937 1699 1836 11367 12479 6816 7254 10377 7253 
10 1533 1534 790 623 6325 10472 9024 11038 10442 3890 
10 1053 1947 1948 1838 9481 7621 12248 9483 7617 7620 
10 1951 1148 2036 1056 12480 11552 7910 11604 5039 10100 
10 1947 1053 1948 1145 9481 12248 7621 10719 5031 12247 
10 1242 2151 2141 1257 10406 8400 10407 5483 11463 12388 
10 844 1599 1757 1598 12189 6986 10692 10691 6517 6985 
10 1419 11 1434 526 5980 6025 6026 11353 12319 9949 
10 649 816 1726 815 3965 11429 11428 3963 3967 11611 
10 1106 2015 2033 1923 10408 7905 8873 10873 7851 7904 
10 1960 957 1854 1066 10954 11558 7658 10319 4760 10027 
10 1067 1066 1957 958 4765 10028 11132 4763 4761 10030 
10 811 956 1880 1893 4407 10107 11151 9615 12373 7463 
10 1570 1735 824 658 6921 9652 8893 9646 12113 3990 
10 1641 891 729 892 9230 4198 11144 12043 4202 4200 
10 1735 825 658 1571 10518 3992 12113 6920 12401 12077 
10 1468 1635 1637 724 6629 6635 6633 10041 10042 9010 
10 809 1851 810 1720 10418 9154 3949 11495 7297 11494 
10 1977 1092 1094 920 11615 4861 11660 11781 4853 4860 
10 185 43 0 328 2925 2191 2337 8507 10450 8418 
10 1584 1412 670 1585 6472 12481 10676 6476 6474 11833 
10 1217 2131 2132 2154 9100 8287 9102 11999 8377 8378 
10 877 1783 1624 876 10614 7082 11775 4159 8999 12482 
10 1783 1623 1624 876 7083 6598 7082 8999 11911 12482 
10 203 347 1424 346 7822 5995 9708 7914 2508 5994 
10 655 485 654 1567 3482 3480 3484 10997 11972 12361 
10 686 1601 1759 1600 10075 6992 11835 9987 6523 6991 
10 485 1394 654 1567 9895 12175 3480 11972 6423 12361 
10 1874 971 830 919 11646 4453 12277 10098 4454 4289 
10 668 1744 1583 1745 12154 6948 9671 10223 6952 6950 
10 1652 862 1612 1766 10210 10445 7108 7107 10206 7047 
10 862 849 1612 1766 4109 9679 10445 10206 10203 7047 
10 1612 849 1611 1766 9679 9680 6564 7047 10203 7021 
10 602 429 1338 430 3320 11280 12374 3321 2810 12309 
10 2013 1894 1898 982 7841 7787 7843 12065 10069 12080 
10 428 144 1336 287 2802 12427 11888 11889 8425 5732 
10 1617 869 1616 705 11581 8787 6577 12460 4133 8797 
10 1530 1529 1356 619 6313 6308 6312 11349 10285 11348 
10 1905 1104 999 1000 10789 4901 12396 9072 4902 4565 
10 2005 996 997 2082 9778 4556 8859 8086 8836 8860 
10 1451 541 1450 1277 9767 10298 6079 6078 9768 6074 
10 1777 1617 1618 870 7066 6580 7065 9800 11582 11921 
10 600 767 1510 1750 3822 8939 9915 11214 8940 6965 
10 1777 1905 999 1000 7491 12396 10381 9799 9072 4565 
10 147 430 289 146 2809 10856 8430 2298 2808 8429 
10 1469 1468 557 1635 6131 10039 9814 6628 6629 10040 
10 1009 880 879 1787 4591 4168 4590 8955 9839 8956 
10 1762 860 1578 1576 10725 12483 7003 7002 10726 6455 
10 602 430 1338 1512 3321 12309 12374 11025 12155 6258 
10 2010 1113 2009 1912 11898 10372 7835 7834 11900 7830 
10 430 1339 1338 1512 10855 5743 12309 12155 6257 6258 
10 717 1628 1629 1458 9983 6613 9984 10426 6608 6612 
10 1121 1020 1019 1917 4955 4626 4954 9979 9562 10584 
10 732 895 1644 894 4209 12123 12341 4207 4211 12124 
10 1509 600 1510 1750 11190 9915 6253 6966 11214 6965 
10 732 1475 731 1644 12217 12218 3719 12341 6654 12365 
10 1925 1029 1809 1030 12198 10312 7550 11770 4656 11985 
10 860 662 1578 1576 4099 10031 12483 10726 10600 6455 
10 725 1469 557 1635 12017 9814 3696 10048 6628 10040 
10 888 1915 1791 887 9122 7520 12045 4190 11702 12291 
10 1220 1225 2091 1228 5310 10783 10784 5325 5369 12257 
10 1771 836 1589 835 9405 12024 7041 10698 4104 10017 
10 2090 2021 1169 2020 8108 8837 8839 8109 7868 12367 
10 1551 675 1609 1437 10122 10123 6552 6376 12315 6553 
10 924 772 1679 925 4304 10489 12400 4308 4306 10490 
10 1684 1683 777 929 6771 10707 9022 9389 10708 4319 
10 1272 536 535 363 9904 3127 8903 10553 3125 3123 
10 1137 2024 2073 2118 11674 8049 11063 12151 8223 8195 
10 932 1049 1831 931 4711 9951 11277 4329 4710 11424 
10 525 675 507 1437 3544 3545 3093 12316 12315 10057 
10 675 693 1609 1437 3610 9079 10123 12315 9080 6553 
10 1416 506 674 1417 12183 3542 12184 5977 11840 9542 
10 1823 1935 1041 1824 7579 9003 8806 7215 7578 8808 
10 1705 1542 1706 798 6832 6836 6837 9053 9052 10815 
10 1709 803 636 1710 11803 3929 12484 6849 11804 11082 
10 1791 726 888 725 11732 4189 12045 11733 3701 4188 
10 2147 2137 1252 2154 8365 11511 11217 8372 8384 11218 
10 811 956 1893 955 4407 12373 9615 4406 4409 9153 
10 957 1854 958 813 11558 10029 4415 4411 12332 4413 
10 959 814 1725 815 4416 9618 11272 4417 3964 11612 
10 1392 483 652 482 9143 3474 12274 10964 2969 3473 
10 506 197 1415 505 3036 10658 10970 3037 3032 8759 
10 725 887 1791 1635 4187 12291 11733 10048 12485 7111 
10 968 1865 1077 969 11000 10336 4793 4448 12334 4794 
10 1759 686 1600 845 11835 9987 6991 10916 4046 12486 
10 1733 967 1734 1864 9440 11068 6919 7335 8767 7334 
10 1599 844 1757 1758 12189 10692 6986 6988 9792 6990 
10 2059 1097 1079 1174 9920 4878 9922 10259 5141 5139 
10 1106 1906 1003 1923 11287 10650 4910 10873 7542 10648 
10 1980 2058 1153 1050 7988 12109 11444 11154 12468 5093 
10 1759 1600 1758 845 6991 6989 6993 10916 12486 9793 
10 2059 1902 1994 1079 7993 7778 7995 9922 9923 10261 
10 1091 1885 1986 1084 11912 7748 12249 4849 9866 9901 
10 446 162 306 163 2856 8461 11742 2857 2314 8462 
10 1447 706 537 707 11527 3641 12004 11588 3645 3643 
10 979 990 1755 1884 4530 10880 9726 9094 9690 7398 
10 849 839 1611 1633 4091 12487 9680 9236 9238 6625 
10 886 1792 839 1633 11571 11084 4185 9237 7113 9238 
10 887 1794 1791 1635 9892 7119 12291 12485 7117 7111 
10 1739 725 1791 1635 11734 11733 7110 6935 10048 7111 
10 980 1887 1888 1989 11492 7412 12472 12042 7756 7757 
10 1427 349 1426 516 6003 6001 6005 11090 11377 9214 
10 1477 1645 733 1646 6656 8884 8841 6660 6661 12162 
10 1801 1920 1919 1021 7533 7534 7529 9898 12279 9918 
10 1004 1907 1906 2066 11709 7496 12283 11119 8020 8021 
10 1454 1453 713 1624 6088 12478 11364 6596 6597 11365 
10 1907 1005 1782 1908 12488 11824 7494 7499 11662 7498 
10 1940 1141 1140 1044 10399 5017 9927 10429 5015 5013 
10 1020 1122 1021 1919 4957 4958 4629 9563 9971 9918 
10 1894 848 1761 982 9738 11035 7434 10069 4484 11940 
10 1781 1621 1622 874 7077 6592 7076 11942 11743 11943 
10 569 1480 568 736 10249 11121 3225 3730 9243 3729 
10 1647 897 735 898 9903 4216 10872 11350 4220 4218 
10 1082 2050 1992 1099 10562 7956 11238 4886 10564 11239 
10 1099 983 1024 1992 4885 4805 4884 11239 10443 11490 
10 360 1270 361 75 12413 10209 2598 2594 12103 2596 
10 706 1447 537 536 11527 12004 3641 3640 12463 3130 
10 1132 2021 1131 1169 12464 10288 4994 5119 8837 5214 
10 734 1478 1477 1646 10865 6158 8840 8765 6659 6660 
10 2025 1143 2029 1943 11837 12141 8051 7894 11960 7891 
10 926 1827 927 1681 10153 9087 4314 11384 7223 10714 
10 22 474 49 1384 11529 2941 2538 5877 12010 10166 
10 2028 1141 1941 1142 11393 10400 7889 10046 5020 11489 
10 1049 1832 1096 932 9342 9343 4868 4711 9537 4865 
10 1830 1944 1943 1048 7606 7607 7602 11817 11820 11961 
10 1841 796 797 942 11410 3913 10354 11606 4366 4367 
10 875 1782 1622 1781 11841 7080 10932 11941 7081 7076 
10 506 1416 1415 340 12183 5974 10970 9421 5972 5970 
10 1782 875 1622 1623 11841 10932 7080 7079 10931 6595 
10 886 1804 1633 1766 11992 7444 9237 10204 7464 7020 
10 1480 737 569 1481 10248 3732 10249 6167 9874 12146 
10 474 475 49 1384 2945 2943 2941 12010 9340 10166 
10 1859 1071 1964 1963 9622 11723 7671 7667 9624 7672 
10 1859 1071 963 1964 9622 4776 11616 7671 11723 10266 
10 1284 547 375 548 12075 3159 8921 10893 3163 3161 
10 1317 580 1491 579 9061 9063 6196 10910 3258 12325 
10 963 1860 964 819 10268 11735 4433 4429 11849 4431 
10 2003 1797 1796 1015 7811 7127 7810 10838 9785 11067 
10 2012 1122 1193 2014 10015 5209 11691 7848 10016 11319 
10 864 745 1655 746 4505 11642 11640 4517 3761 9335 
10 1649 899 1803 1648 10665 11255 7145 6670 12489 7146 
10 1299 248 390 104 5620 12417 11225 11146 8528 2684 
10 728 1471 1640 1472 11982 6642 9774 9329 6140 6641 
10 1232 1256 2143 1259 5442 11437 11447 5455 5473 12048 
10 671 503 504 1413 3533 3031 3532 11930 9757 9201 
10 1658 904 1891 1657 12160 9832 7420 6694 11563 7421 
10 893 1889 1798 1642 11478 7416 11711 10524 7413 7129 
10 2070 2127 2128 1249 8252 8253 8244 11394 11696 9506 
10 1918 1018 1017 1798 12340 4620 9824 7707 11448 9825 
10 2127 1249 1261 2148 11696 5486 11697 8331 9507 11692 
10 1192 2122 2071 1191 12214 8208 11326 5207 11794 11327 
10 981 1760 1898 1888 9180 7467 11576 11459 7411 7466 
10 1328 591 419 1329 11180 3289 10952 5712 10415 9430 
10 1018 893 1017 1798 4618 4616 4620 11448 11711 9825 
10 2039 1060 1955 1152 9748 9005 7922 8818 5051 11951 
10 732 894 1644 731 4207 12124 12341 3719 4206 12365 
10 2072 1155 1154 1065 10673 5061 10674 10314 5059 5058 
10 2083 1064 2042 1945 11259 10421 8094 8091 10422 7932 
10 1799 1018 1798 894 10619 11448 7135 11962 4619 12223 
10 1346 154 296 297 10435 8444 5763 5762 8504 2455 
10 1225 1251 2121 1241 5428 11443 10781 5389 5495 10782 
10 913 1815 1814 1035 10236 7187 10233 4669 10900 9872 
10 2005 868 997 867 9119 4555 8859 8773 4132 4554 
10 745 577 744 1769 3756 3754 3758 12337 11871 12187 
10 1931 1036 1932 1087 8814 8816 7571 10287 5127 9746 
10 908 1029 1809 907 4652 10312 11916 4258 4651 12273 
10 1634 1654 1769 841 7017 7034 7202 11919 12252 12449 
10 1012 1870 1867 1167 8848 7355 10827 5109 10777 10828 
10 1346 154 297 438 10435 8504 5762 10436 2832 9672 
10 748 904 1658 1657 4244 12160 10956 9401 11563 6694 
10 1069 1962 1158 1070 9163 9165 5069 4774 11730 5071 
10 1287 551 1288 1461 10546 10547 5588 6108 10852 6107 
10 1232 2144 1252 1259 11802 11686 5425 5455 10760 5454 
10 1161 1233 2047 2104 5346 12379 9908 11823 9437 8150 
10 2103 1234 1247 1233 10889 5407 9695 9436 5350 5460 
10 745 1634 1769 841 11641 7202 12337 4238 11919 12449 
10 1489 745 1769 577 12434 12337 7029 11870 3756 11871 
10 1458 547 1284 548 11328 12075 6099 10892 3163 10893 
10 1456 715 546 716 9422 3668 10082 9043 3672 3670 
10 1112 1171 2009 1186 5307 10373 10371 5187 5334 11591 
10 1814 912 1813 1666 10234 10025 7184 7183 10026 7179 
10 1006 1909 1908 1109 12210 7502 11663 4919 10609 10611 
10 1826 926 1043 925 10463 4693 10078 10771 4311 4692 
10 1221 1225 1251 2121 5391 5428 5422 11441 10781 11443 
10 1343 1342 293 434 5755 5750 5754 8965 12308 12262 
10 2148 2156 1263 2119 8381 11699 11694 8359 8380 11695 
10 1034 912 1033 1813 4666 4664 4668 9845 10025 9846 
10 912 1665 911 1813 9361 9360 4270 10025 7180 10050 
10 150 294 434 151 8438 12212 2820 2302 8439 2821 
10 938 1699 1700 792 9582 6819 9299 4354 10635 10390 
10 434 1342 293 150 12308 5750 12262 2820 12490 8437 
10 1839 939 940 1054 10938 4362 10480 10854 4725 4726 
10 837 1903 766 951 10567 9990 4095 4394 11752 4393 
10 951 1063 2031 988 4753 10425 10423 4523 4752 9118 
10 1033 1929 1813 1928 9844 7561 9846 10453 7562 7557 
10 1038 1936 1171 1040 12172 11601 5129 4685 10242 5130 
10 1522 440 612 439 11913 3351 11336 11337 2840 3350 
10 376 1459 549 1286 9323 10012 3164 9324 6101 9104 
10 1232 2131 2143 2130 9723 8311 11447 11446 8282 8310 
10 173 457 316 1365 2889 9543 8481 11893 10946 5819 
10 796 1841 797 1704 11410 10354 3913 12470 7268 10355 
10 1502 1667 758 1668 6719 9886 9446 6723 6724 10548 
10 154 437 296 153 2830 9760 8444 2305 2829 8443 
10 957 956 1065 1990 4412 4757 4758 10955 10904 10316 
10 923 770 1677 771 4300 10716 9396 4301 3835 11028 
10 941 1056 1950 1055 4731 9524 11426 4729 4733 9494 
10 2035 1146 1948 2034 12259 11948 7908 7971 10003 7970 
10 673 1588 1587 1415 9935 6485 9934 12289 6483 6481 
10 2124 1146 1145 2035 12258 5035 12476 8219 12259 10720 
10 1144 1210 2102 1208 5342 9549 10250 5258 5341 9550 
10 921 1821 1937 922 10237 7585 12088 4299 10239 11638 
10 1770 1897 933 1833 7703 9548 11772 7456 7610 11513 
10 1262 1257 2141 1248 5492 12388 11811 5493 5491 12491 
10 1108 1907 1004 2066 10730 11709 4915 11118 8020 11119 
10 2149 2123 2087 1180 8334 8290 8333 10957 8801 12282 
10 759 1502 758 1668 12134 9446 3800 10549 6723 10548 
10 1201 2094 2142 1238 10626 8306 9945 5380 12492 12339 
10 1245 2142 2093 2084 9946 8307 9947 10681 8308 8298 
10 1689 781 615 782 10745 3864 10746 8950 3868 3866 
10 1689 781 782 1897 10745 3868 8950 7459 9547 8952 
10 376 90 375 1285 2641 2639 2643 9325 10150 10876 
10 857 1892 782 1897 10114 8951 4333 11361 7487 8952 
10 1925 1029 1127 2023 12198 4974 11184 7871 12355 11185 
10 937 1698 1699 791 11367 6816 12479 4351 11368 11522 
10 628 629 456 1538 3403 3401 3399 9381 11245 9382 
10 2112 1262 1246 1253 9628 5511 9629 11741 5509 5487 
10 2140 2098 1198 1253 8300 10477 12387 11401 9443 5430 
10 318 459 176 1368 12145 2896 8486 5829 11168 11167 
10 2157 2155 2115 1239 8386 8375 8385 10384 11597 12255 
10 1874 995 971 919 11645 4550 11646 10098 4551 4454 
10 1243 2151 1242 1257 11093 10406 5396 5484 11463 5483 
10 792 937 1699 791 4352 12479 10635 3898 4351 11522 
10 792 937 938 1699 4352 4356 4354 10635 12479 9582 
10 937 1837 938 1699 11565 9583 4356 12479 7257 9582 
10 1704 631 1705 797 11081 9051 6834 10355 3912 10394 
10 1587 505 673 1415 8758 3539 9934 6481 8759 12289 
10 1379 640 470 1380 11427 3438 10000 5866 11508 12448 
10 1804 899 1024 1803 11323 4636 11324 7150 11255 10616 
10 688 521 1603 1431 3578 11773 12012 11290 9223 6527 
10 803 804 1710 949 3934 9602 11804 4387 4388 12493 
10 1487 576 575 404 9662 3246 9663 10659 3244 3242 
10 1297 387 559 1470 10603 3193 12389 6132 10924 8834 
10 144 428 1336 427 2802 11888 12427 2800 2804 11895 
10 681 1423 680 513 11673 9721 3559 3558 10342 3555 
10 1286 235 91 234 5580 8646 10879 5581 2391 8645 
10 2157 2151 1257 2141 8399 11463 10382 8395 8400 12388 
10 1805 1847 1710 949 7465 7286 7289 11413 12287 12493 
10 1847 803 1710 949 10101 11804 7286 12287 4387 12493 
10 318 459 1368 1367 12145 11168 5829 5825 10908 5830 
10 1365 1364 315 456 5821 5816 5820 9497 9498 10515 
10 606 607 1343 1516 3337 8964 8963 12494 11507 6269 
10 387 1297 559 388 10603 12389 3193 2680 8890 3194 
10 1124 1027 1973 1125 4967 9368 9808 5124 4969 11765 
10 1808 1973 1807 1028 7697 7698 7166 8910 9369 8911 
10 1991 994 1849 1098 11933 9217 7763 12235 4882 9218 
10 2006 1933 1891 1026 7820 7573 7819 11825 10765 10766 
10 1808 1973 1028 1959 7697 9369 8910 7656 7699 12342 
10 811 1880 1721 1893 11151 7387 9593 9615 7463 7426 
10 1085 1133 1164 2097 4996 5096 5094 10986 10985 11685 
10 189 497 331 1407 3008 9759 5165 11376 9758 5945 
10 1893 1720 1721 810 7427 6880 7426 9152 11494 9595 
10 1808 1029 1028 907 10311 4653 8910 10817 4651 4649 
10 1610 851 676 678 10074 4065 11853 11854 4066 3608 
10 458 175 174 317 2893 2326 2892 11836 8484 8483 
10 286 143 1335 285 8423 12445 5729 2444 8422 5730 
10 318 459 1367 175 12145 10908 5825 8485 2895 11745 
10 1865 1969 1864 1076 7685 7686 7339 10337 10335 8769 
10 1342 1515 606 1516 6266 10580 10579 6270 6271 12494 
10 1432 527 690 1438 8917 3584 12086 6038 8918 9234 
10 1342 606 1343 1516 10579 8963 5755 6270 12494 6269 
10 1390 481 1391 1563 10499 11937 5899 6411 10473 6410 
10 1075 1863 967 966 10244 9441 4788 4787 9198 4442 
10 1155 2101 2044 2072 10672 8317 12461 10673 8220 8044 
10 474 644 1384 1556 3449 11099 12010 10291 10292 6389 
10 1722 1853 812 1723 7303 10110 11215 6886 7302 9608 
10 475 644 1384 474 3450 11099 9340 2945 3449 12010 
10 387 101 245 102 2675 8522 10605 2676 2252 8523 
10 1469 558 1470 1739 9813 10912 6134 6934 10913 6933 
10 1002 1106 1923 1105 4909 10873 10874 4906 4911 11019 
10 1731 820 654 821 11432 3978 12351 9460 3982 3980 
10 1862 1731 1732 821 7329 6913 7328 9189 9460 9191 
10 553 662 1578 828 3506 10031 10033 4002 4003 12441 
10 1548 637 1547 465 10654 11031 6367 9011 3426 11417 
10 829 919 920 1873 4290 4294 4291 10097 10099 11783 
10 1295 244 100 243 5608 8520 12014 5609 2401 8519 
10 2070 2127 1250 2122 8252 11698 11789 8388 8241 12238 
10 444 617 445 1527 3365 3366 2855 10134 9379 10265 
10 263 120 405 119 8559 2730 8898 8558 2270 2729 
10 1432 521 689 522 10527 3582 9820 11438 3083 3581 
10 1887 980 845 986 11492 4480 10917 9486 4504 4501 
10 1804 886 1024 900 11992 4804 11324 11325 4639 4637 
10 1920 1122 1123 2012 12278 4962 10592 7839 10015 10593 
10 248 1299 247 104 5620 5621 2405 8528 11146 8527 
10 1742 884 1743 699 9974 11799 6946 12269 4178 10555 
10 1023 1099 1803 1921 4887 10615 10229 11340 11342 7535 
10 1326 275 131 274 5701 8582 10129 5702 2432 8581 
10 528 1606 1508 765 12421 6541 9167 3818 12215 9160 
10 1324 1497 1323 586 6213 6214 5697 10487 9372 11872 
10 1872 884 1743 1742 9973 11799 7360 7359 9974 6946 
10 413 127 271 128 2753 8574 10331 2754 2278 8575 
10 1322 1496 413 1323 6211 11830 10330 5694 6210 10998 
10 1882 1753 993 1754 7392 12292 10862 7393 6978 9704 
10 1436 523 676 524 10488 3548 9176 9076 3100 3547 
10 1654 851 743 841 10072 4236 9220 12252 4111 4516 
10 1883 1882 993 1754 7397 10862 9707 7395 7393 9704 
10 1781 1003 1780 874 12422 10649 7078 11942 4573 11744 
10 1003 873 1780 874 4572 10929 10649 4573 4150 11744 
10 902 864 1765 1655 4533 11179 10960 9333 11640 7158 
10 1326 588 1325 416 12459 8930 5703 10130 3280 11469 
10 2068 1143 2029 2025 10657 12141 8154 8031 11837 8051 
10 756 1500 588 1499 9883 12029 3789 11945 6224 8929 
10 976 1982 1097 1902 12452 10772 4877 12353 7733 9921 
10 2069 1078 1153 1135 11570 5054 11568 11567 5001 5056 
10 781 1897 1833 933 9547 7610 11462 4331 9548 11513 
10 1986 1178 2062 1987 10683 11687 8003 7752 11688 8004 
10 1003 873 1002 1780 4572 4570 4574 10649 10929 10930 
10 1656 902 1765 1655 9332 10960 7157 6688 9333 7158 
10 1748 832 974 833 12350 4462 10135 11866 4019 4461 
10 1819 902 1765 1656 9847 10960 7201 7200 9332 7157 
10 534 703 1615 1444 3632 12474 12473 11548 11547 6570 
10 1773 1982 976 1902 7730 12452 11295 7481 7733 12353 
10 188 497 1406 331 3009 9655 9656 5166 9759 5943 
10 1616 868 1869 1879 8789 8788 7351 7382 9120 7385 
10 776 1520 610 1519 10532 9018 3849 10533 6283 9019 
10 704 703 1776 1615 3636 12021 8915 9111 12474 7063 
10 785 1693 786 619 11281 11049 3880 3876 11282 3878 
10 1319 409 410 581 8895 2746 8897 12495 3259 3260 
10 1892 1689 1690 782 7462 6789 7461 8951 8950 12061 
10 840 857 933 1770 4083 4510 4511 8962 11013 11772 
10 1353 303 443 1352 5784 10284 10728 5785 5780 9509 
10 47 21 20 1382 2535 2168 2534 11839 5870 5871 
10 1776 703 1613 1615 12021 12020 7064 7063 12474 6571 
10 616 444 1527 617 3363 10134 11226 3367 3365 9379 
10 1683 1828 929 1829 7225 12101 10708 7229 7230 10664 
10 939 1700 1838 1701 9301 7260 9302 12246 6822 7259 
10 1113 1112 2009 1912 4932 10371 10372 11900 12496 7830 
10 1839 939 1838 1701 10938 9302 7264 7263 12246 7259 
10 1112 1911 2009 1912 10165 7831 10371 12496 7511 7830 
10 1009 1911 1112 1912 10163 10165 4928 10974 7511 12496 
10 1643 894 1798 893 12366 12223 7128 10523 4208 11711 
10 621 1532 449 1358 11456 12052 3378 10602 6318 9035 
10 450 451 1360 623 2873 9031 11070 3383 3384 12390 
10 1643 894 893 731 12366 4208 10523 12125 4206 4204 
10 140 6 212 69 2291 8599 11714 2578 2218 8602 
10 1643 894 731 1644 12366 4206 12125 6655 12124 12365 
10 167 1359 1360 310 11071 5806 11069 8470 5801 5805 
10 1839 794 939 1701 12420 4358 10938 7263 12226 12246 
10 855 787 1695 788 4340 9654 11865 4341 3886 11452 
10 1722 811 645 812 11161 3951 11162 11215 3955 3953 
10 460 1370 177 1369 12167 11986 2899 11202 5836 9967 
10 188 330 1406 496 5169 5942 9656 3005 10439 9657 
10 121 264 1316 265 8561 5672 12093 8562 2422 5671 
10 1555 1720 1715 809 6876 6877 6861 9693 11495 9518 
10 1579 553 1578 828 8924 10033 6458 11882 4002 12441 
10 1552 641 808 806 9858 3941 10323 12327 3938 3943 
10 1333 138 281 282 10867 8595 5723 5722 8596 2439 
10 798 1542 1706 632 9052 6836 10815 3915 10369 11345 
10 1370 177 320 178 11986 8506 5835 9067 2329 8489 
10 1711 804 1712 1805 9600 12228 6855 7154 12497 7153 
10 2039 1060 1954 1955 9748 9749 7923 7922 9005 7642 
10 918 1775 854 1712 11966 11815 4286 12498 7061 11816 
10 1951 943 1057 942 10901 4735 12253 10902 4371 4734 
10 1805 1775 918 1712 7152 11966 11967 7153 7061 12498 
10 1955 1152 1061 2042 11951 5052 11968 7931 11754 12129 
10 1957 1156 2040 2044 11134 11135 7926 7937 10414 7939 
10 1951 1148 1952 2036 12480 12499 7633 7910 11552 7913 
10 804 918 854 1712 4288 4286 4096 12228 12498 11816 
10 365 538 1274 537 3131 11187 10139 3129 3133 12245 
10 1555 642 1382 643 9691 12171 6387 11498 3448 11657 
10 2147 1216 1240 1215 11139 5456 10385 11458 5282 5387 
10 2037 1150 1213 1149 10446 5270 10433 11977 5047 5269 
10 804 1805 918 1712 12497 11967 4288 12228 7153 12498 
10 972 1673 1820 1774 9147 7203 11046 9148 7056 7453 
10 1946 972 1820 1774 11047 11046 7649 7615 9148 7453 
10 930 1685 931 778 12058 8975 4326 4322 12057 4324 
10 978 1790 1789 1890 10739 7105 11080 8780 7419 7518 
10 523 8 9 527 3085 2520 10736 3097 3098 8919 
10 523 527 9 1433 3097 8919 10736 10762 9410 6021 
10 1298 1471 388 560 6135 12127 8889 12394 9856 3196 
10 726 1639 1470 1739 10188 6640 10914 10915 7022 6933 
10 1686 1685 931 1831 6777 8975 8977 7234 7235 11424 
10 640 1552 641 1380 12426 9858 3442 11508 6378 12011 
10 470 1379 1380 18 10000 5866 12448 10215 5861 5865 
10 809 1851 1720 1715 10418 7297 11495 9518 7298 6877 
10 1381 641 1380 471 9859 12011 5869 12429 3440 12439 
10 389 1298 388 560 11108 8889 2683 3197 12394 3196 
10 330 188 1406 331 5169 9656 5942 2490 5166 5943 
10 738 1482 570 1481 10940 9384 3735 9875 6170 9385 
10 1564 651 652 818 11122 3475 9853 11979 3971 3972 
10 737 1650 1481 1649 11100 6672 9874 10666 6673 6668 
10 1489 578 745 577 12089 3757 12434 11870 3252 3756 
10 484 59 32 1394 2971 2558 9852 9294 9893 5907 
10 737 1650 738 1481 11100 10939 3737 9874 6672 9875 
10 2037 1148 2036 1952 11550 11552 7918 7917 12499 7913 
10 409 580 1318 408 3257 9062 9455 2743 3256 11008 
10 409 1319 124 267 8895 8896 2742 9456 5681 8567 
10 593 1331 421 1330 10988 9415 3295 9431 5718 9416 
10 2037 1148 1952 1149 11550 12499 7917 11977 5044 11976 
10 1386 477 1387 1559 10240 9354 5887 6399 10241 6398 
10 1951 1148 1056 1057 12480 5039 11604 12253 5040 4736 
10 52 26 1387 478 2545 5885 9355 2952 9634 9732 
10 1951 1148 1057 1952 12480 5040 12253 7633 12499 11831 
10 802 948 1847 947 4384 10102 10103 4382 4386 11665 
10 1843 1058 943 944 10004 4737 8772 8771 4738 4374 
10 1317 407 1316 265 8905 8906 5676 5675 12087 5671 
10 957 813 812 1723 4411 3958 4410 11288 9606 9608 
10 35 61 62 487 2563 2210 2564 9925 2979 2980 
10 660 490 1572 1400 3497 11076 11075 12500 9953 6437 
10 65 39 38 1400 2571 2186 2570 11276 5924 5925 
10 1399 37 489 1398 5922 12501 9621 5923 5918 9667 
10 811 1722 1880 812 11161 7386 11151 3955 11215 10108 
10 37 1399 489 64 5922 9621 12501 2568 8993 2986 
10 1559 1724 1723 813 6888 6889 6884 9146 11509 9606 
10 74 217 73 359 8612 8611 2223 2591 11329 2590 
10 2129 1195 2086 2110 12233 11953 8275 8329 11253 8171 
10 358 1268 73 216 8878 11330 2588 12502 5527 8610 
10 360 1442 359 532 12035 8879 2595 3114 9907 3113 
10 712 543 1453 713 3659 12224 10495 3663 3661 12478 
10 1319 1493 1492 581 6202 6203 6198 12495 10977 10653 
10 1454 545 1281 1455 11386 9965 6086 6091 9558 6090 
10 543 1280 371 1279 10220 10221 3147 9026 5564 9045 
10 85 84 370 227 2234 2623 2624 8632 8631 12304 
10 1352 303 443 159 5780 10284 9509 11014 8455 2847 
10 1854 957 1853 1723 11558 11197 7306 7305 11288 7302 
10 957 1854 813 1723 11558 12332 4411 11288 7305 9606 
10 967 1733 1734 823 9440 6919 11068 4441 11048 12197 
10 824 968 1734 823 4444 10671 8894 3991 4443 12197 
10 1874 995 919 1978 11645 4551 10098 7716 12359 10350 
10 1533 450 1360 623 11072 11070 6320 11038 3383 12390 
10 563 1475 392 1301 11251 9818 3206 12412 6148 11208 
10 1300 1474 391 1301 6145 10557 11228 5628 6144 11206 
10 1312 402 117 403 12303 2721 9319 9318 2725 2723 
10 1315 264 120 263 5668 8560 12122 5669 2421 8559 
10 1493 1319 410 581 6202 8897 10976 10977 12495 3260 
10 1654 743 744 841 9220 3755 9219 12252 4516 4237 
10 264 1315 120 406 5668 12122 8560 8886 12121 2732 
10 463 462 1371 322 2909 9059 8804 12503 11058 5837 
10 1499 1326 588 1325 6219 12459 8929 6220 5703 8930 
10 1875 995 1979 1050 11647 11813 7721 12297 4716 11814 
10 596 1265 356 355 12425 9577 3586 3435 12083 2583 
10 1979 1876 1875 1050 7722 7373 7721 11814 11156 12297 
10 1217 1216 1252 2154 5285 5464 5424 11999 11141 11218 
10 1317 580 579 408 9061 3258 10910 10086 3256 3254 
10 968 1865 1734 1864 11000 7338 10671 11001 7339 7334 
10 1874 995 1978 1875 11645 12359 7716 7370 11647 7718 
10 1421 511 201 200 9012 3048 12072 10176 3049 2355 
10 217 1268 216 73 5526 5527 2373 8611 11330 8610 
10 213 1264 69 355 5515 12164 8603 12082 11475 2579 
10 499 1408 666 498 9184 11210 3517 3016 11211 3518 
10 1517 607 773 1516 11506 3840 12018 6274 11507 12398 
10 435 294 152 151 12165 8440 2824 2823 8439 2303 
10 433 1342 434 150 10577 12308 2822 2818 12490 2820 
10 332 189 1407 498 5100 11376 5946 11293 3012 11073 
10 507 675 1417 1437 3545 9541 9540 10057 12315 6034 
10 248 105 390 104 8529 2685 12417 8528 2255 2684 
10 1178 1091 1200 1987 5156 5234 5235 11688 12370 11653 
10 161 1353 304 160 12437 5783 8458 2312 11012 8457 
10 420 1330 592 421 10990 9432 3292 2779 9416 3293 
10 1089 1887 1988 1886 9484 7754 11726 9485 7409 7753 
10 1986 1091 1178 1987 12249 5156 10683 7752 12370 11688 
10 1366 457 1539 1365 10794 10945 6338 5824 10946 6339 
10 1762 1740 1578 828 7004 6936 7003 12504 12241 12441 
10 1700 792 1536 626 10390 10634 6818 10391 3897 9590 
10 686 685 1600 845 3574 9989 9987 4046 4047 12486 
10 675 1551 1417 1437 10122 6375 9541 12315 6376 6034 
10 782 857 1897 933 4333 11361 8952 4713 4510 9548 
10 1993 888 1915 1791 9121 9122 7775 7774 12045 7520 
10 1993 1793 888 1791 7773 11106 9121 7774 7116 12045 
10 44 17 43 469 2528 2527 2192 2927 9968 2926 
10 2130 1256 1232 1218 11435 5442 11446 12418 5443 5366 
10 681 514 1424 513 3557 9611 9514 3558 3059 10343 
10 781 1687 614 780 12505 9539 3863 3865 8984 3861 
10 1005 1108 1109 1908 4916 4920 4918 11662 10597 10611 
10 528 664 1404 494 3512 9741 12251 3103 3511 10503 
10 805 1597 1756 1755 11562 6982 9727 9728 6980 6984 
10 615 781 1688 614 3864 10747 9528 3361 3863 9529 
10 1907 1005 1908 1108 12488 11662 7499 10730 4916 10597 
10 501 193 335 192 3020 5022 11947 3021 2345 5023 
10 1907 1005 1108 1004 12488 4916 10730 11709 4580 4915 
10 1885 950 1756 1884 9864 10374 7401 7403 9865 7399 
10 516 349 1426 205 11377 6001 9214 3064 7746 10346 
10 206 349 1427 516 7745 6003 12194 3063 11377 11090 
10 844 950 843 1757 4391 4392 4045 10692 10881 10694 
10 1907 1005 1004 1782 12488 4580 11709 7494 11824 11708 
10 1524 1687 614 1688 6778 9539 9962 6782 6783 9529 
10 1022 1920 1021 1123 11346 12279 4632 4961 10592 4960 
10 741 1485 1484 1767 9527 6179 10798 11516 7024 7025 
10 1801 896 1800 1646 9899 9957 7141 7140 8766 7136 
10 1269 1442 1268 359 6050 6051 5531 12003 8879 8877 
10 1687 781 614 1688 12505 3863 9539 6783 10747 9529 
10 1297 387 1470 1296 10603 10924 6132 5616 10925 6133 
10 1278 369 84 370 10965 2621 12322 12423 2625 2623 
10 558 387 386 1296 3191 2677 3190 10926 10925 9614 
10 385 99 1294 243 2669 12405 12076 11395 8518 5605 
10 1293 242 98 241 5602 8516 11400 5603 2399 8515 
10 32 58 1393 31 2557 11963 5903 2179 2556 5904 
10 626 792 1536 625 3897 10634 9590 3394 3896 10887 
10 569 398 397 1307 3224 2710 3223 12147 9253 12285 
10 107 1302 250 392 11242 5630 8533 2691 9816 9249 
10 569 1480 1481 1307 10249 6167 12146 12147 6162 6166 
10 792 1535 1536 625 10273 6331 10634 3896 10275 10887 
10 1491 580 1318 1492 9063 9062 6195 6200 10963 6199 
10 266 1317 408 1318 5674 10086 10084 5678 5679 11008 
10 1317 580 408 1318 9061 3256 10086 5679 9062 11008 
10 1313 118 261 262 12163 8555 5663 5662 8556 2419 
10 129 1324 272 414 11876 5696 8577 2757 11175 9413 
10 1392 483 1393 1565 9143 9187 5905 6417 11701 6416 
10 1920 1801 1802 1022 7533 7144 7532 11346 10281 11142 
10 663 597 861 1604 3509 4101 4102 12227 11051 11270 
10 413 1323 414 128 10998 9411 2758 2754 9412 2756 
10 283 140 212 1264 8510 11714 5514 6023 9466 5516 
10 1500 1665 756 1666 6713 9359 9883 6717 6718 10943 
10 1503 591 1329 592 12136 10415 6232 10542 3294 12149 
10 996 1169 997 2082 5117 5118 4556 8836 8838 8860 
10 1330 420 278 135 10990 10111 5714 10991 2775 8589 
10 146 430 289 1338 2808 10856 8429 9742 12309 5738 
10 1942 1828 1046 1941 7600 9982 9407 7601 7596 12344 
10 1828 1045 1046 1941 9532 4703 9982 7596 9533 12344 
10 607 1344 435 1343 10543 10545 3336 8964 5758 12166 
10 1265 529 1266 1439 9579 9580 5522 6043 11110 6042 
10 1330 420 592 1329 10990 3292 9432 5715 9429 12149 
10 430 1339 289 1338 10855 5742 10856 12309 5743 5738 
10 1905 1000 1778 1924 9072 9801 7490 7768 9074 7544 
10 1905 1777 1778 1000 7491 7069 7490 9072 9799 9801 
10 161 1353 160 444 12437 11012 2312 2851 10132 2850 
10 147 431 148 290 2811 2812 2299 8431 12320 8432 
10 13 10 508 11 5488 3041 11096 2502 2522 12313 
10 1541 1540 1367 458 6346 6341 6345 9208 10395 10397 
10 529 1605 1266 1439 11308 6533 9580 11110 6534 6042 
10 156 299 1349 300 8448 5772 11649 8449 2458 5771 
10 319 176 1368 318 8487 11167 5828 2477 8486 5829 
10 943 1843 1842 1952 8772 7276 8974 11504 7631 7632 
10 1553 1550 639 1549 6551 12174 9597 6856 6373 12231 
10 1691 1672 784 1692 7156 11907 11801 6795 7243 9914 
10 1463 723 1466 555 9812 11519 6121 8854 3691 10950 
10 157 156 1349 300 2308 11649 11650 8450 8449 5771 
10 1376 466 183 467 11585 2917 12055 11557 2921 2919 
10 1359 1533 450 1360 6321 11072 10582 5806 6320 11070 
10 1080 1100 1983 1095 4888 10322 11786 4864 4890 12331 
10 167 451 1360 450 2871 9031 11069 2869 2873 11070 
10 1058 1843 943 1952 10004 8772 4737 10006 7631 11504 
10 1709 803 1847 802 11803 10101 7287 12457 3931 10103 
10 444 616 1527 1526 3363 11226 10134 10687 10686 6304 
10 684 1427 1598 516 10590 6513 10591 3567 11090 11091 
10 1270 360 218 75 12413 11310 5533 12103 2594 8614 
10 637 803 1710 636 3930 11804 9601 3427 3929 11082 
10 463 323 179 322 11659 8493 2907 12503 2481 8492 
10 517 684 1427 1599 3566 10590 12193 12362 10589 6515 
10 1372 323 463 322 5840 11659 8805 5841 2481 12503 
10 77 220 76 362 8618 8617 2226 2600 11572 2599 
10 1445 704 1616 1615 8796 8798 6573 6569 9111 6574 
10 1271 76 362 361 11573 2599 8794 10207 2597 2601 
10 1630 882 1789 1629 9275 9276 7100 6616 10386 7101 
10 2113 2157 1257 2141 8393 10382 9555 8305 8395 12388 
10 1962 1159 1963 2075 10709 11738 7669 8055 10710 8057 
10 541 1278 1451 542 9766 6077 9767 3145 10918 11718 
10 499 1408 190 333 9184 12424 3015 10213 5949 5079 
10 545 544 1281 372 3154 11995 9965 3152 3150 11333 
10 231 88 373 87 8639 2633 8827 8638 2237 2632 
10 1408 499 1409 333 9184 9185 5953 5949 10213 5951 
10 1159 2045 1963 2075 12384 8077 11738 10710 8078 8057 
10 1246 2112 2055 1248 9629 8176 10573 5489 9630 10280 
10 197 505 339 1415 3032 9202 2797 10658 8759 5969 
10 1083 1115 1974 1976 4937 10793 12458 10807 10560 7711 
10 1292 382 240 97 8863 12118 5600 11760 2662 8513 
10 1311 402 573 401 11680 3236 8986 11182 2722 3235 
10 1115 1974 1976 2011 10793 7711 10560 10561 7837 7838 
10 1291 1467 1403 382 6123 6124 5936 11788 10169 12454 
10 1403 41 493 1402 5934 11994 12453 5935 5930 11997 
10 253 110 395 109 8539 2700 11867 8538 2260 2699 
10 1168 1092 1976 1083 5113 10832 10558 5111 4855 10807 
10 1872 1977 1092 1976 7712 11615 11787 7710 7714 10832 
10 1265 1264 355 1440 5519 11475 12083 6044 6045 11477 
10 730 893 731 1643 4203 4204 3716 10521 10523 12125 
10 596 1265 355 1440 12425 12083 3435 11204 6044 11477 
10 862 838 1767 1612 4107 12324 12205 10445 9239 7051 
10 1265 213 355 1264 5518 12082 12083 5519 5515 11475 
10 57 1392 31 30 9142 5900 2555 2554 5901 2178 
10 406 1315 405 577 12121 8899 2734 3248 12120 3247 
10 81 80 366 223 2230 2611 2612 8624 8623 10140 
10 582 1493 581 749 9270 10977 3264 3769 9336 3768 
10 1275 81 366 223 10180 2612 9788 5548 8624 10140 
10 404 1314 405 119 10661 8900 2731 2727 11043 2729 
10 591 1502 1328 590 12135 6229 11180 3291 9448 9884 
10 1872 1092 1083 1976 11787 4855 10668 7710 10832 10807 
10 1872 1871 1976 1083 7361 7709 7710 10668 10669 10807 
10 1286 550 549 377 9103 3169 9104 9309 3167 3165 
10 1286 550 377 1287 9103 3167 9309 5585 11530 9308 
10 1286 550 1287 1460 9103 11530 5585 6105 9105 6104 
10 1632 1509 599 1464 7011 8932 11720 6623 6250 8829 
10 143 1335 285 426 12445 5730 8422 2796 8830 12416 
10 1177 2060 1985 2061 11285 7998 12159 9259 8002 8000 
10 1177 2060 2061 2133 11285 8002 9259 9868 8267 8268 
10 1297 246 388 102 5614 8888 8890 10604 8524 2678 
10 246 103 388 102 8525 2679 8888 8524 2253 2678 
10 99 242 1294 243 8517 5606 12405 8518 2400 5605 
10 1522 778 1521 612 12056 11418 6289 11336 3855 11334 
10 1209 1984 1985 2060 10575 7743 12432 10849 7997 7998 
10 157 1350 300 1349 11909 5775 8450 11650 5776 5771 
10 440 156 439 1349 2838 2836 2840 11061 11649 11914 
10 1515 772 606 1516 11191 3837 10580 6271 11192 12494 
10 1165 1984 1985 1209 11667 7743 10520 5260 10575 12432 
10 1344 1518 1517 608 6276 6277 6272 10544 9674 11546 
10 1308 257 399 113 5647 11221 9388 9387 8546 2711 
10 167 1359 166 450 11071 11929 2318 2869 10582 2868 
10 257 114 399 113 8547 2712 11221 8546 2264 2711 
10 1695 1531 1532 621 6803 6319 6802 11455 9092 11456 
10 620 1531 787 621 9091 9653 3881 3379 9092 3882 
10 1672 663 861 1604 12506 4102 12169 6735 12227 11270 
10 1982 1097 1996 1101 10772 12385 7801 12265 4893 9940 
10 176 1368 1369 319 11167 5833 11165 8487 5828 5832 
10 1982 2059 1996 1097 7994 7996 7801 10772 9920 12385 
10 802 1709 636 1545 12457 12484 3927 11126 6845 9980 
10 1804 1650 900 1649 7148 11101 11325 7149 6673 10667 
10 1709 1546 636 1545 6844 9981 12484 6845 6361 9980 
10 1320 1493 1319 410 6201 6202 5685 11643 10976 8897 
10 1493 1320 582 410 6201 11791 9270 10976 11643 3262 
10 1709 803 802 636 11803 3931 12457 12484 3929 3927 
10 1007 1784 1910 1785 11011 7504 9204 11950 7090 7503 
10 1909 1110 1910 2007 8762 9205 7505 7826 8763 7825 
10 468 1550 554 1378 9521 11258 3178 9522 6374 10021 
10 1504 760 1503 592 9193 11856 6236 10541 3801 10542 
10 1375 466 1376 1549 11030 11585 5854 6369 8793 6368 
10 1920 1122 1021 1123 12278 4958 12279 10592 4962 4960 
10 1799 1917 1019 1800 7526 10584 10620 7138 7525 12507 
10 651 481 1391 482 3470 11937 11123 3471 2966 11939 
10 1917 1020 1019 1800 9562 4626 10584 7525 9564 12507 
10 1546 1709 636 1710 6844 12484 9981 6848 6849 11082 
10 616 1526 443 615 10686 9508 3362 3364 11010 3360 
10 2068 1205 2029 1143 10655 12404 8154 10657 5248 12141 
10 598 492 1402 493 3503 11996 12451 3437 2999 11997 
10 492 67 40 1402 2995 2574 12430 11996 11990 5931 
10 2068 2105 2029 1205 8155 8156 8154 10655 11956 12404 
10 596 1265 1439 529 12425 6043 11109 3606 9579 11110 
10 68 1403 41 493 10608 5934 2576 2998 12453 11994 
10 1467 598 493 382 10168 3437 12455 10169 3309 3102 
10 41 67 493 1402 2575 2997 11994 5930 11990 11997 
10 2105 2028 2029 1205 8228 7893 8156 11956 10047 12404 
10 2072 1156 1155 1066 10412 5064 10673 10318 5062 5060 
10 2101 2100 1215 2044 8143 11397 11767 8317 8213 11399 
10 1873 1977 1094 920 7713 11660 10349 11783 11781 4860 
10 503 1412 1585 670 9755 6474 9756 3529 12481 11833 
10 1155 1156 2044 1215 5064 10414 12461 5277 5278 11399 
10 2147 1216 1215 2088 11139 5282 11458 8326 11140 11398 
10 2101 1155 2044 1215 10672 12461 8317 11767 5277 11399 
10 670 831 1585 832 4011 8871 11833 4015 4016 12202 
10 1584 831 669 1745 8870 4012 10675 6951 10333 10224 
10 850 990 993 1754 4532 4544 4541 9703 9706 9704 
10 1597 805 1596 1755 11562 11625 6511 6980 9728 6979 
10 1960 1957 2044 1156 7660 7937 7938 10413 11134 10414 
10 1775 808 918 806 11964 4398 11966 12232 3943 4287 
10 514 203 1424 513 3058 9708 9611 3059 3054 10343 
10 697 1507 1607 526 10360 6545 9139 3613 11354 11095 
10 910 1663 909 1811 12465 11755 4264 10187 7174 12508 
10 1663 1810 909 1811 7170 10689 11755 7174 7175 12508 
10 1810 1031 909 1811 10688 4657 10689 7175 10645 12508 
10 13 525 508 12 11097 3091 11096 2523 3092 3042 
10 1557 644 645 1721 9036 3454 9038 6878 9594 11163 
10 1031 910 909 1811 4658 4264 4657 10645 10187 12508 
10 1272 536 363 1273 9904 3125 10553 5543 9905 10551 
10 545 1282 1281 1455 9964 5570 9965 9558 6089 6090 
10 1447 536 1446 1273 12463 9906 6067 6066 9905 6062 
10 1271 220 1272 362 5535 5539 5540 8794 11572 8904 
10 24 50 476 1385 2541 2946 9150 5879 11103 9151 
10 1265 596 1439 1440 12425 11109 6043 6044 11204 6047 
10 547 716 1457 546 3671 9044 8821 3160 3670 8823 
10 1821 1676 922 769 7205 10831 10239 10238 10796 4297 
10 477 1387 647 478 9354 10051 3458 2954 9732 3459 
10 655 1568 822 656 9641 9643 3983 3487 11220 3984 
10 899 1804 900 1649 11323 11325 4226 10665 7149 10667 
10 1075 1968 1076 1864 10340 10339 4792 8768 7682 8769 
10 1639 890 889 727 11149 4196 10189 10190 4194 4192 
10 1295 244 386 100 5608 9613 9612 12014 8520 2672 
10 1469 1295 557 1468 6130 10989 9814 6131 6126 10039 
10 490 660 491 1400 3497 3498 2993 9953 12500 10348 
10 1988 1089 1987 1200 11726 12369 7755 10802 5233 11653 
10 1687 781 1688 1833 12505 10747 6783 7241 11462 7240 
10 1833 932 1687 780 9535 8985 7241 12471 4328 8984 
10 571 1482 738 1651 9574 10940 3736 10212 6675 10810 
10 332 1408 190 498 5948 12424 5099 11293 11211 3011 
10 1652 1766 1651 901 7107 7435 6679 10211 10205 11176 
10 2063 1254 2062 2119 12213 10883 8008 8198 10884 8197 
10 747 1656 1490 746 10878 6687 12357 3764 9334 9861 
10 1687 781 1833 780 12505 11462 7241 8984 3865 12471 
10 992 1025 903 1819 4834 4640 4680 10961 11564 9848 
10 1317 1491 1490 579 6196 6197 6192 10910 12325 10911 
10 1111 2009 1112 1911 11577 10371 4929 11578 7831 10165 
10 477 1559 647 1387 10241 9145 3458 9354 6398 10051 
10 1735 1570 1571 658 6921 6436 6920 12113 9646 12077 
10 138 1333 423 424 10867 9479 2784 2786 10868 2788 
10 1502 759 758 591 12134 3800 9446 12135 3798 3796 
10 1706 1707 1844 799 6840 7277 7278 9047 9046 11481 
10 1420 199 1419 509 9128 11003 5984 9129 3043 11457 
10 1500 589 1327 1501 9881 12326 6222 6227 11501 6226 
10 1419 199 1420 342 11003 9128 5984 5981 7983 5982 
10 1271 534 1444 361 8777 11548 6056 10207 3119 10208 
10 1465 510 1420 509 10456 9130 6118 10457 3047 9129 
10 1419 1465 1420 509 6117 6118 5984 11457 10457 9129 
10 2118 1227 2093 2084 12152 10680 8248 8257 12509 8298 
10 1601 1760 1602 687 6994 6995 6526 12200 12178 12180 
10 431 290 1340 148 12320 5745 11922 2812 8432 11924 
10 686 1601 687 846 10075 12200 3577 4050 10184 4049 
10 1227 2118 1185 2084 12152 10696 5466 12509 8257 10685 
10 1227 1245 2093 2084 5435 9947 10680 12509 10681 8298 
10 76 1271 219 361 11573 5536 8616 2597 10207 12104 
10 440 1350 157 1349 11059 11909 2839 11061 5776 11650 
10 532 701 1614 531 3626 9352 11545 3115 3625 11378 
10 763 1671 762 700 9752 9754 3813 4078 9459 4507 
10 530 1441 1764 531 10370 7013 9392 3112 8902 12150 
10 701 1764 1614 531 9390 7012 9352 3625 12150 11378 
10 1764 1441 1614 531 7013 6568 7012 12150 8902 11378 
10 1452 543 542 1279 12410 3148 10919 6080 9026 9027 
10 1245 1227 1185 2084 5435 5466 5401 10681 12509 10685 
10 804 1805 949 918 12497 11413 4388 4288 11967 4389 
10 1179 1144 2077 2102 5164 10251 10197 12051 10250 8145 
10 228 370 227 85 11502 12304 2384 8633 2624 8632 
10 1845 946 1846 1955 9006 10863 7285 7641 9007 7640 
10 1709 947 801 802 9065 4381 9064 12457 4382 3928 
10 466 1375 465 1548 11030 8712 2918 8792 6365 9011 
10 666 1742 1580 1581 12185 6941 8912 10454 6942 6464 
10 2001 1100 2077 1983 10321 11278 8069 7806 10322 8070 
10 860 1762 1578 828 10725 7003 12483 4098 12504 12441 
10 1707 945 1844 799 9049 10364 7277 9046 4375 11481 
10 487 657 1569 656 3488 11054 11055 3486 3490 11056 
10 385 1295 557 386 12013 10989 3187 2674 9612 3188 
10 1405 662 1576 1578 10599 10600 6449 6453 10031 6455 
10 558 1469 557 725 9813 9814 3192 3697 12017 3696 
10 659 489 658 1571 3494 3492 3496 11274 12176 12077 
10 1737 1572 826 1736 6927 11440 10161 6928 6923 9688 
10 501 1410 500 192 10079 10080 3022 3021 11946 3017 
10 1407 497 553 665 9758 3176 11209 11074 3515 3516 
10 540 1276 1450 1277 9490 6075 11472 11231 5555 6074 
10 1507 1434 1607 526 6243 6544 6545 11354 9949 11095 
10 936 935 1835 1697 4350 8754 10630 12510 9520 7251 
10 859 1751 766 691 9587 9588 4093 4092 11430 3820 
10 1465 510 679 1592 10456 3553 10458 6496 12022 12298 
10 1067 1157 1068 1956 5065 5066 4768 10116 11623 10118 
10 107 1302 392 393 11242 9816 2691 2693 11728 2695 
10 1051 972 1946 934 4851 11047 10120 4852 4457 10121 
10 972 1051 1946 989 4851 10120 11047 4526 5144 11045 
10 1590 690 689 839 12085 3617 9821 12084 4032 4033 
10 1768 1487 575 1486 7027 9663 10595 7028 6185 11515 
10 211 354 9 1432 5503 2516 7999 10526 6018 6019 
10 527 1438 1433 678 8918 6040 9410 3552 11020 11284 
10 1816 915 916 1037 12243 4282 12321 12221 4675 4676 
10 224 1276 82 225 5551 11970 8626 2381 5550 8627 
10 530 1764 700 531 9392 9458 3623 3112 12150 3624 
10 743 1487 575 1768 9222 9663 3750 10112 7027 10595 
10 1617 869 1869 1616 11581 8786 7350 6577 8787 7351 
10 715 879 716 1627 4163 4164 3672 9842 9841 9042 
10 1453 1454 713 544 6088 11364 12478 12005 11387 3662 
10 809 1715 1714 953 9518 6863 9517 4400 10419 11844 
10 814 1724 958 1855 9617 11608 4414 9619 7308 11609 
10 959 814 958 1855 4416 4414 4418 10144 9619 11609 
10 37 63 64 489 2567 2212 2568 12501 2985 2986 
10 1635 1794 1637 724 7117 7118 6635 10042 10923 9010 
10 1968 1969 1076 1864 7687 10335 10339 7682 7686 8769 
10 1117 2079 2003 1116 8990 8075 10982 4944 11705 10813 
10 1099 1022 1123 1921 4963 4961 5115 11342 11341 11347 
10 2056 1094 1173 1978 11661 5137 12204 7978 10351 12391 
10 1663 754 753 1497 11858 3785 8783 6708 9371 8784 
10 754 1663 909 910 11858 11755 4260 4262 12465 4264 
10 2156 1222 2117 1259 11795 10768 8408 12047 5510 10761 
10 585 1496 1497 1323 11828 6215 12199 11879 6210 6214 
10 272 1324 1323 414 5696 5697 5692 9413 11175 9411 
10 413 585 414 1323 3271 3272 2758 10998 11879 9411 
10 915 759 1668 1669 4277 10549 12314 9427 9426 6727 
10 783 1691 852 784 11234 11905 4335 3874 11801 4336 
10 588 587 1325 416 3282 8928 8930 3280 3278 11469 
10 131 1326 416 417 10129 10130 2763 2765 12096 2767 
10 2144 2156 2117 1259 8345 8408 8319 10760 12047 10761 
10 1892 1691 1717 852 7449 7155 7424 11487 11905 11488 
10 785 1795 1693 1692 10402 7244 11281 9913 7245 6798 
10 1113 1009 1912 1913 4930 10974 11900 11899 12456 7514 
10 814 648 1725 815 3960 12041 9618 3964 3962 11612 
10 659 1572 1736 826 11077 6923 12229 3995 11440 9688 
10 609 1518 1345 608 12168 6275 11654 3343 9674 11655 
10 921 1821 769 1675 10237 10238 4296 12446 7206 10797 
10 1238 2092 2146 1258 11676 8324 10467 5457 11808 11809 
10 436 296 153 295 9664 8443 2827 9665 2454 8442 
10 2094 1238 2139 2142 12492 10468 8294 8306 12339 8309 
10 1848 840 977 933 9307 4470 9290 9863 4511 4528 
10 1797 1014 889 890 9783 4606 11164 9784 4607 4196 
10 442 1524 614 1525 11465 9962 3357 9585 6298 9531 
10 778 1685 931 779 12057 8975 4324 3859 8976 4325 
10 1833 932 780 933 9535 4328 12471 11513 4332 4330 
10 2094 2092 2139 1238 8120 8293 8294 12492 11676 10468 
10 619 446 1356 447 3371 10528 11348 3372 2861 10530 
10 798 1843 944 1706 8770 8771 4372 10815 7274 11485 
10 2004 989 1934 1052 11603 12511 8028 10512 5143 10272 
10 307 1357 1356 447 5796 5797 5792 9306 9269 10530 
10 2107 1243 2150 2151 11092 12192 8341 8349 11093 8389 
10 936 1698 1697 1835 11369 6813 12510 10630 7250 7251 
10 2109 1245 2152 1244 10642 10643 8361 12414 5468 12477 
10 808 809 1714 953 3946 9517 10325 4399 4400 11844 
10 1245 1238 2142 2152 5490 12339 9946 10643 11131 8364 
10 1544 1707 633 800 6838 9181 9056 8752 8751 3920 
10 13 508 10 12 11096 3041 5488 2523 3042 2352 
10 1544 635 801 634 9082 3924 10387 9057 3421 3923 
10 1544 1708 801 1545 6842 8750 10387 6358 6841 11127 
10 1291 382 240 1292 11788 12118 5597 5601 8863 5600 
10 457 1366 630 458 10794 11409 3404 2894 10396 3405 
10 965 1966 1074 1862 9669 10191 4784 9670 7676 9399 
10 1366 1540 630 458 6342 10044 11409 10396 10395 3405 
10 1557 475 1385 645 9037 9341 6392 9038 3452 10388 
10 1971 1093 1868 1867 9699 12512 7692 7691 11542 7349 
10 970 1866 969 1081 12467 10638 4451 4835 10356 4843 
10 1731 1861 820 965 7325 12378 11432 11433 9668 4434 
10 1541 459 1367 1368 10907 10908 6345 6344 11168 5830 
10 1793 1797 1995 889 7126 7779 7780 11470 11164 12039 
10 459 1367 175 458 10908 11745 2895 2897 10397 2893 
10 976 1773 834 835 11295 11868 4468 4467 10700 4025 
10 836 1771 985 835 9405 9648 4497 4104 10698 4498 
10 1540 1541 630 458 6346 9207 10044 10395 9208 3405 
10 974 973 1877 1039 4463 12469 10136 4681 4682 11536 
10 831 1584 1746 1745 8870 6953 8872 10333 6951 6955 
10 1598 843 844 684 10693 4045 10691 10591 4040 4044 
10 1539 630 1366 1540 10201 11409 6338 6343 10044 6342 
10 1757 1598 1756 843 6985 6983 6987 10694 10693 10375 
10 970 1736 825 1866 9687 9689 4449 12467 7340 12444 
10 1795 1672 861 1604 7197 12169 10403 7120 6735 11270 
10 1608 695 807 855 9098 3939 9099 9126 4077 4097 
10 970 1866 825 969 12467 12444 4449 4451 10638 4447 
10 697 972 1673 837 4455 9147 9140 4106 4475 11307 
10 1444 1443 533 1613 6058 10790 11549 6565 6566 10791 
10 45 470 471 18 2929 2933 2931 2531 10215 12440 
10 501 1411 502 669 8746 9677 3025 3527 8747 3526 
10 825 1735 1736 1571 10518 6925 9689 12401 6920 6924 
10 37 63 489 1398 2567 2985 12501 5918 9581 9667 
10 818 1729 963 819 11619 11618 4428 3976 9713 4429 
10 1729 1564 652 818 6903 9853 9854 11619 11979 3972 
10 1566 653 1730 1565 11113 12443 6905 6421 10514 6906 
10 974 973 832 1747 4463 4458 4462 10137 11904 12284 
10 876 1623 1624 713 11911 6598 12482 4155 12447 11365 
10 877 714 713 1624 4158 3666 4157 11775 11363 11365 
10 1038 1010 1914 1011 4933 9794 9795 4847 4598 9366 
10 545 1454 714 1455 11386 11362 3665 9558 6091 11862 
10 556 1463 1468 1294 9638 6128 9640 10933 6113 6127 
10 827 1738 1737 984 11434 6931 10160 4493 12016 10198 
10 1733 822 656 823 9250 3984 11219 11048 3988 3986 
10 1993 888 1013 1081 9121 4604 11104 9123 4811 4812 
10 726 1639 559 1470 10188 8832 3700 10914 6640 8834 
10 1411 1584 502 669 6471 11644 9677 8747 10675 3526 
10 899 1023 1803 898 4634 10229 11255 4223 4633 10230 
10 567 1479 568 1305 11518 9423 3222 11169 6160 9425 
10 396 567 1305 395 3218 11169 11172 2704 3217 11174 
10 1672 1577 663 1604 6734 11087 12506 6735 6546 12227 
10 508 525 1418 663 3091 11098 11085 3507 3508 11089 
10 525 1577 1418 663 11086 6452 11098 3508 11087 11089 
10 1586 1585 1747 832 6479 6956 6957 12348 12202 12284 
10 1036 1815 914 1035 10920 10899 4672 4674 10900 4670 
10 1551 836 675 674 10398 4026 10122 11713 4027 3546 
10 1773 1771 1589 835 7452 7041 7054 10700 10698 10017 
10 433 149 432 1341 2817 2815 2819 11006 10119 12139 
10 1588 673 835 1589 9935 4024 11832 6489 10018 10017 
10 2057 2056 1173 1978 7986 12204 10844 7984 7978 12391 
10 55 481 56 29 2961 2962 2204 2551 11993 2552 
10 1848 1832 1096 1922 7583 9343 9862 7539 7608 9344 
10 846 1887 1888 980 11805 7412 11460 4479 11492 12472 
10 1049 1922 1134 1096 8994 8996 4997 4868 9344 4998 
10 1848 932 933 1096 9536 4332 9863 9862 4865 4866 
10 1148 1057 1952 1149 5040 11831 12499 5044 5042 11976 
10 1060 946 945 1845 4744 4380 4743 9004 9006 10363 
10 1843 1058 944 1953 10004 4738 8771 7635 10005 11473 
10 470 640 471 1380 3438 3439 2933 12448 11508 12439 
10 1876 973 1877 1747 11903 12469 7376 7372 11904 7374 
10 479 1388 1561 1389 10858 6405 9636 8957 5893 6404 
10 1429 351 1428 518 6009 6007 6011 8743 8941 8942 
10 517 684 1599 685 3566 10589 12362 3570 3571 10534 
10 1216 2040 2088 2132 12116 8104 11140 11998 8264 8265 
10 635 1544 801 1545 9082 10387 3924 9083 6358 11127 
10 842 1594 863 680 9712 9718 4112 4039 9722 4113 
10 1729 1859 963 1860 7319 11616 11618 7323 7324 10268 
10 864 1606 1634 696 12023 6627 11639 4116 12216 11918 
10 1969 1865 1970 1077 7685 7689 7690 10334 10336 10359 
10 1606 1575 1634 696 6547 6626 6627 12216 11891 11918 
10 1606 1575 696 1436 6547 11891 12216 6540 6447 9175 
10 528 1606 765 696 12421 12215 3818 3604 12216 3819 
10 528 1606 696 1436 12421 12216 3604 12209 6540 9175 
10 2127 2070 1250 1249 8252 11789 11698 11696 11394 5417 
10 1773 1982 985 976 7730 9649 10699 11295 12452 4499 
10 1594 692 863 680 9716 4114 9718 9722 3593 4113 
10 496 497 553 1406 3010 3176 3177 9657 9655 10034 
10 24 1386 476 51 5883 9149 9150 2542 9439 2947 
10 662 860 1578 828 4099 12483 10031 4003 4098 12441 
10 497 1407 553 1406 9758 11209 3176 9655 5947 10034 
10 860 1012 1762 987 4600 10763 10725 4521 4603 11520 
10 1777 869 870 999 10380 4138 9800 10381 4560 4561 
10 538 1275 366 1274 11596 9788 3132 11187 5549 10141 
10 536 1447 537 1273 12463 12004 3130 9905 6066 10452 
10 1869 1777 1972 999 7352 7694 7695 10162 10381 10379 
10 1821 921 1890 1675 10237 8781 7454 7206 12446 7417 
10 2024 1137 2073 1935 11674 11063 8049 7875 11064 8047 
10 1038 1936 922 1937 12172 12173 4679 12330 7586 11638 
10 1273 365 537 364 9157 3129 10452 9158 2610 3128 
10 921 769 768 1675 4296 3829 4295 12446 10797 8947 
10 1911 1111 1008 1112 11578 4925 10164 10165 4929 4927 
10 1133 2125 1231 1164 11683 9327 5336 5096 11684 5337 
10 981 1086 980 1989 4822 4823 4483 12335 11725 12042 
10 2122 1192 2014 1193 12214 12181 8207 11793 5210 11319 
10 1093 952 1868 1867 4856 10024 12512 11542 10703 7349 
10 5 1290 141 284 5592 9233 8417 2442 5595 8419 
10 846 981 980 1888 4482 4483 4479 11460 11459 12472 
10 1663 754 909 753 11858 4260 11755 8783 3785 4259 
10 1086 1999 2076 1989 10804 8068 11670 11725 7800 8010 
10 1195 2129 1197 2110 12233 9444 5222 11253 8329 11254 
10 1334 141 381 1290 12415 2658 9513 5728 9233 8733 
10 561 1473 729 562 11320 12311 3708 3204 9089 3709 
10 1471 728 560 1472 11982 3705 9856 6140 9329 12395 
10 1817 1896 1932 1037 7546 7572 7569 10470 10471 12222 
10 865 1896 1932 1899 11622 7572 12271 12513 7769 7845 
10 294 434 435 1343 12212 2825 12165 5753 8965 12166 
10 1059 1953 1844 944 11474 7634 11484 4740 11473 11482 
10 551 552 1288 1461 3175 11983 10547 10852 11607 6107 
10 1053 1947 1176 1145 9481 10368 5148 5031 10719 5149 
10 1949 1839 1840 940 7623 7267 7622 9474 10480 9476 
10 1216 1157 2132 1217 5281 10994 11998 5285 5283 9102 
10 956 1064 1065 1945 4755 4759 4757 10905 10422 10906 
10 552 1462 1288 1461 12393 6111 11983 11607 6112 6107 
10 644 1557 1556 1721 9036 6394 10292 9594 6878 6879 
10 1856 1726 960 1725 7310 11712 10148 7311 6895 12095 
10 1592 510 691 511 12022 3588 11004 9013 3050 3587 
10 2008 1111 2007 1910 11579 12397 7829 7828 11391 7825 
10 2125 2012 1193 2014 8226 11691 11792 8227 7848 11319 
10 1163 1102 2065 1114 5155 10105 11873 5189 4936 11980 
10 1111 2008 1911 1910 11579 7827 11578 11391 7828 7508 
10 1014 2003 1114 1116 10837 10814 4935 4939 10813 4941 
10 895 1020 1800 1019 4624 9564 9976 4622 4626 12507 
10 2125 1133 2012 2097 11683 11690 8226 8225 10985 8130 
10 518 517 207 1428 3071 3066 3070 8942 12360 8943 
10 2133 2061 1235 2062 8268 9260 9869 8270 8005 10885 
10 1898 981 1085 982 11576 4820 12079 12080 4486 4819 
10 981 1898 1085 1999 11576 12079 4820 12336 7799 10805 
10 1110 1111 1910 2007 4926 11391 9205 8763 12397 7825 
10 523 527 1433 678 3097 9410 10762 3551 3552 11284 
10 2116 2068 1174 1205 8190 10729 10262 11957 10655 5463 
10 2116 2105 1205 1204 8297 11956 11957 8937 12286 5246 
10 1047 1942 1943 1829 9406 7604 11959 9408 7599 7603 
10 1007 1111 1910 1110 4924 11391 9204 4922 4926 9205 
10 1181 1243 1182 2107 5394 5395 5176 8867 11092 11777 
10 1706 799 1844 944 9047 11481 7278 11485 4373 11482 
10 1108 1907 2066 2064 10730 8020 11118 10598 8014 8037 
10 649 479 1561 1389 3464 9636 9635 8958 8957 6404 
10 917 1817 1818 1670 10469 7450 9112 12098 7191 7195 
10 1988 1086 2076 1989 11727 11670 8009 7758 11725 8010 
10 1016 1889 1017 892 9830 9823 4617 4613 11479 4615 
10 1099 2050 1992 1921 10564 7956 11239 11342 7953 7849 
10 1918 1119 1118 1017 10194 4950 10193 9824 4948 4946 
10 1647 1478 1479 735 6663 6161 6662 10872 10866 11357 
10 2050 1099 1123 1921 10564 5115 10563 7953 11342 11347 
10 710 541 540 1450 3653 3142 3652 10156 10298 11472 
10 998 869 868 1869 4558 4135 4557 9775 8786 8788 
10 1264 140 212 69 9466 11714 5516 12164 2578 8602 
10 1928 1033 1129 1032 10453 4984 9313 11500 4665 4983 
10 1920 2050 1123 1921 7954 10563 10592 7537 7953 11347 
10 1128 1927 1032 1031 9805 9806 4981 4980 10644 4662 
10 1128 1199 1129 2016 5230 5231 4985 10756 10258 10038 
10 1982 1101 1996 1895 12265 9940 7801 7732 12105 7785 
10 1157 1216 2132 2040 5281 11998 10994 10995 12116 8264 
10 926 1680 773 925 11383 10755 4309 4311 10754 4307 
10 1520 776 610 777 10532 3849 9018 12237 3853 3851 
10 1830 930 1829 1684 9955 9956 7233 7232 9021 7228 
10 926 774 773 1680 4310 3844 4309 11383 11300 10755 
10 54 479 480 1389 2956 2960 2958 12403 8957 8959 
10 702 1899 1896 865 9418 7769 9417 4123 12513 11622 
10 2101 1155 1194 1154 10672 5213 10430 10571 5061 5212 
10 701 1896 865 702 9351 11622 4122 3630 9417 4123 
10 807 1795 861 597 9097 10403 4119 3940 11269 4101 
10 35 1397 1396 487 5916 5917 5912 9925 11053 9926 
10 1861 1860 1730 964 7327 7322 7326 12347 11735 11850 
10 725 888 1791 887 4188 12045 11733 4187 4190 12291 
10 1672 784 1692 861 11907 9914 7243 12169 4337 10404 
10 1234 2048 1162 2047 11634 11249 5349 11635 7950 9909 
10 1161 1234 1162 2047 5348 5349 5088 9908 11635 9909 
10 783 1892 857 852 10113 10114 4334 4335 11487 4084 
10 1577 1672 663 852 6734 12506 11087 12290 11906 4067 
10 2059 2068 1174 2116 8029 10729 10259 8189 8190 10262 
10 1795 785 807 861 10402 4120 9097 10403 4121 4119 
10 2116 1135 1174 1994 8936 5140 10262 8188 10753 10260 
10 1931 1132 1087 2000 11629 5101 10287 8027 12514 9747 
10 1183 2052 1108 2064 9769 10596 5177 12515 8015 10598 
10 1244 1238 2152 1239 5505 11131 12477 5472 5480 11748 
10 796 1704 630 1703 12470 10043 3909 9994 6831 10202 
10 865 866 1899 1087 4126 11747 12513 4826 4827 9745 
10 1053 1958 1052 1176 11303 9365 4724 5148 9364 5150 
10 1841 796 1703 1704 11410 9994 7269 7268 12470 6831 
10 937 1958 1934 1052 10376 7653 10271 4719 9365 10272 
10 794 1702 795 628 12436 10830 3907 3903 11247 3905 
10 1702 629 795 628 11244 3906 10830 11247 3403 3905 
10 804 1711 1710 1805 9600 6852 9602 12497 7154 7289 
10 2026 2094 2022 1202 8118 8119 7884 11505 12188 12260 
10 1775 1553 1552 806 7059 6381 7058 12232 12475 12327 
10 2037 2096 1213 2100 8125 9960 10433 8139 8140 9961 
10 1408 332 1407 498 5948 5946 5950 11211 11293 11073 
10 847 688 1602 687 4052 11291 12179 4053 3580 12180 
10 1553 640 1552 806 9596 12426 6381 12475 3937 12327 
10 865 1899 1932 1087 12513 7845 12271 4826 9745 9746 
10 2137 2144 1252 2154 8320 11686 11511 8384 8396 11218 
10 1036 1037 1932 1087 4677 12222 8816 5127 4883 9746 
10 2085 1222 2117 2060 11796 10768 8192 8098 10769 8193 
10 1083 1871 1976 1974 10669 7709 10807 12458 7701 7711 
10 1071 1859 963 962 9622 11616 4776 4775 12236 4430 
10 1228 1241 2106 1199 5388 12191 10641 5323 5390 10257 
10 1905 2017 1105 1924 7856 10773 9071 7768 7855 9073 
10 1858 961 962 1070 9998 4427 9999 11544 4772 4773 
10 1931 2021 1132 2000 7866 12464 11629 8027 8042 12514 
10 1211 1148 1147 2036 5264 5041 5263 10492 11552 10083 
10 1859 1071 1858 962 9622 9623 7321 12236 4775 9999 
10 996 866 1087 2000 4552 4827 4828 9779 11128 9747 
10 860 1762 828 987 10725 12504 4098 4521 11520 4520 
10 1198 1199 2089 1237 5232 10345 10301 5376 5377 12411 
10 1221 2123 1251 1180 8799 11442 5422 5300 8801 5423 
10 2112 2145 1262 2140 8354 10842 9628 8355 8356 12300 
10 1257 2113 2141 1248 9555 8305 12388 5491 11806 12491 
10 2123 2145 1255 2149 8321 10749 10958 8334 8344 10744 
10 1977 1092 1976 2055 11615 10832 7714 7975 10833 7974 
10 1762 1740 828 987 7004 12241 12504 11520 11213 4520 
10 1255 2138 1251 1237 10748 9373 5439 5499 9374 5494 
10 2112 2140 1262 1253 8355 12300 9628 11741 11401 5509 
10 1143 1047 2029 1943 5024 11537 12141 11960 11959 7891 
10 1944 2025 1943 1048 7878 7894 7607 11820 12516 11961 
10 1971 1093 1088 1868 9699 4858 9700 7692 12512 11881 
10 690 1590 1611 839 12085 6560 12517 4032 12084 12487 
10 1663 754 1664 910 11858 12130 6712 12465 4262 12131 
10 222 79 1273 221 8621 9156 5541 2378 8620 5542 
10 1311 402 260 1312 11680 10167 5656 5661 12303 5660 
10 2025 1143 1943 1048 11837 11960 7894 12516 5025 11961 
10 88 374 89 232 2635 2636 2238 8640 9502 8641 
10 374 547 1284 1283 3158 12075 8922 9503 8822 5576 
10 1727 1563 1728 817 6896 6900 6901 11512 9108 9110 
10 682 681 1596 850 3562 9515 9710 4060 4061 12306 
10 805 682 1596 850 3936 9710 11625 4063 4060 12306 
10 1059 945 1844 1954 4741 10364 11484 12266 12442 7638 
10 1060 945 1059 1954 4743 4741 4745 9749 12442 12266 
10 1469 725 1739 1635 12017 11734 6934 6628 10048 6935 
10 43 468 16 328 3090 10035 2526 10450 11842 5858 
10 1059 2038 1151 1954 12377 12375 5048 12266 7919 9751 
10 1892 783 1691 852 10113 11234 7449 11487 4335 11905 
10 2038 2039 1151 1954 7924 9750 12375 7919 7923 9751 
10 1672 1691 852 1717 7156 11905 11906 7031 7155 11488 
10 663 1672 861 852 12506 12169 4102 4067 11906 4103 
10 1672 784 861 852 11907 4337 12169 11906 4336 4103 
10 1860 1861 1965 964 7327 7673 7674 11735 12347 11737 
10 1276 1449 540 1450 6071 9491 9490 6075 6076 11472 
10 1861 1073 1965 964 12346 10706 7673 12347 4781 11737 
10 873 710 709 1620 4146 3654 4145 9836 11382 9837 
10 266 1317 265 122 5674 5675 2423 8564 10085 8563 
10 1462 552 856 1461 12393 4081 10295 6112 11607 10296 
10 1489 578 1316 1490 12089 12091 6189 6194 12408 6193 
10 578 407 406 1316 3251 2737 3250 12091 8906 12092 
10 1614 702 1719 1896 11632 9419 6873 7440 9417 7442 
10 853 1632 720 1631 11389 12025 4496 12399 6622 9284 
10 1315 1489 406 1316 6190 12090 12121 5673 6189 12092 
10 1501 758 757 590 9447 3797 9888 9449 3795 3793 
10 1667 1502 758 1501 6719 9446 9886 6720 6230 9447 
10 1696 934 788 789 9764 4342 11451 11584 4343 3889 
10 1504 1331 593 1330 6234 10988 11763 6235 5718 9431 
10 611 1520 777 1521 11920 12237 3852 11419 6286 11420 
10 732 1476 1475 1644 9349 6152 12217 12341 6653 6654 
10 1520 1684 777 1521 6770 9022 12237 6286 6769 11420 
10 1328 277 133 276 5707 8586 12027 5708 2434 8585 
10 431 147 430 1339 2811 2809 2813 9279 9804 10855 
10 148 432 291 1340 2814 10646 8433 11924 11923 5744 
10 429 145 288 146 2805 8427 11790 2806 2297 8428 
10 147 431 290 1339 2811 12320 8431 9804 9279 5741 
10 442 302 159 158 11015 8454 2845 2844 8453 2310 
10 2118 1227 1185 1186 12152 5466 10696 11984 5370 5188 
10 1137 1227 2118 1186 5315 12152 12151 5365 5370 11984 
10 865 866 702 1899 4126 4124 4123 12513 11747 9418 
10 455 627 1537 454 3396 9499 9171 2885 3395 9501 
10 1312 402 260 117 12303 10167 5660 9319 2721 8553 
10 1899 702 1613 866 9418 10637 7470 11747 4124 11746 
10 1806 1027 2006 1026 12242 12261 7548 12240 4647 11825 
10 749 750 1659 905 3773 9274 9338 4247 4248 9627 
10 1806 904 749 905 12239 4245 11256 9625 4249 4247 
10 1311 116 260 402 11679 8552 5656 11680 2720 10167 
10 1641 1473 729 1472 6644 12311 11144 6645 6143 9331 
10 1372 463 1371 322 8805 8804 5842 5841 12503 5837 
10 462 463 179 322 2909 2907 2905 11058 12503 8492 
10 2129 1229 2011 2054 11521 10702 8249 8251 12518 7968 
10 917 761 1670 762 4283 11372 12098 4284 3809 11374 
10 642 473 1382 643 3444 11117 12171 3448 3446 11657 
10 1669 915 760 916 9427 4278 9195 11739 4282 4280 
10 1817 1669 916 1816 7192 11739 10959 7193 7188 12321 
10 655 1568 1395 1567 9641 6426 11042 10997 6427 6422 
10 485 486 60 1395 2978 2976 2974 11471 11041 11628 
10 486 61 60 34 2977 2209 2976 11627 2562 2561 
10 1669 915 916 1816 9427 4282 11739 7188 12243 12321 
10 1568 1733 822 656 6915 9250 9643 11220 11219 3984 
10 186 495 494 329 3003 3004 3000 5226 9572 10502 
10 495 664 494 1404 3510 3511 3004 10513 9741 10503 
10 664 495 1405 1404 3510 9573 10601 9741 10513 5941 
10 2129 1229 2126 2011 11521 10701 8250 8249 10702 8231 
10 1091 1089 1987 1886 5114 12369 12370 11878 9485 7751 
10 13 341 507 12 2501 10013 10014 2523 5224 3038 
10 835 836 1589 674 4104 12024 10017 4023 4027 10019 
10 1421 510 1420 1592 10177 9130 5987 6495 12022 6494 
10 673 506 1415 505 3538 10970 12289 3539 3037 8759 
10 1473 561 729 1472 11320 3708 12311 6143 9330 9331 
10 1885 1091 1987 1886 11912 12370 7750 7406 11878 7751 
10 1430 352 1429 519 6012 6010 6014 8756 10663 8742 
10 518 517 1428 685 3071 12360 8942 3569 3570 12354 
10 1975 1119 1120 2071 11403 4953 10617 8036 11785 10618 
10 877 876 1624 713 4159 12482 11775 4157 4155 11365 
10 1590 839 1633 1611 12084 9238 6624 6560 12487 6625 
10 849 1766 1633 1611 10203 7020 9236 9680 7021 6625 
10 1143 1205 2029 1142 5248 12404 12141 5026 5247 11538 
10 400 572 1483 571 3232 9682 10953 3230 3234 9576 
10 279 1330 278 135 5713 5714 2436 8590 10991 8589 
10 222 365 1274 1273 11198 10139 5545 5541 9157 5546 
10 997 2067 1998 2082 12519 8025 8861 8860 8234 8089 
10 539 1276 367 1275 9488 11385 3135 9786 5552 9787 
10 997 2067 2082 1103 12519 8234 8860 4899 10299 9744 
10 92 1287 377 378 11637 9308 2645 2647 9544 2649 
10 997 2067 1103 998 12519 10299 4899 4559 10297 4900 
10 1511 429 601 1337 11279 3318 10975 6255 11088 10981 
10 1522 1685 1521 778 6772 6773 6289 12056 12057 11418 
10 1629 1458 1459 718 6612 6103 6611 10428 10427 11884 
10 997 2067 998 1998 12519 10297 4559 8861 8025 9776 
10 1850 948 1847 949 10623 10102 7519 10624 4390 12287 
10 1297 1471 559 388 6136 8833 12389 8890 12127 3194 
10 385 556 1468 1294 3185 9640 12466 12076 10933 6127 
10 1546 464 1547 636 9211 11416 6364 9981 3423 11083 
10 948 803 1847 949 4385 10101 10102 4390 4387 12287 
10 809 642 808 1554 3944 3942 3946 9516 9692 10324 
10 1309 400 1310 1483 9358 11379 5655 6172 10953 6171 
10 409 580 581 1492 3257 3261 3259 12433 10963 10653 
10 400 572 1310 1483 3232 9930 11379 10953 9682 6171 
10 556 1468 724 557 9640 10041 3693 3189 10039 3694 
10 1311 573 1310 401 8986 8988 5658 11182 3235 9931 
10 1962 1069 1961 1857 9163 9164 7666 7665 10147 7661 
10 961 816 960 1726 4422 4420 4424 11543 11429 11712 
10 748 1491 1657 1492 10962 6690 9401 10651 6200 6689 
10 1320 125 411 410 11183 2747 11874 11643 2745 2749 
10 1876 1980 1050 1979 7724 11154 11156 7722 7726 11814 
10 1320 125 410 268 11183 2745 11643 5684 8569 10850 
10 411 1320 1494 1321 11874 6205 10897 10898 5688 6204 
10 1480 736 1649 1648 9243 12063 6669 6665 9244 6670 
10 1875 995 1050 971 11647 4716 12297 11648 4550 4715 
10 1817 1669 1670 916 7192 6730 7191 10959 11739 11740 
10 1979 2058 1050 1136 7987 12468 11814 11812 12108 5002 
10 2057 2114 2058 1136 8182 8183 7989 10843 12133 12108 
10 919 995 1094 1978 4551 4862 4859 10350 12359 10351 
10 1980 2058 2069 1153 7988 7992 7990 11444 12109 11568 
10 761 594 1505 762 3805 12352 11371 3809 3807 11373 
10 1894 2013 1082 982 7841 11682 10068 10069 12065 4814 
10 1938 1139 1042 1939 11664 5009 9266 7592 10054 10055 
10 1683 928 1682 776 12102 9084 6768 10531 4316 11193 
10 149 433 292 1341 2817 12264 8435 10119 11006 5747 
10 607 606 773 1516 3337 3839 3840 11507 12494 12398 
10 1086 981 1085 1999 4822 4820 4824 10804 12336 10805 
10 1113 1009 1112 1912 4930 4928 4932 11900 10974 12496 
10 1009 1913 1787 1912 12456 7513 8955 10974 7514 7509 
10 1320 411 1494 582 11874 10897 6205 11791 3263 9271 
10 615 442 1525 443 3359 9585 9530 3360 2849 9510 
10 991 1095 1882 993 4863 12294 12295 4543 4870 10862 
10 1095 1165 1882 993 5098 10861 12294 4870 5097 10862 
10 1169 2021 1131 2020 8837 10288 5214 12367 7868 10290 
10 1355 162 1354 305 11237 10936 5791 5790 8460 5786 
10 2039 1152 1154 1151 8818 5154 8817 9750 5053 5274 
10 1892 857 1717 1770 10114 10225 7424 7423 11013 7049 
10 1785 879 1008 878 10181 4588 11955 10182 4165 4587 
10 472 47 20 1382 2935 2534 9138 11838 11839 5871 
10 1909 1783 1006 1908 7501 9000 12210 7502 7497 11663 
10 455 1537 1363 454 9171 6333 9170 2885 9501 9174 
10 635 462 634 1371 3419 3417 3421 9081 9059 9060 
10 1685 778 1684 1521 12057 9020 6774 6773 11418 6769 
10 1364 455 1363 314 9169 9170 5818 5817 10992 5813 
10 1059 1150 1151 2038 5046 5050 5048 12377 10447 12375 
10 2107 1181 2033 1107 8867 8868 8161 11778 5172 8874 
10 1785 879 1786 1008 10181 8954 7093 11955 4588 11958 
10 640 1553 554 639 9596 11257 3600 3622 9597 3433 
10 2021 1132 1131 1930 12464 4994 10288 7867 11703 10289 
10 2002 1016 1117 1015 9829 4943 8992 11672 4614 4942 
10 1130 1220 1131 2020 5324 5297 4991 10775 12067 10290 
10 1188 2079 1117 1116 10170 8990 5195 5194 11705 4944 
10 1188 2079 1116 1206 10170 11705 5194 5333 11706 5252 
10 1220 2020 1169 1131 12067 12367 5295 5297 10290 5214 
10 1727 816 961 1726 10127 4422 9996 6898 11429 11543 
10 1726 815 960 1725 11611 4419 11712 6895 11612 12095 
10 1854 957 958 1066 11558 4415 10029 10027 4760 4761 
10 947 946 1708 801 4383 8749 9066 4381 4379 8750 
10 1715 1850 1714 953 7295 7296 6863 10419 10625 11844 
10 1025 904 1891 1026 4641 9832 9833 4644 4642 10766 
10 1397 657 1570 1569 11052 8891 6432 6428 11054 6433 
10 1569 1733 823 1734 6914 11048 11057 6918 6919 12197 
10 1806 2006 1891 1026 7548 7819 7422 12240 11825 10766 
10 1410 501 668 1583 10079 3523 10081 6468 8744 9671 
10 904 1806 1891 1026 12239 7422 9832 4642 12240 10766 
10 1408 499 666 1581 9184 3517 11210 6462 9186 10454 
10 2021 996 1132 2000 8835 5102 12464 8042 9779 12514 
10 1093 952 1088 1868 4856 4832 4858 12512 10024 11881 
10 1408 499 190 498 9184 3015 12424 11211 3016 3011 
10 1381 472 20 1382 12078 9138 5867 5872 11838 5871 
10 1638 679 766 1763 10734 3821 11421 7008 12299 9991 
10 10 1419 526 11 11002 11353 3094 2522 5980 12319 
10 1944 1134 2025 1048 8997 9942 7878 11820 5027 12516 
10 354 1432 521 1431 6018 10527 10525 6016 6020 9223 
10 1134 1143 2025 1048 5142 11837 9942 5027 5025 12516 
10 1430 520 687 1602 10093 3575 10092 6524 11292 12180 
10 1060 1845 1954 1955 9004 7637 9749 9005 7641 7642 
10 829 668 1582 667 4005 11268 12349 4006 3525 10219 
10 703 866 1613 702 4125 11746 12020 3633 4124 10637 
10 874 875 711 1622 4153 4151 4149 11943 10932 9465 
10 411 583 1494 582 3265 10895 10897 3263 3267 9271 
10 1100 2001 1063 988 10321 11668 4895 4889 9116 4752 
10 1900 1903 2031 951 7485 7897 7898 9450 11752 10423 
10 1058 1150 1059 1953 5045 5046 4742 10005 11766 11474 
10 1997 1064 955 1945 10420 4754 9604 7793 10422 10306 
10 543 1453 713 544 12224 12478 3661 3151 12005 3662 
10 545 1454 1281 544 11386 6086 9965 3154 11387 11995 
10 1454 714 713 544 11362 3666 11364 11387 3664 3662 
10 1152 1062 1061 2042 5161 4750 5052 11754 10175 12129 
10 1062 1916 1061 2042 10173 12128 4750 10175 7930 12129 
10 1953 1059 1844 1954 11474 11484 7634 7639 12266 7638 
10 1062 1064 2042 1152 4836 10421 10175 5161 5153 11754 
10 1590 690 1611 1438 12085 12517 6560 6491 9234 6561 
10 690 849 1611 698 4059 9680 12517 3618 4058 9681 
10 1062 1997 2042 1064 10174 7929 10175 4836 10420 10421 
10 1959 1126 2053 1028 10752 10496 7963 12342 4971 12019 
10 571 1482 570 738 9574 9384 3231 3736 10940 3735 
10 1799 895 1800 1019 9977 9976 7138 10620 4622 12507 
10 1801 897 896 1646 9897 4217 9899 7140 8764 8766 
10 1727 961 1858 1857 9996 9998 7317 7313 11540 7318 
10 1803 899 898 1648 11255 4223 10230 7146 12489 11351 
10 1139 2026 2022 1202 11240 7884 11973 5239 11505 12260 
10 749 1493 581 1492 9336 10977 3768 10652 6203 10653 
10 409 1319 1492 581 8895 6198 12433 3259 12495 10653 
10 1658 1493 749 1492 6692 9336 9337 6693 6203 10652 
10 748 904 1657 903 4244 11563 9401 4242 4246 9403 
10 1819 1025 1891 1933 11564 9833 7451 7574 10764 7573 
10 961 1727 962 817 9996 9997 4427 4423 11512 4425 
10 1124 1027 1026 2006 4967 4647 4966 9810 12261 11825 
10 915 914 1816 1668 4279 11827 12243 12314 10550 7189 
10 2058 2114 2115 1219 8183 8187 8185 12110 12132 12288 
10 2086 1224 1172 2049 10481 5371 10972 8100 10483 11758 
10 2058 1136 1153 1050 12108 5116 12109 12468 5002 5093 
10 607 1344 1517 608 10543 6272 11506 3340 10544 11546 
10 924 772 1678 1679 4304 12329 12263 12400 10489 6756 
10 2113 1173 1226 2057 12203 5314 9556 8180 10844 10845 
10 1828 1683 928 1682 7225 12102 10462 7226 6768 9084 
10 774 1680 1517 773 11300 6757 11301 3844 10755 12018 
10 1875 995 1978 1979 11647 12359 7718 7721 11813 7723 
10 1691 1528 617 1527 6790 11753 9377 6791 6307 9379 
10 617 1528 445 1527 11753 10263 3366 9379 6307 10265 
10 616 783 617 1690 3869 3870 3367 11227 11235 9378 
10 674 1416 1417 1589 12184 5977 9542 10019 6486 6487 
10 984 1901 970 887 9889 9782 4534 4492 9891 4825 
10 1207 2056 1248 2055 12356 10279 5410 10572 7979 10280 
10 1088 1115 1974 1083 4938 10793 10816 4833 4937 12458 
10 884 1871 1083 885 9975 10669 4815 4182 10539 4816 
10 675 1551 674 1417 10122 11713 3546 9541 6375 9542 
10 457 1366 316 1365 10794 5823 9543 10946 5824 5819 
10 912 1034 1814 1813 4666 9870 10234 10025 9845 7184 
10 765 1606 1765 864 12215 7019 11178 4115 12023 11179 
10 703 704 1776 867 3636 8915 12021 4127 4128 8774 
10 1991 1124 1098 2006 12270 4968 12235 8064 9810 11826 
10 1183 2134 2052 2064 12380 8272 9769 12515 8273 8015 
10 26 1388 1387 478 5889 5890 5885 9634 9733 9732 
10 479 1388 648 1561 10858 12059 3462 9636 6405 9637 
10 1386 477 51 25 10240 2949 9439 5882 9353 2543 
10 1562 1727 1726 816 6897 6898 6893 10128 10127 11429 
10 2090 1220 1169 1103 12343 5295 8839 9743 5296 5128 
10 1108 1183 2064 1182 5177 12515 10598 5175 5179 11779 
10 2107 2134 1182 2064 8303 12381 11777 8263 8273 11779 
10 726 558 725 1739 3699 3697 3701 10915 10913 11734 
10 490 1399 659 1572 9620 11273 3495 11076 6438 11077 
10 525 13 1418 1437 11097 5978 11098 12316 6035 6036 
10 996 2021 1132 1169 8835 12464 5102 5117 8837 5119 
10 2065 1995 1114 1013 8019 12520 11980 11981 12040 4934 
10 1735 1865 969 1866 7337 12334 10519 7341 7342 10638 
10 1995 1014 1114 1013 12038 4935 12520 12040 4608 4934 
10 2065 1995 2003 1114 8019 8206 8229 11980 12520 10814 
10 703 1444 1613 1615 11547 6565 12020 12474 6570 6571 
10 976 1902 1079 975 12353 9923 4799 4469 10820 4800 
10 1995 1014 2003 1114 12038 10837 8206 12520 4935 10814 
10 829 1744 1582 668 11944 6947 12349 4005 12154 11268 
10 990 1755 1754 850 10880 6981 9706 4532 11553 9703 
10 2134 1183 1182 2064 12380 5179 12381 8273 12515 11779 
10 1232 2131 2130 2075 9723 8282 11446 10718 8261 8281 
10 1755 805 1596 850 9728 11625 6979 11553 4063 12306 
10 1167 1093 1224 1904 5110 5382 5373 10778 11935 12368 
10 1232 1159 2130 1218 5344 12521 11446 5366 5286 12418 
10 741 1485 1653 742 9527 6681 12438 3749 11851 11621 
10 1229 2129 1197 1195 11521 9444 5375 5374 12233 5222 
10 1159 1232 2130 2075 5344 11446 12521 10710 10718 8281 
10 1591 851 838 1653 12031 4079 9240 7032 12234 12323 
10 838 851 742 1653 4079 4235 4234 12323 12234 11621 
10 899 736 1648 1649 4221 9244 12489 10665 12063 6670 
10 2098 2023 1197 2110 8133 11988 9445 8243 8169 11254 
10 1071 1964 1963 1072 11723 7672 9624 4780 10267 12230 
10 1159 2045 2075 2130 12384 8078 10710 12521 8256 8281 
10 1000 1001 1778 1924 4568 9263 9801 9074 11271 7544 
10 706 1447 1618 707 11527 6579 11528 3645 11588 8847 
10 1861 1073 1966 1965 12346 10705 7677 7673 10706 7678 
10 1977 1207 2055 2056 11614 10572 7975 7977 12356 7979 
10 871 1619 1618 1778 9789 6583 8846 9265 7067 7068 
10 1159 1218 2045 2130 5286 10505 12384 12521 12418 8256 
10 1914 1821 921 1890 7734 10237 10344 7735 7454 8781 
10 881 1788 1789 1629 9296 7102 9298 9986 7097 7101 
10 978 882 1011 1789 4599 4597 4802 11080 9276 9297 
10 882 1790 1789 978 9277 7105 9276 4599 10739 11080 
10 1244 1243 1239 2150 5399 5471 5472 12383 12192 11598 
10 1478 734 1647 1646 10865 10871 6663 6659 8765 6664 
10 1498 1663 754 1664 6707 11858 10587 6711 6712 12130 
10 1480 737 1481 1649 10248 9874 6167 6669 10666 6668 
10 899 737 736 1649 4222 3734 4221 10665 10666 12063 
10 1034 1929 1814 1813 9843 7560 9870 9845 7561 7184 
10 1326 417 588 416 12096 3281 12459 10130 2767 3280 
10 1331 594 1505 1504 11761 12352 6238 6234 11762 6239 
10 1029 1808 1809 907 10311 7169 10312 4651 10817 12273 
10 2086 1224 1195 1172 10481 5317 11953 10972 5371 5372 
10 1555 1383 1556 643 6386 6390 6391 11498 11656 10293 
10 1172 2054 2086 2049 10808 8203 10972 11758 7969 8100 
10 2131 1217 1252 2154 9100 5424 9724 8377 11999 11218 
10 1137 1040 1935 1041 5004 9002 11064 5005 4688 9003 
10 771 1515 605 1514 11965 10935 3834 8882 6268 8881 
10 1132 1035 1131 1930 4992 4990 4994 11703 9873 10289 
10 1195 2053 2086 2110 10498 8101 11953 11253 8170 8171 
10 1608 695 1607 1434 9098 11094 6549 6548 11050 6544 
10 679 510 691 1592 3553 3588 3589 12298 12022 11004 
10 2004 989 1946 1934 11603 11045 7824 8028 12511 7616 
10 1498 754 755 1664 10587 3788 11405 6711 12130 11406 
10 1817 917 916 1670 10469 4285 10959 7191 12098 11740 
10 1060 1845 945 1954 9004 10363 4743 9749 7637 12442 
10 1157 1067 1156 2040 5065 5063 5067 10995 11133 11135 
10 1707 946 945 800 11316 4380 9049 8751 4378 4376 
10 756 1499 588 755 11945 8929 3789 3791 11404 3787 
10 1067 1957 1956 1855 11132 7648 10116 10145 7646 7645 
10 917 761 916 1670 4283 4281 4285 12098 11372 11740 
10 924 1678 1823 1824 12263 7210 8807 8809 7214 7215 
10 1962 1159 1158 1070 10709 5076 9165 11730 5074 5071 
10 2072 1066 1155 1065 10318 5060 10673 10314 4762 5059 
10 492 1401 1402 40 10179 5932 11996 12430 5927 5931 
10 2052 2109 1184 2007 8167 9772 9770 7962 8166 9763 
10 1991 1870 1170 1904 7764 10727 11934 7765 7488 10776 
10 1489 578 577 406 12089 3252 11870 12090 3250 3248 
10 1234 2103 2047 1233 10889 8149 11635 5350 9436 12379 
10 66 1401 492 40 10186 10179 2994 2573 5927 12430 
10 1962 1069 1857 1070 9163 10147 7665 11730 4774 11541 
10 974 1078 1981 1878 4797 10278 10818 11199 10276 7728 
10 1042 1825 925 1824 9268 10770 4690 9267 7218 11599 
10 747 1490 579 746 12357 10911 3762 3764 9861 3760 
10 1586 671 832 833 10509 4014 12348 12406 4018 4019 
10 1490 578 579 746 12408 3255 10911 9861 3759 3760 
10 1641 892 729 1642 12043 4200 11144 6649 11480 11860 
10 2136 2105 1204 2108 8314 12286 8935 8315 8258 12522 
10 1918 1018 1798 1975 12340 11448 7707 7706 10621 7705 
10 2092 2094 1202 1238 8120 12188 11678 11676 12492 5367 
10 2094 1201 1202 1238 10626 5241 12188 12492 5380 5367 
10 2105 1203 1204 2108 11297 5245 12286 8258 11296 12522 
10 1203 1258 1204 2108 5453 5448 5245 11296 11810 12522 
10 1984 1881 1983 1095 7738 7737 7740 11666 12293 12331 
10 1258 2136 1204 2108 10678 8935 5448 11810 8315 12522 
10 773 1680 1516 1679 10755 6758 12398 10491 6759 6754 
10 2036 2034 1147 2135 7912 9495 10083 8235 8236 10494 
10 1090 2004 951 2031 11445 11759 4844 10424 7899 10423 
10 2148 2120 2119 1261 8360 8201 8359 11692 9248 11693 
10 2120 1254 2119 1261 9247 10884 8201 9248 5477 11693 
10 1040 1936 2073 1935 10242 8048 11065 9002 7582 8047 
10 772 773 1516 1679 3841 12398 11192 10489 10491 6754 
10 1904 1093 1224 2049 11935 5382 12368 7951 11757 10483 
10 1830 1047 930 1048 9954 4705 9955 11817 4709 4707 
10 2030 1904 1224 2049 8041 12368 10482 8063 7951 10483 
10 2045 1218 2104 2130 10505 10507 8153 8256 12418 8255 
10 2129 1172 1195 1229 10971 5372 12233 11521 5327 5374 
10 772 606 1516 773 3837 12494 11192 3841 3839 12398 
10 1124 2006 1026 1098 9810 11825 4966 4968 11826 4964 
10 1235 1254 1263 2119 5482 5502 5496 10886 10884 11695 
10 1718 1870 994 1849 7353 8849 8851 7429 7448 9217 
10 1606 765 1765 1713 12215 11178 7019 6857 9162 7038 
10 1713 992 765 1765 10712 4537 9162 7038 10713 11178 
10 924 1042 925 1824 4689 4690 4308 8809 9267 11599 
10 1832 932 1831 1686 9537 11277 7239 7238 8983 7234 
10 1254 1200 2062 1235 5433 11689 10883 5482 5451 10885 
10 1885 1091 1986 1987 11912 12249 7748 7750 12370 7752 
10 1047 1830 1943 1048 9954 7602 11959 4709 11817 11961 
10 1916 1955 1846 1061 7797 7640 7643 12128 11968 11969 
10 1775 1553 806 854 7059 12475 12232 11815 9598 4074 
10 948 1850 1847 1916 10623 7519 10102 11807 7523 7524 
10 946 947 1846 1061 4383 11021 10863 4746 4747 11969 
10 2061 1986 1178 2062 8001 10683 9261 8005 8003 11687 
10 946 1060 1061 1955 4744 4748 4746 9007 9005 11968 
10 1964 1860 1965 1072 7670 7674 7675 10267 10269 11736 
10 358 1267 1268 216 11313 5528 8878 12502 5523 5527 
10 1072 2046 1160 1073 12267 12333 5080 4783 10704 5081 
10 1072 2046 1073 1965 12267 10704 4783 11736 7943 10706 
10 1861 1731 1862 965 7325 7329 7330 9668 11433 9670 
10 1501 1500 757 1666 6227 9882 9888 6716 6717 10944 
10 1172 1971 2054 2049 9701 7966 10808 11758 7952 7969 
10 1172 1115 1229 2054 5135 5326 5327 10808 10792 12518 
10 2129 1172 1229 2054 10971 5327 11521 8251 10808 12518 
10 589 1500 757 1501 9881 9882 3792 11501 6227 9888 
10 1168 2126 2011 2055 10633 8231 10559 10632 8232 7976 
10 2041 1157 2132 2043 11624 10994 8284 7936 10993 8266 
10 369 1278 542 370 10965 10918 3143 2625 12423 3144 
10 981 1898 1999 1888 11576 7799 12336 11459 7466 7798 
10 2072 1156 1066 1960 10412 5062 10318 8045 10413 10319 
10 1133 2050 2012 2097 11729 7955 11690 10985 8129 8130 
10 2021 996 2000 2082 8835 9779 8042 8088 8836 8087 
10 1487 1313 1314 404 6184 5667 6183 10659 11263 10661 
10 1801 1920 1021 1022 7533 12279 9898 10281 11346 4632 
10 2112 1262 2141 1248 9628 11811 8304 9630 5493 12491 
10 2113 2112 2141 1248 8181 8304 8305 11806 9630 12491 
10 1106 1906 1923 2033 11287 7542 10873 8873 7903 7904 
10 1244 2134 2150 2152 12382 8340 12383 12477 8362 8363 
10 2010 1171 2073 2009 11600 11590 8050 7835 10373 8194 
10 2109 2134 1244 2152 8274 12382 12414 8361 8362 12477 
10 1009 880 1787 1010 4591 9839 8955 4595 4593 9811 
10 1937 1113 1038 1171 12140 5103 12330 12006 5132 5129 
10 1488 1315 405 1314 6186 8899 12407 6187 5670 8900 
10 1038 1113 1913 1010 5103 11899 9797 4933 4931 9796 
10 2118 2073 1186 2009 8195 12272 11984 8196 8194 11591 
10 1936 1040 2073 1171 10242 11065 8048 11601 5130 11590 
10 1931 1815 1035 1930 7567 10900 10921 7568 7563 9873 
10 704 1445 535 534 8796 8778 3635 3634 8779 3124 
10 869 1617 706 705 11581 11526 4134 4133 12460 3642 
10 996 2005 997 867 9778 8859 4556 4553 8773 4554 
10 1238 2155 1239 2146 10466 11597 5480 10467 8376 12254 
10 2160 94 237 238 12071 8651 12307 8691 8652 2394 
10 1130 1033 1129 1928 4986 4984 4988 9312 10453 9313 
10 2067 1225 1166 2051 10890 5343 10786 8023 10891 10847 
10 628 1701 627 794 11246 11721 3400 3903 12226 3902 
10 1973 1959 2053 1028 7699 7963 7964 9369 12342 12019 
10 628 1701 794 1702 11246 12226 3903 11247 6825 12436 
10 2041 2043 1961 1158 7936 7933 7928 10722 10011 9166 
10 1856 1069 1961 1068 10146 9164 7662 12281 4771 10010 
10 694 856 1462 552 4089 10295 11887 3599 4081 12393 
10 1157 2043 1158 1068 10993 10011 5070 5066 10009 5068 
10 1674 1511 768 601 6739 8946 9605 10969 10975 3824 
10 563 391 1301 392 3205 11206 12412 3206 2692 11208 
10 884 1872 920 1092 9973 11782 4293 4854 11787 4853 
10 72 1267 216 215 11311 5523 8609 8608 5524 2372 
10 1172 1115 2054 1974 5135 10792 10808 10809 10793 7967 
10 1229 1115 2011 2054 5326 10561 10702 12518 10792 7968 
10 1871 1088 1868 1974 12386 11881 7358 7701 10816 7700 
10 1475 1302 392 1301 6147 9816 9818 6148 5631 11208 
10 1163 2065 2080 1114 11873 8082 9686 5189 11980 10812 
10 228 370 85 371 11502 2624 8633 11503 2628 2626 
10 83 226 369 84 8629 11768 2620 2233 8630 2621 
10 1161 1074 1967 1162 5084 9400 9910 5088 5086 9828 
10 84 1278 370 227 12322 12423 2623 8631 5556 12304 
10 1082 2013 2050 2097 11682 8026 10562 10984 8128 8129 
10 1511 1674 768 1675 6739 9605 8946 6743 6744 8947 
10 1302 393 564 392 11728 3209 9817 9816 2695 3208 
10 1999 1086 2076 1164 10804 11670 8068 10806 5095 11449 
10 1299 389 104 390 11145 2682 11146 11225 2686 2684 
10 2156 2133 1222 1263 8379 10767 11795 11699 11700 5497 
10 1181 2107 2087 2151 8867 8162 8869 10822 8349 8350 
10 1278 1279 370 227 5561 9028 12423 5556 5560 12304 
10 1334 141 1290 284 12415 9233 5728 5727 8419 5595 
10 1289 380 1334 1462 11531 11532 6536 6110 11886 6538 
10 142 285 284 1334 8421 2443 8420 9512 5726 5727 
10 1128 1926 1127 2018 12276 11771 4982 10757 7858 11186 
10 1464 694 599 856 10647 3619 8829 12144 4089 4090 
10 1464 426 694 1334 8828 3603 10647 6116 12523 9511 
10 1686 780 779 613 8982 3862 8978 9346 3860 3858 
10 1925 1810 1926 1030 7549 7552 7553 11770 10690 11769 
10 1909 1784 1006 1783 7500 10613 12210 7501 7087 9000 
10 2134 1183 2052 2109 12380 9769 8272 8274 9771 8167 
10 2109 1245 1244 1184 10642 5468 12414 9772 5400 5467 
10 1486 1313 403 1312 6180 11265 11514 6181 5664 9318 
10 1089 1988 1987 1886 11726 7755 12369 9485 7753 7751 
10 1249 2127 2128 2148 11696 8253 9506 9507 8331 8332 
10 1302 565 393 1303 10378 3211 11728 5634 11359 12119 
10 990 1883 1165 993 9705 10569 4875 4544 9707 5097 
10 1177 2060 1209 1985 11285 10849 5259 12159 7998 12432 
10 613 1522 612 779 9345 11336 3355 3858 9347 3857 
10 1414 1586 1587 672 6478 6482 6480 9016 10510 9015 
10 778 1522 779 612 12056 9347 3859 3855 11336 3857 
10 1260 1256 2153 1218 5461 11436 12064 5458 5443 12419 
10 1600 685 1758 845 9989 10535 6989 12486 4047 9793 
10 567 1304 395 566 11170 10474 3217 3219 10475 3215 
10 1301 391 249 106 11206 11229 5627 11207 2688 8531 
10 1322 127 270 271 10329 8573 5690 5689 8574 2428 
10 804 1805 1710 949 12497 7289 9602 4388 11413 12493 
10 736 899 1648 898 4221 12489 9244 4219 4223 11351 
10 2147 2096 1240 2099 8335 9958 10385 8336 8135 10825 
10 2057 1136 995 1173 10843 5003 12358 10844 5138 5136 
10 1183 2134 1244 2109 12380 12382 5398 9771 8274 12414 
10 1244 2150 1239 2152 12383 11598 5472 12477 8363 11748 
10 1190 1247 1249 2128 5411 5414 5412 10071 10875 9506 
10 1232 2144 1259 2143 11802 10760 5455 11447 8337 12048 
10 574 402 1312 403 3238 12303 12302 3239 2725 9318 
10 1218 2153 2104 2130 12419 8367 10507 12418 8373 8255 
10 936 935 1697 790 4350 9520 12510 4348 4346 9025 
10 1435 283 139 282 6027 8598 10870 6028 2440 8597 
10 2061 1084 1177 1178 9900 5151 9259 9261 5157 5158 
10 1753 1881 1882 991 7390 7394 7392 8968 10448 12295 
10 1698 936 1697 790 11369 12510 6813 12142 4348 9025 
10 424 596 425 1440 3304 3305 2791 11205 11204 11476 
10 1698 791 936 790 11368 4349 11369 12142 3895 4348 
10 374 547 375 1284 3158 3159 2640 8922 12075 8921 
10 1440 1264 425 1435 6045 9467 11476 6046 6041 9469 
10 1502 591 1329 1503 12135 10415 6228 6233 12136 6232 
10 418 132 1327 276 2768 11925 9453 9454 8584 5704 
10 1440 596 425 355 11204 3305 11476 11477 3435 3181 
10 1342 292 293 150 5751 2451 5750 12490 8436 8437 
10 1342 433 292 150 10577 12264 5751 12490 2818 8436 
10 1304 1478 1477 566 6157 6158 6153 10475 12435 8842 
10 294 1343 293 434 5753 5754 2452 12212 8965 12262 
10 142 426 1334 694 2795 12523 9512 3598 3603 9511 
10 426 142 1334 285 2795 9512 12523 12416 8421 5726 
10 536 363 1273 364 3125 10551 9905 3126 2607 9158 
10 1130 1929 1033 1928 10451 9844 4986 9312 7562 10453 
10 541 369 368 1277 3141 2622 3140 9768 10966 11232 
10 1464 426 1334 1335 8828 12523 6116 6115 8830 5731 
10 1335 426 1334 285 8830 12523 5731 5730 12416 5726 
10 519 1430 687 1601 8756 10092 3576 8757 6522 12200 
10 153 436 295 152 2827 9665 8442 2304 2826 8441 
10 1303 393 108 394 12119 2694 12114 12115 2698 2696 
10 887 725 724 1635 4187 3698 4186 12485 10048 10042 
10 609 1346 437 1345 11222 10437 3342 11654 5764 9761 
10 989 1051 1934 1052 5144 10270 12511 5143 4721 10272 
10 1709 1708 1545 801 6846 6841 6845 9064 8750 11127 
10 1346 609 1519 1345 11222 10774 6278 5764 11654 6279 
10 1326 1500 588 417 6223 12029 12459 12096 12030 3281 
10 747 1491 579 1490 11566 12325 3762 12357 6197 10911 
10 1313 1487 575 404 6184 9663 11264 11263 10659 3242 
10 1328 277 419 133 5707 12026 10952 12027 8586 2771 
10 609 1518 1519 1345 12168 6280 10774 11654 6275 6279 
10 1355 1529 446 1356 6309 10088 10090 5794 6308 10528 
10 802 1709 1545 801 12457 6845 11126 3928 9064 11127 
10 301 158 1351 441 8452 11931 5778 11524 2842 11525 
10 1438 690 1611 698 9234 12517 6561 9235 3618 9681 
10 1353 160 303 304 11012 8456 5784 5783 8457 2462 
10 1355 162 305 306 11237 8460 5790 5789 8461 2464 
10 846 1887 980 845 11805 11492 4479 4051 10917 4480 
10 1364 455 1538 1537 9169 9380 6336 6332 9171 6337 
10 2158 341 342 199 8731 8686 8730 8740 8710 7983 
10 1165 1883 1985 1882 10569 7742 10520 10861 7397 7741 
10 846 1760 1888 1759 9179 7411 11460 10185 6996 7410 
10 567 1478 1304 566 10864 6157 11170 3219 12435 10475 
10 1476 565 1302 1303 9348 10378 6151 6150 11359 5634 
10 849 690 1611 839 4059 12517 9680 4091 4032 12487 
10 854 1553 1549 1712 9598 6856 12371 11816 7010 6853 
10 1722 645 1558 812 11162 10389 6881 11215 3953 10326 
10 1482 1650 738 1651 6671 10939 10940 6675 6676 10810 
10 645 646 1558 812 3457 10008 10389 3953 3954 10326 
10 349 206 1427 350 7745 12194 6003 2511 7720 6004 
10 499 191 1409 333 3014 9492 9185 10213 5078 5951 
10 1794 887 724 1635 9892 4186 10923 7117 12485 10042 
10 639 1553 1549 854 9597 6856 12231 4072 9598 12371 
10 1376 466 326 183 11585 10942 5853 12055 2917 8500 
10 13 508 1418 11 11096 11085 5978 2502 12313 5979 
10 1749 1588 1587 834 6963 6485 6962 10065 9933 9932 
10 182 1375 326 325 11029 5849 8499 8498 5850 2484 
10 341 506 340 1416 9420 9421 2500 5973 12183 5972 
10 556 1468 1637 724 9640 6633 9639 3693 10041 9010 
10 28 1390 1389 480 5895 5896 5891 12034 12033 8959 
10 594 595 1505 762 3303 12244 12352 3807 3808 11373 
10 55 28 54 480 2550 2549 2203 2959 12034 2958 
10 1375 466 326 1376 11030 10942 5849 5854 11585 5853 
10 253 1304 252 109 5635 5636 2410 8538 12157 8537 
10 327 1376 326 183 5852 5853 2485 8501 12055 8500 
10 1306 255 111 254 5641 8542 10841 5642 2412 8541 
10 567 1304 1305 395 11170 5640 11169 3217 10474 11174 
10 989 1051 1946 1934 5144 10120 11045 12511 10270 7616 
10 1573 660 1572 1400 9471 11075 6442 6441 12500 6437 
10 1496 585 1497 753 11828 12199 6215 11322 3780 8784 
10 583 1495 412 1321 11194 11195 3266 10896 6208 11717 
10 491 1573 1400 660 9470 6441 10348 3498 9471 12500 
10 1496 752 1495 584 11321 11483 6212 11829 3777 11196 
10 1584 1412 502 670 6472 9675 11644 10676 12481 3530 
10 968 967 1734 823 4445 11068 10671 4443 4441 12197 
10 1661 1495 751 1660 6702 11203 12219 6703 6698 9633 
10 1412 503 502 670 9755 3028 9675 12481 3529 3530 
10 195 338 1413 337 4872 5964 10537 4907 2497 5963 
10 195 503 194 337 3026 3027 2347 4907 10536 4908 
10 411 1321 412 126 10898 11717 2752 2748 11716 2750 
10 144 286 1336 287 8424 5733 12427 8425 2445 5732 
10 959 1856 1725 1855 12094 7311 11272 10144 7312 7307 
10 1751 859 1593 691 9587 11294 6969 11430 4092 11005 
10 204 347 348 1425 7821 2509 7783 9226 5997 5998 
10 512 692 1422 1594 3590 11932 9730 11834 9716 6500 
10 1751 859 1752 1593 9587 8970 6972 6969 11294 6970 
10 774 607 1517 608 3842 11506 11301 3843 3340 11546 
10 692 512 1422 511 3590 9730 11932 3591 3053 12073 
10 1334 141 284 142 12415 8419 5727 9512 2293 8420 
10 1432 211 522 9 10526 3082 11438 6019 7999 11439 
10 149 1341 291 432 10119 5748 8434 2815 12139 10646 
10 815 959 960 1725 4417 4421 4419 11612 11272 12095 
10 523 15 1436 1433 10484 6032 10488 10762 6022 6037 
10 211 8 522 9 2366 3081 3082 7999 2520 11439 
10 948 1916 1847 1846 11807 7524 10102 12050 7643 7288 
10 947 948 1846 1061 4386 12050 11021 4747 4749 11969 
10 1132 996 1087 2000 5102 4828 5101 12514 9779 9747 
10 703 1444 533 1613 11547 11549 3631 12020 6565 10791 
10 489 1398 658 1571 9667 9647 3492 12176 6435 12077 
10 1399 1398 489 1571 5923 9667 9621 6434 6435 12176 
10 1614 702 1896 701 11632 9417 7440 9352 3630 9351 
10 149 433 150 292 2817 2818 2301 8435 12264 8436 
10 948 1916 1846 1061 11807 7643 12050 4749 12128 11969 
10 545 1456 1282 1455 9557 6093 9964 9558 6094 6089 
10 616 617 1527 1690 3367 9379 11226 11227 9378 6787 
10 1625 715 714 1455 9134 3669 11861 6599 9136 11862 
10 715 545 714 1455 3667 3665 3669 9136 9558 11862 
10 1280 371 86 372 10221 2627 11978 12107 2631 2629 
10 72 358 73 216 2587 2588 2222 8609 12502 8610 
10 556 1463 384 555 9638 8855 3184 3186 8854 3183 
10 1738 1463 723 1466 7001 9812 12015 6932 6121 11519 
10 72 1267 358 216 11311 11313 2587 8609 5523 12502 
10 1757 844 986 1758 10692 4502 10882 6990 9792 9791 
10 2159 329 211 354 8735 8709 8736 12524 8383 5503 
10 210 2159 211 354 8738 8736 2365 5504 12524 5503 
10 2159 330 329 354 12250 2489 8735 12524 8370 8383 
10 210 330 2159 353 8720 12250 8738 5512 8312 12525 
10 2159 353 330 354 12525 8312 12250 12524 2515 8370 
10 2160 1289 237 380 8719 5590 12307 11461 11531 11630 
10 210 330 187 2159 8720 5170 8657 8738 12250 8739 
10 1289 2160 237 238 8719 12307 5590 5589 8691 2394 
10 2159 210 353 354 8738 5512 12525 12524 5504 2515 

CELL_TYPES 6049
24
24
24
24
24
24
24
24
24
24
24
24
24
24
24
24
24
24
24
24
24
24
24
24
24
24
24
24
24
24
24
24
24
24
24
24
24
24
24
24
24
24
24
24
24
24
24
24
24
24
24
24
24
24
24
24
24
24
24
24
24
24
24
24
24
24
24
24
24
24
24
24
24
24
24
24
24
24
24
24
24
24
24
24
24
24
24
24
24
24
24
24
24
24
24
24
24
24
24
24
24
24
24
24
24
24
24
24
24
24
24
24
24
24
24
24
24
24
24
24
24
24
24
24
24
24
24
24
24
24
24
24
24
24
24
24
24
24
24
24
24
24
24
24
24
24
24
24
24
24
24
24
24
24
24
24
24
24
24
24
24
24
24
24
24
24
24
24
24
24
24
24
24
24
24
24
24
24
24
24
24
24
24
24
24
24
24
24
24
24
24
24
24
24
24
24
24
24
24
24
24
24
24
24
24
24
24
24
24
24
24
24
24
24
24
24
24
24
24
24
24
24
24
24
24
24
24
24
24
24
24
24
24
24
24
24
24
24
24
24
24
24
24
24
24
24
24
24
24
24
24
24
24
24
24
24
24
24
24
24
24
24
24
24
24
24
24
24
24
24
24
24
24
24
24
24
24
24
24
24
24
24
24
24
24
24
24
24
24
24
24
24
24
24
24
24
24
24
24
24
24
24
24
24
24
24
24
24
24
24
24
24
24
24
24
24
24
24
24
24
24
24
24
24
24
24
24
24
24
24
24
24
24
24
24
24
24
24
24
24
24
24
24
24
24
24
24
24
24
24
24
24
24
24
24
24
24
24
24
24
24
24
24
24
24
24
24
24
24
24
24
24
24
24
24
24
24
24
24
24
24
24
24
24
24
24
24
24
24
24
24
24
24
24
24
24
24
24
24
24
24
24
24
24
24
24
24
24
24
24
24
24
24
24
24
24
24
24
24
24
24
24
24
24
24
24
24
24
24
24
24
24
24
24
24
24
24
24
24
24
24
24
24
24
24
24
24
24
24
24
24
24
24
24
24
24
24
24
24
24
24
24
24
24
24
24
24
24
24
24
24
24
24
24
24
24
24
24
24
24
24
24
24
24
24
24
24
24
24
24
24
24
24
24
24
24
24
24
24
24
24
24
24
24
24
24
24
24
24
24
24
24
24
24
24
24
24
24
24
24
24
24
24
24
24
24
24
24
24
24
24
24
24
24
24
24
24
24
24
24
24
24
24
24
24
24
24
24
24
24
24
24
24
24
24
24
24
24
24
24
24
24
24
24
24
24
24
24
24
24
24
24
24
24
24
24
24
24
24
24
24
24
24
24
24
24
24
24
24
24
24
24
24
24
24
24
24
24
24
24
24
24
24
24
24
24
24
24
24
24
24
24
24
24
24
24
24
24
24
24
24
24
24
24
24
24
24
24
24
24
24
24
24
24
24
24
24
24
24
24
24
24
24
24
24
24
24
24
24
24
24
24
24
24
24
24
24
24
24
24
24
24
24
24
24
24
24
24
24
24
24
24
24
24
24
24
24
24
24
24
24
24
24
24
24
24
24
24
24
24
24
24
24
24
24
24
24
24
24
24
24
24
24
24
24
24
24
24
24
24
24
24
24
24
24
24
24
24
24
24
24
24
24
24
24
24
24
24
24
24
24
24
24
24
24
24
24
24
24
24
24
24
24
24
24
24
24
24
24
24
24
24
24
24
24
24
24
24
24
24
24
24
24
24
24
24
24
24
24
24
24
24
24
24
24
24
24
24
24
24
24
24
24
24
24
24
24
24
24
24
24
24
24
24
24
24
24
24
24
24
24
24
24
24
24
24
24
24
24
24
24
24
24
24
24
24
24
24
24
24
24
24
24
24
24
24
24
24
24
24
24
24
24
24
24
24
24
24
24
24
24
24
24
24
24
24
24
24
24
24
24
24
24
24
24
24
24
24
24
24
24
24
24
24
24
24
24
24
24
24
24
24
24
24
24
24
24
24
24
24
24
24
24
24
24
24
24
24
24
24
24
24
24
24
24
24
24
24
24
24
24
24
24
24
24
24
24
24
24
24
24
24
24
24
24
24
24
24
24
24
24
24
24
24
24
24
24
24
24
24
24
24
24
24
24
24
24
24
24
24
24
24
24
24
24
24
24
24
24
24
24
24
24
24
24
24
24
24
24
24
24
24
24
24
24
24
24
24
24
24
24
24
24
24
24
24
24
24
24
24
24
24
24
24
24
24
24
24
24
24
24
24
24
24
24
24
24
24
24
24
24
24
24
24
24
24
24
24
24
24
24
24
24
24
24
24
24
24
24
24
24
24
24
24
24
24
24
24
24
24
24
24
24
24
24
24
24
24
24
24
24
24
24
24
24
24
24
24
24
24
24
24
24
24
24
24
24
24
24
24
24
24
24
24
24
24
24
24
24
24
24
24
24
24
24
24
24
24
24
24
24
24
24
24
24
24
24
24
24
24
24
24
24
24
24
24
24
24
24
24
24
24
24
24
24
24
24
24
24
24
24
24
24
24
24
24
24
24
24
24
24
24
24
24
24
24
24
24
24
24
24
24
24
24
24
24
24
24
24
24
24
24
24
24
24
24
24
24
24
24
24
24
24
24
24
24
24
24
24
24
24
24
24
24
24
24
24
24
24
24
24
24
24
24
24
24
24
24
24
24
24
24
24
24
24
24
24
24
24
24
24
24
24
24
24
24
24
24
24
24
24
24
24
24
24
24
24
24
24
24
24
24
24
24
24
24
24
24
24
24
24
24
24
24
24
24
24
24
24
24
24
24
24
24
24
24
24
24
24
24
24
24
24
24
24
24
24
24
24
24
24
24
24
24
24
24
24
24
24
24
24
24
24
24
24
24
24
24
24
24
24
24
24
24
24
24
24
24
24
24
24
24
24
24
24
24
24
24
24
24
24
24
24
24
24
24
24
24
24
24
24
24
24
24
24
24
24
24
24
24
24
24
24
24
24
24
24
24
24
24
24
24
24
24
24
24
24
24
24
24
24
24
24
24
24
24
24
24
24
24
24
24
24
24
24
24
24
24
24
24
24
24
24
24
24
24
24
24
24
24
24
24
24
24
24
24
24
24
24
24
24
24
24
24
24
24
24
24
24
24
24
24
24
24
24
24
24
24
24
24
24
24
24
24
24
24
24
24
24
24
24
24
24
24
24
24
24
24
24
24
24
24
24
24
24
24
24
24
24
24
24
24
24
24
24
24
24
24
24
24
24
24
24
24
24
24
24
24
24
24
24
24
24
24
24
24
24
24
24
24
24
24
24
24
24
24
24
24
24
24
24
24
24
24
24
24
24
24
24
24
24
24
24
24
24
24
24
24
24
24
24
24
24
24
24
24
24
24
24
24
24
24
24
24
24
24
24
24
24
24
24
24
24
24
24
24
24
24
24
24
24
24
24
24
24
24
24
24
24
24
24
24
24
24
24
24
24
24
24
24
24
24
24
24
24
24
24
24
24
24
24
24
24
24
24
24
24
24
24
24
24
24
24
24
24
24
24
24
24
24
24
24
24
24
24
24
24
24
24
24
24
24
24
24
24
24
24
24
24
24
24
24
24
24
24
24
24
24
24
24
24
24
24
24
24
24
24
24
24
24
24
24
24
24
24
24
24
24
24
24
24
24
24
24
24
24
24
24
24
24
24
24
24
24
24
24
24
24
24
24
24
24
24
24
24
24
24
24
24
24
24
24
24
24
24
24
24
24
24
24
24
24
24
24
24
24
24
24
24
24
24
24
24
24
24
24
24
24
24
24
24
24
24
24
24
24
24
24
24
24
24
24
24
24
24
24
24
24
24
24
24
24
24
24
24
24
24
24
24
24
24
24
24
24
24
24
24
24
24
24
24
24
24
24
24
24
24
24
24
24
24
24
24
24
24
24
24
24
24
24
24
24
24
24
24
24
24
24
24
24
24
24
24
24
24
24
24
24
24
24
24
24
24
24
24
24
24
24
24
24
24
24
24
24
24
24
24
24
24
24
24
24
24
24
24
24
24
24
24
24
24
24
24
24
24
24
24
24
24
24
24
24
24
24
24
24
24
24
24
24
24
24
24
24
24
24
24
24
24
24
24
24
24
24
24
24
24
24
24
24
24
24
24
24
24
24
24
24
24
24
24
24
24
24
24
24
24
24
24
24
24
24
24
24
24
24
24
24
24
24
24
24
24
24
24
24
24
24
24
24
24
24
24
24
24
24
24
24
24
24
24
24
24
24
24
24
24
24
24
24
24
24
24
24
24
24
24
24
24
24
24
24
24
24
24
24
24
24
24
24
24
24
24
24
24
24
24
24
24
24
24
24
24
24
24
24
24
24
24
24
24
24
24
24
24
24
24
24
24
24
24
24
24
24
24
24
24
24
24
24
24
24
24
24
24
24
24
24
24
24
24
24
24
24
24
24
24
24
24
24
24
24
24
24
24
24
24
24
24
24
24
24
24
24
24
24
24
24
24
24
24
24
24
24
24
24
24
24
24
24
24
24
24
24
24
24
24
24
24
24
24
24
24
24
24
24
24
24
24
24
24
24
24
24
24
24
24
24
24
24
24
24
24
24
24
24
24
24
24
24
24
24
24
24
24
24
24
24
24
24
24
24
24
24
24
24
24
24
24
24
24
24
24
24
24
24
24
24
24
24
24
24
24
24
24
24
24
24
24
24
24
24
24
24
24
24
24
24
24
24
24
24
24
24
24
24
24
24
24
24
24
24
24
24
24
24
24
24
24
24
24
24
24
24
24
24
24
24
24
24
24
24
24
24
24
24
24
24
24
24
24
24
24
24
24
24
24
24
24
24
24
24
24
24
24
24
24
24
24
24
24
24
24
24
24
24
24
24
24
24
24
24
24
24
24
24
24
24
24
24
24
24
24
24
24
24
24
24
24
24
24
24
24
24
24
24
24
24
24
24
24
24
24
24
24
24
24
24
24
24
24
24
24
24
24
24
24
24
24
24
24
24
24
24
24
24
24
24
24
24
24
24
24
24
24
24
24
24
24
24
24
24
24
24
24
24
24
24
24
24
24
24
24
24
24
24
24
24
24
24
24
24
24
24
24
24
24
24
24
24
24
24
24
24
24
24
24
24
24
24
24
24
24
24
24
24
24
24
24
24
24
24
24
24
24
24
24
24
24
24
24
24
24
24
24
24
24
24
24
24
24
24
24
24
24
24
24
24
24
24
24
24
24
24
24
24
24
24
24
24
24
24
24
24
24
24
24
24
24
24
24
24
24
24
24
24
24
24
24
24
24
24
24
24
24
24
24
24
24
24
24
24
24
24
24
24
24
24
24
24
24
24
24
24
24
24
24
24
24
24
24
24
24
24
24
24
24
24
24
24
24
24
24
24
24
24
24
24
24
24
24
24
24
24
24
24
24
24
24
24
24
24
24
24
24
24
24
24
24
24
24
24
24
24
24
24
24
24
24
24
24
24
24
24
24
24
24
24
24
24
24
24
24
24
24
24
24
24
24
24
24
24
24
24
24
24
24
24
24
24
24
24
24
24
24
24
24
24
24
24
24
24
24
24
24
24
24
24
24
24
24
24
24
24
24
24
24
24
24
24
24
24
24
24
24
24
24
24
24
24
24
24
24
24
24
24
24
24
24
24
24
24
24
24
24
24
24
24
24
24
24
24
24
24
24
24
24
24
24
24
24
24
24
24
24
24
24
24
24
24
24
24
24
24
24
24
24
24
24
24
24
24
24
24
24
24
24
24
24
24
24
24
24
24
24
24
24
24
24
24
24
24
24
24
24
24
24
24
24
24
24
24
24
24
24
24
24
24
24
24
24
24
24
24
24
24
24
24
24
24
24
24
24
24
24
24
24
24
24
24
24
24
24
24
24
24
24
24
24
24
24
24
24
24
24
24
24
24
24
24
24
24
24
24
24
24
24
24
24
24
24
24
24
24
24
24
24
24
24
24
24
24
24
24
24
24
24
24
24
24
24
24
24
24
24
24
24
24
24
24
24
24
24
24
24
24
24
24
24
24
24
24
24
24
24
24
24
24
24
24
24
24
24
24
24
24
24
24
24
24
24
24
24
24
24
24
24
24
24
24
24
24
24
24
24
24
24
24
24
24
24
24
24
24
24
24
24
24
24
24
24
24
24
24
24
24
24
24
24
24
24
24
24
24
24
24
24
24
24
24
24
24
24
24
24
24
24
24
24
24
24
24
24
24
24
24
24
24
24
24
24
24
24
24
24
24
24
24
24
24
24
24
24
24
24
24
24
24
24
24
24
24
24
24
24
24
24
24
24
24
24
24
24
24
24
24
24
24
24
24
24
24
24
24
24
24
24
24
24
24
24
24
24
24
24
24
24
24
24
24
24
24
24
24
24
24
24
24
24
24
24
24
24
24
24
24
24
24
24
24
24
24
24
24
24
24
24
24
24
24
24
24
24
24
24
24
24
24
24
24
24
24
24
24
24
24
24
24
24
24
24
24
24
24
24
24
24
24
24
24
24
24
24
24
24
24
24
24
24
24
24
24
24
24
24
24
24
24
24
24
24
24
24
24
24
24
24
24
24
24
24
24
24
24
24
24
24
24
24
24
24
24
24
24
24
24
24
24
24
24
24
24
24
24
24
24
24
24
24
24
24
24
24
24
24
24
24
24
24
24
24
24
24
24
24
24
24
24
24
24
24
24
24
24
24
24
24
24
24
24
24
24
24
24
24
24
24
24
24
24
24
24
24
24
24
24
24
24
24
24
24
24
24
24
24
24
24
24
24
24
24
24
24
24
24
24
24
24
24
24
24
24
24
24
24
24
24
24
24
24
24
24
24
24
24
24
24
24
24
24
24
24
24
24
24
24
24
24
24
24
24
24
24
24
24
24
24
24
24
24
24
24
24
24
24
24
24
24
24
24
24
24
24
24
24
24
24
24
24
24
24
24
24
24
24
24
24
24
24
24
24
24
24
24
24
24
24
24
24
24
24
24
24
24
24
24
24
24
24
24
24
24
24
24
24
24
24
24
24
24
24
24
24
24
24
24
24
24
24
24
24
24
24
24
24
24
24
24
24
24
24
24
24
24
24
24
24
24
24
24
24
24
24
24
24
24
24
24
24
24
24
24
24
24
24
24
24
24
24
24
24
24
24
24
24
24
24
24
24
24
24
24
24
24
24
24
24
24
24
24
24
24
24
24
24
24
24
24
24
24
24
24
24
24
24
24
24
24
24
24
24
24
24
24
24
24
24
24
24
24
24
24
24
24
24
24
24
24
24
24
24
24
24
24
24
24
24
24
24
24
24
24
24
24
24
24
24
24
24
24
24
24
24
24
24
24
24
24
24
24
24
24
24
24
24
24
24
24
24
24
24
24
24
24
24
24
24
24
24
24
24
24
24
24
24
24
24
24
24
24
24
24
24
24
24
24
24
24
24
24
24
24
24
24
24
24
24
24
24
24
24
24
24
24
24
24
24
24
24
24
24
24
24
24
24
24
24
24
24
24
24
24
24
24
24
24
24
24
24
24
24
24
24
24
24
24
24
24
24
24
24
24
24
24
24
24
24
24
24
24
24
24
24
24
24
24
24
24
24
24
24
24
24
24
24
24
24
24
24
24
24
24
24
24
24
24
24
24
24
24
24
24
24
24
24
24
24
24
24
24
24
24
24
24
24
24
24
24
24
24
24
24
24
24
24
24
24
24
24
24
24
24
24
24
24
24
24
24
24
24
24
24
24
24
24
24
24
24
24
24
24
24
24
24
24
24
24
24
24
24
24
24
24
24
24
24
24
24
24
24
24
24
24
24
24
24
24
24
24
24
24
24
24
24
24
24
24
24
24
24
24
24
24
24
24
24
24
24
24
24
24
24
24
24
24
24
24
24
24
24
24
24
24
24
24
24
24
24
24
24
24
24
24
24
24
24
24
24
24
24
24
24
24
24
24
24
24
24
24
24
24
24
24
24
24
24
24
24
24
24
24
24
24
24
24
24
24
24
24
24
24
24
24
24
24
24
24
24
24
24
24
24
24
24
24
24
24
24
24
24
24
24
24
24
24
24
24
24
24
24
24
24
24
24
24
24
24
24
24
24
24
24
24
24
24
24
24
24
24
24
24
24
24
24
24
24
24
24
24
24
24
24
24
24
24
24
24
24
24
24
24
24
24
24
24
24
24
24
24
24
24
24
24
24
24
24
24
24
24
24
24
24
24
24
24
24
24
24
24
24
24
24
24
24
24
24
24
24
24
24
24
24
24
24
24
24
24
24
24
24
24
24
24
24
24
24
24
24
24
24
24
24
24
24
24
24
24
24
24
24
24
24
24
24
24
24
24
24
24
24
24
24
24
24
24
24
24
24
24
24
24
24
24
24
24
24
24
24
24
24
24
24
24
24
24
24
24
24
24
24
24
24
24
24
24
24
24
24
24
24
24
24
24
24
24
24
24
24
24
24
24
24
24
24
24
24
24
24
24
24
24
24
24
24
24
24
24
24
24
24
24
24
24
24
24
24
24
24
24
24
24
24
24
24
24
24
24
24
24
24
24
24
24
24
24
24
24
24
24
24
24
24
24
24
24
24
24
24
24
24
24
24
24
24
24
24
24
24
24
24
24
24
24
24
24
24
24
24
24
24
24
24
24
24
24
24
24
24
24
24
24
24
24
24
24
24
24
24
24
24
24
24
24
24
24
24
24
24
24
24
24
24
24
24
24
24
24
24
24
24
24
24
24
24
24
24
24
24
24
24
24
24
24
24
24
24
24
24
24
24
24
24
24
24
24
24
24
24
24
24
24
24
24
24
24
24
24
24
24
24
24
24
24
24
24
24
24
24
24
24
24
24
24
24
24
24
24
24
24
24
24
24
24
24
24
24
24
24
24
24
24
24
24
24
24
24
24
24
24
24
24
24
24
24
24
24
24
24
24
24
24
24
24
24
24
24
24
24
24
24
24
24
24
24
24
24
24
24
24
24
24
24
24
24
24
24
24
24
24
24
24
24
24
24
24
24
24
24
24
24
24
24
24
24
24
24
24
24
24
24
24
24
24
24
24
24
24
24
24
24
24
24
24
24
24
24
24
24
24
24
24
24
24
24
24
24
24
24
24
24
24
24
24
24
24
24
24
24
24
24
24
24
24
24
24
24
24
24
24
24
24
24
24
24
24
24
24
24
24
24
24
24
24
24
24
24
24
24
24
24
24
24
24
24
24
24
24
24
24
24
24
24
24
24
24
24
24
24
24
24
24
24
24
24
24
24
24
24
24
24
24
24
24
24
24
24
24
24
24
24
24
24
24
24
24
24
24
24
24
24
24
24
24
24
24
24
24
24
24
24
24
24
24
24
24
24
24
24
24
24
24
24
24
24
24
24
24
24
24
24
24
24
24
24
24
24
24
24
24
24
24
24
24
24
24
24
24
24
24
24
24
24
24
24
24
24
24
24
24
24
24
24
24
24
24
24
24
24
24
24
24
24
24
24
24
24
24
24
24
24
24
24
24
24
24
24
24
24
24
24
24
24
24
24
24
24
24
24
24
24
24
24
24
24
24
24
24
24
24
24
24
24
24
24
24
24
24
24
24
24
24
24
24
24
24
24
24
24
24
24
24
24
24
24
24
24
24
24
24
24
24
24
24
24
24
24
24
24
24
24
24
24
24
24
24
24
24
24
24
24
24
24
24
24
24
24
24
24
24
24
24
24
24
24
24
24
24
24
24
24
24
24
24
24
24
24
24
24
24
24
24
24
24
24
24
24
24
24
24
24
24
24
24
24
24
24
24
24
24
24
24
24
24
24
24
24
24
24
24
24
24
24
24
24
24
24
24
24
24
24
24
24
24
24
24
24
24
24
24
24
24
24
24
24
24
24
24
24
24
24
24
24
24
24
24
24
24
24
24
24
24
24
24
24
24
24
24
24
24
24
24
24
24
24
24
24
24
24
24
24
24
24
24
24
24
24
24
24
24
24
24
24
24
24
24
24
24
24
24
24
24
24
24
24
24
24
24
24
24
24
24
24
24
24
24
24
24
24
24
24
24
24
24
24
24
24
24
24
24
24
24
24
24
24
24
24
24
24
24
24
24
24
24
24
24
24
24
24
24
24
24
24
24
24
24
24
24
24
24
24
24
24
24
24
24
24
24
24
24
24
24
24
24
24
24
24
24
24
24
24
24
24
24
24
24
24
24
24
24
24
24
24
24
24
24
24
24
24
24
24
24
24
24
24
24
24
24
24
24
24
24
24
24
24
24
24
24
24
24
24
24
24
24
24
24
24
24
24
24
24
24
24
24
24
24
24
24
24
24
24
24
24
24
24
24
24
24
24
24
24
24
24
24
24
24
24
24
24
24
24
24
24
24
24
24
24
24
24
24
24
24
24
24
24
24
24
24
24
24
24
24
24
24
24
24
24
24
24
24
24
24
24
24
24
24
24
24
24
24
24
24
24
24
24
24
24
24
24
24
24
24
24
24
24
24
24
24
24
24
24
24
24
24
24
24
24
24
24
24
24
24
24
24
24
24
24
24
24
24
24
24
24
24
24
24
24
24
24
24
24
24
24
24
24
24
24
24
24
24
24
24
24
24
24
24
24
24
24
24
24
24
24
24
24
24
24
24
24
24
24
24
24
24
24
24
24
24
24
24
24
24
24
24
24
24
24
24
24
24
24
24
24
24
24
24
24
24
24
24
24
24
24
24
24
24
24
24
24
24
24
24
24
24
24
24
24
24
24
24
24
24
24
24
24
24
24
24
24
24
24
24
24
24
24
24
24
24
24
24
24
24
24
24
24
24
24
24
24
24
24
24
24
24
24
24
24
24
24
24
24
24
24
24
24
24
24
24
24
24
24
24
24
24
24
24
24
24
24
24
24
24
24
24
24
24
24
24
24
24
24
24
24
24
24
24
24
24
24
24
24
24
24
24
24
24
24
24
24
24
24
24
24
24
24
24
24
24
24
24
24
24
24
24
24
24
24
24
24
24
24
24
24
24
24
24
24
24
24
24
24
24
24
24
24
24
24
24
24
24
24
24
24
24
24
24
24
24
24
24
24
24
24
24
24
24
24
24
24
24
24
24
24
24
24
24
24
24
24
24
24
24
24
24
24
24
24
24
24
24
24
24
24
24
24
24
24
24
24
24
24
24
24
24
24
24
24
24
24
24
24
24
24
24
24
24
24
24
24
24
24
24
24
24
24
24
24
24
24
24
24
24
24
24
24
24
24
24
24
24
24
24
24
24
24
24
24
24
24
24
24
24
24
24
24
24
24
24
24
24
24
24
24
24
24
24
24
24
24
24
24
24
24
24
24
24
24
24
24
24
24
24
24
24
24
24
24
24
24
24
24
24
24
24
24
24
24
24
24
24
24
24
24
24
24
24
24
24
24
24
24
24
24
24
24
24
24
24
24
24
24
24
24
24
24
24
24
24
24
24
24
24
24
24
24
24
24
24
24
24
24
24
24
24
24
24
24
24
24
24
24
24
24
24
24
24
24
24
24
24
24
24
24
24
24
24
24
24
24
24
24
24
24
24
24
24
24
24
24
24
24
24
24
24
24
24
24
24
24
24
24
24
24
24
24
24
24
24
24
24
24
24
24
24
24
24
24
24
24
24
24
24
24
24
24
24
24
24
24
24
24
24
24
24
24
24
24
24
24
24
24
24
24
24
24
24
24
24
24
24
24
24
24
24
24
24
24
24
24
24
24
24
24
24
24
24
24
24
24
24
24
24
24
24
24
24
24
24
24
24
24
24
24
24
24
24
24
24
24
24
24
24
24
24
24
24
24
24
24
24
24
24
24
24
24
24
24
24
24
24
24
24
24
24
24
24
24
24
24
24
24
24
24
24
24
24
24
24
24
24
24
24
24
24
24
24
24
24
24
24
24
24
24
24
24
24
24
24
24
24
24
24
24
24
24
24
24
24
24
24
24
24
24
24
24
24
24
24
24
24
24
24
24
24
24
24
24
24
24
24
24
24
24
24
24
24
24
24
24
24
24
24
24
24
24
24
24
24
24
24
24
24
24
24
24
24
24
24
24
24
24
24
24
24
24
24
24
24
24
24
24
24
24
24
24
24
24
24
24
24
24
24
24
24
24
24
24
24
24
24
24
24
24
24
24
24
24
24
24
24
24
24
24
24
24
24
24
24
24
24
24
24
24
24
24
24
24
24
24
24
24
24
24
24
24
24
24
24
24
24
24
24
24
24
24
24
24
24
24
24
24
24
24
24
24
24
24
24
24
24
24
24
24
24
24
24
24
24
24
24
24
24
24
24
24
24
24
24
24
24
24
24
24
24
24
24
24
24
24
24
24
24
24
24
24
24
24
24
24
24
24
24
24
24
24
24
24
24
24
24
24
24
24
24
24
24
24
24
24
24
24
24
24
24
24
24
24
24
24
24
24
24
24
24
24
24
24
24
24
24
24
24
24
24
24
24
24
24
24
24
24
24
24
24
24
24
24
24
24
24
24
24
24
24
24
24
24
24
24
24
24
24
24
24
24
24
24
24
24
24
24
24
24
24
24
24
24
24
24
24
24
24
24
24
24
24
24
24
24
24
24
24
24
24
24
24
24
24
24
24
24
24
24
24
24
24
24
24
24
24
24
24
24
24
24
24
24
24
24
24
24
24
24
24
24
24
24
24
24
24
24
24
24
24
24
24
24
24
24
24
24
24
24
24
24
24
24
24
24
24
24
24
24
24
24
24
24
24
24
24
24
24
24
24
24
24
24
24
24
24
24
24
24
24
24
24
24
24
24
24
24
24
24
24
24
24
24
24
24
24
24
24
24
24
24
24
24
24
24
24
24
24
24
24
24
24
24
24
24
24
24
24
24
24
24
24
24
24
24
24
24
24
24
24
24
24
24
24
24
24
24
24
24
24
24
24
24
24
24
24
24
24
24
24
24
24
24
24
24
24
24
24
24
24
24
24
24
24
24
24
24
24
24
24
24
24
24
24
24
24
24
24
24
24
24
24
24
24
24
24
24
24
24
24
24
24
24
24
24
24
24
24
24
24
24
24
24
24
24
24
24
24
24
24
24
24
24
24
24
24
24
24
24
24
24
24
24
24
24
24
24
24
24
24
24
24
24
24
24
24
24
24
24
24
24
24
24
24
24
24
24
24
24
24
24
24
24
24
24
24
24
24
24
24
24
24
24
24
24
24
24
24
24
24
24
24
24
24
24
24
24
24
24
24
24
24
24
24
24
24
24
24
24
24
24
24
24
24
24
24
24
24
24
24
24
24
24
24
24
24
24
24
24
24
24
24
24
24
24
24
24
24
24
24
24
24
24
24
24
24
24
24
24
24
24
24
24
24
24
24
24
24
24
24
24
24
24
24
24
24
24
24
24
24
24
24
24
24
24
24
24
24
24
24
24
24
24
24
24
24
24
24
24
24
24
24
24
24
24
24
24
24
24
24
24
24
24
24
24
24
24
24
24
24
24
24
24
24
24
24
24
24
24
24
24
24
24
24
24
24
24
24
24
24
24
24
24
24
24
24
24
24
24
24
24
24
24
24
24
24
24
24
24
24
24
24
24
24
24
24
24
24
24
24
24
24
24
24
24
24
24
24
24
24
24
24
24
24
24
24
24
24
24
24
24
24
24
24
24
24
24
24
24
24
24
24
24
24
24
24
24
24
24
24
24
24
24
24
24
24
24
24
24
24
24
24
24
24
24
24

POINT_DATA 12526
FIELD FieldData 19
Displacement 3 12526 double
0 0 0 0 0 0 0 0 0 
0 0 0 -4.12809 32.4555 -0.15827 -4.12811 32.4525 0.108438 
4.11195 32.4499 -0.132019 4.11 32.4465 0.134692 0.967903 15.773 0.00994924 
0.965612 15.7968 0.0926115 -0.967806 15.8095 -0.0052318 -0.98173 15.7731 0.0678894 
-0.976654 15.9986 -0.0152445 -0.987724 16.0211 0.0632991 0.973257 16.0046 0.0264699 
0.970808 16.008 0.0898634 0 0 0 0 0 0 
0 0 0 0 0 0 0 0 0 
0 0 0 0 0 0 0 0 0 
0 0 0 0 0 0 0 0 0 
0 0 0 0 0 0 0 0 0 
0 0 0 0 0 0 0 0 0 
0 0 0 0 0 0 0 0 0 
0 0 0 0 0 0 0 0 0 
0 0 0 0 0 0 0 0 0 
0 0 0 0 0 0 0 0 0 
0 0 0 0 0 0 0 0 0 
0 0 0 0 0 0 0 0 0 
0 0 0 0 0 0 0 0 0 
0 0 0 0 0 0 0 0 0 
0 0 0 0 0 0 0 0 0 
0 0 0 0 0 0 0 0 0 
0 0 0 0 0 0 0 0 0 
0 0 0 0 0 0 0 0 0 
3.79211 32.4335 -0.134385 3.51224 32.4183 -0.136378 3.22376 32.4013 -0.138275 
2.92592 32.3826 -0.140039 2.65059 32.3645 -0.141528 2.37342 32.3463 -0.142895 
2.07778 32.3272 -0.14423 1.77991 32.3092 -0.145459 1.48827 32.2933 -0.146563 
1.20321 32.2799 -0.147572 0.916687 32.2688 -0.148491 0.586553 32.2595 -0.149521 
0.306407 32.2547 -0.150313 -0.00816897 32.253 -0.151176 -0.314243 32.255 -0.151983 
-0.611368 32.2604 -0.152739 -0.933012 32.27 -0.15355 -1.21111 32.2811 -0.154199 
-1.52129 32.2962 -0.154932 -1.85427 32.3151 -0.155669 -2.13521 32.3327 -0.156253 
-2.43867 32.3527 -0.156839 -2.72359 32.3719 -0.157329 -3.01467 32.3912 -0.157749 
-3.28805 32.4086 -0.158037 -3.56837 32.4253 -0.158221 -3.86418 32.4416 -0.158272 
1.05357 1.17814 -0.217743 1.7475 2.03972 -0.114917 2.21307 2.76076 -0.0931849 
2.58173 3.43985 -0.0806503 2.87808 4.09583 -0.0730517 3.11729 4.73961 -0.0681074 
3.31749 5.40632 -0.0646296 3.46294 6.01299 -0.0624448 3.5779 6.61976 -0.0608312 
3.67675 7.31493 -0.0594043 3.73815 7.92561 -0.0583228 3.77836 8.53918 -0.0573901 
3.79903 9.15619 -0.0565542 3.80112 9.80699 -0.0557195 3.78552 10.4335 -0.054999 
3.74803 11.1577 -0.05434 3.69711 11.8317 -0.0539855 3.63035 12.5505 -0.0539238 
3.56556 13.1905 -0.0542572 3.49137 13.9469 -0.054968 3.43611 14.6231 -0.0556879 
3.39736 15.349 -0.0559538 3.38614 16.12 -0.0554066 3.40587 16.8565 -0.0542504 
3.4514 17.5851 -0.052961 3.51772 18.3345 -0.0522148 3.59611 19.1013 -0.0527118 
3.6643 19.7564 -0.0542893 3.73107 20.4356 -0.0569787 3.79298 21.1412 -0.0607048 
3.84571 21.844 -0.0650396 3.88765 22.5145 -0.0695288 3.92063 23.154 -0.0740016 
3.95243 23.924 -0.0794693 3.9754 24.6328 -0.0844852 3.99516 25.4098 -0.0898901 
4.00902 26.093 -0.0945386 4.02061 26.7793 -0.0990976 4.0312 27.5015 -0.103769 
4.04014 28.1606 -0.107917 4.04947 28.8551 -0.112163 4.05932 29.5517 -0.116287 
4.07123 30.3167 -0.120656 4.0841 31.0497 -0.124682 4.09701 31.7165 -0.1282 
-4.11339 31.7554 -0.155093 -4.0981 30.9886 -0.151571 -4.08609 30.3222 -0.148368 
-4.07422 29.5905 -0.144744 -4.06438 28.9269 -0.141364 -4.0532 28.1331 -0.137236 
-4.04334 27.4412 -0.13358 -4.03272 26.752 -0.129909 -4.01995 26.0332 -0.126072 
-4.00383 25.2853 -0.122101 -3.98467 24.5734 -0.118359 -3.96192 23.8969 -0.11489 
-3.93075 23.159 -0.111305 -3.89551 22.4874 -0.108216 -3.85498 21.8487 -0.105602 
-3.79919 21.1139 -0.103136 -3.73644 20.4078 -0.101604 -3.669 19.7282 -0.101079 
-3.58985 18.9734 -0.10183 -3.51509 18.2374 -0.103731 -3.45313 17.5205 -0.106012 
-3.4081 16.7563 -0.108307 -3.39217 15.9843 -0.109734 -3.40915 15.215 -0.109366 
-3.45186 14.4917 -0.108215 -3.51866 13.7198 -0.106046 -3.58696 13.0347 -0.10389 
-3.65943 12.3042 -0.101746 -3.71413 11.6829 -0.100322 -3.76133 11.0113 -0.0990039 
-3.79135 10.3788 -0.0978997 -3.80545 9.69347 -0.0970226 -3.80014 9.07297 -0.0963847 
-3.77638 8.4565 -0.0958633 -3.73028 7.81429 -0.0954142 -3.64899 7.08832 -0.0951053 
-3.55922 6.50969 -0.095022 -3.43168 5.87422 -0.0951552 -3.26936 5.2387 -0.0959009 
-3.06629 4.60063 -0.0971723 -2.80115 3.92578 -0.10029 -2.4855 3.26599 -0.105658 
-2.13226 2.64366 -0.113515 -1.64151 1.90717 -0.133052 -1.02966 1.1335 -0.20159 
0.850408 15.9444 0.03693 0.737399 15.9379 0.0395989 0.606351 15.9265 0.0402331 
0.465902 15.9194 0.0352975 0.323887 15.9125 0.0365661 0.172127 15.9087 0.0343301 
0.00456347 15.9086 0.030741 -0.152172 15.9109 0.0234589 -0.298768 15.9115 0.0233839 
-0.441453 15.9182 0.0205799 -0.590166 15.9279 0.016854 -0.719841 15.9373 0.0139774 
-0.856761 15.9569 0.00246801 -0.841032 15.835 0.0111288 -0.724425 15.8151 0.0127062 
-0.595004 15.802 0.0202385 -0.441607 15.7862 0.0199544 -0.303628 15.7778 0.0223081 
-0.146735 15.7744 0.0274896 0.00489214 15.774 0.0292704 0.156178 15.7743 0.0281081 
0.316191 15.78 0.0308288 0.455486 15.7877 0.0305776 0.602845 15.7987 0.0347535 
0.733283 15.8071 0.0306568 0.853318 15.8405 0.0433056 3.82211 32.4317 0.132579 
3.5343 32.4162 0.130451 3.25394 32.3999 0.128292 2.98054 32.3828 0.126125 
2.69752 32.3644 0.123889 2.42077 32.3461 0.121752 2.11738 32.3265 0.119506 
1.82823 32.3089 0.117497 1.53704 32.2926 0.115621 1.19358 32.2762 0.113637 
0.873295 32.2641 0.112022 0.577081 32.2561 0.110738 0.288504 32.2514 0.109663 
-0.0429718 32.2499 0.108677 -0.340416 32.2522 0.107997 -0.637394 32.258 0.107501 
-0.933465 32.2669 0.107186 -1.23673 32.2791 0.10702 -1.52993 32.2935 0.107006 
-1.8379 32.311 0.107105 -2.12715 32.3291 0.107303 -2.42246 32.3486 0.107562 
-2.69935 32.3672 0.107831 -2.99055 32.3866 0.108109 -3.26401 32.4041 0.108317 
-3.55239 32.4214 0.108454 -3.85619 32.4382 0.108473 0.995451 1.17066 0.218224 
1.65127 1.91901 0.15024 2.11087 2.61201 0.156545 2.49771 3.29484 0.159437 
2.80926 3.95283 0.161569 3.05058 4.56832 0.163593 3.26367 5.23541 0.165808 
3.4191 5.84193 0.167835 3.558 6.5349 0.170097 3.65024 7.14262 0.172087 
3.72358 7.8107 0.174374 3.76947 8.45292 0.176602 3.79302 9.06944 0.178842 
3.79808 9.69001 0.181323 3.78571 10.3156 0.184152 3.75698 10.9474 0.187466 
3.71321 11.5875 0.191468 3.65953 12.2072 0.196092 3.59076 12.9033 0.202141 
3.51841 13.618 0.208927 3.45198 14.3532 0.215828 3.40299 15.1075 0.221688 
3.38183 15.8401 0.225206 3.39033 16.5765 0.225855 3.42685 17.3078 0.223669 
3.48744 18.0618 0.219195 3.56393 18.8336 0.213272 3.6364 19.5248 0.207567 
3.70533 20.2062 0.202082 3.77574 20.9773 0.196235 3.82849 21.6485 0.191531 
3.87292 22.3189 0.18716 3.91121 23.022 0.182858 3.93956 23.663 0.179142 
3.96573 24.403 0.17506 3.98476 25.0817 0.171476 4.0021 25.8611 0.167492 
4.01609 26.6446 0.163586 4.02654 27.3334 0.160214 4.03657 28.058 0.156699 
4.0464 28.7853 0.153182 4.05624 29.4817 0.149803 4.06699 30.18 0.146378 
4.08022 30.9461 0.142528 4.0957 31.7464 0.138356 -4.11269 31.719 0.111809 
-4.09684 30.9189 0.1154 -4.08381 30.186 0.118561 -4.07266 29.4878 0.121456 
-4.06243 28.7914 0.124257 -4.05173 28.0311 0.127236 -4.04176 27.3396 0.129873 
-4.03148 26.6836 0.132316 -4.01848 25.9651 0.134935 -4.00281 25.25 0.137479 
-3.98533 24.6029 0.139771 -3.95915 23.8299 0.142464 -3.93035 23.1564 0.144856 
-3.89503 22.4849 0.147272 -3.84994 21.7826 0.149967 -3.7984 21.1116 0.152824 
-3.73859 20.4381 0.155859 -3.67147 19.759 0.15901 -3.59253 19.0053 0.162764 
-3.52096 18.3044 0.166268 -3.45502 17.5551 0.169463 -3.40875 16.7917 0.171389 
-3.39111 16.0207 0.171472 -3.40783 15.2164 0.16855 -3.45048 14.4937 0.164267 
-3.51731 13.7211 0.158639 -3.58581 13.0357 0.153689 -3.65245 12.3678 0.149418 
-3.71331 11.6836 0.145953 -3.76406 10.9511 0.143218 -3.79146 10.3492 0.141586 
-3.8047 9.66409 0.140147 -3.79621 8.95546 0.138966 -3.77056 8.3689 0.138152 
-3.72414 7.75625 0.137385 -3.64823 7.0884 0.136709 -3.55863 6.50974 0.136137 
-3.42476 5.84585 0.135599 -3.26923 5.2394 0.135516 -3.07659 4.63002 0.135479 
-2.84002 4.01513 0.13584 -2.51915 3.32789 0.136998 -2.15508 2.67688 0.138926 
-1.64938 1.91993 0.14405 -1.03626 1.18863 0.201178 0.851148 15.9422 0.0770241 
0.717091 15.9326 0.0659665 0.575011 15.9263 0.0620552 0.424677 15.9187 0.0578026 
0.265922 15.9108 0.0514372 0.115738 15.9078 0.0478076 -0.0316481 15.9046 0.0415032 
-0.176161 15.9131 0.0456287 -0.325075 15.9157 0.041112 -0.4682 15.9215 0.0398561 
-0.619106 15.931 0.0408662 -0.745435 15.9423 0.0440938 -0.864529 15.9333 0.0329276 
-0.841345 15.8263 0.0496126 -0.725246 15.8098 0.0494735 -0.59672 15.8012 0.0437543 
-0.462023 15.791 0.041839 -0.320173 15.7825 0.042354 -0.165039 15.7817 0.0362363 
-0.0104991 15.7709 0.0468357 0.140463 15.7745 0.047165 0.303931 15.7806 0.0498149 
0.44357 15.7888 0.0532243 0.577708 15.7988 0.058008 0.706745 15.8094 0.0694482 
0.827401 15.8221 0.0772911 3.69315 31.8298 -0.131782 3.39361 31.8446 -0.134006 
3.08348 31.8262 -0.13602 2.80833 31.749 -0.137366 2.51762 31.6962 -0.138828 
2.23194 31.6779 -0.14032 1.92647 31.6508 -0.14175 1.63435 31.6222 -0.142991 
1.3303 31.5975 -0.144186 1.0387 31.5954 -0.145318 0.742385 31.5824 -0.146337 
0.445778 31.5743 -0.147279 0.145028 31.5803 -0.148214 -0.16034 31.5843 -0.149078 
-0.462702 31.5849 -0.149853 -0.77448 31.5909 -0.150613 -1.06064 31.6054 -0.151283 
-1.3679 31.6392 -0.152027 -1.6788 31.6673 -0.152701 -1.97605 31.6819 -0.153239 
-2.27995 31.694 -0.153718 -2.5728 31.7096 -0.154137 -2.85706 31.7486 -0.154587 
-3.13356 31.7955 -0.155012 -3.3922 31.8558 -0.155423 -3.66647 31.8084 -0.155268 
-3.90999 31.7178 -0.154883 1.01673 1.05015 -0.173541 1.68285 1.98363 -0.126129 
2.13396 2.7636 -0.105758 2.48664 3.50645 -0.0931671 2.7454 4.17333 -0.0854819 
2.96694 4.86002 -0.0795866 3.14136 5.55566 -0.0755187 3.27023 6.21731 -0.0726763 
3.38053 6.85301 -0.0699513 3.45571 7.51483 -0.0680212 3.50811 8.18947 -0.0663887 
3.54173 8.8377 -0.0649273 3.55761 9.48805 -0.0635516 3.54564 10.1475 -0.0625554 
3.51181 10.8351 -0.0616993 3.46914 11.5333 -0.0606854 3.41252 12.2016 -0.0598451 
3.33958 12.895 -0.0590592 3.26113 13.6083 -0.0582851 3.19378 14.3073 -0.0573852 
3.14832 15.0057 -0.0564418 3.11333 15.7153 -0.0554758 3.11782 16.4413 -0.0546699 
3.15844 17.1824 -0.0542894 3.21769 17.9429 -0.0547019 3.289 18.6612 -0.0559634 
3.3548 19.3378 -0.0580982 3.42964 20.0338 -0.0608205 3.49684 20.737 -0.0642487 
3.55574 21.4389 -0.0681168 3.59709 22.1073 -0.0722207 3.63735 22.8216 -0.0767102 
3.67206 23.5009 -0.0810257 3.69839 24.2458 -0.0858648 3.72207 24.9678 -0.0904815 
3.73021 25.7031 -0.0952794 3.74021 26.4365 -0.0999157 3.75511 27.1059 -0.103984 
3.77113 27.8111 -0.108182 3.78502 28.5066 -0.112256 3.78667 29.2174 -0.116432 
3.79678 29.9476 -0.120555 3.81274 30.6401 -0.12434 3.8472 31.2943 -0.127709 
-3.88012 30.5019 -0.149139 -3.85265 29.9013 -0.146217 -3.82884 29.187 -0.142691 
-3.80867 28.4652 -0.13908 -3.79255 27.7157 -0.135294 -3.7723 26.988 -0.131612 
-3.76036 26.2823 -0.128036 -3.75136 25.5519 -0.124346 -3.73492 24.8331 -0.120781 
-3.71349 24.1182 -0.117333 -3.68988 23.4061 -0.114033 -3.65785 22.7269 -0.111077 
-3.61704 22.0337 -0.108338 -3.56924 21.3145 -0.105854 -3.50713 20.6064 -0.103993 
-3.44759 19.9294 -0.102701 -3.36607 19.1807 -0.102176 -3.28743 18.4656 -0.102438 
-3.19855 17.7248 -0.103223 -3.14536 16.9861 -0.104369 -3.12486 16.238 -0.105679 
-3.13908 15.5155 -0.106468 -3.1815 14.7883 -0.106721 -3.24084 14.0252 -0.10641 
-3.32025 13.3379 -0.105573 -3.39681 12.6165 -0.104444 -3.4602 11.9321 -0.103428 
-3.51474 11.2598 -0.102527 -3.54814 10.6141 -0.101741 -3.56402 9.94856 -0.101178 
-3.56614 9.26061 -0.100643 -3.55337 8.62871 -0.100226 -3.51419 7.94562 -0.100009 
-3.4468 7.26993 -0.100054 -3.35895 6.62624 -0.100316 -3.24254 5.95791 -0.100809 
-3.10293 5.31627 -0.101719 -2.91851 4.65423 -0.103371 -2.67082 3.94897 -0.106616 
-2.39617 3.29401 -0.111309 -2.04157 2.59215 -0.11917 -1.584 1.84351 -0.134594 
-0.971248 1.01073 -0.178131 -0.452344 0.465062 -0.173681 -0.429608 0.493082 -0.156836 
-0.370533 0.474757 -0.152788 -0.313947 0.456919 -0.160546 -0.281324 0.481504 -0.176658 
-0.246524 0.494958 -0.179904 -0.206862 0.497148 -0.184175 -0.168836 0.497872 -0.184129 
-0.132172 0.499273 -0.183741 -0.0976845 0.499103 -0.185842 -0.0632566 0.496052 -0.185233 
-0.0306108 0.486379 -0.184334 0.000563777 0.490688 -0.184639 0.0319404 0.498969 -0.183791 
0.0628901 0.496689 -0.183498 0.0944536 0.494198 -0.182936 0.126806 0.487763 -0.183817 
0.159768 0.485845 -0.182856 0.193892 0.481528 -0.183164 0.231821 0.484938 -0.182674 
0.268506 0.481394 -0.183788 0.311039 0.484452 -0.185696 0.35867 0.487825 -0.18817 
0.413041 0.489655 -0.193527 0.474248 0.500279 -0.202525 1.24689 16.6041 -0.0913128 
1.00797 16.5234 -0.104832 0.810693 16.5029 -0.114407 0.625862 16.5011 -0.117436 
0.449761 16.5152 -0.121644 0.279756 16.5022 -0.123082 0.0996246 16.4962 -0.125862 
-0.0806215 16.5121 -0.129411 -0.258594 16.5175 -0.131813 -0.434998 16.5145 -0.133673 
-0.606619 16.5165 -0.135858 -0.798916 16.5292 -0.135897 -1.01173 16.5577 -0.12814 
-1.28126 16.6057 -0.118966 -1.33369 15.9316 -0.0540022 -1.28455 15.1717 -0.138639 
-1.0249 15.1845 -0.155653 -0.813973 15.1756 -0.151642 -0.621879 15.1709 -0.149401 
-0.43117 15.1864 -0.142068 -0.249595 15.1834 -0.136934 -0.0759858 15.1854 -0.134552 
0.0963099 15.1787 -0.13027 0.280478 15.1728 -0.128921 0.456835 15.1765 -0.126798 
0.646652 15.1739 -0.123634 0.84047 15.185 -0.120824 1.03923 15.2023 -0.11887 
1.29542 15.1737 -0.107609 1.30303 15.957 -0.01496 1.47044 16.6754 -0.0484606 
-1.48736 16.6434 -0.0827812 -1.54588 15.0988 -0.0952088 1.48454 15.2205 -0.0529576 
1.59041 17.2945 -0.0762392 3.24767 31.3162 -0.132135 2.9704 31.1605 -0.13321 
2.69047 31.0555 -0.134509 2.3976 30.9886 -0.136003 2.08806 30.9432 -0.137591 
1.78241 30.9347 -0.139193 1.47525 30.9239 -0.140659 1.16763 30.8956 -0.141914 
0.879591 30.8855 -0.143046 0.588096 30.8851 -0.144122 0.298763 30.8927 -0.145121 
-0.00409416 30.8795 -0.145985 -0.313162 30.8911 -0.146867 -0.621314 30.8732 -0.147542 
-0.91429 30.9036 -0.148287 -1.20024 30.9325 -0.148944 -1.52567 30.9636 -0.149613 
-1.82698 30.9699 -0.15007 -2.12652 30.9748 -0.15045 -2.42783 31.0004 -0.150852 
-2.71822 31.0373 -0.15124 -2.99337 31.1052 -0.151707 -3.25366 31.1903 -0.152216 
-3.50334 31.2851 -0.152748 0.823995 17.1653 -0.10643 -0.982497 1.11542 -0.146272 
1.65662 2.12281 -0.130697 2.05201 2.90137 -0.114396 2.34527 3.61387 -0.103858 
2.57236 4.29088 -0.0964361 2.7803 5.03578 -0.0899612 2.94355 5.7667 -0.0851001 
3.06129 6.42946 -0.0814532 3.1508 7.09473 -0.0785497 3.21587 7.7786 -0.0760362 
3.26364 8.48702 -0.073813 3.27624 9.12755 -0.0723832 3.28301 9.82678 -0.070631 
3.2702 10.5035 -0.0691255 3.2315 11.2162 -0.0677888 3.17946 11.883 -0.0665172 
3.10369 12.5717 -0.0652374 3.02256 13.295 -0.0632486 2.96277 13.9764 -0.0609578 
2.89019 14.6425 -0.0587174 2.81938 15.3394 -0.0565547 2.80674 16.0466 -0.0550464 
2.84201 16.776 -0.0546884 2.89208 17.5287 -0.0559179 2.96118 18.2515 -0.0582052 
3.04635 18.9465 -0.0609162 3.12875 19.6322 -0.06398 3.19044 20.3166 -0.0675692 
3.24255 21.0169 -0.0715013 3.29039 21.7091 -0.0754306 3.33723 22.4192 -0.0794495 
3.37903 23.1258 -0.0834646 3.40246 23.8352 -0.0877431 3.42288 24.5527 -0.0920196 
3.4327 25.3016 -0.0965509 3.43733 26.0443 -0.101002 3.45641 26.7506 -0.104993 
3.47282 27.4224 -0.108763 3.49755 28.1438 -0.112696 3.50704 28.8604 -0.116692 
3.51067 29.5881 -0.120745 3.52232 30.3196 -0.124707 3.54678 31.1315 -0.128998 
-1.79951 15.6157 -0.086814 1.04329 1.2084 -0.161421 -3.64068 30.2567 -0.147892 
-3.59237 29.5421 -0.144454 -3.54856 28.7952 -0.140847 -3.51886 28.0308 -0.137149 
-3.50097 27.2561 -0.133397 -3.49014 26.5562 -0.130019 -3.47912 25.804 -0.126417 
-3.46568 25.0693 -0.122963 -3.45476 24.3735 -0.119754 -3.42806 23.6549 -0.116611 
-3.40628 22.953 -0.113652 -3.38019 22.255 -0.110893 -3.33605 21.5509 -0.108413 
-3.2743 20.8072 -0.106216 -3.2048 20.1235 -0.104537 -3.13076 19.4034 -0.103109 
-3.0449 18.6799 -0.102091 -2.9395 17.9515 -0.101397 -2.87485 17.2418 -0.101325 
-2.84285 16.4818 -0.101946 -2.86374 15.7848 -0.103254 -2.89955 15.0401 -0.104608 
-2.94061 14.3206 -0.105776 -3.02607 13.6119 -0.106522 -3.12452 12.9073 -0.106489 
-3.20618 12.1985 -0.106066 -3.25284 11.5253 -0.105722 -3.28522 10.8585 -0.10541 
-3.30646 10.1887 -0.105119 -3.31363 9.48778 -0.104831 -3.30125 8.79949 -0.104682 
-3.26769 8.11221 -0.104711 -3.21583 7.42865 -0.104903 -3.13418 6.74265 -0.105392 
-3.03272 6.0654 -0.106052 -2.90018 5.38931 -0.107337 -2.73411 4.72778 -0.109008 
-2.50535 4.00524 -0.112109 -2.2561 3.33382 -0.115747 -1.93291 2.62955 -0.121635 
-1.5008 1.86797 -0.131488 -0.902732 1.15366 -0.139809 -0.697574 1.01345 -0.143052 
-0.631685 1.04998 -0.149263 -0.562674 1.08958 -0.156738 -0.496234 1.12784 -0.161828 
-0.406322 1.11301 -0.166052 -0.323985 1.11233 -0.168676 -0.247438 1.10264 -0.170054 
-0.179016 1.09965 -0.170575 -0.105657 1.08915 -0.170744 -0.037956 1.08348 -0.170296 
0.0259931 1.08893 -0.169741 0.0904415 1.07259 -0.169441 0.15716 1.08151 -0.169397 
0.226223 1.07582 -0.169456 0.294919 1.06359 -0.169378 0.365978 1.06284 -0.168796 
0.441245 1.05662 -0.168146 0.52263 1.05506 -0.167595 0.611931 1.06505 -0.167197 
0.703097 1.06362 -0.166449 0.79801 1.04758 -0.16621 1.06248 17.189 -0.0997231 
-1.77211 16.4497 -0.0836562 1.31445 17.2377 -0.0920347 0.608259 17.1681 -0.110513 
0.414621 17.1866 -0.113234 0.213976 17.1893 -0.115383 0.000561993 17.1818 -0.116317 
-0.205495 17.1727 -0.116439 -0.402832 17.1824 -0.116628 -0.604979 17.1846 -0.117442 
-0.834133 17.2115 -0.117593 -1.07612 17.243 -0.116408 -1.35616 17.2837 -0.113885 
-1.62786 17.3185 -0.103144 1.7316 16.447 -0.0445962 -1.60952 14.4966 -0.121403 
1.72891 15.5815 -0.0466593 -1.38781 14.3866 -0.135818 -0.626077 14.434 -0.136266 
-0.401782 14.4818 -0.131535 -0.185391 14.4956 -0.125287 0.0115174 14.4638 -0.119554 
0.21346 14.4311 -0.115094 0.428735 14.4192 -0.111928 0.652196 14.4163 -0.109352 
0.900475 14.4147 -0.106894 1.15 14.4256 -0.10402 1.42486 14.4528 -0.0978185 
1.67228 14.5498 -0.0832271 -1.11016 14.3931 -0.142267 -0.851805 14.4228 -0.140673 
-1.90741 17.2342 -0.0920719 -3.74351 31.0218 -0.151562 -1.95512 14.8457 -0.100214 
1.86528 17.3041 -0.0612601 -1.91559 14.2203 -0.112243 1.89068 14.7845 -0.064764 
0.346284 17.9388 -0.113727 2.89687 30.4275 -0.129889 2.58269 30.2998 -0.131417 
2.27207 30.2426 -0.133178 1.94553 30.1763 -0.134867 1.63215 30.1377 -0.136461 
1.3128 30.1363 -0.138095 1.01675 30.1537 -0.139532 0.732015 30.1481 -0.140695 
0.446592 30.1541 -0.141785 0.141678 30.1276 -0.142699 -0.159996 30.0867 -0.143428 
-0.473005 30.0796 -0.144199 -0.756264 30.1057 -0.144919 -1.05668 30.1512 -0.145659 
-1.3593 30.1808 -0.146252 -1.68002 30.2226 -0.146836 -1.98607 30.2404 -0.14722 
-2.29022 30.2571 -0.147523 -2.59052 30.2922 -0.147838 -2.87976 30.3663 -0.148277 
-3.16115 30.4811 -0.148875 0.570226 17.9238 -0.111602 0.807518 17.931 -0.108122 
1.60841 2.33004 -0.133868 1.91276 3.02415 -0.122326 2.16936 3.75081 -0.11292 
2.37289 4.46956 -0.105838 2.57159 5.25275 -0.0987718 2.72484 5.99724 -0.0933323 
2.81864 6.66976 -0.0896902 2.89423 7.36745 -0.0864616 2.94921 8.08549 -0.0835941 
2.98271 8.79759 -0.0811826 2.99408 9.46772 -0.0792065 2.98961 10.1681 -0.0773228 
2.96795 10.8841 -0.0754919 2.92875 11.5658 -0.073789 2.85221 12.2819 -0.072214 
2.75471 12.9873 -0.0702665 2.66781 13.7105 -0.0667408 2.6615 14.3299 -0.0623722 
2.51894 14.9483 -0.0590959 2.44837 15.6489 -0.0552506 2.45161 16.4125 -0.0540617 
2.57253 17.1217 -0.0555606 2.58396 17.8029 -0.0592697 2.70103 18.5024 -0.0630477 
2.81358 19.2043 -0.066637 2.88219 19.9225 -0.0708413 2.93657 20.5974 -0.0747275 
2.97938 21.3024 -0.0787676 3.01542 21.9885 -0.0825989 3.05471 22.7089 -0.0864279 
3.09337 23.4335 -0.0901782 3.11138 24.1539 -0.0941514 3.11908 24.8926 -0.0982956 
3.12952 25.6651 -0.102518 3.14561 26.383 -0.106319 3.16557 27.0738 -0.109907 
3.18932 27.7716 -0.113487 3.21813 28.4863 -0.117112 3.21486 29.2311 -0.121162 
3.20036 29.9478 -0.125124 3.23032 30.6605 -0.128725 1.25992 1.66607 -0.148351 
1.90548 18.0492 -0.0753568 -1.42223 13.5192 -0.130506 -3.29575 29.2004 -0.142884 
-3.24524 28.4238 -0.139259 -3.21509 27.612 -0.135492 -3.20024 26.8509 -0.131982 
-3.17754 26.1075 -0.128623 -3.17699 25.3587 -0.125248 -3.16606 24.6275 -0.12205 
-3.14478 23.8831 -0.118938 -3.12951 23.1949 -0.116155 -3.10473 22.51 -0.113554 
-3.07001 21.7952 -0.111029 -3.01787 21.0664 -0.108709 -2.94721 20.3091 -0.106507 
-2.8664 19.6014 -0.104605 -2.82343 18.9393 -0.102712 -2.68505 18.2458 -0.100783 
-2.58983 17.5109 -0.0988123 -2.53626 16.7426 -0.0981863 -2.53558 15.9693 -0.0990684 
-2.61731 15.3413 -0.101658 -2.59769 14.6356 -0.104105 -2.68386 13.8721 -0.106982 
-2.82169 13.1806 -0.10816 -2.94105 12.4855 -0.108313 -2.98769 11.8029 -0.108583 
-2.997 11.1631 -0.108937 -3.01803 10.4716 -0.108982 -3.03204 9.73208 -0.108939 
-3.02731 9.00344 -0.108993 -3.00427 8.31845 -0.109218 -2.95534 7.60296 -0.109698 
-2.87523 6.86655 -0.110498 -2.78271 6.19434 -0.111488 -2.67259 5.50452 -0.112672 
-2.52657 4.8099 -0.11443 -2.3037 4.05748 -0.117412 -2.08305 3.41094 -0.120375 
-1.84031 2.76095 -0.123715 -0.0950146 13.7286 -0.121751 -1.09018 1.57499 -0.135184 
-2.25932 15.2439 -0.098096 -1.00514 1.63739 -0.139397 -0.929808 1.74388 -0.145056 
-0.823085 1.80573 -0.151047 -0.702475 1.82135 -0.156263 -0.570212 1.83062 -0.160377 
-0.445134 1.8252 -0.162973 -0.331036 1.7979 -0.164594 -0.219884 1.77463 -0.165441 
-0.11358 1.75839 -0.165682 -0.0114532 1.74577 -0.165556 0.0856987 1.7374 -0.165254 
0.190619 1.74748 -0.164747 0.295373 1.76554 -0.16414 0.403244 1.75618 -0.163526 
0.505943 1.71111 -0.162838 0.611612 1.68965 -0.16177 0.729801 1.68342 -0.160194 
0.868161 1.70103 -0.157986 1.00267 1.7101 -0.154976 1.13182 1.68284 -0.151701 
1.06333 17.9402 -0.10291 0.119665 17.9689 -0.11485 -0.113571 17.976 -0.114993 
-0.343826 17.9261 -0.114753 -0.56717 17.9208 -0.114639 -0.813704 17.9404 -0.114647 
-1.07952 17.9746 -0.114363 -1.35843 17.9938 -0.113147 -1.67107 18.0333 -0.108813 
-1.76928 13.5559 -0.122236 2.13842 15.1954 -0.0573853 1.77693 13.7424 -0.0894656 
-1.99093 18.0372 -0.102046 2.182 17.0529 -0.0549366 -0.566802 13.706 -0.131517 
0.122974 13.6685 -0.116963 0.36212 13.6285 -0.112716 0.613504 13.6051 -0.109393 
0.89066 13.573 -0.106252 1.18199 13.5855 -0.102911 1.48146 13.6106 -0.0979328 
2.023 14.0108 -0.0776683 -0.333744 13.7332 -0.127205 2.07649 16.0451 -0.0505971 
-2.20347 17.0068 -0.0939771 -3.36383 29.973 -0.146519 -1.47675 2.03167 -0.129629 
-2.28364 14.2115 -0.106765 -3.44094 30.6452 -0.149703 -2.30797 17.848 -0.0980121 
1.58959 17.9918 -0.0873083 -1.1051 13.5511 -0.134222 1.30948 17.9428 -0.0963335 
-2.17172 16.1415 -0.0933197 2.30097 14.352 -0.0663406 -0.823182 13.6649 -0.134322 
2.26571 18.0349 -0.065323 2.47179 29.5113 -0.12832 2.12479 29.399 -0.130197 
1.80612 29.323 -0.131912 1.47656 29.301 -0.133756 1.16011 29.3014 -0.135434 
0.865203 29.3339 -0.136952 0.590302 29.3645 -0.138225 0.293312 29.3164 -0.139145 
-0.00638957 29.2195 -0.139753 -0.313186 29.2004 -0.140527 -0.622743 29.231 -0.141354 
-0.905698 29.2737 -0.14205 -1.20646 29.3163 -0.142674 -1.5276 29.3656 -0.143244 
-1.8445 29.4165 -0.143717 -2.15364 29.4461 -0.144007 -2.46696 29.4886 -0.144281 
-2.77125 29.5786 -0.144707 -3.07549 29.7281 -0.145381 0.513342 18.8096 -0.112525 
0.770371 18.7735 -0.109878 2.11842 13.2069 -0.0837601 1.72356 3.15287 -0.12973 
1.96185 3.91178 -0.12093 2.17297 4.71385 -0.112722 2.34323 5.52874 -0.10609 
2.46036 6.25231 -0.101144 2.54681 6.96141 -0.0971106 2.60993 7.68904 -0.0936548 
2.65316 8.42988 -0.090573 2.67803 9.12508 -0.0880084 2.68482 9.84796 -0.0856744 
2.6838 10.5635 -0.0833629 2.66671 11.2675 -0.081162 2.59942 11.9795 -0.0795892 
2.47626 12.7296 -0.0783262 2.36939 13.5219 -0.0744128 2.48738 18.7852 -0.0692079 
2.56636 19.4746 -0.0738182 2.62605 20.1629 -0.0779975 2.64468 20.8462 -0.0824409 
2.67608 21.5603 -0.0863255 2.70953 22.2736 -0.089892 2.75267 23.0004 -0.0931988 
2.76417 23.739 -0.0969725 2.75306 24.467 -0.100912 2.76274 25.236 -0.10471 
2.79067 26.0231 -0.108373 2.82148 26.7469 -0.111716 2.86141 27.4442 -0.114875 
2.90182 28.1578 -0.118161 2.95739 28.8558 -0.121287 2.83185 29.5969 -0.126094 
-1.42962 2.2375 -0.131158 -0.0038182 18.8492 -0.114682 0.255172 18.8332 -0.114173 
-2.92082 28.0778 -0.137924 -2.88837 27.2501 -0.134268 -2.86819 26.4252 -0.130687 
-2.85375 25.687 -0.127548 -2.84187 24.8995 -0.124286 -2.83115 24.146 -0.121269 
-2.82634 23.4475 -0.118554 -2.82373 22.7701 -0.116002 -2.79818 22.0663 -0.113567 
-2.74676 21.3488 -0.111319 -2.70161 20.5901 -0.108965 -2.60702 19.813 -0.106662 
-2.44254 18.8293 -0.103535 -2.47486 13.3656 -0.110445 -2.66852 12.7417 -0.110509 
-2.73993 12.1403 -0.110934 -2.68949 11.5718 -0.11224 -2.7019 10.8572 -0.112729 
-2.7297 10.0831 -0.112827 -2.74092 9.29859 -0.112969 -2.71387 8.53135 -0.113558 
-2.66272 7.79966 -0.114373 -2.59224 7.03928 -0.115457 -2.50818 6.3257 -0.116675 
-2.40491 5.61709 -0.118118 -2.27662 4.8985 -0.119904 -2.14204 4.22266 -0.121595 
-1.77378 3.38083 -0.128029 -1.70847 2.86297 -0.127302 0.244025 12.7941 -0.115736 
-1.6901 12.5527 -0.124385 1.02382 18.7449 -0.106088 -1.35296 2.4284 -0.134901 
-1.22382 2.54801 -0.140282 -1.04557 2.5701 -0.146197 -0.871682 2.59887 -0.151247 
-0.692796 2.59982 -0.155245 -0.528171 2.59333 -0.157815 -0.376934 2.56416 -0.159478 
-0.224225 2.49636 -0.160643 -0.0855627 2.46098 -0.161077 0.0443432 2.4477 -0.160974 
0.186076 2.48057 -0.160319 0.329568 2.51948 -0.159304 0.472568 2.52124 -0.158231 
0.616832 2.47893 -0.156953 0.761432 2.42803 -0.155442 0.894853 2.35956 -0.153759 
1.07913 2.3814 -0.150222 1.27752 2.43931 -0.145168 -0.258314 18.8119 -0.114596 
-2.15092 13.3792 -0.114601 -0.499741 18.7071 -0.114329 -0.758241 18.7109 -0.114177 
-1.03321 18.7666 -0.113991 -1.31491 18.7722 -0.113483 -1.96847 18.7647 -0.107758 
-2.99873 28.9271 -0.141722 -0.00928321 12.8472 -0.119815 0.813587 12.726 -0.10829 
1.1331 12.6977 -0.104672 1.45892 12.7289 -0.100172 1.84032 12.7574 -0.093233 
1.45472 2.39555 -0.139836 -1.63849 18.7732 -0.111603 0.522713 12.7573 -0.11178 
1.26713 18.6808 -0.101143 -1.34183 12.5719 -0.128397 -2.063 12.4662 -0.118946 
-0.233937 13.0077 -0.123826 -0.731457 12.9129 -0.130098 2.19608 18.8683 -0.0769323 
-0.48027 12.823 -0.127198 1.84622 18.7824 -0.0862193 -0.158382 19.7938 -0.115259 
1.9839 28.4977 -0.127123 1.64518 28.3699 -0.12887 1.31283 28.3436 -0.130794 
1.00258 28.4421 -0.132854 0.711559 28.5094 -0.134486 0.449534 28.6034 -0.135921 
0.182765 28.3261 -0.13588 -0.142272 28.2427 -0.136584 -0.467353 28.2737 -0.137507 
-0.765368 28.3394 -0.138336 -1.0705 28.3897 -0.138982 -1.37377 28.4489 -0.139536 
-1.70106 28.5445 -0.140137 -2.01892 28.6428 -0.140643 -2.33876 28.6789 -0.140807 
-2.66176 28.7134 -0.140888 1.5386 18.703 -0.0946065 1.7635 4.17055 -0.126229 
1.94258 5.02038 -0.118655 2.08304 5.83532 -0.112413 2.1807 6.55834 -0.107615 
2.25424 7.3163 -0.10343 2.29147 8.06256 -0.100114 2.3359 8.8049 -0.096718 
2.3573 9.53454 -0.0939156 2.35585 10.2819 -0.091518 2.36424 11.0164 -0.0888302 
2.38752 11.6824 -0.0858011 2.24183 12.3816 -0.0857926 2.34922 19.6973 -0.0806009 
2.32956 20.333 -0.0856689 2.31445 21.0478 -0.0903452 2.31776 21.8097 -0.0943124 
2.3453 22.59 -0.0976259 2.4403 23.3087 -0.0995669 2.3663 23.9766 -0.103679 
2.36305 24.753 -0.107222 2.40519 25.6108 -0.110625 2.44981 26.3994 -0.113789 
2.49542 27.1441 -0.116837 2.55953 27.953 -0.120125 2.64938 28.8005 -0.123514 
-2.54632 27.7882 -0.136948 -0.673995 19.4559 -0.114704 -2.53902 26.8133 -0.132847 
-2.51665 26.0208 -0.129626 -2.49772 25.228 -0.126506 -2.4847 24.4508 -0.123549 
-2.48065 23.6746 -0.120701 -2.48535 22.9503 -0.118129 -2.54515 22.3496 -0.115814 
-2.45798 21.6506 -0.113951 -2.42276 20.9036 -0.111744 -2.42086 20.1905 -0.10932 
-0.428469 19.6826 -0.115156 -2.41217 12.4089 -0.114235 -2.34453 11.4789 -0.116427 
-2.41325 10.5002 -0.116396 -2.42681 9.67516 -0.116726 -2.40525 8.81849 -0.117488 
-2.34936 8.05988 -0.118645 -2.28325 7.28402 -0.120134 -2.20577 6.48715 -0.121697 
-2.11324 5.73617 -0.123459 -1.9992 4.95027 -0.125523 -1.85934 4.13066 -0.127777 
-1.43716 3.32799 -0.136541 -1.55601 11.5514 -0.125009 -1.21265 3.37611 -0.142188 
-0.986367 3.41372 -0.146943 -0.768707 3.46656 -0.150223 -0.568612 3.47584 -0.1525 
-0.364964 3.41953 -0.154226 -0.187399 3.19032 -0.156179 -0.0291871 3.3514 -0.155178 
0.134622 3.19509 -0.155861 0.313912 3.41458 -0.15361 0.510577 3.42453 -0.15218 
0.696712 3.35069 -0.150618 0.883835 3.2647 -0.148744 1.04798 3.14421 -0.146759 
1.19292 2.99192 -0.144756 -0.946152 19.6388 -0.114728 -1.24175 19.6555 -0.114368 
-1.01013 12.6504 -0.130149 1.50495 3.26034 -0.136267 1.72064 11.7956 -0.0985001 
0.707115 19.6815 -0.111494 0.0544106 11.9318 -0.119656 1.36132 11.7617 -0.103896 
1.01981 11.7561 -0.108204 2.31446 28.6147 -0.125228 0.980403 19.6158 -0.10843 
0.690581 11.8026 -0.111941 -1.92359 11.5981 -0.121332 0.383176 11.9034 -0.115435 
0.433074 19.8172 -0.11369 1.2405 19.5677 -0.104472 0.136125 19.843 -0.114864 
-0.711223 11.7783 -0.127089 -2.23518 19.4944 -0.108038 -1.5614 19.62 -0.113405 
2.06458 19.6021 -0.0868882 2.07715 11.7837 -0.0920254 -1.14588 11.5144 -0.12728 
-1.89013 19.5368 -0.111249 1.39405 3.72776 -0.137037 1.47678 27.3793 -0.125987 
0.807851 27.6936 -0.131027 0.475604 27.5834 -0.13213 0.109038 27.1979 -0.132148 
-0.269867 27.1933 -0.133234 -0.622274 27.3657 -0.13459 -0.940093 27.4495 -0.135379 
-1.24261 27.4896 -0.135834 -1.57382 27.5739 -0.136327 -1.90377 27.7443 -0.137027 
-2.20098 27.9803 -0.137924 1.55363 4.55351 -0.129856 0.940398 20.4895 -0.110356 
1.69091 5.40427 -0.123137 1.80488 6.15379 -0.117474 1.87232 6.92125 -0.113002 
1.91848 7.69092 -0.109084 1.96506 8.48271 -0.105246 2.02362 9.23267 -0.101527 
2.0309 10.059 -0.0986139 2.01355 10.9207 -0.096121 1.99487 20.3765 -0.0931593 
1.94872 21.2208 -0.0980606 1.94577 22.1717 -0.101963 1.99787 23.1859 -0.10517 
1.94439 24.1535 -0.109574 1.95506 25.0784 -0.11308 2.02258 26.0214 -0.116244 
2.11214 26.8874 -0.119111 2.2047 27.7212 -0.122009 1.6216 10.746 -0.103215 
-2.12456 20.278 -0.111602 -1.11401 20.6617 -0.116117 -0.363544 20.7746 -0.116654 
-2.16396 26.344 -0.131401 -2.13336 25.5847 -0.12854 -2.1242 24.7567 -0.125517 
-2.1096 23.9186 -0.122623 -2.11064 23.0585 -0.11979 -2.15289 22.1844 -0.116951 
-2.1065 21.171 -0.11427 -1.36336 10.2754 -0.12584 -2.08905 10.0342 -0.120195 
-2.11713 9.21146 -0.120482 -2.00035 8.46447 -0.122394 -1.96015 7.59716 -0.123895 
-1.89411 6.74462 -0.125829 -1.80462 5.92728 -0.128177 -1.70414 5.05287 -0.130893 
-1.58081 4.15472 -0.133846 -0.746095 20.5599 -0.116195 -1.327 4.24534 -0.138668 
-1.05641 4.37887 -0.142631 -0.79468 4.44942 -0.145407 -0.517533 4.45388 -0.147393 
-0.203875 4.32047 -0.149036 0.142848 4.38161 -0.148231 0.468054 4.4834 -0.145713 
0.73637 4.37889 -0.143774 0.972903 4.19733 -0.14197 1.19902 3.97342 -0.139635 
1.21777 10.7734 -0.108609 -0.281918 11.9373 -0.12364 1.11946 27.4356 -0.128421 
1.4688 19.3681 -0.0995573 0.659935 20.8113 -0.113344 1.84303 27.5076 -0.123907 
1.75625 19.5532 -0.0940044 -2.19832 27.1963 -0.134737 1.2388 20.5216 -0.106882 
-0.0239344 20.8695 -0.116381 -1.46679 20.5804 -0.115318 0.845118 10.7582 -0.11315 
-2.11475 10.8566 -0.11952 -0.106194 10.8583 -0.122713 0.204016 11.1054 -0.119268 
-0.911734 10.2814 -0.12698 0.383365 26.1009 -0.127497 -0.0691797 25.9703 -0.128665 
-0.488022 26.0964 -0.130049 -0.811167 26.5045 -0.131926 -1.12548 26.4213 -0.131936 
-1.47577 26.5651 -0.132571 -1.82954 26.8175 -0.133455 -1.80998 20.4336 -0.113813 
1.41176 5.77011 -0.126661 1.54311 6.51608 -0.120888 1.50648 7.25618 -0.118126 
1.54404 8.12294 -0.113823 1.6348 8.95544 -0.109169 1.73496 9.74931 -0.104746 
-1.4205 5.25479 -0.134858 1.53032 21.3999 -0.105262 -1.77676 10.6105 -0.122939 
1.50995 22.4852 -0.108808 1.50566 23.5716 -0.112208 1.55016 24.5696 -0.115088 
0.521477 10.8652 -0.116427 -1.71895 25.0935 -0.127285 -1.77396 24.2753 -0.124464 
-1.7224 22.4204 -0.118956 -1.37349 21.6569 -0.117774 -1.76859 21.4254 -0.116262 
1.31993 4.89168 -0.132659 0.319425 20.942 -0.11537 -1.12628 8.72032 -0.128463 
-0.476295 10.5799 -0.125626 -1.69204 9.31064 -0.124361 -1.55736 8.09518 -0.126981 
-1.58208 7.11937 -0.128689 -1.47764 6.19725 -0.131878 -0.992856 21.8482 -0.118618 
-1.10372 5.51545 -0.137912 -0.785933 5.71108 -0.139545 -0.417241 5.58191 -0.141473 
0.388767 5.7698 -0.138624 -0.583418 21.9847 -0.119012 1.70962 26.6114 -0.121296 
0.804598 26.7479 -0.127682 -0.163403 9.43985 -0.126024 -0.614225 8.94873 -0.128687 
1.58731 20.3237 -0.100901 1.25032 26.3791 -0.123757 -0.215982 21.7993 -0.118242 
-1.77317 25.9766 -0.130362 1.62493 25.6389 -0.118266 1.07658 21.5604 -0.111081 
-1.69703 23.4076 -0.121854 1.38081 9.78254 -0.109872 -0.0536324 6.03456 -0.139053 
0.754173 5.56023 -0.136619 1.05202 5.27023 -0.134755 0.212099 10.0411 -0.121725 
0.967864 9.64926 -0.115511 1.01772 24.2167 -0.11832 -1.32426 24.2513 -0.124842 
-0.80579 23.4079 -0.122517 -1.15728 6.88825 -0.132762 1.2355 25.264 -0.120007 
0.0701984 24.6372 -0.124241 -0.41355 24.7014 -0.125634 -0.891776 25.24 -0.127879 
-1.35926 25.5613 -0.129069 0.614776 22.0393 -0.115678 1.14907 6.43252 -0.127317 
0.164149 22.1144 -0.117909 1.12209 7.58466 -0.122163 1.20033 8.69121 -0.116317 
0.85391 25.6069 -0.123595 -0.62199 7.03383 -0.134542 1.01834 22.8968 -0.114737 
0.591149 9.68396 -0.1194 0.54073 24.6923 -0.122502 0.337673 7.24228 -0.13129 
-0.212901 23.1719 -0.1212 -1.29836 22.8034 -0.12072 -0.178848 7.78417 -0.131396 
0.742258 6.85153 -0.129818 0.729516 8.32858 -0.1232 0.442901 23.3871 -0.119549 
0.254028 8.72979 -0.125611 3.71103 31.8231 0.13487 3.42669 31.7542 0.132924 
3.13458 31.7415 0.130618 2.84243 31.7319 0.128303 2.54375 31.7174 0.125998 
2.25605 31.6785 0.123988 1.95601 31.6397 0.122004 1.66638 31.5954 0.120272 
1.34964 31.5917 0.118323 1.03216 31.5673 0.1167 0.734602 31.5566 0.115324 
0.435754 31.5699 0.114 0.116488 31.5584 0.112966 -0.177892 31.5478 0.11222 
-0.485733 31.5517 0.111562 -0.790047 31.565 0.111061 -1.08301 31.5689 0.110785 
-1.37712 31.5802 0.110629 -1.68235 31.6006 0.110557 -1.97407 31.6285 0.110556 
-2.26023 31.6549 0.110638 -2.55205 31.661 0.110868 -2.82522 31.7081 0.110913 
-3.11624 31.7616 0.110947 -3.39465 31.8158 0.110929 -3.68089 31.8511 0.110959 
-3.92793 31.9232 0.110769 0.950928 0.984367 0.18851 1.5723 1.83675 0.167873 
1.99613 2.54685 0.164587 2.3714 3.30276 0.163954 2.67806 4.03526 0.164483 
2.90932 4.70203 0.165594 3.09414 5.38879 0.167127 3.24654 6.09216 0.168868 
3.34751 6.74263 0.170669 3.43536 7.40531 0.172558 3.49231 8.05441 0.174559 
3.51771 8.71846 0.176712 3.52365 9.37072 0.178979 3.51272 10.0114 0.181439 
3.48585 10.6432 0.184156 3.44776 11.3095 0.187439 3.39654 11.9543 0.191079 
3.3361 12.6408 0.195485 3.26871 13.301 0.200193 3.19327 14.0469 0.205644 
3.12969 14.7675 0.210443 3.09596 15.4741 0.214207 3.09518 16.1848 0.21639 
3.11863 16.9382 0.216194 3.17344 17.6485 0.214184 3.23897 18.3679 0.210473 
3.30755 19.0888 0.205783 3.38354 19.8146 0.200824 3.44827 20.5108 0.195998 
3.51411 21.2575 0.191036 3.57168 21.9568 0.186654 3.6122 22.6233 0.182609 
3.63929 23.3255 0.178484 3.66653 24.0549 0.174435 3.68428 24.749 0.17071 
3.69752 25.4832 0.166876 3.72378 26.2452 0.163141 3.73761 26.9592 0.159634 
3.74712 27.73 0.155857 3.75875 28.4449 0.152396 3.76214 29.1637 0.148841 
3.78356 29.8935 0.145361 3.81573 30.613 0.141976 -3.85671 31.2649 0.113645 
-3.87713 30.4978 0.117016 -3.84877 29.7794 0.12005 -3.8321 29.0647 0.123005 
-3.81116 28.3684 0.125818 -3.80154 27.6247 0.128766 -3.77997 26.9103 0.13154 
-3.76792 26.2345 0.134115 -3.75705 25.5227 0.136777 -3.72919 24.7954 0.139479 
-3.70532 24.0805 0.142101 -3.68565 23.3916 0.144613 -3.65336 22.6841 0.147206 
-3.61399 21.9868 0.149824 -3.57143 21.3189 0.152411 -3.51066 20.6106 0.155274 
-3.45006 19.9443 0.157958 -3.37854 19.2253 0.160855 -3.30922 18.5389 0.16342 
-3.23029 17.7981 0.16552 -3.16129 17.0171 0.166543 -3.12549 16.2964 0.166315 
-3.12883 15.5453 0.164487 -3.16334 14.8253 0.161459 -3.23371 14.0783 0.15781 
-3.32138 13.3655 0.154209 -3.399 12.6699 0.15079 -3.4605 11.9691 0.147859 
-3.50933 11.2701 0.145618 -3.549 10.6137 0.143951 -3.5667 9.93308 0.142704 
-3.57144 9.20929 0.141653 -3.54793 8.56686 0.141023 -3.50898 7.92197 0.140576 
-3.45539 7.28836 0.140221 -3.36407 6.63242 0.140237 -3.24214 5.96822 0.140606 
-3.09624 5.30665 0.141266 -2.91031 4.64404 0.142574 -2.70657 4.02816 0.144207 
-2.42348 3.33771 0.147387 -2.06322 2.62342 0.153202 -1.60355 1.8599 0.164342 
-1.00667 1.03177 0.188461 -0.47857 0.489839 0.216102 -0.459855 0.529463 0.213232 
-0.402631 0.529602 0.206207 -0.336583 0.501308 0.197311 -0.295336 0.500769 0.194609 
-0.253241 0.49592 0.188671 -0.216994 0.500554 0.181855 -0.186884 0.511687 0.181078 
-0.154611 0.524256 0.179479 -0.118106 0.530228 0.177752 -0.0836548 0.535243 0.178487 
-0.0463755 0.511968 0.1792 -0.0136092 0.506472 0.17983 0.0174926 0.497054 0.180842 
0.0488612 0.501137 0.181267 0.080302 0.497858 0.180392 0.116012 0.510056 0.17905 
0.150938 0.514609 0.178878 0.184035 0.504048 0.179001 0.214629 0.490539 0.179436 
0.255015 0.494855 0.180099 0.300436 0.504287 0.180721 0.352982 0.519201 0.181796 
0.408483 0.52878 0.185647 0.431849 0.493872 0.190671 0.447005 0.451408 0.188534 
1.26033 16.598 0.216745 0.992649 16.5442 0.229387 0.784006 16.5345 0.220768 
0.58767 16.5396 0.213773 0.401925 16.5222 0.209207 0.221373 16.484 0.206118 
0.0495723 16.4875 0.203913 -0.115662 16.5051 0.202921 -0.288102 16.514 0.201049 
-0.460643 16.5119 0.200032 -0.636753 16.5304 0.198766 -0.821364 16.5524 0.202176 
-1.02247 16.5706 0.194479 -1.28939 16.6479 0.183491 -1.32402 15.9786 0.109094 
-1.28829 15.1688 0.166075 -1.027 15.1904 0.167547 -0.821722 15.1964 0.172205 
-0.646489 15.1906 0.182848 -0.460129 15.1713 0.192862 -0.287376 15.166 0.196983 
-0.0991061 15.1678 0.200558 0.074185 15.1882 0.204235 0.257669 15.1689 0.206532 
0.431555 15.1821 0.209257 0.611867 15.1748 0.212817 0.789038 15.2052 0.215662 
1.00608 15.188 0.217794 1.29987 15.1294 0.202007 1.47522 15.9297 0.162346 
-1.5791 15.1299 0.129245 3.86854 31.2831 0.138948 1.54236 16.7454 0.17811 
-1.52351 16.7472 0.149973 1.62426 15.0026 0.167396 3.30453 31.04 0.135544 
3.58884 31.1544 0.137297 2.69896 31.0859 0.130449 2.39842 31.0205 0.128471 
2.1082 30.9503 0.126702 1.80233 30.9169 0.124764 1.50197 30.8681 0.123109 
1.18518 30.8375 0.121445 0.882604 30.808 0.120055 0.579247 30.7556 0.118979 
0.279136 30.7583 0.117819 -0.026627 30.7965 0.116649 -0.33298 30.789 0.115919 
-0.640002 30.796 0.1153 -0.937309 30.8173 0.114794 -1.23328 30.826 0.114502 
-1.51862 30.8293 0.114371 -1.81679 30.8641 0.114193 -2.10821 30.8867 0.114162 
-2.40581 30.9462 0.11403 -2.68491 31.0085 0.113927 -2.97523 31.0642 0.113883 
-3.25862 31.1459 0.11373 -3.53749 31.2357 0.113541 1.88389 2.62178 0.165661 
-3.6656 30.727 0.115845 -1.36847 14.4494 0.154808 1.46473 1.85392 0.168324 
0.974384 1.10753 0.175012 2.238 3.40514 0.165092 2.52456 4.1591 0.165447 
2.73567 4.89105 0.166377 2.88948 5.59956 0.167669 3.00242 6.31033 0.169153 
3.09178 6.99596 0.170849 3.18395 7.6663 0.172602 3.23363 8.34222 0.174586 
3.23534 8.98657 0.176497 3.22661 9.66239 0.178675 3.20211 10.3306 0.181006 
3.15866 10.9969 0.1835 3.10986 11.6757 0.186349 3.06319 12.3517 0.189616 
3.01229 13.0228 0.193132 2.92495 13.7321 0.196754 2.83389 14.4163 0.199816 
2.79042 15.1299 0.203562 2.78042 15.8287 0.20668 2.78836 16.5523 0.207917 
2.83394 17.2594 0.207615 2.90068 17.9686 0.205765 2.95098 18.6674 0.202261 
3.02499 19.3786 0.198463 3.12245 20.0915 0.194637 3.20168 20.8201 0.19038 
3.2634 21.5534 0.186 3.30035 22.2344 0.18191 3.31983 22.9394 0.177719 
3.33745 23.6744 0.173587 3.35173 24.3869 0.169734 3.37427 25.1209 0.165984 
3.39229 25.8538 0.162313 3.40795 26.6004 0.158644 3.41089 27.3458 0.154925 
3.44074 28.111 0.151362 3.45599 28.8613 0.147749 3.47244 29.6387 0.143999 
3.50902 30.409 0.140421 -1.63484 14.477 0.145928 1.6041 17.3663 0.193827 
-3.62136 30.0886 0.118563 -3.58405 29.4098 0.12142 -3.56265 28.6838 0.12444 
-3.53125 27.9445 0.127464 -3.50445 27.1829 0.130534 -3.49085 26.4925 0.133273 
-3.4708 25.7696 0.136102 -3.44759 25.0171 0.139012 -3.42825 24.315 0.141691 
-3.4104 23.6168 0.144316 -3.38406 22.9188 0.146922 -3.35428 22.1973 0.149589 
-3.3167 21.5222 0.152064 -3.27041 20.8124 0.154666 -3.21605 20.1403 0.157071 
-3.1509 19.429 0.159413 -3.08949 18.7549 0.161333 -3.02155 18.0528 0.16276 
-2.92676 17.2977 0.163052 -2.85588 16.6007 0.162169 -2.85488 15.8676 0.160782 
-2.87298 15.1018 0.158126 -2.91252 14.3977 0.1554 -3.02191 13.6824 0.153345 
-3.11829 12.9701 0.151101 -3.16841 12.2698 0.14902 -3.22883 11.5664 0.147344 
-3.27549 10.8855 0.146043 -3.30971 10.1996 0.144977 -3.3176 9.48238 0.14418 
-3.30807 8.79653 0.14367 -3.27895 8.11963 0.143409 -3.22509 7.47901 0.143469 
-3.1388 6.78003 0.143901 -3.03217 6.10384 0.144682 -2.89564 5.41439 0.146111 
-2.72224 4.69534 0.148095 -2.52825 4.04397 0.151055 -2.30145 3.39828 0.154671 
-1.98109 2.68151 0.161324 -1.55433 1.93507 0.173622 -1.0087 1.13634 0.194984 
-1.63293 17.4462 0.165796 -0.761173 1.11463 0.193094 -0.977187 1.25064 0.194309 
-0.672505 1.13948 0.183835 -0.582823 1.13717 0.175498 -0.48965 1.1134 0.169912 
-0.404435 1.10278 0.166578 -0.337662 1.121 0.165106 -0.269791 1.13374 0.164417 
-0.200058 1.15159 0.163963 -0.130223 1.1415 0.164412 -0.0600419 1.11769 0.165028 
0.00546068 1.09423 0.165613 0.0695177 1.09938 0.165951 0.135463 1.09705 0.165917 
0.206045 1.12136 0.165509 0.277343 1.14447 0.16506 0.341511 1.11338 0.165096 
0.407995 1.08881 0.165374 0.478899 1.07449 0.165701 0.567046 1.08856 0.16587 
0.700516 1.16094 0.16647 0.830333 1.21056 0.167827 0.923647 1.18416 0.170605 
1.90507 16.7854 0.186135 1.33076 17.3049 0.20023 -1.79089 16.5965 0.142918 
1.05784 17.272 0.199759 0.808199 17.2704 0.195832 0.58369 17.2294 0.192888 
0.367358 17.1874 0.191023 0.166055 17.1559 0.189332 -0.02944 17.155 0.188181 
-0.224638 17.1724 0.187883 -0.412794 17.1815 0.187486 -0.624919 17.1896 0.186867 
-0.842318 17.2229 0.185645 -1.07667 17.2708 0.183534 -1.35674 17.375 0.176772 
1.65349 14.3229 0.180103 1.98557 15.2992 0.18135 -1.1194 14.4326 0.159161 
-0.877934 14.4143 0.163507 -0.639441 14.4169 0.168937 -0.427708 14.4247 0.174736 
-0.22057 14.4196 0.180889 -0.0164141 14.4422 0.186747 0.203938 14.4345 0.191181 
0.408422 14.4366 0.194308 0.621773 14.4417 0.19629 0.828067 14.4615 0.197755 
1.0812 14.4486 0.196376 1.36281 14.4122 0.189744 -1.80609 15.7314 0.139626 
3.00293 31.0667 0.132958 1.89522 17.4656 0.188895 -1.95094 14.3602 0.144218 
-2.06033 14.912 0.142287 -1.89605 17.4189 0.157002 2.06501 16.0917 0.187711 
1.93006 14.1975 0.178792 2.1334 14.4779 0.182477 1.97074 30.1917 0.129646 
2.57939 30.3356 0.133332 1.65719 30.1666 0.127716 1.3383 30.1196 0.126052 
1.03417 30.0315 0.124873 0.733598 29.9777 0.123723 0.429322 29.9556 0.122578 
0.138911 29.952 0.12157 -0.178718 29.9685 0.120556 -0.484053 29.9815 0.119781 
-0.792556 30.0001 0.119139 -1.08392 30.0138 0.118698 -1.37711 30.0521 0.11826 
-1.67285 30.0638 0.118063 -1.96926 30.086 0.117912 -2.25358 30.1466 0.117657 
-2.55468 30.2272 0.117377 -2.85296 30.3104 0.117143 -3.14503 30.4113 0.11686 
-3.42076 30.5469 0.116448 1.94982 13.5722 0.180646 2.23982 17.5535 0.193385 
2.10122 3.57401 0.164968 1.64719 13.6493 0.18276 1.75716 2.74626 0.16511 
-1.65752 13.7169 0.152139 2.50966 5.10521 0.166346 2.62848 5.86421 0.167603 
2.72621 6.59137 0.169083 2.82694 7.29209 0.170724 2.95433 7.94429 0.17261 
2.91667 8.57521 0.174065 2.90601 9.261 0.175938 2.89117 9.98572 0.17805 
2.86695 10.671 0.180154 2.82054 11.3698 0.182311 2.75219 12.0791 0.184441 
2.69125 12.8029 0.186845 2.70254 13.4337 0.19012 2.55576 14.0836 0.190894 
2.39789 15.5205 0.195062 2.38704 16.8746 0.197694 2.60018 18.2224 0.198119 
2.67038 18.9392 0.195405 2.76487 19.6499 0.192333 2.87403 20.3733 0.189107 
2.9418 21.1071 0.185091 2.96976 21.825 0.180849 2.98201 22.5487 0.176608 
2.99812 23.2614 0.172671 3.01893 24.0145 0.168715 3.03763 24.7263 0.165093 
3.05658 25.475 0.161378 3.07232 26.2318 0.157669 3.08701 26.9833 0.15403 
3.10519 27.734 0.15045 3.13299 28.5093 0.146824 3.15658 29.3331 0.142917 
3.17219 30.2506 0.138449 -2.15344 16.3945 0.15133 -1.89264 13.8308 0.147924 
-3.30205 29.1093 0.122558 -3.25361 28.3191 0.125884 -3.21823 27.5282 0.129179 
-3.19665 26.805 0.132158 -3.17365 26.0674 0.13516 -3.14825 25.308 0.138216 
-3.13273 24.5537 0.141194 -3.12102 23.8722 0.143835 -3.10366 23.1584 0.146551 
-3.07727 22.4408 0.149219 -3.05013 21.7604 0.151662 -3.00665 21.0488 0.154108 
-2.94721 20.3014 0.156496 -2.88212 19.6057 0.158437 -2.84443 18.9303 0.159913 
-2.79486 18.2877 0.160794 -2.74159 17.6499 0.160942 -2.52554 16.9544 0.158208 
-2.52424 16.1533 0.156458 -2.5905 15.4611 0.154964 -2.51388 14.7425 0.151114 
-2.67485 13.9312 0.1508 -2.84361 13.2748 0.1506 -2.87021 12.6069 0.149404 
-2.92809 11.9264 0.148573 -2.98179 11.2174 0.14776 -3.01531 10.5052 0.14708 
-3.03394 9.78051 0.14652 -3.03848 9.05057 0.146115 -3.0228 8.36845 0.145997 
-2.98197 7.6855 0.146192 -2.89999 7.0019 0.146838 -2.79711 6.29671 0.147976 
-2.67072 5.56423 0.14972 -2.50758 4.81218 0.152316 -2.30698 4.06044 0.155956 
-2.10002 3.39008 0.160247 -1.91111 2.81761 0.164908 -1.5473 2.13406 0.175109 
1.86822 18.0427 0.189601 -1.10311 1.82722 0.179335 -0.959059 1.8191 0.174857 
-1.93937 18.2425 0.161909 -2.16702 17.2078 0.154758 1.6194 18.0838 0.190304 
2.26318 30.238 0.131468 -0.817782 1.79583 0.170219 -0.688003 1.78808 0.166442 
-0.565776 1.78534 0.163901 -0.46145 1.80243 0.162517 -0.35634 1.8292 0.161801 
-0.252522 1.8352 0.161602 -0.14944 1.82858 0.161796 -0.045965 1.79801 0.162202 
0.0554902 1.77721 0.162586 0.154361 1.78326 0.162724 0.258863 1.79885 0.162645 
0.368523 1.83213 0.16243 0.470302 1.8357 0.162361 0.580244 1.82139 0.162333 
0.692902 1.79519 0.162534 0.796244 1.75217 0.16295 0.961154 1.81381 0.163674 
1.23311 2.03561 0.164507 1.35069 1.92399 0.166447 2.34552 4.35185 0.165539 
1.05093 18.0449 0.188927 0.792975 18.0277 0.18686 0.546859 17.9959 0.185277 
0.305082 17.9592 0.184019 0.0770143 17.8944 0.183754 -0.138762 17.9067 0.183652 
-0.347367 17.9534 0.183358 -0.571249 17.9764 0.182708 -0.814382 17.9678 0.181248 
-1.07731 18.0277 0.178081 -3.35414 29.8295 0.119503 -1.14202 13.5711 0.159142 
-0.870782 13.5553 0.163381 -0.602019 13.6059 0.168471 -0.360768 13.6664 0.174099 
-0.13225 13.6656 0.179754 0.110719 13.6096 0.184768 0.35044 13.5997 0.188421 
0.584384 13.6251 0.1908 0.826635 13.6355 0.191486 1.08008 13.6355 0.190596 
1.36347 13.631 0.187461 1.34124 18.0631 0.19044 -1.41099 13.6276 0.155427 
2.8628 30.4782 0.134818 2.23669 18.3448 0.191301 2.30599 13.5738 0.183789 
2.43758 14.789 0.192163 2.46016 16.181 0.199408 2.58591 17.5712 0.201022 
-2.24987 18.1669 0.159486 -1.66029 18.234 0.166656 -2.31477 14.1146 0.146961 
-1.36337 18.1451 0.172822 -2.18393 13.5434 0.147772 -1.20652 1.76087 0.182625 
1.84467 29.4119 0.132754 0.899108 29.0923 0.129003 0.591767 29.049 0.127853 
0.295839 29.0629 0.126641 -0.0183099 29.0803 0.125523 -0.328632 29.1055 0.124558 
-0.636973 29.1083 0.123874 -0.941019 29.1138 0.123333 -1.23207 29.1448 0.122812 
-1.53693 29.1809 0.122366 -1.83785 29.2241 0.121992 -2.13518 29.2859 0.121623 
-2.42919 29.3658 0.121244 -2.74388 29.4754 0.1208 -3.05646 29.6298 0.120223 
1.95976 3.824 0.164547 1.90277 12.9758 0.181096 2.13527 4.57883 0.164919 
1.67329 2.98453 0.164227 -2.24844 15.5236 0.149173 2.28988 6.12989 0.166955 
2.24109 5.35831 0.165861 2.55663 7.87061 0.171108 2.567 8.77762 0.173296 
2.55533 9.54571 0.17527 2.5454 10.3086 0.17733 2.52526 11.024 0.179238 
2.43583 11.8201 0.18088 2.28216 12.7211 0.181782 -1.61748 2.58662 0.170616 
2.63683 20.6677 0.184054 2.60625 21.3248 0.17975 2.61566 22.0715 0.175543 
2.63537 22.812 0.17163 2.6554 23.5895 0.16765 2.67704 24.3308 0.163984 
2.69851 25.0733 0.160383 2.71905 25.8441 0.156688 2.73601 26.6173 0.152991 
2.75428 27.3731 0.149409 2.77241 28.1553 0.145692 2.80037 28.9671 0.141889 
2.84562 29.7795 0.138191 2.39606 19.1847 0.189701 -1.98597 13.0672 0.150693 
-2.92687 27.9928 0.127268 -2.89022 27.1895 0.130692 -2.8627 26.442 0.133844 
-2.83641 25.65 0.137151 -2.81587 24.8849 0.140299 -2.80168 24.1625 0.143213 
-2.78919 23.436 0.146068 -2.76906 22.6951 0.148891 -2.74754 21.9651 0.151541 
-2.71993 21.2804 0.153861 -2.66336 20.531 0.15622 -2.58151 19.7467 0.158133 
-2.55541 19.0126 0.159302 -2.53804 13.2065 0.148914 -2.63456 12.3547 0.149173 
-2.68535 11.603 0.149054 -2.6976 10.8655 0.148918 -2.71254 10.1322 0.148702 
-2.74023 9.38347 0.148375 -2.73432 8.67677 0.148344 -2.69873 7.98236 0.148606 
-2.63803 7.25766 0.149249 -2.53047 6.53155 0.150497 -2.42003 5.79794 0.15212 
-2.2789 5.00942 0.154628 -2.07593 4.14958 0.158684 -1.87141 3.37768 0.163305 
-2.24727 19.0471 0.160141 1.95848 18.8412 0.186996 -1.42504 2.63077 0.17013 
-1.18707 2.51532 0.168655 -1.11249 12.6338 0.160168 -0.696594 2.55726 0.161675 
-0.554577 2.59908 0.160752 -0.41315 2.60735 0.160315 -0.275078 2.61012 0.160155 
-0.131652 2.60696 0.160265 0.00663488 2.58319 0.160534 0.139213 2.52617 0.160888 
0.275766 2.53544 0.161016 0.422263 2.59761 0.161032 0.565672 2.64575 0.161114 
0.724499 2.67486 0.161097 0.871303 2.62263 0.161385 1.00765 2.54401 0.161832 
1.10454 2.39489 0.162559 1.31585 18.8488 0.183432 1.00807 18.8477 0.18158 
1.19506 29.2201 0.129851 1.62516 18.8682 0.184851 0.742435 18.8725 0.179902 
0.464219 18.8918 0.178567 0.199681 18.8288 0.178405 -0.027333 18.6197 0.179319 
-0.245917 18.7878 0.178159 -0.485681 18.8317 0.177488 -0.73811 18.7892 0.176715 
-1.02457 18.8231 0.174198 1.50851 29.3625 0.130898 -0.848531 2.52692 0.163377 
-0.802552 12.6298 0.164313 -0.507154 12.7057 0.169099 -0.260337 12.947 0.174348 
-0.0240363 12.7315 0.177797 0.252296 12.6843 0.18161 0.525393 12.7089 0.184432 
0.782914 12.7824 0.186053 1.03615 12.8291 0.186306 2.39134 6.98169 0.168755 
-2.98557 28.829 0.123675 2.5218 19.9772 0.186784 -2.4738 17.7551 0.158987 
-1.00061 2.49345 0.165858 1.62461 12.8682 0.182675 -1.93177 19.0648 0.162295 
2.48823 29.5229 0.136727 -2.58153 18.4425 0.159893 1.32033 12.8203 0.184867 
2.1688 29.4166 0.134937 -1.41498 12.7023 0.156797 1.33195 2.59498 0.163257 
-1.31615 18.9493 0.170291 -1.70484 12.8376 0.15391 1.57435 19.6586 0.17944 
0.786771 28.0602 0.133617 -0.167587 28.192 0.129512 -0.490417 28.2181 0.128571 
-0.788146 28.1575 0.128258 -1.08725 28.1711 0.127698 -1.39048 28.2363 0.126997 
-1.7129 28.3025 0.126382 -2.02747 28.375 0.125839 -2.32615 28.4779 0.12526 
-2.65901 28.614 0.124593 1.61532 3.3227 0.16345 -1.6489 3.48766 0.163387 
2.20286 9.10036 0.172953 1.97433 7.43539 0.168344 2.19642 9.91039 0.175056 
2.19867 10.667 0.177054 2.20002 11.3818 0.178818 -2.25082 19.935 0.158887 
0.149283 28.0752 0.13105 0.470548 28.039 0.13239 2.27359 23.1033 0.16679 
2.29251 23.9024 0.162896 2.31663 24.6641 0.159304 2.34213 25.4597 0.155598 
2.36485 26.2413 0.151952 2.39505 27.0204 0.148377 2.41082 27.8445 0.144465 
2.43211 28.6896 0.14046 2.17998 19.6398 0.184606 -2.4171 12.0184 0.149922 
-2.5066 26.098 0.135594 -2.54463 26.9101 0.13207 -2.59296 27.7336 0.128466 
-2.47842 25.2854 0.139077 -2.45546 24.4677 0.142525 -2.43565 23.7329 0.145564 
-2.42 22.9394 0.148733 -2.40948 22.1759 0.151637 -2.41019 21.4743 0.15407 
-2.42737 20.7899 0.156125 -1.16082 3.29321 0.1622 -2.30862 12.7239 0.14958 
-2.37012 10.5132 0.150799 -2.38689 9.71056 0.150714 -2.45854 9.00727 0.15026 
-2.37459 8.33244 0.150842 -2.37558 7.62903 0.151007 -2.23104 6.89409 0.152314 
-2.13984 6.1202 0.153658 -2.02869 5.3046 0.155605 -1.87596 4.41465 0.158646 
-0.434154 3.44877 0.159188 -0.624917 3.51426 0.159342 -2.37511 11.3311 0.150586 
2.26012 22.2937 0.170867 -0.795162 3.44152 0.159736 -0.255319 3.46837 0.159139 
-0.078816 3.53964 0.159189 0.107502 3.49618 0.159687 0.255444 3.25377 0.160059 
0.423452 3.40213 0.160147 0.614349 3.48503 0.160541 0.812646 3.58798 0.160678 
1.01019 3.57415 0.161059 1.20191 3.43337 0.161625 1.36948 3.23798 0.162377 
1.24428 19.6521 0.177452 1.09377 28.191 0.134449 2.23264 21.413 0.175298 
0.961112 19.7618 0.175233 2.2214 8.30122 0.171035 0.646598 19.8724 0.173307 
0.318978 19.8677 0.172548 -0.0240712 19.6652 0.173112 -0.343771 19.7727 0.171904 
-0.65525 19.7513 0.171145 -0.924092 19.5942 0.170607 -1.61908 19.0224 0.166096 
-1.03044 11.5669 0.160926 -0.639385 11.5718 0.165324 -0.267571 11.8669 0.170866 
0.099609 11.7888 0.175379 0.432132 11.7086 0.178194 0.73555 11.7872 0.180305 
0.977779 12.034 0.182161 -0.975779 3.34027 0.160826 1.88976 19.7118 0.181459 
1.98817 12.143 0.180094 1.75375 4.01032 0.16357 -1.21057 19.8064 0.167342 
1.90242 4.7488 0.164283 -1.87703 19.8892 0.161331 -1.3194 3.16547 0.16416 
1.39385 28.4435 0.134815 1.25062 11.9183 0.181345 2.04397 28.5086 0.138584 
-1.3769 11.6989 0.15764 1.91155 6.39405 0.166169 1.82015 5.40796 0.164545 
-2.07631 12.1242 0.151796 1.69946 28.7292 0.135229 2.24094 20.5138 0.180384 
-1.25466 27.1723 0.132205 -1.59092 27.2286 0.131493 -1.92834 27.3776 0.130462 
-2.25471 27.545 0.129472 0.903984 20.8488 0.168958 1.82784 10.3907 0.175688 
1.58204 12.0157 0.180774 1.80508 9.4503 0.172953 0.302435 26.9341 0.137143 
1.91604 24.2472 0.158302 0.689299 26.8879 0.138879 1.88791 23.4334 0.162024 
1.93921 25.8643 0.15071 2.02073 26.6626 0.147423 2.06022 27.5197 0.143542 
-2.1007 24.8932 0.141296 1.90034 22.6099 0.166204 -2.14063 25.7535 0.137494 
-2.11666 20.7327 0.157527 -2.07147 24.0772 0.144853 -2.04634 23.2181 0.14852 
-2.04111 22.3821 0.151922 -2.07055 21.5494 0.155011 1.85058 20.6562 0.175851 
-1.70729 11.8818 0.154819 1.92434 25.0647 0.154432 -0.026151 27.0551 0.13547 
-2.06319 9.00523 0.152779 -2.01978 10.0984 0.153032 -1.9406 7.74403 0.153561 
-1.82418 6.58094 0.154686 -1.73128 5.66374 0.156021 -1.64902 4.80566 0.157897 
-0.643041 4.47218 0.158433 -0.201965 4.53488 0.158724 -1.51972 3.9183 0.160849 
-0.40302 4.25708 0.158655 -0.921432 4.63408 0.158226 0.326567 4.33747 0.159938 
0.566974 4.28104 0.160258 0.819547 4.52009 0.16084 1.09219 4.59753 0.161547 
1.49152 20.3633 0.174787 1.87654 11.2328 0.178084 1.08606 26.8534 0.140893 
-0.934166 27.1467 0.132856 1.91061 21.6949 0.170926 1.19042 20.6104 0.17158 
0.550055 21.0246 0.166763 0.169254 20.972 0.166123 -0.196066 20.8376 0.165992 
-0.572233 20.8155 0.165117 -1.53221 19.8621 0.164345 -0.426887 10.412 0.165498 
-0.0740997 10.8921 0.170233 0.302293 10.6917 0.172651 0.682347 10.6619 0.174748 
-0.624556 27.1602 0.133407 1.55097 4.21635 0.162848 -0.328313 27.3203 0.133337 
1.37128 27.4524 0.139531 -1.77473 20.7544 0.159302 -0.971484 20.6971 0.164211 
1.4693 7.7657 0.167696 1.82273 8.47789 0.170368 -1.06208 4.1431 0.159126 
-2.19192 26.6492 0.133493 -2.02934 11.1423 0.152781 0.0513242 4.62601 0.159383 
1.06704 10.963 0.177182 -1.28708 10.5486 0.158175 1.48211 6.67139 0.165393 
1.4677 5.58836 0.1637 1.36744 4.52592 0.162437 -0.881148 10.3701 0.161284 
1.70573 27.9549 0.139084 -1.29146 4.10981 0.159603 -1.47061 26.2333 0.136259 
-0.709836 9.08199 0.161066 1.54136 21.2182 0.170587 0.061509 25.9038 0.141273 
-0.855281 5.66744 0.157846 1.47137 23.8063 0.157447 1.72858 27.152 0.143126 
1.55501 26.4426 0.14547 -1.64779 23.5685 0.148032 -1.76522 25.4443 0.139401 
-1.69952 24.4732 0.143878 -1.67097 10.8516 0.155345 -1.50887 6.98824 0.155757 
1.48536 11.0353 0.177627 1.39657 22.7961 0.16178 -1.35232 7.87891 0.156448 
-1.32673 5.96091 0.156635 -1.33868 4.97747 0.157766 -1.18468 9.15486 0.158078 
1.08581 5.70383 0.162807 0.659147 5.45163 0.161245 -1.68822 21.6803 0.156075 
1.56408 24.6363 0.154081 -0.332979 26.0854 0.139279 -1.64252 22.6121 0.152259 
-1.10107 26.0575 0.137701 1.5853 22.0532 0.166656 1.41513 25.5629 0.148823 
0.446206 22.4829 0.158969 -0.0156462 22.1762 0.15925 -0.402253 21.8709 0.15984 
-0.830952 22.18 0.156967 -1.38459 20.7828 0.161511 -0.286257 9.05821 0.163868 
-1.83632 26.4202 0.134901 0.465926 9.50176 0.169308 0.964243 9.52568 0.171384 
0.925134 25.6242 0.145958 1.42405 8.9507 0.170705 0.502558 25.7521 0.143549 
-1.64362 9.71024 0.155428 1.4039 10.0374 0.174107 0.884436 22.0777 0.162684 
1.06389 8.25029 0.167917 1.01313 6.93215 0.164676 1.21123 21.6329 0.16641 
0.251206 5.7026 0.160694 -0.159912 5.92878 0.159489 -0.478561 5.3156 0.158467 
0.0203335 9.78192 0.167551 -0.732894 25.9738 0.138834 -1.65579 8.65953 0.155173 
-1.25775 21.8317 0.157213 -0.880838 7.87518 0.158642 1.1332 24.5228 0.152178 
-1.28418 24.0785 0.146587 0.982943 23.3667 0.156878 0.11937 23.4815 0.15308 
-1.37083 25.1235 0.141556 0.133475 7.12316 0.16207 -0.362148 7.71571 0.160939 
0.645877 24.282 0.151083 -1.23784 22.9677 0.151899 -1.08087 6.80339 0.157362 
0.621381 8.12684 0.16602 0.234219 24.7805 0.147194 -0.562403 24.6908 0.145365 
-0.166192 24.7001 0.146366 -0.962106 24.8554 0.143632 0.558012 6.70219 0.162789 
-0.632377 6.5811 0.158757 -0.841048 23.6661 0.1496 0.10284 8.50178 0.164663 
-0.388796 23.2784 0.152661 -0.785972 15.8842 0.0267042 0.782324 15.8797 0.0548237 
-3.76237 32.1213 -0.0254509 0 0 0 0 0 0 
0 0 0 0 0 0 0 0 0 
0 0 0 0 0 0 0 0 0 
0 0 0 0 0 0 0 0 0 
0 0 0 0 0 0 0 0 0 
0 0 0 0 0 0 0 0 0 
0 0 0 0 0 0 0 0 0 
0 0 0 0 0 0 0 0 0 
0 0 0 0 0 0 0 0 0 
0 0 0 0 0 0 0 0 0 
0 0 0 0 0 0 0 0 0 
0 0 0 0 0 0 0 0 0 
0 0 0 0 0 0 0 0 0 
0 0 0 0 0 0 0 0 0 
0 0 0 0 0 0 0 0 0 
0 0 0 0 0 0 0 0 0 
0 0 0 0 0 0 0 0 0 
0 0 0 0 0 0 0 0 0 
0 0 0 0 0 0 0 0 0 
0 0 0 3.952 32.4418 -0.133192 3.65221 32.426 -0.135399 
3.36813 32.41 -0.137344 3.07505 32.3921 -0.139172 2.78847 32.3736 -0.140798 
2.51224 32.3554 -0.142225 2.22588 32.3367 -0.143578 1.92912 32.3181 -0.144859 
1.63433 32.3011 -0.146024 1.34594 32.2863 -0.147081 1.06011 32.274 -0.148039 
0.751785 32.2637 -0.149016 0.446552 32.2568 -0.149925 0.14915 32.2534 -0.150757 
-0.161235 32.2536 -0.15159 -0.462885 32.2574 -0.152371 -0.772337 32.2648 -0.153151 
-1.07221 32.2752 -0.153881 -1.36643 32.2883 -0.15457 -1.68809 32.3053 -0.155307 
-1.99499 32.3237 -0.155968 -2.28723 32.3426 -0.156551 -2.58137 32.3623 -0.157089 
-2.86935 32.3816 -0.157546 -3.15151 32.4001 -0.157901 -3.4283 32.4171 -0.158147 
-3.71629 32.4336 -0.158261 -3.99612 32.4486 -0.158265 0.615829 0.526632 -0.19735 
1.43049 1.62693 -0.141736 1.99219 2.40724 -0.102808 2.40638 3.10425 -0.0863089 
2.73717 3.77001 -0.0765074 3.00369 4.41887 -0.0703711 3.22293 5.07354 -0.0662311 
3.39414 5.70981 -0.0634603 3.52384 6.31632 -0.0615924 3.6313 6.96709 -0.0600958 
3.71017 7.61998 -0.0588478 3.76073 8.23204 -0.0578503 3.79098 8.84724 -0.0569808 
3.80242 9.48099 -0.056149 3.79529 10.1195 -0.055368 3.76913 10.7944 -0.0546742 
3.72422 11.4933 -0.0541551 3.66501 12.1892 -0.0539352 3.59827 12.8687 -0.0540508 
3.52775 13.5659 -0.0545829 3.46221 14.283 -0.0553255 3.41405 14.9844 -0.0558362 
3.38812 15.7338 -0.055711 3.39282 16.4887 -0.0548389 3.42612 17.2222 -0.0535612 
3.48288 17.9617 -0.052482 3.55632 18.7199 -0.052312 3.63037 19.43 -0.053388 
3.69832 20.0968 -0.0555381 3.76299 20.7889 -0.0587712 3.82039 21.4928 -0.0628249 
3.86758 22.1792 -0.0672575 3.90488 22.8341 -0.0717529 3.93746 23.5386 -0.0767342 
3.96455 24.278 -0.0819831 3.98588 25.0208 -0.0871993 4.00243 25.751 -0.0922226 
4.01506 26.4358 -0.0968278 4.02606 27.14 -0.101445 4.03573 27.8308 -0.105851 
4.0448 28.5076 -0.110048 4.05433 29.2032 -0.114233 4.06513 29.934 -0.118484 
4.0775 30.6831 -0.122684 4.09044 31.383 -0.126446 4.10446 32.0832 -0.130108 
-4.12071 32.1055 -0.156682 -4.10559 31.372 -0.153339 -4.09197 30.6553 -0.149974 
-4.08001 29.9562 -0.146564 -4.06923 29.2585 -0.143059 -4.05877 28.5296 -0.139304 
-4.04834 27.7868 -0.135409 -4.03818 27.0962 -0.131744 -4.02661 26.3922 -0.127987 
-4.01232 25.6588 -0.124078 -3.99477 24.9289 -0.120217 -3.97389 24.2348 -0.116614 
-3.9472 23.5276 -0.113075 -3.91396 22.823 -0.109738 -3.87605 22.168 -0.106883 
-3.82819 21.4815 -0.104303 -3.76877 20.7614 -0.102293 -3.70328 20.0689 -0.101224 
-3.62956 19.3524 -0.101334 -3.55175 18.6072 -0.102664 -3.48243 17.8805 -0.104828 
-3.42761 17.1396 -0.10717 -3.39655 16.3705 -0.109094 -3.39707 15.5986 -0.109613 
-3.42797 14.8514 -0.10889 -3.48357 14.103 -0.107183 -3.55259 13.3751 -0.104961 
-3.62401 12.6671 -0.102796 -3.68792 11.9922 -0.101032 -3.73959 11.3458 -0.0996403 
-3.77823 10.6942 -0.0984332 -3.80084 10.0353 -0.0974585 -3.80498 9.38269 -0.096704 
-3.79061 8.76431 -0.0961199 -3.75612 8.135 -0.0956375 -3.69363 7.45089 -0.0952325 
-3.60698 6.79885 -0.0950374 -3.49941 6.19197 -0.0950735 -3.35506 5.55669 -0.0954917 
-3.17323 4.92039 -0.0964127 -2.94067 4.2647 -0.0986038 -2.65098 3.59844 -0.102828 
-2.31611 2.95847 -0.109732 -1.90052 2.28466 -0.122495 -1.35613 1.53937 -0.155956 
-0.560383 0.609139 -0.295814 0.912295 15.9538 0.037029 0.794325 15.9448 0.0372862 
0.671428 15.9344 0.0392271 0.535331 15.9253 0.0375905 0.396376 15.9187 0.0346 
0.24944 15.9132 0.0330356 0.0891654 15.9113 0.029975 -0.0765848 15.914 0.0266826 
-0.22524 15.9119 0.0238726 -0.370359 15.9164 0.0213921 -0.516307 15.9247 0.0183396 
-0.656041 15.9344 0.0153681 -0.79071 15.9517 0.00505702 -0.906403 15.9684 -0.0040153 
-0.933421 15.891 -0.000565044 -0.906369 15.8384 0.00681457 -0.783845 15.824 0.011449 
-0.66159 15.8078 0.0182994 -0.520874 15.7901 0.0188914 -0.374487 15.7794 0.020214 
-0.227987 15.7723 0.0220421 -0.0705275 15.7722 0.0267224 0.0800047 15.772 0.0284577 
0.235741 15.7744 0.0287474 0.385815 15.7812 0.0303095 0.530633 15.7901 0.0319936 
0.669872 15.8009 0.0329163 0.795334 15.8154 0.0346754 0.896475 15.8226 0.027687 
0.922777 15.9007 0.0294815 3.96603 32.4391 0.133634 3.67822 32.4241 0.131533 
3.39422 32.4082 0.129373 3.1174 32.3914 0.127207 2.83925 32.3737 0.125002 
2.55938 32.3553 0.122811 2.26937 32.3363 0.120615 1.97306 32.3176 0.118485 
1.68287 32.3005 0.116542 1.3656 32.2841 0.114601 1.03364 32.2698 0.112809 
0.725308 32.2597 0.111362 0.432861 32.2534 0.110177 0.122794 32.2501 0.109146 
-0.191726 32.2507 0.108318 -0.488987 32.2547 0.107733 -0.785558 32.2621 0.10733 
-1.08528 32.2727 0.107085 -1.38354 32.286 0.107002 -1.68417 32.302 0.107044 
-1.98277 32.3199 0.107195 -2.27507 32.3387 0.107426 -2.56113 32.3579 0.107694 
-2.84518 32.377 0.10797 -3.12745 32.3955 0.10822 -3.40832 32.4129 0.108389 
-3.70433 32.4299 0.108473 -3.99212 32.4453 0.108449 0.617208 0.514248 0.230348 
1.34604 1.55992 0.162943 1.88959 2.27295 0.15451 2.31315 2.9579 0.158408 
2.66088 3.62627 0.160644 2.93554 4.26175 0.162644 3.1629 4.90256 0.164746 
3.34546 5.53888 0.166851 3.4932 6.18837 0.168993 3.60722 6.83858 0.171103 
3.69025 7.47633 0.173228 3.74931 8.13142 0.175488 3.78358 8.76075 0.177709 
3.79773 9.3792 0.180051 3.79393 10.0021 0.182689 3.77321 10.6306 0.18574 
3.73671 11.2664 0.189369 3.68749 11.8961 0.193663 3.62592 12.5533 0.198994 
3.55442 13.2583 0.205471 3.48381 13.9831 0.212432 3.42486 14.7283 0.218952 
3.38927 15.4728 0.22375 3.38278 16.2084 0.225875 3.40579 16.9432 0.225051 
3.45506 17.6866 0.221635 3.52467 18.4496 0.216323 3.60014 19.1805 0.210424 
3.67138 19.8665 0.204798 3.74164 20.5925 0.199119 3.80303 21.3131 0.193851 
3.85162 21.9837 0.189315 3.893 22.6702 0.184984 3.92605 23.3422 0.180983 
3.95339 24.0326 0.177081 3.97574 24.742 0.173253 3.99393 25.4709 0.16947 
4.00944 26.2524 0.165531 4.02148 26.9887 0.161895 4.03164 27.6953 0.158454 
4.04148 28.4213 0.154939 4.05126 29.1333 0.151493 4.06151 29.8307 0.148094 
4.07344 30.5629 0.14446 4.08779 31.3462 0.140455 4.10284 32.0964 0.136517 
-4.12037 32.0858 0.110119 -4.1046 31.3189 0.113618 -4.09017 30.5523 0.116992 
-4.07812 29.8367 0.120015 -4.06748 29.1393 0.122864 -4.05708 28.4109 0.125754 
-4.04683 27.685 0.128562 -4.03678 27.0112 0.131102 -4.02527 26.3239 0.133635 
-4.01105 25.6071 0.136218 -3.99451 24.9261 0.138633 -3.97303 24.216 0.141128 
-3.94549 23.4929 0.143666 -3.91351 22.8205 0.146065 -3.87347 22.1337 0.148625 
-3.82511 21.4473 0.151378 -3.76938 20.7753 0.154318 -3.70567 20.0994 0.157425 
-3.6322 19.3837 0.160918 -3.55613 18.6565 0.164568 -3.48627 17.9316 0.167957 
-3.42899 17.1749 0.170593 -3.39632 16.4066 0.171633 -3.39554 15.6176 0.170256 
-3.42654 14.8533 0.166487 -3.48218 14.1047 0.161419 -3.55125 13.3762 0.156112 
-3.61973 12.6998 0.151495 -3.68419 12.024 0.147598 -3.74085 11.3159 0.144521 
-3.77943 10.6494 0.142361 -3.80055 10.0059 0.14084 -3.80335 9.3091 0.139537 
-3.78554 8.6618 0.138553 -3.74992 8.06222 0.137771 -3.6896 7.42201 0.13703 
-3.60632 6.79894 0.136392 -3.49602 6.17778 0.135864 -3.35119 5.54289 0.135544 
-3.1778 4.93533 0.13551 -2.96398 4.32374 0.135714 -2.68793 3.67406 0.136441 
-2.34555 3.00628 0.138136 -1.91664 2.30601 0.141431 -1.36464 1.56332 0.154821 
-0.644595 0.488201 0.207664 0.906208 15.9649 0.0841115 0.790386 15.946 0.0778242 
0.64702 15.9327 0.065468 0.500386 15.925 0.0611679 0.345746 15.9173 0.0555563 
0.190651 15.9114 0.0505544 0.0417498 15.9081 0.0458124 -0.104569 15.9153 0.0488312 
-0.251497 15.9168 0.0446385 -0.397757 15.9209 0.0421186 -0.545073 15.9287 0.0420121 
-0.68384 15.9405 0.0438756 -0.80709 15.9426 0.0387 -0.912357 15.9524 0.0471324 
-0.93855 15.8921 0.0507561 -0.907969 15.8225 0.0531475 -0.78457 15.8154 0.0508971 
-0.662004 15.8049 0.0467108 -0.530024 15.7946 0.0427927 -0.391185 15.7845 0.0421256 
-0.241967 15.7792 0.0401693 -0.0848353 15.7702 0.0462116 0.0665254 15.7697 0.0476312 
0.224243 15.774 0.0495773 0.375808 15.7817 0.0524231 0.513041 15.7911 0.0564484 
0.644959 15.8015 0.0630068 0.768813 15.8126 0.0731106 0.8944 15.8193 0.0799816 
0.932886 15.9016 0.0827256 -4.12811 32.454 -0.0249077 4.11098 32.4482 0.00134168 
0.971941 15.7898 0.0538965 0.977408 16.0024 0.0591577 -0.979693 15.7934 0.0295565 
-0.985161 16.0058 0.0246367 0 0 0 0 0 0 
0 0 0 0 0 0 0 0 0 
0 0 0 0 0 0 0 0 0 
0 0 0 0 0 0 0 0 0 
0 0 0 0 0 0 0 0 0 
0 0 0 0 0 0 0 0 0 
0 0 0 0 0 0 0 0 0 
0 0 0 0 0 0 0 0 0 
0 0 0 0 0 0 0 0 0 
0 0 0 0 0 0 0 0 0 
0 0 0 0 0 0 0 0 0 
0 0 0 0 0 0 0 0 0 
0 0 0 0 0 0 0 0 0 
0 0 0 0 0 0 0 0 0 
0 0 0 0 0 0 0 0 0 
0 0 0 0 0 0 0 0 0 
0 0 0 0 0 0 0 0 0 
0 0 0 0 0 0 0 0 0 
0 0 0 3.94444 32.0751 -0.131269 3.74259 32.1316 -0.133075 
3.6025 32.1241 -0.134071 3.45286 32.1315 -0.135193 3.30844 32.123 -0.136139 
3.54347 31.8374 -0.132903 3.15347 32.1138 -0.137132 3.00442 32.1043 -0.138033 
3.23871 31.8356 -0.135034 2.8668 32.0658 -0.138687 2.72911 32.0567 -0.139453 
2.94607 31.7877 -0.136705 2.58367 32.0304 -0.140163 2.44514 32.0211 -0.140871 
2.66317 31.7227 -0.138108 2.30217 32.0121 -0.141595 2.15456 32.0024 -0.142288 
2.37498 31.687 -0.139586 2.00156 31.989 -0.142982 1.85295 31.9798 -0.14362 
2.07943 31.6642 -0.14105 1.70653 31.9657 -0.144219 1.56115 31.9576 -0.144793 
1.7806 31.6363 -0.142381 1.40866 31.9453 -0.145372 1.26664 31.9384 -0.145889 
1.48251 31.6096 -0.143599 1.12033 31.9375 -0.146439 0.977639 31.9319 -0.146919 
1.18466 31.5961 -0.144765 0.828927 31.9254 -0.147415 0.664637 31.9207 -0.14793 
0.890667 31.5885 -0.145833 0.515669 31.9167 -0.148399 0.376286 31.9143 -0.148812 
0.59417 31.5779 -0.146818 0.22525 31.9173 -0.14927 0.0687581 31.9164 -0.14971 
0.295461 31.5768 -0.147754 -0.0846144 31.9184 -0.150136 -0.23688 31.9194 -0.150543 
-0.0076469 31.5818 -0.14865 -0.388731 31.9197 -0.150929 -0.536563 31.9225 -0.151307 
-0.311564 31.5841 -0.149469 -0.693118 31.9254 -0.151688 -0.853168 31.9303 -0.152076 
-0.618681 31.5874 -0.150235 -0.99682 31.9375 -0.152422 -1.13531 31.9431 -0.152749 
-0.917672 31.5978 -0.150954 -1.28949 31.9599 -0.153127 -1.44401 31.9676 -0.153473 
-1.21442 31.6219 -0.151659 -1.59992 31.9815 -0.15382 -1.76598 31.9911 -0.154178 
-1.52355 31.6529 -0.152372 -1.91488 31.9983 -0.154456 -2.05512 32.0073 -0.15474 
-1.82764 31.6744 -0.152976 -2.20726 32.0132 -0.154991 -2.35885 32.0234 -0.155269 
-2.12824 31.6879 -0.153486 -2.50536 32.031 -0.155489 -2.64781 32.0408 -0.15572 
-2.42659 31.7018 -0.153935 -2.78996 32.0602 -0.155956 -2.93561 32.07 -0.156154 
-2.71512 31.7291 -0.154371 -3.0738 32.0934 -0.156373 -3.21067 32.1022 -0.156515 
-2.99546 31.7722 -0.154808 -3.33989 32.1322 -0.156734 -3.48028 32.1407 -0.156822 
-3.26299 31.8258 -0.155223 -3.61725 32.1169 -0.156747 -3.76534 32.1251 -0.156782 
-3.52941 31.8323 -0.155355 -3.88702 32.0797 -0.156575 -4.01902 32.0866 -0.156588 
-4.01169 31.7366 -0.15499 -3.78826 31.7632 -0.155077 0.462294 0.396078 -0.191852 
1.03459 1.06574 -0.187391 1.39504 1.53021 -0.143316 1.71685 1.9874 -0.122465 
1.95658 2.36992 -0.110614 1.37994 1.52768 -0.14445 2.17571 2.74753 -0.100439 
2.36389 3.10275 -0.0936263 1.92332 2.37996 -0.114492 2.53684 3.46246 -0.087585 
2.68681 3.80319 -0.0833007 2.32094 3.13873 -0.0986714 2.81421 4.12673 -0.0797514 
2.93525 4.45962 -0.0768612 2.62308 3.84173 -0.0888996 3.04451 4.79386 -0.0741912 
3.14565 5.13698 -0.0720996 2.86238 4.51803 -0.0822252 3.23169 5.47635 -0.070336 
3.30466 5.78754 -0.0689839 3.05961 5.20848 -0.0773482 3.36893 6.11113 -0.0677662 
3.42613 6.42158 -0.0667539 3.21002 5.88672 -0.073982 3.48129 6.73329 -0.0655368 
3.53082 7.08773 -0.0646243 3.32875 6.53555 -0.0712311 3.56789 7.41292 -0.0638194 
3.59871 7.72369 -0.0631545 3.42139 7.18383 -0.0689284 3.62487 8.05567 -0.0624463 
3.64467 8.36747 -0.0618894 3.48495 7.85197 -0.0671602 3.66172 8.68687 -0.0612357 
3.67159 8.99996 -0.0607447 3.5275 8.51341 -0.0656257 3.67993 9.32086 -0.0601271 
3.68043 9.65062 -0.0596562 3.55211 9.1626 -0.064203 3.67489 9.97655 -0.0592189 
3.66642 10.2937 -0.0588203 3.554 9.81724 -0.0630145 3.65032 10.6339 -0.0584603 
3.63062 11 -0.0580783 3.53116 10.4905 -0.0620853 3.6099 11.3462 -0.0576515 
3.58341 11.6862 -0.0573992 3.49273 11.1833 -0.061147 3.55589 12.0185 -0.0570753 
3.52125 12.3797 -0.0569079 3.44254 11.8664 -0.0602296 3.48567 12.7259 -0.0566613 
3.4518 13.0462 -0.056642 3.37721 12.5469 -0.0594293 3.41385 13.4035 -0.0564227 
3.37477 13.7802 -0.0564765 3.30046 13.25 -0.0586657 3.34255 14.1318 -0.0562339 
3.31325 14.4668 -0.0562732 3.22619 13.9562 -0.0578574 3.29166 14.8188 -0.0559851 
3.27099 15.1771 -0.0558655 3.16832 14.655 -0.0569329 3.25424 15.5358 -0.0554856 
3.24785 15.9154 -0.0551375 3.12708 15.3597 -0.0559772 3.25058 16.2825 -0.0547545 
3.26054 16.6454 -0.0542948 3.1113 16.0782 -0.0550945 3.28049 17.0199 -0.0540243 
3.30425 17.3799 -0.0536262 3.13431 16.8125 -0.0544629 3.33281 17.7634 -0.0536515 
3.36751 18.1351 -0.0535862 3.1854 17.5639 -0.0544147 3.40219 18.4963 -0.0540408 
3.44277 18.8785 -0.054522 3.25237 18.3032 -0.0552334 3.47489 19.2174 -0.055462 
3.50994 19.5452 -0.0563626 3.32201 19.0004 -0.0569212 3.54681 19.8932 -0.0576516 
3.58085 20.2339 -0.0590412 3.39304 19.6865 -0.0593568 3.61416 20.5847 -0.0607259 
3.64546 20.9392 -0.0625602 3.46441 20.3858 -0.0624515 3.67477 21.2889 -0.0645172 
3.70127 21.6421 -0.0666196 3.52755 21.0882 -0.0661207 3.72186 21.9749 -0.0687226 
3.74286 22.3119 -0.0708898 3.57751 21.7731 -0.0701276 3.76305 22.6676 -0.0732018 
3.77932 22.9889 -0.0753578 3.61832 22.4643 -0.0744348 3.79693 23.3272 -0.0775837 
3.81258 23.7137 -0.080221 3.65555 23.1611 -0.0788518 3.82591 24.0849 -0.0827235 
3.83712 24.4405 -0.0851459 3.68606 23.8731 -0.083438 3.84918 24.8004 -0.0875282 
3.85878 25.1899 -0.0901472 3.71084 24.6065 -0.0881715 3.86303 25.5569 -0.0926146 
3.8697 25.8991 -0.094875 3.72662 25.3351 -0.0928869 3.87494 26.2652 -0.0972524 
3.88043 26.6089 -0.0994761 3.73553 26.0695 -0.0976056 3.8881 26.9431 -0.101559 
3.89312 27.3045 -0.103844 3.74782 26.771 -0.101958 3.90133 27.6568 -0.105986 
3.90558 27.9865 -0.108021 3.7632 27.4583 -0.106093 3.9127 28.3341 -0.110094 
3.91716 28.6813 -0.112183 3.77806 28.1586 -0.110229 3.91815 29.0367 -0.114301 
3.9229 29.3849 -0.116335 3.78576 28.8618 -0.114359 3.92808 29.7501 -0.11842 
3.9339 30.1323 -0.120584 3.79156 29.5823 -0.118507 3.94198 30.4787 -0.122489 
3.94831 30.8449 -0.124497 3.80457 30.2937 -0.122457 3.96563 31.1721 -0.126191 
3.97205 31.5054 -0.127957 3.82979 30.9671 -0.12603 -0.803094 15.9386 0.0224953 
-0.731713 15.9322 0.0255809 -4.0039 31.3533 -0.153214 -3.98898 30.7452 -0.150344 
-3.9831 30.4123 -0.148746 -0.671395 15.9288 0.0249887 -0.605602 15.9242 0.0248075 
-3.96925 30.1119 -0.147281 -3.96345 29.7462 -0.145475 -3.86624 30.2015 -0.147682 
-3.95141 29.389 -0.1437 -3.94666 29.0573 -0.142024 -3.84059 29.544 -0.144462 
-3.9364 28.6964 -0.140201 -3.93105 28.2996 -0.138159 -3.81866 28.8259 -0.140892 
-3.9228 27.925 -0.136244 -3.9181 27.5789 -0.134439 -3.80061 28.0902 -0.137191 
-3.90779 27.2153 -0.132572 -3.90269 26.8706 -0.130765 -3.78252 27.3516 -0.133453 
-3.89656 26.518 -0.128948 -3.8904 26.1582 -0.127062 -3.76653 26.6349 -0.129823 
-3.88576 25.7935 -0.125185 -3.87791 25.4189 -0.123235 -3.75621 25.9167 -0.126186 
-3.86955 25.0603 -0.121426 -3.86015 24.7035 -0.119591 -3.74362 25.1922 -0.122555 
-3.84935 24.347 -0.117829 -3.83807 24.0077 -0.116136 -3.72482 24.4754 -0.119045 
-3.8263 23.6527 -0.114446 -3.81075 23.2824 -0.112682 -3.70247 23.7619 -0.115657 
-3.79474 22.9441 -0.11118 -3.77711 22.6069 -0.109697 -3.67473 23.0663 -0.112533 
-3.75682 22.2616 -0.10829 -3.73634 21.9407 -0.107029 -3.6385 22.3802 -0.109668 
-3.7129 21.5826 -0.105757 -3.68445 21.2132 -0.104528 -3.5944 21.6742 -0.107033 
-3.65392 20.8603 -0.103598 -3.6218 20.5057 -0.102783 -3.53944 20.9608 -0.104856 
-3.59269 20.1679 -0.102235 -3.5581 19.827 -0.101938 -3.47836 20.2684 -0.103274 
-3.51816 19.4528 -0.101765 -3.47744 19.075 -0.102007 -3.4076 19.556 -0.102352 
-3.43884 18.7166 -0.102288 -3.40036 18.3498 -0.103013 -3.32662 18.8242 -0.102226 
-3.35648 17.9771 -0.103592 -3.32472 17.6214 -0.104592 -3.24161 18.0963 -0.102759 
-3.29804 17.2491 -0.105263 -3.27562 16.8713 -0.106325 -3.16899 17.3565 -0.103738 
-3.26433 16.4935 -0.106864 -3.25758 16.1134 -0.107506 -3.13091 16.6126 -0.10507 
-3.26314 15.7479 -0.10785 -3.27333 15.3689 -0.107912 -3.12768 15.8765 -0.106116 
-3.29289 15.001 -0.107986 -3.31639 14.6441 -0.107478 -3.15666 15.1508 -0.106614 
-3.344 14.2593 -0.107132 -3.3798 13.8766 -0.106281 -3.20861 14.4048 -0.106671 
-3.4182 13.531 -0.105722 -3.45401 13.1895 -0.104781 -3.27991 13.68 -0.106048 
-3.49134 12.8283 -0.104129 -3.52879 12.4625 -0.103184 -3.35913 12.9755 -0.10502 
-3.55991 12.1213 -0.102628 -3.58787 11.8092 -0.101919 -3.4299 12.273 -0.103944 
-3.6151 11.4748 -0.10141 -3.63893 11.1365 -0.100758 -3.48932 11.5949 -0.10299 
-3.65567 10.8162 -0.100375 -3.6707 10.4969 -0.0998808 -3.53342 10.9362 -0.102142 
-3.67897 10.1673 -0.099554 -3.6859 9.82073 -0.0991367 -3.55838 10.2808 -0.101465 
-3.68726 9.4806 -0.0988437 -3.68422 9.16644 -0.0985471 -3.5677 9.60411 -0.100908 
-3.67839 8.85435 -0.0983124 -3.66599 8.54192 -0.0980775 -3.5621 8.9443 -0.100439 
-3.64738 8.20495 -0.0979274 -3.62336 7.8791 -0.0977366 -3.53672 8.28689 -0.100093 
-3.59104 7.54637 -0.0977236 -3.54941 7.17717 -0.0975816 -3.48366 7.60774 -0.10001 
-3.50613 6.86083 -0.0976901 -3.46054 6.56582 -0.0976641 -3.40612 6.9482 -0.100156 
-3.40385 6.2381 -0.0978799 -3.33865 5.91345 -0.0980309 -3.30471 6.2923 -0.100505 
-3.27057 5.59948 -0.0984342 -3.18788 5.27381 -0.0988176 -3.17701 5.63735 -0.101174 
-3.09789 4.95082 -0.0995867 -2.99413 4.62221 -0.100458 -3.01597 4.98598 -0.102454 
-2.87363 4.27911 -0.102025 -2.7378 3.92985 -0.103697 -2.8017 4.30343 -0.104841 
-2.60385 3.6123 -0.106055 -2.44271 3.26911 -0.108856 -2.54086 3.6237 -0.108748 
-2.26975 2.92923 -0.113002 -2.08771 2.60291 -0.117204 -2.22913 2.94691 -0.114933 
-1.86762 2.23961 -0.125191 -1.61224 1.85106 -0.133704 -1.82777 2.22416 -0.126351 
-1.31471 1.43934 -0.15367 -1.00159 1.02271 -0.199765 -1.30255 1.43831 -0.151009 
-0.44135 0.42095 -0.204946 -0.224382 0.190106 -0.15758 -0.2074 0.180894 -0.151973 
-0.218109 0.192931 -0.14382 -0.201127 0.193383 -0.143243 -0.440978 0.478531 -0.162257 
-0.187392 0.18997 -0.141378 -0.174866 0.183232 -0.139039 -0.398056 0.484333 -0.152752 
-0.160382 0.17994 -0.138652 -0.153819 0.19574 -0.136972 -0.34006 0.463425 -0.152011 
-0.154787 0.213189 -0.137989 -0.144971 0.207459 -0.140271 -0.299865 0.451046 -0.169104 
-0.13802 0.217949 -0.144354 -0.1255 0.213388 -0.146638 -0.26471 0.469913 -0.178171 
-0.116078 0.220721 -0.145236 -0.106761 0.216439 -0.145194 -0.227642 0.476309 -0.181247 
-0.0972448 0.219766 -0.146767 -0.0856276 0.216924 -0.147002 -0.188198 0.4774 -0.183863 
-0.0772035 0.220026 -0.147428 -0.0651501 0.216551 -0.148354 -0.150777 0.475987 -0.185094 
-0.0588539 0.220899 -0.145541 -0.0501729 0.217981 -0.146082 -0.116233 0.476881 -0.1857 
-0.0429867 0.219354 -0.145052 -0.0327113 0.21619 -0.147845 -0.0817437 0.475964 -0.186115 
-0.0249059 0.215286 -0.145378 -0.0156449 0.211904 -0.146664 -0.0475892 0.469383 -0.185045 
-0.00912923 0.216742 -0.145778 -0.000874655 0.21424 -0.146852 -0.0159447 0.467421 -0.184508 
0.0068496 0.220114 -0.147126 0.0151726 0.21742 -0.147694 0.0153925 0.473842 -0.18332 
0.0224087 0.218158 -0.147333 0.0322256 0.216973 -0.148305 0.0471017 0.476347 -0.183398 
0.0401731 0.217074 -0.147871 0.0508938 0.216123 -0.147991 0.0782051 0.473046 -0.18321 
0.057562 0.214668 -0.146067 0.0673898 0.214586 -0.14604 0.110307 0.46863 -0.184047 
0.073998 0.212763 -0.146725 0.0857781 0.212568 -0.147487 0.143414 0.464222 -0.184292 
0.0923425 0.210995 -0.145723 0.102244 0.211957 -0.146561 0.176525 0.46108 -0.183819 
0.111008 0.211861 -0.147404 0.122335 0.2128 -0.147334 0.212723 0.460996 -0.182774 
0.129621 0.20956 -0.147649 0.1422 0.211688 -0.146814 0.250596 0.460577 -0.183481 
0.15139 0.210421 -0.148269 0.164716 0.214484 -0.14654 0.289714 0.46049 -0.184979 
0.17402 0.210113 -0.150174 0.191512 0.216388 -0.148618 0.334823 0.462678 -0.187057 
0.20019 0.209568 -0.151223 0.218468 0.216883 -0.155891 0.385451 0.46487 -0.19035 
0.225686 0.209852 -0.159202 0.255674 0.22235 -0.16636 0.441677 0.470258 -0.19541 
1.03084 16.2019 -0.0818404 1.17044 16.2647 -0.0813955 0.849546 16.2006 -0.0788468 
0.938389 16.1938 -0.0855272 1.11693 16.5431 -0.0962274 0.690195 16.1902 -0.0803217 
0.770414 16.1925 -0.0794204 0.904968 16.4958 -0.111685 0.532197 16.1873 -0.0836186 
0.610665 16.1878 -0.0816384 0.716293 16.4855 -0.116812 0.378034 16.1907 -0.0887351 
0.454159 16.191 -0.0864184 0.536866 16.4914 -0.119718 0.220048 16.1825 -0.0930853 
0.300405 16.1812 -0.0894594 0.36429 16.4914 -0.121664 0.0444759 16.179 -0.0967586 
0.134288 16.1766 -0.0943133 0.189624 16.481 -0.123486 -0.12677 16.1865 -0.0996482 
-0.0421572 16.1836 -0.0985516 0.00978325 16.4859 -0.126886 -0.288833 16.1894 -0.101203 
-0.209917 16.1848 -0.100865 -0.169409 16.4979 -0.128645 -0.448096 16.1907 -0.103547 
-0.370424 16.1836 -0.102869 -0.347122 16.4994 -0.130731 -0.609657 16.1966 -0.105909 
-0.526257 16.1864 -0.106309 -0.521238 16.4986 -0.132876 -0.770819 16.2069 -0.105566 
-0.693451 16.1969 -0.107147 -0.702547 16.5055 -0.134749 -0.949631 16.2074 -0.117277 
-0.85665 16.2111 -0.109685 -0.903265 16.5247 -0.131052 -1.18307 16.266 -0.117918 
-1.04993 16.21 -0.113568 -1.13318 16.5575 -0.12429 -1.08921 15.7672 -0.0161705 
-1.10971 16.0723 -0.0303911 -1.05226 15.5264 -0.126634 -1.1759 15.4856 -0.130095 
-0.864397 15.51 -0.129158 -0.94984 15.5114 -0.131706 -1.14717 15.1929 -0.153225 
-0.698295 15.4934 -0.123352 -0.776688 15.4961 -0.129297 -0.914831 15.1821 -0.156024 
-0.533934 15.5076 -0.109476 -0.617633 15.51 -0.112516 -0.717477 15.1809 -0.14797 
-0.372904 15.5081 -0.102525 -0.447709 15.5084 -0.104725 -0.526741 15.1941 -0.143909 
-0.204861 15.5067 -0.100817 -0.289503 15.5037 -0.102991 -0.341347 15.1997 -0.139897 
-0.0423919 15.5088 -0.0993204 -0.124028 15.5045 -0.0985124 -0.162993 15.1998 -0.135268 
0.119667 15.5058 -0.097614 0.0376946 15.5016 -0.0980669 0.0102597 15.1976 -0.130173 
0.291089 15.507 -0.0974195 0.204318 15.4992 -0.0967027 0.188199 15.1917 -0.128061 
0.450174 15.5118 -0.0949285 0.372345 15.5046 -0.0950705 0.368566 15.1905 -0.12568 
0.621152 15.5183 -0.0952505 0.53539 15.5089 -0.0955748 0.551689 15.1915 -0.124057 
0.786381 15.5287 -0.0915997 0.704475 15.522 -0.0936916 0.743776 15.197 -0.120577 
0.953065 15.5517 -0.0853982 0.863122 15.5401 -0.0889917 0.938432 15.2125 -0.118814 
1.1938 15.5045 -0.0933136 1.04848 15.5631 -0.080827 1.1582 15.2328 -0.118953 
1.08759 16.0758 0.0199237 1.08622 15.7697 0.00733256 3.89512 31.7733 -0.129985 
0.50775 0.48169 -0.180137 1.37286 16.6237 -0.0734851 1.29924 16.3961 -0.0360735 
-0.46565 0.428535 -0.158095 -1.36023 16.3184 -0.0616443 -1.30006 16.3929 -0.0650712 
-1.39429 16.6332 -0.0982172 -1.33598 15.376 -0.0744748 -1.40198 15.4882 -0.0740955 
-1.42645 15.126 -0.116788 1.34244 15.5652 -0.0253107 1.27963 15.4293 -0.0360251 
1.40061 15.1949 -0.0806164 1.35955 16.3446 -0.0321779 -0.684195 0.708006 -0.169747 
0.720963 0.739958 -0.192594 1.43149 16.9595 -0.0793824 1.55027 16.9731 -0.0659722 
3.32054 31.5804 -0.133071 3.16544 31.5712 -0.134084 3.02666 31.4934 -0.134608 
2.88917 31.4547 -0.135293 3.10915 31.2386 -0.13268 2.74904 31.4023 -0.135925 
2.60383 31.3757 -0.13668 2.83058 31.1081 -0.13387 2.45719 31.3424 -0.137404 
2.31452 31.3331 -0.138175 2.5442 31.0221 -0.13527 2.1595 31.3106 -0.138945 
2.00704 31.2968 -0.139683 2.24302 30.9659 -0.136813 1.85395 31.2927 -0.140466 
1.70822 31.2783 -0.141106 1.93543 30.9388 -0.138408 1.5543 31.273 -0.141814 
1.40269 31.2605 -0.142433 1.62901 30.929 -0.139941 1.24847 31.2465 -0.143039 
1.1031 31.2453 -0.143624 1.32158 30.9094 -0.141299 0.958661 31.2403 -0.144176 
0.811028 31.2338 -0.14469 1.02372 30.8902 -0.142489 0.664818 31.2337 -0.145224 
0.517068 31.2295 -0.145699 0.733935 30.8849 -0.143592 0.371914 31.2333 -0.1462 
0.222131 31.2363 -0.146666 0.443492 30.8885 -0.144629 0.0701622 31.2297 -0.147101 
-0.0818981 31.2317 -0.147531 0.147349 30.8856 -0.145562 -0.236988 31.2375 -0.147975 
-0.387564 31.2379 -0.148357 -0.158638 30.8848 -0.146435 -0.542174 31.2289 -0.148703 
-0.697448 31.2319 -0.149072 -0.467311 30.8817 -0.147213 -0.84443 31.247 -0.149454 
-0.987004 31.2544 -0.14978 -0.767872 30.888 -0.147921 -1.13042 31.2688 -0.150122 
-1.28356 31.2858 -0.150481 -1.05736 30.9177 -0.148622 -1.44671 31.3011 -0.150829 
-1.60173 31.3154 -0.151151 -1.36312 30.9477 -0.149287 -1.7527 31.3184 -0.151392 
-1.90101 31.3259 -0.151648 -1.6765 30.9665 -0.14985 -2.05103 31.3282 -0.151849 
-2.20276 31.3345 -0.152076 -1.97694 30.9722 -0.150267 -2.3536 31.3471 -0.152291 
-2.49991 31.355 -0.152487 -2.27737 30.9876 -0.150658 -2.64523 31.3733 -0.152688 
-2.78728 31.393 -0.152902 -2.5732 31.0189 -0.151053 -2.92495 31.4268 -0.153151 
-3.06319 31.4504 -0.153349 -2.85594 31.0714 -0.151478 -3.1934 31.4929 -0.153617 
-3.32273 31.5231 -0.153816 -3.12362 31.1479 -0.151966 -3.44761 31.5704 -0.154084 
-3.58482 31.5469 -0.154008 -3.37858 31.2379 -0.152486 0.719201 16.8276 -0.108029 
0.825149 16.8302 -0.105738 -0.974824 1.05583 -0.158904 -0.722711 0.787781 -0.154869 
-1.27724 1.45676 -0.139653 3.77009 31.562 -0.129743 1.67018 2.04207 -0.129196 
1.89745 2.43571 -0.119012 2.09418 2.82152 -0.110737 2.27203 3.20045 -0.104279 
1.86714 2.51512 -0.121606 2.41717 3.551 -0.0990615 2.54786 3.89232 -0.0949643 
2.20729 3.25955 -0.108539 2.66035 4.22468 -0.091405 2.77247 4.57604 -0.088175 
2.46527 3.9536 -0.0997836 2.87551 4.94167 -0.0851156 2.96329 5.29725 -0.0828548 
2.68278 4.6645 -0.0929111 3.04437 5.65635 -0.0805482 3.10883 5.99375 -0.078954 
2.86721 5.40206 -0.0873363 3.16742 6.31988 -0.077265 3.22275 6.64337 -0.0757095 
3.00619 6.09854 -0.0831548 3.26742 6.97064 -0.0743257 3.30497 7.30725 -0.0732898 
3.10937 6.76235 -0.0799312 3.3374 7.64423 -0.0721578 3.36359 7.98675 -0.0712429 
3.18648 7.43676 -0.077203 3.3874 8.33626 -0.0702003 3.40397 8.6649 -0.0693777 
3.24282 8.1329 -0.0748672 3.4104 8.98118 -0.0686831 3.41818 9.31068 -0.0679621 
3.27229 8.8071 -0.0730563 3.42171 9.65628 -0.0671013 3.41526 9.9898 -0.0665996 
3.28226 9.47704 -0.0714459 3.40914 10.3249 -0.0658368 3.39172 10.6718 -0.0654185 
3.27896 10.1649 -0.069819 3.37272 11.0257 -0.0647363 3.35069 11.3773 -0.0642285 
3.25332 10.8594 -0.0683921 3.32501 11.7091 -0.0635892 3.29594 12.0447 -0.06314 
3.20743 11.5491 -0.0670886 3.25863 12.3885 -0.0625299 3.22098 12.7354 -0.0621145 
3.14324 12.2266 -0.0658281 3.18149 13.0977 -0.0612887 3.14065 13.4534 -0.0607406 
3.06406 12.9323 -0.0642502 3.11226 13.7951 -0.0596978 3.07684 14.1429 -0.0589495 
2.99219 13.6344 -0.0621187 3.04215 14.4779 -0.0581393 3.01761 14.8247 -0.0573489 
2.92473 14.3082 -0.0599059 2.98421 15.1752 -0.0564061 2.96526 15.5272 -0.0557395 
2.85127 14.9898 -0.0576565 2.95985 15.8825 -0.0550726 2.96182 16.2427 -0.0546131 
2.80832 15.6924 -0.0556773 2.97887 16.6094 -0.0545145 3.0001 16.9771 -0.0544119 
2.81962 16.4117 -0.0547066 3.02358 17.3559 -0.0549371 3.05483 17.7332 -0.055356 
2.86334 17.1535 -0.0551688 3.08791 18.097 -0.056388 3.12497 18.4539 -0.0572139 
2.92496 17.8912 -0.0569449 3.16661 18.8034 -0.0584238 3.20047 19.1404 -0.0596395 
3.00367 18.5996 -0.0595077 3.24124 19.4844 -0.0610082 3.27918 19.832 -0.062494 
3.08819 19.2898 -0.062433 3.30985 20.1745 -0.0642399 3.34375 20.5264 -0.0659766 
3.16069 19.9746 -0.0657355 3.36978 20.8763 -0.0679429 3.39933 21.228 -0.069847 
3.21781 20.6668 -0.0695049 3.42333 21.5734 -0.0718454 3.44395 21.9087 -0.0738463 
3.26773 21.3629 -0.0734396 3.46759 22.2628 -0.0759039 3.48754 22.6212 -0.0780851 
3.315 22.064 -0.0774205 3.50864 22.9735 -0.0801546 3.52578 23.3143 -0.0822244 
3.35913 22.7724 -0.0814432 3.53776 23.6679 -0.0844268 3.55066 24.0415 -0.0867647 
3.39159 23.4803 -0.0856058 3.56106 24.3993 -0.0889727 3.57267 24.7613 -0.0912082 
3.41336 24.1937 -0.0898782 3.57782 25.1348 -0.0935471 3.58159 25.5034 -0.0958834 
3.42837 24.9269 -0.0942848 3.58415 25.874 -0.0981761 3.58886 26.2414 -0.100431 
3.43542 25.6727 -0.0987781 3.5986 26.5939 -0.102478 3.60581 26.9291 -0.104462 
3.44709 26.3973 -0.102998 3.61419 27.2645 -0.106393 3.62198 27.6175 -0.108446 
3.46472 27.0863 -0.106877 3.63452 27.9778 -0.110456 3.64127 28.3258 -0.112455 
3.4852 27.7829 -0.110728 3.64617 28.6838 -0.114493 3.64682 29.0393 -0.116546 
3.50223 28.5019 -0.114698 3.64878 29.4031 -0.118605 3.65368 29.7682 -0.120637 
3.50872 29.2241 -0.118726 3.65962 30.1338 -0.122644 3.66752 30.4801 -0.124514 
3.51629 29.9537 -0.122732 3.67977 30.886 -0.12667 3.69704 31.2131 -0.128353 
3.53424 30.7254 -0.126855 -1.63222 15.3328 -0.0856196 -1.582 15.7683 -0.0735915 
1.02684 1.11945 -0.165249 1.35823 1.57052 -0.145134 1.36683 1.66575 -0.144441 
-3.76038 30.3795 -0.148506 -3.7467 30.0792 -0.147051 -3.72246 29.722 -0.145323 
-3.71068 29.3648 -0.14357 -3.61632 29.8992 -0.146176 -3.68865 28.9915 -0.141754 
-3.67875 28.6305 -0.139963 -3.57031 29.1684 -0.142652 -3.66373 28.2486 -0.138097 
-3.65589 27.8736 -0.136224 -3.53364 28.4128 -0.138999 -3.64676 27.4866 -0.134328 
-3.63684 27.1224 -0.132509 -3.50996 27.6432 -0.135272 -3.63126 26.7729 -0.1308 
-3.6255 26.4195 -0.129036 -3.4957 26.9059 -0.131704 -3.61984 26.044 -0.127212 
-3.61553 25.6782 -0.125395 -3.48493 26.1798 -0.128212 -3.60869 25.3116 -0.12364 
-3.60061 24.9515 -0.121885 -3.47283 25.4364 -0.124682 -3.59506 24.6043 -0.120251 
-3.58447 24.2459 -0.118558 -3.46075 24.7211 -0.121346 -3.57105 23.8876 -0.116957 
-3.55934 23.5304 -0.115334 -3.44213 24.014 -0.118163 -3.5484 23.1804 -0.113826 
-3.53239 22.8398 -0.112379 -3.41804 23.3037 -0.11511 -3.5194 22.4917 -0.110977 
-3.49888 22.144 -0.109635 -3.39427 22.6038 -0.112249 -3.47696 21.7929 -0.108384 
-3.45283 21.4322 -0.107189 -3.35931 21.9029 -0.10963 -3.42214 21.0609 -0.106022 
-3.39067 20.7062 -0.105134 -3.3066 21.179 -0.107262 -3.35618 20.3644 -0.104268 
-3.32581 20.0257 -0.103614 -3.24071 20.4654 -0.105309 -3.28943 19.6651 -0.102986 
-3.24771 19.2914 -0.102605 -3.16885 19.7638 -0.103749 -3.20555 18.9283 -0.102273 
-3.16517 18.5721 -0.102216 -3.08825 19.0423 -0.102523 -3.11342 18.2056 -0.102096 
-3.06788 17.8378 -0.10226 -2.99155 18.3164 -0.101657 -3.03654 17.4809 -0.102354 
-3.00915 17.114 -0.102764 -2.90481 17.5977 -0.101188 -2.99323 16.7322 -0.103054 
-2.98365 16.3608 -0.103649 -2.85432 16.8627 -0.101545 -2.99282 16.0106 -0.104238 
-3.00139 15.652 -0.104808 -2.84875 16.1333 -0.10258 -3.01706 15.2773 -0.105415 
-3.04074 14.9166 -0.105747 -2.87698 15.4115 -0.103864 -3.05866 14.5547 -0.10612 
-3.09094 14.176 -0.106119 -2.91703 14.6788 -0.105208 -3.13182 13.8195 -0.106384 
-3.17326 13.4778 -0.106071 -2.98223 13.9649 -0.10622 -3.22151 13.1239 -0.105965 
-3.26091 12.7639 -0.105511 -3.07576 13.2586 -0.106547 -3.30138 12.4092 -0.105267 
-3.33353 12.0665 -0.104794 -3.16671 12.552 -0.106299 -3.3569 11.731 -0.104603 
-3.38433 11.3933 -0.10415 -3.23126 11.8613 -0.105907 -3.40076 11.0619 -0.10396 
-3.41734 10.7366 -0.103623 -3.27104 11.1915 -0.105591 -3.42844 10.4043 -0.103445 
-3.43604 10.0684 -0.103153 -3.29805 10.5234 -0.105241 -3.44031 9.72126 -0.103008 
-3.44085 9.37352 -0.102757 -3.3126 9.83805 -0.104946 -3.4353 9.03314 -0.102661 
-3.4283 8.71328 -0.102483 -3.31005 9.1435 -0.104741 -3.41258 8.37398 -0.102485 
-3.39207 8.02755 -0.10237 -3.28725 8.45581 -0.104681 -3.36718 7.69048 -0.102442 
-3.33249 7.34736 -0.102479 -3.24478 7.77045 -0.104778 -3.29284 7.00944 -0.102731 
-3.24772 6.68214 -0.102861 -3.17836 7.0859 -0.105104 -3.19855 6.34888 -0.103222 
-3.13883 6.0085 -0.103512 -3.08719 6.4043 -0.105688 -3.07428 5.67637 -0.104064 
-3.00279 5.34888 -0.104499 -2.97075 5.72786 -0.106625 -2.92175 5.02428 -0.105424 
-2.82755 4.68582 -0.106309 -2.82186 5.05932 -0.108123 -2.71561 4.33088 -0.107689 
-2.58886 3.97003 -0.10925 -2.6262 4.36787 -0.110308 -2.46686 3.64042 -0.111329 
-2.3264 3.30516 -0.113342 -2.38774 3.67109 -0.113812 -2.16831 2.95793 -0.116786 
-1.98683 2.59936 -0.120384 -2.10403 2.98408 -0.118652 -1.77395 2.21916 -0.125953 
-1.54022 1.84183 -0.132875 -1.25515 1.49245 -0.138504 -1.73038 2.25212 -0.12605 
3.61977 31.4806 -0.130382 -0.687029 0.785614 -0.144428 0.769133 0.848743 -0.175746 
-0.67358 0.821562 -0.144034 -0.622004 0.800563 -0.138922 -0.540727 0.743328 -0.144026 
-0.497062 0.72776 -0.14476 -0.791754 1.07629 -0.140373 -0.479998 0.7498 -0.150271 
-0.451054 0.759135 -0.155772 -0.664154 1.02942 -0.146289 -0.431257 0.782295 -0.160317 
-0.39747 0.784906 -0.164123 -0.597023 1.06827 -0.153607 -0.37872 0.804679 -0.165052 
-0.343728 0.805325 -0.168489 -0.529083 1.10892 -0.159066 -0.313068 0.798698 -0.169295 
-0.279898 0.798072 -0.171031 -0.449936 1.1204 -0.163857 -0.253286 0.797946 -0.170844 
-0.220889 0.798217 -0.171976 -0.364243 1.11316 -0.166958 -0.195975 0.793821 -0.171791 
-0.167037 0.794644 -0.173055 -0.284853 1.10822 -0.168763 -0.144062 0.792752 -0.17293 
-0.114645 0.790888 -0.173282 -0.212742 1.10188 -0.16977 -0.090729 0.785706 -0.172678 
-0.0616923 0.781032 -0.17284 -0.141649 1.09525 -0.170034 -0.0397625 0.77834 -0.172236 
-0.0132066 0.78139 -0.172405 -0.0713525 1.08706 -0.169872 0.00749508 0.783327 -0.171717 
0.0352563 0.788055 -0.171714 -0.00594547 1.08705 -0.169315 0.056075 0.779766 -0.171426 
0.0827373 0.778585 -0.17149 0.058596 1.08162 -0.168832 0.104106 0.78235 -0.171143 
0.13276 0.781104 -0.171383 0.123634 1.07787 -0.16861 0.1545 0.77805 -0.171424 
0.183131 0.775007 -0.171777 0.191673 1.07951 -0.168642 0.205003 0.768652 -0.171796 
0.234568 0.767449 -0.171326 0.260477 1.07039 -0.168691 0.257086 0.767189 -0.171125 
0.286613 0.765507 -0.170932 0.330175 1.06398 -0.168243 0.310581 0.761486 -0.170884 
0.344164 0.763991 -0.170398 0.403016 1.0602 -0.167661 0.369923 0.761915 -0.170617 
0.402991 0.761468 -0.170568 0.480988 1.05623 -0.166987 0.431976 0.763705 -0.170937 
0.46962 0.76813 -0.171254 0.565666 1.06003 -0.166522 0.497983 0.762871 -0.171783 
0.541415 0.768775 -0.17188 0.655578 1.06378 -0.165882 0.567461 0.754194 -0.173198 
0.617667 0.762922 -0.174246 0.747891 1.05374 -0.165257 0.7101 0.825483 -0.174457 
0.93158 16.8382 -0.102778 1.04648 16.8548 -0.0975153 0.940591 17.1728 -0.10354 
-1.56557 16.1974 -0.0723211 -1.60983 16.5677 -0.0821367 -1.75855 16.0331 -0.0835551 
1.16347 16.875 -0.0957726 1.2909 16.9188 -0.0873913 1.4543 17.2609 -0.0844367 
1.18527 17.2054 -0.0957605 0.525345 16.8358 -0.111374 0.622905 16.8301 -0.109854 
0.715101 17.1649 -0.108883 0.343411 16.8389 -0.113723 0.436888 16.8474 -0.113221 
0.511206 17.1776 -0.111312 0.152195 16.8371 -0.11584 0.251948 16.8414 -0.115454 
0.314189 17.188 -0.113818 -0.0441348 16.8421 -0.117617 0.0553916 16.834 -0.117548 
0.107275 17.1856 -0.115441 -0.235608 16.8411 -0.118729 -0.137954 16.8378 -0.118887 
-0.102268 17.1772 -0.116073 -0.42289 16.8442 -0.119653 -0.326095 16.846 -0.119684 
-0.303565 17.1777 -0.116064 -0.61091 16.846 -0.120876 -0.515164 16.8451 -0.120915 
-0.50311 17.1833 -0.116538 -0.82343 16.8664 -0.120885 -0.714465 16.8571 -0.121739 
-0.717586 17.197 -0.117265 -1.05635 16.9001 -0.117905 -0.933654 16.8781 -0.119972 
-0.95235 17.2241 -0.116747 -1.32654 16.9449 -0.111319 -1.18458 16.9118 -0.118157 
-1.21163 17.254 -0.115914 -1.57617 16.9717 -0.094297 -1.46917 16.9817 -0.105773 
-1.49532 17.2965 -0.108925 1.5767 16.5877 -0.0434442 1.53096 16.2072 -0.034382 
-1.46177 14.8199 -0.13049 -1.59446 14.81 -0.11173 1.52536 15.7597 -0.036572 
1.58205 15.3832 -0.0446338 -1.21201 14.7928 -0.145318 -1.34792 14.7798 -0.135497 
-0.523641 14.8159 -0.135383 -0.63014 14.8074 -0.138466 -0.321631 14.8378 -0.130133 
-0.422727 14.8367 -0.132872 -0.512347 14.4583 -0.134037 -0.126611 14.8444 -0.12523 
-0.223408 14.8423 -0.127549 -0.2929 14.4887 -0.128526 0.0586256 14.8246 -0.120271 
-0.036084 14.8294 -0.121895 -0.0869217 14.4788 -0.121795 0.252456 14.8057 -0.116964 
0.151107 14.81 -0.117714 0.11222 14.4465 -0.116643 0.448691 14.8014 -0.114339 
0.350213 14.8019 -0.11479 0.320711 14.4243 -0.112987 0.657251 14.7989 -0.111701 
0.549687 14.8033 -0.112289 0.5395 14.4175 -0.110211 0.880976 14.803 -0.108663 
0.768259 14.8032 -0.109128 0.774434 14.4164 -0.10763 1.11026 14.8151 -0.106238 
0.992991 14.816 -0.106514 1.02244 14.4235 -0.105098 1.37213 14.8147 -0.0988224 
1.23841 14.8375 -0.103311 1.2842 14.4479 -0.101509 1.59784 14.8926 -0.0745819 
1.49587 14.8428 -0.0883501 3.46998 31.488 -0.131502 -0.960397 14.7924 -0.146954 
-1.07986 14.7919 -0.145285 -1.24668 14.3969 -0.140517 -0.731984 14.8033 -0.144084 
-0.840377 14.8033 -0.144759 -0.977961 14.411 -0.141553 -0.737097 14.4286 -0.137788 
-1.83234 16.8512 -0.0871072 -1.70794 16.9445 -0.0882323 -3.70477 31.4151 -0.15342 
-3.82657 31.3698 -0.15323 -3.92084 31.0055 -0.151554 -3.62347 31.1536 -0.152156 
-0.938797 1.12796 -0.142578 -1.7524 14.9661 -0.0974786 -1.8644 15.2231 -0.092917 
-3.81174 30.7619 -0.150349 1.72656 17.3125 -0.0678854 1.68034 16.9936 -0.0577195 
3.39734 31.2241 -0.130576 0.908782 1.11679 -0.163652 1.70098 16.0168 -0.0436568 
-1.5009 14.4466 -0.128339 -1.76479 17.2904 -0.0964758 1.79089 16.8884 -0.0514313 
-1.76421 14.3501 -0.115804 -1.75025 14.6609 -0.106529 -1.93425 14.5275 -0.106757 
1.80019 15.1735 -0.0542699 1.69553 15.0012 -0.0620086 1.55258 14.503 -0.0911282 
1.77674 14.6533 -0.0736038 -3.69183 30.6391 -0.149731 0.277939 17.5617 -0.11438 
0.384514 17.5611 -0.113439 -1.18997 1.48956 -0.134186 2.93331 30.794 -0.131542 
2.79359 30.7413 -0.132217 2.63622 30.6777 -0.132953 2.49001 30.644 -0.133727 
2.73994 30.3638 -0.13066 2.33445 30.6156 -0.134582 2.17994 30.5927 -0.135398 
2.42756 30.2712 -0.132308 2.01638 30.5598 -0.136219 1.86382 30.5553 -0.137042 
2.10898 30.2093 -0.134038 1.70683 30.5362 -0.137816 1.55357 30.5306 -0.138574 
1.789 30.1568 -0.135681 1.39356 30.53 -0.139362 1.24014 30.5158 -0.140014 
1.47263 30.1366 -0.137295 1.0918 30.5246 -0.14071 0.948159 30.5194 -0.141294 
1.16489 30.1446 -0.138827 0.80545 30.5167 -0.14186 0.660121 30.5165 -0.142406 
0.874459 30.1505 -0.140123 0.517045 30.5196 -0.142949 0.372817 30.5233 -0.143448 
0.589367 30.1507 -0.141251 0.219937 30.51 -0.143907 0.0689975 30.5034 -0.144336 
0.294158 30.1403 -0.142253 -0.0822688 30.4829 -0.144706 -0.236279 30.4888 -0.145141 
-0.00917741 30.1066 -0.143075 -0.393243 30.4852 -0.145535 -0.546813 30.4764 -0.145863 
-0.316539 30.0826 -0.143825 -0.688833 30.4893 -0.146233 -0.834866 30.5046 -0.146595 
-0.614679 30.0922 -0.144567 -0.985479 30.5272 -0.146978 -1.12804 30.5418 -0.147293 
-0.906546 30.128 -0.145297 -1.27972 30.5565 -0.147607 -1.44202 30.5721 -0.147924 
-1.2081 30.1656 -0.145964 -1.60273 30.5929 -0.148228 -1.75308 30.5963 -0.148445 
-1.5198 30.2013 -0.146553 -1.90637 30.605 -0.148649 -2.0559 30.6076 -0.148825 
-1.8332 30.2313 -0.147037 -2.2082 30.6158 -0.148991 -2.35864 30.6288 -0.149177 
-2.13831 30.2486 -0.14738 -2.50899 30.6462 -0.149351 -2.65401 30.6648 -0.14953 
-2.44053 30.2746 -0.147689 -2.79884 30.7016 -0.14976 -2.93624 30.7358 -0.149983 
-2.73528 30.3293 -0.148064 -3.07713 30.7931 -0.150297 -3.20713 30.8357 -0.150541 
-3.02057 30.4239 -0.14858 0.490818 17.5525 -0.112268 0.594356 17.5446 -0.110945 
0.457763 17.9303 -0.112855 0.706771 17.5462 -0.109353 0.821858 17.5474 -0.107084 
0.687815 17.9257 -0.110082 1.633 2.21924 -0.132711 1.82855 2.60792 -0.124746 
1.98211 2.95514 -0.118765 2.12925 3.31434 -0.11348 1.76873 2.67763 -0.127739 
2.25764 3.67517 -0.10882 2.3715 4.01805 -0.104962 2.04881 3.38819 -0.117217 
2.47357 4.3737 -0.101494 2.57797 4.75154 -0.0980914 2.27741 4.11071 -0.109107 
2.67731 5.13908 -0.0946823 2.75915 5.50986 -0.0919892 2.47835 4.86199 -0.102057 
2.83559 5.8777 -0.0893207 2.89438 6.21396 -0.0874095 2.65294 5.62572 -0.095973 
2.94138 6.54592 -0.0856463 2.98612 6.88343 -0.0841089 2.77519 6.33376 -0.0914377 
3.024 7.22786 -0.0825592 3.05644 7.57469 -0.0812881 2.8597 7.01885 -0.0879933 
3.084 7.92943 -0.0799606 3.10784 8.28832 -0.0787244 2.92486 7.72666 -0.0849406 
3.12449 8.64022 -0.0775485 3.13054 8.96436 -0.07678 2.9688 8.44169 -0.0823334 
3.13634 9.296 -0.0758071 3.13964 9.64936 -0.0749199 2.99076 9.13274 -0.0801306 
3.13725 9.99639 -0.0739737 3.13077 10.3378 -0.0732292 2.99432 9.81801 -0.0782007 
3.11987 10.6932 -0.072291 3.10031 11.052 -0.0716303 2.98127 10.5262 -0.0763463 
3.08054 11.3911 -0.0707453 3.05428 11.7258 -0.0701192 2.95051 11.225 -0.0745798 
3.01614 12.0832 -0.0693175 2.97751 12.4277 -0.0686482 2.89265 11.9238 -0.0729456 
2.92939 12.7809 -0.0677129 2.88729 13.1416 -0.0667027 2.8052 12.6344 -0.0712213 
2.84572 13.5048 -0.0651638 2.81344 13.844 -0.0636424 2.71217 13.3481 -0.0685721 
2.81282 14.1548 -0.0617381 2.77427 14.4864 -0.060296 2.66347 14.0187 -0.0646005 
2.7061 14.7976 -0.0591108 2.66727 15.1441 -0.0574525 2.58884 14.6382 -0.060916 
2.63578 15.4952 -0.0561241 2.62805 15.8483 -0.054935 2.47849 15.2971 -0.0572604 
2.62912 16.23 -0.0543369 2.64872 16.594 -0.0544956 2.44235 16.0309 -0.0542678 
2.70573 16.9494 -0.0550583 2.73315 17.324 -0.0558331 2.50787 16.7683 -0.0544173 
2.73575 17.6668 -0.0574166 2.77308 18.0255 -0.0589659 2.5757 17.4642 -0.0573061 
2.82954 18.3777 -0.0605072 2.87353 18.7229 -0.0621369 2.64247 18.1533 -0.0611053 
2.92903 19.0759 -0.0637221 2.97085 19.4173 -0.0653852 2.75812 18.8534 -0.0648535 
3.00499 19.7776 -0.0673962 3.03596 20.1191 -0.0692349 2.84916 19.5634 -0.0687825 
3.06342 20.457 -0.0711601 3.08935 20.8071 -0.0731255 2.91065 20.2598 -0.0728221 
3.11116 21.1595 -0.0751745 3.13477 21.506 -0.0771049 2.95936 20.9497 -0.0767552 
3.15323 21.8486 -0.0790738 3.17634 22.2044 -0.0810036 2.99858 21.6452 -0.0806912 
3.19637 22.5638 -0.0829918 3.21696 22.9181 -0.0849154 3.03617 22.3485 -0.0845306 
3.23665 23.2795 -0.0868651 3.24805 23.6351 -0.0889214 3.07496 23.071 -0.088309 
3.25738 23.9944 -0.0909849 3.26728 24.3541 -0.093048 3.10313 23.7935 -0.0921681 
3.27145 24.7226 -0.0951965 3.27604 25.098 -0.0973855 3.11586 24.523 -0.0962245 
3.28154 25.4834 -0.099572 3.28354 25.8555 -0.101731 3.1248 25.2786 -0.100405 
3.2918 26.2137 -0.10369 3.30111 26.5675 -0.105629 3.13785 26.0239 -0.104414 
3.31127 26.9124 -0.107475 3.31927 27.2488 -0.109312 3.15574 26.7283 -0.108108 
3.3313 27.5971 -0.111147 3.34348 27.9583 -0.113071 3.17749 27.4226 -0.111692 
3.35803 28.3152 -0.114925 3.3626 28.6738 -0.116889 3.20368 28.1288 -0.115296 
3.36113 29.0459 -0.11895 3.36277 29.41 -0.120952 3.21639 28.8585 -0.119144 
3.35569 29.7682 -0.122955 3.36135 30.1341 -0.124915 3.20744 29.5893 -0.12315 
3.37644 30.4902 -0.126732 3.38853 30.8963 -0.128853 3.23876 30.9883 -0.130431 
3.2151 30.3041 -0.126927 1.16026 1.43802 -0.153864 1.45299 1.88396 -0.140126 
1.44287 1.99826 -0.141004 1.02472 1.34775 -0.15751 1.75433 17.6792 -0.0752146 
1.89104 17.6754 -0.0688718 -1.27098 13.9568 -0.135917 -1.41186 13.9539 -0.132278 
-3.44407 29.3716 -0.14366 -3.42229 28.9979 -0.141869 -3.39692 28.61 -0.140043 
-3.38225 28.2275 -0.138211 -3.27035 28.812 -0.141067 -3.36701 27.822 -0.13631 
-3.35828 27.4342 -0.134454 -3.23013 28.0177 -0.137371 -3.35067 27.0542 -0.13268 
-3.34546 26.7037 -0.13101 -3.20777 27.2313 -0.133732 -3.33395 26.3326 -0.12931 
-3.32866 25.9559 -0.127538 -3.1891 26.4791 -0.130295 -3.32819 25.5822 -0.12582 
-3.32168 25.2141 -0.12412 -3.17764 25.7329 -0.126927 -3.31603 24.8493 -0.122492 
-3.31076 24.5005 -0.120918 -3.17202 24.9929 -0.123637 -3.29998 24.1292 -0.119327 
-3.28674 23.769 -0.11779 -3.1561 24.2551 -0.120478 -3.27897 23.4257 -0.116367 
-3.26823 23.0738 -0.114922 -3.1379 23.5388 -0.117534 -3.25565 22.7321 -0.113589 
-3.24278 22.3823 -0.112242 -3.11802 22.8523 -0.114842 -3.22519 22.0256 -0.110948 
-3.20323 21.6728 -0.109749 -3.08853 22.1524 -0.112278 -3.17698 21.3089 -0.108568 
-3.14615 20.9366 -0.107487 -3.0453 21.4306 -0.109859 -3.11063 20.5579 -0.106383 
-3.07566 20.2163 -0.105544 -2.9841 20.6876 -0.107608 -3.03535 19.8616 -0.104571 
-2.99776 19.5026 -0.103808 -2.90813 19.9551 -0.105522 -2.97698 19.1703 -0.102935 
-2.9331 18.8102 -0.102307 -2.84585 19.2705 -0.103614 -2.86493 18.4611 -0.101561 
-2.81035 18.0996 -0.100904 -2.75492 18.5925 -0.101703 -2.76538 17.7297 -0.100283 
-2.73054 17.3769 -0.0999487 -2.63626 17.8795 -0.0996852 -2.70651 16.9915 -0.0996043 
-2.68943 16.6125 -0.0998712 -2.55843 17.1288 -0.0982285 -2.6885 16.2255 -0.100312 
-2.70113 15.8777 -0.101112 -2.52909 16.3567 -0.0984553 -2.7388 15.5632 -0.102303 
-2.75914 15.1919 -0.103242 -2.57189 15.6548 -0.100284 -2.74649 14.8383 -0.104107 
-2.77036 14.4801 -0.105038 -2.60289 14.9867 -0.10269 -2.80934 14.0962 -0.10629 
-2.85508 13.7444 -0.106758 -2.639 14.2519 -0.105632 -2.92255 13.3963 -0.107225 
-2.97309 13.0456 -0.107311 -2.75353 13.5258 -0.107692 -3.03246 12.6969 -0.107421 
-3.07372 12.3429 -0.107225 -2.8828 12.8327 -0.108324 -3.09712 12.002 -0.107328 
-3.12045 11.6645 -0.107177 -2.96613 12.1439 -0.108517 -3.12543 11.3461 -0.107326 
-3.14154 11.0107 -0.107201 -2.99415 11.4831 -0.108792 -3.15256 10.6672 -0.107218 
-3.16283 10.3296 -0.107044 -3.00977 10.8174 -0.108953 -3.17067 9.96293 -0.107037 
-3.17357 9.60906 -0.106891 -3.02771 10.1019 -0.108947 -3.17213 9.24828 -0.106915 
-3.1651 8.90028 -0.10685 -3.0324 9.36782 -0.108946 -3.15446 8.56149 -0.106939 
-3.13693 8.21362 -0.10697 -3.01835 8.66104 -0.109084 -3.11339 7.86007 -0.107194 
-3.08658 7.51366 -0.107305 -2.98282 7.9609 -0.109428 -3.04778 7.15007 -0.107724 
-3.00563 6.80189 -0.108026 -2.91883 7.23513 -0.110031 -2.96056 6.47021 -0.108499 
-2.90866 6.12616 -0.108888 -2.83232 6.53077 -0.110932 -2.85477 5.78598 -0.10944 
-2.7872 5.44263 -0.110055 -2.73177 5.8497 -0.112002 -2.71562 5.10011 -0.110824 
-2.63088 4.76414 -0.111699 -2.6045 5.15772 -0.113424 -2.52161 4.39211 -0.113212 
-2.40459 4.0255 -0.114796 -2.42162 4.43489 -0.115742 -2.295 3.70483 -0.11611 
-2.16924 3.36515 -0.118138 -2.19874 3.73477 -0.118744 -2.04854 3.04278 -0.11966 
-1.88669 2.68863 -0.122485 -1.96889 3.08665 -0.121864 -0.0385745 14.0984 -0.120529 
-0.14363 14.1142 -0.123479 -1.00436 1.36466 -0.136306 -0.888415 1.28739 -0.137566 
-2.10035 15.0428 -0.098459 -2.03644 15.4271 -0.0940967 -0.859694 1.32354 -0.140389 
-0.812786 1.33774 -0.143161 -1.04644 1.60374 -0.136954 -0.788397 1.39396 -0.146721 
-0.74047 1.41104 -0.150255 -0.967592 1.68901 -0.142153 -0.699966 1.44427 -0.153692 
-0.654371 1.46156 -0.156301 -0.876008 1.77355 -0.148226 -0.605044 1.47146 -0.158879 
-0.54865 1.46218 -0.16122 -0.761908 1.81262 -0.153903 -0.49444 1.46845 -0.163135 
-0.441927 1.467 -0.164486 -0.63542 1.82526 -0.158552 -0.390174 1.46545 -0.165678 
-0.341621 1.45974 -0.166445 -0.506886 1.82759 -0.16188 -0.294068 1.44695 -0.167213 
-0.250609 1.44511 -0.167571 -0.387327 1.81139 -0.163916 -0.204128 1.43417 -0.16793 
-0.158017 1.42846 -0.168042 -0.27485 1.78616 -0.165131 -0.113761 1.42078 -0.168084 
-0.0709999 1.41766 -0.167941 -0.166344 1.76646 -0.165642 -0.0286016 1.41159 -0.167824 
0.0117434 1.41438 -0.167605 -0.0622901 1.75206 -0.165674 0.0522165 1.41028 -0.167425 
0.0930191 1.40193 -0.167242 0.0371884 1.74159 -0.165429 0.136547 1.40679 -0.167056 
0.178675 1.41151 -0.166889 0.137887 1.74243 -0.165023 0.222332 1.42011 -0.166723 
0.266358 1.41749 -0.166572 0.242514 1.75647 -0.164486 0.310845 1.41243 -0.166435 
0.354918 1.40664 -0.166227 0.349017 1.76074 -0.163896 0.396432 1.38391 -0.166026 
0.44139 1.38408 -0.165634 0.454688 1.73344 -0.163251 0.484597 1.37253 -0.165224 
0.53238 1.37051 -0.164755 0.558364 1.70001 -0.162391 0.581084 1.36585 -0.16417 
0.6328 1.36675 -0.163634 0.669756 1.68584 -0.161087 0.690334 1.37275 -0.162805 
0.746921 1.38066 -0.162142 0.797137 1.69096 -0.159247 0.802336 1.38126 -0.161179 
0.861403 1.38494 -0.160571 0.933475 1.7038 -0.156753 0.911804 1.36559 -0.159366 
0.975605 1.36429 -0.158703 1.19285 1.66948 -0.150362 1.06511 1.69336 -0.15377 
0.943582 17.5489 -0.104643 1.06988 17.5647 -0.101055 0.933892 17.9327 -0.105833 
0.0571995 17.5731 -0.115423 0.170447 17.5771 -0.115023 0.232879 17.953 -0.114498 
-0.162696 17.5724 -0.11539 -0.0534088 17.5766 -0.115536 0.00308462 17.9716 -0.115038 
-0.376698 17.5527 -0.115401 -0.271919 17.547 -0.115359 -0.228836 17.9502 -0.114951 
-0.590181 17.5514 -0.115642 -0.482602 17.5489 -0.115311 -0.455044 17.9225 -0.114704 
-0.828943 17.5753 -0.115795 -0.7071 17.5591 -0.115599 -0.689171 17.9287 -0.114712 
-1.08402 17.6087 -0.115178 -0.95599 17.5894 -0.115488 -0.944701 17.9542 -0.114678 
-1.36233 17.6384 -0.112751 -1.21922 17.6158 -0.114687 -1.21722 17.9796 -0.114025 
-1.65738 17.6717 -0.10628 -1.51964 17.6641 -0.110513 -1.58586 13.9641 -0.127152 
-1.69927 14.0275 -0.122086 1.94204 15.3853 -0.0543873 2.00439 14.9837 -0.05949 
1.73327 14.1495 -0.086689 1.60701 14.0893 -0.0933722 -1.9542 17.6355 -0.0972632 
-1.81493 17.6869 -0.101511 2.01361 17.1887 -0.057396 1.96664 16.7534 -0.0509088 
-0.482204 14.0968 -0.131781 -0.600801 14.0714 -0.134013 0.172099 14.0518 -0.115729 
0.0645455 14.0688 -0.118187 0.0135682 13.6985 -0.119271 0.399943 14.0257 -0.111941 
0.285352 14.0327 -0.113795 0.241869 13.6486 -0.114748 0.638483 14.0122 -0.108912 
0.519372 14.0153 -0.110261 0.486826 13.6173 -0.111009 0.902754 13.9948 -0.106032 
0.770504 13.9983 -0.107293 0.750613 13.5905 -0.107742 1.17391 14.0057 -0.103062 
1.04252 14.0033 -0.104343 1.03473 13.5821 -0.104727 1.45981 14.0319 -0.0980835 
1.32073 14.0184 -0.100902 1.33085 13.6022 -0.100849 1.96161 14.3968 -0.0723633 
1.85155 14.2722 -0.0793421 -0.256559 14.117 -0.126351 -0.371678 14.1094 -0.129382 
-0.449444 13.7199 -0.129519 -0.214024 13.7309 -0.12447 3.10039 30.9105 -0.130987 
1.89932 16.2477 -0.0471155 1.90066 15.8144 -0.0486468 -1.99765 16.7313 -0.0887534 
-2.04738 17.1275 -0.0930652 -3.50227 30.1151 -0.1472 -3.47817 29.7576 -0.145488 
-3.32956 29.5866 -0.144698 -1.48923 1.94452 -0.130044 -1.19914 1.58803 -0.133673 
-1.27625 1.79422 -0.13197 -1.70356 2.32205 -0.125864 -2.09581 14.2075 -0.109198 
-2.12516 14.5293 -0.104436 3.06372 30.5443 -0.129311 2.09463 15.6173 -0.0535377 
-3.34724 30.9178 -0.150964 -3.47193 30.9651 -0.151225 -2.11138 17.5414 -0.09571 
-2.14526 17.9512 -0.0995876 -2.25331 17.4308 -0.0958659 1.59722 17.6384 -0.0819113 
1.74959 18.0231 -0.0810564 1.45794 17.6193 -0.088756 -3.30113 30.5634 -0.149291 
-3.59222 30.8338 -0.15063 -3.54084 30.451 -0.148798 1.9008 13.8723 -0.0841569 
-1.11516 13.9728 -0.137314 -1.26259 13.5387 -0.132921 -0.979264 13.9909 -0.137724 
-1.59716 13.5401 -0.126685 -1.66864 2.39728 -0.126423 -2.26156 14.7202 -0.102902 
1.1851 17.9379 -0.0998572 1.18907 17.5644 -0.098017 1.31733 17.5901 -0.0933336 
-1.98175 15.879 -0.0892093 -1.97163 16.2965 -0.0880287 -2.17636 16.5784 -0.0929451 
-1.51548 18.0098 -0.111224 -1.83252 18.0403 -0.104868 -1.8484 13.8903 -0.117693 
2.21701 14.7698 -0.0619215 2.09966 14.5682 -0.0664816 2.15681 14.1739 -0.0716485 
1.63092 13.6789 -0.0942642 2.11408 16.5545 -0.0520244 -0.693622 13.6866 -0.133167 
-0.723311 14.0526 -0.135638 -0.843296 14.0451 -0.137368 2.08275 18.0509 -0.0702081 
2.07007 17.6701 -0.0638874 2.22095 17.5493 -0.0597956 -3.40217 30.3091 -0.148109 
-2.20328 15.6901 -0.0952284 -2.38993 15.6065 -0.0983566 -2.35688 16.055 -0.0960669 
2.52693 29.9056 -0.129854 2.37189 29.8767 -0.130769 2.19806 29.8209 -0.131672 
2.03509 29.7874 -0.132547 2.29848 29.4551 -0.129276 1.87546 29.7497 -0.133372 
1.71907 29.7301 -0.134199 1.96561 29.3608 -0.131071 1.55401 29.7194 -0.135095 
1.39463 29.7184 -0.135938 1.6415 29.3116 -0.132858 1.23611 29.7189 -0.136748 
1.08839 29.7274 -0.13749 1.31846 29.3008 -0.134614 0.940662 29.7438 -0.138226 
0.798613 29.7409 -0.138826 1.01276 29.3172 -0.136208 0.660903 29.7563 -0.139449 
0.518521 29.7592 -0.140001 0.727818 29.3488 -0.1376 0.369708 29.7352 -0.140456 
0.217634 29.7219 -0.140916 0.441829 29.3399 -0.138697 0.0674458 29.6735 -0.141219 
-0.0829935 29.653 -0.141582 0.143444 29.2674 -0.139463 -0.236731 29.6435 -0.141975 
-0.392834 29.64 -0.142354 -0.159809 29.2094 -0.140153 -0.547949 29.6552 -0.142776 
-0.689219 29.6684 -0.143125 -0.467999 29.2152 -0.140952 -0.831006 29.6896 -0.143488 
-0.980846 29.7125 -0.143843 -0.764269 29.252 -0.14171 -1.13154 29.7336 -0.144172 
-1.28251 29.7486 -0.144451 -1.05616 29.2946 -0.142371 -1.44341 29.773 -0.144757 
-1.60342 29.7942 -0.145027 -1.36715 29.3406 -0.142968 -1.76217 29.8193 -0.145281 
-1.91493 29.8285 -0.145455 -1.68619 29.3907 -0.143489 -2.06975 29.843 -0.14562 
-2.22158 29.8516 -0.145752 -1.99922 29.4311 -0.143872 -2.37849 29.8726 -0.145909 
-2.52841 29.8905 -0.146047 -2.31047 29.4673 -0.144155 -2.68081 29.9352 -0.14628 
-2.8252 29.9724 -0.146481 -2.61925 29.5337 -0.144502 -2.9776 30.0471 -0.146837 
-3.11804 30.1046 -0.147121 -2.9235 29.6536 -0.145049 0.428145 18.3715 -0.113179 
0.545995 18.3653 -0.112098 0.669328 18.3459 -0.110856 0.793431 18.3514 -0.10908 
0.641426 18.79 -0.111413 1.36551 1.99712 -0.14351 2.07548 13.6104 -0.0810766 
1.94917 13.469 -0.0864717 1.8172 3.08197 -0.12635 1.94426 3.44609 -0.12168 
2.06558 3.82556 -0.117286 2.1663 4.18695 -0.113408 1.84937 3.53197 -0.125042 
2.27396 4.58699 -0.109558 2.37245 4.98144 -0.105898 2.0737 4.31283 -0.116593 
2.4587 5.38612 -0.10257 2.53447 5.76195 -0.0997587 2.26378 5.12161 -0.109331 
2.59376 6.12056 -0.0973226 2.64013 6.46075 -0.0954799 2.40568 5.89079 -0.10356 
2.68402 6.81195 -0.0934799 2.7214 7.16487 -0.0918186 2.50686 6.60709 -0.0990718 
2.75341 7.52507 -0.0901728 2.78064 7.88825 -0.0886617 2.58153 7.32547 -0.0952972 
2.80245 8.25494 -0.0871751 2.81901 8.61491 -0.0858953 2.63453 8.05972 -0.0920402 
2.83134 8.95921 -0.0846316 2.83707 9.29768 -0.0836282 2.66803 8.77775 -0.0892292 
2.84034 9.65599 -0.0824706 2.83814 10.0093 -0.0815277 2.68392 9.48684 -0.0867767 
2.83734 10.3644 -0.0803616 2.82668 10.725 -0.0794532 2.68671 10.2062 -0.0844689 
2.81765 11.0749 -0.0783293 2.79823 11.4173 -0.0774817 2.67755 10.916 -0.082221 
2.76417 11.772 -0.0766753 2.72593 12.1307 -0.0758775 2.6353 11.6238 -0.0803458 
2.66412 12.5053 -0.0751787 2.61466 12.8575 -0.0742129 2.54029 12.355 -0.0788742 
2.56265 13.2549 -0.0723001 2.5164 13.6145 -0.0704932 2.42571 13.1263 -0.0763877 
2.48727 14.0323 -0.0671053 2.48087 14.3415 -0.0641309 2.40282 14.647 -0.0622162 
2.33224 15.0722 -0.0587054 2.29018 15.422 -0.0556845 2.26435 15.8461 -0.0532308 
2.26735 16.2301 -0.052289 2.37829 17.087 -0.0554624 2.3872 17.4273 -0.0575399 
2.59289 18.6458 -0.0659991 2.64996 18.9947 -0.0679297 2.68933 19.3409 -0.0701914 
2.72375 19.6986 -0.0723255 2.52839 19.1295 -0.0715972 2.75396 20.0434 -0.0744541 
2.78083 20.3804 -0.0763522 2.59771 19.8183 -0.0760049 2.7908 20.7222 -0.0785987 
2.81161 21.0747 -0.0805686 2.63684 20.504 -0.0802779 2.82806 21.4314 -0.0826124 
2.84547 21.775 -0.0844338 2.66172 21.2028 -0.0844264 2.86295 22.1309 -0.0863127 
2.88199 22.4919 -0.0881232 2.69392 21.9166 -0.0881401 2.90418 22.8544 -0.0898737 
2.92302 23.2176 -0.0916535 2.73203 22.6368 -0.0915563 2.9293 23.586 -0.0936388 
2.93785 23.9472 -0.0955317 2.75926 23.3694 -0.0950955 2.93277 24.3102 -0.0975955 
2.93619 24.6806 -0.0995734 2.75929 24.1028 -0.0989489 2.94144 25.0641 -0.10156 
2.94628 25.4514 -0.103583 2.75843 24.8513 -0.102808 2.96055 25.844 -0.105491 
2.96828 26.2037 -0.107325 2.77708 25.6294 -0.106532 2.98392 26.5648 -0.109053 
2.99365 26.9109 -0.110795 2.80626 26.3849 -0.110035 3.01379 27.259 -0.11242 
3.02547 27.6084 -0.114167 2.84152 27.0955 -0.113285 3.04581 27.9647 -0.115851 
3.06005 28.3225 -0.117628 2.8816 27.8009 -0.11651 3.08793 28.671 -0.119225 
3.08613 29.0437 -0.121224 2.92951 28.5068 -0.119723 3.02368 29.4141 -0.123665 
3.0162 29.7728 -0.125607 2.89456 29.2262 -0.123708 -1.45413 2.13061 -0.129815 
-1.26653 1.90482 -0.133065 -1.63114 2.49162 -0.12738 -0.0613853 18.4106 -0.114719 
0.0610541 18.4069 -0.114701 0.185386 18.3987 -0.114375 0.304567 18.3841 -0.113913 
0.384006 18.8201 -0.113508 0.125612 18.84 -0.114543 -3.08311 28.2512 -0.138589 
-3.06824 27.8448 -0.136724 -3.05183 27.4316 -0.134878 -3.04465 27.0504 -0.133142 
-2.90461 27.6638 -0.136089 -3.03432 26.6387 -0.13133 -3.0232 26.2663 -0.12967 
-2.87845 26.8375 -0.132469 -3.01576 25.8979 -0.128078 -3.01578 25.5227 -0.126418 
-2.86123 26.056 -0.129108 -3.00956 25.1299 -0.124754 -3.00437 24.7634 -0.12319 
-2.84827 25.2931 -0.125905 -2.99873 24.3875 -0.121642 -2.98838 24.0144 -0.120128 
-2.83712 24.5226 -0.12276 -2.98563 23.666 -0.118733 -2.97832 23.3211 -0.117381 
-2.82944 23.7965 -0.119893 -2.97663 22.9831 -0.116068 -2.96462 22.6399 -0.114806 
-2.82583 23.1085 -0.117271 -2.95139 22.2887 -0.113547 -2.93447 21.9306 -0.112328 
-2.81195 22.4179 -0.11478 -2.90816 21.5724 -0.111165 -2.88264 21.2077 -0.11005 
-2.77363 21.7072 -0.112443 -2.85943 20.8285 -0.108815 -2.82456 20.45 -0.107755 
-2.72576 20.9689 -0.110146 -2.77659 20.0612 -0.106593 -2.73625 19.7082 -0.105649 
-2.65598 20.201 -0.107851 -2.65449 19.2145 -0.104121 -2.63104 18.8859 -0.10298 
-2.52788 19.3198 -0.105166 -2.49667 18.0465 -0.0995617 -2.4443 17.6831 -0.0980301 
-2.39964 17.2587 -0.0965541 -2.36771 16.876 -0.0958007 -2.35574 16.4436 -0.0952652 
-2.43987 15.294 -0.100038 -2.43111 14.9392 -0.10175 -2.43536 14.4206 -0.105015 
-2.4848 14.0428 -0.106985 -2.57733 13.6169 -0.108767 -2.64767 13.2733 -0.109202 
-2.38284 13.7885 -0.108939 -2.74474 12.9604 -0.109348 -2.80458 12.6139 -0.109429 
-2.57336 13.0538 -0.110556 -2.84056 12.3132 -0.109632 -2.86397 11.9715 -0.109785 
-2.70561 12.441 -0.110789 -2.83861 11.688 -0.110443 -2.84351 11.3668 -0.110611 
-2.71626 11.8565 -0.111634 -2.85009 11.0114 -0.110868 -2.86045 10.6633 -0.110877 
-2.69805 11.2151 -0.112516 -2.875 10.2789 -0.110917 -2.88157 9.90608 -0.110918 
-2.71855 10.4705 -0.112797 -2.88783 9.51708 -0.110971 -2.88489 9.1493 -0.111038 
-2.73822 9.69105 -0.112886 -2.87209 8.76921 -0.111285 -2.85979 8.42307 -0.111415 
-2.73033 8.91532 -0.113238 -2.83516 8.06085 -0.111799 -2.80983 7.69896 -0.112049 
-2.69114 8.16587 -0.113926 -2.77555 7.32268 -0.112586 -2.73451 6.94997 -0.113073 
-2.63087 7.41979 -0.114907 -2.69308 6.59675 -0.113662 -2.64599 6.25661 -0.114194 
-2.55358 6.68271 -0.115985 -2.59511 5.90564 -0.114898 -2.53908 5.55654 -0.115527 
-2.46035 5.97155 -0.117327 -2.47589 5.20073 -0.116186 -2.40158 4.8495 -0.117209 
-2.34536 5.25796 -0.118953 -2.3354 4.51486 -0.117803 -2.22326 4.13609 -0.119488 
-2.21436 4.56064 -0.120675 -2.03544 3.71065 -0.122595 -1.92506 3.38672 -0.124303 
-1.96292 3.80106 -0.124624 -1.89551 3.13368 -0.123957 -1.77386 2.80724 -0.12545 
-1.57487 2.54972 -0.129203 -1.74685 3.12066 -0.127638 0.307042 13.213 -0.11409 
0.181715 13.2338 -0.116266 -1.56085 13.0331 -0.12695 -1.73709 13.0596 -0.123729 
0.915944 18.3357 -0.107259 1.04831 18.3421 -0.104617 0.896515 18.7572 -0.108214 
-1.2115 1.92959 -0.134963 -1.1875 2.03014 -0.137099 -1.13578 2.07907 -0.139611 
-1.39217 2.33014 -0.132869 -1.08459 2.14287 -0.142604 -1.01831 2.17069 -0.145384 
-1.28819 2.48589 -0.137653 -0.941198 2.18508 -0.14865 -0.869657 2.19046 -0.151107 
-0.794265 2.207 -0.15372 -0.716238 2.20986 -0.155856 -0.957569 2.58313 -0.148929 
-0.637847 2.21193 -0.157717 -0.564488 2.20802 -0.15913 -0.781142 2.5984 -0.153444 
-0.492381 2.20585 -0.160314 -0.425736 2.19127 -0.161213 -0.609669 2.59604 -0.1567 
-0.359386 2.17754 -0.161963 -0.294146 2.16523 -0.162516 -0.451775 2.57842 -0.158759 
-0.22697 2.1323 -0.163076 -0.164784 2.12382 -0.163264 -0.299486 2.52999 -0.160145 
-0.103892 2.1066 -0.163441 -0.0441978 2.10009 -0.163406 -0.154344 2.47849 -0.160931 
0.0127107 2.09358 -0.163352 0.0696036 2.08938 -0.163175 -0.020446 2.45423 -0.161071 
0.131694 2.10541 -0.162838 0.193374 2.11072 -0.162545 0.114699 2.46398 -0.160713 
0.25621 2.12953 -0.162105 0.317838 2.13909 -0.161701 0.257135 2.49984 -0.159871 
0.380285 2.13945 -0.161267 0.444052 2.13527 -0.160813 0.400643 2.52012 -0.158836 
0.506504 2.11373 -0.160374 0.568217 2.09153 -0.159986 0.54462 2.49969 -0.157687 
0.630093 2.06541 -0.159347 0.693171 2.05566 -0.158697 0.688946 2.45289 -0.15632 
0.749749 2.02047 -0.157991 0.819203 2.01902 -0.157039 0.828007 2.39302 -0.154731 
0.900177 2.02713 -0.15549 0.980829 2.03901 -0.153906 0.984977 2.36873 -0.152159 
1.06928 2.0639 -0.15181 1.14891 2.07276 -0.150085 1.17567 2.40787 -0.147938 
-0.304696 18.3672 -0.11457 -0.183495 18.3918 -0.114648 -0.131206 18.8294 -0.114734 
-2.03841 13.8005 -0.11356 -2.21693 13.79 -0.11092 -2.31135 13.3683 -0.112385 
-0.537117 18.3127 -0.114345 -0.420198 18.3144 -0.114402 -0.379244 18.7584 -0.114499 
-0.790153 18.3249 -0.114185 -0.661674 18.3134 -0.114315 -0.628317 18.7074 -0.114262 
-1.0609 18.3701 -0.114027 -0.923737 18.3513 -0.114306 -0.894665 18.7365 -0.114137 
-1.34071 18.3821 -0.113253 -1.19895 18.3726 -0.11399 -1.17338 18.7667 -0.113863 
-1.98396 18.3991 -0.104987 -1.82248 18.4032 -0.10792 -3.14731 29.0641 -0.142303 
-3.12215 28.6754 -0.1405 -2.95963 28.5024 -0.139811 -1.96018 13.4605 -0.118042 
0.0601079 13.2598 -0.118383 -0.054418 13.2903 -0.120739 0.11703 12.8209 -0.117735 
0.856991 13.1506 -0.107109 0.713511 13.1677 -0.108673 1.16309 13.1426 -0.10363 
1.01323 13.1368 -0.105298 0.972451 12.7135 -0.106449 1.47526 13.1713 -0.0991672 
1.32347 13.1566 -0.101523 1.29573 12.7155 -0.102574 1.81526 13.2526 -0.0916402 
1.6649 13.1792 -0.0957255 1.65074 12.7444 -0.0970164 1.52944 2.3572 -0.137215 
1.68051 2.70251 -0.131532 1.59785 2.7735 -0.134566 1.30258 2.03811 -0.145991 
2.86403 30.0121 -0.127982 2.7073 29.9481 -0.128784 -3.2625 30.227 -0.147702 
-1.65897 18.4006 -0.110589 -1.50147 18.3855 -0.112306 -1.47694 18.7697 -0.112709 
-1.80486 18.7691 -0.109638 0.572672 13.1825 -0.110324 0.441195 13.1954 -0.112144 
0.382758 12.7761 -0.113682 0.66724 12.7426 -0.110003 2.42039 17.9232 -0.0621535 
-3.21973 29.8509 -0.145949 3.04877 30.1876 -0.127532 2.65204 29.5542 -0.127225 
-1.13324 2.55711 -0.143345 -2.37815 18.3388 -0.100867 -2.21777 18.4366 -0.102482 
1.44967 17.9637 -0.0919143 2.19728 13.7645 -0.0758943 2.24342 13.3613 -0.0790571 
2.33593 13.9351 -0.0706189 2.30663 16.7358 -0.0532218 2.48302 18.2689 -0.0643312 
-0.962011 13.6104 -0.134592 1.14513 18.7107 -0.103808 1.16694 18.3099 -0.102164 
1.29214 18.3111 -0.0988419 -1.38788 13.0478 -0.129333 -1.51645 12.5636 -0.12658 
-1.87756 12.5081 -0.121536 -1.92152 13.0081 -0.120185 -2.11281 12.9257 -0.116999 
1.98266 12.983 -0.0888395 -2.20423 18.8046 -0.105159 1.22393 2.04508 -0.147925 
-0.122329 12.9277 -0.121809 -0.162175 13.37 -0.122859 -0.286936 13.372 -0.125458 
2.37869 18.4091 -0.0674866 1.36404 2.41364 -0.142674 -0.648774 13.3116 -0.130992 
-0.781638 13.29 -0.132125 2.05343 18.4598 -0.0763709 2.2333 18.4533 -0.0711408 
2.34039 18.83 -0.0730584 -1.22715 13.0613 -0.131074 -0.406079 13.2808 -0.127398 
-0.528219 13.2663 -0.129309 -0.605761 12.8685 -0.128754 -0.355809 12.9159 -0.12564 
1.72161 18.3906 -0.0866065 1.88098 18.4121 -0.0812603 2.02146 18.8288 -0.0815268 
-3.1857 29.4642 -0.144139 -3.03688 29.3276 -0.143543 -0.210972 19.3012 -0.114874 
-0.0787133 19.3197 -0.114803 2.05408 28.9485 -0.128642 1.89503 28.9101 -0.129532 
1.72537 28.8466 -0.130365 1.56087 28.8352 -0.131327 1.81468 28.4335 -0.128017 
1.39442 28.8224 -0.132257 1.23646 28.8224 -0.133121 1.47915 28.3563 -0.129859 
1.08112 28.8718 -0.134125 0.933903 28.8879 -0.134907 1.15784 28.3924 -0.131848 
0.788183 28.9217 -0.135701 0.650955 28.9369 -0.136354 0.857161 28.4753 -0.133687 
0.519761 28.984 -0.137059 0.371515 28.9598 -0.137534 0.580608 28.556 -0.135218 
0.237903 28.8214 -0.137496 0.088347 28.7727 -0.137811 0.316106 28.4644 -0.135911 
-0.0744441 28.7311 -0.138159 -0.227547 28.7215 -0.138545 0.0202282 28.2837 -0.136251 
-0.390365 28.737 -0.139013 -0.544844 28.7524 -0.139417 -0.304837 28.2575 -0.137063 
-0.694106 28.7852 -0.139843 -0.835313 28.8067 -0.140178 -0.616399 28.306 -0.137934 
-0.988146 28.8315 -0.14052 -1.13824 28.8531 -0.140812 -0.918006 28.364 -0.13867 
-1.29014 28.8824 -0.141111 -1.45042 28.9074 -0.141373 -1.22223 28.4188 -0.139269 
-1.61435 28.9548 -0.141699 -1.77252 28.9806 -0.14191 -1.53754 28.4963 -0.139846 
-1.93172 29.0294 -0.142187 -2.08605 29.0445 -0.14231 -1.86012 28.5934 -0.140397 
-2.24622 29.0622 -0.142417 -2.40263 29.0838 -0.142529 -2.17901 28.6607 -0.140738 
-2.56438 29.1007 -0.142595 -2.71624 29.146 -0.142783 -2.50044 28.6962 -0.14086 
-2.88507 29.2527 -0.143226 1.42692 18.3242 -0.0954035 1.56822 18.3449 -0.0911121 
1.69334 18.742 -0.0905182 1.40279 18.6896 -0.0979275 1.86366 4.03705 -0.12375 
1.96623 4.4387 -0.119726 2.05921 4.863 -0.115938 2.14194 5.27223 -0.112525 
1.85906 4.59489 -0.122294 2.21438 5.67805 -0.109382 2.27125 6.04231 -0.106897 
2.0175 5.42765 -0.115433 2.32166 6.40177 -0.104493 2.36382 6.75925 -0.102436 
2.1351 6.19684 -0.10998 2.40181 7.13552 -0.100464 2.4325 7.50256 -0.09853 
2.22064 6.9374 -0.105375 2.45191 7.87264 -0.0970504 2.47308 8.24655 -0.0953819 
2.27568 7.68947 -0.10167 2.49554 8.61476 -0.0937867 2.50779 8.9655 -0.0924196 
2.31625 8.43409 -0.0983537 2.51853 9.32745 -0.0910771 2.52199 9.69194 -0.0898645 
2.34894 9.17011 -0.0952795 2.52101 10.0627 -0.0886743 2.52076 10.4233 -0.0875159 
2.35894 9.90867 -0.0926755 2.52446 10.7881 -0.086158 2.51622 11.1422 -0.0850716 
2.36241 10.6499 -0.0901382 2.5273 11.4737 -0.0835266 2.49416 11.831 -0.0827199 
2.378 11.3503 -0.0872926 2.42039 12.1782 -0.0828105 2.35991 12.5549 -0.0820853 
2.31644 12.032 -0.0858511 2.29745 12.9655 -0.0808956 2.45792 19.587 -0.0772871 
2.4873 19.9307 -0.0792639 2.47799 20.2487 -0.0818872 2.48671 20.5903 -0.0840015 
2.341 20.0144 -0.0832105 2.48004 20.9473 -0.0864456 2.49485 21.305 -0.0882763 
2.32364 20.6895 -0.0880816 2.49764 21.6848 -0.0904257 2.51333 22.0425 -0.0920638 
2.31752 21.4281 -0.0923773 2.52826 22.4314 -0.0938736 2.54881 22.7959 -0.0953966 
2.33261 22.1995 -0.0959749 2.59709 23.1542 -0.0964651 2.60222 23.5244 -0.0982477 
2.39335 22.9494 -0.0985779 2.56582 23.8574 -0.100413 2.55974 24.2225 -0.102274 
2.40401 23.6423 -0.101643 2.55863 24.6096 -0.104141 2.56302 24.9951 -0.105945 
2.36525 24.3646 -0.105448 2.58451 25.4229 -0.107728 2.59808 25.8174 -0.109485 
2.38456 25.1818 -0.108906 2.62068 26.2109 -0.111128 2.6358 26.5736 -0.112745 
2.42773 26.0051 -0.11219 2.65882 26.9452 -0.114314 2.67857 27.2945 -0.115852 
2.47272 26.7717 -0.115297 2.71079 27.6983 -0.117535 2.73083 28.0557 -0.119146 
2.52748 27.5486 -0.118463 2.77579 28.4789 -0.120876 2.80354 28.8283 -0.12241 
2.60432 28.3768 -0.121799 -2.73373 27.9333 -0.137437 -2.71776 27.5188 -0.135634 
2.3807 19.1731 -0.0752962 -0.718886 19.0827 -0.114357 -0.585924 19.08 -0.114533 
-2.71381 27.0322 -0.133556 -2.70399 26.619 -0.131788 -2.54279 27.3006 -0.134883 
-2.69254 26.2235 -0.130154 -2.68562 25.8536 -0.128608 -2.52804 26.417 -0.131224 
-2.67586 25.4581 -0.12702 -2.67029 25.0634 -0.125422 -2.50753 25.6243 -0.128052 
-2.66337 24.6758 -0.123915 -2.65847 24.298 -0.122441 -2.49171 24.8393 -0.125013 
-2.65593 23.9109 -0.120983 -2.65397 23.5608 -0.119661 -2.48336 24.0625 -0.122111 
-2.65581 23.1995 -0.118331 -2.65493 22.86 -0.117108 -2.48379 23.3122 -0.1194 
-2.68436 22.5603 -0.115898 -2.67217 22.2077 -0.11473 -2.51605 22.6495 -0.116974 
-2.62779 21.8591 -0.113743 -2.60304 21.4995 -0.112677 -2.50232 21.9999 -0.114866 
-2.58437 21.1269 -0.111502 -2.56292 20.747 -0.110342 -2.4417 21.2766 -0.112835 
-2.56082 20.3909 -0.10911 -2.51466 20.0022 -0.108052 -2.42343 20.5463 -0.110553 
-2.5615 18.5416 -0.101783 -0.467251 19.1935 -0.114636 -0.341831 19.2455 -0.114825 
-0.293724 19.7369 -0.115253 -2.57556 12.2733 -0.112545 -2.55292 11.9896 -0.113341 
-2.51714 11.5247 -0.114379 -2.52396 11.1657 -0.1146 -2.38302 11.9461 -0.115401 
-2.55872 10.6795 -0.114597 -2.57203 10.2897 -0.114638 -2.38282 10.9903 -0.116431 
-2.57954 9.8803 -0.114798 -2.58461 9.48474 -0.114903 -2.42295 10.0882 -0.11655 
-2.57455 9.05989 -0.115249 -2.56025 8.6728 -0.115568 -2.4193 9.24736 -0.11706 
-2.5328 8.29655 -0.116141 -2.5068 7.92715 -0.116637 -2.38001 8.43966 -0.118017 
-2.47398 7.54237 -0.117252 -2.43854 7.15862 -0.117846 -2.31935 7.67223 -0.119314 
-2.39969 6.76316 -0.118606 -2.35736 6.40314 -0.119274 -2.24812 6.88564 -0.120812 
-2.31105 6.03013 -0.120119 -2.2591 5.67295 -0.1209 -2.1632 6.11155 -0.122474 
-2.2023 5.28212 -0.121862 -2.13727 4.9205 -0.122792 -2.06103 5.34291 -0.124355 
-2.06877 4.51236 -0.123783 -1.99888 4.17284 -0.124717 -1.93579 4.53989 -0.126494 
-1.82512 3.75445 -0.127739 -1.64698 3.72499 -0.132038 -1.60118 3.34729 -0.132323 
-1.45227 12.0604 -0.126491 -1.62838 12.0556 -0.124801 -1.1362 2.97085 -0.144239 
-1.03852 2.98293 -0.146603 -1.52633 2.63993 -0.131051 -0.93595 3.00367 -0.149081 
-0.83599 3.0025 -0.151084 -1.0984 3.3932 -0.144761 -0.737799 3.02986 -0.152643 
-0.645242 3.02552 -0.153937 -0.877034 3.43905 -0.148792 -0.554876 3.03094 -0.154993 
-0.469706 3.01544 -0.155877 -0.668113 3.47058 -0.151528 -0.377368 2.98825 -0.156743 
-0.291506 2.95331 -0.157429 -0.465757 3.4472 -0.153494 -0.210026 2.84077 -0.158472 
-0.132921 2.82264 -0.158652 -0.273887 3.30433 -0.155252 -0.061907 2.902 -0.158208 
0.0122691 2.89521 -0.15813 -0.109733 3.27055 -0.15576 0.0857928 2.81828 -0.158507 
0.164933 2.83511 -0.158074 0.054183 3.27293 -0.155554 0.246923 2.94288 -0.156995 
0.328401 2.96303 -0.156408 0.222056 3.30426 -0.154796 0.416754 2.96747 -0.155759 
0.498076 2.96896 -0.155078 0.411716 3.41916 -0.152959 0.581231 2.93187 -0.154498 
0.663547 2.91118 -0.153849 0.603823 3.38712 -0.151495 0.746752 2.86772 -0.153014 
0.829357 2.84312 -0.152161 0.790364 3.30694 -0.149802 0.901633 2.78228 -0.151276 
0.978171 2.74918 -0.150338 0.966241 3.20352 -0.147886 1.04106 2.67208 -0.149448 
1.1422 2.68528 -0.147482 1.12099 3.0668 -0.14592 -0.993522 19.2019 -0.114247 
-0.852934 19.1737 -0.114389 -0.809231 19.5457 -0.114742 -1.28212 19.2128 -0.113842 
-1.13883 19.2107 -0.114203 -1.09365 19.6452 -0.114579 -2.83038 28.8205 -0.141311 
-2.7915 28.3953 -0.139422 2.18365 12.7953 -0.0849065 2.04146 12.565 -0.0897636 
-0.919306 13.1597 -0.132187 -1.0633 13.1021 -0.131917 -1.17529 12.6129 -0.129582 
-0.869286 12.7829 -0.130319 1.61297 3.20198 -0.133304 1.72931 3.57989 -0.128754 
1.64151 3.71401 -0.131023 1.78604 12.2806 -0.0959445 1.59275 12.26 -0.0994196 
0.609408 19.2438 -0.112081 0.742141 19.2266 -0.110719 0.15248 12.3645 -0.117783 
0.0216236 12.3911 -0.119624 1.41491 12.2475 -0.102004 1.24957 12.2292 -0.104237 
1.54152 11.7795 -0.101335 1.08084 12.2284 -0.106265 0.918048 12.2418 -0.108169 
1.19042 11.7599 -0.1061 1.49717 2.78975 -0.137709 2.39284 29.0631 -0.126752 
2.21965 29.0066 -0.127729 2.14933 28.5561 -0.12619 -1.33779 2.93629 -0.138298 
-1.23762 2.94383 -0.141147 0.875434 19.1933 -0.109247 1.00555 19.1798 -0.107314 
0.843647 19.647 -0.110147 2.27474 19.2819 -0.0788605 1.4007 2.84819 -0.140446 
-1.32363 3.34953 -0.139523 2.74038 29.1989 -0.124783 2.5606 29.1557 -0.125933 
0.854687 11.7802 -0.110035 0.756196 12.2655 -0.10996 0.606868 12.2814 -0.111797 
-0.551889 19.568 -0.11494 1.29077 2.81482 -0.143354 -1.80987 12.0735 -0.122647 
-1.99811 12.0357 -0.120286 -1.74064 11.575 -0.123317 -2.60389 28.2509 -0.138899 
0.31277 12.3503 -0.115472 0.218479 11.918 -0.117509 0.456304 12.3316 -0.113609 
-2.28545 12.8942 -0.114647 -2.44764 12.8874 -0.112571 0.342756 19.3232 -0.113753 
0.476639 19.3121 -0.113027 0.57034 19.7479 -0.112731 1.13315 19.1558 -0.105357 
1.25747 19.1237 -0.102855 1.11038 19.5901 -0.106605 0.0640988 19.3443 -0.114621 
0.198706 19.3364 -0.114321 0.28454 19.8285 -0.114411 -0.0113164 19.8169 -0.115187 
-0.725658 12.3473 -0.128363 -0.865375 12.2168 -0.128618 -2.41998 19.6558 -0.107411 
-2.34102 19.163 -0.1058 -2.10278 19.1307 -0.107823 -2.32876 19.8422 -0.108716 
1.34396 3.122 -0.14081 -0.595239 12.3025 -0.127296 -0.529968 15.9191 0.0254791 
-0.455411 15.9151 0.0263829 -1.49124 2.95462 -0.13381 -0.141737 12.3942 -0.122 
-0.258475 12.475 -0.123749 -0.113621 11.935 -0.121737 -1.43995 19.197 -0.113416 
-1.4018 19.6356 -0.113954 -1.60369 19.1944 -0.112598 2.13387 19.2336 -0.0820625 
2.20675 19.651 -0.0837112 1.95722 19.1932 -0.0865956 2.48206 28.7077 -0.124377 
2.16217 12.0843 -0.0890287 1.96203 12.2689 -0.09256 1.89966 11.7891 -0.0954511 
2.23239 11.7317 -0.0889604 -1.08174 12.0828 -0.128456 -1.24966 12.0462 -0.127802 
-0.927554 11.6474 -0.127604 -1.93314 19.148 -0.10977 -1.76598 19.1569 -0.111296 
-1.72677 19.577 -0.112385 -2.06342 19.5166 -0.109633 -1.35131 11.534 -0.126412 
1.29717 3.3579 -0.140915 1.45413 3.49153 -0.136629 1.57484 3.94531 -0.131892 
1.56085 27.8748 -0.1274 1.39493 27.8612 -0.128404 0.905105 28.0679 -0.131925 
0.759737 28.1015 -0.132752 0.593407 28.0464 -0.13329 0.462548 28.0936 -0.134004 
0.64178 27.6378 -0.131602 0.329371 27.9542 -0.134018 -0.383656 15.9116 0.0274585 
-0.312371 15.9089 0.0284145 0.145843 27.7623 -0.13399 -0.0164197 27.7201 -0.134364 
0.292264 27.3898 -0.132168 -0.20616 27.7181 -0.134897 -0.368454 27.7336 -0.135359 
-0.0804291 27.1946 -0.132725 -0.544918 27.8196 -0.136046 -0.693699 27.8527 -0.136448 
-0.446087 27.2787 -0.133937 -0.852847 27.8943 -0.136858 -1.00518 27.9198 -0.137163 
-0.781245 27.407 -0.135003 -1.15667 27.9394 -0.13741 -1.30805 27.9694 -0.137665 
-1.09144 27.469 -0.135619 -1.47394 28.0111 -0.137941 -1.63729 28.0594 -0.138211 
-1.40834 27.5313 -0.136093 -1.80256 28.144 -0.138595 -1.9612 28.1937 -0.138818 
-1.73892 27.6588 -0.136691 -2.11005 28.3112 -0.139294 -2.26977 28.3297 -0.139352 
-2.05246 27.8622 -0.137479 -2.44269 28.2331 -0.138893 1.66107 4.35864 -0.12814 
1.74536 4.78382 -0.12441 1.47898 4.13921 -0.133294 0.82325 20.0846 -0.111009 
0.962601 20.0522 -0.1094 1.81884 5.20883 -0.121086 1.88518 5.61746 -0.117906 
1.62686 4.97785 -0.126239 1.94518 5.99147 -0.115106 1.99189 6.35468 -0.112727 
1.7509 5.7786 -0.120268 2.02782 6.73661 -0.110544 2.06286 7.11788 -0.10831 
1.84166 6.53726 -0.11519 2.08757 7.50048 -0.106453 2.10516 7.87646 -0.104672 
1.89812 7.30593 -0.110956 2.12938 8.26987 -0.102834 2.15097 8.64378 -0.101055 
1.94434 8.08694 -0.10711 2.18066 9.01645 -0.0992546 2.1912 9.38392 -0.0977871 
1.9965 8.85817 -0.103316 2.19505 9.79427 -0.0963777 2.19413 10.1706 -0.0951597 
2.02982 9.6463 -0.100006 2.18574 10.5984 -0.093901 2.18956 10.9681 -0.0926122 
2.02498 10.4905 -0.0973148 2.22213 11.3979 -0.0904137 2.19746 19.9683 -0.0862728 
-1.56994 2.90122 -0.131424 2.1627 20.355 -0.089501 2.15461 20.7132 -0.0917345 
2.03238 19.9876 -0.0901388 2.1325 21.1338 -0.0943002 2.13304 21.5161 -0.0961087 
2.1331 21.9895 -0.0982465 2.14542 22.3813 -0.0997819 1.94898 21.6955 -0.100024 
2.1732 22.8865 -0.10153 2.2193 23.2471 -0.102442 1.97305 22.6786 -0.103545 
2.18217 23.5819 -0.104372 -0.237345 15.9057 0.0309369 -0.164535 15.9054 0.0317101 
2.15592 24.0643 -0.106718 2.1538 24.4537 -0.108385 1.97224 23.6692 -0.10738 
2.1597 24.9149 -0.110236 2.18027 25.3449 -0.111852 1.95031 24.6159 -0.111311 
2.21446 25.8153 -0.113503 2.23638 26.2106 -0.115027 1.98915 25.55 -0.114631 
2.28143 26.6428 -0.116499 2.30396 27.0158 -0.117983 2.06749 26.4545 -0.117649 
2.3504 27.4322 -0.119457 2.38227 27.8372 -0.121073 2.15843 27.3044 -0.120534 
1.67571 11.2733 -0.100763 1.49407 11.2521 -0.103553 -2.27305 20.2347 -0.110498 
-2.18313 19.8843 -0.109991 -2.00809 19.9083 -0.111372 -1.18148 20.1572 -0.11516 
-1.03131 20.1501 -0.115366 -0.398115 20.2277 -0.115768 -0.259413 20.2829 -0.115784 
-2.35161 26.5789 -0.132127 -2.34071 26.1819 -0.130539 -2.32513 25.803 -0.12909 
-2.31608 25.4057 -0.127554 -2.14886 25.9643 -0.129954 -2.31105 24.9927 -0.126017 
-2.30501 24.6031 -0.124566 -2.12918 25.1706 -0.127015 -2.29719 24.1852 -0.123091 
-2.29572 23.796 -0.121701 -2.11747 24.3375 -0.124055 -2.29563 23.3672 -0.120249 
-2.29844 23.004 -0.119004 -2.11098 23.4883 -0.121191 -2.31919 22.5681 -0.117513 
-2.349 22.2672 -0.11643 -2.13313 22.6208 -0.118356 -2.30713 21.9163 -0.115484 
-0.0920701 15.9015 0.0358265 -0.013697 15.9026 0.0396295 -2.28197 21.4116 -0.114084 
-2.26565 21.0369 -0.113024 -2.13157 21.677 -0.115584 -2.27355 20.5917 -0.111647 
-1.25819 10.8938 -0.126374 -1.46573 10.9168 -0.125335 -2.54014 12.5741 -0.112424 
-2.25288 10.2685 -0.118334 -2.25842 9.85254 -0.118515 -2.27329 9.44437 -0.118607 
-2.26196 9.01295 -0.119028 -2.1056 9.62295 -0.120333 -2.20344 8.64148 -0.119986 
-2.17598 8.25908 -0.120619 -2.06095 8.83886 -0.121369 -2.15517 7.82847 -0.121306 
-2.1226 7.43769 -0.122046 -1.98346 8.03091 -0.123053 -2.0887 7.01387 -0.122924 
-2.05064 6.61281 -0.123858 -1.93063 7.1708 -0.124838 -2.00449 6.2059 -0.124921 
-1.95925 5.82847 -0.125968 -1.85292 6.33564 -0.127034 -1.90769 5.39253 -0.127197 
-1.85119 4.99815 -0.128313 -1.75936 5.48925 -0.129465 -1.78912 4.5495 -0.129644 
-1.71858 4.13903 -0.130899 -1.64921 4.60247 -0.132284 -0.849631 20.0977 -0.115411 
-0.711701 20.0071 -0.1154 -0.929744 20.6087 -0.116191 -1.27691 3.80864 -0.140415 
-1.15392 3.82581 -0.142783 -1.02939 3.8933 -0.144652 -0.91015 3.91884 -0.146308 
-1.19175 4.3102 -0.140859 -0.789246 3.95463 -0.147788 -0.679587 3.95861 -0.148785 
-0.925272 4.41293 -0.144136 -0.551013 3.96127 -0.149833 -0.439911 3.93235 -0.15067 
-0.655457 4.45085 -0.146608 -0.29355 3.86661 -0.151643 -0.197948 3.74986 -0.152637 
-0.358801 4.38632 -0.148366 -0.109941 3.83184 -0.15209 0.0599111 15.9026 0.042848 
0.144454 15.9037 0.0451355 0.0493059 3.86196 -0.1518 0.140731 3.78232 -0.152023 
-0.0312431 4.35031 -0.14881 0.238263 3.89411 -0.150845 0.219306 15.9051 0.0462721 
0.295612 15.9074 0.0480583 0.389147 3.94435 -0.149712 0.497506 3.94974 -0.14879 
0.303858 4.43181 -0.147219 0.620599 3.89772 -0.147976 0.723914 3.86087 -0.147221 
0.602636 4.43034 -0.144901 0.831544 3.77036 -0.146387 0.934952 3.72791 -0.145388 
0.855587 4.28709 -0.143004 1.03754 3.61563 -0.144323 1.12849 3.55643 -0.143252 
1.08715 4.08385 -0.14095 1.21633 3.43223 -0.142111 -0.58541 20.1193 -0.115577 
1.29335 11.2694 -0.106194 1.12069 11.2643 -0.108343 1.4199 10.7598 -0.106031 
-0.38522 12.3816 -0.125231 -0.495146 11.8589 -0.125787 0.375099 15.9105 0.0500722 
0.445804 15.914 0.0510669 2.25945 28.168 -0.123592 2.09448 28.109 -0.124586 
-2.37391 27.884 -0.137451 1.21601 27.8897 -0.129584 1.06107 27.9388 -0.130633 
0.963809 27.5639 -0.129752 1.2983 27.4068 -0.127241 1.36909 19.0249 -0.100314 
1.50618 19.0342 -0.0971503 1.35518 19.4663 -0.102122 0.686307 20.2456 -0.112328 
0.801 20.6488 -0.111949 0.545698 20.3131 -0.113394 0.53622 11.8535 -0.113622 
2.04889 11.3542 -0.0940484 -0.55543 20.6647 -0.116517 1.91332 28.0028 -0.125485 
1.74427 27.9384 -0.126415 2.02402 27.6142 -0.122972 1.64973 19.1297 -0.0941883 
1.80498 19.165 -0.0903008 1.91097 19.5779 -0.0904937 1.61274 19.4602 -0.0968519 
1.97394 20.7974 -0.0956774 1.86914 11.3556 -0.0973146 1.8186 10.8337 -0.0998145 
2.43719 28.2835 -0.122701 1.66007 27.443 -0.124974 -2.37238 27.4926 -0.135837 
-2.36904 27.0044 -0.133817 -2.18126 26.7702 -0.133051 -2.19967 27.5883 -0.136326 
1.10992 20.0683 -0.107696 1.24223 20.0443 -0.105709 1.08951 20.504 -0.108759 
-0.0930321 20.3304 -0.115673 0.0580785 20.355 -0.115426 -0.194006 20.8202 -0.116606 
-1.35534 20.1184 -0.114826 -1.29077 20.619 -0.115763 -1.51746 20.0985 -0.114333 
-2.11794 20.7232 -0.112982 -2.20666 11.9708 -0.117622 -2.23748 12.4351 -0.116515 
1.03135 10.7663 -0.110983 0.935969 11.2586 -0.110544 0.769203 11.2808 -0.112433 
-2.26427 10.6767 -0.11797 -2.10461 10.4464 -0.119829 -2.23238 11.1697 -0.118037 
-0.024676 11.3964 -0.121199 -0.196748 11.3992 -0.122908 -1.39465 3.76175 -0.138013 
-1.45334 4.19772 -0.136451 1.29776 3.84867 -0.138398 0.295633 11.5053 -0.11744 
0.12813 11.5195 -0.119304 0.049458 10.9823 -0.121097 -0.814743 11.0302 -0.126975 
-1.03376 10.9003 -0.126937 -1.51646 3.73982 -0.135147 -2.02072 11.2262 -0.120366 
-2.13457 11.5364 -0.11893 -1.13758 10.2785 -0.126668 0.520853 15.9179 0.0533478 
0.590735 15.9215 0.0548144 0.429442 26.8427 -0.129751 0.246483 26.649 -0.129823 
0.662195 15.9264 0.0570668 0.72728 15.9291 0.056662 0.0197675 26.5843 -0.130382 
-0.169361 26.5819 -0.130921 0.157075 26.034 -0.128143 -0.379193 26.6447 -0.131635 
-0.55509 26.7315 -0.132288 -0.278619 26.032 -0.129407 -0.716906 26.9349 -0.133257 
-0.875592 26.9772 -0.133627 -0.649569 26.2999 -0.131004 -1.03305 26.9351 -0.133657 
-1.18403 26.9557 -0.133859 -0.968449 26.4622 -0.131954 -1.35951 27.0268 -0.134214 
-1.5248 27.0697 -0.134426 -1.30074 26.4926 -0.132278 -1.702 27.1951 -0.13491 
-1.86666 27.281 -0.135218 -1.65277 26.691 -0.133031 1.3728 4.26043 -0.134919 
-1.96825 20.3551 -0.112748 -1.85346 19.9829 -0.112613 -1.68665 20.0279 -0.113546 
-1.95845 20.8033 -0.113995 1.55319 5.58454 -0.125021 1.60621 5.95991 -0.122257 
1.67541 6.33276 -0.119286 1.70693 6.71785 -0.117079 1.47927 6.14262 -0.123703 
1.69045 7.08577 -0.115766 1.71187 7.47281 -0.113778 1.52755 6.88533 -0.119448 
1.73263 7.90404 -0.111622 1.75455 8.30243 -0.109676 1.5279 7.68921 -0.115894 
1.80106 8.71676 -0.107337 1.8296 9.09399 -0.10543 1.59154 8.53955 -0.111465 
1.88026 9.48907 -0.103219 1.88366 9.90473 -0.101713 1.68687 9.35312 -0.106894 
1.82749 10.3992 -0.101064 -1.38109 4.74799 -0.136829 -1.23589 4.81372 -0.138708 
1.97791 27.1969 -0.121539 1.74065 21.3085 -0.101827 1.73794 21.7863 -0.103587 
-1.66878 11.0794 -0.123857 -1.85472 11.1073 -0.122153 1.87652 19.9659 -0.0936112 
1.72912 22.3264 -0.105553 1.7538 22.8357 -0.107019 1.52192 21.942 -0.107018 
-0.863508 15.9403 0.0204026 -0.914286 15.9537 0.0223974 0.793723 15.9315 0.0577689 
0.853257 15.9364 0.0595789 1.75304 23.3766 -0.108888 1.72503 23.8625 -0.110922 
1.50896 23.0282 -0.110489 1.74806 24.3602 -0.11244 1.75267 24.8239 -0.114109 
1.52846 24.0707 -0.11362 0.608884 11.335 -0.114174 0.452705 11.3852 -0.115831 
0.362147 10.9856 -0.117823 0.682973 10.812 -0.114783 -1.92626 25.3391 -0.127926 
-1.92221 24.924 -0.126446 -1.94912 24.5161 -0.125004 -1.94241 24.096 -0.123578 
-1.74695 24.6842 -0.125864 -1.91644 22.7399 -0.119395 -1.9387 22.301 -0.118034 
-1.74733 21.9221 -0.11758 -1.54787 22.0389 -0.118383 -1.57207 21.539 -0.117072 
-1.96066 21.8057 -0.116618 -1.93864 21.297 -0.115306 -1.79185 20.9282 -0.11503 
1.26485 4.43046 -0.136133 1.43875 4.72029 -0.131366 1.50255 5.14562 -0.127975 
0.226403 20.3912 -0.114961 0.378838 20.3785 -0.114359 0.489994 20.8748 -0.114514 
0.147521 20.9039 -0.11598 -1.02443 9.49893 -0.127599 -1.25044 9.50005 -0.126825 
-0.290573 10.7195 -0.124364 -0.379218 11.2602 -0.124731 -1.90493 9.25943 -0.122489 
-1.84919 8.8844 -0.123382 -1.77882 8.27927 -0.124741 -1.76045 7.84247 -0.125628 
-1.62927 8.70383 -0.125516 -1.77073 7.3578 -0.126297 -1.7394 6.92945 -0.127401 
-1.57346 7.60638 -0.127884 -1.68442 6.46948 -0.128821 -1.64196 6.05937 -0.130148 
-1.53316 6.65784 -0.130234 -1.61083 5.58915 -0.131486 -1.56268 5.15123 -0.133053 
-1.51398 4.64624 -0.134709 -1.05632 21.2539 -0.117334 -0.8696 21.2037 -0.1174 
-1.08789 4.94409 -0.140265 -0.947059 4.97891 -0.141474 -1.26313 5.38285 -0.13659 
-0.798618 5.07608 -0.142381 -0.648927 5.07791 -0.143307 -0.945616 5.61193 -0.138957 
-0.474423 5.014 -0.144435 -0.305442 4.94605 -0.145198 -0.600073 5.64535 -0.140687 
0.259229 5.06978 -0.143356 0.43584 5.12195 -0.142001 -0.598059 11.1808 -0.12605 
-0.693594 10.4307 -0.126625 -1.57121 10.4441 -0.124563 -0.668435 21.2709 -0.117516 
-0.472934 21.379 -0.117646 -0.78855 21.9141 -0.11887 1.6812 10.2471 -0.103921 
1.77633 27.0597 -0.122572 1.59352 26.9948 -0.123664 1.91106 26.7491 -0.120224 
0.806236 27.2209 -0.129334 0.640389 27.1648 -0.129937 0.593893 26.4234 -0.127615 
-0.135418 10.1496 -0.12425 -0.321401 10.0106 -0.125618 -0.548764 9.76385 -0.127039 
-0.765633 9.61623 -0.127605 -0.870574 8.83324 -0.12889 -0.389372 9.19378 -0.127567 
-2.05136 27.4698 -0.135909 1.79178 20.3492 -0.097168 1.76834 20.7735 -0.0993736 
1.48019 26.4944 -0.122583 1.36352 26.8795 -0.124845 -0.399395 21.8902 -0.118669 
-0.291357 21.2862 -0.117362 -0.118874 21.3336 -0.117217 -1.9687 26.1602 -0.130895 
-1.95376 25.7798 -0.129484 1.56171 20.8606 -0.103129 1.67484 19.9359 -0.0976206 
-0.239235 5.80672 -0.140497 -0.138387 5.16887 -0.144098 1.79062 25.3577 -0.115732 
1.82389 25.83 -0.117279 1.58793 25.1045 -0.116635 1.86658 26.3156 -0.118817 
1.66744 26.1254 -0.119747 1.00948 21.0249 -0.11067 1.16058 21.0394 -0.109047 
-1.7463 25.5352 -0.128797 -1.63926 20.5052 -0.114605 -1.90331 23.6632 -0.122263 
-1.90486 23.2316 -0.12088 -1.71091 22.9136 -0.120383 1.36988 5.32959 -0.129517 
-2.01405 27.0069 -0.134106 1.55809 9.76543 -0.107381 1.50453 10.2667 -0.106474 
1.30156 10.2771 -0.109265 -1.45407 5.72472 -0.133427 -1.24412 21.1595 -0.116918 
-1.18379 21.7505 -0.118276 -1.40973 9.01618 -0.126596 -1.53032 9.79034 -0.125116 
1.18511 26.9072 -0.126089 0.0543055 5.20024 -0.143447 0.606931 5.01809 -0.141229 
0.751657 4.9657 -0.140241 0.572657 5.66374 -0.137818 0.890495 4.82149 -0.139399 
1.01854 4.7307 -0.138341 0.904703 5.41377 -0.13584 1.14258 4.54166 -0.137469 
-1.74017 9.96251 -0.123467 0.208651 10.5739 -0.120414 0.052039 10.4502 -0.122115 
0.024501 9.7407 -0.124042 0.867219 21.1842 -0.112256 -1.94682 10.7341 -0.121318 
-1.93385 10.3201 -0.121588 1.1745 9.71611 -0.112764 1.09625 10.2132 -0.112065 
0.908687 10.2034 -0.114299 1.18838 5.07887 -0.133802 -1.89317 9.67467 -0.122304 
-1.73593 23.8416 -0.123148 -1.99716 26.58 -0.132457 0.169797 5.90082 -0.139104 
-1.54948 24.2621 -0.124704 -1.51224 23.8273 -0.123391 1.43829 26.0077 -0.121084 
-1.80147 26.3972 -0.131885 1.41389 20.4203 -0.104071 1.3848 20.961 -0.106054 
1.53028 19.8463 -0.100139 1.30436 21.4773 -0.108411 1.29293 22.0225 -0.109941 
1.2631 23.8913 -0.115445 1.2841 24.3916 -0.116818 1.22904 5.51835 -0.130883 
-1.42291 21.1174 -0.116507 -1.52162 24.6725 -0.126059 0.961968 27.0915 -0.128054 
1.41416 19.9458 -0.10269 -0.902181 22.6268 -0.120521 -0.694653 22.6964 -0.120673 
-1.28819 5.85454 -0.134836 -1.32181 6.5397 -0.13251 -1.13761 6.19889 -0.135239 
1.4303 25.451 -0.119172 1.24318 25.8218 -0.121851 1.39357 24.9156 -0.11761 
1.02784 26.562 -0.125797 0.226374 25.3689 -0.125835 0.000727696 25.304 -0.126408 
-0.24203 25.335 -0.127154 -0.45088 25.3994 -0.127805 -0.171683 24.6671 -0.125025 
-0.690519 25.6667 -0.129009 -0.851826 25.8724 -0.129861 -0.65255 24.9691 -0.126794 
-1.24282 25.9906 -0.130513 -1.41763 26.0635 -0.130785 0.465934 21.4896 -0.115486 
0.639098 21.4248 -0.114346 0.847155 21.7963 -0.113588 1.28484 6.09879 -0.127008 
1.34502 6.47251 -0.124303 1.10523 5.84897 -0.130916 -0.0265666 21.9548 -0.118178 
0.0688129 21.4911 -0.117047 0.243548 21.5274 -0.116591 1.32702 6.84357 -0.122867 
1.31538 7.41826 -0.12027 1.33239 7.85347 -0.1181 1.14069 7.00678 -0.124571 
1.37391 8.40493 -0.11521 1.41756 8.8231 -0.112908 1.16423 8.13758 -0.119177 
1.50997 9.36718 -0.109535 1.12669 24.7407 -0.119105 -0.62449 7.9883 -0.131388 
-0.873716 7.87619 -0.131161 0.829479 26.1776 -0.125616 0.61909 25.852 -0.125631 
-0.519011 6.30385 -0.137874 -0.32993 6.53129 -0.137029 -0.889856 6.95881 -0.134005 
-1.15151 7.80121 -0.130394 1.0521 25.9926 -0.123699 1.26552 22.6878 -0.111978 
1.2618 23.2333 -0.113546 1.01902 23.5568 -0.116446 0.720598 10.2222 -0.11627 
0.557986 10.2748 -0.117828 0.779404 9.66656 -0.1175 -1.56632 25.7685 -0.129736 
-1.53966 25.3262 -0.128215 0.462546 25.3966 -0.124951 0.305533 24.6627 -0.123466 
0.697205 25.1494 -0.123051 -1.34394 8.40464 -0.1279 1.29343 9.23797 -0.113041 
0.135211 6.63532 -0.135319 0.367525 6.50214 -0.134622 -0.509225 23.2863 -0.121981 
-0.400486 22.5761 -0.120122 1.08651 9.16881 -0.115926 -1.36847 7.00245 -0.1308 
-1.33787 22.2294 -0.1192 -1.14549 22.3258 -0.119667 -1.05363 23.1023 -0.121687 
0.368319 10.454 -0.119144 -1.4976 23.1053 -0.121306 -1.51159 22.6097 -0.119906 
-0.404348 7.40721 -0.133251 -0.114534 6.9049 -0.134984 -0.969606 6.29745 -0.13608 
-1.31273 23.5273 -0.122717 0.561364 6.3082 -0.134208 0.753461 6.20282 -0.133167 
0.948075 5.99427 -0.132094 0.541809 7.04562 -0.130787 -0.394854 8.36598 -0.130006 
-1.61797 21.0035 -0.115772 -0.712252 6.36888 -0.137 0.947815 6.63975 -0.128839 
-1.62488 26.2701 -0.131494 -1.00864 25.8309 -0.12986 -1.12564 25.3994 -0.128499 
-1.35823 7.49163 -0.129826 1.04962 22.2281 -0.112843 -0.611318 24.0526 -0.124105 
-0.849624 24.3246 -0.125076 0.0822477 7.51198 -0.131584 -0.214868 22.4855 -0.119641 
0.964357 8.50977 -0.119934 0.850878 8.98937 -0.119345 0.663543 9.00515 -0.121242 
0.531419 7.78444 -0.127396 0.740305 7.58763 -0.126425 -1.06475 23.8284 -0.123698 
0.913697 15.9534 0.0621127 0.401522 9.86251 -0.120633 -0.0723564 23.9041 -0.122682 
-0.312919 23.9369 -0.123337 0.93044 7.21737 -0.126061 0.928997 7.95439 -0.122676 
0.815891 22.467 -0.115259 -0.93848 15.8943 0.0199537 0.389655 22.0741 -0.116936 
-1.34237 24.9065 -0.126917 -0.0228769 22.6415 -0.119546 0.114639 23.2747 -0.120581 
0.302682 22.7502 -0.118685 0.936774 24.9115 -0.120926 1.04511 25.4342 -0.121883 
0.234066 9.38522 -0.12359 0.0461537 9.08455 -0.125853 0.257751 24.0108 -0.121879 
0.779906 24.4521 -0.12052 0.729775 23.7997 -0.119051 0.491924 24.0401 -0.120946 
0.422774 9.20712 -0.122569 0.839106 15.8348 0.0566231 0.781081 15.8272 0.0510915 
-1.10938 24.7433 -0.12641 0.492714 8.52825 -0.124581 0.0350672 8.25605 -0.128718 
0.298467 7.98397 -0.128364 0.731945 23.1378 -0.117355 -0.172345 8.6106 -0.128497 
0.530478 22.7126 -0.117554 0.718917 15.8159 0.0466068 0.65677 15.8099 0.0452318 
3.95883 32.0891 0.135448 3.62251 32.1197 0.132643 3.76655 32.1274 0.133727 
3.34002 32.077 0.130595 3.48037 32.0852 0.131694 3.56893 31.7888 0.133902 
3.05721 32.0621 0.128365 3.19406 32.0708 0.129446 3.28077 31.748 0.131771 
2.76961 32.0481 0.126092 2.9112 32.0574 0.127204 2.98868 31.7369 0.129456 
2.48189 32.0316 0.123876 2.62027 32.0409 0.124936 2.6933 31.7247 0.127145 
2.18638 32.0024 0.121751 2.33794 32.0124 0.122864 2.4001 31.6979 0.124984 
1.89181 31.9741 0.119758 2.03613 31.9831 0.120754 2.10625 31.659 0.122982 
1.60145 31.9438 0.117959 1.74665 31.9521 0.118887 1.81138 31.6173 0.12112 
1.27154 31.9337 0.115993 1.44267 31.9421 0.116975 1.50823 31.5932 0.119277 
0.952807 31.9154 0.114376 1.11223 31.9217 0.115176 1.19107 31.5791 0.117489 
0.656004 31.9061 0.11303 0.803407 31.9102 0.113685 0.883499 31.5615 0.115991 
0.362391 31.9104 0.111844 0.505946 31.9128 0.11238 0.585276 31.5628 0.114638 
0.0371565 31.9039 0.110833 0.202032 31.9046 0.11133 0.276159 31.5636 0.113457 
-0.258658 31.8998 0.110118 -0.110717 31.8986 0.110467 -0.0307167 31.5526 0.112572 
-0.561016 31.9046 0.109541 -0.413283 31.9017 0.109798 -0.331864 31.5492 0.111869 
-0.861197 31.9158 0.109119 -0.713844 31.9112 0.109297 -0.637979 31.5579 0.111291 
-1.15922 31.9239 0.108907 -1.00825 31.9176 0.109003 -0.936658 31.5666 0.110906 
-1.45288 31.9368 0.108812 -1.3068 31.9294 0.10884 -1.23023 31.5742 0.110693 
-1.75949 31.9558 0.108827 -1.60595 31.9468 0.108793 -1.52993 31.5901 0.110577 
-2.05001 31.9788 0.108923 -1.90568 31.9696 0.108843 -1.82841 31.6144 0.110545 
-2.34082 32.0018 0.109091 -2.19332 31.9918 0.108979 -2.11735 31.6416 0.110588 
-2.62522 32.0142 0.109339 -2.48681 32.0047 0.109221 -2.40635 31.6579 0.110747 
-2.90756 32.0475 0.109497 -2.76186 32.0376 0.109374 -2.68881 31.6846 0.110889 
-3.18993 32.083 0.109621 -3.05303 32.0741 0.109524 -2.9709 31.735 0.11093 
-3.47346 32.1187 0.109692 -3.32907 32.11 0.109626 -3.25557 31.7889 0.110941 
-3.76856 32.1447 0.109722 -3.61649 32.1363 0.109698 -3.53785 31.8337 0.110953 
-4.02802 32.1878 0.109604 -3.89203 32.1807 0.109612 -3.80444 31.8873 0.110865 
-4.0203 31.8211 0.111279 0.411501 0.362017 0.187358 1.31172 1.42756 0.168896 
0.980902 0.989726 0.210384 1.85076 2.21739 0.163024 1.61043 1.84534 0.164283 
1.2912 1.42233 0.173742 2.25435 2.9198 0.16257 2.05466 2.55942 0.162296 
1.7986 2.19735 0.165435 2.59566 3.62864 0.163135 2.43688 3.28448 0.162508 
2.19548 2.92901 0.163874 2.86795 4.30329 0.164281 2.74634 3.98398 0.163484 
2.53341 3.67194 0.16401 3.0899 4.9719 0.165854 2.98258 4.62787 0.164867 
2.79972 4.37032 0.164942 3.25915 5.61821 0.16759 3.18129 5.30666 0.166643 
3.00727 5.04625 0.166303 3.40457 6.3168 0.169565 3.33548 5.96211 0.168474 
3.17525 5.74104 0.167953 3.50083 6.94582 0.171418 3.45485 6.63542 0.170438 
3.30069 6.41744 0.169717 3.58128 7.6114 0.173508 3.54484 7.27108 0.172376 
3.39476 7.07415 0.171599 3.63255 8.25712 0.17562 3.60965 7.93062 0.174504 
3.4667 7.72976 0.173541 3.65679 8.89734 0.177806 3.64526 8.58417 0.176682 
3.50777 8.38604 0.175597 3.6621 9.53386 0.180183 3.66002 9.21886 0.178944 
3.52315 9.04417 0.177795 3.65028 10.1673 0.182833 3.65704 9.85005 0.181433 
3.52042 9.69061 0.180146 3.62225 10.7995 0.185847 3.63729 10.4795 0.184233 
3.50133 10.3268 0.182715 3.58091 11.4529 0.189488 3.6038 11.1294 0.187582 
3.46888 10.9757 0.185686 3.52799 12.0853 0.193592 3.55607 11.773 0.191446 
3.42382 11.6311 0.189137 3.46286 12.7765 0.198799 3.49896 12.4269 0.196036 
3.36767 12.2964 0.193166 3.39229 13.4633 0.204439 3.43039 13.1065 0.20139 
3.3029 12.9695 0.197763 3.32093 14.2028 0.210509 3.35607 13.8377 0.207449 
3.23021 13.6721 0.202909 3.26431 14.9385 0.215747 3.29041 14.566 0.213138 
3.15913 14.4057 0.208111 3.23702 15.656 0.219368 3.24856 15.2955 0.217764 
3.10929 15.1196 0.212529 3.24129 16.3777 0.220863 3.23712 16.0154 0.220484 
3.09141 15.829 0.215608 3.27192 17.1191 0.219802 3.25262 16.7587 0.220683 
3.10257 16.5619 0.21663 3.33004 17.851 0.216737 3.29836 17.4779 0.218669 
3.14322 17.2942 0.215445 3.40152 18.5971 0.212055 3.36185 18.2131 0.214689 
3.20466 18.0094 0.212477 3.4723 19.3041 0.206889 3.43493 18.9587 0.2095 
3.27299 18.7295 0.208184 3.54488 20.0089 0.201639 3.50964 19.6673 0.204219 
3.34626 19.4524 0.203365 3.6127 20.7438 0.196282 3.57689 20.3564 0.199089 
3.417 20.1632 0.198392 3.67184 21.4533 0.191398 3.64526 21.1159 0.193691 
3.48262 20.8845 0.193476 3.72276 22.1386 0.186988 3.7006 21.8016 0.189137 
3.54411 21.6073 0.188807 3.76214 22.8238 0.182795 3.74312 22.4704 0.184918 
3.59294 22.29 0.184599 3.78973 23.4954 0.17885 3.77581 23.1734 0.180688 
3.62671 22.9742 0.18051 3.81638 24.2302 0.17477 3.8037 23.8587 0.176794 
3.65376 23.6899 0.176437 3.83469 24.9166 0.171103 3.82553 24.5762 0.172886 
3.67601 24.4017 0.172554 3.84992 25.6734 0.167191 3.84166 25.2827 0.169174 
3.69141 25.1158 0.168777 3.86997 26.446 0.163365 3.86334 26.0536 0.165311 
3.71103 25.8639 0.164998 3.88206 27.1472 0.159921 3.87711 26.8025 0.161601 
3.73091 26.6019 0.161383 3.89179 27.8947 0.156271 3.88707 27.5322 0.158025 
3.74249 27.3443 0.157739 3.90249 28.6157 0.15278 3.89782 28.252 0.154536 
3.75294 28.0872 0.154123 3.90909 29.3232 0.149312 3.90437 28.975 0.150999 
3.76037 28.804 0.150617 3.9252 30.0371 0.145858 3.91994 29.6881 0.147568 
3.77269 29.5284 0.147104 3.9479 30.7797 0.142242 3.94135 30.3968 0.144159 
3.79944 30.2531 0.143674 0.452804 0.420975 0.152921 -3.97676 31.0921 0.11451 
-3.98462 31.4919 0.112734 -3.89218 31.594 0.112213 -3.98046 30.3421 0.11778 
-3.98687 30.7083 0.116204 -3.86669 30.8812 0.115339 -3.96074 29.6339 0.120745 
-3.96617 29.9828 0.119295 -3.86275 30.1384 0.118543 -3.94733 28.9284 0.123624 
-3.95226 29.2765 0.122219 -3.84029 29.4218 0.121538 -3.93157 28.2002 0.126523 
-3.93669 28.5803 0.125027 -3.82156 28.7164 0.124421 -3.92181 27.4826 0.129317 
-3.92656 27.8284 0.127992 -3.80637 27.9963 0.127304 -3.90591 26.7974 0.131926 
-3.91084 27.1256 0.130698 -3.79086 27.2672 0.130163 -3.89346 26.1002 0.134527 
-3.89973 26.4599 0.133209 -3.77414 26.5721 0.132836 -3.88024 25.3867 0.137137 
-3.88786 25.7449 0.135853 -3.76283 25.8783 0.135455 -3.85756 24.6995 0.139624 
-3.86618 25.0238 0.138476 -3.74361 25.1588 0.138132 -3.83264 23.9553 0.142298 
-3.84566 24.343 0.140932 -3.71789 24.4377 0.140794 -3.8084 23.2739 0.144732 
-3.82275 23.612 0.143547 -3.69624 23.7358 0.14336 -3.77456 22.5842 0.147268 
-3.79236 22.9214 0.146046 -3.67046 23.0377 0.145909 -3.73229 21.884 0.149934 
-3.75515 22.2369 0.148592 -3.63476 22.3354 0.148515 -3.68518 21.2142 0.152621 
-3.71133 21.5513 0.151261 -3.59382 21.6529 0.151099 -3.62477 20.5229 0.155531 
-3.65528 20.8613 0.154105 -3.54231 20.965 0.153829 -3.56063 19.8501 0.158535 
-3.59503 20.1908 0.156983 -3.48136 20.2779 0.156621 -3.48508 19.1135 0.16182 
-3.52561 19.491 0.160066 -3.41507 19.5856 0.159407 -3.41425 18.4202 0.164796 
-3.45106 18.7698 0.163224 -3.34388 18.8831 0.162147 -3.34152 17.6757 0.167428 
-3.37534 18.048 0.166024 -3.26856 18.1698 0.164557 -3.28378 16.9045 0.168936 
-3.30699 17.2819 0.168147 -3.19282 17.4088 0.166187 -3.25715 16.1601 0.16862 
-3.26522 16.5401 0.168834 -3.13966 16.6572 0.166551 -3.26739 15.3844 0.166429 
-3.25756 15.7803 0.167801 -3.12253 15.9206 0.165602 -3.3066 14.6638 0.162854 
-3.28348 15.0207 0.164985 -3.14231 15.1843 0.163056 -3.3756 13.9039 0.158262 
-3.34006 14.2868 0.160832 -3.19594 14.4502 0.159642 -3.45402 13.2038 0.154017 
-3.41818 13.5454 0.156288 -3.27673 13.7203 0.155982 -3.52635 12.5212 0.150204 
-3.49188 12.8556 0.152153 -3.36061 13.0161 0.152446 -3.5877 11.8279 0.147007 
-3.55653 12.1716 0.148611 -3.43111 12.3182 0.149246 -3.63778 11.1112 0.144475 
-3.61191 11.4802 0.14574 -3.48687 11.6186 0.146654 -3.67125 10.4815 0.142826 
-3.65728 10.7856 0.143587 -3.53122 10.9412 0.144747 -3.68689 9.79807 0.141471 
-3.68032 10.1446 0.142154 -3.56024 10.2728 0.143279 -3.68508 9.08143 0.140351 
-3.68962 9.44019 0.140899 -3.57197 9.5706 0.14214 -3.66047 8.46687 0.139631 
-3.67348 8.76431 0.140003 -3.56211 8.88786 0.141311 -3.61782 7.83788 0.139024 
-3.64156 8.14895 0.139347 -3.53111 8.2442 0.140771 -3.55334 7.18634 0.138504 
-3.59176 7.52585 0.138788 -3.48503 7.60495 0.140366 -3.4628 6.56903 0.138254 
-3.50827 6.86396 0.13842 -3.41308 6.96047 0.140197 -3.33518 5.90375 0.138237 
-3.40337 6.24334 0.138294 -3.30699 6.30064 0.140386 -3.18439 5.2692 0.138443 
-3.26361 5.58017 0.138395 -3.17371 5.63791 0.140899 -2.99515 4.63251 0.139222 
-3.09371 4.94598 0.138911 -3.00847 4.97629 0.141805 -2.77511 4.0156 0.140371 
-2.89597 4.33314 0.139775 -2.81386 4.33695 0.143282 -2.47325 3.32428 0.142752 
-2.63771 3.6809 0.141493 -2.57306 3.68501 0.145574 -2.11077 2.63784 0.147075 
-2.29797 2.97837 0.145039 -2.25348 2.98435 0.149941 -1.62861 1.86492 0.154468 
-1.88948 2.2693 0.15161 -1.84788 2.24789 0.157947 -1.02184 1.06305 0.19048 
-1.3385 1.46349 0.165244 -1.32844 1.45708 0.175284 -0.470692 0.408271 0.174016 
-0.221514 0.234196 0.186191 -0.259989 0.248592 0.179496 -0.213563 0.258267 0.185525 
-0.234886 0.262048 0.186517 -0.46739 0.505506 0.21917 -0.187789 0.261231 0.181706 
-0.205547 0.26104 0.183202 -0.429866 0.527633 0.213447 -0.154196 0.247332 0.173335 
-0.168241 0.246581 0.171675 -0.368537 0.515955 0.205412 -0.127704 0.219793 0.150876 
-0.139535 0.217429 0.155433 -0.316091 0.494593 0.197577 -0.108912 0.219111 0.144631 
-0.117719 0.21526 0.144999 -0.272853 0.48449 0.190229 -0.0932763 0.22003 0.145091 
-0.102887 0.216336 0.144684 -0.235203 0.47961 0.183657 -0.0801985 0.225019 0.145533 
-0.0882339 0.221118 0.144945 -0.201834 0.487304 0.18033 -0.0665261 0.229909 0.148256 
-0.0742671 0.226338 0.147092 -0.170341 0.497798 0.178743 -0.0487292 0.231696 0.150044 
-0.0586074 0.229177 0.148764 -0.13611 0.505378 0.178049 -0.0314219 0.234233 0.150347 
-0.0402769 0.231577 0.148288 -0.101245 0.510864 0.177338 -0.0142961 0.224864 0.148413 
-0.0222567 0.221963 0.146414 -0.0646738 0.50248 0.177918 0.00285051 0.221971 0.148276 
-0.00620199 0.219775 0.147555 -0.0300577 0.488156 0.178627 0.0187709 0.218482 0.146144 
0.0102098 0.215915 0.146317 0.00176378 0.480785 0.17988 0.0340319 0.219919 0.146634 
0.025946 0.218069 0.146487 0.0327129 0.478303 0.180592 0.0480153 0.218289 0.146316 
0.040558 0.216747 0.145899 0.0644392 0.478804 0.180243 0.0637464 0.222782 0.148036 
0.0560182 0.222264 0.147426 0.09759 0.482891 0.179167 0.0798241 0.224456 0.148328 
0.0721031 0.224091 0.148338 0.13303 0.490952 0.177713 0.0956598 0.219583 0.148308 
0.0863825 0.219505 0.147945 0.167527 0.487376 0.17826 0.110965 0.214223 0.146135 
0.101501 0.214165 0.146495 0.199135 0.475389 0.178547 0.1296 0.215433 0.146917 
0.119991 0.216194 0.147081 0.23434 0.471006 0.179331 0.150403 0.219069 0.147788 
0.140623 0.21974 0.147984 0.277314 0.478284 0.179373 0.173824 0.22435 0.149701 
0.163152 0.22524 0.149959 0.32675 0.49066 0.179515 0.198508 0.228202 0.152774 
0.184487 0.227864 0.152372 0.380951 0.502415 0.1817 0.211041 0.213382 0.156659 
0.191216 0.211611 0.151891 0.421505 0.488912 0.186898 0.220834 0.191074 0.169588 
0.194829 0.19301 0.149521 0.437719 0.451355 0.193277 0.673608 0.690234 0.187167 
1.15502 16.295 0.204053 1.04414 16.2479 0.207556 0.941033 16.218 0.200345 
0.851394 16.2049 0.196735 1.11997 16.5508 0.225765 0.762671 16.2066 0.195278 
0.678147 16.1987 0.19186 0.886714 16.524 0.223131 0.590377 16.2056 0.190472 
0.506285 16.1982 0.187487 0.68618 16.5235 0.216042 0.421538 16.1933 0.184372 
0.334171 16.1869 0.182678 0.494902 16.5129 0.210194 0.250697 16.1728 0.177182 
0.169589 16.1683 0.175668 0.311433 16.4845 0.206797 0.0911378 16.1729 0.172772 
0.0128157 16.1681 0.17092 0.136112 16.468 0.203636 -0.0647409 16.183 0.169324 
-0.140455 16.1828 0.168787 -0.0328506 16.4795 0.201535 -0.221145 16.1902 0.168538 
-0.300839 16.1875 0.16661 -0.201664 16.4938 0.200346 -0.381015 16.1907 0.16619 
-0.459023 16.1897 0.164606 -0.374529 16.4968 0.199248 -0.539156 16.2013 0.167422 
-0.623627 16.2018 0.166454 -0.548623 16.5045 0.198211 -0.703786 16.2153 0.169295 
-0.780868 16.2181 0.170253 -0.727996 16.5241 0.198161 -0.86828 16.248 0.181024 
-0.957253 16.2542 0.180261 -0.918899 16.554 0.201237 -1.06844 16.2671 0.177954 
-1.18272 16.3334 0.178005 -1.14679 16.5935 0.195131 -1.12698 16.0685 0.076762 
-1.1127 15.7979 0.0702631 -1.18179 15.5073 0.158824 -1.05002 15.5674 0.159556 
-0.950731 15.5603 0.164618 -0.864324 15.5535 0.163693 -1.14755 15.2005 0.166147 
-0.778511 15.5546 0.16472 -0.698591 15.5463 0.165949 -0.921554 15.1974 0.168004 
-0.617269 15.5403 0.169179 -0.53478 15.5178 0.162722 -0.732799 15.1914 0.174715 
-0.453886 15.5125 0.165209 -0.375799 15.5043 0.166465 -0.551763 15.1956 0.18925 
-0.297061 15.5051 0.167499 -0.213475 15.4997 0.167684 -0.372534 15.1794 0.194021 
-0.12434 15.5015 0.166393 -0.0430492 15.4932 0.171134 -0.191973 15.1793 0.197779 
0.0385062 15.5061 0.168959 0.118922 15.5031 0.170079 -0.0125054 15.193 0.20072 
0.205723 15.4994 0.172452 0.293468 15.4986 0.174428 0.165903 15.1941 0.203818 
0.374029 15.5086 0.172914 0.450065 15.5088 0.175107 0.344532 15.191 0.206624 
0.532627 15.5104 0.176933 0.606813 15.5116 0.179789 0.521319 15.1936 0.20879 
0.684214 15.5311 0.181589 0.760304 15.532 0.184893 0.700681 15.2064 0.212449 
0.850574 15.5337 0.190437 0.936003 15.5328 0.192776 0.894654 15.2156 0.215385 
1.04976 15.5341 0.190853 1.17517 15.4833 0.1813 1.14389 15.193 0.211399 
1.17655 15.7757 0.115964 1.18288 16.067 0.120727 3.90339 31.7849 0.136607 
-1.40742 15.5369 0.119773 -1.32107 15.398 0.113847 -1.44453 15.1352 0.144567 
3.98204 31.5147 0.138664 3.97435 31.1148 0.140724 3.84194 30.9479 0.140468 
-0.506887 0.487303 0.185682 -0.720745 0.726816 0.204184 1.30696 16.4211 0.158901 
1.40684 16.6802 0.19844 -1.41253 16.6935 0.167027 -1.30401 16.4298 0.127536 
-1.39727 16.3864 0.123279 1.44197 16.3776 0.16574 1.47049 15.0354 0.181005 
1.36052 15.3304 0.156212 1.51018 15.4391 0.157897 3.78971 31.5531 0.136896 
3.21932 31.3907 0.133074 3.36536 31.3971 0.134237 3.50763 31.4543 0.135101 
3.64978 31.4887 0.13608 3.72872 31.2189 0.138124 3.44677 31.0974 0.136419 
2.62111 31.4015 0.128224 2.77041 31.409 0.129373 2.32697 31.3494 0.126231 
2.47068 31.3689 0.127233 2.54887 31.0532 0.129451 2.03187 31.2948 0.124355 
2.18164 31.3144 0.125346 2.25347 30.9853 0.127574 1.73417 31.256 0.122524 
1.87866 31.2783 0.12339 1.95545 30.9334 0.125716 1.42569 31.2297 0.120726 
1.58366 31.2317 0.121691 1.65231 30.8923 0.123915 1.10864 31.2022 0.119083 
1.26687 31.2145 0.119887 1.34373 30.8524 0.122253 0.80865 31.1821 0.117689 
0.956885 31.1876 0.118382 1.034 30.8223 0.120727 0.507626 31.1626 0.116492 
0.656432 31.156 0.11716 0.730982 30.7814 0.119494 0.198081 31.1581 0.115392 
0.357009 31.164 0.115924 0.429245 30.7565 0.118375 -0.101942 31.172 0.114432 
0.0446307 31.1772 0.114821 0.126294 30.7769 0.117209 -0.408954 31.1702 0.113739 
-0.25567 31.1682 0.114083 -0.179835 30.7922 0.116261 -0.71456 31.1804 0.113177 
-0.563004 31.1736 0.113445 -0.486553 30.792 0.115588 -1.00967 31.193 0.112788 
-0.863712 31.1909 0.112941 -0.788739 30.8062 0.115028 -1.30468 31.203 0.112561 
-1.15809 31.1972 0.11266 -1.08541 30.8212 0.114631 -1.59991 31.2149 0.112458 
-1.44771 31.2045 0.112512 -1.37608 30.8273 0.114424 -1.89488 31.2463 0.112368 
-1.74934 31.2322 0.112381 -1.66786 30.8464 0.114268 -2.18369 31.2708 0.112392 
-2.04085 31.2574 0.112365 -1.96267 30.8752 0.114167 -2.47851 31.3036 0.11244 
-2.33273 31.3004 0.112339 -2.25718 30.9164 0.114089 -2.75471 31.3583 0.112413 
-2.61822 31.3346 0.112397 -2.54551 30.9774 0.113973 -3.04544 31.413 0.112407 
-2.89999 31.386 0.112403 -2.83023 31.0365 0.113904 -3.32642 31.4809 0.112331 
-3.18723 31.4537 0.112339 -3.11706 31.1052 0.113807 -3.60907 31.5434 0.112249 
-3.46593 31.5257 0.11223 -3.39816 31.191 0.113636 2.13049 2.95641 0.16552 
1.93938 2.57071 0.165869 -3.77139 30.6125 0.116426 -3.76103 30.996 0.114745 
-1.33753 14.8099 0.154614 -1.20136 14.8258 0.158301 1.73085 2.18709 0.167484 
1.51513 1.82758 0.169141 1.68711 2.24001 0.167381 1.26788 1.44773 0.172803 
0.96101 1.03635 0.177922 0.721037 0.777264 0.177882 1.23492 1.48299 0.170463 
2.46112 3.71797 0.165222 2.30545 3.34401 0.164944 2.0716 3.01594 0.165192 
2.71946 4.43016 0.165796 2.6026 4.08962 0.165244 2.38935 3.78417 0.165131 
2.91717 5.14064 0.166948 2.82441 4.78962 0.166195 2.63667 4.52628 0.165836 
3.07032 5.84759 0.16837 2.99381 5.48839 0.167518 2.81781 5.24589 0.166937 
3.17691 6.52838 0.169955 3.12649 6.19629 0.169073 2.95047 5.95515 0.168377 
3.26541 7.20294 0.171727 3.22161 6.86537 0.170707 3.05069 6.65336 0.169982 
3.33972 7.86285 0.173638 3.31137 7.53287 0.172627 3.14086 7.3317 0.171721 
3.37707 8.53294 0.175657 3.36458 8.19603 0.174592 3.21163 8.00436 0.173561 
3.38085 9.18154 0.177723 3.37789 8.85104 0.176563 3.23688 8.66407 0.175498 
3.37076 9.8398 0.180036 3.37636 9.51557 0.178787 3.23342 9.32421 0.177535 
3.34476 10.4898 0.182546 3.35851 10.1706 0.181188 3.21663 9.99626 0.179774 
3.30366 11.1562 0.185409 3.32318 10.8203 0.183799 3.18253 10.6635 0.182166 
3.25311 11.8179 0.188627 3.27945 11.4937 0.186888 3.13632 11.336 0.184818 
3.19902 12.4988 0.192452 3.23036 12.1548 0.190367 3.08825 12.0133 0.187855 
3.13944 13.164 0.196637 3.17454 12.8342 0.194501 3.03881 12.6865 0.191289 
3.05757 13.8913 0.201067 3.09726 13.5199 0.198624 2.96886 13.3763 0.194913 
2.97998 14.5933 0.204884 3.01418 14.2354 0.202844 2.87828 14.073 0.198333 
2.94212 15.3026 0.208692 2.96051 14.9518 0.206917 2.80869 14.7716 0.201831 
2.93744 16.0063 0.211274 2.93814 15.6536 0.210189 2.7808 15.4785 0.205256 
2.95351 16.7435 0.211886 2.94089 16.3698 0.211861 2.7793 16.1906 0.207517 
3.00378 17.4514 0.210837 2.97496 17.0992 0.211707 2.80726 16.9068 0.207874 
3.06974 18.1655 0.20818 3.03539 17.8084 0.209861 2.86509 17.6151 0.206847 
3.12903 18.8755 0.20417 3.09343 18.517 0.206312 2.92514 18.319 0.204101 
3.20403 19.5948 0.199797 3.16523 19.233 0.202064 2.98856 19.0234 0.200457 
3.28534 20.3003 0.195448 3.25259 19.9523 0.197754 3.07488 19.7351 0.196626 
3.35806 21.0387 0.190816 3.32502 20.6647 0.193204 3.16347 20.4558 0.192552 
3.41773 21.7554 0.18641 3.389 21.4048 0.188536 3.23396 21.1867 0.188182 
3.45648 22.4295 0.182319 3.43636 22.0952 0.184295 3.28302 21.8938 0.183935 
3.47979 23.1334 0.178139 3.46651 22.781 0.180166 3.31117 22.5867 0.179802 
3.50221 23.8657 0.174026 3.48894 23.4997 0.176005 3.32961 23.3066 0.175641 
3.51819 24.5691 0.17023 3.50965 24.2209 0.17206 3.34531 24.0304 0.171648 
3.53605 25.3031 0.166436 3.52979 24.935 0.168324 3.36357 24.7537 0.167847 
3.55816 26.0506 0.162731 3.54534 25.6687 0.164582 3.38369 25.4871 0.164138 
3.57286 26.7808 0.159136 3.56624 26.4232 0.160876 3.4004 26.2268 0.160469 
3.57904 27.5388 0.155384 3.57459 27.1529 0.157265 3.40958 26.9729 0.156777 
3.59975 28.2786 0.151872 3.59418 27.9209 0.153596 3.42584 27.7282 0.15314 
3.60907 29.013 0.148294 3.60756 28.6534 0.150062 3.4483 28.486 0.149555 
3.62802 29.7665 0.144679 3.61742 29.4015 0.146408 3.46405 29.2498 0.145879 
3.66241 30.5113 0.141193 3.64634 30.1515 0.142879 3.49049 30.0237 0.142217 
-1.6186 14.8126 0.138625 -1.47643 14.8054 0.151001 1.58303 17.0487 0.19029 
1.44782 16.9949 0.199231 3.70225 30.8838 0.13962 -3.73511 29.9342 0.119297 
-3.74916 30.2934 0.117781 -3.6433 30.4077 0.11721 -3.70817 29.2376 0.122204 
-3.71635 29.5949 0.120724 -3.60253 29.7491 0.119998 -3.68703 28.5264 0.125121 
-3.69732 28.8747 0.123712 -3.57322 29.0466 0.122939 -3.66658 27.785 0.128109 
-3.67117 28.157 0.126632 -3.5469 28.314 0.12596 -3.64243 27.047 0.131031 
-3.653 27.4046 0.129641 -3.51791 27.5635 0.129008 -3.62964 26.3638 0.13369 
-3.63546 26.7022 0.1324 -3.4978 26.8375 0.131911 -3.61423 25.6465 0.136437 
-3.61947 26.003 0.135101 -3.48111 26.1309 0.134692 -3.5887 24.9065 0.139241 
-3.60251 25.271 0.137886 -3.45966 25.3931 0.137563 -3.56713 24.1978 0.141892 
-3.57896 24.5563 0.140579 -3.43848 24.6658 0.140358 -3.54836 23.5042 0.144457 
-3.55813 23.8496 0.14321 -3.42004 23.9656 0.14301 -3.51904 22.8012 0.147061 
-3.53519 23.1562 0.145772 -3.39811 23.2676 0.145627 -3.48436 22.0917 0.149697 
-3.5042 22.4415 0.148416 -3.3703 22.5579 0.148267 -3.44419 21.4199 0.152259 
-3.46569 21.7549 0.150988 -3.33662 21.8597 0.150843 -3.39052 20.7107 0.154947 
-3.42134 21.0657 0.153569 -3.29491 21.1673 0.153379 -3.3328 20.0415 0.157486 
-3.36364 20.3749 0.156202 -3.24441 20.4765 0.155859 -3.26422 19.3263 0.160097 
-3.30077 19.6856 0.158765 -3.18454 19.785 0.158266 -3.19861 18.6462 0.162323 
-3.23412 18.9884 0.161182 -3.12061 19.0925 0.160402 -3.12497 17.9252 0.164092 
-3.16531 18.2938 0.163213 -3.05495 18.4048 0.162102 -3.04295 17.1577 0.164727 
-3.07814 17.5455 0.164421 -2.972 17.6762 0.162994 -2.98995 16.4492 0.164013 
-3.00819 16.8069 0.164369 -2.88803 16.9498 0.162678 -2.99159 15.7079 0.162471 
-2.9891 16.0807 0.163402 -2.85045 16.2343 0.16161 -3.01844 14.966 0.159822 
-2.99898 15.3233 0.161285 -2.85865 15.4838 0.159546 -3.07344 14.2414 0.156676 
-3.0357 14.612 0.158347 -2.88945 14.7483 0.156697 -3.17183 13.527 0.153843 
-3.12621 13.8812 0.155492 -2.96599 14.0388 0.154334 -3.25892 12.8223 0.151061 
-3.21887 13.1692 0.152589 -3.07032 13.3251 0.152216 -3.31486 12.1213 0.148555 
-3.28333 12.4723 0.149868 -3.14452 12.6191 0.15004 -3.36969 11.4192 0.146561 
-3.34495 11.7705 0.147588 -3.20054 11.9174 0.14819 -3.41299 10.7499 0.145041 
-3.39308 11.0805 0.145797 -3.25428 11.2255 0.146695 -3.43914 10.066 0.143858 
-3.43044 10.4096 0.144461 -3.29495 10.5421 0.145475 -3.44568 9.34486 0.142945 
-3.44359 9.71083 0.143426 -3.31637 9.84068 0.144538 -3.42913 8.68045 0.142386 
-3.44119 9.00583 0.142644 -3.31545 9.13926 0.143909 -3.39513 8.01924 0.142026 
-3.41509 8.34611 0.142225 -3.29624 8.458 0.143499 -3.34159 7.38149 0.141888 
-3.36881 7.70329 0.141996 -3.25466 7.79938 0.143411 -3.25281 6.70364 0.142111 
-3.29937 7.03735 0.142038 -3.1854 7.12981 0.143638 -3.13854 6.03277 0.142784 
-3.20064 6.37114 0.142466 -3.08913 6.44231 0.144251 -2.99719 5.35616 0.143766 
-3.07154 5.69371 0.143287 -2.96822 5.75963 0.145275 -2.81728 4.66448 0.145564 
-2.91268 5.00319 0.144678 -2.81458 5.05571 0.146993 -2.61831 4.0296 0.147741 
-2.72275 4.34533 0.14671 -2.63076 4.37066 0.149432 -2.36335 3.35991 0.15125 
-2.50802 3.71377 0.149355 -2.42138 3.72225 0.15272 -2.02256 2.64287 0.15758 
-2.20666 3.00802 0.154185 -2.15089 3.04244 0.157787 -1.57824 1.88352 0.169816 
-1.81196 2.27048 0.163123 -1.77943 2.31166 0.167134 -1.00388 1.07397 0.195418 
-1.30389 1.47522 0.177919 -1.29798 1.5377 0.183346 -0.750667 0.807642 0.205009 
-1.47637 17.0588 0.170264 -1.59519 17.0855 0.161167 -0.539979 0.798026 0.193539 
-0.590106 0.818258 0.199017 -0.676014 0.872546 0.199431 -0.729129 0.884429 0.202853 
-0.861245 1.17543 0.194413 -0.718213 0.811023 0.202333 -0.473944 0.809547 0.183025 
-0.512237 0.814804 0.188556 -0.715075 1.12492 0.188874 -0.410092 0.806271 0.174993 
-0.444651 0.812446 0.178868 -0.625993 1.13761 0.179243 -0.347207 0.799536 0.17059 
-0.378661 0.800331 0.173804 -0.534655 1.12471 0.172075 -0.290851 0.80086 0.168152 
-0.318187 0.796927 0.169693 -0.446346 1.10833 0.167507 -0.241262 0.816408 0.16668 
-0.269306 0.811539 0.167698 -0.37116 1.11243 0.165129 -0.188834 0.825503 0.16556 
-0.218899 0.823846 0.166553 -0.303807 1.12806 0.164059 -0.136229 0.836927 0.165532 
-0.16667 0.835064 0.16599 -0.235167 1.14332 0.163448 -0.0826972 0.82004 0.16606 
-0.112918 0.833776 0.166378 -0.164815 1.14727 0.163443 -0.0307942 0.805352 0.166739 
-0.0592307 0.809711 0.166981 -0.0946861 1.13016 0.164018 0.0171811 0.78916 0.167705 
-0.0096327 0.795164 0.167781 -0.0268853 1.1067 0.164582 0.0652505 0.793938 0.167911 
0.0380832 0.792635 0.168161 0.0373786 1.09745 0.165169 0.113423 0.791513 0.167763 
0.0867933 0.793623 0.16815 0.102437 1.09897 0.165328 0.166689 0.810028 0.166869 
0.137406 0.803461 0.167413 0.170139 1.10984 0.165118 0.221286 0.823328 0.166391 
0.190924 0.820995 0.166581 0.241076 1.1336 0.164612 0.269748 0.802354 0.166554 
0.241098 0.80808 0.166554 0.309674 1.12953 0.164383 0.318865 0.783213 0.166978 
0.289919 0.78968 0.166779 0.374757 1.1017 0.164448 0.374939 0.77866 0.167477 
0.340867 0.775222 0.167108 0.44318 1.08201 0.164805 0.441872 0.791005 0.167792 
0.40461 0.783772 0.167319 0.521978 1.08167 0.164996 0.534965 0.83493 0.168385 
0.491199 0.822111 0.167497 0.630676 1.12376 0.165327 0.628366 0.864935 0.170471 
0.58061 0.851848 0.168803 0.762131 1.18375 0.166548 0.690663 0.834183 0.174083 
0.651793 0.839419 0.171548 0.874225 1.19402 0.168745 1.69178 16.3665 0.175825 
1.71283 16.7841 0.180162 1.30548 16.9506 0.205075 1.16547 16.9158 0.210354 
1.46888 17.3298 0.196647 -1.6396 16.6943 0.144456 -1.5749 16.2948 0.128074 
1.03888 16.903 0.206854 0.919003 16.8946 0.205447 1.19158 17.2811 0.200721 
0.806707 16.8965 0.201939 0.694468 16.8978 0.199794 0.931069 17.2679 0.197641 
0.591656 16.8802 0.198273 0.486912 16.8697 0.196918 0.694304 17.2488 0.194125 
0.388928 16.8503 0.194983 0.289185 16.8302 0.194165 0.474176 17.2082 0.191554 
0.197019 16.8154 0.192718 0.10356 16.8178 0.192144 0.265845 17.1717 0.189565 
0.013285 16.817 0.191153 -0.0764969 16.8266 0.191241 0.0679761 17.1557 0.188071 
-0.166193 16.8338 0.190403 -0.261024 16.8396 0.190866 -0.126898 17.1638 0.187548 
-0.346852 16.8426 0.18974 -0.442547 16.8429 0.190235 -0.318499 17.1769 0.187416 
-0.538731 16.8446 0.188773 -0.637586 16.8566 0.189295 -0.518274 17.185 0.18693 
-0.735495 16.8689 0.188053 -0.841044 16.885 0.189661 -0.732084 17.2049 0.185792 
-0.946769 16.9017 0.187629 -1.06009 16.9192 0.186647 -0.956862 17.2436 0.184366 
-1.19512 16.9673 0.185641 -1.33301 17.0104 0.17723 -1.49646 17.4065 0.17051 
-1.21384 17.3155 0.18082 1.49348 14.7104 0.183316 1.64907 14.6669 0.175997 
1.78664 15.1349 0.172775 1.74406 15.6077 0.174348 -1.08661 14.8117 0.1563 
-0.968356 14.8211 0.162204 -1.24144 14.4488 0.156848 -0.860645 14.8082 0.163419 
-0.758057 14.8073 0.169049 -0.996934 14.4273 0.161091 -0.64973 14.8065 0.17205 
-0.545771 14.8002 0.175147 -0.757588 14.4163 0.165705 -0.447865 14.8023 0.177908 
-0.352204 14.8026 0.179827 -0.532665 14.4208 0.171688 -0.257719 14.7975 0.182555 
-0.155006 14.8013 0.184882 -0.323502 14.4219 0.177471 -0.0629258 14.8087 0.189258 
0.0334172 14.8209 0.190868 -0.117915 14.4306 0.183503 0.133375 14.8162 0.193645 
0.235352 14.8068 0.194536 0.0933691 14.4377 0.188985 0.327852 14.8074 0.196714 
0.424437 14.8142 0.197308 0.305618 14.4349 0.192503 0.520902 14.8175 0.198863 
0.622796 14.8129 0.199681 0.514047 14.4387 0.195004 0.715689 14.824 0.200938 
0.817354 14.8383 0.20137 0.723721 14.4515 0.196673 0.930995 14.8367 0.201694 
1.05602 14.8215 0.200524 0.951633 14.4577 0.197155 1.18695 14.8095 0.197887 
1.34182 14.771 0.192144 1.21837 14.4376 0.193449 -1.57654 15.8485 0.127574 
-1.65902 15.4138 0.130159 2.92243 31.3993 0.130628 3.06849 31.4042 0.131793 
3.15389 31.0536 0.134247 2.85113 31.0765 0.131701 -3.7687 31.5581 0.112297 
-3.60147 30.9813 0.114692 -3.69719 31.2505 0.11359 1.51048 14.3696 0.183782 
1.72635 17.108 0.18596 1.74945 17.4248 0.190809 -1.50477 14.4661 0.149775 
3.54866 30.7816 0.138863 -1.77917 14.7469 0.138124 -1.79262 14.4061 0.144643 
-1.77273 16.1693 0.140813 1.89435 17.1347 0.186704 -1.82099 15.0173 0.138014 
-1.99883 14.6283 0.142628 -1.92852 15.3162 0.140713 -0.990619 1.18761 0.19553 
-1.76435 17.4403 0.16066 -1.71781 17.0853 0.153751 -1.83847 17.0177 0.150016 
0.687783 0.778435 0.176791 0.946206 1.14176 0.171386 1.78847 16.0143 0.178298 
1.96936 16.4424 0.186847 2.00997 15.6943 0.184606 1.79132 14.2534 0.178746 
1.78985 14.6014 0.175133 1.88609 14.7356 0.176727 2.055 14.8828 0.181269 
2.02761 14.331 0.180007 1.8864 30.5541 0.127208 2.03906 30.571 0.12818 
2.48875 30.6778 0.1309 2.6388 30.7108 0.13189 1.57949 30.5172 0.125416 
1.72935 30.5418 0.126249 1.81413 30.1789 0.128663 1.2617 30.4783 0.123754 
1.41974 30.4939 0.124581 1.49789 30.1428 0.12686 0.958387 30.4196 0.122473 
1.10926 30.4344 0.123162 1.18632 30.0752 0.125438 0.656493 30.3665 0.12135 
0.807706 30.3928 0.121892 0.883956 30.0041 0.124275 0.354363 30.3568 0.120197 
0.503963 30.3555 0.120787 0.58151 29.9661 0.123127 0.0563835 30.3741 0.119109 
0.208772 30.3551 0.119705 0.284141 29.9533 0.122054 -0.255564 30.3787 0.118236 
-0.102881 30.3824 0.118615 -0.0198998 29.9597 0.121039 -0.561683 30.3887 0.117538 
-0.408646 30.3851 0.117862 -0.331418 29.9745 0.120147 -0.864548 30.4087 0.116964 
-0.716336 30.3979 0.117233 -0.638368 29.9903 0.119439 -1.15818 30.4199 0.116597 
-1.01059 30.4154 0.11676 -0.938324 30.0065 0.118902 -1.44746 30.4407 0.116311 
-1.30511 30.4388 0.116395 -1.23062 30.0326 0.118463 -1.74437 30.4639 0.116124 
-1.59561 30.4463 0.116229 -1.52511 30.0576 0.118148 -2.03829 30.4864 0.116032 
-1.89285 30.4749 0.116059 -1.8212 30.0747 0.117978 -2.32926 30.5464 0.115835 
-2.1807 30.5165 0.115915 -2.11155 30.1162 0.117777 -2.61941 30.6179 0.115645 
-2.48006 30.5865 0.115709 -2.40428 30.1869 0.117512 -2.91375 30.6873 0.115509 
-2.76877 30.6593 0.115536 -2.70397 30.2689 0.117256 -3.20153 30.7786 0.115293 
-3.06 30.7376 0.115376 -2.99912 30.361 0.116998 -3.47889 30.8913 0.114995 
-3.33959 30.8463 0.11509 -3.28298 30.4793 0.116651 -3.54321 30.6371 0.116142 
1.80645 13.9433 0.180404 1.94391 13.8862 0.179982 2.07955 17.1703 0.190323 
2.06367 17.5171 0.191496 2.31367 3.86293 0.165503 2.17014 3.48294 0.165235 
1.51124 14.0254 0.186034 1.65652 13.9907 0.181938 1.7999 13.6078 0.181368 
1.99721 3.0686 0.165542 1.81972 2.67599 0.165693 1.93875 3.16094 0.164981 
1.18661 1.50376 0.168996 -1.65508 14.1034 0.14976 -1.51867 14.0777 0.153006 
2.70078 5.35169 0.167098 2.62397 4.99157 0.166481 2.81662 6.08724 0.168411 
2.76071 5.7259 0.167583 2.57439 5.48481 0.166979 2.9102 6.79419 0.169965 
2.86602 6.44595 0.169067 2.68139 6.22799 0.168339 3.00674 7.48027 0.171692 
2.96088 7.14045 0.170728 2.7798 6.94228 0.169911 3.09525 8.14498 0.173601 
3.07032 7.80298 0.172617 2.89315 7.61924 0.171646 3.0774 8.78306 0.175259 
3.07628 8.4567 0.174277 2.93783 8.25904 0.173305 3.06764 9.464 0.177267 
3.07171 9.12209 0.176164 2.91378 8.91794 0.174971 3.04763 10.1602 0.179468 
3.05976 9.82275 0.178311 2.90117 9.62339 0.176954 3.0135 10.8357 0.181737 
3.03511 10.5 0.180531 2.88129 10.3285 0.179052 2.96547 11.5241 0.184197 
2.98993 11.183 0.18287 2.846 11.0205 0.181176 2.90719 12.2165 0.186826 
2.93109 11.8777 0.185354 2.78859 11.7246 0.183308 2.85026 12.9135 0.189799 
2.87728 12.5784 0.188198 2.72381 12.4411 0.185538 2.81244 13.5829 0.193394 
2.85785 13.2294 0.191782 2.69758 13.1175 0.188367 2.69239 14.2499 0.195183 
2.7412 13.9101 0.193926 2.63003 13.7582 0.19055 2.59045 15.6759 0.200897 
2.59679 15.3263 0.199491 2.61345 17.0657 0.202911 2.58686 16.7138 0.202671 
2.77562 18.4435 0.200383 2.74814 18.0967 0.201889 2.84715 19.1579 0.197014 
2.80912 18.8045 0.198763 2.63605 18.5812 0.196896 2.94303 19.8702 0.193555 
2.89426 19.5149 0.19537 2.71901 19.2943 0.193965 3.03753 20.5966 0.189787 
2.99812 20.2326 0.191849 2.82086 20.0112 0.190782 3.10246 21.3304 0.185611 
3.07188 20.9635 0.187725 2.9094 20.7399 0.187125 3.13496 22.0302 0.181421 
3.11684 21.689 0.183408 2.95716 21.4657 0.182988 3.15091 22.7448 0.177183 
3.14166 22.3913 0.179226 2.97711 22.1865 0.178732 3.16787 23.4687 0.173138 
3.15951 23.1002 0.175168 2.99103 22.9048 0.17464 3.18544 24.2015 0.169227 
3.17873 23.8442 0.17112 3.00938 23.6377 0.17069 3.20609 24.9245 0.165536 
3.19516 24.5565 0.167382 3.02888 24.3702 0.166899 3.22457 25.6652 0.16184 
3.21588 25.2979 0.163651 3.04759 25.1005 0.163228 3.24025 26.4169 0.158149 
3.23272 26.0428 0.159966 3.06479 25.8532 0.159516 3.24903 27.1653 0.15447 
3.24784 26.7919 0.156314 3.07986 26.6074 0.155844 3.27303 27.9231 0.150897 
3.25833 27.54 0.152669 3.09618 27.3585 0.152236 3.29454 28.6858 0.147285 
3.28711 28.3103 0.149079 3.11905 28.1215 0.148637 3.31456 29.4863 0.143455 
3.30647 29.0973 0.145321 3.14462 28.921 0.144874 3.34073 30.3301 0.139432 
3.32243 29.9447 0.141213 3.16406 29.7916 0.140687 -1.9708 16.4972 0.147188 
-1.97752 16.0654 0.145304 -1.92352 14.0941 0.145656 -1.76918 14.15 0.147209 
-1.77683 13.7735 0.150078 -3.4325 28.8967 0.123495 -3.44307 29.26 0.121982 
3.40671 30.7245 0.137976 -3.39264 28.1319 0.126669 -3.40815 28.502 0.125153 
-3.2777 28.7141 0.124227 -3.36159 27.3557 0.129852 -3.37478 27.737 0.128313 
-3.2359 27.9235 0.127538 -3.34405 26.6489 0.132711 -3.35063 26.9947 0.131339 
-3.20754 27.1664 0.130675 -3.32256 25.9186 0.135626 -3.33236 26.2808 0.134206 
-3.18538 26.4361 0.133665 -3.2983 25.1626 0.13861 -3.30967 25.5397 0.137147 
-3.16134 25.6875 0.136694 -3.28084 24.4344 0.141438 -3.29033 24.7863 0.140095 
-3.14105 24.9306 0.139715 -3.26608 23.7444 0.144073 -3.2748 24.0944 0.142759 
-3.12748 24.2128 0.142527 -3.24419 23.0385 0.146733 -3.25718 23.3883 0.145432 
-3.11317 23.5151 0.145208 -3.21606 22.3189 0.149401 -3.23081 22.6805 0.148075 
-3.09148 22.7993 0.147906 -3.1836 21.6411 0.151861 -3.20224 21.9793 0.150637 
-3.06479 22.1004 0.150469 -3.13852 20.9305 0.154367 -3.16166 21.2857 0.153105 
-3.02974 21.4044 0.152922 -3.08122 20.2207 0.156785 -3.10872 20.5565 0.15562 
-2.97852 20.6748 0.155349 -3.01574 19.5174 0.15888 -3.04899 19.8722 0.157799 
-2.916 19.9534 0.157504 -2.96602 18.8427 0.160572 -2.99765 19.1785 0.159742 
-2.86413 19.2684 0.159208 -2.90706 18.1705 0.1617 -2.94227 18.5198 0.16118 
-2.81979 18.6096 0.160404 -2.83262 17.4745 0.161905 -2.88177 17.85 0.16199 
-2.76731 17.9697 0.160889 -2.68922 16.778 0.159925 -2.72767 17.1246 0.160712 
-2.63269 17.3022 0.159708 -2.6904 16.0107 0.158358 -2.69058 16.3765 0.159153 
-2.51781 16.5552 0.157452 -2.73217 15.2824 0.156519 -2.72161 15.6644 0.15787 
-2.55158 15.8066 0.155655 -2.71517 14.5726 0.153423 -2.69156 14.9231 0.154601 
-2.54564 15.1002 0.153137 -2.84866 13.8093 0.152167 -2.79085 14.164 0.153002 
-2.59315 14.3352 0.150765 -2.98107 13.1238 0.150891 -2.93157 13.4784 0.151905 
-2.76023 13.6028 0.150675 -3.01942 12.4394 0.149333 -2.99345 12.7895 0.150188 
-2.85791 12.9402 0.149978 -3.07876 11.7469 0.14805 -3.04819 12.0993 0.148751 
-2.90093 12.2665 0.149013 -3.12909 11.0514 0.146954 -3.10576 11.3935 0.14754 
-2.95718 11.5719 0.148184 -3.16323 10.3519 0.146032 -3.14625 10.6974 0.146549 
-3.00096 10.8614 0.147423 -3.17672 9.63038 0.145353 -3.17307 9.9925 0.145737 
-3.02723 10.1429 0.146786 -3.17426 8.92215 0.144922 -3.17945 9.26894 0.145134 
-3.03897 9.41547 0.146286 -3.15199 8.24212 0.144736 -3.1669 8.58477 0.144815 
-3.03321 8.70947 0.146022 -3.10462 7.58012 0.144841 -3.13196 7.90461 0.144788 
-3.00515 8.02705 0.146048 -3.02067 6.88808 0.14549 -3.0643 7.24252 0.145179 
-2.94397 7.34414 0.146477 -2.91588 6.19669 0.146502 -2.96967 6.53988 0.14602 
-2.85212 6.64978 0.147327 -2.78419 5.48498 0.148091 -2.85337 5.8352 0.147294 
-2.73833 5.93093 0.148711 -2.61562 4.74822 0.150484 -2.70368 5.11354 0.14912 
-2.59449 5.18876 0.150855 -2.41734 4.04577 0.153812 -2.5167 4.3767 0.15204 
-2.41367 4.43695 0.153889 -2.20001 3.38692 0.157737 -2.31664 3.71521 0.155615 
-2.20998 3.72598 0.157852 -1.94656 2.74401 0.163425 -2.10858 3.10592 0.159642 
-2.0118 3.10431 0.162427 -1.55191 2.02969 0.17483 -1.76305 2.39942 0.168215 
-1.73701 2.47673 0.169699 -1.25667 1.57295 0.184132 1.88517 17.7533 0.189554 
1.74004 17.7082 0.190974 -0.882509 1.47578 0.181906 -0.942704 1.46831 0.185055 
-0.765969 1.47214 0.17556 -0.823623 1.47642 0.178741 -1.02883 1.82094 0.177215 
-1.79134 17.8492 0.163174 -1.92434 17.8285 0.160123 -2.02407 17.3221 0.156281 
-1.98718 16.9041 0.150014 1.61822 17.7209 0.192304 1.48116 17.6984 0.194215 
1.74522 18.0631 0.189851 2.18551 30.594 0.129085 2.33037 30.6293 0.129971 
2.42144 30.2868 0.132385 2.11711 30.2147 0.130543 -0.649441 1.44959 0.170252 
-0.706939 1.46384 0.172812 -0.886461 1.80603 0.172561 -0.541648 1.44084 0.16646 
-0.595744 1.4477 0.1681 -0.75151 1.79093 0.168259 -0.448179 1.44939 0.164274 
-0.491471 1.44088 0.165152 -0.625954 1.78607 0.164994 -0.361908 1.46453 0.163169 
-0.405354 1.45857 0.163616 -0.51326 1.79358 0.16311 -0.274384 1.48706 0.162645 
-0.318782 1.4782 0.16281 -0.408793 1.81564 0.162102 -0.187221 1.48484 0.162698 
-0.231142 1.4903 0.162583 -0.304204 1.83211 0.16169 -0.100076 1.46956 0.163081 
-0.14435 1.48186 0.162856 -0.200699 1.83182 0.161682 -0.0155555 1.44266 0.163611 
-0.0570893 1.45473 0.163362 -0.0972332 1.81325 0.161993 0.0668781 1.43518 0.163988 
0.0263711 1.43247 0.163834 0.00501006 1.78758 0.1624 0.149773 1.43695 0.164061 
0.107976 1.43805 0.164051 0.104768 1.78021 0.162703 0.237425 1.45706 0.163824 
0.193145 1.44434 0.163956 0.20623 1.79098 0.162732 0.328043 1.48517 0.163495 
0.283365 1.47294 0.163616 0.312977 1.81536 0.162576 0.41253 1.47102 0.163362 
0.370423 1.48642 0.163398 0.419013 1.83378 0.162425 0.501343 1.45157 0.163449 
0.457341 1.4632 0.163374 0.524863 1.82823 0.162357 0.593324 1.43146 0.163671 
0.546535 1.43738 0.163533 0.636079 1.80778 0.162467 0.689457 1.41776 0.164024 
0.633818 1.40852 0.163829 0.744151 1.77299 0.162787 0.839791 1.48542 0.164617 
0.759342 1.44459 0.16411 0.875908 1.781 0.163311 1.04401 1.62038 0.166056 
0.962103 1.58803 0.164808 1.09061 1.91942 0.164031 1.14864 1.55298 0.16857 
1.08302 1.55571 0.166736 1.29059 1.97491 0.165628 1.40525 1.88076 0.167532 
2.5418 4.61979 0.16613 2.43604 4.2488 0.165638 2.2311 3.96388 0.165148 
1.06112 17.6582 0.193547 0.929528 17.6545 0.192435 0.805938 17.6482 0.190871 
0.686438 17.6252 0.189918 0.920674 18.0338 0.188014 0.569278 17.6114 0.188833 
0.454165 17.5886 0.187892 0.668815 18.0102 0.186104 0.339584 17.5717 0.187149 
0.232585 17.5549 0.186481 0.425138 17.9764 0.184616 0.124376 17.5234 0.186249 
0.0207351 17.5226 0.185929 0.190386 17.926 0.183853 -0.0815815 17.5287 0.185904 
-0.185081 17.5377 0.185806 -0.0307242 17.8999 0.183661 -0.284281 17.5605 0.185652 
-0.384218 17.5658 0.185657 -0.242497 17.9293 0.183583 -0.490588 17.5761 0.185263 
-0.603471 17.5814 0.184855 -0.458585 17.9639 0.183177 -0.71891 17.5756 0.18433 
-0.834226 17.5944 0.183256 -0.691997 17.9706 0.182192 -0.960656 17.6221 0.182155 
-1.08324 17.6491 0.180238 -0.944319 17.9952 0.17998 -3.46918 29.6198 0.120457 
-3.48776 29.9594 0.119026 -3.32791 29.4693 0.121034 -1.1397 14.002 0.158024 
-1.01182 13.9955 0.160635 -0.88146 13.986 0.163377 -0.754596 13.9894 0.165653 
-1.00515 13.5655 0.16117 -0.626135 14.0129 0.168663 -0.513061 14.0184 0.171224 
-0.734996 13.5819 0.165783 -0.398241 14.0471 0.174281 -0.288343 14.0455 0.17721 
-0.480345 13.6367 0.171166 -0.179637 14.0444 0.180323 -0.071622 14.0564 0.183119 
-0.246202 13.6661 0.176946 0.04345 14.0286 0.185865 0.160689 14.0245 0.188099 
-0.0111421 13.6376 0.182442 0.274261 14.02 0.190066 0.383328 14.0204 0.19145 
0.230238 13.6047 0.186837 0.493908 14.0342 0.192656 0.6079 14.0351 0.193564 
0.46699 13.6127 0.189841 0.722884 14.0421 0.19398 0.833339 14.0499 0.194354 
0.70464 13.6312 0.191379 0.954296 14.0522 0.193875 1.0876 14.0424 0.193074 
0.952126 13.6375 0.191362 1.22583 14.0413 0.191137 1.36916 14.022 0.188784 
1.50603 13.6428 0.185128 1.22056 13.6368 0.189331 1.61361 2.26079 0.166288 
1.34165 17.6836 0.194599 1.20252 17.6658 0.194995 1.1948 18.0497 0.189941 
-1.39635 14.0382 0.153788 -1.26917 14.0309 0.156669 -1.27568 13.6028 0.157181 
-1.535 13.6751 0.153669 3.23803 30.6453 0.136993 -1.27238 1.68817 0.183614 
-3.52107 30.3178 0.117502 2.72121 30.407 0.134065 2.78075 30.782 0.13263 
2.93267 30.7725 0.133891 1.56497 2.33475 0.165986 2.14952 16.83 0.192802 
2.30561 17.2187 0.19576 2.2385 17.9521 0.192618 2.07117 17.905 0.190624 
2.12641 13.5664 0.181668 2.12055 13.8828 0.181311 2.43391 4.72893 0.165836 
2.41214 15.1526 0.19367 2.61223 14.96 0.197757 2.63805 14.6045 0.196178 
2.4954 14.4346 0.191508 2.62518 16.3666 0.203537 2.62055 16.0055 0.202784 
2.74392 17.7687 0.203316 2.70814 17.4161 0.204237 -2.15096 16.8059 0.15322 
2.19364 15.4105 0.18869 2.22948 15.8052 0.191697 2.48583 17.2235 0.199465 
-3.38721 30.1881 0.117978 -2.09283 18.2109 0.160282 -2.07682 17.793 0.158552 
2.05143 18.1997 0.190348 -1.65382 17.836 0.166691 -1.80104 18.2396 0.16375 
-1.51517 17.8092 0.170506 1.48068 18.0703 0.190447 2.42287 15.8508 0.197444 
-2.19085 14.5118 0.145122 -2.13273 14.2336 0.145089 2.2245 16.4858 0.19401 
2.22321 14.025 0.183181 3.08733 30.6585 0.135703 -2.20816 17.6916 0.157484 
2.21939 15.0429 0.187805 2.2803 14.6306 0.187022 -1.21898 18.0827 0.175785 
-1.22424 17.7065 0.178106 -1.36557 17.7599 0.174193 -2.0731 13.9525 0.145947 
-2.03818 13.6832 0.148027 -2.24786 13.8253 0.147161 -0.979976 1.43001 0.18777 
-1.10108 1.50577 0.187931 2.59183 17.8983 0.199625 -1.37121 1.93974 0.179213 
-1.15352 1.79111 0.181197 1.7509 29.789 0.130236 1.90739 29.8018 0.131208 
0.816387 29.5348 0.126373 0.966303 29.5619 0.126944 0.510628 29.5021 0.125225 
0.662392 29.5134 0.125793 0.745499 29.0701 0.128405 0.21751 29.5074 0.124108 
0.362364 29.5093 0.124613 0.443852 29.0554 0.127227 -0.0983185 29.5243 0.123041 
0.0601168 29.5161 0.123557 0.138784 29.071 0.126059 -0.406106 29.5435 0.122169 
-0.253797 29.5369 0.122569 -0.173482 29.0923 0.125019 -0.714475 29.5542 0.121506 
-0.560583 29.5448 0.12184 -0.482852 29.1064 0.124196 -1.01215 29.5639 0.121014 
-0.866796 29.5569 0.121251 -0.789071 29.1106 0.123585 -1.30423 29.5985 0.120533 
-1.15796 29.5791 0.12077 -1.08663 29.1289 0.123057 -1.60453 29.6224 0.120211 
-1.45696 29.6163 0.120328 -1.38462 29.1625 0.122574 -1.9032 29.6551 0.119949 
-1.75527 29.6437 0.120042 -1.68752 29.2022 0.122166 -2.19402 29.7163 0.119636 
-2.05213 29.6857 0.119776 -1.98665 29.2548 0.1218 -2.49158 29.7965 0.119306 
-2.3413 29.7559 0.119458 -2.28232 29.3258 0.121428 -2.79808 29.8929 0.118967 
-2.64922 29.8511 0.119096 -2.58669 29.4207 0.121017 -3.10045 30.0205 0.118541 
-2.95468 29.9699 0.118687 -2.9003 29.5528 0.120507 -3.24959 30.1203 0.118183 
2.42671 13.8246 0.186814 2.34666 14.2815 0.187091 3.01767 30.3645 0.136618 
2.15222 4.08486 0.164922 2.03165 3.69427 0.164765 1.77755 13.3093 0.182106 
1.92953 13.2762 0.1809 2.32252 4.84004 0.165723 2.24117 4.45981 0.165322 
2.05399 4.20142 0.164646 1.88528 3.27354 0.164755 1.71645 2.86159 0.164688 
1.82513 3.40405 0.164234 -2.0355 15.6259 0.14474 -2.14321 15.2143 0.145977 
2.50821 6.35929 0.168029 2.46032 5.99108 0.167239 2.43504 5.6101 0.166744 
2.37645 5.22617 0.166067 2.19426 4.96823 0.16535 2.27044 5.74343 0.16645 
2.75611 7.90598 0.171774 2.69463 7.57702 0.170905 2.73937 8.2256 0.172539 
0.590874 15.8037 0.0431242 0.518262 15.7975 0.0395698 2.73808 9.02105 0.174586 
2.74251 8.67434 0.173648 2.56601 8.32408 0.17218 2.72474 9.76736 0.1766 
2.7313 9.4014 0.175552 2.56389 9.16175 0.174284 2.70732 10.491 0.178645 
2.7187 10.1455 0.177629 2.55295 9.92755 0.176292 2.67384 11.1976 0.180628 
2.69627 10.8461 0.179644 2.5376 10.6668 0.17827 2.59426 11.9492 0.182416 
2.62814 11.5932 0.18155 2.48318 11.4224 0.180073 2.48505 12.7593 0.183899 
2.51709 12.3977 0.183075 2.36242 12.2712 0.18144 2.41659 16.5289 0.198776 
-1.42181 2.17189 0.176173 -1.58875 2.35771 0.172848 -1.76057 2.69507 0.168215 
-2.34263 17.0833 0.156216 -2.34261 16.6751 0.154708 2.45304 18.6428 0.193476 
2.41484 18.2883 0.194739 2.78893 20.8878 0.184604 2.75572 20.5209 0.186526 
2.78763 21.5756 0.180306 2.7743 21.2162 0.182386 2.62297 20.9957 0.181931 
2.79862 22.3109 0.176075 2.79318 21.9482 0.17816 2.61233 21.6977 0.177665 
2.81667 23.0374 0.172147 2.80922 22.6802 0.174083 2.62657 22.4414 0.173595 
2.83719 23.8027 0.168177 2.8274 23.4251 0.170121 2.64632 23.2005 0.169642 
2.85742 24.5292 0.164529 2.84854 24.1723 0.166311 2.66688 23.9599 0.165818 
2.87767 25.2748 0.160868 2.86859 24.8995 0.162699 2.68828 24.7019 0.162181 
2.89582 26.0386 0.157166 2.88829 25.6593 0.158997 2.70916 25.4586 0.158532 
2.91164 26.8009 0.153498 2.90458 26.4244 0.155298 2.72778 26.2306 0.154836 
2.92985 27.554 0.149917 2.921 27.1781 0.151692 2.74526 26.9951 0.151197 
2.95281 28.3328 0.146248 2.93912 27.9446 0.148048 2.76335 27.7641 0.147549 
2.97855 29.1505 0.142393 2.96696 28.7382 0.144341 2.78626 28.5611 0.143794 
3.0089 30.0154 0.138311 3.0013 29.5563 0.140541 2.85397 30.1288 0.136507 
-2.18734 15.958 0.149929 -1.35521 2.19739 0.175488 2.57956 19.4182 0.190966 
2.53231 19.0643 0.192497 2.31925 18.7636 0.190822 2.41197 17.5635 0.197173 
-1.94355 13.4506 0.149509 -1.82438 13.3868 0.151163 -3.07283 27.7604 0.128222 
-3.09032 28.1564 0.126567 -3.04377 26.9972 0.13142 -3.05432 27.3594 0.129927 
-2.90857 27.591 0.128981 -3.01856 26.2546 0.1345 -3.02979 26.6241 0.132992 
-2.8766 26.8156 0.132273 -2.99275 25.4788 0.13768 -3.00515 25.8594 0.136143 
-2.84986 26.0459 0.135507 -2.97478 24.7191 0.140749 -2.98218 25.0971 0.139246 
-2.82658 25.2673 0.138736 -2.96183 24.0171 0.143528 -2.96729 24.3588 0.142194 
-2.80931 24.5235 0.141766 -2.9469 23.297 0.146309 -2.95515 23.6548 0.144942 
-2.79614 23.799 0.144652 -2.92359 22.5678 0.149053 -2.93633 22.9274 0.147709 
-2.78006 23.0653 0.147503 -2.8991 21.8628 0.151598 -2.91227 22.2035 0.150371 
-2.75941 22.3297 0.15025 -2.86353 21.1647 0.153986 -2.88477 21.5209 0.152759 
-2.7349 21.6223 0.152745 -2.80526 20.4167 0.156337 -2.8346 20.7903 0.155153 
-2.69319 20.9052 0.155096 -2.73105 19.6773 0.158281 -2.76375 20.0241 0.157352 
-2.62429 20.1381 0.157266 -2.69862 18.9727 0.159539 -2.71873 19.3086 0.158878 
-2.57027 19.3793 0.158778 -2.3407 16.2731 0.153464 -2.42209 15.4929 0.152108 
-2.38193 15.8388 0.152953 -2.49461 14.0232 0.148878 -2.40759 14.4244 0.148515 
-2.70507 12.9071 0.149419 -2.68945 13.2402 0.149711 -2.78152 12.1404 0.148935 
-2.75205 12.4807 0.149207 -2.58928 12.7808 0.149125 -2.83377 11.4096 0.148433 
-2.8071 11.7652 0.148757 -2.66255 11.9792 0.149149 -2.85684 10.6843 0.148016 
-2.84054 11.0426 0.148316 -2.69407 11.2349 0.148988 -2.87393 9.95484 0.147624 
-2.86502 10.3202 0.147881 -2.70758 10.4993 0.148826 -2.89026 9.21521 0.147281 
-2.88828 9.58362 0.147447 -2.72901 9.75793 0.148541 -2.87963 8.52035 0.147164 
-2.88749 8.86507 0.147232 -2.73977 9.03023 0.148323 -2.84156 7.83116 0.147419 
-2.86188 8.17662 0.14731 -2.7191 8.32979 0.148436 -2.7701 7.12693 0.148154 
-2.81119 7.47259 0.147747 -2.67143 7.62029 0.14889 -2.66486 6.41047 0.149397 
-2.71632 6.76724 0.148807 -2.58755 6.89513 0.149792 -2.54644 5.67663 0.151098 
-2.60945 6.04714 0.150217 -2.47914 6.16504 0.151214 -2.39397 4.90584 0.153717 
-2.47535 5.2856 0.152203 -2.35467 5.40386 0.153223 -2.191 4.09947 0.157635 
-2.29228 4.47845 0.155481 -2.18463 4.57965 0.156378 -1.98384 3.37791 0.162232 
-2.08997 3.71579 0.159684 -1.98126 3.76355 0.160761 -1.86145 2.98427 0.165524 
-2.09529 18.6464 0.160775 -2.25212 18.6067 0.159834 2.09946 18.5963 0.188925 
1.91716 18.4403 0.188224 2.17603 19.0186 0.18782 -1.18866 2.21738 0.172839 
-1.27386 2.22695 0.17419 -0.998697 2.14998 0.169786 -1.08077 2.1652 0.171543 
-1.30227 2.56938 0.169672 -1.13325 13.1034 0.15968 -0.993102 13.096 0.161586 
-0.575787 2.17562 0.162014 -0.637691 2.16794 0.162714 -0.451955 2.21004 0.161148 
-0.514539 2.19713 0.16152 -0.625405 2.57772 0.161148 -0.329054 2.21732 0.160843 
-0.390227 2.21473 0.160965 -0.483509 2.60292 0.160506 -0.208096 2.21546 0.16089 
-0.268607 2.21913 0.160875 -0.343833 2.60854 0.160231 -0.0844397 2.1984 0.161127 
-0.145375 2.21416 0.161022 -0.203146 2.60837 0.160205 0.0358146 2.17621 0.161433 
-0.0242355 2.18683 0.161311 -0.0622047 2.59494 0.1604 0.151456 2.15134 0.161668 
0.0934184 2.14814 0.161598 0.073449 2.55454 0.160706 0.272371 2.16387 0.16171 
0.211269 2.15568 0.161702 0.207205 2.53063 0.160975 0.401019 2.21144 0.16161 
0.336957 2.19401 0.161638 0.348033 2.56625 0.161044 0.52452 2.23697 0.161573 
0.464355 2.23451 0.16156 0.493087 2.62135 0.161086 0.659938 2.24414 0.161732 
0.594107 2.2503 0.161557 0.644128 2.65978 0.1611 0.790308 2.20535 0.162001 
0.722572 2.21703 0.161725 0.797648 2.6481 0.161284 0.910413 2.14506 0.162453 
0.847689 2.16486 0.162061 0.939357 2.58245 0.161658 1.04036 2.10305 0.163018 
0.948568 2.06946 0.162552 1.0568 2.46843 0.162239 1.48882 2.3797 0.164809 
-2.29004 14.828 0.147449 1.33253 18.4553 0.186729 1.18476 18.4459 0.186178 
1.03388 18.4458 0.184956 0.900809 18.4359 0.184296 1.1614 18.8453 0.182546 
1.11461 29.6256 0.127369 1.26631 29.6699 0.127957 1.04714 29.1558 0.129405 
1.62619 18.4745 0.187537 1.48618 18.4675 0.187411 1.47071 18.856 0.184186 
0.77204 18.4493 0.183158 0.643838 18.4319 0.182622 0.87477 18.8583 0.180771 
0.509934 18.4424 0.181721 0.38319 18.423 0.181356 0.602875 18.8805 0.179245 
0.256017 18.3922 0.181056 0.136072 18.359 0.181022 0.331341 18.859 0.178486 
0.0271483 18.2554 0.181594 -0.0856483 18.2617 0.181458 0.0850035 18.7232 0.178811 
-0.190896 18.3451 0.180983 -0.300151 18.369 0.180767 -0.135711 18.7028 0.178797 
-0.415531 18.3903 0.180537 -0.532661 18.4027 0.180099 -0.365321 18.8087 0.177908 
-0.654295 18.3808 0.179853 -0.780917 18.3775 0.178956 -0.611614 18.8091 0.177237 
-0.920178 18.3936 0.177873 -1.05537 18.4248 0.176085 -0.880459 18.8039 0.175651 
-3.17937 29.3695 0.121391 -3.20539 29.7299 0.119858 1.42338 29.7408 0.128479 
1.58252 29.7646 0.129314 1.67675 29.3869 0.131806 1.35187 29.2909 0.130351 
-0.703219 2.15153 0.163681 -0.775055 2.15455 0.164862 -0.772001 2.54135 0.162434 
-0.842011 13.0939 0.163916 -0.70242 13.1203 0.166222 -0.956806 12.6333 0.16217 
-0.559386 13.1574 0.168923 -0.433406 13.1888 0.171451 -0.653883 12.6686 0.16661 
-0.313554 13.308 0.174349 -0.194463 13.3081 0.176883 -0.382346 12.827 0.171632 
-0.0810008 13.2009 0.178913 0.0465569 13.1727 0.181185 -0.143151 12.8396 0.176169 
0.179432 13.1495 0.183251 0.305192 13.144 0.18503 0.113744 12.7081 0.179854 
0.436616 13.1567 0.186511 0.559124 13.1687 0.18757 0.388565 12.697 0.183178 
0.682957 13.206 0.188431 0.80939 13.2101 0.188799 0.653992 12.7463 0.18543 
0.932129 13.234 0.18883 1.0626 13.2332 0.188385 0.90907 12.8068 0.186252 
2.60953 7.13564 0.169684 2.56071 6.78111 0.168846 2.34519 6.55598 0.167877 
2.47806 7.42733 0.169874 -3.11979 28.574 0.124781 -3.14389 28.9696 0.123109 
-3.0208 29.2293 0.12195 2.69709 20.1759 0.187912 2.64356 19.8145 0.189553 
2.58047 20.322 0.185476 -2.35745 17.966 0.158914 -2.32333 17.4814 0.157487 
2.42272 17.8871 0.196103 -0.840755 2.13611 0.16629 -0.916377 2.14226 0.167941 
-1.09189 2.50237 0.167283 1.79152 18.4671 0.187936 1.46257 2.5072 0.164342 
2.71259 30.0574 0.135753 1.64043 13.2612 0.183212 1.76504 12.9228 0.181822 
1.49708 13.2475 0.185015 2.50262 13.5021 0.186777 -1.94038 18.6509 0.1624 
-2.08979 19.0581 0.160969 -2.37835 15.1308 0.15006 -1.79888 18.6523 0.164147 
2.53347 29.9292 0.135032 2.66707 29.6514 0.137446 2.3757 29.8802 0.134095 
2.09252 12.8444 0.181179 2.11897 13.1444 0.181264 -1.519 2.60356 0.17068 
2.50071 13.1883 0.185356 2.26743 16.1371 0.194107 1.79309 18.8547 0.18576 
-2.49335 17.3587 0.158765 2.82275 29.3733 0.140043 2.46085 19.5801 0.188342 
-1.51223 18.1868 0.169538 -2.08689 13.3043 0.149008 -2.95611 28.4108 0.125474 
-2.40025 19.0324 0.159532 -2.40482 18.5887 0.159545 -2.60493 13.5664 0.149627 
-2.42979 13.6605 0.148232 -2.68716 18.3659 0.160239 -2.71328 18.6857 0.15992 
-2.60641 17.7033 0.159821 -2.63523 18.0204 0.160104 -0.923874 2.50912 0.164544 
2.29785 13.148 0.182689 -1.75505 2.98211 0.166439 1.17777 12.8264 0.185712 
1.20234 13.2283 0.187492 1.34647 13.2268 0.186348 2.00692 29.4141 0.133825 
2.06972 29.8039 0.132287 2.21565 29.8274 0.133208 -1.28114 13.1367 0.158 
-1.26353 12.6701 0.158453 -1.4184 13.1659 0.156183 1.29092 2.31415 0.163858 
1.1486 2.19992 0.163309 1.21486 2.49219 0.162855 1.49779 2.7844 0.163621 
-1.16963 18.8838 0.172371 -1.19945 18.4881 0.174154 -1.34393 18.5463 0.171581 
-2.3606 13.373 0.148185 -1.68668 13.2789 0.153025 -1.56116 13.2299 0.154644 
-1.56067 12.7719 0.155237 -1.84722 12.953 0.152227 -2.52786 18.0993 0.159588 
1.60275 19.262 0.182113 1.44654 19.2544 0.181348 0.689379 28.5544 0.130744 
0.842734 28.5764 0.131318 -0.247958 28.6488 0.127037 -0.0930612 28.6361 0.127526 
-0.563528 28.6633 0.126223 -0.409619 28.6618 0.126575 -0.329031 28.2044 0.129019 
-0.864372 28.6358 0.125794 -0.712616 28.6329 0.126078 -0.639354 28.1873 0.128398 
-1.15943 28.6581 0.125253 -1.01416 28.6424 0.125529 -0.937781 28.1638 0.127963 
-1.46346 28.7088 0.124678 -1.3113 28.6903 0.124919 -1.23896 28.2033 0.127333 
-1.77514 28.7634 0.124184 -1.62495 28.7415 0.124388 -1.55182 28.269 0.126674 
-2.08108 28.8305 0.12373 -1.9327 28.7992 0.123932 -1.87033 28.3385 0.126097 
-2.37743 28.9219 0.123248 -2.23071 28.8816 0.123451 -2.17694 28.4263 0.125543 
-2.70121 29.0447 0.122697 -2.5442 28.9896 0.12293 -2.49275 28.546 0.124919 
-2.86484 29.152 0.122243 -1.64755 2.99906 0.166777 1.78589 3.57022 0.163807 
1.64695 3.15156 0.163813 1.47787 2.95716 0.163307 -1.54808 3.05803 0.166421 
-1.75904 3.42749 0.163911 2.38041 9.32406 0.174051 2.38565 8.93634 0.173093 
0.449736 15.7929 0.038545 0.380927 15.7886 0.0369843 2.37236 10.1105 0.176121 
2.37643 9.72567 0.1751 2.20226 9.50568 0.174005 2.36338 10.8462 0.178038 
2.37233 10.4857 0.177122 2.19984 10.2893 0.176071 2.31963 11.6017 0.179742 
2.36271 11.201 0.178943 2.20151 11.0252 0.177983 -2.09233 19.5018 0.160531 
-2.25262 19.4894 0.159607 0.0656286 28.5778 0.128291 0.222409 28.5691 0.128855 
-0.00912286 28.133 0.13026 0.383311 28.5509 0.129522 0.530989 28.5441 0.130129 
0.309959 28.0564 0.131701 2.64452 29.2448 0.139292 2.42349 20.9204 0.180051 
2.43839 20.5921 0.18217 2.46444 23.347 0.167201 2.45523 22.9571 0.169154 
2.48481 24.1171 0.163425 2.47465 23.7454 0.165233 2.28381 23.5026 0.164848 
2.50766 24.8692 0.159825 2.49745 24.4969 0.161597 2.30509 24.2831 0.161108 
2.53072 25.6523 0.156121 2.52089 25.266 0.157941 2.32979 25.0618 0.157452 
2.55057 26.4297 0.152451 2.54243 26.0422 0.154278 2.35375 25.8505 0.153771 
2.57479 27.1971 0.148875 2.56593 26.8185 0.150649 2.38008 26.6308 0.150162 
2.59175 28.0002 0.145061 2.58293 27.6084 0.146905 2.40298 27.4324 0.146421 
2.61639 28.8286 0.141156 2.60259 28.4221 0.143051 2.42138 28.267 0.142465 
2.45995 29.1062 0.138597 2.35022 19.8101 0.185645 2.28946 19.413 0.187197 
2.07062 19.2409 0.185618 -2.55139 11.8097 0.149523 -2.52646 12.1863 0.149455 
-2.67202 25.8736 0.136376 -2.68478 26.2704 0.134706 -2.70409 26.6757 0.132961 
-2.71756 27.0501 0.131371 -2.5258 26.5041 0.133833 -2.41442 19.3976 0.159106 
-2.74193 27.4612 0.129583 -2.76005 27.8635 0.127857 -2.56884 27.3218 0.130276 
-2.64772 25.0847 0.139691 -2.65753 25.4682 0.138101 -2.49284 25.6916 0.137341 
-2.62912 24.3147 0.142868 -2.63574 24.6768 0.141399 -2.46744 24.8764 0.140815 
-2.61306 23.584 0.145816 -2.61868 23.9482 0.144375 -2.4461 24.1001 0.14406 
-2.59513 22.8169 0.148816 -2.60453 23.1884 0.147383 -2.42867 23.3359 0.14717 
-2.57905 22.0703 0.151573 -2.58909 22.4362 0.150229 -2.41577 22.5572 0.15021 
-2.56552 21.3774 0.153949 -2.57857 21.7204 0.152763 -2.41096 21.8246 0.15289 
-2.54586 20.6607 0.156127 -2.57335 21.0357 0.154978 -2.42014 21.1314 0.155138 
-2.41641 19.8423 0.158435 -2.45626 20.2347 0.157429 -2.56896 18.7283 0.159552 
-1.00205 2.90588 0.162897 -1.08805 2.89077 0.164065 -2.47133 12.5378 0.149337 
-2.42354 12.9634 0.149003 -2.24996 13.1348 0.148862 -2.36507 12.3717 0.14984 
-2.54176 10.3207 0.149741 -2.53512 10.6902 0.149827 -2.56417 9.54481 0.149552 
-2.55113 9.92261 0.149692 -2.38119 10.1123 0.150763 -2.5972 8.84007 0.149285 
-2.60036 9.1963 0.149317 -2.42481 9.35848 0.150479 -2.53777 8.15446 0.149754 
-2.55527 8.50507 0.149602 -2.41871 8.67056 0.150537 -2.50812 7.44044 0.150127 
-2.53775 7.80596 0.149846 -2.37762 7.98053 0.150867 -2.38224 6.70883 0.151532 
-2.43469 7.07498 0.150876 -2.30595 7.26227 0.151668 -2.28129 5.95481 0.153037 
-2.3349 6.32457 0.152249 -2.18902 6.50718 0.152945 -2.15504 5.15251 0.155267 
-2.22378 5.54948 0.154087 -2.08899 5.71219 0.154522 -1.97701 4.27791 0.158776 
-2.07661 4.70952 0.156889 -1.9592 4.85911 0.156985 -1.86057 3.81417 0.161139 
-0.351245 3.02562 0.159544 -0.428923 3.02463 0.159609 -0.515699 3.05626 0.159663 
-0.596031 3.05278 0.159889 -0.528505 3.48106 0.159238 -2.14727 12.8922 0.149987 
-1.41892 2.99513 0.166377 -2.5367 11.0965 0.14974 -2.53096 11.4672 0.149766 
-2.39853 11.6758 0.150279 -2.3756 10.9232 0.150702 2.44758 22.5536 0.171216 
2.43857 22.1823 0.173146 2.26788 22.6982 0.168836 -0.671977 3.0161 0.160171 
-0.752755 2.99589 0.160632 -0.710127 3.47739 0.159515 -0.189504 3.03375 0.159609 
-0.270279 3.03564 0.159607 -0.344612 3.45828 0.159171 -0.0315101 3.05676 0.159773 
-0.110189 3.06899 0.159725 -0.167574 3.50377 0.159199 0.127733 3.00642 0.160078 
0.0520263 3.0354 0.159983 0.014735 3.51768 0.159413 0.269757 2.89193 0.160398 
0.193838 2.88703 0.16031 0.183501 3.3745 0.159834 0.42858 2.99673 0.160447 
0.346861 2.96471 0.160369 0.33796 3.3275 0.1601 0.595973 3.06213 0.16062 
0.515896 3.03705 0.160509 0.517689 3.44307 0.160345 0.776048 3.1279 0.160952 
0.686965 3.11204 0.160697 0.712068 3.53584 0.160594 0.949444 3.0948 0.161323 
0.865428 3.1199 0.160968 0.910741 3.58024 0.16091 1.11245 2.98572 0.161823 
1.03376 3.02349 0.161402 1.10634 3.50244 0.161465 1.24346 2.81367 0.162456 
1.18463 2.88641 0.161978 1.28645 3.33389 0.162074 1.28314 19.2495 0.180316 
1.12676 19.2494 0.179516 1.40949 19.6532 0.178424 0.99652 28.6414 0.131733 
1.14417 28.7057 0.13216 0.940325 28.1251 0.134009 2.42389 21.7433 0.175385 
2.41983 21.3691 0.177469 2.24789 21.8528 0.173103 0.988097 19.3041 0.178242 
0.851804 19.316 0.177588 1.10287 19.7051 0.176329 -2.41482 18.306 0.159427 
2.39531 8.54029 0.17211 2.39045 8.08247 0.171048 2.10065 7.86966 0.169679 
2.2656 7.65119 0.169636 2.21489 8.70065 0.171982 0.698588 19.3714 0.176451 
0.554937 19.3805 0.175947 0.803962 19.8151 0.174258 0.395422 19.3782 0.175431 
0.258368 19.3464 0.175316 0.482529 19.8682 0.172926 0.0913672 19.2451 0.175679 
-0.0260479 19.1405 0.176209 0.146418 19.7644 0.172836 -0.138931 19.2245 0.175559 
0.310198 15.7854 0.0368425 0.231043 15.7819 0.0344568 -0.294481 19.2788 0.175033 
-0.418376 19.3008 0.174591 -0.183312 19.7172 0.172562 -0.570021 19.2901 0.174305 
-0.700435 19.2692 0.173807 -0.499337 19.7603 0.171618 -0.831 19.1905 0.173641 
-0.977411 19.2078 0.172455 -0.789969 19.6712 0.170922 -1.4946 18.5855 0.169143 
-1.64391 18.6258 0.166671 -1.77628 19.0433 0.163942 -1.46772 18.9838 0.168163 
-2.79318 28.3031 0.125939 -2.82242 28.7218 0.124129 -1.0765 12.1018 0.160664 
-0.917879 12.0991 0.162519 -0.72599 12.1026 0.164939 -0.574583 12.1404 0.167257 
-0.834612 11.5702 0.163084 -0.391472 12.2878 0.170196 -0.265324 12.4093 0.172615 
-0.452325 11.7199 0.168075 -0.142903 12.3007 0.174172 0.14829 15.7799 0.0340998 
0.0732062 15.7785 0.0335102 0.0362543 12.2618 0.176611 0.178673 12.2379 0.178418 
-0.0843531 11.8283 0.173318 0.341204 12.1981 0.179895 0.482131 12.2102 0.181246 
0.265393 11.7492 0.176869 0.630216 12.2493 0.182374 0.762876 12.2861 0.183119 
0.583789 11.7484 0.179335 0.880513 12.409 0.184092 1.01005 12.4324 0.184235 
0.857149 11.9113 0.181296 -0.832975 2.94463 0.161325 -0.918863 2.93076 0.162067 
-1.06775 3.31556 0.161507 -0.885637 3.39003 0.160239 1.92843 19.2736 0.184181 
1.75927 19.292 0.18304 1.7326 19.6846 0.180382 2.03554 19.676 0.1829 
2.23911 20.9622 0.177809 0.628721 28.049 0.132979 2.32867 29.4698 0.135818 
1.9487 12.5603 0.180739 2.13874 12.4332 0.180644 2.21186 11.9775 0.180147 
1.94304 4.2914 0.164247 1.85684 3.91306 0.164026 1.69043 3.66589 0.163412 
-1.0667 19.6988 0.169018 -1.11955 19.3145 0.170727 -1.26696 19.3765 0.168918 
2.07213 5.05244 0.16507 2.01901 4.6601 0.164586 1.83321 4.37903 0.163832 
-0.0028481 15.7788 0.0345264 -0.0782153 15.7785 0.0322367 2.18477 7.20299 0.168543 
-1.90788 19.4748 0.16205 -2.06445 19.913 0.159905 1.4729 12.8462 0.183832 
-1.15782 2.82564 0.165174 -1.26 2.839 0.166432 -1.47941 3.32213 0.163995 
-2.34035 20.3621 0.157571 -2.62589 28.1738 0.126537 -1.24026 3.22782 0.163192 
1.24385 28.3169 0.134613 1.29453 28.8315 0.132334 1.45093 28.9031 0.132868 
-1.77109 3.95022 0.160832 1.14531 12.3737 0.183686 1.28955 12.3707 0.18321 
1.11381 11.9769 0.181766 -1.74974 19.4574 0.163521 1.94434 28.9599 0.135666 
2.10611 28.9627 0.136769 -1.40055 12.202 0.157331 -1.24664 12.1658 0.158847 
-1.20397 11.6342 0.159242 2.15112 6.68662 0.167377 2.10142 6.25707 0.166499 
1.94857 6.91425 0.167196 2.05421 5.76686 0.165723 2.0294 5.37711 0.165114 
1.87201 5.90026 0.165369 1.35952 2.91467 0.162745 -2.0356 12.5972 0.151438 
-1.8922 12.4767 0.152741 1.60405 29.0456 0.133061 1.7719 29.0706 0.133996 
1.87195 28.6185 0.136885 2.38353 20.2453 0.183482 2.21278 20.0757 0.182479 
-0.155937 15.7818 0.0338433 -0.235577 15.7828 0.0351789 1.80809 12.5017 0.181198 
-2.19572 12.4252 0.150616 -1.32245 27.7046 0.129599 -1.1711 27.6715 0.129964 
-1.65179 27.7658 0.128933 -1.49089 27.732 0.129262 -1.42293 27.2 0.131834 
-1.9778 27.8764 0.128154 -1.82083 27.8396 0.128436 -1.75976 27.3028 0.130968 
-2.29034 28.0115 0.127363 -2.14131 27.9595 0.127672 -2.09166 27.4611 0.129954 
-2.45982 28.1053 0.126875 0.93559 20.3046 0.171986 0.774819 20.3597 0.171088 
2.01446 10.5294 0.176316 2.01286 10.1479 0.175279 1.60712 12.4438 0.181913 
1.78669 12.08 0.180284 1.45313 12.4166 0.182705 2.23824 28.599 0.139498 
2.3006 29.0527 0.137683 2.00221 9.68137 0.17396 2.00463 9.27269 0.172904 
1.81953 9.92123 0.174314 2.09566 11.7612 0.179445 1.48978 3.27744 0.162917 
0.225988 27.5048 0.134106 0.386363 27.4867 0.13477 2.11641 24.4558 0.158779 
2.10502 24.0738 0.160548 0.580144 27.4633 0.135642 0.737954 27.4744 0.13626 
0.495962 26.9099 0.137978 2.09021 23.6681 0.162448 2.08166 23.2673 0.164355 
1.90251 23.8402 0.160182 2.15219 26.0528 0.151294 2.14128 25.6611 0.15309 
2.20802 26.8416 0.147876 2.19321 26.4513 0.149645 1.98008 26.2636 0.149068 
2.23564 27.6822 0.143985 2.22801 27.2695 0.145926 2.04053 27.0912 0.145483 
-2.27879 24.6796 0.141917 -2.28966 25.0895 0.140171 2.08688 22.857 0.166454 
2.08123 22.4508 0.16845 1.89498 23.0214 0.164125 -2.3101 25.5187 0.138287 
-2.32374 25.9259 0.13653 -2.12102 25.3233 0.139399 -2.18687 20.332 0.158296 
-2.27206 20.7617 0.156732 -1.99767 20.3118 0.15937 -2.40006 27.227 0.130778 
-2.42399 27.6393 0.12896 -2.25431 23.9042 0.145215 -2.26352 24.2727 0.143675 
-2.08655 24.4851 0.14309 -2.23397 23.078 0.148634 -2.24096 23.476 0.147026 
-2.05961 23.6475 0.146712 -2.22606 22.2784 0.151771 -2.23044 22.6614 0.150309 
-2.04468 22.7998 0.150256 -2.24081 21.5117 0.154467 -2.23989 21.8634 0.153262 
-2.05725 21.9651 0.153507 -2.26352 21.1043 0.155744 2.04153 21.036 0.175556 
2.04687 20.5846 0.177981 -1.7105 12.3615 0.154477 -1.56308 12.2901 0.155803 
-1.89364 12.004 0.153221 2.13337 25.2623 0.15498 2.1212 24.8634 0.156809 
1.92062 24.6559 0.156371 -0.0967519 27.6238 0.132499 0.0614387 27.5652 0.133267 
0.138187 26.9938 0.136289 -2.2212 8.66547 0.151771 -2.26118 9.00489 0.151502 
-2.20393 9.90199 0.151864 -2.19659 10.3068 0.151902 -2.15834 7.68331 0.152321 
-2.15859 8.03875 0.152266 -2.00824 8.37584 0.153109 -2.09087 7.31439 0.152892 
-0.312394 15.7853 0.0357614 -0.381789 15.789 0.035711 -1.98429 6.34646 0.154157 
-2.02676 6.73578 0.153578 -1.88832 7.16231 0.154028 -1.88161 5.47996 0.155863 
-1.93397 5.88976 0.154995 -1.78228 6.12166 0.15535 -1.76494 4.60631 0.158324 
-1.83682 5.05254 0.156977 -1.69546 5.23364 0.156943 -0.535941 3.95603 0.158611 
-0.639981 3.98988 0.158619 -0.136589 4.03325 0.158935 -0.233821 3.99719 0.158849 
-1.42388 3.54017 0.162514 -1.58804 3.70003 0.16209 -1.69519 4.16332 0.160035 
-1.33626 3.60195 0.161702 -0.326251 3.85999 0.158798 -0.423101 3.85032 0.158746 
-0.520993 4.3638 0.158547 -0.304534 4.39538 0.15863 -0.770072 4.06899 0.158655 
-0.865375 4.03289 0.158935 -0.780236 4.55213 0.158343 0.382979 3.86628 0.159868 
0.291854 3.7906 0.159703 0.596689 3.88059 0.16027 0.494083 3.83825 0.160144 
0.446906 4.30873 0.160087 0.823344 4.05117 0.160862 0.71681 3.99834 0.160527 
0.69092 4.39957 0.160599 1.05934 4.08272 0.161455 0.951483 4.08869 0.161034 
0.954398 4.55771 0.161245 1.53489 20.0099 0.177082 1.36823 20.0079 0.176064 
2.0392 11.3074 0.178386 2.03835 10.9475 0.17745 1.85498 10.813 0.176921 
1.93679 11.6909 0.179247 0.936787 27.4561 0.13726 1.08989 27.5225 0.137694 
0.887842 26.8696 0.139852 -1.01059 27.6591 0.130274 -0.861267 27.652 0.130565 
-1.09452 27.1589 0.132515 2.08523 21.995 0.170847 2.07264 21.5531 0.173023 
1.90686 22.1519 0.168559 1.22015 20.1305 0.174419 1.07602 20.1859 0.173402 
1.04782 20.728 0.170223 1.34181 20.4849 0.173145 -2.22755 9.35989 0.151722 
-2.04598 9.5519 0.152883 -0.451776 15.7938 0.034611 -0.529447 15.7998 0.0354816 
0.601241 20.4475 0.169943 0.433203 20.4447 0.169485 0.727471 20.9346 0.167846 
0.246591 20.4186 0.169228 0.0701051 20.3167 0.169413 0.35949 20.9961 0.166367 
-0.661881 15.8109 0.0368492 -0.724166 15.821 0.0335816 -0.784885 15.8297 0.0312181 
-0.844071 15.8384 0.0283366 -0.108118 20.2498 0.169463 -0.27238 20.304 0.168809 
-0.0138 20.9027 0.166065 -0.456727 20.2927 0.168433 -0.616427 20.2825 0.168009 
-0.384128 20.8243 0.165642 -0.812358 20.2228 0.167594 -0.950097 20.1452 0.167421 
-0.77215 20.7536 0.164785 -1.42617 19.4064 0.167193 -1.57908 19.4403 0.165419 
-1.37145 19.8324 0.165855 -1.70523 19.8745 0.162727 -0.536491 10.9933 0.165533 
-0.347869 11.1409 0.168151 0.903554 15.8365 0.0517427 -0.173049 11.3807 0.170655 
0.0143149 11.3414 0.17262 -0.249678 10.6524 0.167828 0.200028 11.2413 0.17403 
0.369342 11.2011 0.175297 0.113613 10.7924 0.17156 0.55725 11.1858 0.17644 
0.711852 11.2255 0.17749 0.492078 10.6771 0.173836 0.901227 11.3751 0.178738 
1.02521 11.4989 0.179553 0.875181 10.8135 0.17612 1.56063 3.6204 0.162942 
-0.70623 27.659 0.130832 -0.557581 27.6892 0.131001 -0.779442 27.1528 0.133119 
1.65294 4.1107 0.163083 1.46999 3.72495 0.1625 1.37484 3.8214 0.162235 
1.72467 4.47995 0.163503 -0.409252 27.7693 0.130959 -0.248056 27.7561 0.13143 
-0.17719 27.1871 0.134389 1.22865 27.1527 0.140207 1.23276 27.8211 0.136981 
1.38249 27.948 0.137192 1.73085 11.6218 0.17925 2.2278 28.1759 0.141495 
-2.24665 12.0692 0.150867 -1.65447 20.3091 0.161717 -1.82886 20.3199 0.160465 
-1.94627 20.7431 0.158305 -1.09453 20.2494 0.165919 -2.22726 11.7254 0.151212 
1.81732 8.964 0.171637 2.01428 8.79028 0.171636 2.02246 8.38719 0.17067 
-0.476511 27.2396 0.13336 1.5467 28.5861 0.135006 1.93204 25.4645 0.152567 
1.87336 20.1823 0.178625 1.71389 20.1588 0.17756 2.05204 28.0141 0.141069 
1.41681 11.9684 0.181101 -0.995706 4.3873 0.158565 -0.925632 3.78951 0.159478 
-1.02428 3.73949 0.15991 -2.34975 26.373 0.134549 -2.36842 26.7798 0.132772 
-2.16649 26.2014 0.135494 -2.22338 27.0971 0.131479 -2.09553 21.1399 0.156333 
-2.05752 11.6358 0.152393 -1.86961 11.5093 0.153761 1.88259 21.175 0.173375 
-0.0199217 4.07824 0.159237 -0.0759929 4.58007 0.159064 0.0830168 4.05621 0.15928 
-2.20322 11.2366 0.151668 -1.54295 11.7919 0.156196 1.90385 7.95443 0.169307 
1.64676 8.12233 0.169048 1.72281 7.59605 0.167969 1.67114 20.5096 0.175259 
2.06564 20.1147 0.180815 -2.0288 10.6217 0.152937 -2.20065 10.8249 0.151771 
-1.5913 4.3606 0.159241 1.16256 11.4427 0.179359 -1.33661 11.1255 0.157963 
-1.16049 11.0568 0.159437 1.72744 7.05254 0.166868 1.69758 6.52863 0.165758 
1.4808 7.21732 0.166464 1.68829 5.98946 0.164857 1.64394 5.49467 0.164095 
1.48147 6.12816 0.164475 0.210454 3.91354 0.159505 0.191631 4.48103 0.159679 
1.29421 3.97639 0.161946 1.18675 4.04583 0.161591 1.2292 4.55996 0.161975 
1.461 4.36933 0.162536 -0.959916 10.9701 0.161203 -0.761787 10.9709 0.163253 
-0.653925 10.3913 0.163387 1.70252 28.3421 0.13716 1.87485 28.2317 0.138814 
1.8833 27.7367 0.141285 1.55003 28.1986 0.136935 -1.13099 3.72155 0.160341 
-1.2319 3.69946 0.160914 -1.17602 4.12505 0.159364 -1.08445 10.46 0.159719 
-1.40596 4.01165 0.160218 -1.5308 26.7312 0.133869 -1.36299 26.7023 0.134245 
-0.798314 9.7268 0.161272 -0.570335 9.74618 0.163075 1.69814 20.9347 0.173143 
1.51783 20.7906 0.172661 1.72587 21.4567 0.170669 0.0177693 26.4797 0.13838 
0.181796 26.4188 0.1392 -0.749323 5.06581 0.157922 -0.895979 5.14793 0.157739 
1.69376 24.0264 0.157823 1.68059 23.6182 0.159677 1.89448 27.3358 0.143315 
1.87497 26.9067 0.145247 1.71718 27.5535 0.14111 1.78813 26.552 0.1464 
1.7477 26.1523 0.14803 1.64179 26.7975 0.144296 -1.84801 23.3919 0.148294 
-1.85964 23.8228 0.146414 -1.93365 25.1678 0.14036 -1.95305 25.5988 0.138435 
-1.88625 24.274 0.144373 -1.90019 24.6831 0.142566 -1.67413 24.0209 0.145961 
-1.69333 11.3685 0.155116 -1.52551 11.2734 0.156442 -1.48005 10.7014 0.156717 
-1.85156 10.9979 0.154065 -1.66815 6.78199 0.155179 -1.72479 7.3661 0.154685 
-1.84685 10.4721 0.154143 1.53778 11.5276 0.179274 1.68214 11.135 0.177855 
1.65758 10.7108 0.176536 1.36977 11.4757 0.179378 1.64213 23.1145 0.161851 
1.6495 22.7009 0.163888 1.43461 23.3013 0.159616 -1.43461 7.43178 0.155998 
-1.64643 7.80723 0.154999 -1.46789 4.45483 0.158931 -1.53 5.8082 0.156379 
-1.57259 6.26836 0.155855 -1.42073 6.47387 0.156274 -1.49394 4.88867 0.157818 
-1.53261 5.31831 0.157011 -1.33939 5.46714 0.157254 -1.32162 4.54191 0.158589 
-1.24076 9.8529 0.158224 -1.03596 9.76056 0.15954 -0.947036 9.11805 0.159473 
1.09706 5.14782 0.162105 0.952866 5.10841 0.161723 0.747474 4.98299 0.16107 
0.615836 4.86212 0.160665 0.869594 5.57597 0.162059 0.485685 4.89016 0.160291 
-1.92287 21.1527 0.157053 -1.73375 21.2161 0.157779 -1.88022 21.6137 0.155515 
1.74428 24.8504 0.154237 1.7407 24.4406 0.156143 1.51799 24.2214 0.155767 
-0.330691 26.7032 0.136314 -0.179835 26.5697 0.137364 -0.135694 25.9934 0.140256 
-1.84273 22.4958 0.152115 -1.84435 22.9154 0.150366 -1.64606 23.0901 0.150167 
-1.17788 26.6153 0.134944 -1.01792 26.6019 0.13529 -1.28597 26.1447 0.136974 
1.74275 22.3318 0.166373 1.74905 21.8726 0.168705 1.56428 21.6356 0.168596 
1.67743 25.7128 0.1497 1.6707 25.3119 0.151548 1.49021 25.0991 0.151452 
1.48514 26.003 0.14714 0.500213 21.7531 0.162874 0.306305 21.7264 0.162366 
-0.596546 15.8045 0.0346314 0.0784311 21.5733 0.162548 -0.107683 21.506 0.16247 
0.214676 22.3269 0.159109 -0.298173 21.3535 0.162845 -0.489296 21.3422 0.16243 
-0.209578 22.0215 0.159543 -0.701537 21.4973 0.160989 -0.90507 21.4372 0.160528 
-0.616129 22.0233 0.158439 -1.29896 20.2949 0.164365 -1.46162 20.3205 0.163082 
-1.5803 20.7669 0.16038 -1.17803 20.7376 0.162915 -0.497866 9.06998 0.162368 
-0.358182 9.73529 0.164658 -2.06051 27.0128 0.131993 -2.01426 26.5346 0.134189 
-1.88239 26.8991 0.132678 0.385239 10.0967 0.171052 0.576275 10.0826 0.171926 
0.82531 10.0928 0.173026 1.02046 10.2456 0.174203 0.714945 9.51357 0.170476 
-1.714 26.8238 0.133212 1.36562 20.9139 0.171021 0.807712 26.2556 0.142429 
1.00564 26.2392 0.143431 1.86655 5.07632 0.164311 1.61544 9.20135 0.171842 
1.62463 8.71162 0.170511 0.402795 26.343 0.140349 0.595869 26.3203 0.141221 
0.714054 25.6867 0.144708 -1.08736 5.81149 0.157359 -1.12239 5.29296 0.157519 
-1.66156 10.282 0.155412 -1.46706 10.127 0.156692 -1.41509 9.43367 0.156739 
-1.65324 9.18481 0.155231 -1.4215 8.90438 0.156478 -1.83287 9.90514 0.154195 
-1.19999 4.55785 0.158493 1.42486 5.05514 0.162982 1.59135 4.96354 0.163362 
-1.98904 26.086 0.136211 -1.73275 24.9589 0.141631 1.44787 10.5376 0.175875 
1.61707 10.2151 0.174906 1.60563 9.74122 0.173456 -1.86461 22.0318 0.153967 
1.69391 4.81016 0.163594 1.27662 11 0.177535 0.896192 21.4629 0.165759 
0.716283 21.5502 0.164611 0.66632 22.2776 0.160786 1.53852 27.7035 0.139288 
-1.80227 8.19843 0.154271 -1.85987 8.83236 0.153963 -1.505 8.26987 0.15589 
1.2781 5.0899 0.162629 1.19538 9.23599 0.171084 1.01784 8.88678 0.169516 
1.24431 8.60113 0.1693 1.27642 5.64361 0.16319 1.49221 22.4235 0.164208 
1.23979 7.34821 0.166153 1.24834 6.79867 0.16497 1.41736 9.49398 0.172367 
-1.85532 9.35377 0.154025 -1.80099 25.9324 0.137147 1.05726 21.2404 0.167609 
1.04886 21.8535 0.1645 1.20251 21.1215 0.169006 1.26824 8.00569 0.167764 
1.04269 7.58999 0.166179 -0.91288 15.8338 0.0284924 0.457143 5.57561 0.161041 
0.295386 5.0145 0.159892 -1.65361 26.3263 0.135572 -1.66682 22.1456 0.154206 
1.17047 25.592 0.147324 1.25148 26.2069 0.144845 -0.0476416 5.27262 0.159295 
-0.184416 5.22654 0.159112 -0.478607 26.6227 0.136334 -0.567547 4.89138 0.158204 
-0.663656 5.48997 0.158231 -0.442052 4.78269 0.158431 -0.203902 10.0975 0.166783 
-0.0271363 10.3375 0.168937 -0.133391 9.41984 0.165572 0.162298 10.2373 0.169997 
0.243181 9.64176 0.168608 -0.833471 26.5605 0.135839 -0.678931 26.5671 0.136134 
-0.917097 26.0148 0.138256 1.37754 21.4234 0.168426 0.932561 15.9026 0.0569973 
-0.462849 15.8497 0.027425 -0.531368 15.8538 0.0275833 -1.04546 22.0031 0.157189 
-1.11478 21.2645 0.16057 0.146097 5.16082 0.159638 0.0476255 5.81463 0.160177 
1.23715 10.4985 0.175531 -0.334949 4.92277 0.158548 -0.392808 15.8456 0.0276443 
-0.321326 15.8426 0.0281121 -0.324073 5.62044 0.158927 -1.03464 8.51551 0.15842 
-0.798876 8.477 0.159863 0.282167 25.8263 0.142378 1.34887 24.5784 0.153089 
1.3033 24.163 0.154777 -1.4669 23.8219 0.147319 -1.49191 24.2752 0.145209 
1.28229 6.18587 0.164004 1.55023 27.3015 0.141307 -1.5367 21.2321 0.158707 
-1.61854 25.8379 0.137848 1.22713 23.5853 0.157086 1.19107 23.079 0.159304 
1.0584 23.9451 0.154493 1.05667 6.31515 0.163521 -0.533086 26.0283 0.139036 
0.284124 22.9808 0.156033 0.0512572 22.8288 0.156089 -1.53596 24.7971 0.142735 
-1.56813 25.2835 0.140461 -1.42094 25.6787 0.138896 -1.32784 24.6013 0.144054 
0.19664 6.40885 0.161208 -0.0190398 6.52308 0.160586 0.70918 15.8785 0.0522675 
0.647219 15.8743 0.0495286 -1.47386 21.7538 0.156684 -1.44996 22.2219 0.154683 
1.18487 9.78272 0.172837 -1.12563 4.80305 0.157907 -0.535482 8.39827 0.161033 
-0.326327 8.3858 0.162219 -0.620575 7.79461 0.159977 0.57492 25.0171 0.147322 
0.785428 24.9534 0.148498 -1.4412 22.7879 0.152117 -1.44269 23.2677 0.149937 
-1.2617 23.5232 0.149246 -0.968755 6.23337 0.157606 -1.2095 6.37948 0.156985 
1.30458 22.2149 0.164103 1.39809 21.8425 0.166475 1.46347 26.9471 0.142496 
0.842221 8.188 0.166978 0.824499 7.52576 0.165319 0.148157 25.3421 0.144239 
0.368208 25.2661 0.145354 -1.29365 6.89432 0.156598 -1.21773 7.34076 0.156901 
-0.110886 7.41811 0.161709 -0.258413 6.81733 0.160355 0.834241 6.18789 0.162758 
-0.647638 25.3327 0.142101 -0.448319 25.3878 0.142309 0.889635 24.4006 0.151563 
1.02989 25.0729 0.149064 0.440546 24.5295 0.149115 -0.132374 8.10768 0.162727 
0.119377 7.81052 0.163394 1.14001 22.4355 0.162112 0.934477 22.7224 0.159703 
-0.249449 25.3931 0.142801 -0.0526993 25.3018 0.143801 0.0339807 24.7388 0.146776 
1.27422 25.0431 0.150478 -1.2366 25.5896 0.139646 0.546171 23.3829 0.154953 
0.713734 22.9227 0.15782 0.815633 23.8227 0.153955 -1.11619 7.87562 0.157634 
-1.2737 8.51473 0.157185 0.547036 8.81288 0.167702 0.794371 8.8268 0.168584 
-1.03173 25.4569 0.14067 -0.848109 25.414 0.14125 -0.762318 24.7718 0.144486 
-1.16656 24.9885 0.142587 -0.986029 7.33704 0.158015 0.783591 6.81569 0.163705 
0.615405 6.07344 0.162083 0.592291 7.41208 0.164275 -1.24921 22.3994 0.154542 
0.768453 15.8806 0.050327 -0.749978 6.12195 0.158128 -0.854849 6.69102 0.15797 
0.400623 6.20012 0.161552 -1.03395 22.5731 0.154399 -0.837325 22.9231 0.153232 
-1.04079 23.3146 0.150773 -0.39106 6.25317 0.159308 -0.555858 5.94499 0.158723 
0.0622465 9.14137 0.166174 0.283942 9.00174 0.166906 0.363403 8.31332 0.165498 
0.878158 15.8962 0.0677915 0.827025 15.8899 0.0563371 -0.756792 7.2267 0.158811 
-0.612394 22.726 0.154827 -0.614673 23.4704 0.15112 0.373615 7.62369 0.163885 
1.45137 8.35725 0.169197 -0.364369 24.694 0.145862 -1.12399 24.4656 0.145115 
0.574746 15.869 0.0467613 0.508628 15.8652 0.0441748 -0.200959 22.7259 0.155917 
-0.396266 22.5746 0.156197 -0.135016 23.377 0.152888 -0.502638 7.14602 0.159629 
1.32105 26.6465 0.143132 -0.475556 23.9849 0.148984 -0.278487 23.9889 0.149482 
-0.0227117 24.0903 0.14971 -0.702706 24.1774 0.147474 -0.901843 24.2611 0.146631 
0.433202 15.8603 0.0418963 0.363975 15.8567 0.03965 -1.06257 23.8711 0.148082 
0.348224 6.91119 0.162605 0.176659 24.1313 0.150133 -0.0908908 8.7798 0.164389 
0.284708 15.852 0.0372485 0.202879 15.8496 0.035522 0.381922 23.8795 0.152014 
0.128396 15.8474 0.0342241 0.0527788 15.8457 0.032787 -1.32377 21.306 0.159413 
-0.0202735 15.8439 0.0316151 -0.0996407 15.8427 0.0284912 -4.12074 32.104 -0.0233209 
-0.639371 0.539629 -0.0386541 -4.11308 31.7372 -0.0216435 -4.10531 31.3538 -0.0199059 
-4.09752 30.9537 -0.0180809 -4.09141 30.6204 -0.0165532 -4.085 30.2541 -0.0148817 
-4.07897 29.8881 -0.0132107 -4.07348 29.5391 -0.0116198 -4.0685 29.2071 -0.0101003 
-4.06343 28.859 -0.00851321 -4.05781 28.4619 -0.0066952 -4.05246 28.082 -0.00496351 
-4.04756 27.7358 -0.00338179 -4.04252 27.3902 -0.00181256 -4.0373 27.0454 -0.000244442 
-4.03203 26.7177 0.00123458 -4.02585 26.3579 0.00285965 -4.01911 25.999 0.00446542 
-4.01138 25.6247 0.00613762 -4.00316 25.2675 0.00771515 -3.9949 24.9436 0.00913262 
-3.98481 24.588 0.0106964 -3.97406 24.2494 0.0121721 -3.96029 23.8633 0.0138207 
-3.94539 23.4941 0.015377 -3.93027 23.1576 0.0167788 -3.91344 22.8217 0.0181827 
-3.87547 22.1668 0.0208179 -3.85209 21.8157 0.0221918 -3.82512 21.4485 0.0235685 
-3.79845 21.1128 0.0248473 -3.76944 20.7766 0.0260296 -3.7372 20.4232 0.0271696 
-3.70428 20.0844 0.0281432 -3.67003 19.7439 0.0290323 -3.63086 19.3684 0.0299039 
-3.59123 18.9897 0.0305697 -3.55503 18.6407 0.0311247 -3.51843 18.2714 0.0314623 
-3.48423 17.8982 0.0317309 -3.45481 17.5383 0.0317975 -3.42933 17.1577 0.0318024 
-3.40949 16.7743 0.0315844 -3.39754 16.3887 0.0313703 -3.39297 16.0024 0.0308944 
-3.39758 15.599 0.0301963 -3.40952 15.2153 0.0296325 -3.42821 14.8519 0.0288326 
-3.45194 14.4921 0.0279532 -3.48337 14.1032 0.0270182 -3.5183 13.7198 0.026229 
-3.55202 13.3749 0.0255215 -3.58638 13.0345 0.024889 -3.6201 12.6987 0.0242487 
-3.65558 12.3354 0.0236758 -3.68703 11.9921 0.0231974 -3.73854 11.3457 0.0224819 
-3.76207 10.9809 0.022168 -3.77854 10.664 0.0220271 -3.79068 10.3638 0.0218761 
-3.79997 10.0204 0.0217153 -3.80429 9.6786 0.021588 -3.80362 9.36787 0.0214738 
-3.79741 9.01406 0.0213659 -3.78698 8.70557 0.0212753 -3.77262 8.41259 0.0211939 
-3.75159 8.09121 0.0211099 -3.72625 7.7852 0.0210219 -3.68895 7.42189 0.0209064 
-3.6475 7.08829 0.0208066 -3.60548 6.79881 0.0207039 -3.49784 6.19204 0.0204543 
-3.42679 5.86015 0.0202545 -3.3497 5.54267 0.0200354 -3.26761 5.23918 0.0197936 
-3.17597 4.93525 0.0194732 -3.06945 4.61584 0.0191643 -2.95609 4.30949 0.0186154 
-2.81823 3.97132 0.0179149 -2.6636 3.62986 0.0168901 -2.49919 3.29841 0.015814 
-2.32346 2.97649 0.0142228 -2.13919 2.66271 0.0125665 -1.89746 2.29203 0.010001 
-1.6396 1.92155 0.00629046 -1.35442 1.57024 0.00476443 -3.89493 22.4861 0.0195398 
-3.71317 11.6828 0.0228064 -3.55768 6.5097 0.0205656 -1.05351 1.15898 -0.00813179 
0.608764 0.511725 -0.00553198 4.10383 32.0982 0.00316421 4.09638 31.7314 0.00507541 
1.05043 1.16652 0.00132208 1.37024 1.5827 0.00430532 1.69081 1.98586 0.0172788 
1.93186 2.33495 0.0259066 2.15803 2.68869 0.0312362 2.35753 3.03267 0.0358918 
2.537 3.36863 0.0390944 2.69719 3.69905 0.0419835 2.84158 4.02507 0.0440956 
2.96531 4.3335 0.0460423 3.08238 4.6544 0.0476365 3.1917 4.9883 0.0492488 
3.2893 5.32108 0.0505623 3.36875 5.62444 0.0517331 3.43993 5.92755 0.0527109 
3.51167 6.27401 0.0538199 3.56679 6.57735 0.054664 3.61511 6.88107 0.0555132 
3.66267 7.22871 0.056406 3.70092 7.56259 0.0573047 3.72999 7.86807 0.0580814 
3.75469 8.18891 0.0588953 3.77307 8.49594 0.0596533 3.7865 8.80385 0.0604183 
3.79523 9.11265 0.0611949 3.79932 9.42251 0.0620044 3.79889 9.74829 0.0628843 
3.79398 10.0606 0.063762 3.78494 10.3742 0.0646816 3.77176 10.6895 0.0656463 
3.75201 11.0521 0.066815 3.7307 11.3717 0.0679189 3.70478 11.709 0.0691263 
3.67824 12.0184 0.0703394 3.6448 12.3779 0.0717722 3.61049 12.7258 0.0733065 
3.57809 13.0459 0.0746319 3.54198 13.4027 0.0762761 3.50501 13.7812 0.0778208 
3.47179 14.1487 0.0794816 3.44457 14.4872 0.0807044 3.41942 14.8641 0.0821805 
3.40104 15.2277 0.083261 3.38945 15.5941 0.0843098 3.38485 15.9798 0.0850434 
3.3883 16.3486 0.0854716 3.39888 16.7167 0.0856436 3.4164 17.0831 0.0853786 
3.43967 17.447 0.0849862 3.4693 17.8248 0.0840564 3.50284 18.1988 0.0830441 
3.54069 18.5855 0.0815008 3.58004 18.968 0.0798837 3.61617 19.314 0.0781034 
3.65021 19.641 0.0763757 3.68479 19.982 0.0743983 3.71797 20.3212 0.0723845 
3.75358 20.707 0.0699712 3.78404 21.0594 0.0677111 3.81087 21.3951 0.0655412 
3.83681 21.7463 0.0632336 3.85939 22.0814 0.0610467 3.88003 22.4166 0.0588412 
3.89956 22.7681 0.0565545 3.91565 23.0879 0.0544629 3.9302 23.4083 0.0524026 
3.94585 23.7933 0.0499249 3.95913 24.1632 0.0475996 3.97044 24.5177 0.0453754 
3.98009 24.8569 0.0432964 3.98991 25.2455 0.040925 3.99864 25.6352 0.0386005 
4.0055 25.9769 0.0365696 4.01261 26.3685 0.0342862 4.01829 26.7119 0.0322952 
4.02361 27.056 0.0303314 4.02884 27.4173 0.0282823 4.03389 27.7794 0.0262588 
4.03835 28.1092 0.024424 4.04326 28.4726 0.0224281 4.04796 28.8201 0.0205285 
4.05281 29.1681 0.0186479 4.05782 29.5167 0.0167739 4.0631 29.8656 0.0149133 
4.06917 30.2483 0.0128823 4.07566 30.6313 0.0108575 4.08221 30.9979 0.00892751 
4.0898 31.398 0.00682148 3.96702 32.4408 0.000288914 -3.99612 32.4471 -0.0249097 
-3.86019 32.4399 -0.0249069 3.80713 32.4326 -0.00089962 3.66324 32.4249 -0.00194794 
3.5233 32.4172 -0.00296815 3.38321 32.4091 -0.00397578 3.23891 32.4005 -0.00501008 
3.10232 32.3921 -0.005969 2.95331 32.3826 -0.00699311 2.81192 32.3735 -0.00795041 
2.67414 32.3644 -0.00885669 2.5359 32.3553 -0.0097484 2.39719 32.3462 -0.0106116 
2.24566 32.3364 -0.0115344 2.09767 32.3269 -0.0123975 1.95325 32.318 -0.0132157 
1.80416 32.3091 -0.0140208 1.65869 32.3009 -0.0147824 1.51274 32.2931 -0.0155078 
1.34117 32.2846 -0.0163267 1.05536 32.2723 -0.0175672 0.895041 32.2666 -0.0182211 
0.730117 32.2616 -0.01886 0.581849 32.2579 -0.0193965 0.44186 32.2552 -0.0198637 
0.297472 32.2532 -0.0203279 0.140229 32.2519 -0.0207964 -0.025574 32.2516 -0.021255 
-0.178618 32.2523 -0.0216484 -0.327349 32.2538 -0.0220021 -0.475964 32.2562 -0.0223296 
-0.624415 32.2593 -0.0226305 -0.785349 32.2637 -0.0229376 -0.933291 32.2686 -0.023187 
-1.07248 32.2738 -0.0233969 -1.22398 32.2802 -0.0236069 -1.37926 32.2875 -0.0238084 
-1.52569 32.2949 -0.0239723 -1.67998 32.3034 -0.024125 -1.84617 32.3131 -0.0242739 
-1.99103 32.322 -0.0243792 -2.13126 32.3309 -0.024469 -2.27919 32.3406 -0.0245503 
-2.43064 32.3506 -0.0246267 -2.5693 32.36 -0.0246808 -2.71154 32.3695 -0.0247332 
-2.85734 32.3793 -0.0247713 -3.00267 32.3889 -0.024807 -3.13953 32.3977 -0.0248318 
-3.27608 32.4063 -0.0248506 -3.42036 32.4151 -0.024871 -3.5604 32.4233 -0.0248819 
-3.71232 32.4318 -0.0248955 1.19846 32.2782 -0.0169681 0.876731 15.8845 0.0458457 
0.837695 15.8828 0.0537457 0.78656 15.8773 0.0577296 0.731126 15.8671 0.052659 
0.667628 15.862 0.052548 0.601377 15.8562 0.0510292 0.528268 15.8504 0.0498299 
0.458875 15.8464 0.0506773 0.389042 15.8425 0.0475783 0.318549 15.8399 0.0470842 
0.244201 15.8368 0.0455693 0.163545 15.8353 0.0447009 0.0805274 15.8347 0.0432307 
-0.071126 15.8367 0.0409795 0.00454007 15.836 0.0409356 -0.149691 15.8434 0.0376948 
-0.221724 15.8469 0.0393774 -0.300705 15.8507 0.0365651 -0.37188 15.8549 0.0354048 
-0.440655 15.8586 0.0342368 -0.51516 15.8643 0.0333235 -0.58999 15.871 0.0320869 
-0.654721 15.8769 0.0303539 -0.719833 15.8817 0.0298113 -0.787303 15.8876 0.0299411 
-0.887953 15.8965 0.0152279 -0.836966 15.8947 0.0223896 -0.1704 15.8406 0.0299578 
-0.24817 15.8409 0.0287612 -0.604678 15.8594 0.0274753 -0.731631 15.8711 0.0260191 
-0.669556 15.8646 0.028459 -0.840348 15.8886 0.0281834 -0.789018 15.8802 0.023832 
-0.885257 15.8936 0.0340364 -0.158878 15.8421 0.0367803 -0.231026 15.8438 0.0331193 
-3.8093 32.2797 0.0414915 -3.84515 32.0223 0.0426562 -3.81329 32.2815 -0.0918472 
-3.89604 32.1824 -0.0237256 -0.450184 15.8545 0.0313533 0.438568 15.8532 0.0449316 
0.514088 15.8577 0.0470036 -0.656541 15.8698 0.0291739 -0.591338 15.864 0.0301981 
-0.524349 15.8587 0.0301934 0.210072 15.8429 0.0408768 0.587025 15.8625 0.0489564 
0.658466 15.8682 0.0510272 -0.891095 15.8958 0.0256501 0.0595484 15.8404 0.0381389 
0.135566 15.842 0.0386154 -0.0893529 15.8421 0.0376275 0.882577 15.89 0.0568266 
0.838117 15.8847 0.0551054 -0.843737 15.8922 0.0261794 -0.379672 15.85 0.0312992 
-2.23577 2.9634 0.0179732 -2.45643 3.3027 0.0172868 -2.40755 3.31694 0.0184412 
-0.752732 15.908 0.0238334 -0.764922 15.9062 0.0261982 -0.82108 15.9149 0.0242388 
-0.0129769 15.8407 0.0364999 -3.72163 31.9862 0.0427749 0.721122 15.8745 0.054249 
0.290057 15.846 0.041525 0.369106 15.8489 0.0436961 -0.754522 15.8567 0.0282793 
-2.38856 14.9931 0.0246451 -2.56217 15.0409 0.02538 -2.55656 14.6893 0.0239174 
-0.309033 15.8472 0.032787 -0.718935 15.8766 0.0272497 -0.754832 15.8516 0.0315399 
-0.812285 15.8612 0.0288869 -0.824946 15.9099 0.0268278 -3.83615 31.9196 -0.0901667 
-3.91897 31.8205 -0.0220706 0.81513 15.9054 0.0563242 0.81385 15.9066 0.0599211 
0.81515 15.8584 0.0506939 1.89782 2.29191 0.0252305 0.756578 15.8495 0.0498218 
0.759192 15.902 0.0561273 -0.811115 15.8641 0.0252488 0.531298 15.5302 0.0416276 
0.629755 15.1851 0.0447315 0.534379 15.186 0.0424093 -0.0593152 16.8285 0.0355768 
-0.117224 17.1642 0.0358666 -0.0983673 16.4959 0.036825 -0.155511 16.8336 0.036843 
-2.59352 5.15956 0.0186653 -2.39096 4.85195 0.0182526 -2.51597 4.81163 0.018796 
-2.67065 5.53473 0.018494 -2.78353 5.45605 0.0189344 -2.60393 12.9743 0.0192225 
-2.65162 12.5482 0.0189901 -2.48681 12.7307 0.0182986 0.717858 15.2004 0.046034 
0.733615 14.8235 0.044782 -0.828683 16.873 0.0334235 -0.810093 16.5286 0.0328106 
-0.717138 16.5196 0.0316577 -1.08836 27.3178 -0.00165205 -1.16499 27.8303 -0.00390182 
-1.24861 27.331 -0.00189912 2.78832 10.2733 0.0482653 2.93998 10.0771 0.049891 
2.7877 9.9171 0.0471722 0.815283 2.52561 0.00359547 0.884241 2.94265 0.00519736 
0.959209 2.88265 0.00575255 -2.70256 6.69889 0.0177217 -2.5188 6.42893 0.017093 
-2.56226 6.78582 0.0170844 1.75267 29.0262 0.00155628 1.8254 29.3675 0.000424748 
1.65744 29.3425 -0.000499836 1.57041 31.2597 -0.0101159 1.72424 31.2649 -0.00928419 
1.48866 30.8961 -0.00880287 1.64233 30.9012 -0.00797914 -2.99214 28.8781 -0.00901972 
-2.95307 28.4533 -0.00715185 -3.11556 28.6264 -0.00786093 3.05654 23.7236 0.0390913 
3.21524 23.5544 0.042084 3.04556 23.3475 0.041104 1.1776 29.2608 -0.00282103 
1.24889 29.7106 -0.00450344 1.33586 29.2603 -0.00197616 1.40734 29.7102 -0.00365203 
-1.95511 2.65721 0.0205239 -1.75252 2.28749 0.0209708 -2.00991 2.62987 0.019023 
-1.79763 2.25746 0.0189857 1.65044 31.6089 -0.0113851 1.40702 30.5023 -0.00736395 
1.56694 30.5028 -0.00649115 1.32558 30.128 -0.00603696 1.48535 30.1284 -0.00517418 
0.653402 26.2499 0.00750689 0.746933 26.8179 0.00561839 0.443017 25.9265 0.00789631 
0.536245 26.4942 0.00600164 -2.81994 4.67008 0.0196165 -3.01102 4.9815 0.0196214 
-2.91273 4.64959 0.0195195 -2.68972 26.2319 0.00233642 -2.85841 26.0643 0.0031367 
-2.67687 25.8351 0.00399028 -2.84497 25.6685 0.00478807 -1.71265 10.1619 0.0157226 
-1.72348 10.7308 0.0157895 -1.50397 9.99142 0.0156199 -1.5186 10.5654 0.0157617 
2.48516 27.8988 0.0121234 2.66599 28.0543 0.0128239 2.49581 28.3211 0.0101624 
-1.4853 4.52404 0.0115985 -1.61821 4.48004 0.0129446 -1.30889 4.17817 0.0101535 
-1.43359 4.13018 0.0114951 -2.11741 30.9308 -0.0181497 -2.05016 31.3015 -0.0197903 
-1.96784 30.9282 -0.0180799 -1.90017 31.2993 -0.0197144 0.0321538 0.194261 -0.000448748 
-1.90681 31.9963 -0.0228646 -1.75789 31.9892 -0.0227465 -3.77292 30.6146 -0.0166074 
-3.65307 30.4917 -0.0160835 -3.87866 30.4998 -0.0160606 -3.75892 30.3774 -0.0155336 
2.6441 5.06555 0.0354206 2.83682 5.31844 0.0394882 2.75693 4.96392 0.0379745 
2.02208 28.0086 0.00808973 1.84475 28.2264 0.0058462 1.95169 27.5136 0.00986074 
1.7744 27.7312 0.00763209 1.78575 27.3299 0.00950744 3.10898 9.91355 0.0519814 
3.11018 9.56593 0.050962 3.25428 9.74466 0.0537642 -1.6043 31.9803 -0.0226062 
-1.68064 31.634 -0.0210914 0.590269 30.0655 -0.00913982 0.661799 29.6711 -0.0070648 
0.732817 30.063 -0.00854519 1.58131 18.786 0.0456278 1.73577 18.8247 0.0479699 
1.58116 18.391 0.0485381 1.73429 18.4356 0.0506066 1.82344 2.32846 0.0224286 
2.06329 2.65738 0.0279189 1.77474 2.37591 0.0203663 2.00449 2.68028 0.0255593 
0.859228 1.1165 0.00265728 1.03803 1.43541 0.00568243 1.09288 1.42544 0.00728479 
1.67228 28.5497 0.00324493 1.67546 28.1624 0.00502671 1.51958 28.4065 0.00294758 
1.29831 1.49957 0.0118688 1.31595 1.45829 0.0122364 1.62533 1.91369 0.0195315 
0.512732 30.4549 -0.011211 0.655713 30.4518 -0.0106398 -0.201092 26.0274 0.00534891 
-0.0476963 26.5132 0.00382923 -0.00381355 25.937 0.00626771 -0.282582 17.5472 0.0353425 
-0.38244 17.5524 0.0353055 -0.345559 17.9404 0.0344328 0.0414158 27.1265 0.00160165 
-0.147962 27.1239 0.00104222 2.60819 31.3909 -0.00428321 2.75337 31.4175 -0.00339606 
2.53076 31.7068 -0.00643054 2.67625 31.7332 -0.005566 2.4577 31.3584 -0.00515153 
-3.49041 26.5243 0.00164308 -3.48513 26.148 0.00328265 -3.33421 26.3008 0.0024846 
2.79171 9.19327 0.0451397 2.94962 9.36461 0.0479233 2.79653 9.55254 0.046216 
3.35281 17.9997 0.0813136 -3.26541 5.585 0.0199685 3.28044 5.69995 0.0492346 
3.19536 5.82443 0.0470195 3.11667 5.4725 0.0456683 0.459791 1.06658 -0.00123738 
0.569755 1.42258 -0.000302501 0.604314 1.37718 3.21025e-05 0.71187 1.74019 0.00121507 
3.43923 20.2727 0.067834 3.58937 20.4717 0.0689083 3.47243 20.6241 0.0657472 
3.29321 17.2429 0.0830579 3.1655 17.4164 0.0804961 3.13905 17.0604 0.0810233 
2.54465 31.038 -0.00293064 2.69476 31.0707 -0.00203734 1.41235 31.2577 -0.0109476 
1.4922 31.6068 -0.0122265 3.29831 18.8759 0.0753882 3.26416 18.5149 0.0770652 
3.11912 18.6626 0.0736848 2.64638 21.8156 0.0444645 2.64098 21.4426 0.0465789 
2.46633 21.9411 0.0411758 2.46332 21.5667 0.0431949 0.498401 17.2082 0.0399278 
0.580001 17.5765 0.0390515 0.596384 17.2 0.0412699 1.73849 29.7745 -0.00203075 
1.57005 29.7502 -0.00291455 1.39824 15.1784 0.0493323 1.5564 15.1193 0.0514678 
1.27132 15.4599 0.041001 -2.19742 31.9937 -0.0229592 -2.27016 31.6745 -0.0215369 
-2.11844 31.6683 -0.0214659 -0.293279 16.1659 0.0340003 0.816254 17.219 0.0450402 
0.811886 17.6011 0.041949 0.70722 17.2194 0.0426773 3.39878 24.8365 0.0367907 
3.5535 24.6515 0.0396635 3.40337 25.2113 0.0346882 3.55902 25.025 0.0375032 
-3.86479 30.1994 -0.0146944 -3.63104 30.1726 -0.0146394 -3.73708 29.9952 -0.0138021 
-1.18703 21.2472 0.0215786 -1.3156 21.7443 0.0196605 -1.249 20.7216 0.0232785 
-1.38017 21.2197 0.0213825 -3.2989 29.1548 -0.0101533 -3.43997 29.3054 -0.0107796 
-3.3248 29.5148 -0.0117617 0.452928 15.5286 0.0399205 0.444507 15.1901 0.041497 
0.371884 15.5291 0.0401448 -3.54068 28.3571 -0.00647035 -3.38637 28.1751 -0.0057341 
-3.404 28.5543 -0.0074202 -3.2494 28.3714 -0.00667371 0.927288 17.9863 0.0411472 
0.800039 17.98 0.0394324 -2.74014 18.2665 0.0298014 -2.58028 17.9996 0.0300375 
-2.63304 18.3445 0.0295855 -1.92843 28.9333 -0.00924324 -1.84117 29.3203 -0.0108942 
-2.07691 28.9644 -0.0094318 -1.99003 29.351 -0.0110943 -0.0552484 0.490956 -0.00338126 
-0.0729338 0.794722 -0.00232651 -0.0384269 0.485832 -0.00342882 -1.96479 18.1397 0.0290053 
-1.94628 17.7254 0.0300279 -2.11896 18.1046 0.0294879 -3.59762 24.9324 0.00866688 
-3.59199 24.5853 0.0101436 -3.73188 24.8142 0.00935427 0.692542 17.5777 0.0402794 
-0.584256 13.6555 0.0185173 -0.66627 13.2603 0.0178995 -0.711684 13.6355 0.0164227 
-0.986118 13.554 0.0133402 -0.942366 13.1037 0.0152152 -0.846681 13.6096 0.0146916 
-2.74571 7.01859 0.0177582 -2.61464 7.14877 0.0171968 -2.85361 20.8197 0.0231066 
-2.97825 20.6788 0.0238782 -2.82441 20.4461 0.0242549 -2.94701 20.3053 0.0250091 
-3.58692 11.8091 0.0224776 -3.55961 12.1394 0.0228973 -3.45993 11.9502 0.0221704 
-2.90796 19.9512 0.0260073 -2.77638 20.0573 0.025352 -2.87415 19.6035 0.0269731 
-2.74391 19.7104 0.0263171 3.01027 14.7062 0.0744736 2.86215 14.5291 0.0709657 
3.04217 14.3468 0.072947 1.50923 6.05167 0.0204666 1.63457 5.87029 0.0211479 
1.72684 6.45265 0.0239062 1.85776 6.27432 0.0249859 0.150386 0.198728 -0.00147792 
-2.33536 20.063 0.0244108 -2.42493 20.4897 0.0233093 -2.18825 20.1061 0.0240645 
-2.27542 20.5349 0.0229411 -0.853038 28.7267 -0.00727528 -0.923369 29.1939 -0.00940971 
-1.00578 28.7518 -0.0076213 -2.70118 26.6274 0.000667371 -2.52288 26.4557 0.00132691 
-2.51154 26.0594 0.0029798 -2.13714 4.97744 0.0165347 -1.93929 4.68299 0.0155113 
-2.27699 4.95451 0.0174179 -2.07393 4.65384 0.0166657 1.60185 2.56743 0.0153654 
1.68528 2.54008 0.0171291 1.83455 2.88641 0.019922 -2.18991 2.98756 0.0191479 
-0.817635 15.1973 0.00765789 -0.965406 14.8174 0.00550069 -0.854642 14.7997 0.0091411 
-0.837964 17.2184 0.0342777 -0.730276 16.8633 0.0344399 -3.51681 22.4702 0.0186991 
-3.36698 22.2262 0.0193085 -3.38284 22.5867 0.0179515 -3.03504 21.4132 0.0215213 
-2.89799 21.555 0.0207371 -3.05983 21.7778 0.0202867 -2.89384 12.8792 0.0208874 
-3.02925 12.7279 0.0213881 -2.90544 12.5461 0.0203936 -0.852214 31.2343 -0.0183497 
-0.70529 31.2191 -0.0180294 -0.782302 31.5781 -0.0197924 -3.42953 12.2912 0.0225868 
-3.28203 12.4451 0.0221492 -3.39772 12.6427 0.0230962 -3.52483 12.4942 0.0234005 
-3.20593 14.4312 0.0265545 -3.3413 14.2856 0.0267949 -3.23772 14.0512 0.0256006 
-0.448774 1.11589 0.00179743 -0.312906 0.793362 -0.00122665 -0.40523 1.1091 3.08024e-05 
-3.0325 14.9346 0.0270835 -3.04994 14.5725 0.0261276 -3.1732 14.8064 0.027409 
-1.97768 30.1633 -0.0146737 -1.9014 30.5521 -0.0163678 -2.04688 30.5636 -0.0164826 
-0.925454 31.585 -0.020052 -2.729 5.88002 0.0184052 -2.78903 6.24582 0.0183419 
-2.90714 6.14626 0.0188358 -2.53686 5.58759 0.0178442 -3.17936 7.10467 0.019273 
-3.05848 7.21705 0.0188602 -3.00687 6.82111 0.0188149 -2.88684 6.93445 0.0183298 
-3.13734 6.01397 0.0195925 -3.07289 5.68184 0.0196203 -2.96682 5.74084 0.0193188 
-2.89666 5.40223 0.019335 -3.17563 5.6427 0.0198245 -3.0981 5.31175 0.0197186 
-2.99793 5.34444 0.0195595 3.21772 19.3608 0.0706739 3.25576 19.7227 0.0687288 
3.07691 19.5053 0.0671797 -2.42195 4.43701 0.0190648 -2.22364 4.1384 0.0188496 
-2.32474 4.51697 0.0185469 -3.33721 5.91859 0.0201019 -3.24107 5.96321 0.0198944 
2.87516 23.1313 0.0401306 3.02684 22.9848 0.0429728 0.631164 27.8214 0.000892495 
0.749193 28.2849 -0.000575116 0.473065 27.8114 0.000280045 0.590955 28.2741 -0.00121413 
1.28484 16.3796 0.0536093 1.50634 16.7057 0.063697 1.37446 16.6263 0.0658953 
-1.84633 16.9176 0.0307643 -1.90097 17.325 0.0314218 -1.7183 16.9908 0.0309164 
-2.9168 5.01965 0.0195176 -2.81876 5.07219 0.0193822 -2.72679 4.71212 0.0194477 
-2.96348 22.9648 0.0157353 -2.8071 23.1027 0.014992 -2.96525 23.3027 0.0144447 
-2.80757 23.4418 0.0137047 3.29336 7.2516 0.0492005 3.1204 7.0455 0.0457789 
3.25047 6.91489 0.0480617 -2.90402 14.7174 0.0258263 -2.92711 14.359 0.0248048 
0.0144628 12.3326 0.0284399 -0.016628 12.789 0.0291375 -0.149608 12.3354 0.0260321 
-2.08642 15.1816 0.0231918 -2.25364 15.384 0.0258148 -2.0086 14.8802 0.0201276 
-2.15686 15.0776 0.0228869 -0.290412 5.75486 0.00914371 -0.304844 5.05524 0.00699211 
-0.448284 5.44893 0.00825173 -2.90914 31.4066 -0.0203646 -2.77144 31.3727 -0.0202192 
-2.98434 31.0847 -0.0189047 -2.8469 31.0508 -0.0187644 0.0158257 1.09245 -0.00211285 
-0.00139839 1.41798 -0.00191736 0.0396876 1.43047 -0.00180689 0.0217655 1.76221 -0.00143829 
1.64471 30.1522 -0.0043755 2.83873 29.6882 0.00603803 2.71431 30.0395 0.00332541 
2.87107 30.1034 0.00417955 -3.70989 21.5493 0.0228265 -1.36191 12.1353 0.0152277 
-1.378 12.6371 0.0145064 -1.5252 12.2247 0.0150256 1.58816 29.0149 0.000595815 
1.49255 29.3318 -0.00142286 1.85627 3.95877 0.0198968 1.7871 3.61557 0.0184135 
1.63275 3.63499 0.0158736 1.55893 3.2918 0.0142989 -2.39312 14.4737 0.0214705 
-2.17492 14.5613 0.0204387 -2.29935 14.1638 0.0196849 -0.95095 15.5561 0.0209636 
-1.14345 15.2115 0.00240457 -1.02486 15.1998 0.00264208 3.19912 7.72251 0.0481399 
3.03916 7.51778 0.0450691 3.16864 7.38041 0.0470549 -1.52865 30.1371 -0.0142767 
-1.67645 30.1433 -0.0144176 -1.59932 30.5259 -0.0160618 -0.156001 0.186477 0.00736563 
-0.14034 0.175938 0.0109969 -1.93259 14.2914 0.0166669 -1.90432 14.0274 0.0159209 
-2.05234 13.8827 0.0168693 0.0239301 0.197381 -0.00100629 0.0557402 0.485874 -0.0014034 
-0.296744 1.12396 -0.00229616 -0.258364 1.11913 -0.00284538 -0.355583 1.47688 -0.00158574 
-2.02212 13.6031 0.0162564 -2.16701 13.4617 0.0171014 -0.161605 0.498244 -0.00376025 
-0.08243 0.19436 -0.00159468 -0.177859 0.491809 -0.00220566 -0.918004 2.14832 0.00937873 
-1.0227 2.5326 0.0095256 -1.00072 2.1565 0.0118261 -1.11535 2.54241 0.011752 
0.974425 31.9179 -0.0162051 0.88748 31.5746 -0.0149323 1.03548 31.5815 -0.0143215 
1.60062 17.6744 0.0552067 1.75735 17.7127 0.0575414 1.72949 18.0182 0.0540458 
1.88605 18.0454 0.0567562 -0.135323 3.36489 0.00205496 -0.220498 3.32952 0.00201768 
-0.137856 3.92801 0.00372638 -0.233446 3.89206 0.00358113 1.59532 17.3304 0.0590885 
1.45819 17.2963 0.0567254 -3.56465 9.94061 0.0207844 -3.55811 10.2804 0.0209345 
-3.43706 10.0736 0.0203561 -4.02802 32.1893 -0.0237251 -3.67042 10.4964 0.0214872 
-3.54793 10.6137 0.0210836 1.70568 17.0234 0.0620156 1.61033 16.6171 0.066428 
-0.614116 16.1804 0.0300229 1.13026 13.6103 0.0433185 0.984313 13.6049 0.042975 
1.11103 13.1667 0.0418188 -2.85231 5.81575 0.0188884 -0.53457 16.1718 0.0305046 
-3.79548 31.7845 -0.0219328 0.341055 16.501 0.0426219 0.25027 16.4806 0.0415454 
0.320793 16.8388 0.03915 0.0714137 0.483752 -0.00177107 0.592037 2.56291 0.00220394 
0.486635 2.19667 0.000757132 0.54406 2.15548 0.000900569 0.436153 1.79658 -0.000333232 
3.33557 29.0462 0.0133225 3.33703 28.674 0.015284 3.17379 28.8701 0.0128965 
3.17555 28.4978 0.0148375 3.01815 22.6289 0.0449687 2.86796 22.7742 0.0420569 
0.669525 2.57714 0.00263885 -2.49769 25.6531 0.00465678 -0.621836 16.5115 0.0313277 
-0.533779 16.5034 0.0331305 -0.703271 16.1823 0.0298245 -1.23051 28.3098 -0.00601839 
-1.38212 28.3427 -0.00632055 -1.31645 27.8631 -0.00421213 -3.21956 7.45392 0.0193362 
-3.2481 7.79554 0.019374 -3.37058 7.71525 0.0198275 -2.72527 4.35111 0.0194988 
-2.81608 4.34283 0.0193552 -2.59907 3.9907 0.0195565 -2.68685 3.98925 0.0191512 
0.0475215 14.8322 0.0366843 0.0856329 15.1949 0.0376359 -0.00102828 15.198 0.0359245 
2.07661 18.8563 0.0538068 1.90181 18.8118 0.0509606 2.013 19.2211 0.0499443 
2.48114 16.9975 0.0724763 2.41701 16.6443 0.072332 2.67731 16.8377 0.0749988 
2.62293 16.4823 0.0747937 1.0237 15.2058 0.049606 0.859965 15.5537 0.0508049 
0.920456 15.198 0.0491488 -0.12387 15.519 0.0339487 -0.0873049 15.1876 0.032886 
-0.0419042 15.5257 0.0353909 -0.0507518 14.8189 0.0329658 2.59284 6.42204 0.0357511 
2.37417 6.19103 0.0318212 2.54551 6.05554 0.0343831 -4.02067 31.8393 -0.0221328 
1.65198 14.7813 0.0481016 1.75793 14.893 0.0531242 1.9872 13.7924 0.0493059 
2.03398 13.3893 0.04816 1.86295 13.6558 0.0464417 2.12902 14.8323 0.0609179 
2.06452 15.2476 0.0637142 2.01425 14.6331 0.0564853 1.92825 15.0363 0.0596302 
3.01885 11.6211 0.0568784 2.87433 11.468 0.0538188 3.04454 11.2806 0.055846 
0.965797 9.58746 0.0279162 0.777453 9.60454 0.0266495 0.84827 8.92756 0.0247206 
3.63906 8.32359 0.0569391 0.542325 1.76681 0.000107061 0.48882 1.77416 -0.000142571 
0.607056 2.14863 0.00124762 3.40436 12.0775 0.0657866 3.53572 12.2072 0.0687933 
3.54679 11.8961 0.0672977 -3.26989 23.4065 0.014512 -3.11637 23.1767 0.0151609 
-3.25693 23.0567 0.01587 -0.0901481 10.8751 0.0237534 0.0683371 10.4672 0.0240597 
0.0653621 10.9991 0.0254971 0.372734 28.8332 -0.00449409 0.520597 28.8263 -0.00389775 
0.442977 29.2133 -0.00589932 0.59103 29.2068 -0.00528949 -2.48796 25.2567 0.00627346 
-2.66707 25.4395 0.00562287 -2.65716 25.0561 0.00718568 -3.1487 15.1689 0.0282535 
3.22198 20.9186 0.059372 3.25347 21.2851 0.0572927 3.0917 21.062 0.0562214 
3.1209 21.4281 0.0541821 2.96045 21.2048 0.053118 -2.81186 29.9445 -0.013805 
-2.75757 29.527 -0.011952 -2.91401 29.6043 -0.0122716 -3.63848 27.0858 -0.00072158 
-3.78693 27.3061 -0.00160101 -3.50265 27.2195 -0.00141376 -3.65123 27.4411 -0.00229947 
-3.11005 30.0696 -0.0143148 -3.01255 30.3889 -0.0157695 -3.15311 30.4462 -0.0160007 
-0.49566 14.0667 0.0197112 -0.414541 14.4522 0.0216474 -0.384635 14.0793 0.0224525 
0.583686 30.8205 -0.0126205 -1.95512 18.5023 0.0277819 -2.10707 18.9079 0.0270903 
-1.95014 18.9142 0.0267145 0.148968 0.799332 -0.00281578 0.0871173 0.482792 -0.00174096 
0.10488 0.488595 -0.00242802 -2.54557 29.0393 -0.00981134 -2.44808 29.4272 -0.0115234 
-2.70262 29.0944 -0.0100405 -2.60558 29.4821 -0.0117657 -2.85844 10.6801 0.018567 
-2.7091 10.4951 0.0179596 -2.87323 10.2958 0.0184368 -2.72055 10.1076 0.0178558 
-2.7219 30.3014 -0.0154108 -2.86639 30.3383 -0.0155636 -2.92358 32.0677 -0.0233543 
-3.27378 15.3691 0.0293606 -2.12344 18.5405 0.0280846 -2.98685 31.7552 -0.0219341 
-2.8412 31.7283 -0.0218237 1.98081 25.9429 0.0171498 1.94731 25.4714 0.0189523 
2.18293 25.7399 0.0197528 2.14865 25.2693 0.0215891 3.41334 30.6797 0.00537868 
3.26738 30.8502 0.00335583 3.51569 30.3642 0.0078467 3.36983 30.5349 0.00580186 
3.10522 15.5943 0.0797135 3.24722 15.4142 0.0814481 3.24814 15.7778 0.0824664 
-2.78541 30.6736 -0.0170737 -2.92724 30.7152 -0.017248 -2.62859 31.3589 -0.0201583 
-2.69923 31.7088 -0.0217387 -2.56249 31.6853 -0.0216271 1.22637 10.3707 0.0326018 
1.39212 9.91003 0.0321877 1.17241 9.65451 0.0296753 2.86331 6.15403 0.0401141 
3.03092 6.37014 0.0434572 2.91155 6.48663 0.0413493 2.57851 18.8623 0.063152 
2.54299 18.5057 0.0652324 2.68585 18.7213 0.0660448 2.6509 18.362 0.0678629 
3.06855 20.7088 0.0583164 2.9052 20.4854 0.0571019 2.93972 20.8521 0.0551528 
-1.8147 18.5029 0.027564 -0.212509 0.485913 -0.00169245 -0.196616 0.492878 -0.00247666 
-2.50197 19.9687 0.0249345 -2.4072 19.6223 0.0257861 -2.24333 19.7143 0.0252184 
-3.23861 20.4682 0.0252924 -3.07543 20.2124 0.0256476 -3.10853 20.5606 0.0245997 
3.25516 9.05709 0.0518688 3.10889 8.8929 0.0491153 3.25014 8.73628 0.0510099 
2.53519 29.9114 0.00264958 2.58107 30.3177 0.000954008 -0.0651675 0.194034 -0.000842891 
-0.12568 0.50158 -0.00355143 -0.0602259 0.209742 -0.00188193 3.41709 13.25 0.0729519 
3.30433 13.097 0.0699566 3.26494 13.4538 0.0714401 3.09295 25.5701 0.0293793 
2.90964 25.3559 0.0285971 2.92408 25.7486 0.0267128 -2.07173 10.9992 0.0163087 
-2.1879 11.3113 0.0166246 -2.24636 11.0952 0.0167376 -2.35934 11.405 0.0171626 
-2.66037 28.6637 -0.00814978 -2.82382 28.7714 -0.00859107 2.27375 21.2301 0.0422657 
2.27514 21.6114 0.0402784 2.45982 21.187 0.0453172 3.2249 23.9137 0.040088 
3.36978 23.7548 0.0428463 0.994465 25.0639 0.0139367 1.07539 24.3699 0.0171052 
1.18436 24.8937 0.0157609 2.66022 29.56 0.00532005 -2.7022 17.0968 0.0303789 
-2.80708 17.4467 0.0305398 -2.90155 17.2697 0.0306561 -3.44158 9.71838 0.0202477 
-3.31491 9.48497 0.0197046 -3.44206 9.37073 0.0201376 3.21932 12.6077 0.0654796 
3.05836 12.7967 0.0636048 3.08327 12.4615 0.0621925 3.37462 12.4202 0.0671524 
3.48308 12.5995 0.0701295 3.33774 12.7673 0.0685537 -2.92441 21.9132 0.0195315 
2.72289 30.3892 0.00162547 3.04676 30.5697 0.00312485 2.91636 30.8194 0.000863694 
3.11668 30.8636 0.00213322 2.98671 31.1136 -0.000136557 -3.02121 26.2462 0.00247479 
-3.03246 26.6157 0.000898655 -2.86536 26.4336 0.0015741 0.71797 3.01142 0.00411725 
0.63184 2.99642 0.0035038 0.753663 3.46951 0.00564566 2.82347 19.786 0.0606724 
2.7896 19.4274 0.0626991 2.66511 19.5624 0.0594828 -1.80528 18.1409 0.0285092 
-1.66499 18.1335 0.0284495 -2.43423 21.9129 0.0187973 -2.47704 22.2628 0.0176634 
-2.60231 21.8084 0.0193505 -2.64683 22.157 0.0182098 1.44023 15.5556 0.0639901 
3.65549 23.4131 0.0487132 3.78007 23.2397 0.0515507 3.80575 23.5827 0.0495543 
3.91565 28.6464 0.0203754 3.77352 28.8349 0.0181336 3.77188 28.4757 0.0200784 
2.38018 29.8825 0.00168227 2.22012 29.8297 0.000828392 2.26765 30.2403 -0.000855774 
-0.951061 16.2079 0.024531 -0.859224 16.1933 0.0340356 -1.74815 30.5434 -0.0162423 
3.19477 11.1067 0.0576045 3.33918 11.264 0.0606871 3.35999 10.9284 0.0596247 
3.16112 28.1402 0.0165674 3.0174 28.3338 0.0143435 3.88928 27.6163 0.0258853 
3.7591 27.7705 0.0238482 3.75113 27.4176 0.0257399 3.63304 28.6528 0.0179252 
3.62812 28.2948 0.0198167 2.61232 13.8971 0.0624569 2.68534 13.5721 0.0615539 
2.79592 13.7222 0.0645534 0.918339 5.63132 0.0138812 0.70622 5.50627 0.0119956 
0.883858 6.2434 0.0156547 -0.0776471 0.207993 -0.00204711 0.670838 2.12309 0.00161933 
0.744447 2.55191 0.00310922 1.11744 22.2635 0.0252539 1.20784 22.8451 0.0237594 
1.36032 22.0594 0.0279437 1.45331 22.6405 0.0264574 3.28822 27.2102 0.0225775 
3.28701 26.837 0.0245537 3.43369 27.0479 0.0248102 3.43211 26.6754 0.0268213 
-1.55187 12.6276 0.014576 -1.42181 13.1109 0.0136242 3.73893 26.6976 0.0296848 
3.73193 26.3408 0.0316594 3.8781 26.5414 0.0319429 3.40654 19.9244 0.0698687 
3.56737 20.1188 0.0712291 3.52349 19.7834 0.0729734 2.87986 30.4528 0.00246609 
3.03472 30.3391 0.00422104 0.386131 1.79492 -0.000503825 0.340983 1.44872 -0.00122358 
-0.698169 30.4508 -0.0145615 -0.620147 30.0433 -0.0125986 -0.556225 30.4378 -0.014225 
-0.478539 30.0307 -0.0122465 3.90407 31.77 0.00338943 3.77905 31.5587 0.00356039 
3.98274 31.4997 0.00544765 3.8579 31.2886 0.00560998 0.599969 0.837309 -0.00124228 
0.764927 1.13722 0.00110498 0.816002 1.13088 0.00205673 -2.58685 8.76709 0.0170879 
-2.59976 9.15351 0.0172095 -2.72353 8.60417 0.0175044 -2.73891 8.9878 0.0176287 
3.66905 30.4666 0.00851801 3.65305 30.1068 0.0103129 3.80611 30.2801 0.0106129 
3.79021 29.9205 0.0124111 -2.39114 10.5067 0.0170096 -2.55612 10.6837 0.0175389 
-2.56277 10.3146 0.0174299 0.740488 12.2935 0.0365407 0.608086 12.2567 0.0353362 
0.651884 12.7702 0.037793 0.523854 12.7327 0.0364613 0.207896 31.2254 -0.0158059 
0.288951 30.8256 -0.0137036 0.0559734 31.2189 -0.0162405 0.137647 30.8186 -0.0141585 
0.196934 16.1518 0.0423905 -2.23397 8.91013 0.0161359 -2.39045 8.57576 0.0164343 
-2.03238 8.73532 0.015599 -2.18722 8.3965 0.0158186 -3.56802 9.23479 0.0205633 
-3.56815 9.59622 0.0206716 -3.30745 10.194 0.0199409 -3.299 10.5286 0.0201009 
-3.42937 10.4095 0.0205165 -2.05117 32.0056 -0.0229651 -1.97513 31.6553 -0.0213519 
0.876978 6.89147 0.0179764 0.686176 7.48716 0.0186716 1.06788 7.25835 0.0206156 
0.873898 7.85358 0.0212571 -3.15474 18.2576 0.0305626 -3.29859 18.5027 0.0305397 
-3.18779 18.6103 0.0301007 -3.80012 31.1433 -0.0190127 -3.97744 31.1269 -0.0188956 
-3.88331 31.4913 -0.0205777 -0.339912 14.8267 0.0260646 -0.311185 14.4495 0.0242807 
-0.808088 1.44088 0.0166727 -1.01233 1.78468 0.0182408 -0.944085 1.78273 0.0152205 
-2.75539 13.007 0.0203379 -2.76884 12.6742 0.0198164 -0.991429 1.06774 0.0202178 
-0.697825 0.708245 0.0262159 -0.98933 1.02744 0.0108739 -2.36171 8.19637 0.0162765 
2.80534 15.2343 0.0738108 2.83967 14.8858 0.0725821 2.65524 15.0399 0.0707183 
-2.94392 18.8057 0.0291855 -2.98762 19.1658 0.0284223 -3.06737 18.7175 0.029623 
-3.11046 19.0798 0.0289495 -2.6275 22.8225 0.0158169 -2.45247 22.9449 0.0152017 
-2.63708 23.1937 0.0144553 -2.58315 19.4121 0.0267938 -2.42696 19.4306 0.0263282 
-2.59402 19.7797 0.0257297 -3.04321 19.8638 0.0266329 -3.00565 19.5049 0.0276093 
-1.28093 16.6147 0.0327046 -1.46947 16.9945 0.0327083 -1.32813 16.9637 0.0330473 
-3.67511 8.79473 0.0208759 -3.12495 31.7785 -0.0220247 -3.26426 31.8058 -0.0221297 
-3.19867 32.0999 -0.0234682 -2.70291 18.69 0.0289259 -2.5114 18.637 0.0286771 
-1.43797 9.23218 0.0151403 -1.15548 8.93775 0.0150346 -1.67489 8.98533 0.0151229 
-1.39082 8.68826 0.0147094 -0.309063 22.521 0.0183953 -0.309007 21.8349 0.0209116 
-0.113632 22.6739 0.0182755 -0.116194 21.9874 0.0207561 -1.67149 30.9136 -0.0178457 
-1.52218 30.8965 -0.0176527 -2.43148 8.91307 0.0166527 -1.00357 8.29786 0.0142678 
-1.24184 8.29795 0.0143165 2.28041 9.31816 0.038763 2.27674 9.72174 0.0399054 
2.4559 9.53993 0.0415508 -0.0487353 1.10142 -0.00265673 -0.0430858 1.43785 -0.0022136 
-0.0162611 1.08957 -0.00239801 -1.43786 3.01411 0.0154097 -1.2779 2.85649 0.013397 
-1.20495 2.53264 0.0140139 0.853587 16.188 0.0579575 0.933488 16.1904 0.0546389 
0.999871 16.5241 0.0604157 3.0174 13.1585 0.0650923 3.14527 13.2998 0.0683027 
2.97402 13.5131 0.0665365 3.41018 31.7993 -0.000541969 3.26425 31.7931 -0.00160882 
3.33717 31.5352 0.00029616 3.19106 31.5288 -0.000770024 0.127453 0.19445 -0.00124198 
-2.84221 11.0385 0.0186775 -2.69922 10.8614 0.0180792 -3.33767 18.861 0.0300176 
-3.22788 18.9664 0.029515 -1.26143 13.1263 0.013517 -1.12299 13.5607 0.0125345 
-1.27992 13.5476 0.0122134 -3.41717 10.7363 0.0207017 -3.2798 10.8718 0.0202545 
-3.39749 11.0667 0.0208739 1.60348 18.0379 0.0516664 -0.695069 1.80561 0.00492638 
-0.59697 1.45605 0.00431318 -0.75367 1.7968 0.00700209 -0.940041 1.20367 0.0293259 
-1.22945 1.54412 0.0257158 -1.23442 1.64075 0.0263574 -2.08379 3.07574 0.020493 
-1.87406 2.79041 0.0214867 -2.17648 3.35741 0.0204308 -1.9753 3.07755 0.0208254 
-1.86826 15.2817 0.0238385 -1.18065 2.86605 0.0112872 -3.27352 28.7664 -0.00842423 
-0.453253 1.81459 -0.000322297 -0.396089 1.45494 -0.00115875 -0.514676 1.81714 0.000563985 
-0.207838 15.529 0.0308295 -0.175749 15.1903 0.0315492 -0.268549 15.1851 0.0277333 
2.71013 4.10508 0.0390552 2.89833 4.37132 0.0434031 2.82928 4.43914 0.0410489 
-0.847984 2.15436 0.00716583 -3.1505 29.0185 -0.00959552 -0.343533 1.81427 -0.00135176 
-0.291757 1.8173 -0.00162426 -0.375833 2.19938 -0.000409166 0.30629 0.480616 -0.00298417 
0.284536 0.479556 -0.00256751 0.138515 2.85894 0.00106255 0.0657366 2.8877 0.00098371 
0.121602 3.34579 0.0024159 2.6406 20.7569 0.0508209 2.62596 21.0852 0.0485225 
2.79255 20.9771 0.0518956 0.444778 22.9353 0.0191371 0.530801 22.2609 0.0218398 
0.304781 22.298 0.0208637 2.8224 21.6931 0.047823 2.84039 22.049 0.0459212 
2.9924 21.9068 0.0490504 -0.0493125 0.195682 -0.00113339 -0.117592 1.11615 -0.00314954 
-0.100791 0.809951 -0.00410832 -0.154679 1.12138 -0.00323959 1.9673 2.76328 0.0239061 
1.8991 2.81479 0.0218213 2.14804 3.15558 0.0272559 0.317755 1.0894 -0.0020122 
0.384499 1.44611 -0.0012355 0.424106 1.41068 -0.0010032 0.357781 0.771174 -0.00253834 
0.243548 0.475985 -0.00183522 0.500622 1.06584 -0.0010419 0.387646 0.768057 -0.000780479 
-1.65066 18.5027 0.0278427 -1.62849 18.8979 0.0271177 -1.78521 18.9204 0.0267515 
0.116404 26.4516 0.00459224 0.762385 1.7185 0.00164806 -2.75675 14.5184 0.0243269 
-2.63521 14.2821 0.0227736 0.703988 16.5051 0.0502505 0.688821 16.1827 0.0537147 
0.798056 16.5082 0.0509269 -1.74202 25.269 0.00617792 -1.94935 25.5142 0.00513996 
-1.91018 24.9926 0.00723142 -2.11716 25.239 0.00624386 2.81567 16.664 0.0769798 
2.79604 16.2998 0.0766487 -3.81028 23.281 0.0160156 -3.82459 23.6191 0.0146239 
-3.68751 23.3988 0.0152906 0.262062 0.474507 -0.00224452 0.447563 2.56007 0.00140759 
0.545404 2.99899 0.00303915 0.518243 2.58391 0.00180153 -0.0144945 17.1691 0.0358133 
-3.75625 22.2603 0.0201152 -3.27775 23.7498 0.0131454 -3.41901 23.6358 0.0138342 
-0.273295 16.5039 0.0350619 -0.215707 16.1684 0.0344305 -0.186985 16.5012 0.0359832 
-0.134482 16.1618 0.0360089 2.07566 14.2407 0.053904 1.97628 14.1051 0.050635 
1.91168 14.4917 0.0526024 2.94393 13.8538 0.0681426 2.79428 14.0318 0.0666317 
1.15071 4.28445 0.0113884 1.1029 3.77339 0.00943023 1.28318 4.2492 0.0126269 
1.11927 2.12462 0.00624577 0.981999 1.7629 0.0043718 0.913731 1.75801 0.00328134 
-0.130266 12.8694 0.0272934 -0.607336 1.09404 0.0131904 -0.651845 1.09566 0.018223 
-0.751592 1.43622 0.0129069 1.24712 5.73595 0.0168082 1.1188 6.06769 0.0169256 
1.45012 6.22024 0.0204209 1.31414 6.55125 0.020088 -0.239949 14.8343 0.0284828 
1.24206 19.6103 0.0365219 1.11189 19.6328 0.0350371 1.2434 20.0869 0.0344599 
-0.46324 13.6858 0.0208911 -0.347177 13.6993 0.0234632 -0.4197 13.2463 0.0220913 
-0.247044 12.977 0.0253318 -0.300179 13.3379 0.0245002 -0.369203 12.8849 0.0230875 
-0.296847 15.5198 0.0303103 -0.101571 14.4684 0.030962 -0.202983 14.4568 0.0280194 
-0.138999 14.8362 0.0311702 -0.608146 14.0616 0.0172379 0.172596 1.76607 -0.00100761 
0.164273 1.42031 -0.00136185 0.224218 1.7738 -0.000893973 -0.744486 14.4194 0.0138853 
-0.864517 14.4182 0.0111962 -0.730604 14.0425 0.0151625 -0.856734 14.04 0.013059 
-0.525404 14.4282 0.0186015 -0.536375 14.8061 0.0207999 -0.632425 14.4244 0.0161443 
-0.107031 5.98194 0.0100767 -0.384063 6.47871 0.0111003 0.0534594 13.2297 0.0315352 
-0.0732783 13.258 0.0291439 0.0069145 13.6686 0.0318658 -0.113519 13.6966 0.0291229 
-0.536808 15.5311 0.028122 -0.633937 15.1905 0.0170541 -0.612843 15.5367 0.0317468 
-0.10782 0.500976 -0.00494717 -0.0914051 0.504631 -0.00419003 -0.153839 0.816827 -0.00435588 
3.55527 30.7368 0.00618912 1.73183 12.8123 0.0432562 1.74729 13.2018 0.0442283 
1.55534 13.2379 0.0433156 1.56366 13.6304 0.0439265 1.32089 17.2719 0.0550803 
1.29203 16.9159 0.0594884 -3.93227 28.2511 -0.00579369 1.60284 27.2654 0.00856412 
1.59121 27.6672 0.00670318 2.24156 29.0154 0.00491009 2.3733 28.6522 0.00762343 
2.17928 28.5616 0.00662856 -1.82134 4.87491 0.0143219 -2.01435 5.12781 0.0154346 
-1.6764 4.92973 0.0130602 -1.86401 5.17702 0.0143276 3.2012 30.4555 0.00490249 
3.35468 30.1787 0.0075479 3.18626 30.0991 0.00663651 -0.361784 16.5038 0.0345394 
-0.429445 16.8444 0.0346022 -0.447918 16.5014 0.0335042 0.607741 16.5097 0.0458256 
0.599061 16.1662 0.0509862 -3.79424 22.9428 0.017391 -3.67231 23.0591 0.0166649 
-1.36538 26.8684 -9.23396e-05 -1.19003 26.7971 0.000385282 -2.65792 13.3202 0.0202562 
-2.50639 13.2863 0.0190927 -0.399106 31.2214 -0.0174212 -0.323087 30.8402 -0.0155171 
-0.245713 31.2194 -0.0170531 -0.872625 26.8258 0.00069883 -1.02998 26.7838 0.000636992 
-0.956341 26.2804 0.00279466 -1.11324 26.2395 0.00275845 2.7275 6.29376 0.0378166 
2.67576 5.93108 0.036449 1.25389 28.7819 -0.000256172 1.35335 28.3936 0.00203039 
1.20329 28.2672 0.0017578 1.84181 28.6132 0.0040533 2.01393 28.5032 0.00573145 
1.91418 28.9546 0.00294086 1.26018 2.23768 0.00872929 1.30446 2.51829 0.00952385 
2.09043 5.18836 0.0254254 2.29139 5.44399 0.0291753 2.16421 5.59444 0.0274582 
0.366958 31.2313 -0.0153108 0.290489 31.5748 -0.0171632 0.440789 31.5722 -0.0166454 
0.509885 29.66 -0.00763086 0.437955 30.055 -0.00967423 0.557295 13.1924 0.0386912 
0.472253 13.6266 0.0395729 0.598792 13.6146 0.040754 -2.49909 28.6464 -0.00808833 
-2.60253 28.2012 -0.00613351 -2.33244 28.5784 -0.00779016 -2.43638 28.1327 -0.00585409 
-2.38382 29.0224 -0.00973731 0.805234 28.8009 -0.00257311 0.882167 29.2132 -0.00405241 
0.651683 28.7792 -0.00315437 0.728424 29.1912 -0.00464002 -0.774432 30.053 -0.0129308 
-3.92251 27.5333 -0.00253805 2.13047 24.4092 0.0253139 2.33971 24.7086 0.025977 
2.13647 24.8705 0.0232842 2.11465 20.8953 0.0417336 1.92293 20.5159 0.0409203 
2.11761 20.4456 0.0442368 -2.23704 28.9822 -0.00954448 1.74205 2.47168 0.0192034 
2.54727 4.22573 0.0342295 2.43756 3.88839 0.0323628 2.6338 4.16023 0.0366656 
3.51375 8.45356 0.0549171 3.39073 8.6043 0.0530492 3.37111 8.2646 0.0520615 
3.24797 8.41466 0.0502458 1.36915 14.7853 0.0447461 1.53881 14.3864 0.0445182 
1.3916 14.4319 0.0446071 2.3231 7.14811 0.0332511 2.11373 7.37446 0.0311222 
2.40595 7.59451 0.0355547 -2.75462 3.9769 0.0186223 0.850123 3.42652 0.00624798 
0.892164 3.89173 0.00796321 2.04495 6.4756 0.0277505 2.28587 6.77056 0.0319035 
2.08491 6.85623 0.0293862 2.57367 20.07 0.0542427 2.43509 19.8375 0.0533491 
2.54489 19.7256 0.0561096 0.21621 29.6342 -0.00857264 0.0661261 29.5858 -0.00884242 
0.140296 30.0399 -0.01063 -2.29159 29.4059 -0.0114139 -2.14441 29.366 -0.0112095 
-1.75867 29.74 -0.0126902 -1.90667 29.7513 -0.0128194 -1.82486 30.1541 -0.0145581 
2.40725 26.3204 0.0190138 2.38511 25.9259 0.0206803 2.58485 26.1213 0.0215691 
2.56215 25.7277 0.023268 2.44195 18.9854 0.0596501 2.48092 19.3297 0.0577898 
2.61887 19.2076 0.0612513 -0.189259 1.12664 -0.00330207 -0.224011 1.12784 -0.00319681 
0.0479428 0.192799 -0.000722565 0.0801399 1.08691 -0.00173108 0.121848 1.425 -0.00153032 
0.112602 1.08552 -0.00165121 2.91564 5.6835 0.0409576 2.73005 5.4256 0.0370834 
-0.728602 1.06431 0.0270358 -0.510461 0.74562 0.0262159 -0.686405 1.07462 0.0223318 
2.82581 18.5843 0.0692913 -2.24188 19.2702 0.0264222 -2.34457 18.9393 0.0274457 
0.248068 12.7389 0.0331145 0.110365 12.7628 0.0311458 0.156087 12.3088 0.0303803 
-3.33319 12.0849 0.0218115 -0.0436297 10.3204 0.0227191 0.116215 9.91161 0.0228615 
2.59295 26.5086 0.0197596 2.42247 26.7098 0.0172972 2.616 26.8804 0.018154 
2.44518 27.0823 0.0157167 2.95709 12.3172 0.059158 2.90989 12.6701 0.0602169 
2.18999 30.5963 -0.00313053 2.25309 30.9694 -0.00456634 2.33004 30.6134 -0.00227603 
0.361183 29.6361 -0.00807314 0.294576 29.1898 -0.00634133 3.41473 25.949 0.0306529 
3.26931 26.1181 0.0282434 3.26088 25.7599 0.030104 3.597 26.8555 0.0274239 
-3.5161 27.6001 -0.00309652 3.12623 27.0286 0.0220294 3.11637 26.6829 0.0237407 
3.27677 26.4921 0.0263014 1.39286 2.49341 0.0111266 1.5685 2.69107 0.0142722 
1.52282 2.86978 0.0133809 1.69805 3.06985 0.0167896 0.0577852 0.20188 -0.00115875 
0.0635543 0.190541 -0.00126034 0.121414 0.485705 -0.00321139 -1.29826 26.3266 0.00220418 
2.61445 10.4364 0.0463137 2.45024 10.2951 0.0437223 2.61532 10.0776 0.0452222 
-0.00887666 11.4131 0.025832 0.0768651 11.8601 0.0280083 -0.106237 11.8997 0.0257741 
2.77502 10.6174 0.049199 1.25819 31.2437 -0.0116563 1.09988 31.2314 -0.0123562 
1.17645 30.8666 -0.0102614 2.39805 31.0046 -0.00377033 0.777449 4.44985 0.00887835 
0.897967 4.35857 0.00949454 0.781844 3.98167 0.00745711 -0.101038 0.195626 -0.000964318 
-2.68548 16.3171 0.0294824 -2.53058 16.0612 0.0287592 -2.52761 16.4481 0.0295529 
-3.58822 29.4759 -0.0114958 -3.70654 29.2986 -0.0106493 -3.56621 29.1023 -0.00981536 
2.27637 10.0968 0.0410059 2.45715 9.91217 0.0426575 -1.54665 19.7412 0.025491 
-1.43902 19.2855 0.0270048 -1.38648 19.758 0.0259522 -1.28089 19.3019 0.0275927 
0.0916573 0.198371 -0.00159948 0.0963494 0.187998 -0.000829644 0.188969 0.479161 -0.00283313 
-2.27291 23.8254 0.0118195 -2.09043 23.9979 0.0111077 -2.07821 23.5684 0.0127281 
3.07801 14.0131 0.0715309 3.19379 14.1763 0.0745682 -0.960849 17.5953 0.0333939 
-1.08325 17.6236 0.0329005 -0.956159 17.2295 0.034015 -1.07542 17.258 0.0340414 
-3.48604 11.5999 0.0218212 -3.51147 11.2646 0.0215104 -3.38104 11.3982 0.0211217 
-2.07008 19.7379 0.0249431 -1.88364 19.7128 0.0249512 -2.00031 20.0845 0.0240296 
-2.12094 20.505 0.0229177 -1.8444 20.1606 0.0238839 -1.96306 20.5837 0.0226683 
-1.54499 25.1079 0.00690188 -1.36504 25.3425 0.00610497 -1.56253 25.5019 0.00532934 
-1.42205 15.519 0.0206927 -1.56362 15.1199 0.0186682 -1.65986 15.3589 0.0238325 
-2.54156 20.3612 0.0238805 0.153478 0.187721 -0.00152426 0.332316 0.48899 -0.00357589 
-2.58964 21.4652 0.0204848 -2.7331 21.3146 0.0212284 -2.7479 21.6566 0.0201032 
2.61998 9.6973 0.0441571 -1.33204 6.93755 0.0125717 -1.24751 6.4226 0.0116808 
-1.49567 6.59251 0.0126348 -1.4014 6.07917 0.0116541 -3.14081 19.4163 0.0281912 
-3.17873 19.7766 0.0273026 -1.60367 31.2821 -0.0194518 -1.45138 31.2718 -0.0192752 
-1.52816 31.6235 -0.0209296 -3.46197 6.56899 0.0203035 -0.211736 0.176435 0.0114873 
-0.458197 0.482858 0.0332797 -0.462883 0.460045 0.0252479 2.11329 9.9843 0.0388527 
2.11156 9.57298 0.0376162 0.488724 18.8512 0.0330537 0.533131 18.4023 0.0348996 
0.62715 18.8404 0.0339621 2.61682 9.33476 0.0430796 2.62248 8.95185 0.0420643 
1.914 9.34076 0.0348638 2.11289 9.16606 0.0364008 -2.61838 4.35226 0.0196309 
-2.51519 4.02547 0.019734 -2.65684 22.5227 0.0169359 -2.27192 30.2019 -0.0149364 
-2.42263 30.2421 -0.0151382 -2.36029 29.8174 -0.0132427 -2.51057 29.8579 -0.0134346 
0.63689 14.428 0.0435779 0.533799 14.8144 0.0424411 0.524527 14.43 0.0425615 
-1.56505 13.1754 0.0137576 -1.41572 13.5729 0.0123355 -2.86975 8.49531 0.0179892 
-2.881 8.84121 0.0180474 -3.01279 8.3435 0.0184965 -3.02655 8.68582 0.0185606 
-0.0643454 2.12748 -0.00100722 -0.00678477 2.12092 -0.000909851 -0.0403281 2.52259 -8.27869e-05 
0.0258822 2.51595 8.88405e-06 -0.446339 0.497058 0.0309271 -0.221076 0.203546 0.0140616 
-1.87776 9.15598 0.0155053 -2.08982 9.10853 0.0158893 -2.3671 6.50737 0.0163778 
-2.17295 6.30408 0.015506 -2.21873 6.69086 0.0155822 -0.234767 0.812357 -0.00187297 
-0.33068 1.11777 -0.00186088 -0.385786 3.83603 0.00360121 -0.310128 3.44438 0.00234483 
-0.303757 4.28894 0.00476007 -2.70162 31.0229 -0.0186459 -1.05515 16.2024 0.0195919 
-1.18097 16.2776 0.0295225 1.92909 10.224 0.0377221 1.91915 9.756 0.0362019 
-1.36007 17.6854 0.0307187 -1.211 17.3019 0.0329025 -1.35491 17.3296 0.0318494 
-0.706354 0.80002 0.0309771 -0.734772 0.791121 0.0280841 1.04049 18.3953 0.040191 
0.907542 18.3849 0.0385712 1.01562 18.7968 0.0377809 2.75477 25.9336 0.0241012 
2.93151 26.1278 0.0248354 -0.66014 3.02931 0.00315931 -0.696527 3.49075 0.00422362 
-0.541223 2.59689 0.0014918 -0.58082 3.05045 0.00259632 1.05948 17.232 0.0505775 
0.920434 16.8527 0.0525547 0.93778 17.2168 0.04736 0.812182 16.8481 0.0500651 
-0.485924 0.425106 -0.00927622 -0.237224 0.194059 0.00255511 1.93959 25.0717 0.0206362 
1.93586 24.6629 0.0223917 2.29065 3.5107 0.0296798 2.22051 3.58795 0.0276645 
2.07282 3.21091 0.0249829 2.01035 3.30083 0.0232351 -3.12541 7.90084 0.0189326 
-3.27247 8.1159 0.019414 -1.88191 22.4008 0.0169499 -2.09697 22.2832 0.0173435 
-1.90513 21.9046 0.0186215 2.13459 3.66345 0.0254536 2.73051 25.1547 0.0277683 
2.74104 25.5399 0.025939 -0.179578 0.810416 -0.00271143 1.49528 6.96378 0.0231775 
1.51235 6.59395 0.0221268 -2.2902 24.6117 0.00877639 -2.47688 24.8478 0.00791817 
-2.46994 24.4593 0.00945843 -1.40614 16.6676 0.0349341 2.55241 25.3415 0.0250506 
2.53076 24.9136 0.0269162 0.210229 30.443 -0.0122203 0.0577171 30.462 -0.0127832 
-0.082948 1.10421 -0.00291606 -0.048124 0.793672 -0.00361152 -1.1968 18.3997 0.0303442 
-1.07789 18.0018 0.0319854 -1.05865 18.3973 0.0310995 -0.83362 17.5813 0.0341527 
1.67678 12.3322 0.0417335 1.54148 12.7993 0.0421766 1.48858 7.51087 0.0249369 
1.25732 7.0927 0.0214544 2.23008 16.463 0.0714367 2.27414 16.1138 0.0708074 
2.07245 16.0685 0.0688651 0.73935 14.4385 0.0446211 0.639469 14.801 0.0448604 
-2.4605 24.0918 0.01089 -2.64353 24.3063 0.0101824 -0.0151352 16.4888 0.0365497 
0.074233 16.4793 0.0386463 0.0289962 16.8298 0.0374149 -1.82192 30.9171 -0.0179561 
-1.9721 8.10465 0.0151336 3.49552 19.4293 0.075081 3.45141 19.0925 0.076643 
3.33122 19.2136 0.0737003 -2.84639 16.1746 0.0294911 -2.99006 16.0518 0.0296418 
-2.98518 16.3895 0.0301282 -3.12621 16.2672 0.0303213 -1.92212 2.72189 0.0212841 
0.853458 14.816 0.0472789 0.815293 15.2058 0.0481011 -2.28769 9.10765 0.016337 
-2.44407 9.34118 0.016817 0.0488154 18.2934 0.0332875 0.158619 18.3974 0.0331066 
-0.0157335 18.7348 0.0319663 0.0979707 18.8387 0.031839 -2.14444 7.90136 0.0155054 
-1.97485 3.39101 0.0195798 -1.82126 3.37944 0.018527 -2.08727 3.71525 0.0192798 
1.5691 3.8653 0.0151668 1.47285 3.97206 0.0141801 1.38512 3.48282 0.0120087 
-0.859877 2.56368 0.00583033 -0.704699 2.17547 0.00362029 -0.782247 2.57794 0.00443068 
-0.638279 2.19183 0.002332 3.90379 27.9351 0.024224 2.45625 16.2965 0.0727667 
-2.53107 17.6337 0.0303739 -2.39016 17.802 0.0302897 2.72602 24.7699 0.0296698 
-0.50075 3.46267 0.00298953 -0.408939 3.00321 0.00154771 -0.39934 3.43471 0.00258742 
-3.89404 26.1342 0.00373866 -2.36036 12.5665 0.0175924 -2.39284 13.0439 0.0179323 
-1.62932 17.3811 0.0307303 -1.76088 17.3749 0.0308811 -1.81338 17.75 0.0297613 
-3.35899 29.9012 -0.0134922 -3.21494 29.779 -0.0129831 -0.0799985 1.77894 -0.00172716 
-0.0850367 1.43615 -0.00229818 3.84643 25.4472 0.0381279 3.70989 25.2251 0.0379857 
3.85337 25.0255 0.0407967 -3.21502 17.7618 0.0311251 -3.17798 17.3723 0.0311648 
-3.06303 17.5095 0.030937 -0.789821 18.3391 0.0325248 -0.748038 18.7506 0.0314133 
-0.663585 18.342 0.0329593 0.659935 31.9191 -0.0174869 0.738531 31.5696 -0.0155179 
0.510999 31.9152 -0.0180185 0.590347 31.5652 -0.0160688 -0.905437 12.6403 0.0163183 
-1.06092 12.642 0.0152961 -0.394835 2.5864 0.000521836 -0.489896 3.03827 0.00200052 
-0.236376 2.89907 0.000835761 -0.158461 2.89745 0.000798839 -0.249222 2.55378 -6.64471e-06 
-0.178628 2.55218 -8.4864e-05 -2.49498 32.0067 -0.0230744 -2.63573 32.0384 -0.0232279 
-2.63521 23.555 0.0130933 -2.81063 23.7908 0.0123596 -0.169364 30.0277 -0.0114817 
-0.246245 30.4378 -0.013516 -0.0934694 30.4416 -0.0131286 2.52061 24.5414 0.0286299 
0.981213 1.44617 0.00479233 0.925908 1.4613 0.00348826 1.18598 1.86078 0.00774925 
1.11545 1.87176 0.00628595 1.09864 28.8312 -0.00129335 -1.86593 28.4726 -0.00721965 
-1.70697 28.4236 -0.00692342 -1.80843 28.0232 -0.0052615 -0.109728 0.197544 -7.21586e-05 
3.27593 15.0581 0.0805595 1.00873 1.1628 0.00475052 0.990874 1.07639 0.00448814 
1.43969 5.67946 0.0185468 0.383865 0.494859 -0.00298123 0.597088 0.780853 0.00059654 
-1.54036 3.40675 0.014972 -1.37731 3.2471 0.0130644 -1.48202 3.62304 0.013102 
-0.778953 15.5484 0.0239396 -0.917521 15.2053 0.00139102 -0.864388 15.5544 0.0210883 
0.412516 0.495444 -0.00288365 0.371311 31.9123 -0.0184805 -1.69077 29.2985 -0.01071 
-1.53227 29.2734 -0.0104806 -1.6 29.7148 -0.01247 0.86464 14.0184 0.0440027 
0.858275 13.6038 0.0424512 0.204128 0.208796 -0.00140611 2.7149 24.3989 0.0314374 
2.44435 4.78844 0.031368 2.34002 4.9081 0.0293262 2.53977 5.17952 0.0333359 
0.65592 3.41837 0.00495507 1.73912 7.34385 0.0268102 1.92379 7.17878 0.0283899 
1.94629 7.56312 0.0297523 -0.896161 10.3257 0.0170325 -0.975242 10.9257 0.0169537 
-1.09965 10.4158 0.016421 1.34323 2.21582 0.0102645 0.28564 30.0412 -0.0101536 
1.02121 10.3072 0.030887 -3.28983 8.45441 0.0194856 -3.14553 8.23853 0.0189607 
2.16529 13.7915 0.0527099 2.21212 13.3885 0.0512983 2.3375 13.5483 0.0545697 
2.30314 13.9612 0.0566643 1.79661 31.623 -0.010633 1.86395 31.2839 -0.00856342 
1.94131 31.6453 -0.00989607 2.4294 14.2188 0.0612567 2.4596 13.7998 0.0585918 
2.86222 13.3657 0.0635103 0.272785 16.1591 0.0434166 1.75948 24.8572 0.0200625 
-0.201154 0.19199 0.0124901 0.161137 16.4785 0.0395899 0.129442 16.8201 0.0368599 
0.220452 16.8311 0.0392969 0.189883 17.1732 0.0368382 -0.998263 31.2363 -0.0185822 
-1.07188 31.5873 -0.0202715 -1.14161 31.2507 -0.0188425 -0.0655807 17.5428 0.0351032 
-0.174481 17.5387 0.0351842 -2.23836 17.5275 0.0306802 -2.10184 17.6357 0.0305334 
-2.03405 17.2232 0.0309158 2.95426 26.8655 0.0212775 2.41134 11.7513 0.0477554 
2.55152 11.543 0.0490676 2.4574 11.3529 0.0470867 2.59584 11.1461 0.0483498 
2.77867 26.6821 0.0205884 2.76342 26.32 0.0222528 1.33032 30.8804 -0.00955951 
2.78792 27.0598 0.0187878 -2.92382 28.0352 -0.00532438 -3.07118 27.8023 -0.00424099 
-2.90759 27.6213 -0.00352175 -0.143161 0.49812 -0.00305374 -0.205343 0.807502 -0.00374497 
-2.54176 26.8617 -0.000385908 -2.7147 27.0018 -0.000920416 0.803926 2.96867 0.00462219 
-1.90459 10.8781 0.016012 -1.97652 11.3698 0.0161208 -1.80006 11.2278 0.0158659 
2.98193 11.9785 0.0578991 3.14438 11.7793 0.059748 -1.27674 9.71639 0.0156638 
-1.32494 10.4118 0.015894 3.12979 21.767 0.0520413 2.97506 21.5635 0.0509763 
-3.04546 27.0202 -0.000840706 -2.87928 26.8072 -1.38039e-05 -2.88924 27.2198 -0.00178879 
1.55702 24.603 0.0195176 1.73366 24.4074 0.0217365 -1.50088 20.2206 0.0243049 
-1.33867 20.1938 0.0248018 -1.22595 19.7312 0.0265515 -1.42563 20.6816 0.0230464 
-3.0012 16.7916 0.0305508 -3.15422 17.0018 0.0310332 -3.03561 17.1425 0.0308695 
0.220179 2.86447 0.00131907 0.284191 3.33464 0.00283415 0.230423 2.50853 0.000504552 
0.297627 2.97179 0.00184109 -2.41484 12.2141 0.0175945 -2.55302 11.7941 0.0179676 
-2.38198 11.7495 0.0173017 -3.11308 11.3662 0.0199971 -3.10791 11.6848 0.0202854 
-3.24039 11.5456 0.0207193 -0.988212 19.2306 0.0289774 -1.07758 19.7216 0.0270909 
-0.934874 19.6169 0.0278735 0.167084 21.5432 0.0230242 0.360252 21.567 0.0235908 
2.45603 10.6614 0.0448939 -1.13366 19.2393 0.0284107 -3.31652 14.6444 0.0276316 
-3.40379 18.3834 0.0310072 -2.86021 15.8261 0.028823 -2.69776 15.9188 0.0286331 
2.36267 28.2294 0.00957583 2.08619 27.2035 0.0122742 2.25368 26.9539 0.0147462 
2.06638 26.7751 0.0140813 -0.376302 0.797921 0.00294447 -0.492879 1.12196 0.00388148 
-0.525762 1.10209 0.0064643 -3.43087 30.596 -0.016614 -3.48908 30.9404 -0.0181606 
-3.34976 30.8955 -0.0179917 1.34207 27.8981 0.00416402 -0.169832 30.8435 -0.0151501 
1.42401 27.4158 0.00675915 1.71077 23.9097 0.0236208 1.48844 23.6891 0.022665 
1.69723 23.5016 0.0251852 -2.73316 14.8688 0.0254963 -2.74672 15.2226 0.0268387 
-0.126192 17.9419 0.0342488 -1.10957 2.93065 0.00956323 -1.62015 14.4875 0.013297 
-1.46117 14.8206 0.0130761 -1.4891 14.4789 0.0112495 -3.34433 11.7515 0.0213854 
2.48163 22.3301 0.0393079 2.49008 22.7014 0.0374777 2.30255 22.442 0.036434 
-1.02807 3.77733 0.0073723 -0.889717 3.42743 0.005737 -0.980815 3.37769 0.00677083 
0.171539 0.480949 -0.0024821 -0.911119 3.80262 0.00630158 -0.781732 3.45466 0.00478499 
-1.13342 12.0747 0.015861 -1.26148 11.6073 0.0158054 -1.08765 11.5405 0.0164197 
-0.890081 1.37649 0.0239022 -0.834592 1.38425 0.0200689 -1.05385 1.73353 0.0211108 
-0.451107 1.47269 -0.000112858 3.785 29.5552 0.0143343 3.64711 29.7411 0.0122063 
3.74994 22.5688 0.0558231 3.62458 22.7224 0.0529432 3.77422 22.9225 0.0536704 
0.0517168 2.11042 -0.000800566 -0.240963 17.9163 0.0344496 1.20031 3.21272 0.00905535 
1.12362 3.28872 0.00840542 1.09968 2.76753 0.00696215 1.03407 2.84347 0.0063814 
1.20423 3.70302 0.0103529 1.0321 3.35913 0.00765478 0.946089 3.41946 0.00698647 
-0.37496 15.532 0.0297568 -0.445581 15.1893 0.0231464 -0.359984 15.1888 0.0262312 
-2.7901 28.3457 -0.00672506 1.5109 24.1882 0.0208489 0.0390126 15.5276 0.036802 
-2.52265 12.3812 0.0181589 0.35711 0.489469 -0.00326828 0.169778 19.3347 0.0304037 
-0.0136503 19.2566 0.0303841 0.0555909 19.7541 0.0288672 1.84527 2.27178 0.0240075 
-2.7967 7.43097 0.0178542 -2.82776 7.78987 0.017881 -2.96788 7.64438 0.0184128 
1.30452 2.8235 0.00977274 1.43576 3.24921 0.0122099 1.15517 2.69292 0.00751228 
1.27935 3.11462 0.00991202 -1.77578 14.344 0.0150805 -1.75444 14.1587 0.0147408 
3.02315 29.864 0.00657207 -2.34414 5.314 0.0172276 -2.41188 5.70789 0.0171331 
-3.30389 8.79795 0.0195405 -3.16267 8.58612 0.0190467 -2.06928 10.4789 0.0162568 
-2.24219 10.6836 0.0166765 -3.13547 6.7615 0.0192608 2.83485 31.1233 -0.00129838 
-1.91604 27.561 -0.00333515 -2.06459 27.6791 -0.0038763 -2.06344 27.2867 -0.00221039 
0.175694 13.2036 0.0337112 0.116863 13.6386 0.0340856 -2.53234 11.4515 0.0177371 
-2.68696 11.5873 0.0183835 3.39807 8.92075 0.0538928 1.0482 28.3166 0.000723195 
1.02959 29.1966 -0.00327468 0.950836 28.7673 -0.00174479 -0.300793 23.225 0.0158258 
-0.487749 22.631 0.0176336 -0.59719 23.3415 0.0147933 -1.11869 6.84609 0.0120419 
-2.66298 29.9027 -0.0136324 -2.71234 5.11331 0.0191524 -0.290183 0.80635 -0.000719244 
-0.37138 1.11779 -0.0008343 -3.00765 10.8342 0.01918 -3.15047 10.6838 0.0196379 
-3.01609 10.4883 0.0190261 -3.13288 16.6417 0.0308112 -2.9292 7.30272 0.0183176 
-3.39679 8.03121 0.0198571 -3.53263 8.2559 0.0203213 -3.51066 7.93372 0.0202657 
-1.65483 17.7374 0.0296073 -2.27305 23.3964 0.0134318 -2.26551 22.9987 0.0148925 
-2.07838 23.1383 0.0143182 -2.39135 15.7465 0.0274827 -2.20565 15.8315 0.02733 
-2.35291 16.1471 0.028685 0.152191 24.7088 0.0115507 -0.0480031 24.6683 0.0110814 
0.0949499 24.0597 0.0138027 0.205803 27.0658 0.00239715 0.342955 26.5177 0.00513199 
0.388925 27.2588 0.00226505 -0.450002 15.5247 0.0296973 -0.930769 4.29512 0.00703395 
-0.803854 3.9425 0.00562874 -0.857173 4.54205 0.00696848 3.60994 27.5768 0.0235648 
-2.45077 23.3069 0.0138682 -1.26853 2.46962 0.0161378 -1.0662 2.12802 0.0144272 
-1.1509 2.11868 0.0172763 -1.26684 3.27061 0.0111395 -1.36284 3.64535 0.0115463 
-1.18623 3.33535 0.00967353 -1.70005 12.2177 0.0152824 -1.81505 11.7391 0.0157505 
-1.63199 11.7174 0.0155383 -2.34773 30.6017 -0.0167329 -2.49808 30.619 -0.0168283 
-2.57263 30.2597 -0.0152267 -2.45799 23.7038 0.01238 -1.3793 5.11647 0.0108761 
-1.5737 5.45837 0.0122429 -1.37733 5.60679 0.0111728 -1.64918 6.38831 0.0130689 
-1.60725 5.92818 0.0126031 -3.77448 22.5854 0.01883 -3.63582 22.3588 0.0194164 
-3.65533 22.7055 0.0180645 -3.6852 21.2154 0.0240488 0.764204 16.1704 0.0549421 
0.897546 16.508 0.0565337 -3.187 12.2338 0.0213636 -3.14723 12.5875 0.0217392 
1.91502 12.4495 0.0438789 1.87128 12.8672 0.0445467 2.21777 14.4157 0.0588075 
-1.8164 6.25398 0.0137242 -1.76767 5.79587 0.013431 -0.766815 12.7711 0.017487 
-0.804361 13.2347 0.0161718 -0.458484 0.366943 -0.0303561 2.19381 26.1314 0.018055 
0.955482 31.2264 -0.0129834 2.37356 25.5353 0.0224157 0.390905 17.1878 0.038788 
0.290538 17.1888 0.0376639 -1.19956 14.8302 0.00375944 -1.33268 14.8151 0.00767698 
-1.37676 14.4179 0.00821658 3.08802 25.1835 0.0314006 1.69321 7.726 0.0275683 
1.50655 7.94451 0.0265695 -2.79617 22.7326 0.0163546 -2.81625 24.1542 0.0109368 
-2.64106 23.9191 0.0116953 1.71097 13.6962 0.0448692 -1.08241 23.9576 0.0117799 
-1.28174 23.6099 0.0129022 -1.30412 24.165 0.0107704 2.81599 29.282 0.00791216 
2.72489 28.8839 0.00918812 2.56876 29.1615 0.00660875 -3.05443 12.3781 0.0209037 
-0.000141244 0.784918 -0.00291167 3.5286 10.0793 0.0593314 3.39769 9.92051 0.0566365 
3.53593 9.74886 0.058421 1.45126 23.1841 0.024344 3.59089 11.563 0.0663736 
-2.88973 9.17309 0.0181498 -2.73997 9.34104 0.0176968 1.56599 20.7703 0.035144 
1.71867 20.4904 0.0382761 1.5391 20.3436 0.0366887 1.10679 16.0591 0.0540858 
3.5452 24.3034 0.0416744 3.68231 24.1503 0.0442908 3.53439 23.9457 0.0437458 
1.38709 16.3711 0.0623582 -3.16249 25.3333 0.00646188 -2.99504 25.1044 0.00725816 
-3.15748 24.9675 0.00798969 -1.7495 7.91705 0.0144903 -1.60702 8.37777 0.0146293 
-1.82783 8.56044 0.0151056 -0.846473 30.4615 -0.0148704 1.9283 21.9333 0.0342665 
1.92992 21.4576 0.0364679 1.72033 21.5473 0.0335499 -0.00655883 0.485174 -0.00289104 
-0.0226607 0.788727 -0.00184281 1.15789 16.2596 0.0630276 1.03259 16.2025 0.0601621 
1.2508 16.5831 0.0622209 -0.943197 17.982 0.032802 0.359829 5.04823 0.00851448 
0.396422 4.41073 0.00668107 0.525863 5.61019 0.0112844 0.561697 4.96507 0.00925564 
-0.61491 17.1879 0.0349515 -0.727717 17.2001 0.0344173 -0.621801 16.8489 0.0333706 
-2.2108 11.7998 0.0167724 1.12254 16.5339 0.0673258 0.146347 1.09022 -0.00173088 
-3.68598 9.46554 0.0210662 -3.68641 9.81283 0.0211927 -2.65024 24.6684 0.00874497 
0.831747 1.72739 0.00225481 0.936814 2.06464 0.00396031 -0.274696 11.9018 0.0236589 
2.92544 7.65635 0.043399 2.85979 7.32993 0.0417179 2.78215 7.8169 0.0414931 
2.71925 7.48813 0.0397731 0.946336 15.5645 0.0521076 1.06213 15.5484 0.0509069 
1.16119 15.1879 0.0471014 -3.12401 15.8912 0.029729 -3.25942 15.7624 0.0300196 
-3.13493 15.5302 0.0291024 -3.09077 22.4754 0.0177921 -3.22969 22.3534 0.0185289 
-3.24427 22.715 0.01718 0.41854 14.4272 0.041334 0.505352 14.0241 0.0412809 
-0.378063 16.1689 0.0319386 -0.451003 16.1678 0.0316266 0.656691 18.3827 0.0359576 
0.756221 18.8235 0.035053 0.784808 18.4007 0.0371056 3.47671 28.5023 0.0173892 
3.46913 28.1274 0.019325 -3.58023 24.2269 0.0116414 -3.56672 23.8686 0.0131214 
-3.7092 24.0993 0.0123817 -3.18481 31.4759 -0.020646 -3.32401 31.5031 -0.0207507 
3.13541 27.4036 0.0201619 3.14722 27.7528 0.0184558 2.98331 27.5894 0.0178483 
1.18141 31.5821 -0.0136524 1.26188 31.9367 -0.0149984 1.34004 31.5947 -0.0129454 
0.212378 17.9642 0.0344702 0.325631 17.9496 0.0350906 0.282926 18.395 0.0335324 
3.32017 7.58861 0.0500783 0.654487 20.3418 0.0289985 0.781843 20.8295 0.0280381 
0.79217 20.18 0.030326 0.922306 20.6694 0.0295595 1.79905 11.5133 0.0404024 
1.94468 11.0763 0.0404023 1.97846 11.51 0.0419698 -1.88396 12.6491 0.0156119 
-2.02569 12.7673 0.016063 -1.73991 13.1998 0.0146443 -1.8777 13.3093 0.0153663 
-0.271709 12.4439 0.0243339 -1.5374 5.02819 0.0119368 -1.3373 4.61069 0.0104128 
0.434556 20.9828 0.025824 0.582683 21.5321 0.0246955 -0.776677 10.9264 0.0180746 
-0.560176 11.0769 0.0197572 -0.678445 10.4751 0.0183112 -3.75407 25.5372 0.00623378 
-3.61122 25.661 0.00553187 -3.61139 25.297 0.0071131 -3.4685 25.4192 0.00641984 
-3.17392 13.4914 0.0237966 -3.32089 13.3512 0.0242244 -3.28075 13.6935 0.0248717 
2.26916 8.95213 0.0375576 2.08496 8.79277 0.035004 3.38715 24.4698 0.038792 
3.23143 24.2708 0.0381008 3.37735 24.1107 0.0407992 0.310562 14.4332 0.0398407 
0.241699 14.806 0.0398981 0.208733 14.432 0.0382848 2.10582 10.7931 0.0411772 
1.92173 10.657 0.0389598 2.45159 15.9152 0.0721062 2.6359 16.114 0.0745341 
-0.778363 27.2556 -0.000920741 -0.70512 27.7618 -0.00290723 -0.623402 27.2631 -0.000663383 
1.03799 16.8651 0.0566797 1.19127 17.2407 0.053077 1.15485 16.8795 0.0601293 
-3.08782 14.2021 0.0251811 3.03216 5.12517 0.0443081 3.20578 5.39481 0.0480639 
3.11574 5.04926 0.0467277 1.92475 8.85653 0.0335021 0.461938 0.406803 0.00705791 
0.221292 0.185274 0.00944071 -1.01359 27.8105 -0.00361923 -0.93711 27.2982 -0.00135811 
-0.864182 27.8035 -0.00336029 -1.21927 29.2306 -0.00997852 -1.15113 28.7674 -0.00788734 
-1.07374 29.2149 -0.00972322 2.25658 11.8005 0.0459 2.33926 12.1002 0.0479762 
2.09305 8.39089 0.0338946 1.89335 8.48027 0.0319959 2.43105 8.42204 0.0380742 
2.45105 8.79075 0.0393481 2.25612 8.18179 0.0351875 2.27918 8.55369 0.0365415 
-1.60226 3.00475 0.0180576 -1.56251 2.7431 0.0192371 -1.3888 2.53061 0.0183288 
-1.70932 24.7834 0.00811374 -2.35081 32.0214 -0.0231201 -2.5778 12.0785 0.0182174 
-2.71357 11.872 0.0186592 -2.687 12.2475 0.0188497 0.749565 22.0578 0.023685 
0.605057 20.9181 0.0267914 0.772241 21.4446 0.0259379 -3.13604 11.0242 0.0198321 
-2.98891 11.1902 0.0193464 -1.75458 31.2852 -0.0195668 2.12157 30.217 -0.00172346 
1.09141 2.38905 0.00626159 1.51997 25.6008 0.0151248 1.77518 25.351 0.0180791 
1.59479 25.1378 0.0175954 -1.23039 25.8089 0.00437784 -1.16056 25.208 0.00683849 
2.34181 24.3201 0.0278365 2.52156 24.1541 0.0305433 -3.89586 26.4837 0.00217692 
-3.70455 30.8744 -0.0178062 0.00357857 28.1585 -0.00284382 -0.0803671 28.6616 -0.00524777 
-0.154931 28.2175 -0.00355739 3.00174 20.0069 0.0622069 3.02996 20.3447 0.0602429 
3.15639 20.2041 0.0634564 -2.12502 3.01106 0.0202009 -1.77236 21.0896 0.0213024 
-1.79238 20.594 0.022745 -1.94015 20.9634 0.0215718 -0.771132 16.1945 0.0329942 
2.95421 16.4969 0.0788775 2.98164 16.8562 0.0790318 3.11737 16.6904 0.0811448 
0.692377 15.5518 0.0462921 0.61557 15.5346 0.0432852 -2.77262 22.0157 0.0188967 
2.6754 12.0292 0.0529465 2.80191 12.1806 0.0557534 2.61511 12.4041 0.0535809 
0.583817 19.2852 0.0321075 0.727041 19.2769 0.0330687 0.853695 2.0551 0.00301526 
0.793978 2.0761 0.00249521 -1.19517 4.67704 0.00913071 -1.0596 4.2614 0.00793015 
-1.19227 4.19318 0.00904511 -0.21507 17.1733 0.03583 -0.313349 17.1779 0.035755 
-1.12526 21.8393 0.0195993 -1.27874 22.3177 0.0176647 1.43501 28.8724 0.000349408 
-1.76921 25.7106 0.00439552 -1.41492 25.8975 0.00384054 0.174738 0.186805 -0.00096276 
0.151461 11.4475 0.0276122 -1.5333 26.8971 -0.000345905 -1.47315 26.3993 0.00175341 
-2.98098 18.0021 0.0304988 -3.1094 17.8894 0.0308278 2.5114 23.7826 0.0322736 
2.7096 23.6643 0.0351771 2.54766 23.4494 0.0343624 0.27961 14.0342 0.0383262 
0.356198 13.6137 0.0380082 0.166074 14.0534 0.0364853 0.23562 13.6337 0.0362419 
-1.82943 31.6411 -0.0212149 -1.65628 26.4921 0.00125364 -1.89853 10.3529 0.0159379 
-1.50897 18.1128 0.0289696 -1.50168 18.4608 0.0284393 -1.36018 18.07 0.0299441 
0.981087 21.8184 0.0259193 0.990113 21.2048 0.0281158 1.16862 18.7947 0.0396334 
0.541211 3.85044 0.00553296 0.561901 3.45518 0.00443734 0.466649 3.41391 0.00375556 
-3.07441 22.1178 0.0190871 -2.93741 22.254 0.0183313 0.023952 3.9581 0.00399071 
0.0978295 4.50407 0.00589978 -0.0788723 4.47307 0.00550262 2.03364 18.4573 0.0559523 
2.21728 18.6063 0.0583009 -2.97356 23.6605 0.013068 -3.20925 27.1894 -0.00147693 
-3.19837 26.8279 9.27254e-05 -3.35236 27.0175 -0.00062915 0.00244871 5.3253 0.00815321 
-2.23075 10.275 0.0165578 -2.0539 10.0663 0.0161564 -3.57003 21.3168 0.0232902 
-0.202908 4.428 0.00513393 1.46504 18.0245 0.0494699 1.46368 17.6528 0.0529869 
1.32454 18.0038 0.0473187 1.32319 17.6246 0.0509911 1.69168 19.2116 0.0446081 
-3.25817 18.1332 0.0309112 -1.6206 20.667 0.0227735 -0.556403 27.792 -0.00273595 
-1.67085 20.1486 0.0241592 -0.13554 5.27883 0.00789327 -1.64004 14.1117 0.0131784 
-1.52584 14.0472 0.0116338 -1.71264 13.6362 0.0141101 1.09224 15.7864 0.0650715 
-3.17622 29.415 -0.0113599 -3.06599 29.6789 -0.0125721 -3.02743 29.2784 -0.0107911 
-0.781054 21.3305 0.0219675 -0.98356 21.2728 0.0218021 -0.912169 22.0138 0.0192689 
0.339412 24.0837 0.0145597 0.3875 24.7357 0.0122977 -2.80931 18.6141 0.0293282 
-2.92016 18.4828 0.0297673 -2.834 18.9347 0.0286197 0.837578 24.6045 0.0148644 
0.593388 24.4872 0.0141254 0.831857 24.2482 0.0161854 1.92318 22.3907 0.0321539 
2.10287 22.2328 0.0349715 -1.16441 20.2335 0.0251247 -2.98762 24.7264 0.00880718 
-3.14924 24.5906 0.00954058 1.93009 24.2005 0.0243501 1.91641 23.7936 0.0259777 
-0.488056 8.33163 0.0153499 -0.45007 9.00329 0.0171761 -0.270586 7.75006 0.0148002 
-0.232703 8.42059 0.0167284 1.40131 15.942 0.0638328 1.44114 18.3847 0.0462681 
2.26414 19.6689 0.0515482 2.25533 19.9861 0.0492264 2.42636 20.1551 0.0511461 
-0.0714818 9.61087 0.020715 -0.224933 9.24902 0.0189405 -0.295925 9.92641 0.0199388 
-2.82873 24.8922 0.00797918 -2.82215 24.5309 0.00943807 -1.59151 19.3204 0.0263871 
0.582617 27.2355 0.00314865 -3.39493 22.9359 0.0166031 2.02168 26.3421 0.0156883 
1.66519 19.6054 0.0420476 1.5483 19.1164 0.043091 1.52125 19.5138 0.0404405 
1.33304 25.9708 0.0123283 1.32527 25.4135 0.0145854 1.0876 26.0016 0.010722 
1.0805 25.4434 0.0129265 1.40278 26.4105 0.0109411 1.63226 26.527 0.0119786 
1.51606 26.9109 0.00953631 1.24545 27.4437 0.00558348 0.947247 27.273 0.00469623 
0.950785 27.9421 0.00186637 0.797294 27.877 0.00140159 2.09818 30.9468 -0.00545651 
2.02905 30.5675 -0.00403116 1.06511 20.5493 0.0310257 0.951969 20.1258 0.0316643 
-3.54983 8.59769 0.0204033 -3.66226 8.51129 0.0207991 -3.21661 27.57 -0.00314444 
-3.23429 27.9654 -0.00487931 2.67804 14.6834 0.0688948 2.74793 14.3736 0.0680578 
0.791771 11.2729 0.0329675 0.763545 10.7101 0.030536 0.631207 11.3272 0.0318431 
0.601559 10.7634 0.0295164 1.13498 11.8379 0.0373091 1.30547 11.8398 0.0382588 
1.23803 11.3469 0.0361527 0.676866 19.7773 0.0310229 1.21439 20.5662 0.0322831 
1.09943 20.1414 0.0328626 2.72899 13.2102 0.0599904 1.52914 4.96365 0.0174828 
1.45927 4.53946 0.015374 1.75489 5.40612 0.0212687 1.68867 4.98007 0.0193982 
-2.83764 6.58211 0.0183084 0.970549 19.6891 0.0334793 2.66237 22.1726 0.0426464 
-0.841597 19.152 0.0297548 -0.798095 19.5241 0.0285213 -1.17334 18.8561 0.0293118 
-1.02857 18.7953 0.0301984 -0.117898 25.3356 0.0082963 0.0658908 25.2711 0.00909937 
-1.45417 7.98708 0.0139487 -1.25597 7.38358 0.012884 1.29101 18.7653 0.0414563 
1.42699 18.7742 0.0433633 1.39247 19.1092 0.0409025 1.86102 18.4091 0.0530847 
-3.0322 9.02701 0.0186088 -3.05337 27.3896 -0.00244442 0.539554 19.8444 0.0300155 
0.491887 20.4204 0.0279523 0.22331 0.474346 -0.00180622 0.107193 0.192988 -0.000468167 
0.115589 0.188989 -0.000771444 1.88258 5.21335 0.0225597 1.95059 5.62142 0.0244202 
3.48028 11.0714 0.0622686 3.63422 10.8937 0.0640958 3.59801 11.2357 0.0649601 
0.544191 23.8347 0.016303 -0.279826 20.806 0.0246674 -0.110048 20.8534 0.0247769 
-0.206153 21.3185 0.0229772 1.10657 27.8134 0.00322385 1.10274 27.1446 0.00606195 
-1.02363 7.37946 0.0128935 -0.451546 10.4958 0.0199115 3.63624 20.8568 0.0667578 
-3.12616 31.1257 -0.0190717 -3.25618 31.1681 -0.019242 -3.20967 30.8134 -0.0176471 
-2.58345 9.52759 0.0172662 -3.79701 27.6701 -0.00323379 -3.92207 27.8739 -0.00408323 
-2.40628 9.69286 0.0168136 -0.0731905 0.502103 -0.00451934 -0.0320258 0.193254 -0.000820803 
-0.0431799 0.212787 -0.0014675 -0.397799 12.3226 0.0224563 -0.493571 12.764 0.0210631 
-2.1807 4.52507 0.0176467 3.2357 10.4172 0.0556506 3.09558 10.2501 0.0528533 
3.08594 10.6061 0.0539174 3.94353 30.4651 0.0107096 3.81428 30.6265 0.00881753 
3.94646 30.7932 0.00896409 3.97633 31.1665 0.00718956 2.92882 10.4189 0.0508262 
2.91715 10.7778 0.051877 0.129137 27.6369 -0.000241344 0.166013 28.2008 -0.00250383 
1.08236 6.6819 0.0186393 -2.41627 31.6775 -0.0215773 -2.48964 31.3308 -0.0200224 
2.742 19.0714 0.0644667 -2.77405 32.0399 -0.0232352 -0.181488 13.3376 0.0270309 
0.300601 13.1982 0.0355564 0.43525 13.1804 0.0373715 0.447167 10.1877 0.0262453 
0.528389 9.59293 0.0247929 0.257681 10.3666 0.0253916 0.339062 9.77123 0.0240508 
-3.26548 11.2049 0.0204774 1.25617 5.42717 0.0159301 1.06936 5.48715 0.0145625 
1.31077 26.9161 0.00822466 1.16825 26.6161 0.00864734 -2.41687 30.9733 -0.0184083 
-2.34387 31.3275 -0.0199879 1.34176 24.5451 0.0181815 3.2767 21.6313 0.0552461 
3.43078 21.8332 0.0562388 3.4093 21.4957 0.058293 3.56405 21.6979 0.0592852 
2.8078 27.4086 0.0172236 2.62489 27.2588 0.016383 -2.48588 7.33111 0.0166263 
-2.5186 7.71402 0.0166986 -2.65142 7.5288 0.0172525 -0.929061 2.96808 0.00638147 
-1.01338 2.94349 0.00775304 -1.07357 3.35311 0.00800197 -3.33636 7.37231 0.0197331 
-3.47991 7.5958 0.0201981 -1.54502 7.05408 0.0131962 3.17665 19.0165 0.0723426 
2.99885 18.8069 0.0707549 2.65679 4.59248 0.0361902 2.45755 4.3164 0.0319711 
2.55342 4.67843 0.0337104 2.35831 4.41138 0.0297093 0.719092 13.6204 0.0416556 
0.698052 13.1951 0.0399951 -0.553647 31.2124 -0.0177105 -0.630682 30.8347 -0.0161547 
2.65708 27.6628 0.0146772 2.45315 27.4941 0.0138105 -2.57061 9.90504 0.0173333 
1.78912 2.99971 0.0187788 2.85078 4.87061 0.0403402 2.93684 4.7815 0.0427539 
2.74073 4.49558 0.0384575 0.144825 29.1408 -0.00663367 0.239222 28.6947 -0.00437461 
-0.0123523 29.15 -0.00716611 0.082345 28.7031 -0.00493198 -0.707423 29.6157 -0.0108799 
-0.553458 29.6063 -0.0105333 2.21019 3.09855 0.0293313 2.25634 3.03649 0.0314655 
-3.47484 25.7867 0.00484001 -3.28438 16.8874 0.0312927 -3.30698 17.2651 0.0314676 
-2.73668 9.73344 0.0177832 2.72275 12.895 0.0580784 2.88268 13.0057 0.0616843 
-0.540452 15.1808 0.0221956 -2.09578 2.62331 0.0150047 3.10102 25.9482 0.0274535 
3.10888 26.3074 0.0256373 -3.43086 8.71177 0.019977 -3.56357 8.91865 0.0204959 
-3.43793 9.03154 0.0200537 3.17553 12.9618 0.0667573 2.94722 26.4891 0.0231352 
1.55999 1.9903 0.0166722 3.57425 26.519 0.029081 3.74631 27.0325 0.0278549 
3.09304 13.6736 0.0697012 -0.749069 3.01827 0.00392599 -0.83007 2.96701 0.00491307 
2.87854 20.1479 0.0590443 0.308667 25.4411 0.00927484 0.521825 25.2225 0.0109785 
2.87891 28.9115 0.0102776 2.36209 18.5646 0.0613859 2.2956 19.027 0.0566709 
2.95384 19.6512 0.0639585 3.12595 19.8622 0.0654245 0.0402258 0.486524 -0.00134128 
-0.474245 31.5684 -0.0191655 -0.320303 31.5661 -0.0188147 -0.196782 18.3573 0.0331208 
3.01308 4.71675 0.0451421 -3.42542 28.9523 -0.00919625 -0.914291 16.542 0.0372779 
1.22706 21.077 0.0304623 1.38983 20.8702 0.0328247 0.945396 26.8003 0.00666821 
-2.02317 28.5089 -0.00743711 -3.5556 28.7394 -0.00818282 3.34877 20.7779 0.062509 
3.19652 20.5684 0.0614636 1.29604 3.58031 0.010985 2.94479 9.0287 0.0469279 
-3.83049 29.1258 -0.00981665 -3.69033 28.9304 -0.00898706 1.8164 5.78016 0.0230659 
2.25273 4.52027 0.0275599 1.60574 11.4182 0.0386995 1.55313 10.8902 0.0366525 
1.42441 11.3979 0.0374607 3.77442 29.1905 0.0162134 3.63457 29.0123 0.0160007 
2.51106 3.8226 0.0345693 3.76492 28.1277 0.0219279 3.89956 28.3032 0.0221354 
-3.6782 10.1521 0.0213184 -0.459416 4.35574 0.00519037 -0.501483 4.88288 0.0065197 
-0.579963 4.4634 0.00572477 -1.4699 7.49721 0.0134192 0.286607 1.10492 -0.00212957 
3.63852 23.0733 0.0507584 -3.62572 26.3877 0.00236134 0.950197 2.45212 0.0047002 
0.884727 2.49159 0.00413452 -1.18631 15.5158 0.0185321 -1.05193 15.5732 0.0235891 
-1.11435 14.4126 0.00729768 -0.990828 14.4056 0.00878763 -3.75982 25.8928 0.00467602 
-3.62351 26.0201 0.00397462 3.36938 19.5769 0.0717687 -3.35976 27.3923 -0.00227446 
-3.03276 18.3673 0.0301527 -1.30294 28.7968 -0.00819228 -3.37295 18.0149 0.0313422 
-2.27817 18.0081 0.0300093 -3.44982 18.7541 0.0305622 -3.47887 19.0913 0.0299858 
-3.37232 19.2034 0.0293841 1.47184 11.8897 0.0393012 0.326784 28.1821 -0.00185541 
0.312551 27.8287 -0.000404048 1.64955 15.2758 0.0589158 -2.10803 4.18683 0.0180439 
-3.6398 11.1057 0.0218208 -3.6562 10.7855 0.0216251 -3.3732 27.7788 -0.00397844 
-3.52503 27.9876 -0.00482213 -3.49734 26.8693 0.000131886 -3.34356 26.6807 0.000838816 
-3.1872 26.4561 0.00169409 -2.27634 2.94679 0.0162701 -2.0497 2.60976 0.0173368 
-2.27706 3.3673 0.0200165 -2.88825 4.31826 0.0190626 1.27154 13.6094 0.0433736 
1.26132 14.0274 0.0442367 1.42131 13.6208 0.0437478 -2.98436 13.0921 0.0218308 
-2.93402 13.4433 0.022305 -3.12132 12.9384 0.022322 -3.0725 13.2899 0.0227716 
0.252024 0.790359 -0.00303681 0.155785 0.486742 -0.00280613 0.223745 0.783242 -0.00153982 
3.26241 16.8966 0.0832276 -2.88704 15.0708 0.026863 -2.18622 12.5945 0.0167619 
-2.06865 13.223 0.0163502 -2.23109 13.0522 0.0172031 0.596674 1.75631 0.000388929 
-2.60465 15.4013 0.0268171 -1.77108 14.9912 0.0197526 -1.80543 15.6735 0.0271593 
0.327498 0.766624 -0.000910501 0.204069 0.472297 -0.00222351 0.424662 1.07366 -0.00147116 
0.301943 0.77658 -0.00288903 0.386657 1.07671 -0.00169772 0.510115 1.38761 -0.000577941 
-3.18619 5.27418 0.0198024 -3.47935 20.2759 0.0266762 -3.36165 20.3729 0.025953 
-3.50864 20.6086 0.0256612 -1.58243 15.7895 0.025883 -2.17788 26.4966 0.00109921 
-2.33556 26.2207 0.00225993 -2.36555 26.7313 0.000127567 2.23634 6.34309 0.0301101 
2.1857 5.98267 0.0285529 0.735471 2.11047 0.00205708 -3.49233 12.8544 0.0240008 
-3.36006 13.0021 0.0236415 -3.45466 13.2026 0.0245983 -3.21844 13.1551 0.0232461 
0.519168 16.5172 0.0453783 0.604627 16.8511 0.0457228 0.702405 1.11396 0.000453039 
0.508375 0.81206 -0.002198 0.655066 1.1136 -0.000256143 1.00924 1.04331 0.00373534 
0.484434 0.392177 0.00631661 -2.87144 29.2011 -0.010484 -3.09927 7.55478 0.0188951 
-2.30326 3.69692 0.0198652 -2.40747 3.70359 0.0198747 1.84248 13.3596 0.045496 
-1.33803 15.9564 0.0260466 -1.62759 16.6361 0.028603 -1.78266 16.5217 0.02898 
-3.82032 28.7647 -0.00818071 -1.56957 16.2175 0.0287704 0.176813 15.1846 0.0383091 
0.1447 14.8114 0.0373658 -0.373551 25.3939 0.00740885 -0.289847 24.7003 0.0103165 
-1.95277 14.603 0.0177579 -1.76581 14.7325 0.0169838 -1.12298 16.0635 0.0263859 
-1.28963 16.3769 0.0228973 -1.38352 16.3283 0.0256564 -0.348908 0.807205 0.00190071 
2.77243 12.5424 0.0570611 2.58307 12.7658 0.0547469 3.84049 30.9615 0.0072255 
-0.0940703 0.202797 -0.00138656 1.75834 4.09108 0.0184693 1.94635 4.3716 0.0218924 
2.05204 4.24617 0.0236379 3.35503 6.04992 0.0504359 3.25733 6.15483 0.0481064 
3.42575 31.0859 0.00333433 3.27611 31.1781 0.0017106 -0.325823 30.0237 -0.0118626 
-0.40311 30.4343 -0.0138775 0.181051 1.10218 -0.00181056 0.216278 1.09957 -0.00196853 
-0.268215 0.475223 0.00554886 -0.135042 0.18941 0.00323709 -0.288402 0.478663 0.00638039 
-0.475287 27.3425 -0.000678823 -0.397709 27.7972 -0.00240599 -0.299086 27.2569 9.2847e-05 
3.17117 11.4454 0.0586716 0.0476601 1.09498 -0.00187033 0.0248347 0.786442 -0.00110488 
2.19042 19.2524 0.0529892 2.12188 19.621 0.0492106 -2.51378 4.37597 0.0194265 
-2.62362 4.74837 0.0191351 2.08415 28.9539 0.0040962 1.98485 29.4054 0.00128054 
-1.76094 7.43202 0.0140527 -1.1438 24.552 0.00942228 -0.596524 3.49563 0.00354074 
-0.609347 3.97088 0.0045946 -0.71015 3.97897 0.00504031 -0.718457 4.46103 0.00615818 
0.979087 1.19478 0.0045019 1.26279 1.53561 0.0100661 1.35819 1.75655 0.0117323 
-0.932189 6.25588 0.0105222 -0.820436 5.68963 0.00921147 -0.713379 6.14469 0.0101758 
2.44432 11.02 0.0458661 2.60465 10.7932 0.047308 2.77154 6.63075 0.0390741 
3.30998 6.48018 0.0491317 3.46317 6.67891 0.0523198 3.41457 6.37824 0.0514361 
-3.07816 12.037 0.0205556 2.4283 5.3131 0.0313855 2.48507 5.69612 0.0328253 
-0.781392 2.17245 0.00539239 -2.19916 30.5717 -0.0165678 -2.12002 30.1934 -0.0148592 
-0.541357 19.7165 0.0283242 -0.664748 19.604 0.0286135 -0.45915 19.2566 0.0300659 
-0.578576 19.143 0.0303468 3.13649 6.2605 0.0454862 3.20458 6.58729 0.0469178 
2.60254 5.55861 0.0347888 -0.632226 1.80351 0.00310516 -0.49063 1.44704 0.000781897 
-0.541292 1.44687 0.00237258 2.2103 5.03641 0.0273165 -3.50749 6.8638 0.0204205 
-3.40753 6.95116 0.0200746 -3.55268 7.18625 0.02048 -3.45008 7.27913 0.0201294 
3.37769 10.5745 0.05854 3.39251 10.2559 0.057654 2.31908 5.82827 0.0302794 
3.4984 10.7389 0.0612045 3.63608 10.5392 0.0627368 3.51636 10.3944 0.0602176 
3.66952 23.7776 0.046515 2.5347 13.4771 0.0580134 3.38958 13.6166 0.0747358 
2.06981 18.2012 0.0588362 2.2511 18.1897 0.0622373 3.60547 27.1909 0.0256446 
3.32292 14.3331 0.0777845 3.16143 14.5365 0.0760624 3.6534 21.1983 0.064431 
2.13585 23.1444 0.0311268 1.94918 22.8981 0.0302122 1.94287 23.3096 0.0283441 
0.661003 31.2209 -0.014183 3.60492 22.3652 0.0551435 3.47451 22.5217 0.0521502 
-3.60677 29.8152 -0.0130271 -3.3239 25.5649 0.00564192 -3.31254 25.1878 0.00723395 
-3.10483 22.834 0.0164615 3.29577 21.9717 0.053222 3.44859 22.1706 0.0541625 
3.31861 22.3268 0.0511817 -0.694583 2.5793 0.00310485 0.807379 31.9233 -0.0169256 
-0.889976 18.7655 0.0308996 -3.24914 6.70072 0.0196604 -3.29389 7.02801 0.0196926 
-3.36039 6.62941 0.0200198 3.15752 22.1119 0.0501967 3.56784 31.1429 0.00413398 
3.70079 30.8973 0.00647677 3.47499 7.78446 0.0531774 3.61554 7.98908 0.0560404 
3.49944 8.12188 0.0540961 0.70249 16.8455 0.0468025 0.411819 16.8494 0.0417904 
0.426038 16.5064 0.043635 0.512745 16.8658 0.0420052 1.15923 18.3628 0.0420269 
-3.47336 29.6859 -0.0124848 -0.567942 1.80882 0.00157523 -3.03133 6.08485 0.0192821 
-0.852292 6.9172 0.0118982 -0.627531 6.80749 0.0117131 0.475335 1.43853 -0.000862796 
0.354075 1.08895 -0.00188757 3.46486 12.9025 0.0716615 -3.52994 22.8182 0.0173455 
0.274703 0.776904 -0.00135843 3.40914 7.12904 0.0512729 3.36305 6.7979 0.0502104 
-2.93146 17.6257 0.0306754 -2.84116 17.7999 0.0305038 3.44465 7.46005 0.0522461 
3.59 7.66523 0.0552042 3.55633 7.35895 0.0543087 -0.0906881 31.2136 -0.0166267 
-0.169127 31.5662 -0.0184482 0.363003 30.4562 -0.0117621 -2.55644 17.2331 0.0304169 
-2.66637 17.58 0.0305326 3.67788 9.59122 0.0603461 -3.26619 16.5228 0.0309806 
1.85564 11.9709 0.0421652 2.03239 11.9631 0.0437034 -2.09799 24.417 0.00949323 
-2.28245 24.1937 0.0104084 3.64849 8.62799 0.0576225 3.25479 16.5075 0.0833764 
-3.17007 8.92365 0.0190731 -3.31125 9.14076 0.0196168 -3.17399 9.633 0.0192473 
-3.17675 9.27149 0.0191648 1.20398 4.74426 0.0132015 1.03207 4.3974 0.010648 
3.08507 7.85976 0.0464383 3.22583 8.06026 0.0492005 1.7654 22.112 0.0316371 
1.55806 21.7268 0.0310892 1.54786 22.2691 0.0288072 2.51722 11.8998 0.0498519 
2.78614 20.633 0.0540737 -0.980634 1.18103 0.0281087 -0.995743 1.12789 0.0262821 
-1.25705 3.74216 0.00988101 -1.13564 3.7595 0.00855237 0.359206 17.5624 0.0367924 
0.258341 17.5726 0.0358678 3.10703 16.3129 0.0810316 2.95254 16.1156 0.0785814 
3.10352 15.9501 0.0805363 3.90591 29.0098 0.0182963 1.86319 15.4394 0.0627911 
0.0835343 17.1693 0.0362908 -2.0324 15.5682 0.026528 -1.99439 15.9376 0.0282413 
0.46004 28.3214 -0.00195204 -0.312786 2.197 -0.000688806 0.454155 0.77808 -0.000735164 
0.589209 1.07794 -0.000672321 1.42421 2.92764 0.0118057 0.176489 0.205303 -0.00129992 
-2.63655 20.1715 0.0246728 -1.21841 11.0308 0.0161507 -3.68575 28.5747 -0.00738097 
-3.80991 28.4167 -0.00660544 -2.56099 15.7148 0.0276486 -2.72756 15.6231 0.0279123 
-3.21027 20.132 0.0262971 1.60881 15.754 0.063441 -0.265917 10.6354 0.0216736 
-0.109664 27.2579 0.000600461 -0.0291027 27.6948 -0.000982708 -0.574558 2.19741 0.0014035 
1.54137 14.046 0.0445287 1.09025 14.8091 0.0478639 1.11466 14.4361 0.0457239 
0.959182 14.8237 0.0464204 0.436411 16.1687 0.0472437 -0.992738 13.9845 0.0117665 
-1.34108 18.4585 0.0293165 -1.6824 22.5163 0.0166194 -1.70579 22.0504 0.018224 
1.4264 14.0087 0.0441252 0.777859 15.546 0.047816 -3.13918 24.2182 0.0110537 
-3.28649 24.0998 0.0117363 -3.13271 23.8776 0.0124178 -2.39659 10.9163 0.0171356 
-2.5383 11.0924 0.017615 1.24892 30.4868 -0.00811301 2.90625 31.4462 -0.00244634 
-1.83125 13.694 0.0149527 3.12539 31.1916 0.000497094 3.17897 32.0714 -0.00370938 
2.17436 32.0021 -0.0102692 2.88389 32.0573 -0.00578105 2.96312 31.7791 -0.00375951 
2.82545 31.7405 -0.00455151 2.31431 32.0124 -0.00943155 2.24407 31.6782 -0.00818219 
-2.47435 5.23159 0.0180407 2.3165 3.02742 0.0337119 -2.20338 29.7964 -0.0131221 
1.76987 9.59965 0.0343032 3.07801 6.71242 0.0446489 3.18701 22.8246 0.0461229 
3.20718 23.186 0.0441852 2.44166 12.3494 0.0504333 2.26228 12.5519 0.048443 
2.37842 12.7249 0.0509749 1.72939 8.71567 0.0311067 1.6831 8.30064 0.0293229 
-2.2664 30.9605 -0.0183233 2.46884 32.0211 -0.00846254 2.59683 32.041 -0.00770255 
-2.11606 14.2827 0.018659 -1.44842 31.9664 -0.0224115 -1.37257 31.6098 -0.0207227 
-3.29659 21.1648 0.0230468 -3.44278 21.4179 0.022549 -3.27211 20.8098 0.024224 
-3.41995 21.0635 0.0237443 -1.22613 12.6033 0.0147439 -3.01257 15.2919 0.028007 
2.29395 11.5325 0.045545 2.2818 11.1985 0.044347 2.1385 11.5823 0.0438142 
-1.31557 1.45415 0.0132675 -1.33065 1.46631 0.00552028 -2.96618 6.52103 0.0188121 
2.28175 10.8423 0.0432969 2.10791 11.1525 0.0422518 -2.99738 15.6664 0.0289396 
-2.8651 15.4423 0.0277871 2.76761 10.9683 0.0502712 2.74325 11.3187 0.0511862 
2.89469 11.1265 0.0528124 -1.42234 15.1299 0.0104914 -1.60488 14.7999 0.0157023 
-1.61444 11.2009 0.0156655 -1.30227 31.959 -0.0222326 3.0629 10.941 0.0547968 
3.25226 9.39432 0.0527216 3.39999 9.25086 0.0547457 3.40441 9.59683 0.0557732 
-2.44623 18.144 0.0297431 -1.29626 30.5033 -0.0156755 -1.22164 30.0971 -0.0137854 
-1.14468 30.4886 -0.0154291 -1.07033 30.0826 -0.0135265 2.80974 21.3336 0.0498699 
-2.80888 11.7496 0.0189957 -2.95756 11.8645 0.0197929 -2.83362 12.0332 0.019372 
2.99391 7.17877 0.0437275 3.34363 29.4352 0.0113508 3.18572 29.282 0.0108639 
3.33657 29.7934 0.00941862 3.17834 29.6403 0.00894863 3.11573 9.22495 0.0500905 
0.52385 16.1833 0.0494573 0.120148 15.5224 0.0366421 2.63463 30.6955 -0.000562842 
3.22725 13.8266 0.0730961 3.34247 14.0011 0.0762165 -0.0923927 29.594 -0.00934688 
-0.010449 30.0189 -0.0109969 -2.98188 24.3505 0.0103305 -2.97633 24.0089 0.0116929 
0.130763 31.5695 -0.0176361 -1.37957 30.8946 -0.0175112 -1.2168 30.8793 -0.0172638 
-3.49268 30.0311 -0.0140395 -3.39216 30.2599 -0.0151029 -3.06814 30.7725 -0.0174872 
-1.48224 27.9049 -0.00454208 -1.54579 28.3902 -0.00666805 -2.07615 22.7204 0.0158154 
1.29489 7.67467 0.0237434 2.64832 3.72924 0.0394761 1.56646 1.90412 0.0173589 
-1.21384 5.73789 0.0104917 -0.979537 5.59088 0.00940686 -1.01313 5.07333 0.00855916 
2.10212 2.64055 0.0294989 1.00073 23.1319 0.0212924 0.951413 22.4875 0.0233001 
2.07056 7.9971 0.0324328 3.2466 25.0072 0.0341063 3.23586 24.6394 0.0360517 
3.07822 24.8095 0.0333171 -2.85018 16.5412 0.0300666 -2.69759 16.6715 0.0299953 
-3.40868 8.34253 0.0198929 -2.85163 8.15137 0.0179134 3.66753 8.95584 0.0586026 
-3.61412 11.4747 0.0221723 -1.66359 2.72626 0.0207618 -1.47918 2.50312 0.0201653 
-2.55108 3.64568 0.0188155 -2.48698 3.67427 0.0194515 -2.34802 3.34001 0.019371 
-3.16705 21.2945 0.0222552 -3.32611 21.5366 0.0217956 -3.19339 21.6585 0.0210226 
-1.54052 13.621 0.0128903 -0.263528 1.47272 -0.00235513 -0.304955 1.46295 -0.00221656 
-2.68225 20.5605 0.023559 -2.70725 8.25698 0.0174005 -2.54397 8.43175 0.0169021 
-0.689769 0.832297 0.032611 -0.129234 1.45581 -0.00253535 -0.131211 1.79412 -0.00181618 
-1.13255 13.9812 0.0105015 -1.26317 14.0108 0.00994117 0.331273 1.79944 -0.000635129 
0.422017 2.17455 0.000418673 1.23782 1.8018 0.0089917 0.29469 6.46845 0.0131568 
0.449711 6.97156 0.015599 0.235129 7.18281 0.0151489 1.29764 15.1621 0.0417276 
1.17263 15.5149 0.046517 0.852242 1.43429 0.00244904 0.865141 26.1861 0.00877864 
0.678319 25.6786 0.00991168 0.889493 25.6157 0.0112027 -0.700978 20.1556 0.0264575 
-2.00149 11.8628 0.0161182 0.100927 5.86806 0.0104886 0.036835 6.57695 0.0123633 
2.42393 7.96508 0.0367329 1.14205 10.868 0.0338356 2.23889 26.5638 0.0164378 
-2.76449 13.5734 0.021603 -2.6796 13.9017 0.0219491 -2.85297 13.7796 0.0227005 
-3.02418 13.6469 0.0233386 -2.80577 14.1261 0.0234094 -2.98066 14.0004 0.0240378 
-1.28459 15.1845 0.010599 -1.09944 6.15679 0.0108567 1.08408 12.7631 0.0404044 
0.964527 13.2015 0.0413734 -3.71442 31.9649 -0.0903848 -2.68821 18.977 0.028165 
-0.189905 23.9366 0.0134548 -0.401452 23.9904 0.0127507 -3.2579 19.3045 0.0288069 
-3.29937 19.6782 0.0279398 -1.45235 29.7088 -0.0123178 3.82994 24.6914 0.0426256 
3.70306 24.8583 0.0401319 2.15342 4.64698 0.0258076 0.138562 0.487655 -0.00340735 
-0.0153663 30.8381 -0.0147035 -2.3227 6.22092 0.0163028 -2.1269 5.92847 0.015437 
3.70211 31.8264 0.00154165 3.71809 31.2245 0.00486632 3.64086 31.492 0.00284842 
2.5024 7.3368 0.0362521 2.46829 6.97128 0.0349013 2.68666 7.12721 0.0386076 
-2.6009 5.99553 0.0177512 -2.46534 6.0624 0.0170699 3.17814 22.4712 0.0482034 
-2.2652 5.76487 0.0163306 -2.65196 6.30879 0.0177446 -3.1755 26.0874 0.00327035 
-2.3411 17.3815 0.0306152 -2.18512 17.1066 0.0302164 -2.28645 22.5625 0.0164521 
2.11522 12.2622 0.04547 2.89855 14.1961 0.069513 0.79795 12.7538 0.0388309 
-0.710353 1.46962 0.00983377 -0.820255 1.80183 0.00953903 -0.872686 1.76946 0.0122642 
2.07223 12.6754 0.0461834 -0.652356 1.4552 0.00694084 -0.57289 1.11487 0.00978868 
-2.28112 22.1801 0.017774 2.35281 25.1063 0.0242388 3.4227 26.3221 0.0286692 
-0.853465 31.9289 -0.0215099 -0.997087 31.936 -0.0217582 -2.41079 6.96514 0.0164332 
-1.92296 24.1757 0.0104202 -3.44132 24.3442 0.0109452 -3.45149 24.695 0.00948652 
-0.642232 0.824786 0.0320136 -0.400245 1.8279 -0.000889882 -0.751026 8.41025 0.0149915 
-0.750711 7.45437 0.0130624 -0.0284854 1.77253 -0.00160159 -2.49888 18.9207 0.027839 
2.94849 15.7733 0.0778722 2.79409 15.9375 0.0760993 2.47874 14.8687 0.066969 
2.55077 14.5596 0.0659145 3.21505 10.7494 0.0565321 1.54361 2.09131 0.0153579 
1.30639 18.3718 0.0442578 1.14376 21.5967 0.0278541 -2.98579 11.5102 0.01958 
-3.44866 19.9371 0.0276561 -3.5592 19.8428 0.0283301 -3.41366 19.5783 0.0285699 
1.02548 30.0926 -0.00737265 0.949686 30.4808 -0.00951736 0.875162 30.0654 -0.00793683 
-0.118929 0.193732 -0.00039106 -3.05458 31.4334 -0.0204711 -3.67371 31.8298 -0.0221648 
-3.76155 31.5367 -0.0208104 -3.4723 32.1386 -0.0236097 -3.32791 32.1299 -0.0235884 
-3.39346 31.8357 -0.0222446 -0.707794 19.1224 0.030181 -2.26405 21.6003 0.0196881 
-2.11199 21.8669 0.0187608 0.0707247 1.75798 -0.00130113 -0.108127 2.53445 -0.000128737 
-0.0864116 2.97698 0.00102638 1.28045 19.2079 0.0389098 -0.123539 2.14304 -0.00104725 
-0.00959917 2.96492 0.00107781 2.48844 30.6619 -0.00142859 -3.42859 23.9846 0.0124192 
1.87377 30.5465 -0.00489764 1.79243 30.9258 -0.0072309 1.94538 30.93 -0.00633088 
-1.89611 7.08943 0.0143304 -1.70507 6.84829 0.0135387 -1.94994 7.67077 0.0148002 
-0.233121 13.6988 0.026238 1.34492 4.70879 0.0146382 -1.5674 1.88011 0.0191442 
-1.29201 1.47258 0.0187123 -1.59053 1.85575 0.0151896 -0.622801 2.59982 0.00227454 
-0.00246384 14.4524 0.0338235 0.106963 14.4486 0.0363352 0.0495249 14.0574 0.0339551 
-0.0539989 14.0871 0.0315186 2.69625 19.9067 0.0575358 2.37363 19.4407 0.0550249 
-2.69535 11.2192 0.018214 2.91893 19.2912 0.065975 -1.04256 20.6794 0.0238548 
-0.858353 20.6281 0.0244487 -0.838393 20.0759 0.0265022 -0.961073 20.168 0.0258885 
2.01074 13.0914 0.0466432 1.58547 31.9574 -0.0134595 1.72259 31.9523 -0.0126883 
-2.06145 29.7659 -0.0129464 1.25358 13.2022 0.0423198 1.22621 12.7597 0.0408715 
-1.75132 27.4752 -0.00290216 -1.64326 27.9384 -0.00480658 -1.58235 27.4013 -0.00249017 
-3.69807 23.7429 0.0138703 1.0971 29.6664 -0.00507295 0.949472 29.6828 -0.00585449 
-3.83372 23.9888 0.0130621 -2.83255 13.2276 0.0212187 -1.83215 2.23501 0.0165552 
3.03177 32.1044 -0.00496246 3.10909 31.7838 -0.0027158 0.807047 30.4781 -0.0101287 
-1.73793 2.37791 0.0222849 -2.19511 26.9228 -0.000684268 -1.87889 27.0977 -0.00136489 
-1.71037 27.0227 -0.000979288 -2.30625 25.4345 0.00548495 -2.13691 25.6691 0.00450813 
-0.101903 31.9171 -0.0198991 0.512082 31.2275 -0.0147775 -0.823348 23.5372 0.0136927 
-0.685221 24.0487 0.011971 -2.83946 25.2746 0.00642159 -2.22647 27.3707 -0.00258314 
-2.37177 27.0529 -0.00122978 -0.0218829 31.5711 -0.0180814 -2.06961 12.2956 0.016274 
-2.36287 7.84438 0.0161968 -2.52377 8.01932 0.0167582 -2.68016 7.89122 0.0173204 
-3.38108 31.2156 -0.0194355 -0.440206 2.20813 2.66787e-05 -0.470252 2.60085 0.000971748 
-0.173222 1.45617 -0.0025084 -0.184916 1.80235 -0.00183806 -0.235941 1.80557 -0.00180113 
-2.86641 18.1204 0.0302147 0.320091 20.4045 0.0273937 0.375966 19.8426 0.029396 
0.162742 2.50398 0.000292353 0.111274 2.1284 -0.000590955 0.171719 2.12968 -0.000436927 
0.119581 1.76099 -0.0011425 2.61696 15.7399 0.073335 2.42404 15.5848 0.0703191 
2.48002 29.5171 0.00419549 -0.477868 3.94797 0.00409613 -0.359861 4.49405 0.00537824 
-0.161331 14.075 0.0286068 -2.23285 13.8749 0.0180465 0.0797671 0.188587 -0.00048909 
0.0754249 0.203947 -0.00122182 2.3078 27.7829 0.0112784 -3.60927 32.1149 -0.0234656 
-3.53067 31.8123 -0.0221136 2.42594 30.2891 -4.4396e-06 0.996334 3.88491 0.00878981 
1.07553 4.93307 0.0128102 0.933927 4.89381 0.0113666 0.676848 3.92951 0.00653225 
-3.06516 32.0764 -0.0233802 -2.74092 27.4916 -0.00302276 2.2525 17.7943 0.0654825 
2.43187 18.1294 0.0659382 2.41285 17.6781 0.0685768 2.59203 18.013 0.0690871 
3.50586 20.9974 0.0635128 -0.246357 16.8413 0.0353117 -0.0906383 19.2044 0.0304558 
-0.141712 18.7152 0.0320608 -0.204579 19.2897 0.0301306 -0.252063 18.8004 0.0317742 
-3.65535 20.8625 0.0252807 -3.62331 20.508 0.0264268 -0.306206 18.3814 0.0331741 
-0.129037 0.194628 0.00072415 0.477268 11.2872 0.0303527 -3.54601 23.1731 0.0159483 
-3.557 23.5231 0.0145342 -0.400291 0.786294 0.00648302 -0.433873 0.788763 0.0106516 
0.888258 18.8096 0.0363378 -2.99734 4.63794 0.0193878 0.227441 19.8552 0.0289078 
0.152842 20.407 0.026941 -0.776754 28.2486 -0.00509686 -0.929311 28.2733 -0.00545599 
-2.30129 25.0215 0.00715129 -2.01403 3.80159 0.0185859 -0.675265 11.6749 0.0190928 
-0.459275 11.7551 0.021325 -1.4659 11.6249 0.0155457 -1.42537 11.0532 0.0157918 
1.04472 11.3596 0.0349926 0.955968 10.8609 0.0325126 1.99959 6.11279 0.0262858 
-0.433465 14.829 0.0232198 -2.15232 26.0488 0.00295514 -1.95721 25.8644 0.00372078 
-1.48701 23.9085 0.0116075 -1.67231 23.4881 0.0130938 -1.71091 23.9222 0.0114399 
3.28333 14.6993 0.0790365 3.1394 14.886 0.0774735 1.40406 9.36641 0.0304241 
1.6508 11.9052 0.0404122 1.51431 10.3932 0.0347536 1.31171 10.4046 0.0333279 
1.35171 10.9051 0.0353548 -0.494278 7.37396 0.0133266 0.252902 10.8985 0.0269795 
0.319514 11.4074 0.0292431 0.411926 10.7786 0.0279408 1.72464 10.5676 0.0369597 
1.78241 10.0709 0.0359037 0.67513 8.22784 0.0211428 0.60049 8.91385 0.0230011 
0.439191 8.42747 0.0203364 0.360032 9.11582 0.0221177 1.09419 7.91718 0.0230725 
0.896611 8.28907 0.0229172 1.13203 8.47101 0.0253046 0.178196 8.61588 0.0193666 
0.138064 9.2556 0.0210812 0.0966364 0.789245 -0.00236998 1.66891 3.23717 0.0161964 
2.3001 27.3705 0.0131674 -2.32833 13.4531 0.0182537 1.57911 5.49538 0.0194583 
1.39492 5.23973 0.0168434 0.748495 27.291 0.00365867 -0.552011 28.6911 -0.00655264 
-0.478884 28.246 -0.00449063 -0.398056 28.6897 -0.00619967 2.58277 7.77978 0.0384567 
-0.185431 2.16039 -0.0010243 -1.49457 17.3622 0.030459 3.95948 32.0742 0.00219054 
2.32924 23.9396 0.0295007 3.70865 21.8999 0.0600575 3.58414 22.0321 0.0571847 
-0.477141 30.8308 -0.0158232 -1.66785 9.51037 0.0154138 -3.5308 30.4019 -0.0157086 
-3.17073 9.98685 0.0193435 -3.31395 9.83513 0.0198112 0.194522 3.22478 0.00223088 
0.834173 11.9191 0.0357012 0.998611 11.8948 0.0367199 0.712767 11.7946 0.0343252 
0.877164 11.772 0.0354136 3.529 8.77801 0.0558104 1.75033 10.9911 0.0384834 
-0.0535412 3.4459 0.00231629 0.0381226 3.42415 0.00245761 2.16577 4.14507 0.0258111 
2.06266 3.78389 0.0238357 2.26067 4.05287 0.0278328 0.302594 2.52811 0.000773442 
0.368595 3.40878 0.00333563 0.377466 2.95731 0.00209624 0.124795 3.93631 0.00406611 
3.04528 28.6825 0.0127949 3.05692 29.0946 0.0107821 0.731627 22.6869 0.021342 
-3.25835 16.1309 0.0305584 -0.246047 29.5845 -0.00972016 -0.165696 29.1399 -0.00755906 
-3.61977 7.86737 0.020647 2.04764 29.7952 -0.000167591 2.14681 29.4079 0.00236241 
-0.884225 24.1324 0.0113657 -3.59238 21.6508 0.0220935 -3.47505 21.7694 0.0212994 
-3.61522 22.0103 0.0207431 -1.69724 12.6954 0.0149753 -2.86296 16.9218 0.0305612 
-1.55012 4.03713 0.0129704 2.8914 23.8772 0.0362221 2.88174 23.4998 0.0381644 
1.36632 19.9661 0.0363254 1.36543 20.4414 0.0342869 -1.88339 12.3351 0.0157123 
1.65598 1.91654 0.0200294 3.63653 29.3761 0.0140769 3.48319 29.2245 0.0136094 
3.48151 28.8608 0.0155231 1.89979 20.9387 0.0385012 2.09044 21.3173 0.0392656 
-1.97055 6.02226 0.0144916 -1.22494 5.2449 0.0100155 -0.401739 31.9185 -0.020618 
2.36692 23.6051 0.0315219 2.35673 23.2062 0.0333393 2.14513 23.5448 0.0293876 
-2.34755 18.497 0.0287192 1.2069 14.8131 0.0452893 0.216385 31.9158 -0.0189921 
-1.14517 29.665 -0.0117865 -1.29154 29.6843 -0.0120467 -0.41048 26.0909 0.00458484 
-0.301512 26.6397 0.00262639 -0.556229 26.6287 0.00208156 -0.447305 27.176 7.38543e-05 
0.287333 19.3494 0.0306467 0.359302 18.8622 0.0323498 0.227349 18.8315 0.0320609 
-3.53326 10.9358 0.0212822 1.87291 8.08362 0.0305733 -1.02417 12.1091 0.0163651 
0.450789 19.3539 0.0312477 0.982885 1.01965 0.00545159 1.3383 8.22616 0.0260278 
-3.93548 28.6286 -0.00751152 3.37801 21.1372 0.0603704 1.56927 9.89217 0.0335278 
1.58103 9.35171 0.0318703 1.48612 8.536 0.0283216 -0.0295052 8.97044 0.0192119 
-0.43685 9.26066 0.0177421 -0.596013 9.83019 0.0180074 -0.661884 9.01548 0.0163315 
0.406415 18.3822 0.0341287 -2.61408 3.63502 0.0179984 -2.53126 16.8484 0.030057 
-0.20236 6.87108 0.0126056 -2.19931 3.73739 0.0197092 -2.09015 3.40163 0.0201768 
0.841286 13.1782 0.0407436 0.0742669 22.1452 0.0206826 -1.71073 3.43348 0.0171541 
-1.4729 23.1862 0.0143252 -1.26802 22.8856 0.0156142 -1.47086 22.7066 0.0160816 
0.281179 23.4334 0.0167333 -0.354371 20.2734 0.026497 -0.251002 19.7831 0.0283815 
-0.386145 19.728 0.0284562 -1.33686 1.89248 0.0246467 -1.51114 2.08485 0.0236921 
-2.57076 21.0926 0.0216657 -2.71193 20.9348 0.0224395 -2.5645 20.6904 0.0229222 
-2.42482 20.8467 0.0222159 -3.29327 15.0014 0.0285369 -0.489569 0.767928 0.020407 
0.705321 4.91227 0.00995917 -0.701202 28.7239 -0.00699227 2.28513 20.4233 0.0470445 
2.154 20.0577 0.0470313 2.81692 27.7995 0.0153473 3.34926 23.0326 0.0470479 
3.32885 22.6791 0.0490196 3.47856 22.8805 0.0498111 -2.25735 7.08942 0.015695 
-1.21868 17.6306 0.0320394 -0.407884 17.1829 0.0356875 -0.639499 14.8003 0.0158081 
0.73954 14.0276 0.0432613 -3.64311 8.16046 0.0207163 -2.11183 20.9516 0.0216125 
-0.304671 0.467078 0.0159363 -0.147804 0.195183 0.00657774 -1.1368 16.5718 0.0390047 
-0.629863 29.1698 -0.00878239 -1.00974 1.05192 -0.00293002 -1.2617 2.02864 0.0217604 
-1.23329 2.12812 0.0196872 -1.51648 2.95665 0.0171529 -1.11339 13.0924 0.0140932 
0.558486 17.9605 0.0368754 0.680179 17.975 0.0380122 0.232903 2.13807 -0.000253912 
0.295799 2.15675 -4.61353e-05 2.62118 15.3899 0.0720079 1.60939 16.1909 0.0669889 
1.89649 16.2698 0.0679043 1.89678 15.8389 0.0665051 3.31502 27.9416 0.0189511 
3.32957 28.2987 0.0171986 0.277152 1.78294 -0.000778996 3.06499 24.0842 0.0371625 
-0.923634 18.3656 0.0319342 2.82462 6.98063 0.0405348 -1.36823 30.1165 -0.0140333 
-1.43869 30.5051 -0.0158292 -2.57278 13.6461 0.0204391 -2.3974 13.7403 0.0192382 
-2.48016 14.0728 0.0209243 -0.813777 17.9548 0.0334651 3.66562 10.2338 0.0621358 
-1.21901 18.0566 0.0309682 2.86337 17.394 0.0760879 2.89601 17.7494 0.0751343 
2.73908 17.5496 0.0738088 3.52145 23.5798 0.0458754 1.37061 4.09201 0.0131876 
3.53472 21.3483 0.0613732 3.69205 21.5438 0.0624491 3.80958 23.9898 0.0468959 
3.83201 24.3252 0.0449866 0.457103 12.3069 0.0340018 3.50901 23.2262 0.0479639 
0.387555 12.7209 0.0348616 0.99654 19.2319 0.0355577 0.934111 17.6027 0.0440419 
-3.9682 30.0438 -0.0139549 -2.63742 30.6504 -0.0169731 -2.55657 31.0045 -0.018561 
-3.6019 31.522 -0.0207807 -3.64057 31.1288 -0.0189828 -3.83872 29.483 -0.01144 
-3.9507 29.3376 -0.0107386 1.81991 16.6173 0.0682648 1.87872 17.0496 0.0650017 
-3.9483 28.9961 -0.00918227 -3.68588 9.14092 0.0209781 -3.72058 29.661 -0.0122891 
-3.85074 29.8403 -0.0130621 3.92151 29.723 0.0145433 3.92141 29.3499 0.0165694 
-2.22784 27.7626 -0.0042563 -2.2635 28.2292 -0.00626967 -2.11429 28.1775 -0.00602788 
-2.96426 30.0191 -0.0141169 -0.422003 18.3286 0.0332559 -0.492674 18.7699 0.0318109 
-0.538478 18.3412 0.0332257 -2.36528 16.9809 0.0304006 -2.17504 16.7018 0.030301 
-2.35006 16.5682 0.0298482 3.45815 11.4211 0.0634393 -3.59359 20.1757 0.0274436 
-0.771324 29.1908 -0.009141 -0.849127 29.637 -0.011225 0.317155 12.2947 0.0323783 
-3.38844 20.7089 0.0249394 -3.54092 20.9628 0.0245031 2.70454 23.2945 0.0370669 
2.6938 22.9063 0.0390146 2.04779 16.9177 0.0687975 2.05131 17.4321 0.0653889 
2.21039 17.3038 0.0679364 -3.34594 21.874 0.0206022 0.799419 29.6558 -0.00641264 
-3.77607 26.949 -6.32251e-06 -3.77023 26.596 0.00156579 -3.90642 26.8316 0.000621988 
3.86651 26.1697 0.03401 -3.49714 22.1205 0.020018 -3.16097 10.3463 0.0194866 
-3.37955 13.8768 0.0258768 -3.41903 13.5442 0.0252167 -0.528263 16.8417 0.035251 
-3.52418 19.4756 0.0292212 -0.741578 14.8114 0.0126428 1.87125 19.2454 0.0473435 
1.8226 19.6328 0.044209 1.40716 19.6116 0.0385101 0.82633 10.1547 0.0289362 
0.00854918 0.480634 -0.00184077 0.0081455 0.195895 -0.000235962 0.0244411 0.485218 -0.00151624 
1.41505 13.1792 0.0426681 -0.475666 29.1679 -0.0084485 -0.320914 29.1531 -0.00801987 
-0.398418 29.591 -0.0101229 0.0981839 17.9322 0.0342561 3.25235 25.3927 0.0320291 
0.0269354 16.1524 0.0376641 -0.0553877 16.1613 0.0353948 -2.25285 9.46221 0.0163569 
-1.37987 29.255 -0.0102612 -1.45519 28.8151 -0.00842287 -1.72541 4.28296 0.0144092 
0.650597 4.33014 0.00771265 1.53568 21.3092 0.0325678 1.74522 21.2184 0.0352459 
-1.61903 28.8626 -0.00876116 -1.72842 21.5528 0.0198574 -1.57612 21.1044 0.0214741 
-1.76931 28.8844 -0.00895391 -2.43386 21.5625 0.0199599 -2.25794 21.3233 0.0205519 
-2.41712 21.1886 0.0211502 2.61004 8.60337 0.040968 0.0399949 0.196612 -0.000875643 
-1.0997 1.69642 0.0233812 -3.32443 25.9386 0.00404012 -1.3216 2.00091 0.023341 
-1.52365 2.41294 0.0216944 -1.8679 4.27316 0.0157556 -1.96561 4.13828 0.0170425 
0.0544623 31.9056 -0.0194216 -2.42648 15.354 0.0261228 0.202171 0.807164 -0.00325216 
-2.11235 24.825 0.00789407 1.89328 6.65738 0.0264453 -2.02009 6.42914 0.0147049 
-2.06143 6.81816 0.0149536 -1.85861 6.66308 0.0140407 -1.14652 31.925 -0.0219014 
0.0791451 1.41658 -0.00155529 1.55317 4.38523 0.0161286 1.65576 4.19225 0.0170789 
2.80877 5.79399 0.0388377 -3.44889 31.5504 -0.0209379 -1.83291 26.6189 0.000650291 
2.5385 23.0599 0.0362339 -3.40232 6.24323 0.0202282 -3.12583 23.5333 0.0137782 
1.70527 22.547 0.0291876 1.69886 22.96 0.0274263 0.21534 0.191745 -0.00235433 
2.39439 13.1527 0.0533761 2.20079 12.9639 0.0490215 0.000251421 0.192183 -0.000217116 
0.222542 0.190739 0.000141119 -1.28831 31.2564 -0.0190409 0.424134 0.478687 -0.00186572 
0.452659 0.481255 -0.00425616 -0.629392 5.51264 0.00855495 -0.522966 6.07983 0.00998809 
-2.32868 25.8872 0.00363777 3.73495 22.2136 0.05816 0.73554 30.8463 -0.0121371 
2.38706 31.6873 -0.00729638 0.881125 30.8469 -0.0115252 -1.06883 30.8747 -0.0170545 
-2.39573 27.4653 -0.00297946 2.53202 13.1631 0.0559963 3.93187 30.064 0.0127826 
-0.250647 0.482687 0.00399788 -0.231506 0.486393 0.000455694 -0.556101 0.763486 0.0302032 
1.25336 14.4226 0.0449723 2.58487 3.77285 0.0370603 2.77763 4.05914 0.0414526 
1.47984 2.12793 0.0135459 1.40948 2.15993 0.0117002 2.3453 3.95176 0.0299278 
-3.29737 24.4711 0.0102203 2.11404 21.7523 0.0374127 1.95817 30.184 -0.00261932 
1.89484 29.7942 -0.00115426 -1.08237 14.8142 0.00416356 2.08171 17.7516 0.0629446 
-1.51677 17.709 0.0298128 -3.29108 30.5142 -0.0162786 3.89077 27.2204 0.0281448 
3.87922 26.8698 0.030049 1.80607 20.1043 0.0413634 3.41261 25.5774 0.032711 
3.56142 25.7789 0.0331405 2.02069 15.6701 0.0660924 -0.00768447 0.199668 -0.00107908 
-0.0224808 0.483269 -0.00261322 -0.0154395 0.189928 -0.000953944 2.31504 31.349 -0.00605874 
2.16965 31.3141 -0.00682661 0.0484077 0.792058 -0.0024626 1.92254 4.8851 0.0223781 
2.03599 4.72857 0.0238803 1.83495 4.46013 0.0202541 -0.218422 1.4645 -0.00260503 
0.895794 12.3802 0.0380334 2.63724 6.77415 0.0371148 -3.2186 11.8817 0.0210063 
1.9601 3.8687 0.0217682 0.22367 7.8704 0.0173138 -0.0392578 8.14255 0.0168652 
-0.0203616 7.45292 0.0149231 -3.02772 10.126 0.0189062 -1.92862 3.76555 0.0179911 
-1.05079 9.71651 0.0160863 -3.13035 13.8547 0.0244782 -0.245657 31.9013 -0.0201832 
-1.6186 1.86694 0.0110002 -1.87173 2.25324 0.0130513 -3.14399 20.9393 0.0234177 
-3.01203 21.0577 0.0226851 -2.8769 21.1988 0.0219071 -0.126915 0.812028 -0.00285544 
-3.0854 6.42383 0.0192394 -2.71183 17.9491 0.0302224 -0.91814 8.89997 0.0153516 
2.84102 11.8222 0.0547871 0.649482 6.77698 0.0160316 1.52188 12.3715 0.0410358 
1.82484 26.2373 0.0146304 1.86531 26.6368 0.0131708 -0.81287 9.68229 0.016715 
0.108046 16.1541 0.0394611 -3.19686 6.3681 0.0196412 -3.66531 32.2734 -0.0918257 
-0.695523 15.5442 0.0253168 -0.727471 15.1948 0.00994862 1.1156 31.9358 -0.0156716 
-2.19302 31.3149 -0.0198967 2.42744 3.40599 0.034335 0.544403 1.07275 -0.000865056 
-0.325142 0.464902 0.0206499 1.34492 12.2913 0.0399172 1.38888 12.7744 0.0415824 
3.46394 32.1304 -0.00188988 3.61357 32.123 -0.000713845 3.56002 31.7921 0.000633092 
1.71739 14.0334 0.0461102 1.66163 14.4365 0.0464096 1.4936 14.818 0.0490564 
3.42653 18.7449 0.0784809 -2.75694 27.906 -0.00481312 2.93114 18.1101 0.0739102 
3.05887 17.9543 0.0766943 3.10009 18.3082 0.0754945 3.22825 18.1563 0.0784206 
3.37797 18.3487 0.0799584 -0.326025 2.5877 0.000221208 -0.244626 2.16386 -0.000958863 
3.71378 25.5931 0.0358371 3.72706 25.9739 0.033739 2.99447 29.4651 0.00838897 
3.86612 25.783 0.0363088 -3.7344 21.9173 0.0214415 -2.78432 22.3804 0.0176184 
-2.95081 22.6052 0.0170623 2.0164 31.9835 -0.0111443 1.87707 31.9797 -0.0119487 
-1.91177 19.2999 0.0258984 -2.08279 19.2815 0.0260932 -1.2256 31.6039 -0.0205385 
-0.4677 20.7947 0.0244115 -0.659468 20.6874 0.0245528 -0.578953 21.4001 0.0220839 
0.478127 7.684 0.0180097 1.30672 1.79746 0.0103915 0.663198 1.40085 0.000306514 
3.66188 9.26287 0.0592161 3.53996 9.4293 0.0575742 -0.716819 5.08804 0.00746976 
2.83694 17.0186 0.0768121 1.33697 1.46638 0.0128844 3.53353 9.10352 0.0566333 
3.03341 17.5872 0.0779017 3.19583 17.796 0.079617 3.31226 17.615 0.0822297 
2.79857 8.84765 0.0442947 2.78462 8.50264 0.043194 2.95116 8.01492 0.0445576 
-0.235434 27.7815 -0.001933 3.01523 5.57385 0.0431829 -1.75691 3.8094 0.0160092 
-1.68554 4.02098 0.0146562 3.07478 24.4398 0.0353062 2.89526 24.5971 0.0324142 
-0.492699 21.9276 0.0202557 -0.383294 21.3228 0.0226503 3.30027 27.5586 0.0208427 
3.44181 27.3841 0.0230693 3.45677 27.7664 0.0211484 -1.87208 23.3121 0.0136861 
-1.67012 23.01 0.0148527 -3.76404 26.2583 0.00306263 -2.3973 27.8566 -0.00466252 
-2.08866 21.3601 0.0203539 -2.93536 12.2058 0.0200885 -1.88413 23.7428 0.0120753 
-3.55335 30.6862 -0.0169939 -3.5866 7.51683 0.0205626 3.12185 12.1168 0.0610464 
3.28747 11.9198 0.0629031 3.25127 12.2632 0.064097 3.62252 27.9371 0.0217103 
2.77661 30.7668 0.000101288 -2.00027 26.3818 0.00158888 -1.80471 26.1986 0.00239451 
-1.88428 22.82 0.0154707 0.0371115 17.537 0.035069 -3.66201 27.8304 -0.00403824 
3.31474 11.5957 0.0617948 3.65737 9.90935 0.0609396 2.42909 6.61559 0.033551 
-0.188895 11.3637 0.0238017 2.74937 20.2685 0.0559467 1.78212 25.7515 0.0164181 
2.94328 9.72602 0.0488712 3.24116 16.153 0.0829909 3.75155 32.1283 0.00030926 
-3.8495 24.3617 0.0114782 -3.7217 24.4564 0.0108793 -3.30316 6.29759 0.0199544 
-3.40891 23.2846 0.0152385 -2.16323 16.2678 0.0291957 3.69144 24.4971 0.0422257 
-0.453919 0.767802 0.0162528 -2.54552 27.3491 -0.00245873 -2.71655 27.0805 -0.0012564 
-1.2681 1.50639 0.0235513 0.172114 0.786844 -0.00153283 0.420559 0.77581 -0.0024738 
0.251954 1.4416 -0.00130795 0.992544 14.026 0.0443361 1.1374 14.0162 0.0444689 
0.988853 14.4324 0.045815 1.72031 9.20361 0.0326163 -1.05719 16.9069 0.0348998 
-1.01632 16.558 0.038196 -1.1899 16.917 0.0352928 0.479742 17.5891 0.0377496 
2.70483 17.1898 0.0745013 2.5789 17.347 0.0725583 -1.73669 24.3743 0.00969793 
0.388479 14.0346 0.0399939 0.294466 15.5237 0.0391365 1.40047 24.949 0.016976 
-0.487972 24.696 0.00988724 0.269447 15.1822 0.0389564 0.205668 15.5201 0.0378578 
0.677665 0.827786 -0.00113323 3.05237 31.4511 -0.00139793 0.65141 1.74297 0.000760954 
2.30977 22.8464 0.034528 3.35857 23.3998 0.0448814 0.863812 14.4373 0.0453323 
-0.456972 17.9368 0.034456 -0.488474 17.5487 0.0352763 -0.0198564 21.5228 0.0226322 
0.0725309 20.9205 0.0249501 2.36582 14.5689 0.0628528 2.6081 14.2066 0.0644854 
0.0166829 0.195937 -0.000447951 2.97089 15.0704 0.0756466 1.57157 17.0097 0.0623463 
-1.07887 28.2805 -0.0057036 -0.830582 5.05511 0.00774375 -3.86029 24.7182 0.0099454 
0.638178 10.1733 0.0276625 1.52898 8.95293 0.0300631 1.90243 17.7557 0.0594618 
1.88026 17.3824 0.0627128 3.10938 8.56714 0.0483194 3.0915 8.21494 0.0472301 
2.99924 22.2683 0.0468967 2.84542 22.4116 0.0438484 2.71094 28.4777 0.0110998 
2.54078 28.7451 0.0084452 2.60582 8.15093 0.0397238 -0.925834 30.8605 -0.0167827 
2.79867 15.5839 0.075178 -3.03235 9.75626 0.018786 -1.77719 16.0921 0.0288672 
-1.70035 2.45049 0.022303 0.790827 1.43604 0.00155247 0.21121 3.45561 0.00294226 
-1.52607 1.90408 0.0219474 -1.14779 1.66944 0.0251696 1.37112 21.515 0.0300869 
2.23835 15.7816 0.0696371 1.97709 19.6567 0.046503 0.0911218 2.48746 0.000109206 
-3.21194 21.9967 0.0198318 1.3119 8.82121 0.0278824 2.63199 20.415 0.0529149 
2.4824 20.5012 0.049826 1.0567 17.9933 0.0430749 2.47663 20.8579 0.0475627 
2.83711 28.1566 0.0137321 3.49722 29.979 0.00973447 0.807168 31.221 -0.0135942 
-2.88179 9.93049 0.0183473 -2.23785 9.87072 0.0164642 -2.40224 10.1062 0.0169283 
0.241678 11.8463 0.0299306 0.749742 15.9029 0.0558034 1.43667 16.9595 0.0621623 
2.2839 16.9639 0.0705568 -2.32929 7.45697 0.0159929 -1.0227 23.1856 0.0147671 
-0.81933 22.7941 0.0164777 -1.1154 22.4084 0.0175207 1.59011 26.0408 0.0137643 
-1.88089 9.45717 0.0156439 -2.07077 9.65445 0.0160361 -1.93728 24.5846 0.00883547 
2.27799 20.7806 0.0448576 -3.86886 25.0426 0.00854083 -3.01372 25.8778 0.00403349 
-3.88489 25.7594 0.00539859 -1.75451 19.2811 0.0260742 -2.07158 5.52086 0.0153872 
0.434276 3.84458 0.00496728 0.323015 3.87308 0.00451946 0.445831 17.9672 0.0358611 
1.94289 20.0443 0.0437417 2.45176 29.1004 0.00603293 -2.01099 26.7329 0.000127641 
2.67293 22.5425 0.0407302 0.0727011 0.780549 -0.000813506 -0.0176259 17.9352 0.0341671 
2.11893 24.0274 0.0269326 -0.0721458 18.2973 0.0332747 2.11624 10.3645 0.0400194 
2.27707 10.4738 0.0421263 2.11104 16.5766 0.0707114 -0.319696 3.01209 0.00131451 
0.222354 26.0017 0.00675522 -0.317449 28.2324 -0.00405015 -0.569092 17.9493 0.0342863 
3.43312 11.7429 0.0645738 -1.5309 21.6679 0.0196572 -1.79332 3.12137 0.0195273 
-0.706948 22.0819 0.0192809 -0.945064 16.8885 0.0355368 -2.0064 16.8019 0.0302482 
1.8456 3.48935 0.0194793 -0.545158 13.2153 0.0198679 -0.759566 12.205 0.0182468 
-0.608339 12.2431 0.0197304 -0.619466 12.8093 0.0192517 -0.371495 18.8214 0.0316735 
-0.335389 19.2338 0.0302359 -1.24871 14.4174 0.00748287 -1.4032 14.0067 0.0105752 
0.713289 23.3741 0.0187905 1.00056 23.792 0.0188385 2.95878 15.4076 0.07688 
3.12157 15.2395 0.07877 -0.706061 31.9243 -0.0212404 1.08384 9.10722 0.0270775 
-0.275184 14.0776 0.0253709 -3.65733 32.2714 0.0414935 -3.74626 25.1775 0.00779505 
-3.80183 28.0418 -0.00491126 3.32358 32.1222 -0.00290394 2.95514 6.83363 0.0425542 
1.4184 31.9425 -0.0142544 -1.11584 15.7759 0.0178964 3.00364 27.9458 0.0162094 
-1.58546 17.0199 0.0320607 -1.50619 16.6869 0.0309504 2.97442 27.2136 0.0196856 
-0.508428 17.1831 0.0352661 -1.32316 15.3932 0.0204009 -3.90696 27.1645 -0.000878733 
2.86478 28.5057 0.012205 -0.548102 31.906 -0.0208621 2.26765 15.3586 0.0671836 
2.29188 14.9924 0.064936 3.03581 19.1631 0.0689288 3.58054 26.1455 0.0312476 
-0.922532 1.34135 0.0260724 0.732759 25.1579 0.0122093 -3.17555 25.7128 0.00486927 
-2.56961 27.7609 -0.00422964 -0.870148 11.673 0.0175683 -0.503968 2.20936 0.000599326 
0.51823 4.38254 0.00706493 1.04393 2.46317 0.005733 1.05776 12.3667 0.0388256 
1.19342 12.3077 0.0392524 2.58513 17.6869 0.071078 -0.573001 25.3377 0.00721032 
-1.34772 24.6877 0.0087027 2.13349 7.74988 0.0324687 2.94924 8.68663 0.0461012 
2.28928 22.0514 0.0382231 1.71907 26.8818 0.0110314 -2.4833 22.644 0.0163142 
-3.33134 20.0343 0.0269853 0.468352 3.0084 0.00264207 0.375215 2.55902 0.00111135 
-0.600993 17.5541 0.035005 0.145036 17.5611 0.0354159 -0.689181 17.9432 0.0339823 
0.297818 1.4506 -0.00140287 3.49157 29.6134 0.011621 -1.31518 18.8612 0.0285704 
0.436033 14.8065 0.0425171 2.123 22.5995 0.0335038 0.244309 20.957 0.0253399 
2.88178 18.937 0.0678606 -0.177188 20.3153 0.0265972 -0.0909339 19.7296 0.0287281 
0.355766 15.1884 0.0409665 0.251182 1.11088 -0.00207508 0.338872 14.8099 0.040243 
2.90071 24.9808 0.0304568 1.67549 6.79507 0.0244078 2.93353 8.33 0.0449989 
2.8052 8.18339 0.0426756 1.93215 27.0847 0.0116607 1.5818 19.9912 0.0388404 
0.56132 11.7558 0.0328816 0.407433 11.8058 0.0316024 -1.51222 1.97878 0.0234177 
2.02181 31.2913 -0.00764393 -0.936304 2.54617 0.00745852 -3.66498 28.2002 -0.0057008 
-1.71996 5.35819 0.0131259 0.663467 6.12839 0.0139322 -1.92023 5.6968 0.0143339 
0.359111 2.17776 0.000203786 0.793987 5.03763 0.0110028 -0.771989 26.2393 0.00325291 
-0.610528 26.0348 0.00437702 -0.812527 25.6068 0.00572803 -0.726915 24.9649 0.0083839 
0.234884 4.35985 0.00584495 -1.71909 19.7549 0.0250794 0.860517 19.2432 0.0342535 
1.24428 23.4674 0.0216751 -0.0470156 23.3257 0.0160991 2.93721 5.21225 0.0418189 
-3.26169 12.7905 0.022706 -0.0241137 20.2665 0.0270244 0.43918 30.8238 -0.0131735 
-3.52045 31.2604 -0.0196087 3.09519 5.93007 0.0446817 2.97446 6.03853 0.0421806 
0.894613 28.2511 0.000252622 -1.41422 27.3729 -0.00223742 -3.3068 24.823 0.0087656 
-3.2545 30.1921 -0.0148329 -3.00132 25.4972 0.00562635 0.717023 1.39271 0.000890755 
0.120942 0.783231 -0.000940695 -0.0243168 0.203066 -0.00100752 -1.91949 21.4873 0.0199531 
2.47542 3.3619 0.0364158 -0.718281 17.562 0.0344951 2.99657 17.2201 0.0785465 
2.95603 18.4601 0.0722873 2.79867 18.2373 0.0710999 -0.777167 30.8495 -0.0164899 
1.24542 24.0095 0.0195992 3.35431 7.9182 0.0511735 2.0942 31.6587 -0.00903247 
-0.996379 25.649 0.0052808 -3.985 31.5101 -0.0206427 -3.98842 30.7104 -0.0169887 
3.51568 6.99994 0.0533618 0.319642 5.73648 0.0108279 0.472265 6.23465 0.0132608 
-2.88647 9.55915 0.0182326 1.74194 17.3902 0.0604337 -0.235306 28.6742 -0.0057282 
-0.630172 31.571 -0.0194895 0.361921 16.1709 0.0457517 3.48659 31.4427 0.0019263 
-0.82868 1.12953 0.028968 -3.96155 29.6852 -0.0123207 -0.172769 0.188846 0.00962613 
-0.353423 0.475198 0.0316882 0.198334 0.187549 -0.000863445 -3.63503 26.7339 0.000839026 
-0.371449 11.2245 0.0216907 3.27532 20.0617 0.0665562 2.7427 17.8848 0.0722613 
3.24323 10.078 0.0546319 -3.03699 9.39124 0.018707 -3.34109 17.6592 0.0314748 
2.45658 15.2337 0.0688842 -0.386788 0.488138 0.0294002 -0.188293 0.191571 0.0128551 
1.06541 17.6073 0.0463468 -2.21489 5.45843 0.0163577 0.20768 1.43721 -0.00143854 
0.99236 2.04658 0.00452483 -3.98165 30.4102 -0.0156221 -3.08731 28.1988 -0.00597964 
-0.924628 30.0754 -0.0132808 -0.418174 0.497661 0.035317 2.38825 17.3108 0.0701997 
-0.259272 0.801461 -0.00289317 0.724977 0.834165 0.000367819 -1.46647 18.8963 0.0277654 
0.462638 0.463315 -0.00447691 0.712971 0.718957 -0.00536162 0.730482 0.79574 -0.00307196 
-2.17274 28.5602 -0.00769377 -2.30415 4.05978 0.0193614 0.833557 19.7208 0.0322595 
3.56507 25.393 0.0354118 1.17354 30.0836 -0.00661005 -0.989852 4.50647 0.00773118 
1.10066 30.4956 -0.00888263 1.02518 30.8516 -0.0109034 2.13242 27.6205 0.0107008 
2.8865 24.2404 0.0342095 2.35999 3.44707 0.031934 1.18842 2.41648 0.00770642 
-0.500212 20.2484 0.0264047 -0.617785 18.7473 0.0317362 -2.99473 8.00192 0.0184556 
-2.71079 19.3063 0.0273638 0.924262 12.7781 0.0396694 1.71943 30.5507 -0.00584329 
1.80151 30.1713 -0.00353029 -1.03751 1.41464 0.0275132 -1.86687 9.87265 0.0157797 
-0.926977 25.0477 0.00774834 -0.996996 30.4842 -0.0152065 -2.83529 11.394 0.0188686 
-2.16722 7.61105 0.0155046 -0.340688 16.8422 0.0362484 -0.994573 29.6438 -0.0114853 
1.18472 17.6068 0.0486755 -2.40493 4.02786 0.019741 1.90832 3.35833 0.0209441 
0.621908 14.025 0.0424006 1.85566 13.9691 0.0479545 -0.627881 28.2784 -0.00494512 
2.71071 11.674 0.0520321 -3.88057 25.4042 0.00696322 0.142207 22.7983 0.0185473 
-1.51193 24.3617 0.00985296 -1.90147 3.12281 0.0202926 -3.45648 25.0431 0.00801582 
3.31896 20.4133 0.0647022 -1.96554 28.0598 -0.00548173 -1.72596 2.67139 0.0215717 
-1.48538 2.18205 0.0233604 -2.09869 7.24215 0.0151538 0.525347 0.78504 -0.000261719 
0.133242 0.186893 -0.0010191 2.75261 32.0566 -0.00670714 -3.09605 4.95114 0.0195679 
1.19994 17.9985 0.0452981 -2.85368 19.2727 0.0278076 -1.96829 16.422 0.0294411 
2.44778 9.17731 0.0404008 2.72097 24.0345 0.0333854 -1.62206 26.1045 0.00286076 
-2.80542 12.3735 0.0196252 -2.23949 12.2393 0.0169526 1.12421 19.2076 0.0370286 
2.32042 29.464 0.0033012 2.12438 28.1146 0.00833486 -0.717967 26.8322 0.000935405 
-2.26923 20.8187 0.0221 1.80187 14.3699 0.0485614 1.1356 21.0847 0.0296548 
1.50806 27.9113 0.00509684 1.72498 4.64817 0.0190575 0.195043 5.03739 0.00779943 
-1.50812 22.1351 0.0180774 -3.86823 30.8833 -0.017813 0.803245 15.8578 0.0549427 
0.743831 15.8511 0.0530559 
Displacement%20Magnitude 1 12526 double
0 0 0 0 32.717360173 32.714183579 32.709655636 32.706048434 15.802672692 
15.826555963 15.839096126 15.803768107 16.028390044 16.051643239 16.034186946 16.037662161 0 0 
0 0 0 0 0 0 0 0 0 
0 0 0 0 0 0 0 0 0 
0 0 0 0 0 0 0 0 0 
0 0 0 0 0 0 0 0 0 
0 0 0 0 0 0 0 0 0 
0 0 0 0 0 0 32.654709918 32.608290413 32.561572293 
32.514818184 32.473166119 32.433573117 32.394225286 32.358517311 32.327908271 32.302653696 32.282159439 32.265178462 
32.256505566 32.253355328 32.25688876 32.266554018 32.283850281 32.304179017 32.332381008 32.368630463 32.403503299 
32.444859487 32.486652713 32.531568628 32.575352684 32.621440471 32.671307713 1.5954421389 2.6883861042 3.5395138124 
4.3016743585 5.0064462872 5.673274056 6.3433597429 6.9391571201 7.5250442725 8.1871985647 8.7631307672 9.3379276601 
9.9132054672 10.518016485 11.099149013 11.770511926 12.395993775 13.065121475 13.664020353 14.377367825 15.021484836 
15.720591172 16.471897705 17.197223201 17.920678247 18.668984189 19.436935133 20.093416404 20.773489771 21.478843539 
22.180037231 22.847786917 23.483707796 24.248418387 24.951668857 25.722117325 26.399352793 27.079623956 27.795572376 
28.449143566 29.138077902 29.829424641 30.589079268 31.317395941 31.980279837 32.021078375 31.258770407 30.596633105 
29.870016901 29.21137984 28.423908591 27.737806319 27.054559892 26.342046131 25.6006242 24.894649855 24.223373824 
23.490476057 22.822573642 22.186430859 21.453234136 20.747279535 20.066730008 19.310290001 18.573351248 17.857862851 
17.099721217 16.340645806 15.592642164 14.897530562 14.164219922 13.519633104 12.837255073 12.259485249 11.636414088 
11.050041114 10.414135765 9.8371306106 9.2618911636 8.6595162077 7.9729827204 7.4197803259 6.8038182473 6.1759120365 
5.5296811135 4.8237172404 4.1055528913 3.3982872978 2.5198323999 1.5445583491 15.967105215 15.954998645 15.938089048 
15.926255271 15.915837902 15.909668191 15.908630356 15.911644964 15.914321895 15.92433344 15.938838677 15.953554392 
15.979884327 15.857322715 15.831687877 15.813211039 15.79238821 15.780737006 15.775106408 15.774027916 15.775098165 
15.783197622 15.794298774 15.810235659 15.824128861 15.863526318 32.65641234 32.608562011 32.563140272 32.519921003 
32.476858684 32.436786773 32.395990215 32.360798038 32.32936552 32.298461775 32.276111009 32.261451805 32.25287681 
32.250111741 32.254177268 32.26447569 32.280577463 32.302960409 32.329897592 32.363406324 32.399181901 32.439355789 
32.479743746 32.524558973 32.568254339 32.615616121 32.666784154 1.5520918926 2.5361119949 3.3619748265 4.1376256509 
4.8521038013 5.4956663498 6.1715923415 6.7710087522 7.4426618222 8.0231469174 8.6546223949 9.2569945919 9.8322798524 
10.409350773 10.989864218 11.575647238 12.169418423 12.745444038 13.395132297 14.066726109 14.764047476 15.48760933 
16.198649941 16.921161315 17.645205286 18.396709038 19.169026343 19.861628938 20.544119012 21.315295823 21.985258062 
22.65320806 23.352590535 23.98936835 24.723755165 25.396838212 26.169473651 26.946065546 27.62885174 28.347307032 
29.068717099 29.759807774 30.453148182 31.21425339 32.009808088 31.984710117 31.18935383 30.461223824 29.76796365 
29.076854907 28.322698886 27.637047944 26.986753185 26.274565781 25.565677937 24.923986029 24.156972052 23.488028767 
22.820247057 22.120718588 21.451127064 20.777807363 20.097837126 19.342548746 18.640704486 17.892663774 17.135055869 
16.376564297 15.594247124 14.899668975 14.16563522 13.520766552 12.896712511 12.260362246 11.580813887 11.022756287 
10.387012025 9.7278356136 9.1801250481 8.6050861379 7.9733108583 7.4201816438 6.7765278992 6.1771791086 5.5606515615 
4.9199019322 4.1760911181 3.4393831968 2.5352191211 1.5897008059 15.965090869 15.948865597 15.936797677 15.924468637 
15.913105195 15.908292859 15.904685639 15.914140451 15.919072537 15.928432503 15.943077598 15.959779036 15.956771087 
15.848725328 15.82650326 15.812523854 15.797813037 15.785804093 15.782604533 15.77097304 15.775195867 15.783605163 
15.795119265 15.809465295 15.8253417 15.843907811 32.043609214 32.0251947 31.97551183 31.873258193 31.796332778 
31.756740927 31.709691269 31.664729261 31.625820052 31.612803042 31.591463084 31.577790132 31.580980805 31.585058804 
31.588644432 31.600751041 31.623553768 31.669121226 31.712136105 31.743834731 31.776271607 31.814175932 31.877269189 
31.949914667 32.036278979 32.019391327 31.958267278 1.4719617502 2.6043580061 3.4932012533 4.299680244 4.9961196547 
5.6946344387 6.3827269845 7.0252850286 7.6417682722 8.2715916495 8.9094703609 9.5211873334 10.133297613 10.749289857 
11.390171565 12.043904016 12.669961198 13.320559582 13.993719839 14.659548323 15.332518938 16.020816313 16.734399781 
17.470362341 18.229212316 18.948905993 19.626730937 20.325335719 21.029864167 21.731874288 22.398146923 23.109773388 
23.786191175 24.526399634 25.243871114 25.972541162 26.699956671 27.364968091 28.065822775 28.757002997 29.461990579 
30.187560644 30.87666068 31.530151759 30.74806461 30.148831372 29.437414042 28.719208232 27.974305469 27.250682799 
26.55025412 25.826106121 25.112687452 24.402691373 23.695437011 23.019647876 22.32887483 21.611538342 20.902978169 
20.225662132 19.474088417 18.756227577 18.011382849 17.27517802 16.536280176 15.830221064 15.127033698 14.395158979 
13.745354929 13.066189153 12.424117345 11.79605888 11.191906339 10.568174943 9.9240304859 9.3322623126 8.6886368517 
8.0462614454 7.4296476996 6.7838720267 6.1563989517 5.4945648669 4.7685438558 4.0748646901 3.3017345708 2.4342762097 
1.4130210414 0.67161212611 0.67252540717 0.62131560908 0.57715917171 0.58497636188 0.58148340781 0.56909441358 0.55703286431 
0.54818219708 0.54146404785 0.53327314618 0.52103797968 0.52427720865 0.53270008804 0.53322288342 0.53536784163 0.53645241662 
0.54314592384 0.55046559688 0.56769325358 0.58104533749 0.60491487355 0.63405468883 0.66919174116 0.71847520414 16.651102351 
16.554447766 16.523196437 16.513382321 16.521770888 16.505030065 16.496980958 16.512803924 16.520049993 16.520768807 
16.528194586 16.549053973 16.589076127 16.655481157 15.987417672 15.226613884 15.219845207 15.198170373 15.184375554 
15.193183861 15.186068752 15.186186198 15.179564538 15.175939785 15.183903589 15.188175841 15.208721618 15.238243152 
15.229276554 16.010120549 16.740176444 16.709932856 15.178029224 15.292818045 17.367640791 31.484427937 31.302041168 
31.172115773 31.081510783 31.013876766 30.986319952 30.959388539 30.917981803 30.89835356 30.891034785 30.894485474 
30.879845347 30.893036425 30.879803723 30.917477391 30.956135363 31.001525413 31.024104869 31.048074941 31.095689653 
31.156469389 31.249267928 31.359915293 31.481013407 17.18539552 1.4936055803 2.6958846092 3.5555280004 4.3094238865 
5.0037972646 5.7530201908 6.4750720088 7.1215227992 7.7633049965 8.4174948364 9.0932009155 9.69799757 10.360924117 
11.001022617 11.672631666 12.301182034 12.949316137 13.634401136 14.287108836 14.925128214 15.596451339 16.29030973 
17.015116446 17.765769818 18.49024681 19.189940629 19.88005148 20.565692513 21.265684295 21.957171469 22.666361528 
23.37150906 24.076984694 24.790313681 25.533580124 26.270344524 26.97317916 27.64164123 28.360518945 29.072936466 
29.79588973 30.523768348 31.333154662 15.719283043 1.6046000509 30.475306689 29.760068239 29.013370349 28.251140405 
27.48034885 26.784878954 26.037793171 25.308019683 24.6174168 23.902290424 23.204651887 22.510508806 21.807848903 
21.06352046 20.377363011 19.654623405 18.926713994 18.190857425 17.480122898 16.725487148 16.042804593 15.317406473 
14.619779755 13.944614308 13.280525533 12.613256615 11.976004563 11.345078403 10.712298326 10.050328484 9.3989485659 
8.7462399586 8.0955177753 7.4362302794 6.7821615128 6.1210479119 5.4625217587 4.7255999099 4.0271255717 3.2658030167 
2.3997920025 1.471530841 1.2386098105 1.2344081103 1.2362659129 1.2427628696 1.1964372505 1.170767228 1.1427855863 
1.1271081055 1.1075037868 1.0974380602 1.1023865897 1.089650965 1.1059197481 1.1123312699 1.1166422039 1.1366885465 
1.1573314356 1.18927785 1.2396555522 1.2858219805 1.3273543538 17.222094224 16.545089976 17.287988619 17.179227274 
17.191973478 17.191018977 17.182193725 17.174324194 17.187517141 17.195646815 17.232101968 17.276939372 17.337197739 
17.395143262 16.53796349 14.586181984 15.677195193 14.454020987 14.448214313 14.487969543 14.497326858 14.464298678 
14.433137532 14.426006732 14.431459496 14.443194163 14.471739893 14.523196009 14.645822858 14.436551622 14.44861656 
17.339675308 31.247222491 14.974222703 17.404450554 14.349181706 14.905042955 17.942502386 30.56536411 30.409956233 
30.328120503 30.239251938 30.182171832 30.165196697 30.17115963 30.157313784 30.157740204 30.128271066 30.087467278 
30.083664392 30.115545973 30.170062158 30.211748953 30.269614777 30.305906024 30.344010465 30.403125346 30.502904442 
30.644942328 17.933215527 17.949499622 2.8344293555 3.5803767526 4.3344491452 5.0614993063 5.8492917143 6.5878943192 
7.2414414476 7.9160193534 8.6069725303 9.2898191245 9.9301818067 10.59877372 11.281757799 11.931083397 12.608940652 
13.276419919 13.967801358 14.575098852 15.159163036 15.839369921 16.594681995 17.313971482 17.9895417 18.698618768 
19.409425839 20.130028414 20.805814435 21.50988506 22.194452293 22.913595575 23.636962417 24.353653426 25.087444207 
25.855401049 26.570074426 27.258458493 27.95436295 28.667740818 29.407604667 30.118577074 30.830468658 2.0940858794 
18.149659868 13.594430427 29.386148847 28.608799034 27.798879578 27.041260809 26.30047263 25.557241991 24.830477007 
24.089546553 23.405356456 22.723387575 22.010634518 21.28174255 20.522108404 19.81015076 19.148874411 18.442583017 
17.701655349 16.933898255 16.169648202 15.563294371 14.86471051 14.129745506 13.479682838 12.827673876 12.175653174 
11.558922003 10.898384684 10.194043133 9.4993903564 8.8450086041 8.1578838511 7.4450430666 6.7915942572 6.1200631302 
5.4343157987 4.6673293454 3.9985121141 3.3203751595 13.729468636 1.920250152 15.410731225 1.9263395223 1.9815906778 
1.9902122868 1.9583679617 1.9240665507 1.8857517113 1.8355163928 1.7958372239 1.7698266394 1.7536398883 1.7473442453 
1.7655490725 1.7975868937 1.8092856791 1.7917566703 1.8042050587 1.8417856861 1.9162896856 1.98841814 2.033710936 
17.971979223 17.969665479 17.976726559 17.929764242 17.930139334 17.959209623 18.007350929 18.045358759 18.110886894 
13.671419757 15.345237513 13.857093565 18.147032801 17.192019673 13.71834528 13.669553584 13.633776001 13.61936489 
13.602606137 13.637210172 13.691338391 14.15630877 13.737843659 16.178986519 17.149208669 30.161524316 2.5150103835 
14.394205177 30.83813811 17.996872948 18.062095292 13.59674861 17.990777911 16.287206592 14.53543147 13.690331005 
18.176779883 29.614912452 29.475971312 29.378866541 29.338485324 29.32466947 29.346976357 29.370757955 29.318197459 
29.219834907 29.202417596 29.237974465 29.288051809 29.341461233 29.405654966 29.474621407 29.525103022 29.591962399 
29.708489437 29.88711602 18.816940082 18.789620723 13.375983204 3.5955636809 4.3778421917 5.1918095779 6.0057429106 
6.7197456629 7.4132921724 8.1204582351 8.8380053331 9.5103456912 10.207737981 10.899415767 11.57905375 12.258537393 
12.968450746 13.728121716 18.949289909 19.643108154 20.333341059 21.013452435 21.725915225 22.437978749 23.164720553 
23.899584943 24.621608631 25.386992585 26.172529824 26.895536609 27.59320527 28.30717616 29.007207032 29.732335322 
2.6584623404 18.849549257 18.835274632 28.229648693 27.403077549 26.580722112 25.845350192 25.061459901 24.311713895 
23.617525465 22.944811213 22.243297967 21.525063156 20.766867553 19.984066129 18.987344723 13.593248084 13.018607073 
12.446140239 11.880762161 11.188912515 10.446669212 9.694801722 8.9533188606 8.2424423017 7.5022997444 6.8058107862 
6.1114027881 5.403024879 4.7364520668 3.8200390577 3.3364161552 12.796950333 12.666577554 18.773138738 2.7831323363 
2.8301535987 2.7784895533 2.7453288402 2.6950197291 2.6512696333 2.5966187588 2.5115525624 2.4677295913 2.4533883178 
2.4927001393 2.5459325014 2.5700211481 2.5593377865 2.5493667031 2.5282260807 2.6188077757 2.7574198764 18.814022429 
13.551478992 18.714123079 18.726605261 18.795366248 18.818537657 18.867974243 29.082461745 12.847762048 12.752440023 
12.748586476 12.812625695 12.889791498 2.8061404433 18.844897 12.768493527 18.723998958 12.643957575 12.636307198 
13.010392718 12.934254568 18.995826669 12.832621229 18.873116113 19.794769206 28.566955119 28.417854436 28.374289253 
28.460075004 28.518595531 28.607255144 28.327015509 28.243388603 28.277896645 28.350070853 28.410215633 28.482391499 
28.595484324 28.714209205 28.774449259 28.836854116 18.766418128 4.5298292808 5.384413748 6.1969873186 6.9122251869 
7.6564052552 8.3824657069 9.1099971016 9.8220739379 10.548737952 11.267590272 11.924180615 12.583210269 19.837060226 
20.466193538 21.174860706 21.932713474 22.711628363 23.436306734 24.093307631 24.865769863 25.723729385 26.51306918 
27.258813926 28.070194742 28.922366265 27.904955824 19.467908749 26.933572503 26.142539333 25.351658584 24.577034383 
23.804513822 23.084782632 22.494350881 21.789977762 21.04382916 20.335407649 19.687599888 12.641693437 11.716463689 
10.774577654 9.9755577669 9.1413782808 8.3961440352 7.6344358076 6.8529808533 6.1143005889 5.3401994098 4.5316469669 
3.6276148845 11.656398944 3.5901053163 3.5564021626 3.5539436736 3.5253424744 3.4424075589 3.1996330989 3.3551175923 
3.2017207627 3.4324180037 3.4657255151 3.4256702802 3.385491866 3.31750762 3.2242204813 19.661913222 19.695017221 
12.691332536 3.5935024855 11.920842405 19.694514078 11.932524013 11.840674534 11.800746068 28.708421469 19.64058443 
11.823315934 11.757161373 11.910125131 19.822257549 19.607259827 19.843799353 11.800438155 19.622419148 19.682358361 
19.710716997 11.965726325 11.571976864 19.628334672 3.9822542811 27.419387673 27.705690251 27.587816388 27.198439602 
27.194965424 27.373104973 27.46592712 27.518005717 27.619113955 27.809877725 28.067071883 4.8130117471 20.511366047 
5.6639627101 6.414087879 7.1709171796 7.9273397351 8.707979471 9.4523828194 10.262444178 11.10519299 20.474128485 
21.310313892 22.257149374 23.272054144 24.231884392 25.154744945 26.100145603 26.970495019 27.80900066 10.868153288 
20.389298522 20.692035867 20.778108132 26.433053647 25.673811979 24.847981307 24.011765335 23.155206177 22.288925866 
21.27584642 10.366215865 10.250060799 9.4523939127 8.6984845114 7.8469343096 7.0066671516 6.1972357456 5.3341092372 
4.4473107926 20.57376113 4.4500639917 4.5067558362 4.5221673824 4.4862692916 4.3278444711 4.3864432257 4.5101199968 
4.4427006845 4.310948255 4.1527356514 10.842550772 11.941268605 27.458729577 19.423969283 20.822069272 27.569551507 
19.632138985 27.285334863 20.559234318 20.869838228 20.632926 10.791936555 11.061293602 10.859512629 11.10791414 
10.322527247 26.104026605 25.970710861 26.101286772 26.517238103 26.445589538 26.606390401 26.880166166 20.513921857 
5.9416562269 6.6973950867 7.4118542845 8.2691698157 9.1040866925 9.9030350601 5.4450734499 21.454805508 10.758935837 
22.536104526 23.61990536 24.618722254 10.878330044 25.152628746 24.340349534 22.486777191 21.700729552 21.498585828 
5.0683672753 20.944753676 8.7936903677 10.591360764 9.463957007 8.2446002678 7.2941735092 6.3723401776 21.871069396 
5.6264914699 5.7665932971 5.5992699444 5.7845439262 21.992761866 26.666535643 26.760303344 9.4421052002 8.9707079602 
20.38584106 26.409004766 21.800690583 26.037374554 25.690612635 21.587547606 23.469352291 9.8801213031 6.0364001329 
5.6128067237 5.3758933437 10.044077467 9.6983669791 24.238364477 24.287750035 23.422085525 6.98605116 25.294476827 
24.637613267 24.705181025 25.256072883 25.597740218 22.048176238 6.5355860513 22.115323529 7.668186036 8.7744773643 
25.621431764 7.0625588549 22.919721446 9.7027209989 24.698523741 7.2513364091 23.173194987 22.840651557 7.7873329263 
6.892841431 8.3613764806 23.391598912 8.7343884613 32.039032869 31.938833585 31.896167091 31.859211346 31.819490919 
31.75897506 31.700338739 31.639541539 31.620737457 31.584385421 31.565359863 31.573112985 31.558817173 31.548501133 
31.555635876 31.575080899 31.587665808 31.610405412 31.645543837 31.690238043 31.735682984 31.763881562 31.833909206 
31.914299233 31.996579247 32.063278596 32.164135339 1.3815854921 2.4236252179 3.2400723418 4.0692311917 4.8458624917 
5.5317854583 6.2161637235 6.9052843416 7.5298081267 8.1651754904 8.7806731193 9.4030343797 10.012918462 10.611326584 
11.201016467 11.824845565 12.428929304 13.075075611 13.698216793 14.406757524 15.096963337 15.782224931 16.47952411 
17.224262311 17.932823215 18.652479083 19.374326287 20.102413944 20.799564848 21.546850584 22.246186279 22.910587897 
23.608372212 24.33335332 25.022311285 25.750591915 26.508558533 27.217525166 27.982460573 28.692573292 29.405734963 
30.132338083 30.850214288 31.502080871 30.743481173 30.027322672 29.316495471 28.62353733 27.885342694 27.174799393 
26.504041168 25.798107449 25.074652014 24.364319593 23.680622445 22.976881897 22.282341555 21.616517725 20.908028984 
20.241120701 19.520567793 18.83264337 18.089625037 17.309049178 16.594246032 15.857899774 15.159891459 14.445771535 
13.772869555 13.118776796 12.460187693 11.80473446 11.192262979 10.554988944 9.8785763929 9.2735529885 8.6654665733 
8.067191176 7.4381199532 6.7934447665 6.1455018056 5.4824574019 4.8551405551 4.1273824977 3.3410597297 2.4612210192 
1.4537714299 0.71810275395 0.73298402112 0.6964993377 0.63523968506 0.61307879358 0.58793230624 0.57507559849 0.57405440292 
0.57529264405 0.57156498557 0.57038653892 0.54440293903 0.53762247536 0.52921876283 0.53514804954 0.53558591564 0.55287865737 
0.56533356667 0.56566299643 0.56470469828 0.58510663221 0.61418828408 0.65361743883 0.69349221935 0.68319729319 0.66266712733 
16.647192379 16.575539933 16.554549048 16.551417555 16.528412026 16.486774901 16.48883544 16.506752577 16.517736511 
16.519535296 16.543853435 16.573999509 16.60325424 16.698765521 16.033732829 15.224314943 15.22599925 15.219574717 
15.205450002 15.179501248 15.170001426 15.16944964 15.189754264 15.17249406 15.18967375 15.188621641 15.227186152 
15.22284386 15.186481265 15.998686582 15.212630775 31.521694972 16.81722387 16.817023591 15.091197723 31.215699427 
31.360728027 31.203118127 31.113346711 31.022276363 30.969641023 30.904864784 30.860505614 30.820873885 30.761284343 
30.759792215 30.796732428 30.791018721 30.802865332 30.831764548 30.850873023 30.866892068 30.917736572 30.958776127 
31.039784455 31.12472961 31.206561562 31.316108086 31.435579867 3.2326793017 30.945089633 14.514883259 2.3687098405 
1.4854884989 4.0780973245 4.8681504407 5.6065980556 6.3033546432 6.9902362838 7.6506045036 8.3029804735 8.9487137498 
9.5528538391 10.188460009 10.817003651 11.443015986 12.08420149 12.72727701 13.368040651 14.041531791 14.693555208 
15.386414634 16.072373679 16.786804826 17.491746862 18.202386373 18.900291406 19.614282807 20.33361625 21.065696366 
21.799849245 22.478744287 23.179062268 23.909117932 24.616738111 25.347048458 26.075907489 26.818288001 27.558137636 
28.321192122 29.067857409 29.841767926 30.611112695 14.569746937 17.441303891 30.305975572 29.627630571 28.904469253 
28.167020678 27.408178731 26.721832865 26.002639492 25.25392036 24.555899483 23.862206468 23.167754349 22.449803974 
21.776793042 21.068352971 20.396061703 19.683486081 19.008346872 18.304639933 17.544313476 16.845343269 16.1231796 
15.373463538 14.690156133 14.012977003 13.340541895 12.673161442 12.00952382 11.368565149 10.724133474 10.047028819 
9.3990908196 8.7578804845 8.1460038941 7.472722378 6.8170265172 6.141799289 5.4294327938 4.7716411261 4.1071769111 
3.3378494426 2.4880880717 1.5319148298 17.523237233 1.3634770499 1.598984312 1.3358416645 1.2898208427 1.2281232716 
1.1863556076 1.182335239 1.1769394722 1.1802824225 1.1606082825 1.1314018767 1.1067053708 1.1140057583 1.1177644554 
1.1520833393 1.189107028 1.1762233958 1.1744427172 1.1879940377 1.2385543576 1.3660953886 1.4775230308 1.5114445912 
16.894188087 17.357147756 16.693457545 17.305516841 17.290409248 17.240363226 17.1923867 17.157748269 17.15605735 
17.174896914 17.18748068 17.201970561 17.24448457 17.305300797 17.428787014 14.419151524 15.428574033 14.476820485 
14.441937098 14.432062573 14.432097453 14.422421299 14.443416656 14.437206486 14.443683176 14.456411391 14.486538035 
14.490327772 14.477733342 15.835352932 31.211778471 17.569141229 14.492836498 15.05433324 17.522492187 16.224743776 
14.329204599 14.635377748 30.256228667 30.445355271 30.212354189 30.149581094 30.049560614 29.986929998 29.958927119 
29.95256883 29.969275369 29.985646517 30.010803707 30.033600554 30.083868298 30.110536967 30.150610014 30.230943709 
30.335190573 30.444596424 30.573714816 30.738058799 13.71273291 17.696879771 4.1492032259 13.749546414 3.2644779928 
13.817520198 5.6911539648 6.4285267986 7.1349119477 7.8227433178 8.4775942086 9.059331601 9.7078303086 10.397363593 
11.050886786 11.715845477 12.390045403 13.084035541 13.704165927 14.314892199 15.705853873 17.043742783 18.40804305 
19.127530136 19.844396391 20.575887898 21.311924276 22.026865547 22.745712689 23.454450937 24.204103234 24.912734964 
25.658221863 26.411575889 27.159746591 27.907697794 28.681306981 29.502799497 30.416784148 16.536016293 13.960479803 
29.296243806 28.505670482 27.715978907 26.995259991 26.260229727 25.50343988 24.753143572 24.075784249 23.365908353 
22.651299336 21.973650187 21.263011897 20.514808791 19.817042929 19.143474405 18.500731564 17.862283954 17.142201184 
16.350087693 15.677382349 14.956060121 14.186468786 13.576785821 12.930365602 12.281482074 11.607883846 10.930368428 
10.241320027 9.548116444 8.8988533175 8.2450244046 7.5801125987 6.8916092513 6.1738008463 5.4284651581 4.6726493543 
3.9910406547 3.4085865388 2.6417820757 18.140154845 2.141902342 2.0638541484 18.346012558 17.344402744 18.157160968 
30.322861203 1.9805926629 1.9230915615 1.8800013127 1.8676460539 1.8705962684 1.8595272536 1.8417966977 1.805896517 
1.7854939803 1.7973098359 1.8246437382 1.8758712758 1.9019304813 1.9184620493 1.9311234085 1.931490854 2.059250569 
2.3856510426 2.3566513531 4.9464599112 18.076464347 18.046099116 18.005160348 17.962733719 17.89550916 17.908179356 
17.957696276 17.986402214 17.987159468 18.06073855 30.017721538 13.619996001 13.584222934 13.620254189 13.672269489 
13.667422029 13.611304496 13.605519129 13.638961079 13.66187588 13.679538 13.700304853 18.113828246 13.701333223 
30.612652204 18.481641303 13.76951033 14.989771308 16.368167636 17.761599303 18.306381576 18.310190963 14.303904741 
18.197068424 13.719149768 2.1423598106 29.469989695 29.106476191 29.055308217 29.064681575 29.080576668 29.10762175 
29.115532079 29.129264979 29.171089221 29.22160249 29.282086597 29.363884699 29.466351552 29.60308557 29.787269921 
4.3000826705 13.115819268 5.0549243732 3.4255348856 15.686296312 6.5457601391 5.8104630035 8.2772058496 9.1469193376 
9.8833703961 10.619686485 11.310952229 12.069828059 12.925466497 3.055479405 20.83604021 21.484225473 22.22664178 
22.964363172 23.739076771 24.478179315 25.218605271 25.987213949 26.757986028 27.5117245 28.291843373 29.102492798 
29.915468744 19.334678794 13.218112613 28.145685584 27.342994757 26.596848112 25.806714864 25.044102213 24.32480888 
23.601843418 22.863889123 22.13679197 21.45406993 20.703619301 19.915354901 19.184224148 13.448994932 12.633359453 
11.9106226 11.196352646 10.490064937 9.7765221237 9.098617996 8.4275321729 7.7236718095 7.0062167516 6.2845679198 
5.5055956776 4.6425941189 3.8649147589 19.179882325 18.943638216 2.9967705971 2.7864698807 12.683697814 2.6553645162 
2.6624450606 2.6447434364 2.6294569676 2.6151974229 2.5881819416 2.5351134248 2.5554704132 2.6366294882 2.7103386495 
2.7759191386 2.7682850563 2.741082815 2.6423346026 18.895564822 18.875512489 29.244816185 18.938962119 18.887954646 
18.898346295 18.830703924 18.620583516 18.79025398 18.838798075 18.804522626 18.851768677 29.401515998 2.6705845032 
12.656339776 12.716941934 12.95079077 12.732764106 12.688108683 12.721092413 12.807705486 12.872222945 7.3818006273 
28.983446392 20.136605557 17.927312663 2.6918436342 12.971634402 19.163107108 29.627885635 18.622987654 12.889435178 
29.49674994 12.781830033 2.9214148714 18.995715842 12.951221621 19.722356112 28.071545845 28.192795583 28.222654144 
28.168820183 28.192362344 28.270801201 28.354567623 28.4476202 28.573019657 28.73755128 3.6981495231 3.8612612962 
9.3647774693 7.6948907142 10.152375849 10.892675837 11.593853333 20.062294504 28.075902738 28.043260572 23.215501314 
24.01263965 24.773170591 25.567677012 26.348082105 27.126745039 27.949044768 28.792846963 19.761278709 12.259966867 
26.218448339 27.030465522 27.854847227 25.406954978 24.591013409 23.857999124 23.06717568 22.306930055 21.609681022 
20.931709012 3.4955749193 12.932506783 10.77810667 10.000746677 9.3379821081 8.6655056016 7.9917633969 7.2477041858 
6.4853198878 5.6814238701 4.7993259003 3.479632887 3.5729447907 11.578326773 22.408623287 3.5357966721 3.4813938976 
3.5440943031 3.5014755761 3.2677040462 3.4321199272 3.5424048621 3.6823649224 3.717656797 3.6412552569 3.5194255555 
19.692251175 28.212530733 21.529792841 19.785933946 8.5950057836 19.883671845 19.871009614 19.665976666 19.77643534 
19.762907045 19.616720583 19.091901678 11.613822772 11.590629855 11.871145903 11.790525229 11.717926656 11.811504034 
12.075031694 3.4835920157 19.803009354 12.306002714 4.3800754228 19.844066217 5.1183290438 19.978226797 3.4333606258 
28.47795086 11.985107896 28.582114912 11.780703086 6.6757404789 5.7084194346 12.301639357 28.77973912 20.6366262 
27.201572329 27.275354715 27.445737324 27.637429424 20.869072699 10.551706584 12.120749824 9.6227021484 26.936147051 
24.323301105 26.897092536 23.509884974 25.937333391 26.739471237 27.597083158 24.982079803 22.69022904 25.842677176 
20.841063159 24.166578785 23.308576387 22.47548911 21.649199664 20.739676187 12.004831498 25.138936329 27.055451798 
9.2398193571 10.299544291 7.9849552273 6.8308368239 5.9244935462 5.0831650041 4.5209508619 4.5421492472 4.2057693909 
4.2790567484 4.7274485554 4.3526856273 4.3213939446 4.5966009615 4.7282405322 20.418598612 11.389860057 26.875722664 
27.163093302 21.779539304 20.64546264 21.032455291 20.973340882 20.839183501 20.824018692 19.921789407 10.422061509 
10.893682226 10.697365952 10.685141361 27.167707516 4.4955127332 27.322597978 27.486981346 20.83075042 20.720537996 
7.9052552728 8.6732916912 4.2800248387 26.739524945 11.326624041 4.6290393857 11.016230609 10.628008102 6.8360404789 
5.7801996912 4.7307747546 10.408717901 28.007236443 4.3109024908 26.274841373 9.111111445 21.274794989 25.904258257 
5.7337855822 23.852245993 27.20734419 26.488682723 23.626496092 25.505839268 24.532561777 10.980596312 7.1509752634 
11.136233285 22.839412334 7.9956530782 6.1087801601 5.1567588516 9.2325466138 5.8085425146 5.4937004264 21.74649062 
24.68638015 26.087896941 22.672188275 26.081116214 22.11073451 25.60247249 22.487889259 22.176777309 21.875182813 
22.196114972 20.82949714 9.0642133799 26.484282838 9.5146831442 9.575892465 25.641310464 9.0648821884 25.75740331 
9.8495890993 10.136599391 22.096007115 8.3202970581 7.0077281771 21.667421 5.7103917358 5.9330802183 5.3394508876 
9.7833759856 25.984508749 8.8177763073 21.86846533 7.9258755288 24.549440324 24.11316587 23.387891238 23.482302377 
25.16126915 7.1262536193 7.7258807485 24.291058173 23.001533959 6.8905121905 8.1522515524 24.782044001 24.697632129 
24.701092745 24.874428381 6.7273492883 6.6133185063 23.681512433 8.5039963039 23.282147115 15.903656018 15.8990537 
32.340902731 0 0 0 0 0 0 0 0 
0 0 0 0 0 0 0 0 0 
0 0 0 0 0 0 0 0 0 
0 0 0 0 0 0 0 0 0 
0 0 0 0 0 0 0 0 0 
0 0 0 0 0 0 0 0 0 
0 0 0 0 32.681897609 32.631310834 32.584831794 32.53803073 32.493774265 
32.453096723 32.413536112 32.375949032 32.342749091 32.314677083 32.291745459 32.272801616 32.260239187 32.254097181 
32.254359228 32.261080797 32.274405939 32.293371591 32.317570139 32.349747699 32.385581557 32.423752159 32.465467952 
32.508860465 32.553393495 32.598261054 32.646198352 32.694122787 0.83398659651 2.1710117362 3.1263708831 3.9286743302 
4.6594987275 5.3435491749 6.0110292359 6.6427512211 7.2330588489 7.8568628767 8.4754303544 9.0505756365 9.625405539 
10.215220112 10.807940232 11.433652154 12.081750381 12.728385756 13.362406526 14.017190951 14.696735964 15.368509962 
16.094561917 16.834234837 17.559764802 18.296334998 19.054784294 19.766318236 20.434334478 21.126805509 21.829791079 
22.513987014 23.165693581 23.865774015 24.599708574 25.336441655 26.060352106 26.739139928 27.437183715 28.122086511 
28.793328661 29.48351287 30.208999923 30.953088428 31.648702611 32.344941524 32.369243587 31.639876202 30.927562606 
30.233125559 29.540462436 28.817201385 28.080485156 27.395771729 26.69790609 25.970909198 25.247231426 24.558724144 
23.856679055 23.156434404 22.504564239 21.820191567 21.100943608 20.4079709 19.690082786 18.943425239 18.216766669 
17.479298724 16.719501298 15.96459901 15.24227402 14.527262548 13.839263439 13.175713943 12.546865036 11.946616224 
11.342425872 10.731408526 10.125319555 9.5494027553 8.9607928771 8.3167141106 7.6969927992 7.1130444818 6.4917139512 
5.8556743244 5.1812092072 4.4706866354 3.7588497423 2.9743322967 2.0574427933 0.87896834448 15.979905749 15.964616798 
15.948587953 15.934339409 15.923671712 15.915189157 15.911578069 15.914206647 15.913512012 15.920722734 15.93307815 
15.947906738 15.971286134 15.994104573 15.918390499 15.864314223 15.843406201 15.821648999 15.798700093 15.783856103 
15.773963079 15.772380323 15.772228587 15.776187613 15.78594455 15.799045952 15.81512734 15.835423446 15.848000024 
15.927480876 32.68091891 32.632328512 32.585716104 32.541314638 32.498206377 32.456600971 32.416059074 32.377990583 
32.344519377 32.313172385 32.286547192 32.268044832 32.256492667 32.250518464 32.251451783 32.258586249 32.271840938 
32.291120531 32.315807716 32.34605217 32.38084007 32.418806294 32.459277214 32.501951261 32.546291268 32.591785465 
32.640959562 32.690155634 0.83573735221 2.0668150641 2.9598522616 3.7583145726 4.500658061 5.1774859947 5.8366233567 
6.4729540028 7.108229606 7.733530163 8.3392723466 8.955898209 9.5445166807 10.120502169 10.699031943 11.28190008 
11.871420774 12.456013932 13.06798513 13.728023848 14.412117994 15.122844537 15.841235906 16.559180252 17.283578325 
18.022274586 18.784510492 19.516579273 20.203930201 20.930613333 21.650608467 22.319361158 23.002774531 23.670760957 
24.356241765 25.059989807 25.782686899 26.55732508 27.287147874 27.987655687 28.707627216 29.414024318 30.106286018 
30.833498642 31.611928273 32.357855706 32.349468879 31.586930009 30.825090641 30.114350951 29.422071538 28.699389384 
27.979502966 27.311494026 26.630215322 25.919696137 25.244520008 24.540161786 23.82233997 23.15409501 22.470570418 
21.786258492 21.115045103 20.438753708 19.72172906 18.993107578 18.268129806 17.514687105 16.755326645 15.983369756 
15.244324032 14.529081035 13.840465092 13.20644979 12.5766298 11.919078733 11.301065354 10.704300585 10.057051487 
9.4539033878 8.8927089339 8.2896415979 7.6973847405 7.0996887675 6.4786168388 5.8714783495 5.243884373 4.5543716048 
3.8155479024 3.0018650432 2.0809087664 0.83484565479 15.990819857 15.965765958 15.945966582 15.932976893 15.921151532 
15.912622459 15.90822075 15.915718433 15.91884938 15.925923566 15.93807872 15.955221793 15.9630632 15.978538185 
15.919871064 15.848619454 15.834930305 15.818827239 15.80354852 15.789402792 15.781106243 15.770495889 15.769912252 
15.775671739 15.786260948 15.7995328 15.814782459 15.831447734 15.844765726 15.929155733 32.71550135 32.707580797 
15.819777438 16.032330828 15.823784488 16.036108718 0 0 0 0 0 
0 0 0 0 0 0 0 0 0 
0 0 0 0 0 0 0 0 0 
0 0 0 0 0 0 0 0 0 
0 0 0 0 0 0 0 0 0 
0 0 0 0 0 0 0 0 0 
0 0 0 0 32.316990554 32.349102112 32.325744881 32.316772914 32.293210402 
32.034261059 32.268550148 32.244870462 32.000201624 32.193994874 32.172962304 31.924221024 32.134740088 32.114629057 
31.834591933 32.095086575 32.075161425 31.776185788 32.051876814 32.033758107 31.732719484 32.011545109 31.996036506 
31.68668942 31.9766735 31.963839805 31.644672043 31.957479405 31.947200203 31.618632346 31.93649975 31.927961321 
31.60139059 31.921210436 31.916865145 31.583830704 31.918443859 31.916825182 31.578527937 31.918865252 31.920633949 
31.582150759 31.922423771 31.927367569 31.585990343 31.933283373 31.942058181 31.593815463 31.953415918 31.963634003 
31.611483259 31.98626956 32.000565129 31.645574351 32.021863576 32.040176894 31.689911648 32.05591716 32.073582837 
31.727453175 32.089577641 32.110534554 31.759659473 32.129207375 32.15039675 31.794907741 32.181743631 32.204457613 
31.845431287 32.240642402 32.262736146 31.913467987 32.305691567 32.328958203 31.993010855 32.320339305 32.345392499 
32.027740998 32.314711701 32.337701544 31.989521067 31.988682951 0.63827949554 1.4970950546 2.075624899 2.6291311034 
3.0752173191 2.0637117988 3.5060979875 3.90176875 3.0621034996 4.293233929 4.6572675636 3.9048847027 4.995601936 
5.339457908 4.652670332 5.6794048257 6.0240248834 5.3490723802 6.3591805079 6.6649197854 6.0411472426 6.9785522481 
7.2787026699 6.7054585298 7.580294807 7.9187614389 7.3347845391 8.2271073224 8.5211554012 7.957265493 8.8338780389 
9.1269931471 8.5908567603 9.4272824062 9.7202645565 9.2155147881 10.021174143 10.328774866 9.827250187 10.632021129 
10.927321499 10.440933294 11.243134924 11.583815204 11.069034998 11.906760943 12.223395287 11.716189683 12.533632894 
12.870874569 12.355814753 13.194757924 13.495238642 12.993605306 13.831535258 14.187535874 13.654998274 14.521830945 
14.841465375 14.324355756 15.180085419 15.525683912 14.993682602 15.873066442 16.243507224 15.674889054 16.603887335 
16.961822136 16.376560638 17.333249242 17.69129356 17.102251946 18.073430237 18.44518493 17.850499078 18.80667251 
19.189929655 18.589999774 19.529116706 19.857937924 19.288706297 20.206993619 20.548398521 19.97684975 20.899658232 
21.254255786 20.678173964 21.603827444 21.956418884 21.381303987 22.287960756 22.623768651 22.065162118 22.977945808 
23.297606351 22.753956901 23.634317348 24.01836317 23.44793843 24.387021928 24.740023847 24.156135946 25.097483699 
25.483904167 24.884894012 25.847373481 26.186770709 25.607881924 26.549677005 26.890540933 26.335955298 27.222385521 
27.580842757 27.032258344 27.930810855 28.257908732 27.715179394 28.603191514 28.947775341 28.411135876 29.300083806 
29.645826456 29.109252069 30.008536882 30.388247942 29.824527564 30.732805983 31.096824715 30.531917861 31.42358929 
31.755059177 31.203276389 15.958835671 15.949014237 31.608291802 31.003256084 30.672385011 15.942962871 15.935730759 
30.372737099 30.009440403 30.448320544 29.653795907 29.324443375 29.792934344 28.965466926 28.571657323 29.078076373 
28.199513245 27.856153838 28.346477626 27.494744082 27.152849447 27.612230801 26.803061978 26.446224384 26.900213759 
26.084850859 25.713301034 26.187790578 25.357578701 25.003559192 25.469131341 24.649701582 24.312834639 24.757497065 
23.96046508 23.592470463 24.04889919 23.256055931 22.920526194 23.35745063 22.576630789 22.256819366 22.674303988 
21.899895747 21.531046239 21.970482768 21.178148644 20.823345842 21.257793087 20.485655075 20.14399156 20.564962737 
19.768642688 19.389652379 19.850928182 19.0301655 18.66248161 19.116154331 18.288051118 17.932608302 18.384631312 
17.561879141 17.186673764 17.643734056 16.81376854 16.439739796 16.905387186 16.082787964 15.713988084 16.181992925 
15.358541159 15.015314148 15.476518004 14.64655078 14.28265981 14.758211947 13.956476252 13.63466444 14.068100646 
13.295321686 12.952872734 13.403670535 12.633661599 12.342625461 12.743686569 12.031220513 11.716381522 12.108991164 
11.417713463 11.120653051 11.493300671 10.81289603 10.490110802 10.879669665 10.172877309 9.8796159244 10.245857436 
9.5885208579 9.2958861419 9.6280396184 8.9796533977 8.6728603668 9.0106022462 8.3577998517 8.0074716812 8.3680103312 
7.7054188219 7.4225917064 7.7388092055 7.1070153305 6.7915450954 7.1080411316 6.4854062083 6.1632309488 6.4717342143 
5.8410152059 5.5081513733 5.8280844558 5.1554767839 4.7906182201 5.13614878 4.4542107915 4.0823721003 4.4270754858 
3.7074145853 3.3387737704 3.6968241369 2.9188234279 2.4583770461 2.8815959907 1.9554478997 1.4453457467 1.9463236824 
0.64342178073 0.33364506524 0.31437746733 0.32477391989 0.31363611378 0.67065702747 0.30198029977 0.28893585326 0.64525979848 
0.27807403084 0.28414038985 0.59456780803 0.29740465566 0.28936444316 0.56741314327 0.29561692157 0.28772798193 0.56800925777 
0.28859202626 0.28164702995 0.55815913381 0.28159225517 0.27567679565 0.54510077048 0.27587467494 0.27045846344 0.53250081383 
0.27100245834 0.26715723269 0.52479528242 0.26646597606 0.26394372368 0.51755439812 0.26096576123 0.25818287513 0.50678080535 
0.26136499897 0.25974035598 0.50277214199 0.26484552081 0.26327776554 0.50830049422 0.26420082454 0.26478320387 0.51260107389 
0.2657081709 0.26683452942 0.5132781506 0.26595357218 0.26817199358 0.51541731573 0.26883456585 0.27257192121 0.51964717063 
0.27254581277 0.2772358781 0.52682565122 0.28095515407 0.28628132978 0.53960608023 0.28725811467 0.29425669056 0.55551310111 
0.29862957942 0.30758530282 0.57463246718 0.31142039664 0.32494295286 0.60097229076 0.32689933994 0.34506304727 0.6331743147 
0.34686785568 0.37747101395 0.67409660064 16.234866571 16.306962351 16.223051057 16.221191302 16.581041884 16.205104034 
16.211011738 16.520982364 16.196262131 16.199519913 16.501467539 16.195355819 16.197598882 16.50057064 16.184263723 
16.184235527 16.495871705 16.179350461 16.1774323 16.482553414 16.187303131 16.183954974 16.486391193 16.192292577 
16.186475525 16.499271298 16.197230581 16.188165583 16.503568845 16.208416022 16.195301572 16.507366448 16.225563587 
16.212091919 16.520994517 16.235620336 16.234088925 16.549887383 16.309393468 16.244363659 16.596696996 15.804785217 
16.110593012 15.562531421 15.530726734 15.534605369 15.541012594 15.236918564 15.509618796 15.516090911 15.210437852 
15.517175267 15.522700486 15.198565497 15.512921529 15.515214508 15.203908731 15.508380863 15.506744753 15.204176039 
15.509175963 15.505309023 15.201275742 15.506569006 15.501956024 15.198160942 15.510037794 15.500848296 15.193405391 
15.518621308 15.509361701 15.195490338 15.531018555 15.518432788 15.202020364 15.548868424 15.53826075 15.21566793 
15.581110315 15.564305546 15.241880712 15.550671565 15.598587273 15.277230538 16.11256015 15.807066956 32.011426847 
0.72269264378 16.68045402 16.447535411 0.65227769987 16.375109289 16.444499405 16.691825348 15.434110439 15.551700142 
15.193560315 15.623003451 15.482314079 15.259527954 16.401078037 0.99910426787 1.0509129069 17.019991347 17.043879048 
31.754769058 31.72977558 31.638790015 31.587398747 31.39322455 31.52269249 31.483855586 31.236901093 31.43887244 
31.418772267 31.126547191 31.38528984 31.361400019 31.04733192 31.347885648 31.325229087 30.999586957 31.311922469 
31.292278387 30.972185878 31.271758821 31.265096027 30.937962885 31.255338132 31.244662969 30.907487148 31.241112155 
31.234120089 30.893952924 31.235856373 31.237434126 30.892022189 31.230125256 31.232155827 30.886294491 31.238749433 
31.240656396 30.885554557 31.233960051 31.240042154 30.885586381 31.258765291 31.270339466 30.897897211 31.289586757 
31.312480778 30.936132143 31.334878018 31.356700445 30.978065111 31.367770966 31.383894706 31.012210974 31.395635006 
31.412197774 31.035593192 31.435701104 31.454869691 31.071537872 31.484988618 31.516864657 31.125814567 31.562993299 
31.599593495 31.202744059 31.654765078 31.698107635 31.304500794 31.758462065 31.750300038 31.420446388 16.843308526 
16.850747266 1.4457901995 1.0802289112 1.942419799 31.786636435 2.641257792 3.0898484692 3.5155124329 3.9263054687 
3.134777251 4.2967574972 4.6530381237 3.9380929472 4.9933694134 5.3511220144 4.6603074898 5.7180332995 6.0703220758 
5.3817749164 6.4240930902 6.7524881907 6.1164346687 7.0696112023 7.3841867831 6.7997266981 7.6987907996 8.020230711 
7.4433828543 8.341324703 8.6664288378 8.0910453213 8.9984797399 9.3097968311 8.7558865376 9.6071400386 9.9185349433 
9.3956494974 10.244820416 10.557676847 10.029587349 10.873367925 11.198006938 10.680900963 11.530199108 11.86061567 
11.336460509 12.172212531 12.487674132 11.986401416 12.810055102 13.136551432 12.624343096 13.478700984 13.815257631 
13.29048438 14.141941527 14.473839844 13.959008671 14.794176057 15.128813209 14.604185069 15.465942778 15.807903517 
15.258675202 16.15603761 16.51062275 15.941806013 16.874501672 17.240228684 16.65224149 17.617386835 17.994483401 
17.390926422 18.358643108 18.716707407 18.12880777 19.068263785 19.406222643 18.840665986 19.752245495 20.101371868 
19.535536834 20.444306886 20.79706984 20.223227428 21.146629405 21.498565232 20.915921074 21.843441524 22.17785789 
21.611500391 22.531360493 22.888593709 22.311775253 23.240023271 23.579534982 23.018961512 23.930991708 24.302436849 
23.72413748 24.657958248 25.017878958 24.433465253 25.388338229 25.753842279 25.161735912 26.121248932 26.485865597 
25.901725676 26.836466625 27.169637555 26.621616881 27.503211614 27.854206252 27.307203355 28.213103853 28.55910431 
28.000864489 28.914841289 29.267624153 28.716494811 29.628870249 29.991826588 29.434218738 30.355456882 30.700206884 
30.159633655 31.104690137 31.431547701 30.92825811 15.419670187 15.847631514 1.5280300783 2.0814383684 2.1595857274 
30.611705801 30.312005172 29.95455076 29.598669522 30.117458366 29.22555911 28.866214186 29.386442821 28.485529489 
28.112660238 28.6320299 27.72778538 27.365466296 27.86547369 27.018351768 26.667412338 27.132355579 26.294664107 
25.931790072 26.411041317 25.567851394 25.210247928 25.672680787 24.865849979 24.50971538 24.962457824 24.153333327 
23.798359761 24.259728305 23.450693872 23.111617689 23.553315721 22.765655298 22.418985639 22.857502994 22.068789916 
21.708816673 22.159287236 21.33738015 20.982240458 21.435837975 20.639370227 20.300256366 20.720663321 19.938583547 
19.56313528 20.016497311 19.198087182 18.8401605 19.291370825 18.470183514 18.099984907 18.559369992 17.742968081 
17.376839188 17.836120807 16.998134098 16.630955687 17.102868337 16.288251885 15.937516452 16.383200789 15.57272162 
15.223739282 15.678078132 14.872994135 14.509450276 14.966205337 14.170327954 13.846729683 14.280175436 13.51392269 
13.174285932 13.611103034 12.841278585 12.518938705 12.945735039 12.20229816 11.885782333 12.294010541 11.573314472 
11.267809457 11.660211164 10.955106581 10.639064338 11.028606305 10.312576765 9.9856339265 10.381308214 9.6648561102 
9.3640264851 9.7247618958 9.0432154941 8.7153988724 9.0729098657 8.3959441486 8.0684379229 8.4213697746 7.7450369939 
7.4302934372 7.7667881361 7.1098279964 6.7797522634 7.1103425051 6.4562530319 6.1349967465 6.4533018396 5.8130135731 
5.473869717 5.7940748446 5.1129889661 4.7408089882 5.0977821287 4.3989146596 4.0433978279 4.3807713096 3.669408278 
3.2739361884 3.6531840885 2.8438413926 2.4046353493 1.9549915302 2.8429118947 31.688292959 1.0535927349 1.1587997706 
1.0721100361 1.023273871 0.93041157172 0.89311852911 1.3434951208 0.90287291102 0.89666079156 1.2337773477 0.90756245381 
0.89498390425 1.2333824897 0.90453263852 0.89167585856 1.2389246868 0.87440886595 0.86285190534 1.2184365722 0.85443507012 
0.84588301436 1.1830778176 0.83550591162 0.8302460353 1.1566216971 0.82408396311 0.81772486577 1.1349980378 0.80955750973 
0.80230330331 1.1173846978 0.79816004141 0.8002925905 1.1025638844 0.80196265078 0.80731616329 1.1001729956 0.8003538554 
0.80152909064 1.0962844338 0.80758869989 0.81062988417 1.0979610353 0.81155298057 0.8146656682 1.1092882868 0.81385870563 
0.82058071663 1.1144683365 0.82701628687 0.83508426368 1.1266652911 0.83995406256 0.85508279446 1.1465409488 0.86398359582 
0.87825321162 1.1725425055 0.89390606306 0.91645762249 1.2130009072 0.92707530979 0.95587025126 1.2605265727 0.95959268618 
0.99695745621 1.3026967458 1.1027689868 16.864263514 16.887537199 17.198851467 16.273045398 16.645929904 16.129469153 
16.915332093 16.968201245 17.322262752 17.246443813 16.844362653 16.84198161 17.18013437 16.842785317 16.853444066 
17.185565562 16.838186323 16.843680161 17.191248159 16.842568511 16.83450153 17.186322524 16.843166475 16.838784822 
17.177896598 16.849932535 16.849580951 17.180774134 16.857506875 16.8534094 17.191058713 16.886920948 16.872673203 
17.212364444 16.933492166 16.904329702 17.250803494 16.997109646 16.953647693 17.296878311 17.044993537 17.04546225 
17.361358207 16.662522666 16.279384278 14.892388498 14.896002359 15.833388921 15.464401593 14.843079782 14.841756493 
14.825768825 14.821448783 14.841856014 14.843315666 14.467995862 14.845468139 14.844529267 14.49223023 14.825203784 
14.829944869 14.479573158 14.808314121 14.811238635 14.447406728 14.808640686 14.806487413 14.428307319 14.81390891 
14.813927754 14.4280114 14.829589858 14.823523908 14.437587097 14.857023652 14.849620613 14.460075428 14.878435492 
14.889450586 14.505215894 14.978257238 14.918248712 31.678891994 14.824272516 14.831975963 14.451459638 14.822086616 
14.827841365 14.444838731 14.448072379 16.950752166 17.0305879 31.63316877 31.602697186 31.252791638 31.363983791 
1.474436182 15.068661422 15.337124716 30.997523421 17.39851356 17.07657211 31.408651515 1.449098549 16.106927737 
14.524924209 17.380498367 16.983167747 14.458603581 14.765388999 14.656090078 15.280010848 15.096842997 14.586151583 
14.760807005 30.861083535 17.564271683 17.565675411 1.9112361123 30.933671732 30.868254763 30.791047557 30.745288561 
30.487451413 30.70476726 30.670568373 30.36866975 30.626552531 30.612398854 30.283123507 30.584175195 30.570415746 
30.21012275 30.562106132 30.541309742 30.17287107 30.544443549 30.534451786 30.167418696 30.527657179 30.523971096 
30.163503829 30.524314146 30.52591379 30.156790542 30.511132092 30.503819517 30.142071079 30.483354481 30.490060989 
30.106941363 30.488083566 30.481654112 30.08460911 30.497430867 30.516374498 30.098824408 30.543456111 30.562979513 
30.141986014 30.583642088 30.606447059 30.190134721 30.635212508 30.646841584 30.239870891 30.664676227 30.676930281 
30.28718775 30.695692779 30.719844171 30.324443812 30.7490961 30.779799989 30.373169145 30.829274658 30.876097582 
30.452752226 30.946830627 31.002398938 30.573838659 17.559719891 17.555015153 17.936497465 17.560769282 17.566962296 
17.939228746 2.7585009311 3.1875387674 3.5602974029 3.9409938986 3.2116079278 4.3145862711 4.666878515 3.9612111427 
5.0257438521 5.4067257759 4.7006847745 5.7954375866 6.1627857301 5.4581664608 6.5265539242 6.8555360758 6.220613071 
7.1769157888 7.5037054531 6.9156746689 7.835391005 8.1684981377 7.579570056 8.5084258134 8.8521813933 8.2621604729 
9.1881365455 9.4955740253 8.9488927966 9.8111157017 10.147566247 9.6103072895 10.477386253 10.801721721 10.26476439 
11.139270221 11.478839532 10.940506662 11.800503837 12.117257473 11.606536796 12.454140984 12.779593329 12.2698717 
13.112487011 13.455205065 12.9422673 13.801521354 14.127131025 13.621025727 14.431705755 14.749779476 14.26962492 
15.04311926 15.377301286 14.86548696 15.717878647 16.064814893 15.4966919 16.441658203 16.804151969 16.215972784 
17.164095275 17.538363728 16.954888914 17.87745639 18.237656097 17.65320923 18.594349008 18.942228487 18.344718108 
19.299565748 19.643364382 19.054189132 20.004698671 20.346990721 19.769902966 20.685223104 21.035323653 20.467942801 
21.387131832 21.733402037 21.157826757 22.075108925 22.430583513 21.852063429 22.789224192 23.142933044 22.553955882 
23.503586301 23.857403208 23.275184607 24.214665682 24.572463518 23.995177703 24.938291807 25.311094919 24.720343276 
25.69400893 26.063362492 25.471200878 26.419779835 26.772010402 26.212599568 27.115555197 27.450439047 26.914167332 
27.797658926 28.157737524 27.606301972 28.51385846 28.870530792 28.310885683 29.239966669 29.601874121 29.037430709 
29.956994251 30.32125097 29.762888162 30.676843125 31.081828974 31.157363744 30.474439376 1.854124839 2.3833003415 
2.4687646693 1.7003795285 17.766188213 17.776404045 14.01521066 14.025768119 29.573182834 29.199493147 28.811296006 
28.429746281 28.997352173 28.025328201 27.639309906 28.203618986 27.261223947 26.912763885 27.419908321 26.543130306 
26.168778881 26.670771875 25.798093654 25.432259094 25.928664617 25.069877737 24.723475751 25.193690627 24.354104368 
23.995455722 24.459872407 23.65435702 23.304394024 23.747322714 22.964331686 22.616267899 23.064319905 22.260755049 
21.908514033 22.366949941 21.544702554 21.171939751 21.646166807 20.792176143 20.449195819 20.901990959 20.092472204 
19.731922052 20.166168972 19.400345554 19.037782601 19.479778447 18.682354021 18.316761965 18.795770374 17.944348562 
17.590409093 18.073082863 17.205992841 16.829086851 17.319093577 16.447034535 16.106138091 16.551363224 15.802679696 
15.4407687 15.8649752 15.090698873 14.743107662 15.211402252 14.373814499 14.038212509 14.494555279 13.711806934 
13.380525369 13.803651353 13.054448381 12.720315729 13.152963895 12.395631311 12.075150325 12.501360339 11.769189299 
11.450601736 11.867533675 11.123816166 10.803498886 11.228834711 10.455839486 10.12012877 10.546434511 9.7777565173 
9.4469179636 9.8469980473 9.1247556056 8.7929133915 9.1725650678 8.4549032076 8.1236430901 8.5020655402 7.773291992 
7.4371492445 7.802485598 7.1162001792 6.782477124 7.1193608761 6.4528484739 6.1157842719 6.4570970158 5.7790999261 
5.4434397379 5.7791314964 5.0657639307 4.6904031212 5.0542941097 4.359618316 4.0054704202 4.3355581738 3.6700605956 
3.286842407 3.6631662383 14.098967969 14.115470884 1.6998868347 1.5702161089 15.189041976 15.561213207 1.5844686733 
1.5718347436 1.9198372481 1.6081733001 1.6005955977 1.9517163047 1.6122932317 1.6089714236 1.9836432556 1.5989106636 
1.5700251792 1.9722528231 1.5580209704 1.5409231381 1.9391934872 1.5255256971 1.5083930898 1.9034767557 1.4859678592 
1.4762207907 1.8595764012 1.4583251744 1.4469642213 1.8147116342 1.4352036805 1.4293372733 1.7819900477 1.4218190021 
1.4243244461 1.7609776189 1.4211429808 1.4149311518 1.7498244081 1.4232395773 1.4325282455 1.7556502272 1.4470454343 
1.4518852281 1.7807457835 1.4557759883 1.4602172071 1.8024650101 1.4491134709 1.4621686635 1.799501681 1.4649135891 
1.4794831309 1.7967123291 1.4933708938 1.5149975209 1.8211476126 1.5451566465 1.578101088 1.876201675 1.605490864 
1.6388584375 1.9490719634 1.6497333434 1.6847192533 2.0573437544 2.0063829681 17.57456083 17.597543619 17.957312833 
17.573572143 17.57830273 17.954875422 17.57353199 17.577060864 17.971968446 17.55712095 17.549485937 17.952026618 
17.561700619 17.555913321 17.928642679 17.595218813 17.573711798 17.942307522 17.642411429 17.615738608 17.979402344 
17.691291936 17.658314194 18.021116569 17.74956858 17.729691133 14.05443732 14.13057606 15.507479919 15.117287588 
14.255528406 14.180958148 17.743709252 17.780064876 17.306337776 16.868511379 14.105660466 14.084857801 14.053330371 
14.069444471 13.699025948 14.031847551 14.036062281 13.651225208 14.027161908 14.025353431 13.62645155 14.024287312 
14.019899825 13.611639081 14.055188329 14.042440895 13.621860164 14.107972328 14.08083973 13.667522712 14.530003458 
14.392019504 14.119896462 14.114887623 13.727870596 13.733131976 31.065874943 16.358404312 15.928280582 16.850367426 
17.249686439 30.318423623 29.960533892 29.773709995 2.4527281678 1.9944032921 2.2057777657 2.8826853145 14.361664249 
14.684269488 30.69783973 15.757233273 31.098828958 31.159502322 17.668270993 18.079204617 17.576102664 17.710758757 
18.108002897 17.679739793 30.741521866 31.042711808 30.65653421 14.002172343 14.017902011 13.598095425 14.0258051 
13.634561862 2.9235754861 14.893271316 17.977282606 17.604875522 17.63960565 16.002435201 16.415571454 16.720900939 
18.073791701 18.133437372 14.013239036 14.935392852 14.7188805 14.337238371 13.776105799 16.689023669 13.704811728 
14.071856424 14.071064356 18.170794357 17.791056894 17.689378873 30.499807209 15.844328614 15.788739078 16.227357677 
30.012449894 29.970988732 29.902088256 29.857132461 29.544925767 29.809055476 29.780061401 29.426813944 29.760308031 
29.751416278 29.357828054 29.74491024 29.747635319 29.330757548 29.758991748 29.751944276 29.335003857 29.763965268 
29.764046246 29.35814562 29.737829963 29.723030826 29.343554347 29.673912684 29.653454139 29.268083792 29.64478522 
29.642944915 29.210173401 29.660605525 29.676749589 29.219288177 29.701574166 29.729033047 29.262325486 29.755472392 
29.776583081 29.313978451 29.808319577 29.8376665 29.372782424 29.871675584 29.89025805 29.439379618 29.915041689 
29.934506575 29.499275024 29.967494638 29.997602856 29.55809232 30.055354583 30.105613654 29.649971114 30.194633319 
30.266000053 29.797716094 18.376836776 18.373756301 18.358440452 18.368868042 18.801274961 2.4235719454 13.767976569 
13.609581259 3.5800445868 3.95859688 4.349170732 4.7155346852 3.9888114746 5.1208763212 5.5185575889 4.7868912904 
5.9216564363 6.2955188652 5.6006733656 6.6481815062 6.9800210165 6.3639160711 7.3222513378 7.6648425119 7.0673757894 
8.0134933872 8.3644669746 7.7676180016 8.7181052932 9.0648149287 8.4798765438 9.396333994 9.7212557441 9.174706589 
10.065409857 10.404218948 9.8595684463 10.74605712 11.091530897 10.554243889 11.427978693 11.755459746 11.239888358 
12.092414932 12.43343614 11.919059861 12.786153264 13.120871188 12.613695708 13.500547261 13.845282536 13.348769823 
14.251191475 14.554636752 14.842911568 15.251688516 15.591218977 16.007154639 16.387792901 17.251808844 17.590134166 
18.82533644 19.178778129 19.527105149 19.886148119 19.296000943 20.231849215 20.569383785 19.987968603 20.909431251 
21.261576192 20.673011046 21.61734614 21.960292657 21.369384853 22.315480443 22.675960788 22.081719344 23.038357973 
23.401055447 22.801251823 23.767392846 24.126924312 23.531923323 24.486659405 24.854841439 24.26042951 25.236312974 
25.621574059 25.004132003 26.013233568 26.371501635 25.779636668 26.732083162 27.077126041 26.533943373 27.425328611 
27.773913181 27.24432399 28.130318628 28.487571827 27.950084686 28.837055454 29.207454585 28.657180752 29.569362736 
29.925455041 29.369449224 2.5827978944 2.2913192199 2.9807739915 18.411059746 18.407358625 18.399989437 18.386975554 
18.82435945 18.840766929 28.419272961 28.01366947 27.601169123 27.221531195 27.816202291 26.811279028 26.440027765 
26.991747418 26.073213012 25.700566644 26.212944169 25.309778525 24.945288021 25.4532788 24.571474002 24.199922585 
24.686478701 23.853881026 23.510803337 23.964421906 23.17534646 22.833467196 23.280932969 22.483543839 22.126340595 
22.593859291 21.767824742 21.402996605 21.883971272 21.024143095 20.644424195 21.145606327 20.252717337 19.897521781 
20.375138346 19.397272195 19.06856563 19.484760949 18.218656259 17.851505203 17.424991263 17.041555223 16.611759912 
15.487718012 15.136061097 14.625173874 14.261343158 13.85909181 13.535234553 13.993302913 13.248302639 12.922388204 
13.305491301 12.637076186 12.309800533 12.732284975 12.028268719 11.717590459 12.16417374 11.374807017 11.040852992 
11.535623159 10.673973618 10.317275291 10.818253441 9.9461896422 9.5939882343 10.07109935 9.2282354404 8.8960058662 
9.3247228085 8.5456383006 8.196443417 8.5986421306 7.8318577485 7.4694319359 7.8732435641 7.1261988114 6.7940762464 
7.1549169304 6.4516959997 6.1102709028 6.4596050305 5.7611737529 5.4128527318 5.7585594299 5.0844794745 4.6972761147 
5.0712315935 4.2340251476 3.8975863811 4.2797947604 3.6644609208 3.3230879344 2.9996634829 3.5785884392 13.217059443 
13.235558189 13.12684519 13.175201808 18.358876665 18.372330581 18.77892439 2.2823813944 2.3559331072 2.3731876252 
2.7175989218 2.4059433089 2.4020796905 2.8032179574 2.3838047538 2.3616205526 2.3506032691 2.3282545361 2.7589271164 
2.3074569925 2.2845834149 2.7176111652 2.2658141694 2.2380583071 2.6712683993 2.2129326158 2.1911536396 2.6225092501 
2.1505377125 2.1364503956 2.552682449 2.1154834124 2.1069012731 2.4885002586 2.0999815843 2.0968975955 2.4595948445 
2.1158002722 2.125782985 2.4718782271 2.1510043273 2.1686111306 2.5181098408 2.1789607681 2.1868747044 2.5567065735 
2.1794771471 2.1732380956 2.5631867334 2.1652545169 2.1751801784 2.5525970864 2.1608756882 2.1845357775 2.5369434355 
2.2234549261 2.2678788248 2.5698665072 2.3293967469 2.3746270682 2.6836399791 18.370084425 18.393072658 18.830206671 
13.95069215 13.967504497 13.567107802 18.320932038 18.319577002 18.762582621 18.342282846 18.325705988 18.718297273 
18.401062061 18.374889594 18.758195142 18.431275863 18.412031544 18.803691507 18.506053074 18.493535366 29.234358539 
28.845209759 28.655989995 13.602988635 13.26046468 13.290959834 12.821974667 13.178929633 13.187464922 13.194371993 
13.176237587 12.751081311 13.254032213 13.223388496 12.781759578 13.376657787 13.284290272 12.851228972 2.8132555003 
3.1851177101 3.2036752146 2.4232045726 30.148717944 30.070496375 30.402915175 18.475564721 18.447049494 18.828056012 
18.85599785 13.195394305 13.203249996 12.782337755 12.760531519 18.085995937 30.024393303 30.341431355 29.673224294 
2.8006413977 18.492629803 18.569793372 18.022333618 13.938983449 13.548561585 14.129705163 16.894092937 18.436980068 
13.645019909 18.745996728 18.347332898 18.35690003 13.122043391 12.655421291 12.648816868 13.149804149 13.097762227 
13.133815978 18.933638569 2.3879360663 12.928852583 13.371547968 13.375666562 18.562265039 2.7760797974 13.328044161 
13.313621407 18.573815529 18.588086798 18.975027349 13.119475417 13.287617508 13.277441464 12.88339304 12.921410847 
18.471210302 18.50810945 18.937176574 29.63627072 29.48476499 19.302694803 19.320201438 29.021568629 28.972431711 
28.898446813 28.877713223 28.491636915 28.856414206 28.849216563 28.395149194 28.892345789 28.903306751 28.416304389 
28.932756144 28.944542084 28.488511847 28.988983988 28.962509474 28.562222 28.822709813 28.773165664 28.466479624 
28.731528624 28.7227355 28.284035412 28.739987447 28.757899747 28.259476607 28.793906964 28.819149234 28.313046631 
28.848770695 28.875886098 28.379190622 28.911544464 28.944109578 28.445411501 29.000114613 29.035101893 28.538092085 
29.093948231 29.119664095 28.654184359 29.14922393 29.183220656 28.743757866 29.213817255 29.27264359 28.805276186 
29.394975759 18.379921332 18.412033331 18.818558869 18.742426677 4.4481811295 4.8561767285 5.2822870467 5.6918343275 
4.9582329532 6.095547146 6.4559672914 5.7916332368 6.8105567376 7.1613964203 6.555270673 7.5295703703 7.8876594098 
7.2849066336 8.2461956075 8.6099250459 8.0197883471 8.969426163 9.3100882013 8.746917265 9.66191554 10.015099108 
9.4666527727 10.37406795 10.724135065 10.186016289 11.079865663 11.423100328 10.909146434 11.749043096 12.091329029 
11.59706058 12.416670269 12.775031398 12.253256248 13.167726108 19.740767792 20.085461074 20.399926266 20.74008768 
20.151015169 21.093777484 21.450759759 20.819761561 21.828351596 22.185515763 21.553257344 22.573626577 22.938147042 
22.321919291 23.299595697 23.66809238 23.074072076 23.995188055 24.357590913 23.764426033 24.742470471 25.126386924 
24.479363962 25.554160946 25.948027852 25.29468399 26.341822107 26.704238803 26.118416597 27.076303192 27.425861685 
26.885898878 27.830882483 28.188542544 27.664554047 28.614111315 28.964559407 28.496317234 28.067087799 27.653010133 
19.320485647 19.096578591 19.089337986 27.168408837 26.756309368 27.419094346 26.361689323 25.993032293 26.538012265 
25.598656536 25.205558889 25.747016419 24.819427881 24.44330703 24.964275905 24.058257207 23.710106962 24.19061583 
23.351319646 23.013951586 23.444447913 22.719734969 22.368182643 22.789121106 22.016777025 21.656800632 22.142050483 
21.284672997 20.904993262 21.416543563 20.551362652 20.159940352 20.689023143 18.717974586 19.199528826 19.248877979 
19.739421943 12.54113506 12.258905125 11.796939706 11.447985139 12.182011612 10.982344957 10.606903709 11.246247437 
10.212126776 9.8312615884 10.375743339 9.4192991696 9.0435444304 9.5593086833 8.6753274563 8.3148877053 8.7696200903 
7.9386189157 7.5634783873 8.0160297795 7.1772496588 6.824336914 7.2443548563 6.4589355542 6.1074144548 6.4842484162 
5.7241390035 5.3660340269 5.7280010558 4.9655336384 4.6285709728 4.9369914795 4.1765147036 4.0749880557 3.7129014413 
12.148182427 12.165717738 3.1839762957 3.1619436451 3.0522267344 3.1496445857 3.1203704756 3.5694879951 3.1221305017 
3.0973868194 3.552237689 3.0852078518 3.0557813664 3.5375501766 3.0160591901 2.971834382 3.4819072117 2.8529280552 
2.8302181928 3.3192942053 2.9069685667 2.8995510983 3.2760952079 2.8240373638 2.8442993858 3.2770724175 2.9573909265 
2.9852734314 3.3153287644 3.0006370929 3.0144406396 3.4472542154 2.9929184426 2.9898048646 3.4438546492 2.9673000913 
2.9655214276 3.4033759791 2.9286359441 2.9218847842 3.3493331171 2.8716114213 2.9218316958 3.2685124241 19.227925056 
19.193002708 19.562781219 19.2558686 19.244764758 19.675951863 28.959493089 28.532524824 12.980571579 12.730076254 
13.192433476 13.145837113 12.668202102 12.81308603 3.5877734178 3.9777761476 4.0627075192 12.410168435 12.36342739 
19.253773103 19.241236434 12.366001101 12.39169628 12.329380819 12.293316199 11.880369226 12.276533465 12.27665182 
11.820473975 3.1690987426 29.161713443 29.091682735 28.637150532 3.2296450865 3.1965232377 19.213565116 19.20644098 
19.665413335 19.415775253 3.1770854324 3.6042772182 29.32747883 29.268197313 11.811676833 12.289280444 12.296892831 
19.576118529 3.0999756765 12.209016093 12.201024006 11.705795987 28.37098671 12.35479943 11.92058159 12.340562342 
13.095679413 13.118257985 19.326574442 19.318311682 19.756455917 19.189575364 19.165273586 19.621832901 19.344745776 
19.337758875 19.830871517 19.817237994 12.369271356 12.248086329 19.804502366 19.305753994 19.246220201 19.97868472 
3.4019023998 12.317549269 15.927939605 15.921636324 3.3123226289 12.395610796 12.478291075 11.936161637 19.251263028 
19.685903995 19.261606664 19.351782977 19.774694792 19.292929668 28.815067773 12.276530931 12.425137274 11.94155341 
11.942540096 12.131806057 12.111520049 11.6849718 19.245648436 19.238448216 19.65332781 19.625682079 11.613577171 
3.6024990571 3.7846985721 4.2500573551 27.918756393 27.896393723 28.082799534 28.112081489 28.05299362 28.097727109 
27.645563649 27.956461574 15.916248316 15.911991775 27.763006408 27.720430504 27.391678128 27.719194915 27.736377726 
27.195042819 27.825268881 27.861671408 27.28267594 27.907670104 27.938225294 27.41846492 27.963669991 28.00030862 
27.491009345 28.050191622 28.107467854 27.567633604 28.202006438 28.262170751 27.713746492 28.390064446 28.420822946 
27.938032883 28.338912493 4.6661886004 5.0937896668 4.3975230022 20.101771582 20.075589503 5.518582312 5.9265219403 
5.238473095 6.3003720037 6.6605023122 6.0392328289 7.0360634037 7.4115678591 6.7926981826 7.7863008532 8.1536051526 
7.5492902933 8.5402332423 8.9079636698 8.3180844641 9.2769337668 9.6368498133 9.0809615237 10.037691866 10.405016395 
9.8580563055 10.821846391 11.184899089 10.684596596 11.612844647 20.089033783 3.3013726478 20.469765673 20.825162994 
20.090864771 21.241326494 21.621786599 22.092937293 22.484113794 21.783095466 22.989671351 23.353017905 22.76450188 
23.682879196 15.907500817 15.90628261 24.160917083 24.548605774 23.751469212 25.008572492 25.438750837 24.693291236 
25.910353724 26.30608635 25.627570271 26.740555093 27.114121806 26.535427761 27.532966549 27.939212102 27.389844977 
11.397607208 11.351331323 20.362270261 20.00408811 20.009628634 20.192123926 20.176804495 20.231948623 20.284889289 
26.683055529 26.286647777 25.907869514 25.51137176 26.05339444 25.099639154 24.711153704 25.26081243 24.294364209 
23.906793124 24.429755936 23.480000272 23.118845222 23.583281381 22.687256096 22.391059662 22.721462197 22.037703852 
15.9018069 15.902655277 21.533160864 21.158854079 21.781856655 20.717133092 10.966945377 11.015470736 12.828598567 
10.513399235 10.108761109 9.7148360635 9.2932178716 9.8513551399 8.9187847302 8.5417703288 9.0767665739 8.1206166894 
7.7356033069 8.2731355024 7.3192998556 6.9245737277 7.4271992947 6.522789298 6.150251299 6.6022560063 5.7214368837 
5.331498107 5.7657587843 4.8903689218 4.4835500561 4.8908202565 20.115982149 20.02008706 20.62998885 4.019446998 
3.9985923158 4.0296839657 4.0258025286 4.4741405164 4.0353251391 4.0192746359 4.5111921535 4.0022150451 3.9597474237 
4.5012424404 3.8807009797 3.7581819387 4.4034706505 3.8364327411 15.902770578 15.904420073 3.8652566995 3.7879890165 
4.3529665337 3.9043073859 15.906679171 15.910219069 3.9663265112 3.9837290008 4.4446533042 3.9495900058 3.9309086302 
4.4734862204 3.8637428884 3.8461130874 4.3739707277 3.7643191518 3.7339262393 4.228426758 3.6441538082 20.128146845 
11.343870933 11.32043015 10.853600998 12.388224078 11.869898952 15.91499974 15.920324904 28.258744015 28.187200094 
27.985206761 27.916497603 27.95924677 27.581050498 27.437828985 19.074362121 19.093946318 19.513681801 20.257540676 
20.664633435 20.32074497 11.866166361 11.537965721 20.672491499 28.068369168 27.993082237 27.688550354 19.200934941 
19.250021611 19.671150547 19.527152753 20.891085181 11.508814267 10.985732774 28.388577331 27.493448309 27.595102705 
27.108446596 26.85924805 27.676188859 20.099258338 20.083034438 20.533213985 20.33094192 20.355410123 20.821430386 
20.164328654 20.659686572 20.156027861 20.831453454 12.173053681 12.635331595 10.816155312 11.297979107 11.307553364 
10.914795392 10.656970264 11.391209387 11.397071162 11.401560279 4.0143317343 4.4442850077 4.0639384583 11.509696743 
11.520830308 10.983078979 11.060978295 10.949945791 4.0378421559 11.40725049 11.732819712 10.342035355 15.926508539 
15.932549536 26.846448537 26.650456073 15.940262727 15.945794856 26.584627075 26.582761916 26.03478921 26.647723227 
26.737589968 26.033812604 26.944768502 26.991736464 26.308246653 26.955234529 26.982023789 26.480244224 27.06130446 
27.112944205 26.524842634 27.248641594 27.345121402 26.742453644 4.4781744898 20.450350026 20.068988217 20.099115884 
20.895593128 5.7978544685 6.1737658318 6.5517232111 6.9323030906 6.3194400566 7.2855445549 7.6672246365 7.0537540385 
8.0924850639 8.4865080235 7.8403992407 8.9015303882 9.2768101072 8.6873090322 9.6741139798 10.082767324 9.5046204795 
10.559038511 4.9466696679 4.9717767689 27.268998319 21.379719442 21.855755155 11.205055627 11.261750349 20.054108137 
22.393506522 22.903197637 21.994978003 15.963684613 15.979892497 15.951364384 15.959337145 23.442492048 23.925027449 
23.077850059 24.423097686 24.885957571 24.119446469 11.351916157 11.394785548 10.992199055 10.834157616 25.41253296 
24.998333062 24.593776733 24.17447919 24.746260438 22.820824907 22.385421388 21.991940696 22.093506496 21.596611561 
21.893979535 21.385364844 21.005083041 4.6094851695 4.9364355838 5.36203686 20.392780874 20.38234183 20.880864029 
20.904742261 9.5548631322 9.582830207 10.724158677 11.267274211 9.4541422554 9.0756426844 8.469124668 8.0386132074 
8.8558981288 7.5689270379 7.1455595076 7.7684713679 6.6864068869 6.2792464469 6.8333281749 5.8181319665 5.3846859143 
4.888540487 21.280456866 21.221849133 5.0643069467 5.0701558586 5.5307529639 5.1404913409 5.1212120749 5.6927372144 
5.0384655057 4.9575990033 5.6788957606 5.0784269086 5.1424208883 11.197493104 10.454501854 10.562359661 21.281724605 
21.384553962 21.928605063 10.38461802 27.118217793 27.042075102 26.817549384 27.233144155 27.172657962 26.430381421 
10.151263776 10.016545854 9.7800842357 9.6475051873 8.8769724917 9.2029057684 27.546623407 20.428163349 20.848865766 
26.535998575 26.914351066 21.894164856 21.288517402 21.334253205 26.234499752 25.854052531 20.919230533 20.006367177 
5.813344128 5.1727296732 25.421106647 25.894579145 25.15494078 26.381983279 26.178831537 21.049411339 21.071667935 
25.595167345 20.570939081 23.739936214 23.309876494 22.977701583 5.5043505916 27.082227187 9.8895297265 10.376901085 
10.359767453 5.9080065511 21.196366308 21.783011689 9.1266021614 9.9100096181 26.933581195 5.2025015316 5.0566330811 
5.0242245445 5.6942849093 4.9050157234 4.8410829836 5.4905232571 4.6851960832 10.114101108 10.57664389 10.451043018 
9.7415205798 21.202240444 10.909891337 10.50042968 9.787489949 10.272476667 10.244420329 5.2177648928 9.8589193387 
23.905031039 26.655254509 5.9049011521 24.311847642 23.87555906 26.047721565 26.458927712 20.469454507 21.006961691 
19.905461773 21.517144867 22.060694941 23.924944406 24.425656794 5.65507351 21.16560487 24.719698108 27.108875899 
19.996132911 22.645099561 22.70734854 5.9961031374 6.6732613216 6.3038625724 25.491437014 25.851996043 24.95481903 
26.58217681 25.37022205 25.304315749 25.336475123 25.403723098 24.668014284 25.676311042 25.886744739 24.977947334 
26.020624965 26.10235261 21.494960797 21.43463497 21.813052687 6.2339541482 6.6119524905 5.9539165608 21.955134135 
21.491528899 21.529093336 6.9721251226 7.5349366849 7.966567753 7.1001167299 8.5172619038 8.9369635884 8.2213042096 
9.4887337653 24.766627805 8.0137498998 7.9255884181 26.191039623 25.859716928 6.3266821068 6.5410534179 7.0167540684 
7.886815285 26.014178261 22.723343697 23.267815987 23.579117619 10.248226824 10.290614503 9.6986421255 25.816385921 
25.373281192 25.401119131 24.664901491 25.159363202 8.5123737385 9.3287635383 6.6380768863 6.5139099079 23.292186612 
22.579971425 9.2336893836 7.1361141235 22.26994228 22.355487317 23.126634195 10.461164858 23.154101343 22.660490195 
7.4194348247 6.9071689372 6.3731099209 23.564213647 6.334550384 6.2498330282 6.0702197541 7.067632094 8.3763018452 
21.066044772 6.4100471423 6.7082958212 26.320632205 25.850911262 25.424655313 7.6148646462 22.253154053 24.060687407 
24.339754931 7.5135825379 22.486844876 8.5650775852 9.0303382881 9.0303773707 7.8035980168 7.6247074561 23.85249757 
15.979664319 9.8714171089 23.904524323 23.939262978 7.2781893137 8.0093948023 22.482105145 15.921994704 22.077848533 
24.942971102 22.641827153 23.27529467 22.752522993 24.929400331 25.455954903 9.3889517961 9.0855389408 24.012492722 
24.464831347 23.811183607 24.045436681 9.2176363407 15.857118152 15.84654403 24.768479936 8.5433796342 8.2571278078 
7.9905780033 23.149671802 8.6132831509 22.719098235 15.832299475 15.823600436 32.332661813 32.323602846 32.347714178 
32.250685538 32.273679333 31.988794859 32.207782708 32.229722124 31.917335719 32.16779993 32.189566028 31.877575011 
32.127846517 32.148105647 31.839073806 32.077230033 32.097894211 31.78888116 32.030241302 32.048074708 31.729224614 
31.984135362 32.00002523 31.669376799 31.959215636 31.97487658 31.629405163 31.929824306 31.941278183 31.601772232 
31.913043325 31.920514581 31.574076497 31.912653673 31.917008232 31.568434135 31.904114151 31.905433902 31.565011979 
31.901038697 31.898983419 31.552815765 31.909720139 31.904565838 31.551143704 31.927603369 31.919370366 31.564544275 
31.945125496 31.933706949 31.580688148 31.970015555 31.956316383 31.598351609 32.004387231 31.987324702 31.627319379 
32.044625987 32.026532551 31.667421598 32.087482643 32.067082753 31.712556682 32.12184205 32.101354727 31.74941602 
32.179312469 32.15661125 31.798677217 32.24137961 32.219262538 31.873951391 32.306158026 32.282298941 31.955362729 
32.365040112 32.339338448 32.029879002 32.439041709 32.415387778 32.113641277 32.07425136 0.57921705902 1.9460377105 
1.4092507641 2.8928718973 2.4547410056 1.928835491 3.692391497 3.2861220981 2.8444116653 4.4644251717 4.0929942408 
3.6641624825 5.1740149085 4.8416120305 4.464102247 5.8561744483 5.5081889329 5.1928156952 6.4972631727 6.1894277853 
5.8767311154 7.1778695596 6.8337812352 6.5627708366 7.7800777819 7.4829029267 7.2185105451 8.4136247494 8.0909955183 
7.8484036528 9.022543576 8.7152027144 8.4733296305 9.6211427156 9.3277602663 9.091806837 10.214593914 9.92044087 
9.7077910965 10.804256628 10.508584324 10.31182485 11.392297153 11.094311182 10.905755122 12.0011558 11.69983358 
11.512323755 12.591213897 12.299829853 12.12603824 13.238952854 12.911583745 12.750684973 13.885599506 13.54948249 
13.384923939 14.587406142 14.240371562 14.049973207 15.292516104 14.93454324 14.749495077 15.98864462 15.638186707 
15.43745954 16.696820015 16.340764861 16.129492974 17.430357375 17.072851652 16.851391657 18.160240701 17.787748121 
17.578839613 18.906809198 18.522017665 18.293536579 19.614992918 19.26849605 19.014467502 20.321488915 19.979038206 
19.739166119 21.056955296 20.669223485 20.451647431 21.766100318 21.429107995 21.173767149 22.450200812 22.114248251 
21.896843998 23.13250868 22.780781772 22.578471929 23.799744998 23.479690306 23.259395412 24.529531037 24.160648905 
23.970658192 25.210535083 24.872759714 24.677637393 25.960995828 25.573460671 25.386185281 26.728155042 26.338997639 
26.129299478 27.423829645 27.081951611 26.86274032 28.1653109 27.805688661 27.599671293 28.880980877 28.52003482 
28.33723904 29.582990669 29.23726271 29.048812093 30.292834896 29.946134768 29.768796348 31.032178127 30.651598195 
30.491087979 0.6368957884 31.345596422 31.743183065 31.8330409 30.602303285 30.966244923 31.122549833 29.89765994 
30.244223111 30.385161585 29.196729673 29.542321318 29.671617988 28.473224805 28.850419546 28.969836561 27.761315158 
28.104343115 28.254158501 27.080882263 27.406384782 27.52976131 26.389345735 26.746064135 26.839118401 25.681892569 
26.037161662 26.150786767 24.999311276 25.32107995 25.436173331 24.260374609 24.645295934 24.719298337 23.583877525 
23.919878079 24.022300969 22.897927432 23.233465126 23.328720225 22.200493797 22.552227223 22.629706806 21.532443578 
21.869050778 21.949634428 20.841126933 21.179675586 21.262710281 20.167540488 20.508956312 20.575170133 19.429303914 
19.807943558 19.881746429 18.734674505 19.085121148 19.177572597 17.98955693 18.361666267 18.462182848 17.221320237 
17.596264487 17.699944495 16.485942219 16.860162353 16.951327853 15.728423296 16.113898424 16.224768781 15.032869168 
15.37627684 15.506890916 14.308674202 14.672917978 14.800263447 13.648967354 13.970906972 14.107016764 13.009156583 
13.322268119 13.443801492 12.360923135 12.681436726 12.78799599 11.692436948 12.035868312 12.131431727 11.106769021 
11.38970946 11.497839963 10.469734841 10.792491474 10.873189853 9.8016265923 10.136584016 10.216435671 9.2253143596 
9.504061549 9.5761501571 8.6336731534 8.9266882393 8.9696927454 8.0180353647 8.3401690768 8.3666242426 7.4271295363 
7.7098031992 7.7535097154 6.7820940102 7.1120564496 7.1171592295 6.1582444557 6.465957055 6.4713458307 5.518193109 
5.835499635 5.8167398569 4.8832348796 5.2136629687 5.1717959292 4.1458631447 4.5306245842 4.4967908839 3.3815944337 
3.7646235256 3.7425925956 2.4807574451 2.9568298484 2.9142095328 1.4867800505 1.9901484391 1.9795351577 0.646929468 
0.37226778949 0.40200880165 0.38305420489 0.39828278721 0.72251312586 0.36949074998 0.37941326231 0.71326080956 0.33910845885 
0.34435378503 0.66650069178 0.29560250649 0.30150423505 0.61933224271 0.28423507916 0.28499007099 0.58767881717 0.27958016261 
0.27985792739 0.56486821203 0.27972344173 0.27872467429 0.55742359196 0.28153811784 0.27996526365 0.55566893483 0.28030478641 
0.27944167971 0.55284202209 0.28010115048 0.27791989232 0.55016483236 0.26980477301 0.26683326903 0.53695778748 0.2669550944 
0.26478669402 0.52067970077 0.26352381249 0.26102143922 0.51333628505 0.26650340849 0.26398053876 0.51230592823 0.26714027853 
0.26440637582 0.51564834913 0.27497287199 0.27253210802 0.52422165147 0.28063067983 0.27824412942 0.53880679058 0.28171395792 
0.2784458733 0.54532310487 0.28206411182 0.27862140128 0.54546171337 0.29119090367 0.28769863795 0.55580706652 0.3040618064 
0.29993292581 0.58123430076 0.32087083831 0.31597362926 0.61622920519 0.33885317461 0.33041592281 0.65617024211 0.33854427168 
0.32313101036 0.67203591509 0.33769367595 0.31235833394 0.65778055438 0.98244704606 16.337158071 16.282738168 16.246513633 
16.228442945 16.590186354 16.225710589 16.214024032 16.54927869 16.217468851 16.207194671 16.53915262 16.199834944 
16.191379593 16.521651731 16.175713347 16.170143616 16.488738453 16.174079593 16.169008488 16.469821435 16.184015293 
16.184289682 16.480765024 16.192587385 16.191152499 16.496249432 16.196035257 16.197042426 16.502253845 16.211133243 
16.214652041 16.514805329 16.231448784 16.237780283 16.541315751 16.272190505 16.283360985 16.580705284 16.303121605 
16.37713247 16.63422513 16.108155344 15.837193015 15.553077058 15.6035875 15.590186805 15.578357218 15.244660576 
15.574941195 15.562872876 15.226242277 15.553474423 15.52786479 15.21006751 15.52001813 15.509747064 15.206791816 
15.508849963 15.502076944 15.185210242 15.502891644 15.494204927 15.18180222 15.507068294 15.504488992 15.194330979 
15.501724485 15.502359516 15.196372606 15.514073318 15.516317166 15.196311288 15.520551052 15.524505811 15.203974734 
15.54722453 15.551696743 15.224016862 15.55813543 15.562170159 15.24340119 15.570699526 15.528891561 15.237467732 
15.819937675 16.11093632 32.023975128 15.600975554 15.454985962 15.204665257 31.765581788 31.367914183 31.185777987 
0.72723892202 1.0437556988 16.473794923 16.740598832 16.753987026 16.481960913 16.446326828 16.441792146 15.108221497 
15.391445059 15.513587074 31.780163027 31.555629869 31.577231606 31.64956096 31.699805039 31.441090126 31.288130662 
31.510964144 31.531209776 31.435896743 31.466304758 31.157899898 31.360938553 31.390554504 31.067397996 31.304311104 
31.334910872 30.995400058 31.262458778 31.272062174 30.936704455 31.222116332 31.240428018 30.881890193 31.192805676 
31.202500492 30.839875296 31.166951941 31.163134718 30.790310155 31.158943291 31.16626044 30.759722953 31.172376728 
31.177443378 30.777382308 31.173090126 31.169457379 30.792944615 31.188792044 31.178889978 30.796060761 31.209540266 
31.203060698 30.816510171 31.230466997 31.218890957 30.840519201 31.256076862 31.238267293 30.858209836 31.303904876 
31.281354459 30.891668895 31.347154043 31.324156004 30.937729113 31.401767905 31.387406542 30.998897832 31.479263695 
31.44399571 31.082019268 31.560480179 31.519891695 31.165485849 31.656354071 31.614969537 31.261197708 31.749394792 
31.715848197 31.375769083 3.6478410874 3.2244778203 30.844158179 31.223557278 14.870979457 14.875236828 2.7941466105 
2.3799740022 2.8092706084 1.9321756453 1.4245061533 1.0750235751 1.9373549961 4.4618057874 4.0650595452 3.6626095943 
5.2008911381 4.850342677 4.4784153736 5.9130306995 5.5628564938 5.2408721513 6.6067785015 6.2540695062 5.9571203656 
7.2623265745 6.942444466 6.6481151883 7.9104195384 7.5855927329 7.3213934907 8.5444888645 8.2303767711 7.977989379 
9.1785904261 8.8614777946 8.62638219 9.785826943 9.4753482483 9.2506378508 10.402696765 10.098407997 9.8705326957 
11.011659572 10.712307075 10.502582598 11.636552081 11.320609501 11.129776004 12.258917784 11.953863774 11.763314024 
12.90313017 12.578180646 12.405319603 13.534609179 13.222413717 13.046771246 14.225237359 13.871559646 13.703193878 
14.895860604 14.55242385 14.365693883 15.584260945 15.243482455 15.037607583 16.274975581 15.92834075 15.727648932 
17.003320536 16.63322191 16.428727892 17.709277469 17.357357158 17.139539275 18.424224077 18.066453572 17.847780658 
19.134184445 18.774748009 18.552192923 19.856029667 19.492762755 19.257762628 20.565355308 20.216644718 19.974176349 
21.305864812 20.931385809 20.699864066 22.023011969 21.672247919 21.432922494 22.694998666 22.361583078 22.139343505 
23.39433409 23.043938734 22.82882372 24.12192771 23.757937204 23.543889994 24.82030044 24.474461068 24.262742759 
25.549524852 25.184161201 24.981742122 26.292978993 25.912905716 25.711253678 27.018547361 26.663260248 26.446805265 
27.770833206 27.387632325 27.187996418 28.507200549 28.15170294 27.939450725 29.236989352 28.879998949 28.694343268 
29.987130296 29.623560978 29.454570496 30.730646107 30.371518929 30.226251964 14.901416094 14.879600667 17.12309452 
17.057622981 31.10522868 30.166564407 30.524746627 30.625407628 29.472066645 29.827570092 29.966674369 28.763959089 
29.110715895 29.26581601 28.026174299 28.395601311 28.535573615 27.291476223 27.647302164 27.787386816 26.612818528 
26.94886981 27.064800232 25.900274821 26.254043962 26.36209786 25.164099388 25.526859028 25.628064666 24.459723519 
24.816135614 24.904709087 23.770972722 24.113983876 24.208822954 23.0716274 23.424952855 23.514879727 22.365294156 
22.713924522 22.808764929 21.695569676 22.029740774 22.11339573 20.986965691 21.342278869 21.422757673 20.317334469 
20.651271707 20.732523737 19.600679451 19.961040461 20.040273654 18.919255512 19.262524403 19.346511102 18.196295192 
18.566339012 18.657321876 17.426225896 17.81422326 17.925049442 16.719535936 17.074779994 17.194851016 15.991064066 
16.356965841 16.483436519 15.268191743 15.614846038 15.746282012 14.570108262 14.924848149 15.029498599 13.89474369 
14.229725232 14.349523375 13.230825986 13.557737131 13.675098706 12.567270153 12.898099999 13.005852638 11.906906377 
12.237448385 12.340576945 11.279622673 11.589293719 11.68861446 10.638267484 10.961229846 11.045982568 9.9609011819 
10.304324451 10.385479482 9.3343140365 9.6419453388 9.7231163652 8.7094942034 9.0189034694 9.0787418787 8.1038725652 
8.4089072122 8.4524379214 7.4525000961 7.7736936017 7.8103518276 6.8018478721 7.1313265155 7.1461101758 6.1394027808 
6.4709522251 6.4811088967 5.4512043758 5.7910747433 5.7882355794 4.8078114376 5.129988713 5.103518094 4.1106319457 
4.4838107508 4.4431463588 3.3317176121 3.7338057917 3.7292982829 2.4631943817 2.9094479863 2.9219987773 1.4830289309 
1.9768809653 2.0206160264 1.1215236222 17.123414252 17.160562817 0.98279202359 1.028289362 1.1216524302 1.1640417064 
1.4700935513 1.102055744 0.95576535351 0.98073730821 1.3462728735 0.92134191479 0.94327979738 1.3107828963 0.88820688144 
0.90228692382 1.2571548667 0.8684734532 0.87471785425 1.2065151204 0.86747426331 0.8713460216 1.184283681 0.86285780762 
0.86854988672 1.1797175138 0.86394790745 0.86756178633 1.1786430287 0.84076176893 0.85767973731 1.1705152931 0.82300791052 
0.82886840554 1.1459184035 0.80696571354 0.81272937671 1.1191938814 0.8141187134 0.8111711874 1.1104388596 0.81700797442 
0.81587067943 1.1160473769 0.84366809034 0.8321400723 1.1348815175 0.86863251969 0.85920544305 1.1705826363 0.86271441378 
0.85957068756 1.1826909055 0.86196237973 0.85759125684 1.1752569267 0.8803063074 0.86318279909 1.1808110943 0.92146292908 
0.89777694771 1.2123096557 1.0058077174 0.97221304195 1.2992004355 1.0825972224 1.0446278955 1.4176903611 1.0968963251 
1.0765161814 1.4894388158 16.454645431 16.872233337 17.002034412 16.957206691 17.393051674 16.775243908 16.371231475 
16.936158633 16.920823979 17.323295559 16.916952083 16.913244759 17.294112347 16.891729368 16.877874217 17.263859476 
16.855915681 16.833804087 17.215797485 16.817658394 16.819216415 17.17480391 16.818091597 16.827860602 17.156865505 
16.835697071 16.8427044 17.1652937 16.847239606 16.849786871 17.180874832 16.854269948 16.869715826 17.193829584 
16.885973589 16.906997111 17.221470601 16.929236222 16.953405456 17.271112201 17.010351075 17.063470758 17.471539956 
17.358935557 14.787155082 14.760364576 15.240968857 15.705809174 14.852326682 14.853586392 14.502882335 14.834089215 
14.827655286 14.462600492 14.821747283 14.811295099 14.437143187 14.810142457 14.807881421 14.431655533 14.800869963 
14.80326619 14.426619462 14.810043009 14.822166647 14.432248392 14.818065654 14.809948044 14.439238706 14.812335336 
14.821592318 14.439418194 14.827986769 14.82733131 14.449163594 14.842626547 14.862158804 14.470946915 14.867249209 
14.860425645 14.490326592 14.858307434 14.833065807 14.490208478 15.927231578 15.503371219 31.535277092 31.554029504 
31.213636721 31.207293053 31.782532717 31.190137706 31.468648952 14.449938748 17.195886992 17.51344165 14.544924012 
30.985789796 14.854480258 14.517924276 16.266796318 17.240109176 15.127932831 14.764918727 15.43777743 1.5588378672 
17.530054382 17.172128192 17.117376844 1.0536894998 1.4927474177 16.114844697 16.560972446 15.823561902 14.366634576 
14.711733975 14.856866267 15.025099643 14.474845969 30.61254177 30.639194454 30.77886327 30.824242035 30.558305151 
30.590981309 30.233650574 30.504654937 30.527186561 30.180261095 30.434939945 30.454857248 30.098849561 30.373837939 
30.40377507 30.017375623 30.359106158 30.359923393 29.971994651 30.374385868 30.356053944 29.954896331 30.380005043 
30.382805726 29.95995111 30.394117698 30.388076363 29.97657291 30.421212328 30.406565167 29.997331106 30.44216306 
30.432408419 30.021402896 30.475315998 30.46698878 30.058035894 30.514021608 30.488303727 30.096498754 30.554683348 
30.533848117 30.130022707 30.635297009 30.594536457 30.190362987 30.729960672 30.687099381 30.282722847 30.825535886 
30.784283529 30.389661234 30.944875259 30.889755023 30.508994253 31.086786826 31.026767972 30.655819898 30.841525943 
14.060989371 14.022757576 17.296819162 17.639279946 4.5058504521 4.107028277 14.107809899 14.089600649 13.727518173 
3.6650454155 3.2403329349 3.7118071039 1.9229916999 14.20097213 14.160205037 5.9968925458 5.6416935001 6.7094113979 
6.3588941315 6.0612297923 7.3931840162 7.0564102555 6.782775965 8.0637710064 7.7318810536 7.480067472 8.7150105605 
8.3870828308 8.1518462602 9.3082355708 9.000535873 8.7677033169 9.9503333994 9.6269913289 9.3835165361 10.608954775 
10.289817473 10.052747643 11.248404557 10.931353263 10.724355642 11.900958855 11.577245434 11.383495113 12.559041759 
12.235415889 12.053052774 13.225675332 12.904662152 12.737132113 13.872360736 13.535919301 13.393327676 14.503334455 
14.178951539 14.008620001 15.889764996 15.546015137 17.265845194 16.914018761 18.652262919 18.305288403 19.369311037 
19.014202117 18.76828498 20.087900268 19.729324175 19.485909019 20.820243494 20.454428184 20.209942463 21.555641342 
21.18820473 20.943807584 22.252878461 21.912577463 21.669207562 22.962699203 22.611334883 22.386065115 23.682171708 
23.315926473 23.099926897 24.410822764 24.055757733 23.829107502 25.130402215 24.764061791 24.558269837 25.867480258 
25.502007965 25.285362336 26.615349646 26.243161005 26.034714005 27.35934175 26.988493925 26.785510257 28.114676041 
27.732501189 27.533561859 28.874743433 28.500884246 28.294333852 29.672357086 29.284923243 29.091817826 30.513847418 
30.128782589 29.959480955 16.615153469 16.187302918 14.225498222 14.260931539 13.888446656 29.100113026 29.462131807 
30.91309772 28.336016813 28.705315774 28.900835428 27.561775548 27.941846275 28.110659313 26.858223207 27.202165344 
27.355414049 26.131047153 26.491566263 26.627652831 25.378227566 25.753621122 25.881661695 24.654083215 25.004130975 
25.128082532 23.968407685 24.316348544 24.414363169 23.266258435 23.614464824 23.720725976 22.549914851 22.909935393 
23.008415966 21.874541822 22.211858567 22.312401458 21.165064782 21.519771365 21.618303564 20.454711113 20.790816479 
20.888826433 19.749654006 20.105361807 20.16596229 19.075387317 19.412013942 19.480755283 18.402288308 18.752757765 
18.82270324 17.703335831 18.081851097 18.182244306 16.992903349 17.341220751 17.50207668 16.235942963 16.59681604 
16.746307216 15.525495189 15.899858845 16.011976534 14.824181512 15.164673103 15.314038461 14.100878876 14.437144778 
14.568634667 13.458962548 13.794362774 13.880840769 12.801479205 13.136004324 13.252883422 12.144560163 12.478247057 
12.605737661 11.486785524 11.810137826 11.944695126 10.825395281 11.151445307 11.269316946 10.141838906 10.485211908 
10.586032685 9.4710975898 9.8001640243 9.8948377236 8.8254479526 9.1514208158 9.2236951928 8.1925492659 8.5037048549 
8.5723852132 7.5227163096 7.8654375201 7.9135837149 6.8500208734 7.1840303565 7.2371173673 6.1529383632 6.4971512926 
6.5342556436 5.423071693 5.7862262009 5.8032203068 4.7154475609 5.0509798991 5.0533167322 4.0418005947 4.3810754686 
4.3349574179 3.3682925117 3.7574371892 3.7027641494 2.5609825601 2.9822571863 3.0298833284 2.0217061569 17.854115983 
17.794509196 1.7291149575 1.7546710349 1.6687498321 1.7000350607 2.0989804212 17.939606054 17.932767106 17.440654561 
17.021162868 17.795671204 17.761332072 18.148207015 30.672234234 30.718097846 30.383731695 30.289062255 1.597520117 
1.6347642896 2.0192411357 1.5482607639 1.5744852535 1.949489327 1.5259691135 1.5313242966 1.8997598467 1.5173824976 
1.5226649355 1.8726905554 1.5208837625 1.5209221872 1.8681374106 1.5054142844 1.5168566004 1.8642185445 1.4819639712 
1.4977543386 1.8498609867 1.4519911875 1.4649865884 1.8230665346 1.4460658273 1.4420496924 1.7949487784 1.4540196924 
1.4513991008 1.7906971391 1.4853392802 1.4663916927 1.8101441592 1.5297296342 1.5088466331 1.849301892 1.5364790869 
1.5405701937 1.8880420714 1.5443820266 1.5416893637 1.9089960443 1.5581717803 1.546449098 1.9232941919 1.5850231055 
1.5532204572 1.9297030492 1.7142987653 1.640235542 1.9914432724 1.9347255153 1.8640394686 2.2137094384 1.9389524427 
1.9028838163 2.3650210761 2.3537316566 5.275491073 4.9004110306 4.5516398942 17.691112552 17.680000673 17.667623808 
17.639584491 18.058264931 17.621610179 17.595465871 18.023574902 17.575977439 17.557431047 17.982374213 17.524831116 
17.523598669 17.927953725 17.529875628 17.539660776 17.900868564 17.563782127 17.570982375 17.9318796 17.583921354 
17.592725047 17.970686053 17.591262732 17.615119277 17.984841343 17.649205331 17.683230063 18.020858864 29.822512835 
30.161967531 29.656858847 14.04919541 14.032947073 14.014701559 14.010716199 13.60364262 14.027895732 14.028830593 
13.602783198 14.053824681 14.049577051 13.646230835 14.046706276 14.057775188 13.669462847 14.029898491 14.026681804 
13.638824839 14.023970343 14.026945841 13.607930764 14.044209878 14.049592216 13.622030706 14.062032639 14.075933979 
13.650741991 14.085900511 14.085778256 13.672036044 14.096002917 14.089951118 13.726922109 13.692623094 2.7825456609 
17.735489913 17.707754432 18.090198858 14.10831327 14.089055769 13.663390252 13.76183851 30.816197323 2.121929055 
30.521807573 30.528815999 30.907631505 30.912218238 2.8156242675 16.967808015 17.373479477 18.092149633 18.025401734 
13.733238209 14.044989919 5.3211087578 15.344615153 15.187641469 14.842143169 14.649961557 16.577050187 16.21987774 
17.980465346 17.626578631 16.943682601 15.566989774 15.962821676 17.403105738 30.377763117 18.331462204 17.914496059 
18.31594053 17.913285642 18.32903618 17.874350815 18.131862161 16.036119974 14.676962334 14.393226081 16.636334986 
14.201297229 30.813854742 17.829567644 15.206899852 14.808416582 18.124592462 17.749665562 17.813174131 14.106427627 
13.834957605 14.007621177 1.7437141777 1.8748435988 18.086087907 2.3822101988 2.1381103281 29.840695924 29.863064735 
29.546351195 29.577961185 29.506784418 29.521100362 29.079941035 29.508462653 29.511787858 29.059068472 29.524720085 
29.51641983 29.07160458 29.546543615 29.538244662 29.093085863 29.563084681 29.550368954 29.110669722 29.581468443 
29.569855845 29.121554537 29.62746608 29.60200354 29.149420629 29.666067299 29.65235972 29.195609313 29.716350954 
29.695863896 29.251173192 29.797424758 29.756786929 29.322430604 29.900729374 29.848107825 29.414728878 30.023805143 
29.968662327 29.534440891 30.180411899 30.11543004 29.695020624 30.295317699 14.037214327 14.474220478 30.514387704 
4.6201008013 4.2192866768 13.428712265 13.416903416 5.3709915718 4.9940043621 4.6795206209 3.7812020602 3.3409609498 
3.8659576726 15.758583716 15.365206893 6.8381225825 6.4787485637 6.1180426096 5.7435133603 5.4337304776 6.1781543814 
8.3743757021 8.0437224863 8.6714712168 15.814800836 15.806048447 9.4290458404 9.0992136563 8.7123108943 10.141830062 
9.7916872987 9.5153334102 10.836169832 10.504953689 10.252067185 11.513830491 11.177657585 10.965938911 12.228934589 
11.888749577 11.69058728 13.000347258 12.651965215 12.497851742 16.705806007 2.6018621743 2.8482976385 3.2235547639 
17.243881745 16.839558076 18.804489625 18.448070154 21.073974424 20.70594411 21.755686765 21.397596771 21.159690191 
22.486430022 22.125936788 21.855114234 23.209589898 22.854178916 22.59525258 23.97178462 23.595729315 23.351552158 
24.695618467 24.340129966 24.108433225 25.438600162 25.064723813 24.848279933 26.199602375 25.82183525 25.602831763 
26.959032808 26.584010567 26.372507167 27.70973497 27.335039255 27.134751464 28.48662899 28.099128345 27.901668816 
29.302622513 28.891310548 28.697044355 30.166153986 29.7086254 30.263978066 16.107907964 2.5876462267 19.589718963 
19.232711289 18.907353558 17.729439041 13.591114005 13.511388784 27.93024406 28.325764912 27.168559308 27.529666181 
27.744183112 26.427898439 26.796268679 26.969774324 25.654332145 26.033786313 26.201697864 24.897851938 25.274042324 
25.425287638 24.199465483 24.539278036 24.684294046 23.483096792 23.839116652 23.963132602 22.756871317 23.115136222 
23.232704423 22.054699876 22.394180946 22.500053793 21.358090782 21.713921112 21.795111065 20.609113611 20.983221957 
21.078536813 19.866550336 20.214540671 20.308980826 19.164324874 19.499712023 19.549648765 16.441295913 15.681824104 
16.017633114 14.244135002 14.624700396 13.188364575 13.511419271 12.455855944 12.781389378 13.041298165 11.757178953 
12.09635772 12.272434582 11.060637866 11.403055726 11.554357992 10.362437258 10.711523535 10.84382032 9.6589538722 
10.010478224 10.133447483 8.9950147472 9.3246309239 9.4378701632 8.3320623222 8.6642467644 8.7636145226 7.6477797329 
7.9852501339 8.0763559952 6.943912723 7.2935639493 7.3661842471 6.2234488378 6.5878446118 6.6465569293 5.4609511427 
5.8385007267 5.8965796014 4.6509121766 5.0334119981 5.0764413163 3.9207418093 4.2662124777 4.2562358827 3.5211165459 
18.764443017 18.743182128 18.715389353 18.540647098 19.143602819 2.5218168014 2.5714524608 2.3766861349 2.4260218123 
2.8855518233 13.153282663 13.134594688 2.2563469569 2.2656322519 2.2615279794 2.2623481893 2.657393552 2.2473662336 
2.2545988148 2.6523076095 2.2310205174 2.241108753 2.6359772451 2.2059135371 2.2247621178 2.621169204 2.182483279 
2.1929053895 2.600636689 2.1627157136 2.1562343033 2.5606436272 2.1869315176 2.1720355406 2.5441963485 2.253308879 
2.2256115436 2.5947449203 2.303315403 2.2879602575 2.6721824997 2.3447472664 2.3330053325 2.7414017835 2.3482758955 
2.3374103815 2.7703228098 2.3359206346 2.3305491259 2.7527391603 2.3519657949 2.2822946994 2.6900361332 2.8118888827 
15.004519599 18.504286044 18.48484637 18.475677368 18.458814444 18.881935947 29.646833788 29.697186399 29.174885115 
18.546881525 18.528151827 18.914165284 18.466354895 18.444045537 18.879443307 18.450343438 18.427877077 18.890973169 
18.394872841 18.360396661 18.862754971 18.256323359 18.262802346 18.724246773 18.34698586 18.372341395 18.704146965 
18.395879803 18.411288132 18.813088699 18.393321008 18.394954821 18.819875862 18.417461479 18.455840994 18.825321154 
29.541338149 29.90243878 29.775118843 29.806920418 29.434992016 29.322369732 2.2694470191 2.2956427062 2.6609829332 
13.121968914 13.140140627 12.670518763 13.170369108 13.197033062 12.686557761 13.312835073 13.31069604 12.833844904 
13.202360842 13.174028269 12.841606437 13.152000875 13.148844598 12.709881619 13.165263946 13.181899023 12.704264872 
13.224990454 13.23621922 12.764413559 13.268130134 13.277130334 12.840374773 7.5997235272 7.2504618824 6.9648383028 
7.8316581557 28.744080016 29.139954089 29.385235798 20.356240964 19.990966712 20.486017445 18.120705841 17.635816125 
18.05149232 2.301627091 2.3360712517 2.7353359924 18.55474727 2.9072617938 30.17985865 13.363532567 13.044047887 
13.333106739 13.733342525 18.752267039 19.173009906 15.317316193 18.739562663 30.03653969 29.771423811 29.974794144 
13.01499432 13.315334838 3.0191086989 13.424573149 16.296776146 18.940680838 17.537572986 29.508952582 19.735034113 
18.25035005 13.467802781 28.564451451 19.18381871 18.744289304 13.815037369 13.875702232 18.562133181 18.882342208 
17.89485252 18.212767132 2.6788618983 13.348535271 3.46422899 12.881698959 13.284152047 13.296463638 29.482790164 
29.875971883 29.909875293 13.199968583 12.733932991 13.243004738 2.654922619 2.487086608 2.7773040105 3.1659169408 
18.920772937 18.527785932 18.595720787 13.580556695 13.386466721 13.322589438 12.867836609 13.084938051 18.275672491 
19.3294236 19.309512796 28.563019742 28.58912524 28.650154677 28.636535169 28.669116885 28.665006335 28.206614236 
28.649118743 28.642043915 28.194842452 28.681817618 28.660623786 28.179699043 28.74634685 28.720522741 28.230787564 
28.8183921 28.787666754 28.311844741 28.905776816 28.864244474 28.400433395 29.01971163 28.967880934 28.509811653 
29.170296332 29.101288177 28.654904001 29.292684335 3.4258716342 3.9953356147 3.5597204153 3.3099190592 3.4315878419 
3.8560052175 9.6246943018 9.2509166954 15.799349309 15.793237894 10.386593322 10.013327943 9.7590050266 11.102131192 
10.752173098 10.523307062 11.832684962 11.448878554 11.244258947 19.614377846 19.619798256 28.578163316 28.570256285 
28.133303039 28.553766723 28.549334978 28.058421208 29.364454964 21.061074481 20.736767205 23.477304566 23.088638068 
24.245319154 23.874572577 23.613876635 24.995819877 24.62440821 24.392792815 25.777304219 25.391939425 25.170350252 
26.552922452 26.166465807 25.957891571 27.319113377 26.94139258 26.737367822 28.120266905 27.729350137 27.537834369 
28.947428204 28.54136834 28.370877082 29.210296842 19.949888725 19.548433155 19.352884902 12.083085788 12.446334586 
26.011564087 26.407576669 26.812734882 27.186583101 26.624516779 19.547931461 27.598052057 28.000158136 27.442606764 
25.224434758 25.606849647 25.812621416 24.456846063 24.817565901 24.998867294 23.728767369 24.091380457 24.224346813 
22.964489359 23.334677903 23.462402387 22.220994923 22.585593333 22.686687276 21.531345149 21.873457338 21.957897637 
20.817547965 21.193084318 21.270101349 19.989522461 20.383843631 18.904344295 3.0781127675 3.0931086822 12.77991402 
13.188839509 13.326944546 12.596625303 10.6301371 10.987704837 9.8843680388 10.246407233 10.389966631 9.2149102793 
9.5580385742 9.6686863314 8.541540887 8.88189176 9.002856778 7.8532382776 8.2094847833 8.3285471 7.1208447065 
7.483703693 7.6210874642 6.378672787 6.7435245572 6.8672113908 5.5871875343 5.980440499 6.0841491488 4.715325262 
5.1494176254 5.2415702726 4.2468316768 3.0501153621 3.0590581246 3.1035726058 3.1145277609 3.5245500421 13.07065742 
3.3184060917 11.383741969 11.744141698 11.92056356 11.179556552 22.686666475 22.316608982 22.811840534 3.0941989347 
3.0931859985 3.5527407172 3.0438504992 3.0518249199 3.4790506458 3.0610949014 3.0751184223 3.5113857065 3.0133871145 
3.0400582982 3.5213210883 2.9089096724 2.8979673372 3.3832631843 3.0314707238 2.9892367176 3.3484481811 3.1237193757 
3.0847341092 3.4854617262 3.2267498283 3.1910088371 3.6104010546 3.2411812753 3.2417051578 3.6977641427 3.1903378511 
3.1994065267 3.6765670258 3.0804745726 3.124251558 3.5771558697 19.293061249 19.283184759 19.704485972 28.659033474 
28.728797464 28.141133942 21.878690489 21.506406192 21.968792455 19.330193551 19.335588006 19.736726683 18.465275752 
8.8715097437 8.4302923984 8.1469669142 7.9813800905 8.9797898607 19.38479554 19.389241673 19.832168534 19.383027881 
19.348919419 19.874810914 19.246118702 19.141328803 19.765698011 19.225803573 15.788490534 15.783628726 19.281843404 
19.30612341 19.718807184 19.29930735 19.282709527 19.767353042 19.20926866 19.233425432 19.687797611 18.646266349 
18.698947696 19.126665222 19.041195951 28.44087173 28.860409871 12.150647242 12.134955092 12.125477026 12.155140176 
11.601409467 12.295212314 12.413336347 11.729829629 12.302763008 15.780633597 15.778705407 12.26312542 12.240504623 
11.829870475 12.204197065 12.221059056 11.753527842 12.266857094 12.311123652 11.764262544 12.441562362 12.474722975 
11.943476895 3.0644279961 3.0756997745 3.4869919253 3.5074681515 19.370710412 19.372914044 19.761526196 19.781856624 
21.082197667 28.056360678 29.561973252 12.711854088 12.617103601 12.181349837 4.7136499105 4.3343739892 4.0401740753 
19.728384055 19.347672991 19.418611515 5.4633433715 5.0813405654 4.7500951116 15.778838031 15.778726789 7.5289236705 
19.568702086 20.02036694 12.931669771 3.0581155983 3.1105016654 3.6403428472 20.496760309 28.296189078 3.4617478893 
28.344525205 28.860850862 28.9398003 4.332073957 12.427949438 12.439080496 12.029952003 19.536600112 29.025414231 
29.039497179 12.283122459 12.230536918 11.697414732 7.0261098297 6.6026216701 7.1855224312 6.1240441782 5.7496990308 
6.1923207615 3.2202611345 12.76150652 12.620292926 29.090162615 29.124858264 28.679983901 20.385952345 20.198104476 
15.782606659 15.784597236 12.633072669 12.618615873 27.736447701 27.696575205 27.815188002 27.7723475 27.237512919 
27.946767134 27.899377159 27.359766003 28.105266604 28.041668084 27.540950289 28.213023585 20.326871107 20.375156433 
10.721818912 10.347086668 12.548469447 12.212745943 12.502676652 28.686791019 29.143971834 9.8877718442 9.4884781217 
10.088204969 11.947795478 3.6038312046 27.506055298 27.489745656 24.547719969 24.166189838 27.469761788 27.484646591 
26.91482369 23.760772816 23.360812704 23.916528565 26.141981553 25.750739209 26.932669942 26.542491131 26.338557725 
27.77270269 27.360755713 27.168327984 24.784989015 25.194150136 22.952673571 22.547689779 23.099842947 25.62342161 
26.030188221 25.412352918 20.449882201 20.886239692 20.410421443 27.332890807 27.745689083 24.010701335 24.37843577 
24.574260674 23.18634939 23.583173967 23.737476151 22.389852258 22.771396649 22.891792704 21.628645968 21.978372461 
22.061764661 21.225910051 21.135561517 20.686882588 12.480238605 12.39007876 12.153409609 25.352693893 24.954212832 
24.731086468 27.624287201 27.565590613 26.99449775 8.9469064037 9.2856842376 10.145431291 10.539364691 7.9821604719 
8.3249142509 8.6145902961 7.6089036262 15.788431365 15.79365566 6.6512198668 7.0357710671 7.4086545056 5.7960944668 
6.2010915385 6.3777250471 4.9353998327 5.3783556913 5.5036536379 3.9953177052 4.043992839 4.0386906853 4.0071727141 
3.8192471357 4.0296856218 4.4980566648 3.8452284883 3.8770064895 3.8767484895 4.3976495196 4.4087719127 4.1442564972 
4.1277519277 4.6212258393 3.8884896464 3.8051717656 3.9294659922 3.8732321353 4.3348018448 4.137118598 4.0652562342 
4.4563862793 4.2210036189 4.2010281795 4.6593557426 20.069462956 20.055401125 11.491190233 11.13706045 10.972384465 
11.851600221 27.472419577 27.544415516 26.884628064 27.677862567 27.665717631 27.181268982 22.09428428 21.653219002 
22.23445976 20.168198191 20.215302276 20.7551653 20.529529008 9.6225017215 9.7697595151 15.800298032 15.808708142 
20.457043472 20.449991396 20.947908332 20.420790171 20.31752727 20.999836339 15.824790777 15.837600359 15.849177301 
15.860900774 20.250797694 20.306528589 20.90336421 20.29853794 20.292560595 20.828501196 20.239803683 20.168286916 
20.768612921 19.459452082 19.5050281 19.880454541 19.948183869 11.007627749 11.147597966 15.862339657 11.383294847 
11.342722625 10.656647273 11.244426323 11.208558505 10.794361422 11.201061569 11.249448263 10.689846777 11.41214517 
11.545908194 10.850287659 3.9458094546 27.668324106 27.695123298 27.164311115 4.4335833361 4.0078085474 4.0644314708 
4.8032459694 27.77262429 27.757519573 27.188009547 27.18084539 27.848735451 27.982508898 11.751349179 28.264190321 
12.277450294 20.377020542 20.402666834 20.834808014 20.279638197 11.936019325 9.1479728488 9.019745302 8.6292774203 
27.244093961 28.628231184 25.538144324 20.269845038 20.232304958 28.089509918 12.053329279 4.5016635356 3.9041790266 
3.8805291117 26.477812551 26.884656028 26.291165807 27.188481638 21.244082894 11.817294691 11.66117792 21.259229266 
4.0813961819 4.5834612993 4.0601849061 11.45156588 11.893443467 8.1808475299 8.2893087983 7.7907806723 20.578316665 
20.221293697 10.814801434 11.047368685 4.6446125507 11.503003899 11.206615406 11.118677234 7.2629342786 6.7477598689 
7.3695445508 6.2250407265 5.7376706338 6.3068336249 3.9224390451 4.4879672107 4.1848397177 4.2193871122 4.72550566 
4.6099873753 11.013197499 10.998527983 10.413137323 28.393520733 28.294225855 27.800922777 28.241501131 3.8929143349 
3.902496024 4.2923720048 10.517278258 4.2539075039 26.775330493 26.737400561 9.7608376762 9.7642152813 21.00417392 
20.846646447 21.526674849 26.480067539 26.4197922 5.1233636678 5.2276996132 24.086544542 23.678455413 27.401743654 
26.972339796 27.607317534 26.612544896 26.211050407 26.84813405 23.465253412 23.895721329 25.242362411 25.673568704 
24.347604782 24.756544038 24.079610725 11.494964972 11.377222966 10.804400501 11.153735467 6.9858566622 7.5669186069 
10.634824559 11.631099185 11.262746218 10.839740451 11.55855254 23.173322958 22.761339379 23.345966778 7.5705875067 
7.9804509088 4.6931301328 6.0083726276 6.4644928014 6.6297728523 5.1142797747 5.5369637097 5.6310136008 4.732945842 
9.9319765717 9.8166795632 9.1684864959 5.2659158204 5.1990345903 5.0413143391 4.9035984864 5.645697325 4.916833122 
21.240499334 21.287406664 21.695885321 24.912018825 24.503006866 24.269420573 26.705595449 26.570663665 25.994132572 
22.571659453 22.989993345 23.149185335 26.641692988 26.621711968 26.17666554 22.400315819 21.943068793 21.69273113 
25.76789214 25.367429647 25.143756369 26.045792367 21.759460025 21.72916571 15.81579232 21.574054931 21.506883273 
22.328498943 21.356202562 21.348426053 22.023075152 21.509346315 21.456897837 22.032486486 20.337091211 20.373650851 
20.827558797 20.771671809 9.0850850916 9.7432683421 27.091594406 26.61128045 26.965210483 10.105494484 10.100518511 
10.127965562 10.297766974 9.5419192286 26.878835315 20.959135941 26.268407185 26.258855666 5.4111026371 9.34366191 
8.8634541609 26.346453094 26.327422877 25.697030381 5.9144340088 5.4129471741 10.416547342 10.23391159 9.5405018993 
9.3337041895 9.0184882768 10.074472043 4.7158342479 5.2546388621 5.2149603351 26.162076171 25.019375914 10.638057779 
10.343779556 9.8741836001 22.111098741 5.1023262646 11.07525518 21.482241795 21.562728913 22.288142503 27.746537751 
8.3956078493 9.0273697272 8.407144373 5.2504352021 9.3145968436 8.9464849359 8.6923188588 5.7884551328 22.473695895 
7.4539168407 6.914295454 9.6007435125 9.5372401257 25.995225409 21.267357232 21.879273978 21.156378603 8.1072590827 
7.6630781085 15.860119298 5.5966365612 5.0257366217 26.378530617 22.208774567 25.619175794 26.237164288 5.2752408745 
5.2322123677 26.62735073 4.9267368924 5.5322009125 4.8056876707 10.100935543 10.338915917 9.4222392706 10.239997603 
9.6462998893 26.573921171 26.576122407 26.031327294 21.468303411 15.930022143 15.856480423 15.862726349 22.028483938 
21.294306221 5.1653549439 5.8170307629 10.572599184 4.9366985703 15.850492159 15.845883233 5.6320180126 8.5795971576 
8.5160605941 25.828233803 24.615861412 24.198618056 23.867476157 24.321435322 6.3195057254 27.345842151 21.288229264 
25.888911723 23.617724279 23.110263229 23.968977714 6.4050300646 26.034129764 22.983085985 22.829391155 24.845034007 
25.332471913 25.718359129 24.637529753 6.4138922373 6.5250841423 15.89441507 15.887565767 21.804234167 22.269691297 
9.8557293055 4.9357134054 8.4168647127 8.3937146696 7.8209111377 25.02413893 24.966199558 22.833934909 23.312865522 
23.557484999 6.310168576 6.4950211401 22.253778124 21.887831684 26.987186737 8.2328951084 7.572594836 25.34294355 
25.2692009 7.0163880678 7.4427307928 7.4207008751 6.8241101496 6.2459931848 25.341375593 25.392156872 24.417282857 
25.094485607 24.533908908 8.1103932047 7.8131409265 22.465029787 22.742168192 25.394726707 25.302263519 24.739258746 
25.075947397 25.61984209 23.389791055 22.934351935 23.837155758 7.9558858073 8.6109027278 8.8314339855 8.8640760427 
25.478186993 25.428539802 24.783948035 25.016121313 7.4046862115 6.8625392063 6.1066904004 7.4375214172 22.434739339 
15.899261278 6.1697441817 6.7472564776 6.2151497047 22.597294866 22.938899425 23.338306483 6.2674111092 5.9730291483 
9.1430921412 9.0077635237 8.3229045862 15.920582012 15.911507353 7.2679534915 22.734776749 23.478933884 7.6345985931 
8.4840279387 24.697118789 24.491835277 15.879473561 15.873412516 22.727323323 22.578617969 23.377889833 7.165453804 
26.679610607 23.990076652 23.99098212 24.09077589 24.188059349 24.278298842 15.866270367 15.860926354 23.895196138 
6.921867346 24.132413638 8.7818092054 15.854600282 15.850938201 23.883037766 15.847957079 15.845821818 21.347679394 
15.843944513 15.843038954 32.367388804 0.83754932555 32.002621133 31.621428508 31.223733613 30.892536412 30.528642506 
30.165156926 29.81864858 29.489107899 29.143668555 28.749706406 28.372895176 28.029580001 27.686910757 27.345080956 
27.020228732 26.66357757 26.307817586 25.936778082 25.582648529 25.261482347 24.908805053 24.572885492 24.189691498 
23.82307859 23.48875777 23.154812332 22.503038091 22.153190658 21.786928437 21.451786957 21.115787056 20.76233369 
20.42316346 20.082120164 19.705810238 19.326318157 18.976693694 18.607106102 18.234210396 17.875365454 17.497085041 
17.117323393 16.737196594 16.358178555 15.96475063 15.592660415 15.242453501 14.897571398 14.527038472 14.163757796 
13.838549326 13.518910134 13.204646671 12.865687655 12.546122538 11.945798226 11.607490121 11.313653067 11.035310773 
10.716746695 10.399441639 10.110636704 9.7813116142 9.4936093865 9.219803759 8.9186631521 8.6310323845 8.2881385336 
7.9717340829 7.6956956864 7.1117271043 6.7885681827 6.4762707044 6.1746800703 5.8688889246 5.5432724521 5.225946678 
4.8697149628 4.5023253831 4.1383220352 3.7759980641 3.415598969 2.9755429744 2.5260012139 2.0736754553 22.820945526 
12.25870986 7.4184704634 1.5662643731 0.79529031562 32.359478888 31.99471989 1.5697687228 2.0934458396 2.6082133641 
3.0306345398 3.4477707431 3.8413960029 4.2172936166 4.5781620125 4.9272416039 5.2511337385 5.5827211161 5.9222049293 
6.2558727131 6.5563311531 6.8535936447 7.1901268591 7.4824135197 7.7731091831 8.1038621305 8.4197897945 8.7076244966 
9.0088519047 9.2962687259 9.5837887833 9.8715705737 10.159841126 10.462536862 10.752396114 11.0432776 11.335602903 
11.671801819 11.968220267 12.281321358 12.568863739 12.903570308 13.228265099 13.527889886 13.863037461 14.220148544 
14.568642861 14.891290727 15.252562263 15.603103947 15.958428314 16.334578352 16.696245214 17.058950113 17.421578117 
17.783035775 18.159476948 18.533027433 18.919934945 19.303059131 19.649767979 19.977455976 20.319043689 20.658647339 
21.044574308 21.396772464 21.731942615 22.082270562 22.416218321 22.749990124 23.099700089 23.417651623 23.736000652 
24.118319792 24.485448951 24.837150924 25.173566863 25.55887961 25.945213256 26.283924768 26.672082911 27.012465624 
27.353564547 27.711742834 28.070768112 28.397816675 28.758258035 29.102999254 29.448322096 29.794324349 30.140721083 
30.520779206 30.901256641 31.265545295 31.663242326 32.68245328 32.69226046 32.668774069 32.655287204 32.631173303 
32.608104936 32.585209659 32.561986477 32.540322178 32.516993582 32.495391359 32.474689999 32.454526987 32.434908462 
32.414285228 32.394889053 32.3769746 32.359436532 32.343463201 32.328515747 32.312449624 32.289556216 32.279016496 
32.269866146 32.263152929 32.258232467 32.254578172 32.252211556 32.251617143 32.252801868 32.25546862 32.259719137 
32.265350497 32.273265048 32.282102095 32.291623174 32.303405337 32.316955012 32.330927464 32.347064262 32.365805482 
32.383274677 32.401079654 32.420822293 32.441793071 32.461847015 32.482881509 32.505139193 32.527795587 32.549473583 
32.571484421 32.595063876 32.618207341 32.643584221 32.300445655 15.908742858 15.904966437 15.896875939 15.884022809 
15.876130903 15.867682147 15.859278996 15.853123585 15.847347526 15.843172738 15.838748212 15.836207602 15.834963772 
15.836912739 15.836053559 15.844151976 15.848499983 15.853594261 15.859300181 15.864757891 15.872697149 15.881994798 
15.890422731 15.898032682 15.907123443 15.921287783 15.916736521 15.841544811 15.842869954 15.870947002 15.887975835 
15.878748323 15.910832443 15.899807213 15.918271244 15.842939355 15.845518873 32.503715482 32.252359532 32.506074183 
32.417380529 15.860921124 15.859328831 15.866100501 15.88340169 15.875046096 15.867394846 15.844345413 15.873433823 
15.881937932 15.920777803 15.840557842 15.842627096 15.842396668 15.914593034 15.90689067 15.914603304 15.854577587 
3.7122405753 4.1160872766 4.0986251407 15.925816698 15.924603306 15.936084899 15.840747367 32.202008478 15.89096316 
15.848708887 15.853257703 15.874666549 15.182189363 15.257589327 14.910134324 15.850246819 15.892892677 15.869593211 
15.882012052 15.931295416 32.149417429 32.060926893 15.926373049 15.927519139 15.879417179 2.9757702832 15.867625617 
15.920211266 15.884842267 15.539341121 15.198218786 15.195458383 16.828642139 17.164637763 16.496234389 16.834358617 
5.774751404 5.4091072906 5.4297552051 6.1454006886 6.1251023971 13.233037499 12.825317637 12.971325349 15.217411061 
14.841709762 16.893370346 16.548472593 16.53518894 27.33947196 27.854673127 27.35950642 10.645081064 10.49732899 
10.301571187 2.6539414405 3.0726370077 3.0380562898 7.2235221218 6.9047654961 7.2534696013 29.079067058 29.424176141 
29.389273789 31.299123534 31.312410667 30.93194435 30.944813345 29.032699543 28.60613491 28.795443266 23.919723281 
23.772868962 23.545336725 29.284486787 29.736837405 29.290778104 29.743513633 3.299036424 2.8817315324 3.3100326735 
2.8858204596 31.651961093 30.534735381 30.543021313 30.157148121 30.16499259 26.258031924 26.828300373 25.930285935 
26.499626948 5.4554645647 5.8208219943 5.4866259424 26.369436413 26.220569255 25.973410268 25.825680426 10.305223376 
10.868334797 10.103991457 10.673990423 28.009270048 28.180692249 28.430861331 4.7616371698 4.7633527655 4.3784016118 
4.3719216894 31.003195693 31.368574241 30.990745012 31.35693249 0.19690455645 32.053075685 32.037471987 30.846214262 
30.709753304 30.745439684 30.609086096 5.714220527 6.027844645 5.6782573783 28.081498303 28.286618633 27.582736921 
27.787911167 27.388180434 10.389751311 10.058967816 10.273832168 32.020522757 31.678619788 30.071295138 29.67848047 
30.071931477 18.852491061 18.904616597 18.458908524 18.517064297 2.9575602187 3.3644633381 2.9656475148 3.3470187206 
1.40884778 1.7714232806 1.7961956898 28.598634601 28.212195328 28.447115395 1.9835473046 1.9643023841 2.5108342248 
30.459217879 30.458860714 26.028177373 26.513243178 25.937001038 17.549510806 17.556601396 17.943760721 27.126531663 
27.124303586 31.499067863 31.537919464 31.807639865 31.845852592 31.454563522 26.752970959 26.379235127 26.511300291 
9.6079079726 9.8182725181 9.9535790754 18.309482431 6.4695847014 6.5767119932 6.6435322824 6.2979340845 1.1614655359 
1.5324342426 1.5039348935 1.8801653144 20.562472364 20.784100323 20.914482867 17.554763773 17.701916812 17.346972296 
31.142136989 31.187339324 31.289593504 31.642007151 19.162049291 18.800590458 18.921600825 21.975570699 21.604676339 
22.079319472 21.706965705 17.215462382 17.586110384 17.210385733 29.825210843 29.791600587 15.242746975 15.19928493 
15.51213859 32.069082018 31.755756022 31.739084324 16.168595839 17.238394943 17.61986492 17.23396988 25.068003337 
24.906332281 25.440003505 25.276840286 30.445698843 30.390302015 30.227106717 21.280343364 21.784071529 20.75922083 
21.264547833 29.340845375 29.506609073 29.70147896 15.53525524 15.196659057 15.533604093 28.577291284 28.377875091 
28.756483087 28.556872778 18.010234419 17.997833684 18.47090354 18.183628551 18.532524253 28.99749604 29.378053335 
29.038769111 29.418387846 0.49406640501 0.79806504065 0.48736138098 18.245820265 17.831957623 18.228203482 25.190623544 
24.846317054 25.093256813 17.59138352 13.668005641 13.277040039 13.654069872 13.589831591 13.137550718 13.635919357 
7.536567146 7.6119347457 21.014364897 20.892183052 20.640273384 20.518057936 12.341853311 12.650548605 12.441016324 
20.16202592 20.248560737 19.8130936 19.900492528 15.011315406 14.80850045 14.665973879 6.2370589113 6.0936500558 
6.6797634625 6.5436219309 0.2492206878 20.198476953 20.632707891 20.224843 20.660594872 28.739363592 29.208500408 
28.769387458 26.764058074 26.575721773 26.180148403 5.4168763812 5.068676518 5.452720072 5.095065273 3.0261950239 
3.0483550467 3.4201364412 3.7042660817 15.21928096 14.848817521 14.824358893 17.238812523 16.879140263 22.743750576 
22.479788557 22.838628365 21.627229716 21.748949424 21.99171535 13.200323438 13.083434237 12.878145158 31.245929365 
31.22707101 31.587794918 12.760712505 12.870614807 13.091329112 12.98191079 14.783038448 14.671174834 14.419421196 
1.2027517724 0.85283933572 1.1808108078 15.239391947 14.888269641 15.142636179 30.228068089 30.611213701 30.632068725 
31.598561553 6.4824698188 6.8402698952 6.7991418396 6.1365412965 7.7836390761 7.8383969228 7.4544726728 7.5113765696 
6.7831498069 6.4595931523 6.4621697621 6.1298533401 6.4749580846 6.1492520273 6.1278875457 19.62649468 19.98973717 
19.74661025 5.0550235419 4.6980085906 5.0801356317 6.794636286 6.7871057187 23.309337082 23.183283592 27.828558474 
28.294820347 27.815423069 28.280275106 16.430002555 16.773596215 16.683145212 17.018080699 17.429007409 17.077493825 
5.8055998225 5.8028350832 5.4442480483 23.1552262 23.272618728 23.490609688 23.609333416 7.9645679945 7.7057161976 
7.6409141377 15.00119535 14.65433278 12.332641273 12.789044002 12.336334682 15.324316129 15.548215835 15.015166703 
15.231106021 5.7621902396 5.0644279254 5.4673453138 31.54105315 31.494882025 31.227635465 31.181041874 1.0925666659 
1.4179819858 1.4310215901 1.7623449974 30.197023942 29.823608831 30.161880745 30.240002513 21.86632423 12.211491998 
12.712017576 12.319486633 29.058332274 29.369749723 4.3724128474 4.0331640051 3.9848810313 3.642308944 14.670224129 
14.722844577 14.349237902 15.585152954 15.254416276 15.234312096 8.3590577773 8.1089790268 8.0319951059 30.175847479 
30.189886177 30.56777148 0.24323699561 0.22532293992 14.421487297 14.15608134 14.033593387 0.19882887483 0.48906286232 
1.1624750989 1.1485695493 1.5190840394 13.752583873 13.635013447 0.52381046099 0.21112332298 0.52298640642 2.3362572904 
2.7313126491 2.3774088048 2.7763271313 31.93277481 31.587073446 31.598474112 17.746815137 17.799756496 18.101093554 
18.143783151 3.3676106143 3.33681388 3.9304300939 3.8990564119 17.403772623 17.357751281 10.560439801 10.87875035 
10.643834496 32.440353612 11.11966086 11.191017804 17.108750327 16.695076753 16.192077816 13.657218979 13.64052869 
13.213558391 6.4775749452 16.180661632 32.01032005 16.504579248 16.482552516 16.841900911 0.48899800689 2.6304030746 
2.2499273956 2.2230825727 1.8487642486 29.237098679 28.867529836 29.044031802 28.674186001 22.829331283 22.954109632 
2.662690607 25.774406232 16.523234964 16.512063142 16.197602072 28.336530612 28.376379948 27.894182188 8.119535938 
8.4451745307 8.4193993389 5.1341635159 5.1759881761 4.7624818962 4.8097448221 14.832321493 15.195187905 15.198042493 
18.970378329 18.907757601 19.326286468 17.177785502 16.819033615 17.04939163 16.689864265 15.24030105 15.577538465 
15.225927192 15.519531478 15.187886535 15.525796887 14.819023574 6.925799244 6.6307275799 6.5688939746 32.092168852 
14.873405171 14.996485891 13.934909138 13.54299629 13.782366022 14.984443948 15.386864791 14.771188485 15.159552154 
12.006941979 11.822846248 11.684360442 9.6360226448 9.6359914889 8.967803558 9.0845005494 1.8481704448 1.8402686538 
2.2327403388 12.548306704 12.709121932 12.413760248 23.633802772 23.385282011 23.285601984 10.875499571 10.467450724 
10.999323757 28.835609462 28.831000817 29.216658952 29.21277992 25.378945589 25.578925979 25.196600924 15.492276694 
21.165360997 21.532390288 21.287780855 21.654247207 21.410526121 30.076233599 29.655489612 29.747372714 27.329088877 
27.567443454 27.443938115 27.682945201 30.230009264 30.537860917 30.609042016 14.075443732 14.458160246 14.084570873 
30.826029081 18.605331799 19.024961505 19.014487143 0.81309964941 0.49059206085 0.49973071119 29.15065981 29.528855859 
29.219657203 29.597016843 11.056019174 10.839126781 10.689213638 10.467343927 30.423409064 30.473412686 32.200702612 
15.713934337 18.661723565 31.895367705 31.8552651 26.018415839 25.545735327 25.832305851 25.360494581 30.86899595 
31.022743647 30.567053822 30.720284925 15.900658413 15.752734149 16.108885343 30.799813917 30.854376392 31.46888147 
31.823486808 31.788756799 10.44301033 10.007383711 9.7254814365 6.7876533896 7.0545764008 7.1102181348 19.037832421 
18.679721248 18.913096675 18.552490943 20.934989786 20.690458207 21.058372917 18.591697186 0.53035307394 0.5306530959 
20.124846715 19.769419163 19.841542025 20.722848397 20.445049309 20.794274122 9.6244291398 9.4207897628 9.3214054878 
30.018644961 30.427370188 0.20468685028 0.51709822225 0.21822558799 13.68372486 13.507586745 13.84448162 25.756498536 
25.522313522 25.914115061 11.192619524 11.520967428 11.320330226 11.64649324 28.786895155 28.909643567 21.35155431 
21.730865016 21.32936326 24.130201714 23.99266088 25.083624899 24.393621753 24.921863026 29.679460891 17.309054797 
17.67110556 17.5117809 10.309791108 10.047570477 9.9829235848 13.012394404 13.157246762 12.837422017 12.870661896 
13.072267006 13.196558537 22.107484922 30.510942451 30.721154183 30.957076295 31.020565819 31.256623964 26.419514197 
26.787894672 26.588446727 3.0958275613 3.0623139745 3.5504280631 19.986531965 19.626759032 19.743197392 18.230526637 
18.2098002 22.047698643 22.400185334 21.963121416 22.314539871 15.622261313 23.696797921 23.545174511 23.88786152 
28.912782001 29.080770967 28.724431628 29.977142391 29.91220379 30.325203731 16.235798139 16.216115108 30.593391048 
11.557190771 11.748680862 11.43341657 28.3171999 28.494019213 27.88883638 28.023776901 27.673027095 28.882213364 
28.526467613 14.140633121 13.835343805 14.004288937 5.7057255585 5.5513872046 6.3056715419 0.22202331149 2.2265528048 
2.6582805817 22.291539699 22.877019823 22.101320769 22.687111985 27.408171857 27.037559184 27.26499105 26.895298169 
12.722609588 13.187775707 26.958158774 26.60387281 26.823247266 20.213636777 20.432751057 20.094855622 30.588668286 
30.490499047 1.8359834448 1.4883079459 30.458806159 30.049702426 30.442885169 30.034515013 32.008978023 31.784159219 
31.750485786 31.525543831 1.0300731555 1.3705414495 1.3945440361 9.1407850859 9.5155553461 9.0249467286 9.3958760953 
30.68673518 30.327615912 30.518372204 30.159611505 10.775369354 10.985240223 10.628220314 12.315835333 12.271825949 
12.786883479 12.743523913 31.226096069 30.826957291 31.218954402 30.818910641 16.153056156 9.1859294002 8.9027063788 
8.9686469044 8.6767156117 9.9001280756 10.238142411 10.717147901 11.033368616 10.959867233 32.071268405 31.716866373 
6.9470693335 7.5185604338 7.3365139828 7.9020800043 18.528175202 18.794454926 18.881371169 31.374295345 31.379998241 
31.729836049 14.830618747 14.452870853 1.6520954479 2.0518838803 2.0173384455 13.295662326 12.973134289 1.4571921387 
0.99461449017 1.4263677801 8.5298546427 15.490619001 15.154406472 15.272651785 19.034754247 19.39728256 18.967193849 
19.331698516 22.973256466 23.075599152 23.343138597 19.583232834 19.581599638 19.949088547 20.095581277 19.735141707 
16.664036346 17.057943668 17.015643952 9.5317440738 31.931784476 31.972875953 32.258884366 18.884455491 18.805470516 
9.3435076123 9.012143759 9.1401116198 8.7988896155 22.523128098 21.837096433 22.674192101 21.987716812 30.95876067 
30.933978985 9.2387872109 8.3583393623 8.3903722057 9.5932204251 9.984856839 9.8510626677 1.1025008862 1.4384971007 
1.0896939748 3.3395415749 3.1293358736 2.8047043091 16.210592643 16.21738072 16.554433632 13.500187481 13.66682365 
13.836657605 31.98163236 31.960233702 31.711284155 31.689873682 0.23250077897 11.398552048 11.191788303 19.15406649 
19.239137439 13.186778987 13.607124904 13.607931883 11.267014558 11.355770935 11.576494414 18.109104173 1.9347797436 
1.5736814757 1.9484757474 1.5275334887 1.9739592648 2.0534234857 3.715208914 3.3613911599 4.0012103814 3.6569875293 
15.395496698 3.0997265082 28.952059911 1.8703409459 1.5078919863 1.8886210532 15.530421375 15.191349418 15.187499785 
4.9191474599 5.2450585469 5.2642638868 2.3152527341 29.189023358 1.8465081593 1.8405716708 2.2312604052 0.56992473962 
0.55762109406 2.8622937407 2.8884482959 3.3479999413 20.924250255 21.248145317 21.162224672 22.939620306 22.267238165 
22.300092618 21.87598721 22.231246594 22.110286066 0.20180300383 1.1223317783 0.81620850668 1.1320022935 3.3921316528 
3.3956000535 3.8173949052 1.1347971841 1.4963539486 1.4730529414 0.85013118129 0.53467814296 1.177556104 0.86033806478 
18.576204159 18.967955595 19.004452808 26.451856524 1.8800201739 14.777828018 14.523196301 16.520183117 16.197442358 
16.527557417 25.328976151 25.588559816 25.065492109 25.327643523 16.900379269 16.538052931 23.590749271 23.926754634 
23.687587578 0.54206865134 2.5988984253 3.0481823731 2.6353690331 17.16914347 22.575003317 23.974920603 23.881810283 
16.506199887 16.169875495 16.502298616 16.162399614 14.391275363 14.242966424 14.617340946 14.163302641 14.30747538 
4.4363019512 3.9312783457 4.4387397976 2.4014192651 2.0179587604 1.9812910608 12.87008821 1.2513810471 1.2750313005 
1.6210444198 5.8699840896 6.1699969086 6.3870690215 6.6817844944 14.836267835 19.649628826 19.664291566 20.125376584 
13.693653617 13.703718579 13.252965698 12.979376003 13.34129994 12.890209149 15.522668227 14.468789648 14.458252087 
14.836883862 14.074755176 1.7744840488 1.4297789932 1.7879152527 14.438613111 14.444099357 14.061501284 14.066121131 
14.437775127 14.815826942 14.438266426 5.9829059276 6.4900932866 13.229845595 13.258234538 13.668638893 13.697101382 
15.540399637 15.203731687 15.548814466 0.51247105232 0.51285952737 0.83119898914 30.941733263 12.928887715 13.317000478 
13.32902679 13.719867576 17.322422286 16.965274923 28.523454071 27.312473461 27.712920273 29.101856513 28.750324795 
28.644620783 5.2040591869 5.5092902942 5.2069881315 5.5023880852 30.623278494 30.36458247 30.267278002 16.507801037 
16.849908952 16.507512079 16.52094559 16.177376058 23.254432512 23.349694458 26.903070106 26.823510955 13.582808144 
13.520655422 31.22395566 30.841896213 31.220371587 26.839989205 26.803596804 26.297794966 26.263104751 6.8594534245 
6.5068218105 28.809200055 28.425834751 28.292799539 28.672416967 28.574260395 29.017804102 2.5681397188 2.8361049204 
5.5937128569 5.906635798 5.9985263016 31.233459499 31.57614089 31.575281232 29.664383374 30.058192281 13.204222525 
13.634838337 13.627822493 28.755203863 28.321032493 28.673424693 28.238002604 29.120137266 28.81215454 29.226516886 
28.786577659 29.200287336 30.062979246 27.811305256 24.502011914 24.819142444 24.962107613 21.002072479 20.605860503 
20.555018569 29.068408211 3.0239558521 4.9342223445 4.5893706427 4.9239984219 9.1548965928 9.2484508238 8.9258448447 
9.0198856244 14.84862519 14.468532166 14.498906095 7.5162075422 7.6714720488 7.9665828107 4.8377692943 3.5304089654 
3.9926911236 6.7908751978 7.1460969909 7.1662823744 20.234416709 19.986468314 19.889165612 29.634989959 29.585875219 
30.040229493 29.495058397 29.444194265 29.791956653 29.812336482 30.209271305 26.430260503 26.035388766 26.248890042 
25.854974402 19.141893613 19.488345384 19.385410224 1.1424305503 1.1498757382 0.19867181122 1.0898618024 1.4302007821 
1.0913457781 6.3878639923 6.0738524464 1.2900959596 0.90399496145 1.2753268905 18.798037396 19.400188971 19.083889704 
12.74135815 12.763315178 12.309827113 12.536165256 10.320517229 9.9123176587 26.635120689 26.819434672 27.007400647 
27.192464499 12.667331873 13.000096919 30.674576439 31.051250728 30.701943768 29.638301934 29.191287044 26.172732406 
26.321936349 25.965490418 27.095332464 27.823164608 27.20880404 26.864278848 26.693993253 2.8560945728 3.1148440877 
3.2488147145 3.5082238691 0.20999049131 0.20086465639 0.50066058308 26.358591606 10.758993388 10.582753503 10.411530412 
11.413132686 11.860382149 11.900202128 10.974166907 31.269025691 31.250763745 30.889013184 31.097200504 4.5172636402 
4.4501199225 4.0577126115 0.22017978842 16.53663885 16.259360617 16.641204262 29.693503258 29.532126814 29.319990031 
10.350309759 10.212273003 19.801710872 19.339131782 19.806604058 19.34437345 0.2185284252 0.21125137442 0.51508501581 
23.933573589 24.088777997 23.659852015 14.347342396 14.531804316 17.621547266 17.656890722 17.25604437 17.29150806 
12.1124164 11.799241392 11.889105973 19.846172169 19.802606042 20.18387866 20.614410899 20.244806103 20.677108698 
25.155390757 25.379237138 25.549724695 15.584030781 15.200547096 15.448349828 20.519224229 0.24248091408 0.59123424372 
21.620857198 21.489124212 21.830246955 10.045091953 7.0642825971 6.5426453672 6.7600574322 6.238618891 19.668710885 
20.030451253 31.323184963 31.305468383 31.660408451 7.4254480089 0.27585032351 0.66648621697 0.65309993888 10.205574489 
9.8031651364 18.857563075 18.410054099 18.850865834 9.6947071654 9.3281718026 9.5349047642 9.4065022774 5.0792190644 
4.7466808285 22.678869039 30.287235054 30.338984454 29.910675135 29.963266421 14.442115908 14.824074675 14.439592794 
13.268034366 13.64653911 8.9669437753 9.2987892208 8.8708081906 9.1980334024 2.1284530757 2.1209310473 2.5229123391 
2.5160831248 0.66876127564 0.30083766467 9.3465604793 9.3452083371 6.9245429423 6.668086441 7.0491569111 0.84560212142 
1.1656596837 3.8553819483 3.4583143956 4.2996857207 31.140318282 16.236732772 16.320411253 10.404469577 9.9430369254 
17.737646608 17.344259776 17.382515113 1.0676738989 1.0800699261 18.42474686 18.407326482 18.824255672 26.079512027 
26.29175347 3.1004054375 3.5595650385 2.6526896225 3.1052542272 17.264613519 16.877898508 17.242386045 16.867739022 
0.64569597588 0.30649739027 25.146621565 24.738769002 4.1920129774 4.2195752378 3.8219301309 3.8649095308 8.4965768882 
8.7508439373 22.479717818 22.381657361 21.987300158 4.2400457847 25.302477903 25.686581421 0.83007813066 7.1225438829 
6.7651953941 24.718027226 24.970946359 24.583694791 16.726844886 25.469728043 25.041823728 30.443728329 30.462057361 
1.1073249741 0.79513785348 18.438606539 18.034069789 18.427760425 17.601085148 12.44574183 12.891858669 7.6570007459 
7.2033122356 16.613510436 16.273637481 16.201743229 14.457486355 14.814875432 24.217122168 24.449633417 16.488847455 
16.47951251 16.829866568 30.970740826 8.3411485455 19.741377756 19.402104561 19.500381621 16.423169332 16.327939879 
16.659169175 16.564899764 3.3322190023 14.840636167 15.227717164 9.3905846972 9.6556410853 18.293495417 18.398113566 
18.734833878 18.838981652 8.1872066775 3.9242024299 3.8390032497 4.2614727884 4.1716721985 4.2363603295 3.7481644542 
2.7040483706 2.2867626698 2.69401274 2.2828763149 28.206559081 16.480727269 17.814449574 17.961764565 24.919470527 
3.4986916167 3.0309245793 3.4578478732 26.422716952 12.786263374 13.261573513 17.457326978 17.463928597 17.842413871 
30.089279774 29.952042481 1.7807386857 1.4386672112 25.736286937 25.496478124 25.320461587 18.050453225 17.660615375 
17.775424049 18.356128783 18.765541506 18.354029404 31.925926217 31.578241132 31.919295664 31.570724078 12.672697682 
12.686447462 2.6163638718 3.0775130683 2.9086906293 2.901779976 2.565911903 2.5584234837 32.10380511 32.146643475 
23.701951991 23.956250925 30.02817982 30.438799058 30.441746327 24.67052104 1.7476297053 1.7299466704 2.2066061768 
2.1789340773 28.852124791 28.533676553 28.474810473 28.081491858 0.22597316462 15.4105348 1.5393708521 1.4630334444 
5.8591225599 0.62629598102 0.98297804818 3.7388338627 3.5271535159 3.9144570229 15.567918404 15.23295752 15.578413613 
0.64470343789 31.914465446 29.347247233 29.313476572 29.757847613 14.045108655 13.630913855 0.29200340263 24.549500841 
5.3763359742 5.4374625733 5.7687927997 3.4807339824 7.5470119904 7.432136721 7.8095911607 10.364529663 10.969152423 
10.473699891 2.5911832172 30.042559657 10.357711896 9.0719573172 8.8186220607 13.960541944 13.570115647 13.74857509 
14.150009546 31.673996425 31.339380692 31.70479135 14.424978689 14.017401514 13.668879741 16.161460623 24.919401361 
0.27835066807 16.479335385 16.820638451 16.832589538 17.174289238 31.252252911 31.605487798 31.271550632 17.542957701 
17.539603166 17.669874165 17.760534287 17.34292171 27.02745262 11.996244948 11.821738914 11.615910224 11.444486368 
26.826402876 26.464681847 30.909043124 27.203044443 28.187252274 27.971414871 27.773914123 0.51829328729 0.83321020904 
26.981687696 27.13792181 3.0756007457 11.043585426 11.540331158 11.371189936 12.344218124 12.191907312 9.7999257658 
10.495775239 21.990920461 21.767822878 27.191286019 26.961383962 27.372709457 24.652227105 24.468903209 20.276239687 
20.238137536 19.769266851 20.730690548 17.057724507 17.291942346 17.409227072 2.872919928 3.3467292222 2.5190906642 
2.9866571656 12.450542181 12.067270974 11.988531116 11.784827933 12.091073861 11.991723646 19.255995924 19.7510359 
19.639183586 21.543860226 21.570021489 10.940728896 19.272691993 15.015276214 18.695885734 16.0825083 16.145802003 
28.328101341 27.283378669 27.047957709 26.854722203 0.88220733807 1.2254546161 1.2210937048 30.78776317 31.136511706 
31.076568923 27.930362562 30.843971286 27.452758328 23.970837408 23.735825794 23.562818731 15.117937263 15.46844342 
17.942376459 3.133679381 14.577815992 14.892460277 14.55527707 12.21813213 22.467607763 22.83758886 22.559841044 
3.9147419078 3.5410317223 3.51721959 0.51063071778 3.9102552866 3.5420055804 12.127789269 11.675658221 11.59165184 
1.6393718986 1.6165069223 2.028835072 1.5402315976 29.796581641 29.963888091 22.878284456 23.009733699 23.231199353 
2.1110537285 17.917953444 3.4296349505 3.4753808128 2.9780139145 3.0256673856 3.893922726 3.5141205674 3.5479345961 
15.536553816 15.195851825 15.193087968 28.482686175 24.235351715 15.527692621 12.635592832 0.60590274444 19.3354693 
19.256628809 19.754199312 2.9268724095 7.9398466486 8.2872565403 8.200316842 3.1103086964 3.552312132 2.9302375825 
3.367149004 14.453510232 14.266992069 30.01662831 5.8080879065 6.1965689643 9.3978718424 9.1500984126 10.681270019 
10.916364004 7.4531486869 31.252138792 27.627521449 27.755992573 27.364608282 13.204811918 13.639143256 11.728167492 
11.894772519 9.5461806353 28.335994059 29.214748293 28.783009597 23.226953134 22.636262303 23.34914296 6.9368984865 
30.021044546 5.7881857474 0.85697550333 1.1778702325 11.243941303 11.138645757 10.913367847 16.93405047 7.868307796 
8.7200292816 8.9799650602 8.6757741656 17.814451933 23.506562268 23.110018586 23.231461326 15.927070427 15.984430897 
16.317654449 24.709271397 24.668349195 24.059891315 27.066582538 26.519918133 27.261574518 15.531248946 4.394819248 
4.0236201593 4.6222302316 27.812085868 23.435401715 2.7764098642 2.3802226166 2.4111562004 3.5074060852 3.8917917217 
3.5400275158 12.335420416 11.878599387 11.830515439 30.691630114 30.720739703 30.3688673 23.830904359 5.2991369147 
5.6807116311 5.7734960695 6.597762509 6.1422088464 22.89863199 22.652494377 22.997858465 21.533101833 16.188541088 
16.532478607 12.64212355 12.975002332 12.59600243 13.002634698 14.585416298 6.5124314318 6.0594510211 12.794112171 
13.259130523 0.58802741119 26.223333012 31.241017451 25.645386244 17.19228839 17.191296529 14.878635366 14.874921275 
14.483486321 25.372140741 7.9094118691 8.0861386323 22.903928416 24.317828055 24.064469234 13.802728934 23.982042197 
23.64466963 24.200166734 29.417093437 29.012148992 29.274419787 12.749405445 0.78492341314 10.679270886 10.486373238 
10.370462154 23.229490761 12.107925729 9.6175074232 9.7346174583 20.829280397 20.562387599 20.401770409 16.097285553 
24.560648024 24.429456783 24.205172481 16.42987591 25.529932895 25.28242901 25.166362471 8.1080602441 8.5305191794 
8.7534178286 30.473262377 22.01792824 21.544245609 21.61589226 0.48522694344 0.78905461395 16.300897947 16.235481756 
16.630321034 18.006749306 5.0610449058 4.4285137656 5.6347929038 4.9967498728 17.19893143 17.215521967 16.860402762 
12.005132152 16.572099385 1.1000000403 10.157920055 10.482447254 24.810356851 1.9172074401 2.2672393972 11.904993107 
8.1963271036 7.8681645275 8.2973493303 7.9666801969 15.593329576 15.584718612 15.232297501 16.195386989 16.095899281 
15.843476421 22.686929737 22.585520414 22.945518255 14.433328932 14.033262827 16.173350887 16.174120093 18.394460995 
18.838716813 18.417466191 28.71356683 28.340533996 24.490015639 24.133622391 24.383079757 31.636619949 31.677985774 
27.582394663 27.930686389 27.750233323 31.60419207 31.961623441 31.623107736 17.965488422 17.952587754 18.397206216 
8.283298763 20.352346827 20.844187076 20.195565181 20.689988363 11.653080715 11.24579185 11.678876891 12.788638701 
12.927011537 13.313985928 13.441110814 12.446889777 5.2579878208 4.8007230698 20.987315256 21.539996745 10.953984244 
11.091073037 10.497063538 25.811657526 25.913854624 25.55348112 25.654751258 13.859733345 13.758031787 14.081046886 
9.2353196596 9.036652464 24.703145589 24.485002025 24.346129304 14.436595799 14.808026414 14.43356017 10.996689549 
10.828952537 16.103076845 16.328334886 27.266711961 27.770753355 27.270226477 16.897107262 17.281888724 16.919066591 
14.533922762 5.9551091512 6.2756123592 5.9333840069 9.0633276777 0.6155690138 0.28876587635 27.828964911 27.314280152 
27.816927114 29.256019812 28.790423152 29.234626629 12.014410529 12.324336863 8.6480658033 8.6891183231 8.765968943 
9.1261426648 8.4872258847 8.8522092931 3.4053025926 3.1569613834 2.8867089145 24.842277598 32.107583219 12.350528206 
12.178185181 12.538802996 22.070544839 20.926865971 21.458515748 11.461593512 11.582509802 31.334368876 30.29138741 
2.6265519028 25.645886575 25.413083085 25.188343605 25.838211972 25.2347025 24.432603483 24.285381293 26.768714866 
31.09586119 28.158500371 28.661713155 28.217925553 20.23092584 20.569178518 20.449266035 3.6854579635 21.163953835 
20.671864439 21.052999476 16.212882638 16.759513358 17.118057762 16.97922355 15.567273753 15.546851681 22.18961075 
12.323239068 12.498832924 12.676883215 19.294061579 19.290633887 2.225362949 2.2227457121 4.8273406613 4.3911667023 
4.3593976739 17.174684037 17.18079493 21.868278823 22.354311023 28.90803929 25.771400344 25.936123835 0.25579367384 
11.448535239 26.940768315 26.440370922 18.247267641 18.157641672 23.914853842 23.818947585 23.587414284 14.037037447 
13.618412144 14.054428601 13.635784024 31.693950107 26.543824657 10.525550275 18.17557024 18.521797652 18.121144729 
21.840462039 21.227921643 18.831037985 3.888293733 3.500574418 3.4456576849 22.33045987 22.447031642 3.9581744825 
4.5051361781 4.4737686958 18.569080365 18.738039633 23.846624291 27.37814384 27.017879063 27.224687771 5.3253068044 
10.514378 10.273712179 21.613690543 4.4326495478 18.084009227 17.71345575 18.052519484 17.674273876 19.285988325 
18.423614452 20.730454698 27.797569242 20.217774491 5.2805756849 14.206687924 14.129831948 13.743336033 15.824273995 
29.585988703 29.836848995 29.434506203 21.344806351 21.295536749 22.032698746 24.086095951 24.738738084 18.82492501 
18.712084768 19.145632379 24.618756632 24.494392678 24.262470016 22.473164033 22.332055013 20.266992973 24.906240338 
24.791438279 24.27735654 23.870666163 8.3459267152 9.0145487323 7.7547963115 8.42382137 16.003596731 18.441155585 
19.798853865 20.113008971 20.300687052 9.6111581464 9.2517741303 9.9308400777 25.052413016 24.692704884 19.385857126 
27.241731089 23.18580027 26.419569803 19.676034532 19.179046866 19.573048496 26.004991834 25.448035986 26.024338441 
25.46633564 26.447729991 26.577173386 26.953572447 27.471946538 27.289445358 27.958271549 27.888399178 31.017846787 
30.63476973 20.576908232 20.14832681 9.3017193389 9.2657778073 27.75700794 28.151807274 14.925779052 14.634074214 
11.30071956 10.73732627 11.344818029 10.78023766 11.892243185 11.911615327 11.414296514 19.78890359 20.602047658 
20.171410963 13.489268672 5.1938806408 4.7682703766 5.683856501 5.2586195778 7.1677547404 19.713034902 22.331910431 
19.170505337 19.540426042 18.892593606 18.823447354 25.335875673 25.271187539 8.1183897345 7.4896515443 18.809702537 
18.828403184 19.1599105 18.503004519 9.5226830603 27.559268178 19.851756366 20.426342558 0.52428498572 0.22075988443 
0.22153612384 5.5428904571 5.9502739862 11.605693612 11.484091735 11.7979172 23.840917216 20.807896267 20.853705091 
21.319509123 27.835404203 27.166990658 7.4501284896 10.505527493 21.171509256 31.282302354 31.337733422 30.980121247 
9.8716504817 27.929406177 28.148480438 9.9870917246 0.50742949888 0.19589138342 0.21712891261 12.329039666 12.773556748 
5.0231486541 10.908295344 10.707472111 11.04605314 30.719275082 30.863105999 31.045060688 31.419133887 10.822848382 
11.1657256 27.637201704 28.201288751 6.7690204759 31.769526791 31.429567876 19.267615782 32.159774335 13.338862108 
13.201670669 13.18763752 10.197542764 9.6075030892 10.369833161 9.7771405428 11.671056634 5.5706724052 5.5903987334 
26.947998531 26.641727835 31.067457449 31.415066168 24.58175308 21.87813874 22.101177264 21.764462848 21.988743292 
27.552048771 27.38489535 7.7411271557 8.114784616 7.982052061 3.1100954891 3.1130583859 3.5207901455 8.0921345874 
8.3550200007 7.2213091325 19.280135138 19.044621162 5.3057247747 4.9670799383 5.3299903708 5.0022777015 13.63943271 
13.213611929 31.217314946 30.841153429 27.790120428 27.603327163 10.233188829 3.492787297 5.6437058492 5.6115594385 
5.2652938616 29.141160631 28.695697489 29.150003498 28.703218541 29.624149813 29.611474573 3.8061545244 3.7831642567 
26.019770048 17.203848697 17.578987028 10.110864844 13.179444816 13.321481953 15.190433491 3.3577186162 26.132855986 
26.490471624 9.3630195959 9.6042578604 9.6637715002 13.345287803 26.652561974 2.5288615724 26.758801725 27.290871565 
14.019240053 3.1098349752 3.080939578 20.352576082 25.44297409 25.227899796 29.054484347 18.714369093 19.165065091 
19.872063881 20.106785735 0.48818594469 31.571967854 31.567730631 18.358384554 5.5971795985 29.154232318 16.567289509 
21.112710229 20.916451729 26.816970339 28.580599213 28.958512922 21.04612307 20.815393257 3.8076843419 9.496916029 
29.376605925 29.164818882 6.0588852623 5.0505834192 11.530619664 11.000455093 11.486621416 29.433514902 29.239081832 
4.573717101 28.378558997 28.57058257 10.797904617 4.3799042168 4.9085685082 4.5009253953 7.6399570594 1.1414886394 
23.358479769 26.635625812 2.6297887605 2.6440082615 15.561096507 15.608704988 14.455617176 14.439637416 26.164352851 
26.27119039 19.864865616 27.597574019 18.616021371 28.826262505 18.327967592 18.151656253 19.068782313 19.405699454 
19.497281276 11.980518505 28.1839946 27.830455116 15.364717762 4.6876072267 11.686966787 11.388383394 27.982855885 
28.208715205 27.095953011 26.88938725 26.647391503 3.7236487235 3.318496333 4.0649861247 5.1951632191 13.668740381 
14.084063185 13.694824885 13.427954558 13.759770556 13.309595462 13.640462485 0.82957378676 0.51107202541 0.81457487479 
17.208873798 15.344860189 12.782850586 13.383845081 13.241524964 1.8548975254 15.620018005 15.095469253 15.777164427 
0.83364748329 0.51450321376 1.1545933371 0.83321930975 1.1440327539 1.4784042611 6.1619131383 20.572280108 20.648399906 
20.905157428 15.868618871 26.585954451 26.324512419 26.835763945 6.7258392756 6.3694929223 2.2349508819 13.320380784 
13.429265301 13.647121585 13.543099809 16.525419524 16.862005681 1.3169206016 0.95806649844 1.2919816136 1.4515767587 
0.62331292241 29.341941292 8.1658148648 4.3557569652 4.4173392096 13.486130453 16.012423416 16.715552356 16.617619788 
29.017285847 16.293301813 15.185677712 14.812153937 25.396648449 24.702002708 14.732998168 14.83795571 16.102726867 
16.42761466 16.386829063 0.87938632988 12.845287923 13.024626578 31.198780391 0.22355707795 4.4529806015 4.7853572656 
4.716077457 6.9181140557 6.9637953218 31.27409396 31.349749908 30.025470238 30.436972694 1.1169527721 1.1206400998 
0.54571693743 0.23264343665 0.55886911755 27.346630587 27.800045073 27.258540864 11.876739565 1.0960183318 0.78683479997 
19.376678079 19.735461419 5.0466405378 5.425012969 29.028813672 29.472312097 7.6378025925 24.578630377 3.5461644796 
4.0173639182 4.0418486721 4.5185182355 1.5447106101 1.9881745352 2.2204246498 6.3249602072 5.7484858544 6.1859702829 
11.287922925 11.103134959 7.1867799688 7.2767516349 7.5235711333 7.2349070108 12.424365598 5.8418025942 6.2146949611 
2.3087099294 30.650700157 30.267740404 19.723950971 19.615288033 19.262096621 19.151765457 7.0023923601 7.3255664491 
6.1377984526 1.9111168664 1.5279539161 1.5448091971 5.500145268 7.7080901355 7.7414655613 8.0164919806 8.0553827194 
11.101002969 10.802589175 6.272780889 11.29453504 11.148979788 10.973238591 24.059131373 13.713507722 14.032342412 
18.318604111 18.328570888 27.428910193 14.713449744 14.876500173 21.510913644 23.242763938 22.980931205 23.390446755 
31.227899752 22.653932552 22.788196731 30.032567499 25.780078647 25.404689379 23.044127154 22.217572625 22.437272805 
22.572146334 2.6711876898 31.933512651 18.786617639 7.4469420428 7.7616379515 7.4324759463 22.336261412 31.346606192 
31.118146408 8.5250337728 8.7693026669 8.8438646211 16.860206195 16.854483726 16.511954862 16.873644583 18.399402281 
29.888409867 1.8958877575 6.7981418705 6.9695192847 6.8363625162 1.5150289329 1.1450697669 13.359823967 23.089630324 
0.82404090236 7.9024094915 7.5844624593 17.867839802 18.025247866 8.2170973756 8.4644490935 8.173406732 31.213736171 
31.566658466 30.458365484 17.421711921 17.781081554 10.272387455 16.842561467 12.113943393 12.134590257 24.506969237 
24.30112767 9.3678712135 16.825521264 9.4700177883 9.7220499258 10.142449013 9.8006446049 4.8946649597 4.5169025476 
8.4436745957 8.6819462764 22.182384499 21.782615907 22.322847382 12.163228263 20.820331147 1.5353387255 1.5047693255 
3.9476618146 3.9272880723 17.56611159 17.57453548 16.606351434 16.384023646 16.249431144 29.271572621 15.551543076 
17.169541563 15.700324988 16.061926497 28.325136162 2.2191540181 0.90092496407 1.2284634066 3.2557010717 0.27073858004 
20.343092609 11.097897657 28.811426338 28.670966093 15.922134696 15.859433037 20.386366744 15.836060444 10.63874592 
27.258120606 27.694815309 2.271283684 14.130389955 14.849255161 14.479141577 14.854772521 16.17465753 14.019697124 
18.507176372 22.579072427 22.11628793 14.081201642 15.565521739 24.420806385 24.322859912 24.082230127 11.176293793 
11.379130676 30.512371937 31.580211992 13.815908806 31.347790567 32.228567483 32.075884263 32.186757187 31.916943636 
31.866008986 32.095947929 31.75758606 5.7872504108 3.8121621947 29.87775943 9.7615007375 7.3846273664 23.046073965 
23.406805675 12.588563359 12.754232675 12.945368289 8.8856435303 8.4696109623 31.04334816 32.116134384 32.146061444 
14.438614108 31.999205486 31.639592821 21.42000924 21.69284866 21.065494694 21.339345211 12.662811025 15.585845117 
11.758521897 11.428691095 11.778148209 1.9609825787 1.9800820468 7.1639660767 11.079879375 11.350036389 15.950586614 
15.705865128 11.312196833 11.646502062 11.497000548 15.196612621 14.886669419 11.316661289 31.985529266 11.361770993 
9.9414899757 9.8560306326 10.182939858 18.308185652 30.530834358 30.121886109 30.510084568 30.101638029 21.517890576 
12.080698152 12.227588199 12.362349284 7.7781841001 29.624499818 29.454786605 29.979650959 29.810221558 9.7370419016 
16.19185177 15.522908231 30.808359187 14.198427841 14.39474612 29.594145701 30.018903833 24.532398279 24.19268394 
31.56977574 30.925391334 30.903269548 30.233524073 30.449442123 30.925079549 27.944239121 28.432252236 22.815065749 
7.7831782371 4.5740997106 2.465719213 5.8648869787 5.6760479559 5.1735077989 3.375245618 23.153546413 22.507629503 
8.2608643016 25.217089972 24.850998411 24.999756772 16.784985179 16.888362969 9.0120642403 8.635794545 9.6778758347 
12.030423728 3.1938153247 2.9075745642 4.4496455872 4.4368578875 4.0827980548 21.528735013 21.791939389 21.892665527 
13.707844799 1.4961138833 1.4943979282 20.734733669 8.6894892865 8.8071832673 1.0814633821 1.4615370713 1.7989125047 
14.027000151 14.067630004 1.8296793483 2.2151221696 2.1860380699 6.4751726386 6.9860670012 7.1866734051 15.217584801 
15.559220641 1.6683855155 26.200388914 25.687559496 25.631141406 20.167803091 12.030471556 5.8689372491 6.5770647686 
8.3258204015 10.927893075 26.657988841 13.852077794 14.157612822 14.071863036 13.97798587 14.402069105 14.314192678 
15.238744176 6.2541945353 12.809121108 13.236752862 32.180116802 19.166475818 23.937357091 23.993762074 19.577498883 
19.952898994 29.744281294 24.986706292 25.132635016 5.1217484172 0.50696985798 30.838107334 6.6404101317 6.2984679448 
32.040994956 31.44508892 31.701765466 7.751900039 7.3954322702 7.6168730386 6.5353940888 6.5445310342 22.694883275 
6.1939586571 6.8435398718 26.279959089 17.538478519 17.245620488 22.67806276 12.443382659 14.489157304 12.778796754 
1.6323238135 1.9797728675 1.9729977083 12.843754717 1.594748747 1.2534886865 22.29709982 25.216316188 26.543711979 
31.940311839 31.951568849 7.3705734983 24.252058763 24.586233481 24.935033551 1.0458292204 1.8712068998 8.4437296179 
7.492087141 1.7727595957 19.085022 16.046702161 16.180748941 15.074046455 14.781499399 11.220042012 2.599335533 
18.418242284 21.626983462 11.891174431 20.233189987 20.159499475 19.873694214 30.11006872 30.495592513 30.078135725 
0.22732432292 31.581474215 32.041111162 31.760244621 32.325640514 32.301795854 32.016056286 19.135518415 21.718638772 
21.968663349 1.7594025567 2.5367554607 2.9782340302 19.250571124 2.1465981046 2.9649357349 30.762711962 24.228421756 
30.60391642 30.977701064 30.991118783 7.3386276794 7.0573736564 7.9147455703 13.700808563 4.8971141857 2.4478404508 
1.9591150672 2.4441408444 2.6733780675 14.452439789 14.449041605 14.057528247 14.087238754 20.088548462 19.585146505 
11.53844409 19.510891894 20.705677597 20.645965156 20.093415986 20.190902791 13.244999241 31.996707816 31.998702358 
29.837200715 13.261649167 12.818549276 27.530959758 27.986684711 27.446950275 24.029174237 29.686679557 29.697982207 
24.293211091 13.527497607 2.8900376117 32.247234817 31.935503604 30.488784939 2.9453952655 27.012139275 27.162760809 
27.076773844 25.538845107 25.757893926 31.917268878 31.231701884 23.551600227 24.058463019 25.433599421 27.46110693 
27.156669399 31.571112762 12.468573686 8.1925401774 8.4070915965 8.3339612856 31.398180888 2.2515815375 2.6430207359 
1.4664389596 1.8118120289 1.820921312 18.345738344 20.407028909 19.846183243 2.5092630162 2.131306832 2.1365917973 
1.765045807 15.956137054 15.772346234 29.621102431 3.9767878652 4.5084381184 14.075953646 14.053426444 0.20476348801 
0.21745065462 27.878586773 32.317088089 32.007632698 30.386094907 4.0106463829 5.0489710345 4.98214062 3.9873819388 
32.222526118 27.627897534 17.936419841 18.291896673 17.842134612 18.198669225 21.28816326 16.843138792 19.204638039 
18.715763977 19.290808343 18.802116517 21.1803241 20.82563655 18.383980216 0.23351901453 11.297326669 23.442845494 
23.790516889 0.88234526613 0.90028123766 18.830596774 5.5222196992 19.856523666 20.407590144 28.259277675 28.288569098 
25.127105863 4.3021795412 11.69442762 11.764087907 11.71697079 11.144736841 11.407592933 10.902939085 6.431582441 
14.835352105 26.137568203 25.938347522 23.954701119 23.547561101 23.983306626 15.061737056 15.213639621 9.471111149 
12.019174715 10.502997136 10.487010777 10.988611191 7.3905192254 10.901467312 11.411911282 10.786504609 10.707470239 
10.227477758 8.2555192811 8.9340830035 8.4389307915 9.1229538257 7.9924666561 8.3374527254 8.5463525942 8.6177443136 
9.2566536851 0.79514267942 3.6420862868 27.466978422 13.653107829 5.7177940118 5.4222556173 27.301262593 28.696410547 
28.250059576 28.692461956 8.1973871837 2.168333613 17.426435553 32.31766997 24.052664664 22.211783173 22.321800108 
30.834495983 9.6555216713 30.606246405 10.478123679 10.378460348 3.2306423253 11.948307997 11.936701358 11.816167068 
11.804687832 9.4609944171 11.129663755 3.4463167056 3.4243630933 4.6768398744 4.3096354774 4.6408144491 2.546154728 
3.428651993 2.9813029721 3.9382898245 28.843711624 29.254753892 22.698704041 16.456722436 29.585524735 29.140372069 
8.6601773578 29.865477941 29.486155754 24.148596497 21.946818057 22.045026707 22.305235978 12.808357781 17.162307222 
4.3245183411 24.051656613 23.675862856 20.012828363 20.486981443 12.478064625 2.5329422632 29.600334454 29.431347201 
29.070034907 21.024743567 21.419588242 6.336473216 5.3860518308 31.921034782 23.723491521 23.325586943 23.642336039 
18.64539688 14.862253878 31.916539173 29.687097841 29.71238609 26.09412918 26.641406353 26.634508794 27.179680973 
19.351557556 18.865649559 18.83289961 11.492436678 8.2978092831 12.152345239 19.359174372 1.4162551908 8.3343525653 
28.897833781 21.405509104 10.015925307 9.4844689625 8.6644475166 8.9705090963 9.2709749401 9.8482582825 9.0397586681 
18.386723872 4.4773997576 17.037510475 6.8740707617 4.3365236009 3.9925206052 13.205089073 22.14533419 3.836101707 
23.232940194 22.920706924 22.754194587 23.435092857 20.276514209 19.784712612 19.731799252 2.3171712647 2.5750155218 
21.248695281 21.109735169 20.84873708 20.987261529 15.358660215 0.91093779403 4.9626579019 28.732458376 20.550795975 
20.173082492 27.941858816 23.274888159 22.922155703 23.143468648 7.4401445747 17.672698261 17.187777499 14.814117893 
14.047147494 8.9367660285 21.057773757 0.5578890947 0.24491976761 16.610791397 29.17660084 1.4581217847 2.389087829 
2.459733023 3.3229181505 13.139664138 17.969218866 17.987904642 2.1507178329 2.1769399654 15.611687665 16.270828697 
16.380100041 15.952208327 28.1375679 28.493907311 1.8043527597 24.278472654 18.388838542 7.5305588379 30.147567439 
30.539011207 13.886528 13.947893782 14.289693184 17.973263364 10.870662044 18.097727702 17.628270282 17.984263105 
17.76222022 23.841343978 4.3154711823 21.639037064 21.857960827 24.290442628 24.625224455 12.315432874 23.489823715 
12.726850004 19.257734392 17.627522524 30.304731057 30.763668385 31.109731836 31.727127186 31.340968391 29.731854821 
29.602414083 16.716799687 17.152920283 29.26368009 9.8560930343 29.893440544 30.08773626 29.980580068 29.610713618 
27.851844606 28.319802333 28.256711854 30.165102377 18.333487678 18.776391709 18.349132948 17.144866243 16.842857251 
16.734064783 11.933329425 20.493255298 29.200990204 29.64916376 12.298832617 20.984296195 21.259767136 23.451005113 
23.064185662 17.04132478 17.552500074 17.444538794 22.128434534 29.666573538 27.212263883 26.861903371 27.114477243 
26.453813607 22.395243003 10.818411841 14.282422976 13.969100031 16.850019683 19.79190981 14.829958453 19.33621574 
19.717268093 19.662055764 10.188306565 0.48071355178 0.19606441766 0.48583554201 13.255017907 29.171779513 29.154867342 
29.593683792 17.93250151 25.600156634 16.152466371 16.16143367 9.726716751 29.287525869 28.851822072 4.6174661509 
4.3787496344 21.364488722 21.290080641 28.907974915 21.622003095 21.163183001 28.93854007 21.699434996 21.442524066 
21.326033067 8.9906597386 0.20064056748 2.0218129456 26.150770947 2.3980851091 2.8538148877 4.6636032244 4.581405295 
31.905652394 15.544574732 0.83210420783 24.914708705 6.9214100425 6.7390519349 7.1229925622 6.9174607595 31.945588315 
1.4187900698 4.652186511 4.5074153269 6.439023016 31.738352522 26.681930153 23.199230228 7.1101414469 23.739991826 
22.611413195 23.022781706 0.2883452852 13.368974148 13.149470824 0.1921832871 0.29309781268 31.282944973 0.63955795268 
0.66070012881 5.5484598986 6.1022885894 25.991727292 22.525480218 30.855070735 31.777084353 30.859484016 30.893199713 
27.569588956 13.404531416 30.320024095 0.5438994775 0.53867744165 0.94502456459 14.477027477 4.5735460537 4.9186953834 
2.5919483023 2.5791604002 4.5954036668 24.69225564 21.854819151 30.24745101 29.854392869 14.853688558 17.873353941 
17.773861737 30.69116932 27.497073653 27.148395952 20.185303522 25.804076573 26.023767904 15.799987035 0.19981873215 
0.48379865817 0.19055690319 31.434364124 31.389174671 0.79353969351 5.2498440778 5.1483200943 4.8228841317 1.4807009172 
12.412624439 7.2694924547 12.309939972 4.336969628 7.8735966493 8.1426621023 7.4529627545 10.568979224 4.2307523665 
9.7731768107 14.203957279 31.902252215 2.4709212711 2.9292719278 21.174029045 21.272037247 21.39313336 0.8218911385 
7.1264054883 18.152826947 8.9472164796 12.158898351 6.8080497796 12.4648231 26.300687564 26.702034924 9.7163664336 
16.154509523 7.1255173318 32.480998706 15.559773354 15.2122076 31.955283297 31.391602294 4.1826321528 1.2029829331 
0.5676949957 12.364726397 12.84974755 32.316582246 32.325609316 31.990801259 14.138170678 14.531885644 14.893165261 
19.055669579 28.041854028 18.345919612 18.21316711 18.568964556 18.44123037 18.657220221 2.6081571348 2.1776438871 
25.861171934 26.23996181 29.61687085 26.071273294 22.233178864 22.552938887 22.796987472 32.04700088 32.034742806 
19.394372258 19.393682922 31.627662139 20.799973252 20.697923076 21.407941384 7.6988821122 2.2222708191 1.5499072242 
9.9606040137 10.072056894 5.1382911865 17.253604685 1.9844205938 9.7654041382 17.847051542 18.08085408 17.923896145 
9.2798096202 8.9471146877 8.5410932164 27.782497641 6.3372928399 4.1950586888 4.3599931257 24.632485514 24.766931775 
21.933143969 21.326256755 27.755515676 27.599556538 27.980755441 23.38715197 23.070535785 26.52670966 27.959564242 
21.461984691 12.553815974 23.817444101 30.891252086 8.3286767034 12.512654248 12.364992836 12.687038239 28.170990023 
30.891836225 26.457521687 26.260685937 22.897666922 17.537074331 28.070295647 12.060330773 10.562920353 7.0475268673 
11.365294784 20.454199023 25.813096937 10.161729705 16.475175709 32.346588512 24.663965798 24.737960106 7.1113222379 
23.532817442 16.411024747 24.773704218 0.89209109584 27.467306911 27.216412801 1.9692239857 0.80544960047 0.88247217988 
1.4634524553 14.061144522 14.062343997 14.466309102 9.3630639938 16.939956798 16.589205203 16.958832406 17.595681749 
17.401462002 17.537799147 24.436093933 14.0400325 15.526541907 24.988281362 24.700822465 15.184640797 15.521508836 
1.0697947458 31.598871116 1.8607202874 22.962887941 23.639641428 14.463189741 17.942653228 17.555532545 21.522821059 
20.920640609 14.759874727 14.444162403 0.19664645377 15.360627134 17.082260196 28.301071945 5.1228960107 25.017820629 
10.193334551 9.0826009059 17.857425853 17.483910899 9.1140806738 8.7775191333 22.469419769 22.591550461 28.606445361 
28.857172563 8.5574257647 30.874389233 15.833387026 10.216658388 16.189963558 2.9827150025 1.6393964242 3.4620599061 
2.4402647356 2.0261010109 21.558666477 15.93969757 19.755933344 2.4891284511 22.229974421 8.9182736503 20.584032558 
20.651004669 18.024353393 21.004474542 28.299178527 30.182297518 31.231435221 10.34019738 10.121232979 10.387796784 
11.8488028 15.920661277 17.020356198 17.117099073 7.8123139503 23.208149015 22.808826537 22.43614973 26.089306313 
9.6424092598 9.8740442754 24.660812822 20.90513303 25.339691502 26.052697698 26.050702252 19.360780005 5.896742796 
3.8690329146 3.8865290173 17.972766263 20.138289336 29.203500538 26.808431942 22.700451978 0.78392783669 17.935241206 
24.120666253 18.29747249 10.578418291 10.718549755 16.710630076 3.0290086544 26.002651592 28.234184954 17.958352144 
12.234630486 21.721922834 3.5999067508 22.093221921 16.914959092 16.921300172 3.947427292 13.22655458 12.228626188 
12.258220231 12.82428459 18.825092555 19.236747709 14.471377109 14.076815228 23.384988456 23.813037169 15.689309334 
15.556116618 31.932113989 9.1715265068 14.080312201 32.478008597 25.454685836 28.298347703 32.293682436 7.4453450059 
31.973979546 15.815322949 28.106758149 17.093615981 16.754766422 27.375675093 17.190656425 15.449976531 27.444022982 
28.649293986 31.910714298 15.525248601 15.166706577 19.402198204 26.389551215 1.6281783943 25.168572014 25.908149786 
27.879571056 11.705400257 2.2661102607 4.4130793215 2.6752624471 12.411914942 12.365487105 17.874965197 25.344179281 
24.724460686 8.0382506686 9.1737496508 22.169946005 26.936712765 22.779766922 20.309400062 3.0446397384 2.5863818148 
17.564419852 17.561734622 17.956462666 1.4808571468 29.818528731 18.907019335 14.812979941 22.699023145 20.958439303 
19.155135866 20.316090103 19.729830472 15.19262131 1.1389254047 14.813831096 25.148666262 6.998631208 8.8315640269 
8.6509444651 27.153532251 20.053719786 11.769239354 11.812870693 2.4905678078 31.35655003 2.7128771588 28.437359071 
5.6274892063 6.1642149994 6.0117400936 2.2071699911 5.0998286672 26.250654127 26.041957965 25.619688507 24.975482132 
4.366176437 19.829573203 19.262461137 23.500373727 23.325752938 5.9830177559 13.199849524 20.266532363 30.826931392 
31.458012666 6.6893891945 6.731495826 28.265261076 27.40940856 25.042290871 30.367003354 25.67323823 1.566449463 
0.7925141334 0.20451924656 21.572874201 4.1750930405 17.57671646 17.479057335 18.695417375 18.450927355 30.859292129 
24.041787483 8.5995293792 31.727890584 25.668346265 31.761093387 30.968313659 7.8333909227 5.7453886763 6.252525146 
9.9854589384 17.47732998 28.675166039 31.577294653 16.175014276 31.635418392 1.4012093735 29.948374401 0.25613395217 
0.59306416023 0.27296840201 26.979897202 11.23066539 20.327418865 18.094023765 10.587143594 9.8701087608 17.972512837 
15.430656046 0.62349662048 0.26892183899 17.639565181 5.8907099191 1.4521382978 2.2744864344 30.669757821 28.367302308 
30.0896128 0.65098637135 17.474909519 0.8423598251 1.1051800908 18.953138497 0.65476312586 1.0125490416 1.080192361 
28.642728263 4.6681147945 19.738434857 25.642063628 30.106481508 4.6139070877 30.51545757 30.868630282 27.702695714 
24.411678449 4.1776625241 2.692912378 20.254594832 18.757503106 8.5439728504 19.495700831 12.811544541 30.599048092 
30.225035888 1.7545342134 10.047620147 25.064848328 30.500502978 11.741484634 7.9136063222 16.845684406 29.660481888 
17.646680623 4.691240155 3.8627068575 14.038845835 14.091895844 28.285370168 11.984695743 25.698876428 22.798751056 
24.408573418 3.6562196661 25.280509802 20.681453013 28.128557616 3.1805231947 2.6397427252 7.5401237375 0.94460433013 
0.22952878377 32.174563095 5.839494482 18.038511861 19.482844456 16.539562156 9.4982249915 24.188054543 26.154846723 
12.687563548 12.442510492 19.240507192 29.555230601 28.194747614 26.841803858 20.942019074 14.482510822 21.115279796 
27.952011352 4.9579636483 5.04117056 22.186423883 31.124616295 15.878225407 15.868631658 
Tresca%20Stress 1 12526 double
0.30553225058 0.2974935285 0.28108867156 0.31592486123 0.16668876388 0.16667171626 0.16668046303 0.16667209269 0.26837138922 
0.25077351937 0.24135016412 0.2405039702 0.29425885105 0.24134352142 0.25022683642 0.24956685459 0.17432332661 0.1427218887 
0.12323461892 0.12434299778 0.10314611872 0.096793877453 0.093750833481 0.092125562845 0.090738814788 0.090483975621 0.089273640749 
0.08901275636 0.089495412461 0.08994932024 0.090294296781 0.090910612096 0.091527222415 0.091932794013 0.093580505505 0.095599249341 
0.097969488078 0.10011068098 0.10271857335 0.1064774665 0.11416080206 0.12853319877 0.16293951222 0.15379969191 0.13309111774 
0.12139846587 0.11188861241 0.10544366589 0.10134217845 0.098667226069 0.096124266244 0.094930214624 0.093748594462 0.09227731167 
0.091729813857 0.091300161224 0.090393664023 0.09067394519 0.091574532121 0.092909595363 0.094434261625 0.096425384997 0.098180317496 
0.10149430421 0.10553908547 0.11097924654 0.11937489094 0.13241968514 0.15782670414 0.16667086313 0.1666760873 0.16691822183 
0.16728161331 0.16770519191 0.16817575764 0.16869188649 0.16919818229 0.16965783025 0.17005225493 0.17036996689 0.17066398579 
0.17079475042 0.17085275083 0.17079749095 0.17064178105 0.1703856959 0.17005314222 0.1696339857 0.16909569212 0.16860811515 
0.16808113959 0.16760472311 0.1671779534 0.16685126131 0.16666894568 0.16666159364 0.27494730736 0.17427418331 0.15925518478 
0.15174935388 0.14773359089 0.14566312946 0.14471653938 0.14450395648 0.14467588116 0.14514975783 0.14577082574 0.14652405837 
0.14742174318 0.14857391503 0.1499762279 0.15208148676 0.15467855656 0.15821380505 0.16203883999 0.1669003603 0.1710204125 
0.17424111194 0.17555277585 0.17459835599 0.17199150885 0.16851084058 0.16510125942 0.16274032248 0.16102662936 0.16003102215 
0.15967241739 0.15976564774 0.16012040367 0.16076035094 0.16147253475 0.16230150923 0.16304502032 0.16376549091 0.16447526436 
0.16507113322 0.16562256976 0.16608506696 0.16646225708 0.16667151927 0.16669344879 0.16671490462 0.16665503778 0.16646891143 
0.16610905723 0.16567460496 0.16505081524 0.16442303591 0.16374211754 0.16299062705 0.16218054894 0.16141942963 0.16075325995 
0.16011788198 0.15977441021 0.15969178537 0.16008681723 0.16114683875 0.16286884775 0.16567531139 0.16910236226 0.17230651572 
0.17477637697 0.17550193174 0.17382609466 0.17009302945 0.16529125835 0.16096737509 0.15681113112 0.15397011063 0.15150194413 
0.14981704125 0.14833537052 0.14725858577 0.14638236531 0.14560505314 0.14491559636 0.14453680188 0.14443242405 0.14459422973 
0.14579940467 0.1482421442 0.1529581602 0.1608906455 0.17921284944 0.22761126609 0.29142152453 0.267795846 0.24929011509 
0.23105903634 0.26150798395 0.26452596283 0.28633930565 0.25754812614 0.283608783 0.2743496419 0.26471944083 0.26330928091 
0.26285924387 0.24655858667 0.24778769567 0.23403962865 0.25754602089 0.25899849082 0.29289132667 0.27019708696 0.28070566392 
0.27635831529 0.28166680082 0.26308125745 0.26558193148 0.19609324687 0.16664874968 0.16667429797 0.16686897557 0.16718723086 
0.16760624692 0.16806666898 0.16859163442 0.16908605386 0.16955100261 0.17002903557 0.1703927815 0.17062391507 0.17077587107 
0.17082591073 0.17076242635 0.17060280713 0.17034446627 0.17000166889 0.16958906687 0.16910749705 0.16861890678 0.16810386217 
0.16764016177 0.16720628752 0.16688639519 0.16667454988 0.16667249241 0.30487554094 0.17679903759 0.16078486735 0.15253295295 
0.14812647854 0.1458972847 0.14472641674 0.14442571271 0.1445489271 0.14496631634 0.14560609659 0.14638101789 0.14727173186 
0.1483454892 0.14968764248 0.15142381968 0.15369303792 0.15648525558 0.16028239764 0.1647275512 0.16933852219 0.17314481166 
0.1751011885 0.17493550714 0.17289033354 0.16961776291 0.16609017161 0.1634098141 0.16146898719 0.16019005803 0.15971840222 
0.15970789867 0.16003865985 0.16054138218 0.16125057832 0.16196926483 0.16280816615 0.16363280128 0.16432275948 0.16498604098 
0.16557332959 0.16604487367 0.1664095743 0.16665753556 0.16671697333 0.16672997205 0.16664835704 0.16640997067 0.16604299029 
0.16556896778 0.16495070563 0.16431134473 0.16365466293 0.16289744041 0.16212720447 0.16143473341 0.16065994703 0.16012005698 
0.15974005095 0.15967323758 0.16004103976 0.16089568998 0.16265517297 0.16536345432 0.16852840636 0.17200790463 0.17471049453 
0.17537133555 0.17356885626 0.17031448549 0.16551593936 0.16104732795 0.15724973346 0.15400512284 0.15141981132 0.14971467778 
0.14825925911 0.14707699935 0.14624693649 0.14551897586 0.14486759104 0.14445749292 0.14433286517 0.14477330002 0.1456986666 
0.14776918782 0.15219245067 0.15984220305 0.1750102315 0.29710718975 0.21935839131 0.27707751756 0.26338114417 0.27297107614 
0.27978544723 0.28265971222 0.28655458698 0.26209232262 0.26108475177 0.25574560283 0.25072902813 0.27094911267 0.18810368758 
0.28116758489 0.28287639361 0.29827426139 0.2695822881 0.27638009569 0.27933026059 0.26033288433 0.26210895725 0.25996355223 
0.25693121835 0.2507977948 0.25973441438 0.26127708782 0.16670747649 0.16688066667 0.16716162437 0.16748238962 0.16785962818 
0.1682543806 0.1686752529 0.169056097 0.16941132446 0.16970544564 0.16993725228 0.17010310184 0.1701923349 0.17019464019 
0.17010714311 0.16992889043 0.16970637389 0.16940192428 0.16903253755 0.16863416738 0.16820543764 0.16780317629 0.16743576519 
0.1671219299 0.1668971295 0.16672541363 0.16665782327 0.2142265962 0.18218354131 0.16801649527 0.16029387701 0.15609289895 
0.15330866284 0.15181962646 0.1511211355 0.15048111691 0.15056366347 0.15084129299 0.15122248271 0.15182510813 0.15280743704 
0.15414495704 0.15577790302 0.15777702649 0.1603466759 0.16326822793 0.16646448099 0.16921160387 0.17090698458 0.17118688788 
0.16999177074 0.1677367388 0.16561928826 0.16392756079 0.16260638837 0.1617309967 0.16128069349 0.16120186079 0.16135821306 
0.16165439174 0.16214481721 0.16268001438 0.16330376209 0.16390646185 0.16442364935 0.16494013137 0.16540674025 0.16582931961 
0.16618389375 0.16643863871 0.16659755019 0.16640281863 0.16616483856 0.1658075345 0.16537486679 0.16486398281 0.16432757984 
0.16376574831 0.1631531084 0.16257293677 0.16203006371 0.16157527296 0.16125143026 0.16113079155 0.16128427183 0.1618377814 
0.16279224228 0.16434541472 0.16623753203 0.16836800454 0.17037096327 0.17127715012 0.17071914122 0.16851983331 0.16522418268 
0.16211223445 0.159182216 0.15677661107 0.15485491841 0.15340997791 0.15234458855 0.15144007381 0.1507622853 0.15029462445 
0.1501439631 0.15031721248 0.15074719502 0.1515663589 0.15330270811 0.15672101875 0.16151387265 0.16981606943 0.18430164277 
0.23606618106 0.23530459186 0.21820135918 0.20653701333 0.19736903412 0.18305114979 0.17881346446 0.17641154978 0.17512891 
0.17422777334 0.17347503763 0.17323056691 0.1728991904 0.17347280837 0.17411080476 0.17404878547 0.17392379449 0.1738041816 
0.17484973252 0.17593610066 0.17792420657 0.17982416611 0.18281560538 0.18848396964 0.19882773422 0.21455923667 0.21572346372 
0.19598826868 0.18752409378 0.1839920044 0.18167639204 0.18119146741 0.18084896844 0.18160923998 0.18240966606 0.18287509037 
0.18383809107 0.18598513922 0.2032544674 0.20952201449 0.2380095571 0.18039312651 0.17589546276 0.1703879674 0.18399311387 
0.18337272956 0.18383679113 0.1829658125 0.18305938648 0.1838529888 0.18404129901 0.18618762111 0.18888099827 0.19614288079 
0.19771504604 0.23434066337 0.14075165128 0.14059384121 0.14453022619 0.14626794905 0.16268291805 0.16696347186 0.1672233569 
0.16752934679 0.1678762803 0.16824841739 0.16861001752 0.16894440664 0.1692250362 0.16943774675 0.16961037056 0.16971723052 
0.16974768008 0.16971479489 0.16959206092 0.16943241948 0.16921977168 0.16891746972 0.16858095926 0.16822294683 0.16785476115 
0.16750769647 0.16720162817 0.16695225744 0.1667569612 0.17108577312 0.19590779015 0.17941094972 0.17072145801 0.16534149774 
0.16184568383 0.15913671716 0.15728516741 0.15620151527 0.15562777209 0.15532234304 0.1551952393 0.1554986422 0.15581181158 
0.1563298727 0.15716590222 0.1581748564 0.15951458932 0.16116487371 0.16359493841 0.16669038571 0.16954232757 0.17067281046 
0.16963580943 0.16709627522 0.16462024653 0.16361802108 0.16287468961 0.16244764593 0.16226310682 0.16227278822 0.16239398391 
0.162601781 0.16294793387 0.1633285011 0.16377801327 0.16426252943 0.16468313701 0.16507179143 0.16545596622 0.16582102166 
0.16616396347 0.16645348024 0.16668570824 0.18683116314 0.19013088442 0.16636474437 0.16609426777 0.16576603059 0.16538200791 
0.16494733167 0.16451989989 0.16403323554 0.16357480158 0.16315741918 0.16279701681 0.16246930168 0.16222488875 0.16213957796 
0.16223690036 0.16256856001 0.16318731041 0.16412016993 0.1655110697 0.16810834835 0.170213955 0.17037700799 0.16842451013 
0.16519455703 0.16211786107 0.16029266825 0.15855612761 0.15733078758 0.15644039216 0.15577130251 0.1552695917 0.15493617946 
0.15482291441 0.15492285986 0.15534790646 0.15607173362 0.15734848254 0.15913890269 0.16242540396 0.1665001078 0.1728319642 
0.18290716653 0.18379037831 0.17532893045 0.16959173985 0.16585677755 0.16449631094 0.16287962755 0.16176127712 0.16079302894 
0.16036614707 0.16001675309 0.15967812892 0.1598056522 0.15980834651 0.16026953657 0.16071336841 0.16137483708 0.16223717038 
0.16377328927 0.16576710919 0.16861749106 0.17272441479 0.1791930145 0.17370002092 0.18178138395 0.17454651014 0.16997948051 
0.16893897914 0.16857273038 0.16841489323 0.16867660801 0.16932369916 0.17031087142 0.17221586717 0.17379766476 0.17370322132 
0.160067264 0.18313868421 0.16193248788 0.1891726585 0.17303387468 0.17120109445 0.16959085586 0.16921736196 0.17001827843 
0.17033912913 0.17108233432 0.17223840872 0.17392353134 0.17503470612 0.17050220624 0.15655280874 0.17495825936 0.17300829425 
0.1566326009 0.16656291726 0.1662357757 0.15436717484 0.1563870177 0.1609394437 0.17032217066 0.16712667658 0.1674791047 
0.16785059782 0.16822251479 0.16855303491 0.16885661577 0.16909588058 0.16926660017 0.16939369807 0.16945170044 0.16943868489 
0.1693650038 0.16924867058 0.16907185508 0.16883363707 0.16853495991 0.16820045061 0.16784309775 0.16748077284 0.16714464483 
0.1668569933 0.17091838729 0.17168020603 0.17555186068 0.17139773054 0.16790349483 0.16544714077 0.1630446491 0.16142720498 
0.16054306762 0.15987726243 0.15938910263 0.15914999491 0.15904456244 0.15901470256 0.15905986768 0.15919856444 0.15950528365 
0.15991423827 0.1607593089 0.16434311313 0.16865396067 0.17305357367 0.17272754915 0.16820003542 0.16347485161 0.16221870422 
0.16218918638 0.16228839257 0.16253704027 0.16287992038 0.16318687709 0.16348214753 0.16374878752 0.16406025912 0.16439319929 
0.1647419694 0.16510570302 0.16542108641 0.16571653487 0.16599774923 0.16632111332 0.16661580478 0.16682428677 0.18055751534 
0.15913976176 0.17155136037 0.16622767989 0.16595157196 0.16561844004 0.16526534707 0.16491388365 0.16450040666 0.16417749797 
0.16386755092 0.16355675621 0.16326582331 0.16298005259 0.16271608436 0.16247947148 0.16230333123 0.16243182993 0.1625044934 
0.16551239828 0.17042330306 0.17256792564 0.17046768216 0.16639984144 0.16129847009 0.16029255308 0.15945759995 0.15892436274 
0.15882599883 0.15871851724 0.15863705201 0.15863476608 0.15878664292 0.15915760503 0.15985897144 0.16072152072 0.16172303892 
0.16333597207 0.16630703189 0.16893894052 0.17256518465 0.17246955339 0.17668934669 0.17307354961 0.17295474914 0.17017664386 
0.16821687725 0.16665350936 0.16530496588 0.16434037776 0.16368892576 0.16317483113 0.16286607949 0.16272467917 0.16273467409 
0.16295650692 0.16336171087 0.16387638107 0.16444616421 0.16542953705 0.16693989972 0.16920967756 0.17192423938 0.17573961791 
0.17230594388 0.17011887475 0.17024718571 0.17058531743 0.1712301316 0.17202642235 0.17245386907 0.17110833196 0.16489026319 
0.16437914998 0.17360976358 0.16277741619 0.15837733257 0.16762046471 0.17296653211 0.1727365745 0.1731296574 0.17361327876 
0.17398854162 0.17351511815 0.17028054325 0.15702250629 0.17252874148 0.1800984392 0.16823332516 0.16646856179 0.17828373744 
0.15982097422 0.16663636315 0.15992934431 0.16689363891 0.17385231674 0.17147332664 0.17811144704 0.16189331659 0.17363595924 
0.15918586868 0.16740914143 0.16783399267 0.16820567578 0.168552555 0.16883358411 0.16904704696 0.16919457627 0.16928066226 
0.16930644501 0.16926898332 0.16916708178 0.16901827892 0.16880348568 0.16851756723 0.168187345 0.16782041064 0.16742523417 
0.16704424038 0.1667010513 0.17143983902 0.17160620706 0.1601519794 0.17118159567 0.16921929411 0.16742564452 0.16593363084 
0.1648522892 0.16407693467 0.16341847949 0.16290326327 0.16245651817 0.16203562946 0.16152400109 0.1609797266 0.16055102829 
0.15994814581 0.15897031919 0.16088450969 0.16163459707 0.16246542515 0.16324201814 0.16383484516 0.16428043836 0.16458108327 
0.1648946671 0.16520153293 0.16541624575 0.16569364302 0.16594608031 0.16614845867 0.16634928198 0.1665224508 0.16695245976 
0.17441906898 0.17124912083 0.17130179955 0.16630883386 0.16604544772 0.16573515733 0.1654127713 0.16515424781 0.16491146231 
0.16462523786 0.16427990978 0.16391530846 0.16350116354 0.16286590418 0.16213443962 0.16054741659 0.15932942221 0.15971359875 
0.15980534929 0.16053614738 0.16116321789 0.16150239136 0.16177801722 0.16225699331 0.16282857932 0.16359321848 0.16437837284 
0.16530055311 0.16652698098 0.16780082303 0.17066138919 0.1720636149 0.17436995175 0.16830026182 0.17152580526 0.17207113983 
0.1706198938 0.16925691766 0.16821434955 0.16737814469 0.16677109195 0.16628877572 0.16577990996 0.16551218404 0.16543405215 
0.16564504039 0.16599453591 0.16634092775 0.1666941759 0.1672897363 0.1680915008 0.16965389838 0.17130162368 0.17133992386 
0.15938936951 0.17147845993 0.17174327481 0.1716264664 0.17057012001 0.16228457465 0.16650808071 0.1742370685 0.17434136011 
0.17335665243 0.17087884624 0.16563968288 0.17332114386 0.16727785038 0.1744721556 0.17078858062 0.17206532622 0.16350747763 
0.17398928461 0.17418227953 0.16078100082 0.17431898804 0.16415277524 0.1717170658 0.16784660711 0.16825838505 0.16862263831 
0.16889893438 0.16909312242 0.16920955398 0.1692833137 0.16929277087 0.16921020858 0.16906435281 0.16884797779 0.1685731344 
0.16821974097 0.16783418414 0.16739869675 0.16693090626 0.1684783414 0.16981304408 0.16895755365 0.16816156514 0.16748591083 
0.16688470582 0.16645057655 0.16580940615 0.1652205776 0.16460710443 0.16364776739 0.16238753433 0.16194591938 0.16236790328 
0.16359495216 0.16462079585 0.16530918868 0.16569215481 0.16569303959 0.16610841072 0.16626127675 0.16635385287 0.16656362855 
0.16671796378 0.1668485058 0.16696078689 0.16683960666 0.17160176178 0.16654823887 0.16630253614 0.16605766563 0.16593885999 
0.16574002153 0.16543888001 0.16492071999 0.16469418624 0.16406194631 0.16305049324 0.17167818264 0.16078135148 0.16311455472 
0.16392398942 0.16453797974 0.16520526501 0.16598267116 0.16662709256 0.16730494267 0.16796800254 0.16866838407 0.16950258666 
0.1703745425 0.17058396569 0.16995014336 0.16955976388 0.16931628777 0.16905684629 0.16873841208 0.16794981125 0.16836986713 
0.167911975 0.16863031248 0.16883037695 0.16885854807 0.1690346961 0.16930062093 0.16972454726 0.17122268759 0.17034215128 
0.17386089564 0.17060213215 0.16876841689 0.17148859474 0.17536222065 0.17198594878 0.17395073961 0.16740537423 0.17110830301 
0.17492740001 0.16695903762 0.17525361288 0.17164227866 0.17030041832 0.17169919951 0.17492001272 0.16238821975 0.16843437255 
0.16380566356 0.16494869668 0.17340014974 0.16533916954 0.17023913326 0.16839186467 0.16905485605 0.16925374549 0.16939105875 
0.16936222406 0.16919592 0.16896447172 0.16867304292 0.16828460039 0.16784789781 0.16744314377 0.17037292321 0.17083110103 
0.17029292155 0.16994571496 0.16968858494 0.16941196331 0.16895134543 0.16819624734 0.16760359642 0.16691495496 0.16558321194 
0.16657291233 0.16699807216 0.16703349588 0.16724943935 0.16718832385 0.16729661208 0.16734529084 0.1673732374 0.17046173767 
0.16466976627 0.17034403525 0.17151774525 0.16712518117 0.16694548548 0.1668572178 0.16683972291 0.16669638372 0.16623848955 
0.16579049122 0.17247190682 0.16719275423 0.16748995079 0.16871913751 0.1691574354 0.16958934549 0.16992242683 0.17013755261 
0.17025128408 0.17122998229 0.17057807818 0.17090511132 0.17109321716 0.1711651233 0.17090763208 0.17105108168 0.1712167861 
0.17092078082 0.17061824141 0.17032185218 0.1731415322 0.17533302161 0.16880011158 0.16904273057 0.17121442163 0.16789713675 
0.16656547963 0.167278184 0.16991419175 0.17159500876 0.16899222295 0.17478703508 0.16610303971 0.17600882488 0.17582154396 
0.17462761518 0.16943449928 0.16952736019 0.16937395885 0.16911516856 0.16879810603 0.16834056026 0.16782494043 0.16695314095 
0.17149726577 0.17133663742 0.17178346668 0.17168451178 0.17106638234 0.17011317936 0.17117404533 0.16858982374 0.16932586971 
0.16856342527 0.16840247771 0.16808482154 0.17556158933 0.16768213142 0.16767493073 0.16791492721 0.16919256884 0.16758146716 
0.17108260485 0.17148991632 0.17382603175 0.17574661385 0.17064867685 0.17167188395 0.17135876763 0.1715471527 0.17020165004 
0.17213090633 0.17295872502 0.17316974493 0.17345746928 0.17082999705 0.16798169061 0.16911348507 0.17613863898 0.17543628386 
0.1682505122 0.1686378123 0.17118908614 0.16776823402 0.16795968725 0.17009055498 0.16796477374 0.17242423423 0.17396771386 
0.17277845937 0.17196195326 0.17610596231 0.1744105818 0.16914113631 0.16863689472 0.16983508807 0.17308153406 0.16856180256 
0.16964480115 0.16949645296 0.16904307945 0.16840715424 0.17075585393 0.17277790117 0.17105353389 0.17350431749 0.17341965095 
0.1691051493 0.17456999624 0.16970354894 0.17554556491 0.16942098647 0.17503424675 0.17046933168 0.16913227617 0.17557260358 
0.1741015148 0.17497250794 0.17022332771 0.17590636389 0.16669357053 0.16684343779 0.16709775926 0.16742134627 0.16780494627 
0.168197946 0.16860648064 0.16897495017 0.16935494477 0.16966849464 0.16989858392 0.17007088181 0.17014878857 0.1701355128 
0.17004475175 0.16988050291 0.16963851066 0.16934236784 0.16898263494 0.16860320961 0.16821432733 0.16781403765 0.1674671861 
0.16713879665 0.16687979717 0.1667134775 0.1666648103 0.23627383721 0.18483905335 0.17110720694 0.16252015943 0.15704592811 
0.15384271966 0.15210353636 0.15105962564 0.15084238729 0.15059830569 0.15080332265 0.15142487332 0.15216545819 0.15307213455 
0.15418932165 0.15558596649 0.15729853298 0.15943514875 0.16194599416 0.16512703849 0.16807669393 0.17015167551 0.17086581964 
0.17003785751 0.16827730673 0.1661286387 0.16427595869 0.16289072229 0.16198400112 0.16144652009 0.16126295259 0.16135699699 
0.1616899732 0.16212854989 0.16263589835 0.16320391241 0.16378661324 0.16434368619 0.16491125321 0.16538699782 0.16581060802 
0.1661627312 0.16643115269 0.16659643464 0.16639906849 0.16610824417 0.16573456551 0.16530622114 0.16478083704 0.16424571458 
0.16370095823 0.1631016332 0.16254520879 0.16202786709 0.16155917045 0.16124383837 0.16111953233 0.16124900066 0.16177049538 
0.16265888205 0.16416520331 0.16602506089 0.16823961202 0.17029276999 0.17117970661 0.17057610238 0.1686331241 0.16550440827 
0.1623791141 0.15941473003 0.15692612039 0.15495174776 0.15345163337 0.15229327331 0.15128923809 0.15075325914 0.15033098951 
0.1500473684 0.15015735547 0.1507502049 0.15173800831 0.1535060714 0.1558321219 0.1604850939 0.16872571598 0.18418846448 
0.21209545563 0.19600243925 0.18418648539 0.17462222669 0.1687044348 0.18256824413 0.18097374328 0.17861047512 0.17789361855 
0.17732275503 0.17646454086 0.17627358736 0.1750534256 0.17468670407 0.17412467273 0.17460528325 0.17469734305 0.17567039075 
0.17675546121 0.1773162267 0.177850986 0.18036183553 0.18395194217 0.18890658598 0.19583424841 0.20577764089 0.22248397036 
0.18371332069 0.19006404454 0.18573988952 0.18288992963 0.18252357801 0.18127354409 0.1819429016 0.1807650135 0.18100857909 
0.18168871735 0.18352562729 0.18650178447 0.17445387221 0.18102088491 0.2137716924 0.20413182172 0.20728434912 0.2007212817 
0.18671401541 0.18354957893 0.18325225491 0.18268045433 0.18127834833 0.18243628567 0.18275073883 0.18442150543 0.1859132828 
0.19196266491 0.19496956245 0.21338584287 0.1582648233 0.16659902592 0.14496100213 0.14626606378 0.15155647659 0.1668454032 
0.16666114669 0.16750683508 0.16786252066 0.16820377206 0.16855634395 0.16886843616 0.16915729874 0.16938162883 0.16952660269 
0.16963053078 0.16968095174 0.16963642003 0.16952571908 0.16935857223 0.16912947473 0.16885595106 0.16854666069 0.16820943699 
0.16786007174 0.16753293665 0.1672037506 0.16692561689 0.16672001156 0.17344257174 0.16650870054 0.17495707877 0.18191215247 
0.19316034348 0.16692831896 0.16231628411 0.1595183667 0.15794382772 0.15704640688 0.15640326874 0.15562146958 0.15551227003 
0.15591912482 0.15637503918 0.15692358647 0.15759515803 0.15832664575 0.15922595097 0.16046850283 0.16224403727 0.16536946997 
0.16864031619 0.17032683639 0.16992499307 0.1676224176 0.16502764714 0.16345869431 0.16278325071 0.16247760106 0.16231442031 
0.16229516486 0.16243803484 0.16272764135 0.16307713584 0.16345433801 0.16382843967 0.16423894825 0.16468378881 0.16512625243 
0.16550908447 0.16587876967 0.16621615582 0.16648382193 0.16041138852 0.16205256516 0.16630612393 0.16603564568 0.16568943111 
0.16531091807 0.16488816527 0.16446557046 0.16401681434 0.16358045552 0.16318916792 0.16281515407 0.16250514633 0.16225307546 
0.16215244935 0.16223473827 0.16253643675 0.16312673121 0.16408911069 0.16557123531 0.16792250709 0.16988195003 0.17030092334 
0.16872968026 0.16550668367 0.1624772928 0.16038693447 0.15881414468 0.15754280524 0.15658506583 0.15577222584 0.15518734349 
0.15482535212 0.15469008439 0.15479816642 0.15534464818 0.15614432518 0.157397138 0.15943276989 0.16211769196 0.1655796326 
0.17204651991 0.18206720384 0.19401769992 0.16215980086 0.17435103179 0.18237973447 0.17014838844 0.16720353515 0.16438990047 
0.16289002693 0.16200680063 0.16137866941 0.16099613868 0.16046128892 0.16020855805 0.15994452772 0.16003466322 0.16019280008 
0.16075571149 0.16149191602 0.1621550762 0.16330436156 0.16485556619 0.16715368112 0.17083592965 0.17528646439 0.18193968438 
0.17080959866 0.17391013033 0.17664215292 0.17428327115 0.17230522906 0.17028081892 0.16925816334 0.16857511686 0.16815424391 
0.16826058669 0.16874889852 0.16983123059 0.17152778152 0.17419497891 0.17338552957 0.16116997042 0.17730662302 0.17626291439 
0.17396817877 0.17233371919 0.17177747894 0.17103490666 0.16989497292 0.16997260262 0.17038077962 0.17142401526 0.1728601727 
0.17496239753 0.17410439771 0.1887217983 0.16715287316 0.1554491209 0.15691709144 0.16850372622 0.15476078964 0.17984795383 
0.15696236974 0.16113682368 0.16817009701 0.16747251361 0.1685051026 0.16880076058 0.16902362278 0.16920000367 0.16931988894 
0.16938040132 0.16938186838 0.16931423002 0.16918156982 0.16899855345 0.16876938806 0.16848459795 0.1681693342 0.1678486801 
0.16749857132 0.16715552715 0.16684516359 0.16661725679 0.1604255057 0.16124792617 0.16862220566 0.16660984304 0.17294498514 
0.16645765802 0.16376454411 0.16257726915 0.16170271473 0.16068084401 0.1592496832 0.15986892406 0.15998845278 0.15998785351 
0.15993673234 0.15990732169 0.15985623038 0.15985619744 0.16045381252 0.16205844236 0.17306864646 0.16988168972 0.16179196843 
0.16157987494 0.1620191164 0.16248205835 0.16281530665 0.16321497599 0.16361679476 0.16396172928 0.16427314172 0.16454382432 
0.16481293872 0.16517115465 0.16551616146 0.16582916064 0.16612263774 0.16642436647 0.16674551295 0.17631322359 0.15955107961 
0.16617501235 0.16588434188 0.16556299718 0.16523611288 0.16488575211 0.16453757595 0.16422064807 0.16391562089 0.16359489487 
0.16327987164 0.16297186257 0.16267716331 0.16240385346 0.16222508997 0.16248164166 0.16311074908 0.16546407731 0.16908614593 
0.17229312778 0.17095601314 0.16743306629 0.16183661917 0.16060491114 0.15966047496 0.15923225528 0.15893976798 0.15877439128 
0.15864408655 0.15854107276 0.15855343827 0.15880560672 0.15956119734 0.16056029327 0.16187518119 0.16363180567 0.16602495597 
0.169003827 0.17221672238 0.17755718677 0.16026700689 0.17315756476 0.17043081589 0.16025369548 0.16494871985 0.16665074722 
0.16783555939 0.16813176055 0.16658573133 0.16534839948 0.16455673701 0.16402063276 0.16363244177 0.1633479825 0.16309443371 
0.16301084999 0.16316138515 0.16348623157 0.16403211558 0.16461052271 0.16540821402 0.16654360723 0.16800614992 0.17052146695 
0.17358566133 0.17746284625 0.1655190304 0.17243182793 0.1719000007 0.17112017554 0.17047180233 0.17005664555 0.17004294203 
0.1703692271 0.1708913705 0.1716661754 0.17226736183 0.1664174412 0.17341910279 0.17394081631 0.17353966815 0.17295221412 
0.17260923619 0.17265595999 0.17287001251 0.17322311528 0.17374226502 0.17382806291 0.17220642933 0.17138299338 0.17125609309 
0.16716678062 0.15925174498 0.15890175778 0.16760598919 0.17254183731 0.16483264408 0.15894471513 0.16617822721 0.15947006406 
0.17106432861 0.1588317678 0.1765516509 0.16814886783 0.16897066117 0.16913506503 0.16923634093 0.16927021667 0.16923391474 
0.1691277582 0.16895851225 0.16874271549 0.16846434726 0.16814252763 0.16779558384 0.16743081428 0.16703779129 0.16668115108 
0.16927333841 0.16402162819 0.16766400256 0.17156621352 0.17544166461 0.16647333001 0.16675989005 0.16395628091 0.16363304373 
0.16339275469 0.16291436759 0.16232006756 0.16179027271 0.1607606511 0.1734059343 0.16304876931 0.16384004548 0.16444974451 
0.16485586272 0.16515870175 0.16536608294 0.16552984742 0.16574498907 0.16604549292 0.16629848617 0.166541415 0.16677272522 
0.16697833636 0.16119251345 0.16242615703 0.16625211323 0.16599976233 0.16573866286 0.16541520042 0.16520403186 0.16498161069 
0.16470850165 0.16438051012 0.16396421705 0.16347126955 0.16286106731 0.16191622822 0.16118543818 0.15969094566 0.16003618876 
0.16054052122 0.1611691087 0.16163172239 0.16175857032 0.16201624295 0.16247464693 0.16305553353 0.16416908402 0.1652043336 
0.16644209398 0.16829565316 0.17034428193 0.16121807468 0.16278215 0.17194342161 0.17036397298 0.17338690073 0.16734721901 
0.1669221084 0.16656392905 0.16630798192 0.16614819247 0.16602155187 0.16588460609 0.16606757486 0.16654752967 0.16705955145 
0.16764317513 0.16821924162 0.16900189518 0.16994611546 0.17054534625 0.17161003479 0.16876432479 0.16754324573 0.17170160976 
0.17150858923 0.17129618019 0.17100431147 0.1712239215 0.17141206747 0.17156004137 0.17148656087 0.16849823743 0.16804475042 
0.17433626153 0.17448627825 0.17409017308 0.17438648172 0.17444811163 0.17440564175 0.17416600356 0.17373072473 0.16559131969 
0.16648041447 0.1623879671 0.16221466307 0.16895439479 0.16869970045 0.16389042651 0.16737165428 0.16136139025 0.17215153776 
0.16775844629 0.17128589019 0.17123403476 0.17039884974 0.16752732948 0.16832201038 0.16901966556 0.16926659372 0.16918148869 
0.16903034237 0.16880899648 0.16852371299 0.16816004563 0.1677578808 0.16735603499 0.16689120433 0.17063148074 0.17042678426 
0.16679695156 0.16905947367 0.16630424201 0.16552696059 0.16448307416 0.16328490583 0.16927136539 0.16918798447 0.16615260377 
0.16630149688 0.16636880788 0.16639820852 0.16665284193 0.16683960335 0.16703918075 0.16722566398 0.16312542897 0.16157347427 
0.16633592784 0.16655162158 0.16673066068 0.16609858261 0.16600307088 0.16586880428 0.16562680103 0.16525221074 0.16469315193 
0.163869747 0.16979719047 0.16059524636 0.16426371514 0.16486426298 0.16464386796 0.16567331392 0.16580607975 0.16711284927 
0.16779585623 0.16849196722 0.16934573932 0.16891754 0.16927049313 0.16311070589 0.16585101773 0.16927655499 0.16884927072 
0.16898280574 0.16887154834 0.16823410184 0.16878033731 0.16916212522 0.16956557347 0.16977637104 0.16992474743 0.17029247993 
0.17033972129 0.16878395893 0.16536652153 0.17116380658 0.1669563257 0.17154744866 0.17169098414 0.17168290551 0.17165631686 
0.17152372552 0.17126161144 0.1677508333 0.17391152846 0.17512757954 0.17534506542 0.17545568339 0.17531712492 0.17479578605 
0.17400253392 0.16944577582 0.16564518788 0.16517606112 0.16986882929 0.17036557729 0.16915848782 0.16596852006 0.17014054056 
0.16851103186 0.17267308782 0.1677369162 0.1718705487 0.16938461319 0.16967287336 0.16426942307 0.16820369562 0.16433184826 
0.16863442636 0.1682139218 0.16773805397 0.16724691855 0.17080767655 0.16900932412 0.16997171288 0.16972897235 0.16934509537 
0.16732084864 0.1691499929 0.16739287942 0.16738206507 0.16742194821 0.16752918107 0.16690302175 0.16728167339 0.1669712756 
0.16529708628 0.16694096889 0.16691107846 0.16672186945 0.16621974074 0.16679518186 0.16881835359 0.16726989483 0.16937677604 
0.16802445912 0.16767415014 0.16931458628 0.16995426085 0.17020898815 0.17022783667 0.17123155974 0.17140732301 0.17030364403 
0.17077978709 0.17139316396 0.17101251236 0.17083565724 0.17121687771 0.17111971322 0.1688769149 0.16781653339 0.16880682177 
0.16895881836 0.16699800037 0.17012797516 0.17129395339 0.17156660012 0.17158803077 0.1713414023 0.16864007861 0.1758529235 
0.17597457333 0.17589579017 0.17526223492 0.16918575131 0.17029244833 0.16929920373 0.16848583028 0.16731456052 0.17071938987 
0.17204325475 0.16991866249 0.17059605664 0.16714067344 0.16652450116 0.17162186683 0.17385113187 0.17281525467 0.17171751084 
0.17122805873 0.17076714507 0.17475448448 0.16810762099 0.17050463774 0.16829640408 0.17524043318 0.16858888644 0.16949693599 
0.17280652095 0.16843614433 0.16797614141 0.16816229886 0.16806574894 0.16763517555 0.16781199954 0.17000730175 0.17167683546 
0.17134014814 0.16885820851 0.17264576322 0.17195435763 0.17112874193 0.17354589094 0.17236527756 0.17278600935 0.16798614223 
0.16804192648 0.16942313859 0.16816045283 0.1687955898 0.16836608243 0.16827963299 0.17072672206 0.17105972625 0.17104033779 
0.1703857385 0.16931947392 0.17589708662 0.16772588118 0.17577380612 0.1744679971 0.16897429624 0.17229357667 0.16934535288 
0.1708159691 0.17222937058 0.17030881621 0.17386374641 0.17357384868 0.16970046728 0.17344083255 0.17384962383 0.17274275666 
0.1761758025 0.1691808414 0.1710188424 0.16950459212 0.17437019214 0.16884533011 0.16875814209 0.16957355213 0.17031017461 
0.1682905972 0.17510858459 0.17537847991 0.16955628668 0.16921603401 0.17327003646 0.17517373702 0.16951786198 0.16941544446 
0.16958676857 0.16893077369 0.1742744324 0.17410119244 0.1696628227 0.1759144491 0.17032802709 0.30863103291 0.3029645159 
0.16668125199 0.28658087595 0.29217699532 0.23567369636 0.15360553054 0.13428328418 0.12335232541 0.11424861787 0.10808437928 
0.10158944483 0.099568874255 0.097264185551 0.096471856799 0.096015030252 0.094611019408 0.095357921207 0.096077296339 0.096295478121 
0.09660588921 0.097401381942 0.098076774056 0.099165378748 0.1017395089 0.10446003756 0.10689327489 0.10943571041 0.11259870056 
0.1180100873 0.130688319 0.15163931639 0.23114446792 0.22760792338 0.14642927689 0.12567638521 0.11633475364 0.11280362946 
0.11105583637 0.10819131306 0.10437310215 0.10250106188 0.10055717804 0.098007633578 0.097778083274 0.097683352539 0.096942175008 
0.096654298961 0.097519175767 0.098975508005 0.09996954792 0.10242004766 0.10456543165 0.10773930454 0.11168903289 0.11650471497 
0.12425968915 0.13537104311 0.15461412475 0.21824724842 0.16666659367 0.16667398135 0.16677918315 0.16708265623 0.16748405242 
0.16793411079 0.16843160396 0.16894736673 0.16943281066 0.1698617468 0.17022225641 0.17053450723 0.17073693186 0.17084241188 
0.17084203627 0.17073566619 0.17052840109 0.17022060686 0.16985303894 0.16936907241 0.16885658932 0.16834666411 0.16783950126 
0.16738214314 0.16700859798 0.16674379314 0.16666511436 0.16667720202 0.26731790307 0.18907227586 0.16477085641 0.15478538473 
0.14934167637 0.14647859236 0.14504398361 0.1445194927 0.14452297945 0.14485925716 0.1454295732 0.14611192344 0.14692985243 
0.147937848 0.14919984828 0.15092053668 0.15326196892 0.15632380183 0.16005121581 0.16443889662 0.16907349244 0.17290471179 
0.17528881173 0.17544186098 0.17353156214 0.17032495765 0.16673572934 0.16382052216 0.16177634873 0.16042818556 0.15977345148 
0.15966754522 0.15990681545 0.16041228454 0.16110334137 0.16188108048 0.16267392385 0.1634075246 0.16412625673 0.1647804468 
0.1653572735 0.16586680409 0.16629267448 0.16658914286 0.16669875049 0.16670194084 0.16669632571 0.16669774139 0.16658498904 
0.16630512675 0.16590527887 0.16537535033 0.16474495046 0.16408937503 0.16337137559 0.16258988521 0.16179182152 0.16108114145 
0.16041341408 0.15992666133 0.15969123827 0.15979510232 0.16052470354 0.16185278204 0.16414895567 0.16731700069 0.1707100326 
0.17368337472 0.175504412 0.17488289289 0.17219470793 0.16786665454 0.16312715601 0.15884635128 0.15532844671 0.15266177581 
0.15063161871 0.14901341561 0.14775653934 0.14679437978 0.14597496845 0.1452169529 0.14468850706 0.14446214668 0.14447999851 
0.14511355163 0.14686511799 0.15020658758 0.1561691066 0.16822862607 0.20006383278 0.28447244624 0.28883468907 0.31312641758 
0.28253090359 0.29793898973 0.30490841198 0.30637627865 0.30692734135 0.29561845896 0.32580954891 0.30898310237 0.2995534037 
0.28528235133 0.29274510558 0.29885895223 0.34610301392 0.2696634684 0.26256024732 0.22496419284 0.29577748937 0.30105096616 
0.30051938163 0.31695021323 0.31311625825 0.3100552552 0.30377461293 0.29617656674 0.29060147742 0.29967360102 0.28469509278 
0.32400456779 0.16665344323 0.16666670556 0.16675921247 0.1670158056 0.16738941166 0.16783238819 0.16833030118 0.16884447535 
0.1693269337 0.16980467037 0.17022726668 0.17051904086 0.17072015069 0.17081937165 0.17081091738 0.1706999652 0.17048409668 
0.17019299233 0.16980241893 0.1693604447 0.16886569236 0.16835710268 0.16786427714 0.16741045911 0.16702655984 0.16675921568 
0.16666668968 0.16667756992 0.30828721563 0.18963007551 0.16693980159 0.15592188298 0.14991150314 0.14674660121 0.14513146827 
0.1444873369 0.1444094366 0.1447283803 0.14526015012 0.14597438204 0.14680723652 0.14777933428 0.14897224515 0.15049046459 
0.15247148643 0.15499148992 0.15827930114 0.16245651576 0.16709522428 0.17149336345 0.17449237504 0.1754103094 0.17419761822 
0.17136814697 0.16780607524 0.16465094356 0.16231810482 0.16070191475 0.15986746708 0.15964700814 0.15982715838 0.16026423732 
0.16087710852 0.16160258683 0.16238804814 0.16322949526 0.16399213127 0.16467015565 0.16529957147 0.16582967053 0.16624984501 
0.16655793511 0.16670941802 0.16669592853 0.16669240429 0.16670640396 0.16654842704 0.16624535271 0.16582521412 0.16527925276 
0.16464917595 0.16399981639 0.16329103903 0.1625184326 0.16178801787 0.16103899353 0.16037441841 0.15989206806 0.15965519052 
0.15979228579 0.16038841512 0.16172182469 0.16389496278 0.16691342559 0.17030419146 0.17349173784 0.17528318281 0.17489957073 
0.17205115261 0.16799915831 0.16324805958 0.1591030964 0.15555197494 0.15262434924 0.15050372271 0.1489587371 0.14764488443 
0.14665458604 0.14588369246 0.14520166888 0.14469238669 0.14437133372 0.14444130849 0.14518631069 0.14656035889 0.14962378705 
0.15540752145 0.16517043728 0.18423232945 0.29482003007 0.26775993483 0.30488972727 0.28473247901 0.29794793859 0.3076821622 
0.31239023861 0.31511546481 0.30055802085 0.30461226688 0.30080257407 0.29454116598 0.28838706178 0.25234664466 0.2831699817 
0.27008379144 0.29578354999 0.29461645371 0.28835410185 0.29299335611 0.30322930283 0.30655564755 0.29768995975 0.30480409955 
0.30337789369 0.30045935966 0.29401667419 0.28756486974 0.32322222501 0.30316241163 0.30990478446 0.16667813946 0.16667778779 
0.25338124871 0.25763376493 0.25088790727 0.25755247568 0.20942785198 0.20693163996 0.14871880857 0.1124977145 0.10581716823 
0.097992406339 0.088596329875 0.093739486515 0.084379456354 0.076750471208 0.079661081902 0.08277125182 0.077763060795 0.079525694149 
0.073806098568 0.077761276902 0.072018851485 0.074861243378 0.070018060389 0.072787525288 0.068420296571 0.072094019828 0.067458156384 
0.071178974335 0.066492431365 0.070202652149 0.066117067897 0.069950668224 0.066228569381 0.069653166496 0.067025010368 0.069764386308 
0.067836686891 0.069965566026 0.069372485004 0.070773550633 0.071141821529 0.071655329836 0.072578295429 0.073587122112 0.075163627269 
0.075756306271 0.078130815768 0.079081958553 0.081674281563 0.083739877314 0.086352050006 0.088769076616 0.09209155143 0.096692855795 
0.10048432111 0.10725606517 0.11568557193 0.14446216811 0.16666993082 0.16667665757 0.16670528101 0.16679045002 0.16690672173 
0.16679110565 0.16704659207 0.16722524165 0.16700948344 0.16738727666 0.16759502966 0.16731966763 0.16778610733 0.1680155991 
0.1676714259 0.16821500937 0.16846842508 0.16805820256 0.16868240535 0.16893022555 0.168466994 0.1691226155 0.16934711475 
0.16886856523 0.16952926255 0.1697240727 0.16923802805 0.16987498506 0.17003068829 0.16956262672 0.17014684577 0.17028991304 
0.16983298012 0.17037020907 0.17043791598 0.1700268897 0.17048416028 0.17051243089 0.17015497148 0.17051322555 0.17048718806 
0.17019996523 0.17044146628 0.17036567907 0.17015780772 0.17027397432 0.17014762759 0.17002733926 0.17003197802 0.16987280724 
0.16982116863 0.16971669141 0.16951079308 0.16956119191 0.16932336511 0.16906229308 0.16922174124 0.16886205224 0.1686228245 
0.16883389333 0.16840705464 0.16814781473 0.16842031756 0.16794336683 0.16771021535 0.16800221367 0.16752539756 0.16731647332 
0.16761706773 0.16715794361 0.16699952892 0.16727462015 0.16688405332 0.16679080401 0.16700236358 0.16670674488 0.16668135864 
0.1668006836 0.16665105447 0.16666386511 0.16667980315 0.16668813482 0.22478544699 0.22431184997 0.1944983236 0.17887339776 
0.17091402391 0.19469616755 0.16384046267 0.15995884131 0.17386140829 0.15613022327 0.15405951275 0.16351037514 0.15199715056 
0.15089776021 0.15781682377 0.1495341904 0.14901114754 0.15444508619 0.14830267665 0.14817220533 0.15239373798 0.1478435644 
0.14790159227 0.1513525434 0.14761052344 0.14781552625 0.15074318514 0.14786123115 0.14815804903 0.15046871361 0.14831474752 
0.14868000538 0.15065394102 0.14889061629 0.14932535099 0.15099967007 0.14963813911 0.15020143774 0.15148795755 0.15070901936 
0.15139988019 0.15227138594 0.15208418332 0.15312377163 0.15341729276 0.1539583302 0.15524357321 0.15488495745 0.15625717185 
0.15800135693 0.15670066259 0.15929716273 0.16118465044 0.15899182963 0.16266119293 0.16502941617 0.16175161487 0.16660290603 
0.16854684457 0.16488168476 0.16998800163 0.17150576268 0.16796431366 0.17236256771 0.17300818674 0.17018796514 0.17314141732 
0.17272014586 0.17117688106 0.17212658964 0.17090523913 0.17069808013 0.16977540226 0.16812211875 0.168920701 0.16706222613 
0.16539759508 0.16661894244 0.1645546529 0.16338616819 0.1647051968 0.16270536039 0.16186855617 0.16316706666 0.16140999661 
0.16092124121 0.16207923047 0.16068129162 0.16050443968 0.16143044569 0.16045972196 0.16050152042 0.1611837361 0.16057559119 
0.16075162581 0.16123488982 0.16089962675 0.16121093145 0.16148188457 0.16145972931 0.16180795046 0.16188411122 0.16208136781 
0.1624874339 0.16240407876 0.16280312618 0.16316490054 0.16299046554 0.16347391365 0.1638243215 0.16360636577 0.16408947239 
0.16443452949 0.16416743956 0.16469915156 0.16498938556 0.16468617809 0.16522811448 0.16549721646 0.16517832846 0.16571318436 
0.16593783691 0.16562495764 0.16612004745 0.16630407172 0.16601426878 0.16643284374 0.16654215778 0.1663182647 0.16662246958 
0.16664945996 0.16652201299 0.25303536487 0.25084540978 0.16664294374 0.16651958924 0.16642103205 0.25504098271 0.2318260355 
0.16630511959 0.16612470273 0.16628497569 0.1659445699 0.16572870965 0.16599228531 0.16551113788 0.16520304107 0.16559733689 
0.16494364444 0.16463473723 0.16512590832 0.16436163454 0.16402690461 0.16460137892 0.16374162118 0.16337163071 0.16405186777 
0.16306266881 0.16266592495 0.1634653016 0.16237279528 0.16200177285 0.16286212659 0.16171866887 0.16139685173 0.16229866977 
0.1611629075 0.16085429872 0.16178990676 0.16069672462 0.16052682763 0.16140252599 0.16046846441 0.16043578016 0.16116279052 
0.16051410352 0.16070448721 0.1611663043 0.16101878415 0.16151619627 0.16150907506 0.16200206991 0.16287366936 0.16223670508 
0.16365219165 0.16503842605 0.16349875365 0.16598958833 0.1676319799 0.16525291122 0.16865734158 0.17019377651 0.16730736347 
0.17123640979 0.1723691922 0.16943002212 0.1728995216 0.17308109173 0.17091216439 0.17289455112 0.17199768717 0.17110185227 
0.17102061584 0.16918504577 0.1697433333 0.16757831075 0.16523357335 0.1669787359 0.16368089982 0.16157080355 0.16369862494 
0.16005594188 0.15803552334 0.16062969579 0.15680089903 0.15540992315 0.15793161638 0.15441347857 0.15319851523 0.15580243705 
0.15248603479 0.15163340371 0.1540927443 0.15108332065 0.15035241716 0.1528457135 0.14988804046 0.14935693363 0.15187058901 
0.14901252013 0.14857445244 0.15108855931 0.14832042625 0.14795002465 0.15048960036 0.14786862573 0.14752368449 0.15020464188 
0.14761503329 0.14741141908 0.15020277451 0.14760658515 0.14762417174 0.15045494205 0.14797988166 0.14817113649 0.15106649474 
0.14894050203 0.14962430571 0.15231207224 0.1512550456 0.15254937818 0.15479019037 0.15492536776 0.15732628719 0.15879080043 
0.16143431568 0.16536116984 0.1650625691 0.17301829194 0.18314441538 0.1764611445 0.19893888886 0.23283427044 0.19994962981 
0.19245056756 0.18711258193 0.17863752873 0.17195536191 0.1673492932 0.22539245952 0.16235598222 0.15802273285 0.21244756597 
0.15410054952 0.1511633833 0.20247572616 0.14711106066 0.1443910811 0.1745839349 0.14534642364 0.14354383822 0.17262423656 
0.14326928368 0.14176800959 0.1688801607 0.14249638382 0.14148984446 0.1671527412 0.14225830882 0.14115748107 0.16578728699 
0.14089828739 0.14007347746 0.16535497644 0.14062874313 0.14006774507 0.16450799061 0.13981596495 0.13936670197 0.16429780975 
0.13946270236 0.13947580677 0.16469146018 0.13949868491 0.14000490023 0.16506805927 0.13962699369 0.14065885198 0.1656684657 
0.1401607044 0.14138654493 0.16533951128 0.1403200897 0.14181589246 0.16519645819 0.14168252923 0.14319950676 0.16547330679 
0.14207839156 0.1440972171 0.16690758374 0.14378968547 0.14639839355 0.16817375902 0.14560207789 0.14887044645 0.17031950667 
0.1484165775 0.15236511152 0.17265199273 0.15347712784 0.15833775728 0.17628880637 0.16083399542 0.16684215431 0.18358180253 
0.1733051696 0.18637231589 0.19595362311 0.17259545023 0.19428018988 0.15797494904 0.1631357269 0.20786638088 0.15407804571 
0.15594340338 0.1814756803 0.15292754837 0.15377667748 0.17633732795 0.1527447816 0.1537028866 0.17364347292 0.15243796071 
0.15299038984 0.1739229167 0.15195918489 0.15265723608 0.17327560848 0.15156730917 0.15210440759 0.17324549148 0.15124460213 
0.1510739831 0.17457365407 0.15130746327 0.15088014782 0.17542703041 0.15248167459 0.15147051747 0.17632460293 0.15488950915 
0.15246649219 0.17719810138 0.1634277102 0.15982894199 0.18193603216 0.19072440543 0.1651969597 0.20862576744 0.18932656158 
0.20392743968 0.17263497244 0.189839317 0.16286968963 0.16772596112 0.17891359143 0.15557176651 0.16068132069 0.17263271222 
0.1548539331 0.15911138195 0.17129420831 0.15202409155 0.15274315961 0.17462100231 0.15142229042 0.15225715664 0.1740251778 
0.15102485169 0.15114906345 0.17565892423 0.15074952247 0.15064246506 0.17606171284 0.1514614335 0.1510486268 0.17584005399 
0.15164005919 0.15069934144 0.17675883274 0.15396400324 0.15251866161 0.17734309695 0.15648907573 0.153802997 0.18015478095 
0.16709179084 0.15868473143 0.18396467634 0.19036078114 0.16594285194 0.18924625536 0.18893037902 0.20236467366 0.16667479625 
0.19687828411 0.17499628145 0.15072951123 0.20019654547 0.18169078896 0.15433045489 0.17229121881 0.1604805287 0.18448890508 
0.15183539409 0.19257529328 0.15629214444 0.16433360509 0.17572925769 0.23864519431 0.2084843497 0.1688975809 0.15559370724 
0.16692160459 0.1670704789 0.16719367071 0.16735848495 0.1670906425 0.16750602743 0.16769629689 0.16737754901 0.16786751432 
0.16806680086 0.16770520569 0.16824894517 0.16846292864 0.16806455342 0.16863883314 0.16883265695 0.16843237914 0.16899596769 
0.16917292354 0.16877780921 0.16931203425 0.1694596919 0.16908887521 0.16956578372 0.16968459665 0.16933951714 0.16976645905 
0.16984891194 0.16953578825 0.16989974682 0.16994777431 0.16967260013 0.16995960608 0.16996323829 0.16974169862 0.1699442868 
0.169903228 0.16973995976 0.16983907188 0.16975550148 0.16966157779 0.16967427048 0.16956224551 0.16951927077 0.16945526644 
0.16930718052 0.16933114792 0.16915560571 0.16897066503 0.16907221406 0.16880364597 0.16860450133 0.16875255698 0.16842789059 
0.16821297423 0.16840506327 0.16803207229 0.16782859563 0.16804129506 0.16765924228 0.16747164507 0.16767878626 0.16732330692 
0.16716710484 0.1673552854 0.16704251817 0.16692443116 0.16707170548 0.16682881949 0.1667438055 0.16684942368 0.16961351036 
0.17105824362 0.20875978369 0.20015408343 0.1891536488 0.16665119997 0.1811510305 0.17416391312 0.16966202798 0.16584499302 
0.17433946064 0.16305030266 0.16096136437 0.16757851906 0.15914601254 0.15774818463 0.16327056227 0.15633785988 0.15559654741 
0.16024444331 0.15464828424 0.1542929486 0.15807556979 0.15372116129 0.15338868251 0.15664515857 0.15309430438 0.15314268349 
0.15587946402 0.15297634053 0.15311633057 0.15538385065 0.15305248614 0.1532426525 0.1552112844 0.1533802121 0.15368710066 
0.15532752883 0.15383820719 0.15433855929 0.15561480968 0.15458373204 0.15526213355 0.15603028842 0.15566951333 0.15649210118 
0.15670086316 0.15698823276 0.15798422337 0.15762640708 0.15865940972 0.15995139395 0.15880380992 0.16074428839 0.16224230734 
0.16025562377 0.16336509071 0.16506424013 0.1621353567 0.16647398532 0.16792434981 0.16512877912 0.16922277036 0.17014641565 
0.16825013492 0.17070050796 0.17080820752 0.17020052634 0.17039801582 0.16968801661 0.17025563578 0.16855410419 0.16728348561 
0.16841427193 0.16615521376 0.16510571282 0.16574693915 0.1646381095 0.16377980598 0.16409644498 0.16338929329 0.16278001272 
0.16320520162 0.16255740304 0.16212381228 0.16261548271 0.1620260428 0.16181291177 0.16230222704 0.16180123568 0.16177216195 
0.16223143938 0.16181604186 0.16190026422 0.16230897975 0.16199182495 0.16214007064 0.16247555464 0.16230637271 0.16255353461 
0.16276882413 0.16274123014 0.16300475868 0.16313118165 0.16323330133 0.163539068 0.16354973673 0.16378195755 0.16408346064 
0.16401230248 0.16429327488 0.1645518767 0.16447354372 0.16474673782 0.16499870921 0.1648763933 0.16519429009 0.16542346102 
0.1652641624 0.16561101948 0.16581731345 0.16564431506 0.16599126597 0.16616424595 0.16600249868 0.16631042281 0.16643740406 
0.16631188326 0.16655476185 0.16662964986 0.16657499031 0.17489575209 0.19940731041 0.20055731308 0.18734690297 0.18474655121 
0.16638088448 0.16625947092 0.16612490145 0.16594453374 0.16623257951 0.16578134501 0.16556394881 0.16593341019 0.16537372942 
0.16511650028 0.16557809 0.16490188052 0.16463173714 0.16516924449 0.16442285879 0.16413884926 0.16473763433 0.16389958298 
0.16359042927 0.16427952754 0.16336386931 0.16307396798 0.16379448985 0.1628675641 0.16260008028 0.16336383201 0.16242369472 
0.16218978889 0.16297006005 0.162036679 0.16187232331 0.16262093566 0.1617631881 0.16168663423 0.16233044038 0.16166326824 
0.16174620172 0.16216890209 0.16179008037 0.16210092232 0.16214994036 0.16223085907 0.16272022149 0.16237291483 0.1630571602 
0.16378341786 0.16285754476 0.16429452296 0.16517947756 0.16360997739 0.16576824941 0.16694758556 0.16463325246 0.16811168551 
0.1692101047 0.16685063268 0.17014136363 0.17070162387 0.16919453594 0.17073522675 0.17042262132 0.17036517875 0.16953946598 
0.16833225034 0.16954380668 0.1668615989 0.16507203775 0.16687540958 0.16367041649 0.16210601888 0.16367435109 0.16121648456 
0.15970928102 0.16119364433 0.15888200047 0.15767411064 0.1593731611 0.15707485382 0.15611276578 0.15790229296 0.15566076374 
0.15495833456 0.15685999804 0.15462047699 0.15406435024 0.15608420696 0.15381906197 0.15337854239 0.15548165053 0.15319431648 
0.1528681771 0.15506864695 0.1528177309 0.15257259021 0.15486146171 0.15264324488 0.15255068811 0.1548411269 0.15277823365 
0.15285540958 0.15505330392 0.15323411778 0.15346760807 0.1556078248 0.15408434813 0.15447475386 0.15663004773 0.15545113544 
0.15640397679 0.15813554113 0.15793394439 0.15971942499 0.16057277049 0.16183450293 0.16416854646 0.16435505159 0.16747021294 
0.17161304883 0.16938082575 0.17676710667 0.18426363745 0.18900204033 0.17728655506 0.16670433117 0.19007345572 0.19027366852 
0.18596241483 0.17878641429 0.17608094421 0.17165758754 0.17929967928 0.16935334619 0.16919822552 0.17247535722 0.16587241275 
0.16628227723 0.16749958041 0.16326387588 0.1643457317 0.1658182535 0.16156538134 0.16213948095 0.1639546948 0.16007742841 
0.16056383295 0.16258934258 0.15896276154 0.15991269207 0.16157111144 0.15870947175 0.15919196142 0.16082882586 0.15831255599 
0.15882043438 0.16047064398 0.15822120528 0.1588107619 0.16014618837 0.1586184591 0.15893947286 0.15993015266 0.15891398404 
0.15872436008 0.16001525496 0.15916325967 0.15873911421 0.16026482461 0.15944863451 0.15901375627 0.16069897783 0.16006197659 
0.15948825034 0.1613043514 0.16097208364 0.16061057758 0.16199988999 0.16264863574 0.16207876447 0.16322522988 0.16470623212 
0.16401386174 0.16491746498 0.16731822327 0.16696417265 0.16744760054 0.17120629325 0.17155766772 0.17098622269 0.17738238047 
0.17971461657 0.17623821297 0.18825313762 0.17288646935 0.17521188179 0.1725991584 0.19939921645 0.16989375884 0.18172020511 
0.17752403612 0.17437074346 0.16698708082 0.17462496058 0.16905610031 0.16901118007 0.17044513143 0.16817762482 0.16859393094 
0.16961167068 0.16767282405 0.16812631705 0.16891471839 0.16775336152 0.16790630063 0.16866035133 0.16850679133 0.16868157435 
0.16873919001 0.16928843963 0.16964651789 0.16911015733 0.17006183227 0.17052270562 0.17001006447 0.17218133964 0.17188468565 
0.17152892972 0.17604831317 0.17440314389 0.17350103982 0.17540861513 0.17889298051 0.17453278374 0.15376040809 0.16707451163 
0.16476094405 0.16812258138 0.1972865987 0.16894870784 0.15379357487 0.20413256763 0.17809285403 0.17470684722 0.17422447566 
0.17016743745 0.17050579343 0.16896088064 0.16891232593 0.17017985223 0.16958928698 0.16857600568 0.16944288689 0.17026683709 
0.16970112217 0.17029075701 0.17038852511 0.17001507769 0.1704233809 0.17103822962 0.17058510014 0.17092823034 0.17196569507 
0.17157008696 0.17197451846 0.17402977567 0.17324174192 0.17342190673 0.17655953004 0.17548906197 0.17505902359 0.1710804309 
0.17813528998 0.17457591444 0.1493359934 0.16205083085 0.16678947377 0.17289172638 0.1734738018 0.17468124631 0.17215668907 
0.17204976239 0.17411246089 0.17217117902 0.16919320056 0.15314438788 0.16665011042 0.1666143952 0.16657519182 0.16665602577 
0.18963786389 0.16195511721 0.17869004633 0.16648122552 0.15902250595 0.15030640505 0.16681909679 0.18448428943 0.18445289924 
0.16696893064 0.15826593169 0.16795837451 0.1593121974 0.1520219018 0.15649109821 0.17611563883 0.1579082321 0.161214475 
0.15640000749 0.16646952625 0.16951243207 0.1697978534 0.18323045678 0.16717483368 0.16733229657 0.16750434947 0.16768179692 
0.16730686395 0.16786017389 0.16805377166 0.1676664858 0.16822991368 0.16841802973 0.16803867582 0.16857579558 0.16874957207 
0.16839279953 0.16889565077 0.16903840108 0.16870597385 0.16915630209 0.16926406604 0.16898041086 0.16934883268 0.16943611265 
0.16918805975 0.16949425318 0.16955098652 0.1693396732 0.16957681935 0.16959467362 0.16943037676 0.16958491713 0.16957017914 
0.16945222508 0.16953200096 0.16947231494 0.16940939261 0.16941407064 0.16933488515 0.16931319573 0.16924696001 0.16913977301 
0.16916576821 0.16902315938 0.16886977396 0.16895715935 0.16872447203 0.168551079 0.16868778002 0.16839139682 0.16820739125 
0.16837105018 0.16803452898 0.16784543472 0.16802481797 0.16767126882 0.16749160391 0.16766404973 0.16733116502 0.16717036643 
0.16731267014 0.1670307473 0.16690249561 0.16700219229 0.1700605642 0.17059859679 0.1706783957 0.17115765803 0.17182218146 
0.17132899989 0.17741097879 0.17341185127 0.17121572789 0.16857252509 0.17314061682 0.16677729701 0.1650675544 0.16934358344 
0.16377624768 0.16241446678 0.16649026772 0.16118333435 0.16023814355 0.16405489963 0.15939449971 0.15889897036 0.16218358192 
0.15842083254 0.15813836893 0.16092592173 0.15777555986 0.15765783226 0.1601562018 0.15739855687 0.15733132304 0.15955772317 
0.15719724274 0.15735731624 0.1592453213 0.15728170107 0.15745206678 0.15906432132 0.15741815173 0.15769119681 0.15899997897 
0.1576972213 0.15812160809 0.159007938 0.15817853559 0.15868728972 0.15910202484 0.15883783369 0.15949892631 0.15933089122 
0.15971142298 0.16056142115 0.15968498539 0.16094442516 0.16209432575 0.16024010849 0.16392331782 0.16566311981 0.16220312066 
0.16750855955 0.16920245992 0.16653058071 0.1711287251 0.17179968385 0.17099196362 0.17158005546 0.17088969395 0.17296299452 
0.16908353153 0.16744336575 0.17075124986 0.16541129847 0.16383459503 0.16549061733 0.16341078645 0.16294930951 0.16242852931 
0.16290204672 0.16255286731 0.16218918027 0.16257692033 0.16238811744 0.16222496921 0.162488237 0.16242332192 0.16241667427 
0.1625735173 0.16258760891 0.16270779045 0.16272863059 0.16279817594 0.16302282751 0.16293689042 0.1630536228 0.16333582914 
0.16318108422 0.16335295748 0.16361636665 0.16350432026 0.16369647381 0.16390367473 0.16386107737 0.16408407283 0.16422642997 
0.16425287189 0.16450613521 0.1645545217 0.1646840774 0.16489508547 0.16491954162 0.16505247525 0.16524610124 0.16526015512 
0.16539276307 0.16558423768 0.1655671191 0.16572543113 0.16590764947 0.16585728335 0.16606919579 0.16624138627 0.16616623613 
0.16638427162 0.16653078004 0.16647303233 0.16663682219 0.1667492849 0.16689369193 0.16672024253 0.18514823432 0.17971343233 
0.1778459219 0.18024235795 0.16011702617 0.15652451926 0.17365909605 0.17199726322 0.16615894931 0.16599263761 0.16585800846 
0.16566274059 0.16608976286 0.16550103381 0.16527916862 0.16578628976 0.1651092884 0.16488855422 0.16544341111 0.16471893146 
0.16447250025 0.16509136735 0.16425957018 0.16403808964 0.16469427023 0.16387822566 0.16366927583 0.16433841283 0.16351556027 
0.16333378215 0.16402118732 0.16318430908 0.16301505253 0.16370891696 0.16287932395 0.16274730549 0.16340649992 0.16261736318 
0.16256672001 0.16311649146 0.16245066248 0.16248092066 0.16284316017 0.16239226638 0.16253795941 0.16259297626 0.16246006324 
0.162760865 0.16235048802 0.16283443305 0.16329568367 0.16232467767 0.16333999698 0.16384911803 0.1624319268 0.16535159283 
0.16688980906 0.16368481352 0.16913416376 0.17041885294 0.16801049827 0.171232087 0.17128702228 0.17147387627 0.17048001107 
0.1693033596 0.17191683657 0.16753949197 0.1656497268 0.16838701865 0.1633909645 0.16164339782 0.16390849764 0.16116618971 
0.16029217309 0.16075320321 0.15987437812 0.15901243074 0.15989192951 0.15872448971 0.15815713351 0.15917988101 0.15808347724 
0.15765845851 0.15885920343 0.15759418422 0.15726563348 0.15875364408 0.15721311295 0.15696446132 0.15866192529 0.15696470988 
0.15680827058 0.15861298047 0.15688990221 0.1568272374 0.15869134496 0.15702151362 0.15705930189 0.15893568614 0.15743884802 
0.15765892519 0.15939739181 0.15810753917 0.15845529938 0.16017170743 0.15900164564 0.15960863626 0.16111167133 0.16045021923 
0.16131167966 0.16247504017 0.16279002466 0.16452854102 0.1645716233 0.16581375805 0.16810344711 0.16749351736 0.16967051401 
0.17293537573 0.17054229482 0.1714510188 0.17147201057 0.17995908749 0.17582876553 0.17093120555 0.17863532295 0.17383831435 
0.17151147811 0.17487297029 0.17015117688 0.16872664095 0.17161145389 0.16765918172 0.16646212176 0.1691965845 0.16570280128 
0.16492041989 0.16744729669 0.16418671636 0.16362730997 0.16599372 0.1631469162 0.16271347405 0.16484937897 0.16237470352 
0.16217434705 0.16405487364 0.16190952096 0.16172920369 0.16346369467 0.16156577863 0.16145545304 0.16305242189 0.16136647476 
0.16141890092 0.16282842425 0.16139637618 0.16142268144 0.16274761738 0.16152059762 0.16172878719 0.16287228233 0.1618980019 
0.1621461539 0.16318656787 0.16238280694 0.16271570604 0.16365437053 0.16298133282 0.16344768613 0.16418696359 0.16392958172 
0.164674973 0.1649828133 0.16540197533 0.1664158971 0.16622890476 0.16753183354 0.16898171915 0.16812898289 0.17032857567 
0.17236677094 0.17074619922 0.17424546947 0.17737170076 0.17822494074 0.17380689366 0.17247884341 0.17317918745 0.17207438119 
0.16932605545 0.16944927757 0.17027184483 0.16956590063 0.16946564739 0.17019678186 0.17012342296 0.16976990829 0.17042628296 
0.17094170608 0.1704892103 0.170906408 0.17221300836 0.17140434936 0.17164998399 0.1732412128 0.17261235296 0.17235366922 
0.17208760715 0.17323585845 0.17200728033 0.16337153917 0.16878533337 0.16826479048 0.16335820539 0.18009287431 0.16846039877 
0.16060913671 0.16674665303 0.15658693354 0.15856069547 0.16154292715 0.17400114086 0.17204258501 0.17241412604 0.17179122751 
0.17160434505 0.17260289471 0.17231797443 0.17199835588 0.17294020399 0.17306838842 0.17255032283 0.17340513639 0.17400247698 
0.17335180054 0.17381345833 0.17417944124 0.17400045108 0.17399018889 0.17095322852 0.17316821545 0.17225850684 0.15609203511 
0.15613752318 0.17156635353 0.17174848883 0.17274442711 0.17245580995 0.16702619787 0.18217863786 0.1847262251 0.17429538136 
0.16355335239 0.16641337946 0.16627813877 0.1663477838 0.18055595375 0.18110514343 0.17725590397 0.17570390699 0.15760668816 
0.16167493629 0.16697607584 0.17715477835 0.16679402227 0.16669662973 0.15800222347 0.1592079973 0.16356657226 0.16556098453 
0.16293198405 0.17040895124 0.16674514926 0.16659557779 0.16649695857 0.1597033105 0.17423612333 0.17284417268 0.17379581645 
0.16810727872 0.17523166972 0.16637879532 0.17197557728 0.17336090864 0.17287153762 0.18163545969 0.18040058119 0.17310738436 
0.16759728044 0.1611397166 0.16008454651 0.16780272164 0.161293553 0.15835926099 0.16639560803 0.17414879525 0.17328383414 
0.17280161505 0.17331359398 0.15920967412 0.15702078005 0.16169990188 0.16655280548 0.17618976579 0.17314243943 0.17521741772 
0.16743914604 0.167633777 0.16783490471 0.16803264618 0.16762447402 0.16820665976 0.16838049869 0.16802243131 0.16854542587 
0.16870710285 0.16838396563 0.16884084706 0.16896296088 0.16869400923 0.16906740626 0.16915394743 0.16894414285 0.1692243645 
0.16929082696 0.16912449535 0.16933098754 0.1693630072 0.1692456528 0.16937148737 0.16936773209 0.16930142331 0.1693480487 
0.16931220195 0.1692933645 0.1692620329 0.1692024153 0.16922476729 0.1691298992 0.16903949315 0.1690975305 0.16893553411 
0.16881348088 0.16891571579 0.16867560192 0.16851959195 0.16866511622 0.1683616677 0.16818708876 0.16835506313 0.16801224913 
0.16782641651 0.16800714546 0.16763670276 0.16744789942 0.16762590626 0.1672649227 0.16709168037 0.16723744923 0.16692545274 
0.16677693195 0.16687543083 0.17095403661 0.17115194672 0.1713548114 0.17157447025 0.17154087598 0.17585673899 0.15884645089 
0.16121677501 0.17141283342 0.16966504269 0.16872031159 0.16735917587 0.17004549605 0.16649094712 0.16531328521 0.16816854479 
0.16454305318 0.1637529871 0.16664710354 0.16316229799 0.16276969907 0.16534901523 0.16232726393 0.16203558912 0.16440231461 
0.16165909513 0.16145990524 0.16368196575 0.1611707464 0.16106281591 0.16313676331 0.1608117041 0.16078000465 0.16264999441 
0.16054530841 0.16054340414 0.16223196863 0.16026820917 0.16029288728 0.16176596448 0.1600136052 0.16006931322 0.16124292345 
0.15986803903 0.15998462138 0.16077085087 0.15972213806 0.15988129181 0.16027991423 0.15948537745 0.15987932547 0.15945089862 
0.16100105471 0.16342562514 0.16574813697 0.17090624765 0.17371376544 0.17646150954 0.17607636231 0.16795858415 0.16512535088 
0.16153496747 0.16149149803 0.16190547888 0.16194968106 0.1612443942 0.16237326033 0.1624875048 0.16209148471 0.16285969702 
0.16304303274 0.16287745741 0.16334410607 0.16350368 0.16355783553 0.16372984739 0.16387457423 0.16407763208 0.1640279109 
0.16416140546 0.16444273201 0.16432098997 0.16447547977 0.16474610458 0.16463202249 0.16479543912 0.16505361689 0.16490623397 
0.16506456902 0.16531164841 0.16521783577 0.16540344128 0.16552237317 0.16552673966 0.16568578196 0.16581551733 0.16578521492 
0.1659338652 0.1660427389 0.16603302602 0.16617371446 0.16624515035 0.1662580943 0.16642068703 0.16643535487 0.16663483383 
0.16678400202 0.16674567867 0.17636308559 0.17556371439 0.17356063829 0.17075672525 0.17073232377 0.17072958989 0.17081549499 
0.17139276971 0.17133680112 0.16613136697 0.16596122397 0.16583640133 0.1656511129 0.16617625605 0.16550465885 0.16532190011 
0.16589035416 0.16516834604 0.16494205204 0.16557282317 0.16482645052 0.16466724915 0.16526617675 0.16454370234 0.1643914928 
0.1650328921 0.16424518944 0.16409017048 0.16476799011 0.1639163514 0.1637698185 0.16445731763 0.16358628404 0.16344074104 
0.1641068198 0.16322983409 0.1630964313 0.16372047665 0.16277414569 0.16265794496 0.16320329448 0.16227339034 0.16220758042 
0.1625384859 0.16151581341 0.16151775636 0.16141176658 0.16120097658 0.16258607715 0.16674502846 0.16980952513 0.17397645558 
0.17171994092 0.1693501987 0.16353253048 0.16064288185 0.16025322042 0.15984370574 0.15912653354 0.15990929384 0.15954036712 
0.1595141036 0.15964602897 0.15939295452 0.15980835436 0.15972483656 0.15969942543 0.16014161947 0.15999344343 0.15997130079 
0.16084116106 0.16011765083 0.16009835134 0.1613335377 0.16022760711 0.16023774201 0.16161767873 0.16046528368 0.16053393293 
0.16199796911 0.16084096184 0.16103891174 0.16249011043 0.16143049571 0.16177037576 0.16316723574 0.16219048293 0.16260803199 
0.16386766924 0.16309191597 0.16361190222 0.16469906325 0.16416398317 0.16506891246 0.16580353994 0.16559389683 0.16709293642 
0.16707039053 0.16862719777 0.16991764142 0.16913718614 0.17071842759 0.17250596423 0.17316259705 0.17121758132 0.17366347349 
0.1735826412 0.16979759109 0.16672647445 0.17174453895 0.17179374383 0.17159713798 0.17376832754 0.17259606657 0.17117397917 
0.17331305852 0.17033550668 0.16939047471 0.1713650635 0.16873356213 0.16794459399 0.16742644819 0.16679494789 0.16873432961 
0.16631734933 0.16587280243 0.16781380429 0.16556396474 0.16523980707 0.16710102806 0.1649997865 0.16476397669 0.16656151943 
0.16450962717 0.16435397765 0.16602514424 0.1642253689 0.16414070793 0.16563204355 0.16410524397 0.16409581012 0.16546960716 
0.16419784487 0.16430860072 0.16554566537 0.16448470278 0.16468345606 0.16584489841 0.16486208505 0.16510535147 0.16619272154 
0.1652987508 0.16559846864 0.16653794351 0.16590778825 0.16639494525 0.16697803909 0.16680221951 0.16754447305 0.1676780058 
0.16835198646 0.16939156214 0.1688376486 0.17028669325 0.17160179732 0.17062499823 0.17094940325 0.17081468633 0.17131282603 
0.15801859026 0.15844410686 0.15921970169 0.17132314527 0.17101693093 0.17141459835 0.17173855332 0.17153358775 0.17164901833 
0.17188528177 0.17191787764 0.1717383104 0.17085596538 0.17160976376 0.17110040208 0.16051541197 0.16327784683 0.16637046971 
0.16622869485 0.16640258543 0.16165488022 0.1734357146 0.1733835384 0.17430536089 0.17407576505 0.17406131456 0.17336446477 
0.17376179966 0.17388748131 0.17067124172 0.17229559452 0.17222160542 0.16447513333 0.16793274891 0.16826800512 0.17447224818 
0.1725508817 0.17210482046 0.17454929354 0.16703794502 0.16722051851 0.16666206012 0.16651785613 0.16915547214 0.1688636772 
0.16464645276 0.17401029733 0.17383794862 0.17442211345 0.17443443432 0.1610900751 0.16658546234 0.16687226919 0.16718325156 
0.16991400076 0.16012480593 0.15947416123 0.1688800037 0.1580696639 0.15943595792 0.15904782182 0.17115423655 0.16075473825 
0.17379038125 0.17115363501 0.17165345459 0.17114816822 0.17179832589 0.17017126531 0.16585108057 0.16384306758 0.16144691058 
0.16272677329 0.16113575646 0.17276240225 0.1741105014 0.17322940738 0.17331274868 0.16005241249 0.17226636777 0.17368346259 
0.17388713559 0.16000604624 0.15958603246 0.16078726303 0.17297946642 0.17349576977 0.17366451595 0.17427266158 0.17414656922 
0.16522338203 0.16194763174 0.16250320801 0.16646343695 0.16660101366 0.17151878194 0.17147286012 0.16783132281 0.1680297498 
0.16822416177 0.16840961727 0.16805524435 0.16857933112 0.16873049203 0.16844243312 0.16886379091 0.1689726799 0.16876059644 
0.16906721612 0.16914202139 0.16899864798 0.16919998911 0.16924426955 0.16915390973 0.16927760458 0.16929291784 0.16925276289 
0.16929553098 0.16927804961 0.16929228988 0.16923853333 0.16918555467 0.16925493596 0.16911477055 0.16903678503 0.16914120931 
0.16893363174 0.16882116058 0.16896047551 0.16869022337 0.16854028233 0.16871401337 0.16837236498 0.16819704682 0.16840029245 
0.16801451957 0.16782050444 0.16802937893 0.16761272367 0.16740486603 0.16761874733 0.16718123986 0.16698154644 0.16716810377 
0.16677780992 0.16996765136 0.16790483299 0.16629856772 0.16959269648 0.16957072623 0.16870666745 0.16823364907 0.16746995034 
0.16931037211 0.16705000629 0.16655749147 0.16854667398 0.1661798082 0.16582878928 0.16777942853 0.16552203944 0.16513170352 
0.16714671959 0.16499294015 0.1646825338 0.16663352479 0.16439538 0.16413476673 0.16610957784 0.16385901136 0.16363896602 
0.16549883546 0.16332026327 0.16306470836 0.1649148391 0.16257985342 0.16228747857 0.16413586203 0.16166544496 0.16136946185 
0.16303006313 0.16125151717 0.16080330898 0.16223762426 0.15999959331 0.16196487686 0.16233531662 0.16301312653 0.16335713885 
0.16302251231 0.16391357503 0.16418320993 0.16414081966 0.16456321004 0.16476448504 0.16500520678 0.16497883112 0.16511713358 
0.16552644603 0.16512995568 0.1652820679 0.1656941804 0.16550142181 0.16564779226 0.16591420129 0.16573155387 0.16583508716 
0.16619088289 0.1658545908 0.1660290861 0.1662693202 0.16613032863 0.16625940601 0.16645477782 0.1663341447 0.16643683424 
0.16663484517 0.16650133117 0.16660216448 0.16677568566 0.16665985588 0.16674213326 0.16689678606 0.16657693121 0.16644175737 
0.16116393664 0.17161117779 0.17158048559 0.16630520746 0.16614076373 0.16669222423 0.16602344444 0.1658570043 0.16642585741 
0.16571395139 0.16560773396 0.16614552583 0.16554525018 0.16542989195 0.16599857862 0.16532140461 0.16518615745 0.16584279805 
0.16502062124 0.16485795727 0.16559579399 0.16458427061 0.16440742422 0.16519538199 0.16428389581 0.16409199725 0.16481982603 
0.16374830956 0.16342806428 0.16440934745 0.16290681025 0.1625435694 0.1636112118 0.16145814096 0.17153492016 0.17151148656 
0.17172028893 0.16024805161 0.16075279447 0.16182706635 0.16213600441 0.16194144412 0.16253740906 0.16270183499 0.16355960947 
0.16302158969 0.16317192473 0.16423201529 0.16350602776 0.16375257608 0.16485866428 0.16415896599 0.16444141027 0.165546983 
0.16477266774 0.16515015298 0.16625750656 0.16551657649 0.16591159587 0.16689074497 0.16624921453 0.16670263325 0.1675523123 
0.16708976844 0.16767289911 0.16818518473 0.16806430626 0.16866722841 0.1689310682 0.16990828804 0.1700614256 0.17065389309 
0.17128327916 0.16952891665 0.16959446895 0.16910263176 0.17201380959 0.16887035178 0.16848121773 0.16976154947 0.16829047601 
0.16803020659 0.16943188453 0.16788172399 0.16766467096 0.16923937971 0.16748704521 0.16726848532 0.16894071523 0.16687029608 
0.16672830065 0.16832359668 0.16695331505 0.16690332724 0.16815061769 0.16668645349 0.16675766979 0.16814421328 0.16713994602 
0.16728313156 0.1682679136 0.16738932754 0.16754593268 0.16875339371 0.16759105555 0.16777749358 0.16889874123 0.16787794257 
0.16817172061 0.16893884352 0.16830469972 0.16870239778 0.16915702349 0.16893903492 0.16966064094 0.16949213876 0.17135584036 
0.17151574375 0.17142034163 0.1704366827 0.1710141262 0.17079100903 0.16672331514 0.16662155875 0.16112615973 0.16370202514 
0.17388363254 0.17375335367 0.1729746161 0.17403445679 0.17091233158 0.16995654451 0.17014890099 0.1673085124 0.16979516439 
0.17150442798 0.17148248781 0.17486761737 0.17480202141 0.1714685474 0.17269784881 0.17038490346 0.17363553494 0.17421420579 
0.17302147315 0.17134149221 0.16739842622 0.16762475368 0.16762912145 0.17051041302 0.16987924579 0.17140911508 0.17123729874 
0.17131108838 0.1617087486 0.1709151055 0.17016224617 0.16694819462 0.16719038464 0.1744546722 0.17458583281 0.1747508009 
0.1716544038 0.17017646795 0.16753203475 0.16534612551 0.1687808847 0.1668781165 0.17483025431 0.17530974563 0.17483570173 
0.16026640088 0.15977530395 0.17147192036 0.17150024534 0.17158740871 0.17094904218 0.17049114102 0.17070460243 0.17147435968 
0.1714725438 0.17173375285 0.1717559793 0.17454607952 0.17438038482 0.16222314949 0.16124812072 0.16231070783 0.16276623147 
0.17018086258 0.1746787681 0.26800638311 0.23711690213 0.17077035779 0.17481734872 0.17468256645 0.17532821525 0.16948391718 
0.1693630175 0.16799567418 0.16230866023 0.16308172702 0.16394418067 0.16718558723 0.16341902516 0.16521396017 0.16690479298 
0.16363799755 0.17360204108 0.1727444721 0.17422150343 0.16406803256 0.166181852 0.16685102397 0.16382995253 0.17201886141 
0.16999679196 0.17037213375 0.17002201664 0.16831937553 0.16851224773 0.16897791783 0.16907497828 0.16917163028 0.16922750321 
0.16915913764 0.16927041753 0.27494813843 0.24238439712 0.16933333884 0.16934234561 0.16932596771 0.16932615949 0.16928421666 
0.16937624537 0.16920497131 0.16912648178 0.16928321187 0.16901713139 0.16890334467 0.16908313119 0.16876526452 0.16861890276 
0.1688212444 0.16843528145 0.16824673468 0.1684822491 0.16803924792 0.16783557326 0.16807161745 0.16764535708 0.16741440687 
0.16765053049 0.16712502133 0.17007183488 0.1696853184 0.17028322966 0.17119643195 0.17093038401 0.16968339037 0.16923895812 
0.17028839903 0.16906215319 0.16875515548 0.17008589235 0.16860756492 0.16829325467 0.16979528887 0.16819577838 0.1679261818 
0.1695146017 0.16773801434 0.16738167957 0.16916176909 0.16702874943 0.16670519991 0.16855624783 0.16642018291 0.1660975776 
0.16789244469 0.16574294116 0.16528052995 0.16726883361 0.1642842722 0.16369099832 0.17134541704 0.16456649631 0.16507942704 
0.16475031285 0.16557975478 0.16591977832 0.16613750918 0.16634011304 0.16682378766 0.16637092819 0.16636341031 0.16702263521 
0.16655169023 0.27909669443 0.24643610828 0.16667931921 0.16674863124 0.16715175978 0.16672871786 0.16674420934 0.16722092844 
0.16682940046 0.16693699981 0.16720604105 0.1669607328 0.16703867413 0.16731344022 0.16705096586 0.16711587952 0.16734908341 
0.16964274369 0.17119846206 0.1638699623 0.16361717562 0.16495926449 0.17034387328 0.17080648163 0.17157048888 0.17159125205 
0.16684139564 0.16671206813 0.16662761455 0.16646311696 0.16703343467 0.16645581137 0.16640208158 0.16685126518 0.16638531935 
0.16629100429 0.1668520697 0.1662102166 0.16607048307 0.16677466343 0.16581586176 0.16557392981 0.16648113324 0.16546295322 
0.26752136752 0.2788946968 0.16522152032 0.16490332349 0.16605618163 0.16433292371 0.17291528028 0.17155534024 0.16017230654 
0.1655494483 0.16586370805 0.16601581258 0.16637375708 0.16733826851 0.16699815318 0.16737448213 0.16809866464 0.16762012944 
0.16792263411 0.1689011755 0.16815559309 0.16845280163 0.16932087104 0.16865241011 0.16899239772 0.16973067025 0.169131414 
0.16947818271 0.16995271595 0.16956020335 0.1699814647 0.1701082845 0.17122970164 0.17141911407 0.17080711677 0.17017241845 
0.17014320996 0.17018667497 0.17013595062 0.17075735764 0.1701721953 0.17005492747 0.17103435873 0.17006272473 0.16995015554 
0.17122847273 0.16978019651 0.1694604013 0.17101889766 0.16965623177 0.27933488772 0.24278663842 0.16972004581 0.16947574388 
0.17100877002 0.16981096415 0.27974574258 0.24103751647 0.16993848956 0.16997589946 0.17121214882 0.16989093538 0.16990541896 
0.17106676395 0.16975109847 0.16983907998 0.17077875231 0.16968780612 0.16984734918 0.17045643706 0.16976979645 0.17145289717 
0.17257035092 0.17355377508 0.17181487331 0.1748280405 0.17513266864 0.27536243341 0.23763171097 0.16737824392 0.16761462916 
0.16714164724 0.16870570299 0.16885219801 0.1689283511 0.16859356992 0.16993117889 0.16879316769 0.16967378462 0.17131521282 
0.17104658348 0.17142114439 0.17511139202 0.16599159151 0.17141906268 0.16786163788 0.16808269087 0.16763960025 0.16735976364 
0.16544565503 0.16518943458 0.16783047613 0.16611172283 0.16778442594 0.16869062325 0.16713107535 0.16814593492 0.16706224506 
0.16691208594 0.16719917006 0.16736153126 0.1705422512 0.17007267555 0.17037851831 0.17162168199 0.1716292785 0.1716003969 
0.1696644334 0.16966644384 0.16876080876 0.16530448919 0.16334303222 0.16215652921 0.17400872479 0.17436133563 0.17487054803 
0.16501310494 0.16665065432 0.16461334732 0.17569799284 0.17563849032 0.17018958124 0.1704177778 0.17028501303 0.17555207004 
0.1755880115 0.1759494892 0.17479852751 0.17402648176 0.17015067754 0.16649726387 0.16502604053 0.1735718498 0.23342097907 
0.26449779496 0.16933398579 0.16941838771 0.22334477364 0.2766284456 0.16945711519 0.16944543345 0.16947763225 0.16937275481 
0.16928149492 0.1694564488 0.16916080942 0.16903978441 0.16925156244 0.16888856941 0.1687311758 0.16895493526 0.16851660665 
0.16830773559 0.16857300603 0.16806185679 0.16783258628 0.16808870647 0.17037941063 0.16580059119 0.1662695468 0.16764926591 
0.16634018899 0.17090665427 0.17073033465 0.17065296342 0.17056584016 0.1714112952 0.17076910463 0.17065475373 0.17151815276 
0.17058133133 0.17033253666 0.17170520376 0.17002343203 0.16963266937 0.17136677371 0.16917300384 0.16884843267 0.17060377535 
0.16902598781 0.17088243616 0.17104003342 0.16762664468 0.16757034747 0.1677824968 0.16990552437 0.16819694873 0.16605944655 
0.16778477933 0.16779503894 0.16859165857 0.21809077974 0.27736752767 0.2188637753 0.24442949425 0.16773890207 0.16782168148 
0.16847542321 0.16767242061 0.16764238225 0.16823230994 0.17524325336 0.17543104485 0.17569383463 0.17518269605 0.16729836512 
0.16727697376 0.16726616663 0.1672636971 0.16768331924 0.16729648163 0.16708530791 0.16776503203 0.16854885019 0.16838878196 
0.16689777144 0.16666557532 0.16732449633 0.17069694805 0.17075718738 0.17069269451 0.17158500522 0.17153446061 0.17138665073 
0.1715932252 0.17420653188 0.17314695328 0.17590743805 0.17558733869 0.16907203332 0.16967732451 0.1702079866 0.17046031303 
0.17113465874 0.17025883269 0.17049867165 0.17151726169 0.17061008736 0.17075055645 0.1714540588 0.17060236766 0.17064954909 
0.17039656919 0.17026012318 0.17071899906 0.17151405632 0.17162691767 0.17164900314 0.17194922646 0.17206864913 0.17259725399 
0.17216209907 0.17204822717 0.17308756382 0.17220826486 0.17230255453 0.17529542274 0.17518259911 0.1709015601 0.17101341668 
0.17117764043 0.17053198707 0.17026595005 0.1679282976 0.16819456007 0.16766800362 0.16907874876 0.1691922923 0.16927860893 
0.17608865857 0.17595031907 0.17560360002 0.17505188255 0.17465997137 0.17581255691 0.16756609921 0.16691531861 0.16737675883 
0.16831503023 0.16850728868 0.17104904074 0.17134542917 0.17138103812 0.16745224112 0.16735865013 0.16845429769 0.16747621891 
0.17356579988 0.17246735735 0.1675483922 0.16763845242 0.16787936513 0.16764765337 0.16796534828 0.17044694456 0.17000312128 
0.16770208973 0.16795020769 0.16739873098 0.16733826105 0.16794431295 0.17129353001 0.16755493544 0.17126148867 0.17149002808 
0.17277888095 0.17135124084 0.16977189752 0.16972069165 0.1722885795 0.17158248322 0.16872519579 0.17248910811 0.1720027382 
0.1718874689 0.17311434273 0.17143927297 0.17131504403 0.17237434745 0.17082690199 0.16999157123 0.17598689197 0.17604755132 
0.17614216051 0.17065573825 0.16772175911 0.16825961377 0.17343493604 0.17378792281 0.17458747886 0.17153855684 0.16894957029 
0.16781741247 0.16747856649 0.17381566037 0.16816279725 0.1683247196 0.16831148905 0.1677908802 0.16910722455 0.16926498931 
0.16855445577 0.16936666509 0.16934042321 0.16879649128 0.1686318195 0.17174908461 0.16911293471 0.1681548342 0.16896053653 
0.16929513191 0.1700233446 0.17032207901 0.17183348053 0.17231914194 0.17263662719 0.1682766327 0.16859210168 0.16826448049 
0.16887836192 0.16950981553 0.16954652041 0.16949969351 0.16940347316 0.16959096611 0.16922568643 0.16907844105 0.1692482113 
0.16861584298 0.16836693356 0.17112957824 0.17097322244 0.17046779086 0.17213089364 0.17206945146 0.17238282318 0.17115522957 
0.17130991805 0.17126493383 0.17231849372 0.17266039286 0.172616212 0.17309573653 0.1725528421 0.1722816293 0.17345242618 
0.17172558934 0.16875145731 0.17503634423 0.17425954432 0.16910026132 0.16926583532 0.17389224623 0.174321517 0.17384506938 
0.17346542938 0.16888201729 0.16914919938 0.16907751954 0.16939235205 0.17517312248 0.17556112359 0.1749863964 0.16809298945 
0.16802908676 0.16940484982 0.16954646249 0.1692297305 0.17278072872 0.17295235655 0.17449056983 0.1742403584 0.17019104656 
0.17065370087 0.17392346588 0.17220725407 0.16916161733 0.16965907892 0.16951742523 0.17584602266 0.16855201274 0.16854596624 
0.17508950407 0.17478329213 0.17306563887 0.16887185989 0.1737826875 0.17343417839 0.17278782522 0.17456419664 0.17548669863 
0.16828186647 0.17372877322 0.17347885256 0.16806096257 0.16891760828 0.16873061605 0.17237930959 0.16988800323 0.16968414976 
0.16931759923 0.17532701662 0.17081568757 0.17417934687 0.17470356646 0.1752593505 0.17501747357 0.17454055483 0.16924728481 
0.27909368036 0.17582933033 0.17006104723 0.16997498833 0.17384859785 0.17426427621 0.17024150073 0.30265426303 0.17091091695 
0.16838094063 0.17076989041 0.17039724749 0.17064456408 0.16892702138 0.1688327498 0.17601017664 0.1760166445 0.16994076075 
0.16930506083 0.16970107899 0.1697983208 0.17574121187 0.24334135096 0.22391821435 0.16876754222 0.1754488199 0.1757536331 
0.17548238477 0.16999471968 0.17586296754 0.17047338078 0.2577808766 0.22527794074 0.16667018892 0.16669050972 0.16666842497 
0.16687044382 0.16677426773 0.16676450614 0.16714942565 0.16699848463 0.16696465872 0.16751650782 0.16731451086 0.16725269889 
0.16793785041 0.16771201838 0.16760777051 0.16839378953 0.1681366734 0.16800021519 0.16884280291 0.16860051411 0.1684019588 
0.16925746944 0.16903050219 0.16879372936 0.16968378191 0.16945120989 0.1691680998 0.17001889398 0.16984320128 0.16951811145 
0.1702537535 0.17013564513 0.16978980435 0.17041359866 0.17034268933 0.16999484532 0.17047869385 0.17045610686 0.17012151119 
0.17044115269 0.17047222311 0.17015230127 0.17031638267 0.170395937 0.17010061313 0.1701069447 0.17023264169 0.16997042018 
0.1698147859 0.16998441515 0.16976752291 0.16946424365 0.16966482824 0.1694945689 0.16904285063 0.16927867967 0.16916619048 
0.16860980811 0.16884665813 0.16879499291 0.16816053267 0.16841193434 0.16841274527 0.16773201152 0.16795920531 0.16801554517 
0.16734371183 0.16755652751 0.16763840848 0.16702042791 0.16717997015 0.16729857324 0.16678752964 0.16689442962 0.16700580715 
0.16667282164 0.1667071199 0.16679317656 0.16666547098 0.16666243071 0.16668252223 0.16668311093 0.22172914935 0.19506720524 
0.2374411859 0.17336515634 0.18222347263 0.19664906424 0.16203060367 0.16613143696 0.17627225079 0.15545468293 0.15768087244 
0.16590768247 0.15155554955 0.15269680341 0.15924939888 0.14931755434 0.1499338221 0.1551056397 0.1482911975 0.14845416968 
0.15274813395 0.14782223892 0.14777426803 0.15142577057 0.14791120231 0.14770062094 0.15082669877 0.14811166146 0.1478162801 
0.1506714689 0.1485963971 0.14821410954 0.15064007796 0.14935743419 0.14890741279 0.15105447162 0.15027296496 0.14973934269 
0.15175356076 0.15140392815 0.15073832054 0.1525667774 0.15283484379 0.15197705671 0.15356410044 0.1546775853 0.15355635278 
0.15480068169 0.15692945471 0.1555529401 0.15634556802 0.15988752792 0.15803935284 0.15828535338 0.16331055266 0.16114331351 
0.16060276063 0.16710976832 0.16492171467 0.16348802214 0.17037523279 0.16858274806 0.16664114651 0.17235230252 0.17142283811 
0.16921257944 0.17267095359 0.17272687201 0.17064284119 0.17130525112 0.17225178539 0.17059982348 0.16889684199 0.17042400139 
0.16925833289 0.16613804275 0.16783944359 0.16720611163 0.16390017671 0.16522396262 0.16514866207 0.16223651588 0.16319013066 
0.16350953048 0.16113784469 0.16176764125 0.16233690914 0.16062167287 0.16085587987 0.16162354894 0.16051149954 0.16051822575 
0.16128398199 0.16071327288 0.16055296503 0.1612560676 0.16112484958 0.16087546044 0.16147984609 0.16169462828 0.16134768992 
0.16188811867 0.16230377843 0.16195067465 0.16236931936 0.16300389282 0.1625945439 0.16291473259 0.16370298989 0.16330080899 
0.16349273025 0.16432340215 0.16398639011 0.16406731978 0.16493816228 0.16461482803 0.16463089868 0.16546779556 0.16518146841 
0.16515357167 0.16591264261 0.16568349097 0.16560558932 0.16626904143 0.16609251269 0.16599335361 0.16652923607 0.16640439289 
0.1663019521 0.20373347196 0.16660275618 0.16665320764 0.16663550911 0.16639070484 0.16651474288 0.1665083084 0.16606473547 
0.16624858261 0.1662599951 0.16564281471 0.16587970581 0.16592857891 0.16512376192 0.16543034772 0.1655267781 0.16454310342 
0.16485945942 0.16505050868 0.16394781138 0.16427288765 0.16451823178 0.16329960983 0.16367376043 0.16397813624 0.16261768444 
0.16299813761 0.16340485196 0.16199221956 0.16233075169 0.16281980059 0.16134837822 0.16172550252 0.1622785722 0.1608463807 
0.16111071005 0.16178164322 0.16050724916 0.16068533984 0.16137622863 0.16040977847 0.16044162565 0.16114689862 0.16065939054 
0.16047786551 0.16111339336 0.16136896271 0.16094320833 0.16145738134 0.16268965448 0.16186350007 0.16217370124 0.16479110146 
0.16345738637 0.16332613608 0.16727930151 0.16573337428 0.16503296355 0.17006501601 0.16841599255 0.16709555679 0.17233079725 
0.17105258745 0.16936194227 0.17301864309 0.1727367979 0.17079424619 0.17188125985 0.17273699893 0.17099609555 0.16922429818 
0.17087788123 0.16971852603 0.16539956846 0.16770632576 0.16717853493 0.16169173616 0.16387909417 0.16398098733 0.1583359131 
0.1601945858 0.16088268496 0.15551263127 0.15708837583 0.1581212191 0.15323999807 0.15447358535 0.15586495495 0.15160343728 
0.15244537762 0.15417136068 0.15029386613 0.15101578511 0.15282090672 0.14919306275 0.14978148851 0.15175963715 0.14850900123 
0.14892125605 0.15098696886 0.14792991023 0.14829366655 0.15052135435 0.14748169204 0.14776518134 0.15014652539 0.14738612886 
0.14750378844 0.15005911507 0.1475764819 0.14759415126 0.1504091956 0.14820241193 0.1480104119 0.15115847458 0.14967084445 
0.14907392603 0.15245855999 0.15188664619 0.15075750903 0.15451482196 0.15647399672 0.15411599113 0.15791819503 0.16453430121 
0.16047467018 0.16413270775 0.17940675893 0.17207930756 0.17522629025 0.21798295654 0.19638433571 0.19806039256 0.2389011515 
0.17994181559 0.19401480722 0.1681720682 0.17357689977 0.19053624774 0.15965412495 0.16243686106 0.17885960733 0.1477908416 
0.15562303036 0.17093074857 0.14704567072 0.15246196476 0.17149224309 0.14306728186 0.14640299156 0.17322564479 0.14157186443 
0.14413491255 0.17176223893 0.14068270476 0.14317602797 0.1704948774 0.14058933849 0.14249454161 0.16958464018 0.14035713445 
0.1418350658 0.16866693414 0.13971993092 0.14122155743 0.16821654292 0.13914147049 0.1397533961 0.16766998704 0.13931502672 
0.1398053281 0.16658593216 0.13915988192 0.13929979691 0.16627660871 0.13959901068 0.13970664927 0.16573782178 0.1400058924 
0.13961656196 0.16618873075 0.14124689026 0.14034639712 0.16660579048 0.14233741065 0.14098747044 0.16779791345 0.14387615725 
0.14161320618 0.1685860184 0.14480373696 0.14239550615 0.16926600947 0.14717551768 0.14433926993 0.17052201976 0.15018014403 
0.14659224828 0.17369303853 0.1542826877 0.15008956521 0.17777275103 0.16128774691 0.15472568484 0.18358953644 0.17212203194 
0.16258180141 0.19060619431 0.18789855959 0.17402250364 0.20238425138 0.23702205806 0.18717378033 0.16705558129 0.16517027043 
0.15609244544 0.18318032246 0.15520205934 0.15272200959 0.18070825198 0.15259503806 0.15160104206 0.17734821368 0.15167760975 
0.1514865106 0.17583092919 0.15079538911 0.15027254177 0.17435175914 0.15071176892 0.15118808277 0.17413235761 0.15100739746 
0.15122801089 0.17415335237 0.15147427586 0.15208557825 0.17320070183 0.15178160591 0.15255241034 0.17389962243 0.15300200677 
0.1543557711 0.17521275162 0.15440316546 0.15829788263 0.17776931866 0.15435258295 0.16649927098 0.17531610731 0.17529147213 
0.18344866298 0.17849119437 0.19239379376 0.18355754374 0.18013084351 0.16557983843 0.16536812819 0.15964187207 0.2097491465 
0.15711911356 0.15742602602 0.20320633972 0.15368131432 0.15221881569 0.19792474411 0.15170754852 0.15148361793 0.17779025845 
0.15178901635 0.1524528535 0.17677016888 0.15125873116 0.15185910994 0.17544050508 0.1510553319 0.15169290337 0.17422505613 
0.15276941315 0.15270500846 0.17395388784 0.15245295341 0.15315282167 0.17498583716 0.15387735691 0.15475978068 0.17582785228 
0.15469992583 0.15694969001 0.17741786396 0.15903209656 0.1620610223 0.1804334966 0.16540241444 0.18281010376 0.18917309763 
0.19592225237 0.19333071611 0.16667925324 0.19002803875 0.15946020873 0.16591546367 0.16665822679 0.16661141122 0.16652364849 
0.21088361395 0.19764635943 0.16147682558 0.16497756589 0.16101655411 0.16299922141 0.17811038336 0.17741183311 0.16459187138 
0.16473330872 0.18247151564 0.16664053612 0.16698105075 0.16685132365 0.16675961484 0.1666870226 0.16662384861 0.16675305586 
0.16765951828 0.16746589573 0.16803039359 0.16783338486 0.16768604493 0.16840442747 0.16819707649 0.16803551748 0.16876330287 
0.16857569151 0.16838098526 0.16910580172 0.16891748802 0.16871743103 0.16940456505 0.16925112633 0.16901697941 0.16962884591 
0.16951592242 0.1692723631 0.16978782331 0.16970001004 0.16945978096 0.1698791559 0.16983758758 0.16958565841 0.16989899166 
0.1699032886 0.16966338747 0.16983254206 0.16987518902 0.16966662248 0.16969405417 0.16977517732 0.16958833063 0.16949314216 
0.16960943816 0.16944808021 0.16922894141 0.16937606763 0.16924862953 0.16891416126 0.16909215578 0.16899706359 0.16857153821 
0.16876015131 0.16870747538 0.16821078107 0.16840511822 0.16838124673 0.16783506103 0.16803722778 0.16803688993 0.16750108256 
0.16767859964 0.16769835607 0.16717447455 0.16734035965 0.16736587032 0.16690963309 0.16703897528 0.16706546284 0.16672353385 
0.16680890948 0.16681956981 0.16838037988 0.17283874293 0.16644938302 0.16655204668 0.17801580722 0.17987607808 0.17713559128 
0.18426051752 0.17730079601 0.18835861685 0.20223398619 0.19580422216 0.18737600925 0.16223763809 0.1649925834 0.16960957691 
0.15824842213 0.15984444611 0.16421971992 0.15594404005 0.1568004904 0.1606261482 0.15459574058 0.15509184329 0.15848334701 
0.15402372278 0.15414134583 0.15738469847 0.15353962603 0.15366461355 0.15663469234 0.15326249683 0.15316521182 0.15596983987 
0.15350024911 0.15317971431 0.15547647828 0.15406430723 0.15368722935 0.15568073081 0.15475322386 0.15428268272 0.15611454441 
0.15559075565 0.15501392702 0.15661607809 0.15661921337 0.15591377779 0.15722550265 0.1578358002 0.15697895036 0.15791537181 
0.15935162383 0.15828331965 0.15871622013 0.16125653121 0.15997824849 0.15980694792 0.16371007202 0.16204344479 0.16126323596 
0.16676586417 0.16516467185 0.16382548936 0.16935962312 0.16824197222 0.16710634575 0.17050452671 0.17012079167 0.16949360279 
0.169808561 0.17032892177 0.17028834197 0.16784123 0.16886127716 0.16888372239 0.16545888567 0.16669463141 0.16635839259 
0.16390307331 0.16482823098 0.16402048607 0.1628851503 0.16354365365 0.16307216314 0.16226413228 0.16272748449 0.16262352874 
0.16190974116 0.16218215558 0.16236982251 0.16180638176 0.16189526745 0.16226673967 0.16192381995 0.16187189554 0.16233134026 
0.16223072115 0.16206414657 0.16256534951 0.16260960123 0.1623950993 0.16288930458 0.16304814736 0.16279772192 0.16326114259 
0.1635190166 0.16323732488 0.16363702742 0.16401269441 0.16372365245 0.16402227674 0.1645078253 0.16423267419 0.16445797962 
0.16500843301 0.1647319273 0.16490490031 0.16543907251 0.16520565919 0.16531695844 0.16583656417 0.16562683622 0.16569456547 
0.16618302981 0.16600484016 0.1660512405 0.16645334301 0.16631688426 0.16635517632 0.15276754826 0.16847878149 0.15536608268 
0.16826144316 0.16654071967 0.16619946918 0.16634808249 0.16641039527 0.16587777465 0.16606683065 0.16617383764 0.16549082924 
0.1657081446 0.16586627998 0.1650395642 0.16530495333 0.165503595 0.16456170038 0.16483047583 0.16510208889 0.16407854154 
0.16435462617 0.16467883878 0.16355802094 0.16385898368 0.16423933868 0.16306569337 0.16333674764 0.16379111736 0.16261392268 
0.16286839776 0.16338205973 0.16219907445 0.16242626722 0.16299583599 0.16188684985 0.16204498967 0.16265096453 0.16170960619 
0.16176935085 0.16236636724 0.16172641258 0.16166867777 0.16217518852 0.16200739573 0.16178409087 0.16217239942 0.16260524764 
0.16220748868 0.16232421981 0.16364936366 0.1629578436 0.16276806443 0.16504895699 0.16417562775 0.16356150479 0.16693057401 
0.16573637223 0.16471733015 0.16913241814 0.16794113228 0.16679660751 0.17046900807 0.16991793531 0.16895141008 0.17035775913 
0.17064305768 0.17015734528 0.16847693817 0.16957138126 0.16964382412 0.16541870712 0.16703707694 0.16715408203 0.16235914507 
0.16401651624 0.16407725124 0.15990825604 0.16142150322 0.16143779367 0.15788587923 0.15915827916 0.15958033067 0.15628078095 
0.15728038848 0.15815918668 0.15503595143 0.15579234 0.15704291922 0.15406686943 0.15462379621 0.1561345214 0.15328267688 
0.15374555651 0.15545533031 0.15281475928 0.15307340371 0.1549926135 0.15253231971 0.15273438719 0.15469784974 0.15248097653 
0.15257281325 0.15470063168 0.15277169929 0.15270109184 0.1550300708 0.15352697238 0.1531900853 0.15568503041 0.15465160334 
0.15411167098 0.15663719225 0.15654863565 0.15566508553 0.15827666213 0.15903913399 0.15790433697 0.16056472768 0.16318940177 
0.1609540516 0.16360973545 0.17062384726 0.16662513598 0.16850356443 0.18325863589 0.17608282016 0.17674268324 0.20282947289 
0.1897853349 0.18785421394 0.19275761617 0.16790966634 0.15516161175 0.16916993054 0.17283514377 0.1763292753 0.18157058813 
0.1779711461 0.18591354173 0.16633299284 0.16806012663 0.17220087531 0.16553436819 0.16477600307 0.16861499199 0.16415636761 
0.16406087075 0.16599435806 0.16283045463 0.16260765525 0.16397691481 0.16172113184 0.16164063561 0.16269405349 0.16085903551 
0.16082598549 0.16181861523 0.16052266161 0.16028557139 0.16129892736 0.15990674235 0.15998745235 0.16073431162 0.15942509006 
0.15954552267 0.16049015685 0.15916030959 0.15923093393 0.16020225577 0.15925584053 0.15908923029 0.16023265773 0.15927640332 
0.1595841753 0.16031383537 0.15976662506 0.16011757831 0.16070218272 0.16060022878 0.16087314978 0.16120434747 0.16105899471 
0.16170565325 0.16188436397 0.16205581364 0.16265422568 0.1628315381 0.16389973201 0.16394081755 0.16423316242 0.16655631556 
0.16644398843 0.16611940056 0.1702946384 0.17019567053 0.16920614715 0.17548482771 0.17479319677 0.17330848669 0.18313949113 
0.18122843264 0.17877287692 0.18942284111 0.15950073967 0.17646918515 0.17532039988 0.16794780595 0.16395882315 0.19282986056 
0.1739753696 0.17292718792 0.17462550749 0.17129673666 0.17045038943 0.17337662645 0.16988505558 0.16986443873 0.17132580626 
0.16858954736 0.16878210882 0.16990857739 0.16792409991 0.16861603846 0.16916302316 0.16801945544 0.16829463388 0.16857261122 
0.16783208278 0.16813483214 0.16842941197 0.16796510152 0.16878035774 0.16870716744 0.16897185868 0.16986532402 0.16953378698 
0.17057180552 0.17207624413 0.17083504285 0.17197038939 0.17494962811 0.17284675289 0.17602195661 0.17460648551 0.16740031365 
0.17436464797 0.16727945862 0.15538283239 0.16870810189 0.18987238375 0.17695310762 0.17584448019 0.17612253072 0.17348501184 
0.17347385474 0.17535619574 0.17273819838 0.17187498153 0.17300535854 0.17048632205 0.16986990627 0.1722077475 0.16937948346 
0.16927594241 0.17143974648 0.16964033128 0.16892961849 0.1705672525 0.16946469827 0.16909282907 0.17025596063 0.17007500287 
0.16976299853 0.1704167678 0.17102957506 0.17090223909 0.17120172532 0.17249102322 0.17238758785 0.17238632232 0.17454616704 
0.1757457794 0.17451712557 0.17808905422 0.17810501397 0.1756305554 0.20083242023 0.17954984765 0.16729435225 0.16712876345 
0.16699619241 0.16732565567 0.16665455833 0.16661635899 0.1666490765 0.16727318326 0.15173938164 0.15800202203 0.1656861012 
0.16657801643 0.15482867317 0.15927147927 0.18246497171 0.15967668296 0.16546441849 0.16082212337 0.17932495337 0.18813801937 
0.15777387012 0.15022122629 0.16327668534 0.19293122407 0.18814365234 0.18918177823 0.17658567336 0.17773505949 0.15894074405 
0.15415169053 0.15929762557 0.1694276528 0.15806860585 0.1683649831 0.16818031171 0.16766966754 0.16748630971 0.16868603681 
0.16852469064 0.16833996902 0.16897652629 0.16883012364 0.16865976892 0.16919512081 0.16908406371 0.16891586769 0.16935661748 
0.16928147768 0.16911440945 0.16946789171 0.16941367484 0.16926479956 0.16952225561 0.16949564168 0.169356211 0.16950121804 
0.16952200255 0.16938701123 0.16941253368 0.16946751134 0.16935376507 0.1692635536 0.1693465071 0.1692540333 0.1690576824 
0.16917259266 0.16909409577 0.16880937469 0.16894539555 0.16888689546 0.16851156016 0.16866824012 0.16863102404 0.16818481537 
0.16835720051 0.16833199573 0.16785136161 0.16802960142 0.16801214587 0.16751127242 0.16768101663 0.16767618098 0.16717883787 
0.16734829601 0.16733008698 0.16688719606 0.16703033907 0.16700172665 0.16667070827 0.16677662136 0.16673196771 0.16656253181 
0.16071919784 0.1586666521 0.16526814965 0.15774733544 0.16562802911 0.16790348646 0.17008823469 0.16426816284 0.16356025993 
0.170133682 0.17332726116 0.17049376784 0.18182583397 0.16379088435 0.16995022048 0.1609898956 0.16174142125 0.15990372153 
0.16033565125 0.16304697189 0.15911532946 0.15940562625 0.1620846236 0.15818270819 0.15857282702 0.16111192791 0.15741556111 
0.15746089209 0.15992738528 0.1579194949 0.15770536595 0.15954336188 0.15820523565 0.15797243711 0.15990640133 0.15847368943 
0.15819865082 0.15996770632 0.15877645473 0.158442941 0.15994589042 0.15912140664 0.15876358611 0.15991094898 0.1595385517 
0.15911507008 0.15986893004 0.16013405136 0.15956807857 0.15981048927 0.16138447343 0.16047902821 0.16005405677 0.16384730197 
0.16205373383 0.16072669928 0.17167890599 0.17066138384 0.16841213503 0.17005367846 0.16267538555 0.16325755553 0.16222420559 
0.16254464961 0.16161096102 0.1622707547 0.16241285605 0.1618156079 0.1623982456 0.16247250579 0.16227606338 0.16256686079 
0.16256839493 0.16267152462 0.16284248712 0.16276708951 0.16301904277 0.16317927042 0.1630371433 0.16341762705 0.16352437635 
0.16334687682 0.16379422865 0.16386665373 0.16368023012 0.16412002466 0.16418570972 0.16400209255 0.1644079822 0.16451806697 
0.16432286658 0.16467776551 0.16492820854 0.16470501899 0.16497679466 0.16531996293 0.16509976974 0.16534097818 0.16566523145 
0.16547569303 0.16567060585 0.16599594935 0.16581151606 0.16597396017 0.16631713558 0.16614596571 0.16627479763 0.16661186527 
0.16647841907 0.16658807824 0.17697337687 0.18238315837 0.15755464379 0.15944937839 0.1631438373 0.16592837075 0.16610564977 
0.16666735587 0.16559297678 0.16578592899 0.16602840446 0.1652208279 0.16543678885 0.16572401697 0.16484800082 0.16506485948 
0.16539967925 0.16445114636 0.16467858103 0.16505815339 0.16406143124 0.16426777375 0.16468758998 0.16370873669 0.16390035249 
0.16437890424 0.16337165923 0.16355421584 0.16406646117 0.16305945864 0.16320989223 0.16375377468 0.16278000572 0.16290149466 
0.16343796787 0.16257661017 0.16262456232 0.16312583748 0.16248096464 0.16243246151 0.16282699593 0.16248533917 0.16233924208 
0.16253390417 0.16267235044 0.16242075056 0.16231901035 0.1632842612 0.16284833617 0.16231107311 0.16427308672 0.16363412494 
0.16272745348 0.16675555868 0.1653930847 0.16398645306 0.16953363006 0.16821126483 0.16717707133 0.17129875719 0.17095420101 
0.17069215239 0.16968627996 0.1706743161 0.17199955093 0.16618032048 0.1681326158 0.16928040418 0.16210662314 0.16381513302 
0.16464967228 0.16050231489 0.16153114497 0.16096107225 0.15930069721 0.1600468641 0.16010528577 0.15842419842 0.15904050271 
0.15943520507 0.15777125646 0.15825329662 0.15909065609 0.15726887096 0.1576961575 0.15884421535 0.15692817217 0.15722665691 
0.15869079564 0.15671956414 0.15687646503 0.15855676694 0.1566656215 0.15669596719 0.15851089131 0.15682432172 0.15676465942 
0.15864669705 0.15748876983 0.15721074316 0.15915170815 0.15842302397 0.15801764786 0.15996441051 0.1597605887 0.15907912828 
0.16105642311 0.16175992419 0.16055717238 0.16260119121 0.16419471634 0.16282095449 0.16468027964 0.1672851339 0.16567578538 
0.16734560607 0.17209091977 0.16911486466 0.17041833946 0.17976007203 0.1747465008 0.1747402608 0.18228690464 0.15790599085 
0.16083598647 0.17158642308 0.17354990499 0.16874769189 0.16999448587 0.17180707674 0.16069409997 0.15763843363 0.15911632071 
0.16956157374 0.16502449531 0.16996651188 0.16331611811 0.16802236341 0.16784409076 0.16765614793 0.16800524856 0.16662439385 
0.16762979022 0.16926354518 0.16500892413 0.16583527394 0.16738130489 0.16383903746 0.16443269187 0.16595639386 0.16305531705 
0.16351041034 0.16497473656 0.16259819818 0.16287076749 0.16432031853 0.16216382022 0.16245605776 0.16384645658 0.16187237275 
0.16207855045 0.16349624355 0.16163893265 0.16178392967 0.16322794947 0.1616771626 0.16163269057 0.16306606164 0.16183405482 
0.16177395953 0.16311675295 0.16226311292 0.1620188666 0.16336010049 0.16289218186 0.16254451424 0.16379795649 0.16347997034 
0.16316789489 0.1643577234 0.16443970988 0.16387161002 0.16502477982 0.16580812008 0.16498850994 0.16598130133 0.16769314847 
0.16648738537 0.1672842399 0.17078868476 0.16890197804 0.16931739273 0.17456866906 0.17246522134 0.17200015919 0.1797895996 
0.17658200004 0.17554523072 0.17978583625 0.16267492971 0.1640541623 0.16683689686 0.17311630013 0.1724966379 0.17192309266 
0.17131036257 0.1722046967 0.17073227105 0.17028654867 0.17153278978 0.16993282508 0.16967160976 0.17081649838 0.16941531462 
0.16934334165 0.17030992452 0.16929962825 0.16932434683 0.17003448736 0.16947093902 0.16971856628 0.17020347923 0.16996586168 
0.17039327668 0.17060809392 0.17095714377 0.17152562566 0.17127251162 0.17223479213 0.17286509248 0.17202463625 0.16622339173 
0.16636113989 0.16629566142 0.17428520485 0.17394929607 0.17391747829 0.17336023338 0.17394846302 0.17314436778 0.17266939437 
0.17372652239 0.17230808174 0.17199727841 0.17323975097 0.17177303124 0.17147873716 0.17274991549 0.17149043285 0.17145239518 
0.17265511456 0.171618249 0.171760441 0.17275637963 0.17201227743 0.17246924742 0.17305366638 0.17280737642 0.17334910619 
0.17358048006 0.17365258766 0.17427145144 0.17394862828 0.17388547564 0.17308966712 0.16932903639 0.17330975486 0.17550589329 
0.17240805504 0.17316042505 0.17207736934 0.17248131389 0.17405994322 0.17246859553 0.16849859848 0.16679885271 0.18002170152 
0.16646067125 0.16732111417 0.16734111333 0.16715920062 0.1751444057 0.17064325873 0.16550790764 0.15906184542 0.15764488523 
0.15955527182 0.15776678295 0.16444573991 0.17008750691 0.16830109259 0.16636225057 0.16497848167 0.171143478 0.17145915954 
0.16485629508 0.16638290128 0.17037734084 0.17506541011 0.17649379589 0.16720300729 0.16651759805 0.15945712226 0.15709891599 
0.15962199871 0.16478271637 0.16301269465 0.1694145657 0.16909918542 0.17300055938 0.16356948981 0.15770142008 0.1749464215 
0.15860471325 0.16695817155 0.15960103971 0.1717291607 0.16487415377 0.17182839989 0.17289110964 0.17208219989 0.15788222185 
0.15933750313 0.15902874018 0.1756797258 0.17927230161 0.16266040444 0.1769249719 0.17498240863 0.16832814129 0.16815143398 
0.16907883097 0.16898922 0.16921898443 0.16915845771 0.16905750701 0.169301313 0.16927099751 0.16918896586 0.16931926732 
0.16931809484 0.16925625964 0.169267949 0.16930199365 0.16925572333 0.16914815162 0.1692155612 0.16918504972 0.16897182737 
0.16906585765 0.16904698108 0.16874923704 0.16886747705 0.16885305227 0.16847002661 0.16861494246 0.16860566134 0.16815102003 
0.16831392127 0.16830653358 0.16781602944 0.16798306301 0.16797318968 0.16745952067 0.1676411588 0.1676163463 0.16709179981 
0.167271479 0.16723900879 0.16676088433 0.16692017529 0.1668638103 0.16663295968 0.16007655089 0.16159360163 0.16695055368 
0.16740046021 0.1690117591 0.16531548132 0.16230383815 0.16582954351 0.16669407661 0.16837962603 0.17015630398 0.17223103178 
0.1702543928 0.18091696261 0.1730590101 0.16418782021 0.16458085285 0.16479337968 0.16530227838 0.16702853862 0.16658778889 
0.16160918838 0.1624226487 0.16191973491 0.26451709478 0.23228859701 0.16183592619 0.16176665862 0.16374579467 0.16169629025 
0.16169745162 0.16350231526 0.16141112068 0.16145226511 0.1631531155 0.16106484515 0.16111809676 0.16262177728 0.16074223123 
0.16084992214 0.16210624895 0.16020998582 0.16034107072 0.16134665325 0.17139925707 0.17496519444 0.17537808695 0.17272917767 
0.16759510947 0.17238113384 0.16045099313 0.16052420466 0.16291921971 0.16273643486 0.16351750221 0.1633283339 0.1634622993 
0.16402493086 0.16382718001 0.1641698668 0.16440327728 0.16423345868 0.16467024866 0.16471215538 0.16456129325 0.16501942538 
0.16495275981 0.1648208569 0.16526615233 0.1651691523 0.16503797825 0.16544856363 0.16546197465 0.165265945 0.16560289001 
0.16578218713 0.16560787469 0.16589212388 0.16606385363 0.16590674988 0.16616820225 0.16632991296 0.16618416208 0.1664169998 
0.16659908621 0.16644547015 0.16665496295 0.16686100276 0.16669884191 0.16707200346 0.17632159394 0.17343155879 0.16157173677 
0.16135787946 0.1603021313 0.16337031717 0.16124984986 0.164111306 0.1659070491 0.16607169995 0.16561614625 0.16578775732 
0.16612664949 0.16531142278 0.16549217596 0.16586534108 0.16496625453 0.16515576544 0.16557454179 0.16471965757 0.16486731071 
0.16529753325 0.16445477 0.16460091127 0.16509313718 0.16415434602 0.16431118554 0.16484610718 0.16383264953 0.16398580419 
0.16455303312 0.16346864207 0.16362043684 0.16418802106 0.16307429404 0.16321742995 0.16373069677 0.16262606144 0.16276490872 
0.16320603601 0.16209169065 0.16218508391 0.16242926815 0.16180494399 0.16169804219 0.16154393624 0.17445818113 0.1727258712 
0.17388097217 0.16076155342 0.16354361552 0.15975203058 0.16015720288 0.15966547948 0.15986036178 0.15988569324 0.15975377521 
0.15988026703 0.16031017395 0.15997712542 0.16005865206 0.16086595141 0.16013854819 0.16020426591 0.16140234763 0.16016434143 
0.16021438982 0.1616962608 0.16030738644 0.16030831496 0.16184415553 0.1606560177 0.16055162459 0.16221709178 0.16137467017 
0.16097246334 0.1627232253 0.16242234783 0.16194569387 0.16354571544 0.16360933008 0.16297519587 0.16457534556 0.16518613973 
0.16420113049 0.1656989144 0.16734243396 0.16602550743 0.16723550598 0.1698992825 0.16827702089 0.16913557975 0.17130905997 
0.16074337972 0.16003342252 0.16063264393 0.16166047378 0.16160510643 0.17119450567 0.17236554331 0.16930335111 0.17030681527 
0.17122254629 0.17337104936 0.17373942578 0.1659502433 0.16632847056 0.16546551449 0.16572330426 0.16715474173 0.16509637005 
0.16528623325 0.16677600818 0.16484778089 0.16498581204 0.16646316366 0.16463769591 0.1647713581 0.16621314369 0.16453954927 
0.16458511059 0.16608354786 0.16452787181 0.16446199795 0.16594468494 0.16478158723 0.16462660813 0.16598789569 0.16528596218 
0.16502661593 0.16632950036 0.1658272233 0.16554760697 0.16683943591 0.16654963004 0.16615198062 0.16735049452 0.16740827842 
0.16684246148 0.16792734817 0.1684890339 0.16779870342 0.16860505817 0.17018040213 0.16897535734 0.16947043513 0.17332255117 
0.16784090146 0.1708833855 0.17163738538 0.17191058442 0.1718640302 0.17114186857 0.16889162651 0.16877539085 0.16887087713 
0.16710807556 0.16935911525 0.1691072417 0.17171904023 0.17148861706 0.17168278575 0.17126700214 0.17104426002 0.17161992785 
0.17087849811 0.17071387741 0.1714475837 0.17055099594 0.17052131063 0.17114373177 0.17065627267 0.17076273533 0.17109331335 
0.17094573387 0.17110525122 0.17132474107 0.17130740691 0.17155142463 0.17149943402 0.17168495055 0.17177352254 0.17155983899 
0.16642711507 0.16655082822 0.16864930191 0.16849495935 0.1683273881 0.16863847452 0.16671254646 0.16724777873 0.16769949978 
0.17407487761 0.17403224286 0.17398910032 0.17399307412 0.17377626425 0.17440024623 0.17353832835 0.17338391478 0.17426671113 
0.17352617096 0.17354602605 0.17425621952 0.1735554585 0.17367834067 0.1744054362 0.17366107235 0.17376978024 0.17442056134 
0.17374837076 0.17391682012 0.1743197674 0.17383256005 0.17369244348 0.17395366612 0.16317937366 0.16370628739 0.16596430331 
0.16472729331 0.1661812662 0.16633030906 0.16657723134 0.16239164688 0.16218942693 0.16274385174 0.160084594 0.1633445536 
0.16092583788 0.16779207407 0.16849326374 0.16964982085 0.16446950575 0.17269661645 0.16722715663 0.16783673411 0.16624399844 
0.17042572276 0.1597272358 0.1624334354 0.1624540549 0.17162124869 0.16481019277 0.16741822275 0.16717820318 0.16760587029 
0.16236703867 0.16049950273 0.17274410057 0.15950545787 0.17568263203 0.16510020375 0.16565022971 0.1668720085 0.1619244439 
0.16853631947 0.1604114064 0.16636414794 0.16118261685 0.16027144795 0.16037143695 0.15964718965 0.16226436174 0.16194910388 
0.16398609504 0.16242806915 0.16850219339 0.15969458819 0.17157808843 0.17302445094 0.17305701913 0.17214786131 0.16795559648 
0.16796725288 0.16779157967 0.17257357339 0.17241068855 0.17129095231 0.17230866758 0.17103843707 0.1705606962 0.17137505736 
0.17098542582 0.17143609915 0.17068534376 0.15902454094 0.16698469235 0.16947204331 0.16934329962 0.16491086177 0.16150357198 
0.16801230574 0.16942263931 0.16907508718 0.16898684698 0.16924501255 0.16926453724 0.16914915272 0.16920482829 0.1692267571 
0.16898897953 0.16907718395 0.16910610519 0.16876951403 0.16888295207 0.16891995185 0.16848735771 0.1686337771 0.16866765745 
0.16814655748 0.1683142119 0.16834366451 0.16777109556 0.16795290622 0.16796253803 0.16738623072 0.16757788113 0.16755997306 
0.16695904712 0.16716456865 0.16712870586 0.16676132092 0.17116384893 0.16989023714 0.17107606139 0.1709329567 0.17095988995 
0.17049145859 0.16509220895 0.16525404803 0.27369536713 0.23560243008 0.16460400031 0.16485394911 0.16653681461 0.16389599064 
0.16421380191 0.16592668733 0.1630747326 0.16337966874 0.16502690004 0.16348442915 0.16232653683 0.16926502028 0.1692462963 
0.16927009515 0.16920768316 0.16915436944 0.16923279763 0.16707320922 0.16403355615 0.16365973652 0.16564111959 0.16549716345 
0.16582931813 0.16573235893 0.16622970221 0.16594683359 0.16586669231 0.16633497193 0.16607550028 0.16596412312 0.16638188383 
0.16635166791 0.16619835168 0.16652057813 0.16657198937 0.16644312076 0.16674056096 0.16679475394 0.16667033797 0.16693419623 
0.16700319576 0.16688575521 0.16712802731 0.16729048318 0.16266810975 0.16205881736 0.16299659104 0.16104223788 0.16074042475 
0.16587643527 0.16603847919 0.16615062087 0.16626829886 0.16644311271 0.16155955687 0.16637067092 0.16649296413 0.16663719591 
0.16565595972 0.16574464688 0.16618476106 0.16549467217 0.16560206664 0.16605153937 0.1652887681 0.16542395419 0.16593864869 
0.16500199361 0.16516307537 0.16575322194 0.16459749091 0.16479389975 0.16545002146 0.16407462801 0.16431008432 0.16500717584 
0.1633177776 0.16365027898 0.16431669341 0.16256981389 0.16301346003 0.16113911017 0.16895034338 0.16935912718 0.1602411965 
0.16002339127 0.15980660553 0.16112538343 0.16295868051 0.16271312162 0.16332508587 0.16324054595 0.16456568825 0.16332962394 
0.16321764814 0.16475421737 0.16409852093 0.16386493457 0.16514447112 0.16446622471 0.16419007423 0.16568761152 0.16568271298 
0.16513467562 0.16646054041 0.16653671387 0.16605021762 0.16739427766 0.16751488263 0.16692699025 0.16804358522 0.1688873376 
0.16799643722 0.16881293386 0.16940500158 0.16760121053 0.1677099354 0.16789056906 0.16804691039 0.16914519878 0.16150677189 
0.17047843602 0.16213924615 0.16180418093 0.16235624459 0.16370729214 0.16533415141 0.16514202178 0.16602127324 0.16809472086 
0.16830641852 0.16928631482 0.1674914716 0.16758113088 0.16891920832 0.16750548793 0.1675912738 0.16889634257 0.16738255173 
0.16746457553 0.1689469438 0.16713611155 0.16706023138 0.16853030976 0.167634183 0.16741267078 0.16852185683 0.16807631522 
0.16783419495 0.16899151583 0.16861142411 0.16832677482 0.16937161162 0.16900896507 0.16873132821 0.16967358604 0.1694920735 
0.1690961923 0.16984463806 0.17013124241 0.16967142322 0.17011085826 0.17041190944 0.17103441758 0.16936165126 0.16887938115 
0.16876626299 0.16890820441 0.16487984251 0.16459470944 0.16564368322 0.17132637888 0.17149596858 0.17076765348 0.16028927666 
0.16529818668 0.16552387838 0.16800933613 0.16656433047 0.166852799 0.17157395129 0.17157547612 0.17137510276 0.17156333513 
0.17148600037 0.1716697717 0.17144537549 0.17136120572 0.17172542644 0.17144672688 0.27715964989 0.23865064814 0.1714702827 
0.17150023149 0.17169379822 0.17150927961 0.17148977676 0.17162853741 0.17144688394 0.17135443927 0.17140512568 0.16930147949 
0.16718082563 0.16572840565 0.16905457799 0.16657374322 0.16669118468 0.17358424959 0.17417467055 0.17463878483 0.17485545447 
0.17456400636 0.17489996612 0.17473993725 0.1752462128 0.17490932646 0.28000898569 0.24027121847 0.17492367394 0.17496175354 
0.1754247085 0.174908924 0.17486709287 0.17539023935 0.1746299236 0.17445269539 0.17505961659 0.17411942929 0.17382313303 
0.17444732721 0.16842839498 0.16869886054 0.16961632172 0.16938261826 0.16438397372 0.16651380925 0.16690950807 0.16438633873 
0.16488098476 0.16910695213 0.16757130161 0.16461410059 0.162827348 0.16335775964 0.16883123434 0.1696209701 0.17017751626 
0.17081656588 0.17095926835 0.17038228381 0.16805638806 0.1684728077 0.16941049139 0.27914882584 0.24171960578 0.16744970999 
0.16508999543 0.16455033334 0.1704455192 0.16958448094 0.17018796897 0.17030791299 0.16361766278 0.16680551932 0.16997609566 
0.16865734829 0.1686389507 0.16849774255 0.16977283624 0.17322756403 0.17239215352 0.1733406633 0.1667491878 0.1679496085 
0.16773820881 0.17153583981 0.17268394177 0.17295155731 0.16754296714 0.1679865916 0.1691453033 0.16819181512 0.16825721891 
0.16947025303 0.17066979661 0.16356381236 0.1657750095 0.16835539151 0.16817145273 0.16797182274 0.16326625734 0.16378997824 
0.29667326938 0.23653322619 0.16691309506 0.16233395919 0.16857283307 0.16872598168 0.16817985382 0.16837471844 0.16842584491 
0.16774210479 0.16795612499 0.16798096368 0.16729644335 0.16750813034 0.16749604611 0.16704829757 0.17094952019 0.17121447679 
0.16726828791 0.16766644189 0.16935200128 0.16756803617 0.17105919523 0.16748737762 0.16749729841 0.16802673652 0.16830028509 
0.16936230746 0.16482916282 0.17050189654 0.16930490562 0.16926223716 0.16684115431 0.16681225274 0.16917275454 0.1690796511 
0.16924598724 0.16684174691 0.16676500271 0.1673583333 0.16701947789 0.16688851602 0.16713605578 0.16704154045 0.16739279799 
0.16729167286 0.16718863274 0.16746840741 0.16646043467 0.1665004505 0.1667078738 0.1665567411 0.16734058235 0.16650432324 
0.16665790327 0.1668554266 0.16436622178 0.16457963513 0.16558437931 0.1669022764 0.16699217393 0.16640741079 0.16647057289 
0.16692217327 0.16626378839 0.16638557999 0.16693132078 0.16597682022 0.16616804268 0.16682678917 0.16542947789 0.1657097362 
0.16648692886 0.16497122402 0.16605699251 0.16553295559 0.16824450693 0.17006306886 0.16649803668 0.16683028158 0.16682505272 
0.16728477295 0.16931738753 0.16932418752 0.1693621271 0.16687455183 0.16634269732 0.16626873891 0.16596713718 0.16756647166 
0.16753237488 0.16863053434 0.16823670261 0.2767674025 0.23576662065 0.16891328916 0.16852974135 0.16960825639 0.16939236353 
0.16906797791 0.17006541521 0.16978395586 0.16940128202 0.17018306227 0.17005907697 0.17022544422 0.17019740588 0.170137874 
0.17022954905 0.17035638557 0.16984014034 0.17005882323 0.1698370286 0.16981980656 0.17101244724 0.17107928299 0.17035027235 
0.17031555703 0.17135216664 0.16987096657 0.16962980681 0.16997817753 0.16983003989 0.17093084745 0.17037678034 0.17020074288 
0.17100615059 0.17046542055 0.1703828049 0.17116342948 0.16861830694 0.16959811593 0.16617856037 0.16664741343 0.16842332591 
0.16657368998 0.16891889456 0.16878627328 0.16897837911 0.16887839649 0.16899576318 0.16879518512 0.16641072621 0.16614963025 
0.16716606652 0.17020263339 0.17067358904 0.17046164491 0.16953263852 0.16645604247 0.1678385283 0.27242675066 0.23062580068 
0.17139117223 0.17148927407 0.17109960817 0.17158920063 0.17160410761 0.17146013989 0.25331462325 0.24916511051 0.26045849236 
0.2511361336 0.17161623865 0.17159997165 0.17164305326 0.17149194177 0.17141822084 0.17150858416 0.17115852869 0.17096090996 
0.17105558419 0.16948811857 0.1682827595 0.16949869526 0.16726767069 0.17545896097 0.17563939628 0.26286529247 0.17564633302 
0.17571980188 0.17593289114 0.17570158558 0.17562174305 0.17592313748 0.17530340605 0.17500075273 0.17559993908 0.17435466036 
0.17389536886 0.17459547216 0.17013831228 0.16910335647 0.16918253913 0.16907076011 0.17010803919 0.17020244864 0.17016455378 
0.16972219156 0.16923727387 0.16928353289 0.1693423316 0.16864986676 0.16863369359 0.16849577097 0.16885252948 0.16739282286 
0.16287093951 0.16793995386 0.16673721048 0.1662742175 0.17055426732 0.16365027213 0.16979314138 0.16836060834 0.16843628976 
0.16924225178 0.1683636771 0.16726257043 0.16624972003 0.16750667521 0.1676296498 0.17134567518 0.17094168497 0.16993834771 
0.16997032882 0.16674082913 0.16685234994 0.16705168804 0.16718866265 0.16581715828 0.16547577281 0.16761689247 0.16691427041 
0.17031408637 0.17152927996 0.17024702115 0.1648142146 0.17033368071 0.16942529142 0.17103768661 0.1705927267 0.16782007471 
0.16493923963 0.16712047356 0.16536864508 0.17017448153 0.17325113943 0.1723460925 0.17338169423 0.17047189588 0.17061386187 
0.17181972576 0.17037427553 0.17050752467 0.17137616836 0.16994992973 0.17134867027 0.1703027034 0.17031539347 0.17096887743 
0.1705577014 0.17428655193 0.17496639831 0.17532587141 0.16815615526 0.16792630887 0.167819693 0.1683113644 0.16998624052 
0.17014187165 0.17056488208 0.17381017123 0.17041306244 0.16824921834 0.16847403077 0.17499824817 0.17552342467 0.16771159332 
0.16871554731 0.16780756505 0.16943394789 0.16942187622 0.1720301563 0.17205715113 0.16787304433 0.1679290759 0.16776377358 
0.16771014446 0.1680413034 0.16780203871 0.16778684015 0.16806335548 0.16749592644 0.16749701426 0.16722556047 0.1673074331 
0.16738671516 0.1673592991 0.16793781036 0.16941767243 0.17096333245 0.17142422734 0.16827660807 0.17083372452 0.17059851384 
0.16884120218 0.17068635162 0.16958853653 0.17018527671 0.17200694227 0.16811697936 0.16808758371 0.16861737617 0.17217962076 
0.17101154026 0.17044401376 0.17108586561 0.17104368042 0.17182098904 0.1706886925 0.17073706887 0.17153791215 0.17071950776 
0.17316358153 0.17411998849 0.17438963268 0.17166223436 0.17187631283 0.1719678917 0.17182601901 0.17263400108 0.17188530456 
0.16674324984 0.16769272476 0.16710208091 0.16765687596 0.16768819695 0.16821939696 0.16935678944 0.16940333947 0.1694601401 
0.16744296106 0.16753088063 0.16811367968 0.16871176362 0.16888213729 0.16855107958 0.16782686541 0.16768088798 0.16845390465 
0.16783403616 0.16772112991 0.16805443881 0.16821344905 0.17099723466 0.17114789149 0.25970746472 0.17129940103 0.17130945452 
0.17092090585 0.1713107301 0.17117753995 0.17106191087 0.17087084875 0.17053910012 0.17074279473 0.16982964774 0.1690341532 
0.16831031581 0.17005444912 0.17561571806 0.17589021511 0.16744703904 0.16743766103 0.16772536399 0.17586622487 0.17551272603 
0.17488554553 0.17414408924 0.17514506934 0.1679780509 0.16935528032 0.16908041981 0.16888340246 0.16935673558 0.17102831561 
0.17113725016 0.16935491319 0.16924845172 0.16916112225 0.17242971506 0.171793319 0.17038691132 0.17182917567 0.17221144833 
0.17088262266 0.17233795309 0.16925107048 0.17093357382 0.17090508091 0.17024405865 0.16735624012 0.16765793444 0.17177164275 
0.17063238712 0.17101476696 0.16733444312 0.16996655729 0.17263125028 0.17053898997 0.17078583989 0.17055727033 0.16829712296 
0.17013031519 0.1695182013 0.17188026547 0.17124345167 0.17340396612 0.17417043533 0.17312052415 0.17183942824 0.16865213095 
0.17288452212 0.17267662781 0.17224511111 0.16943253612 0.16767476984 0.17027030824 0.17002172411 0.16990326525 0.17297830999 
0.17367800426 0.285461782 0.17317423488 0.17220361816 0.16801616043 0.1680772414 0.16862087012 0.16857115412 0.1727034574 
0.17262280597 0.16930683989 0.17196638518 0.17279590062 0.17180895121 0.17602543898 0.17607869207 0.17604989426 0.1760464467 
0.17597392857 0.16906793557 0.16918507899 0.16898372198 0.16916340681 0.29084446043 0.42446893461 0.42498067672 0.16996816397 
0.17011675079 0.17252393738 0.17366029514 0.17303714124 0.17207700844 0.44065995728 0.43610067777 0.17323511387 0.17403062954 
0.17482181063 0.1694205227 0.16844884211 0.16865845099 0.16842710523 0.16829429464 0.17209507488 0.16823361584 0.16863386889 
0.16797810968 0.16902387365 0.16923835563 0.16917664723 0.17293413435 0.16930143887 0.17051546175 0.17068137859 0.16804905576 
0.16796966474 0.16829016453 0.16849550223 0.17425595038 0.17445829175 0.383058327 0.41066897561 0.16876371385 0.16883384634 
0.17340142792 0.17130100207 0.17534679013 0.17564669291 0.17485398959 0.16925874909 0.16907282417 0.16870761568 0.16863704709 
0.16896298827 0.17307580065 0.17255884998 0.16925379065 0.16903882113 0.16833510563 0.17453262084 0.17435295162 0.16949475764 
0.1694267963 0.17247470862 0.17300815559 0.17525363946 0.1746726522 0.17321768046 0.16924118305 0.16938054943 0.1692126826 
0.16877603156 0.16954083914 0.1756816143 0.17551302543 0.16960443783 0.16991581185 0.16947091846 0.16950948265 0.16956557165 
0.16842117837 0.16856187891 0.17011730195 0.17016991758 0.1695856218 0.17349732582 0.17304271176 0.17549047959 0.17483696941 
0.16883831809 0.16905566297 0.16916658885 0.16860435655 0.17380672981 0.1739574244 0.17353353731 0.17474040971 0.16935532925 
0.39129199806 0.17338814281 0.1736940467 0.17382628344 0.16980975229 0.1700008373 0.16945527339 0.1740142546 0.17341539327 
0.17606994275 0.17586653753 0.17555829354 0.37528288658 0.33590975366 0.1743249112 0.17037366024 0.17001274943 0.17518501716 
0.17213243165 0.16951114568 0.16886441246 0.41115949396 0.43105379836 0.17070859088 0.17067994522 0.17034583911 0.17470905576 
0.16849202715 0.16985502153 0.16994355287 0.1699526622 0.16954544774 0.16927709974 0.42753820041 0.44217331869 0.16921713677 
0.17476124575 0.16990802699 0.17588977748 0.4366040448 0.4497765432 0.1699515246 0.44292104997 0.45397518877 0.16942033484 
0.44408586573 0.42945792504 0.16669037464 0.31385992331 0.16671901256 0.16671073804 0.1666592888 0.16657072151 0.16644558007 
0.16626964632 0.16608214322 0.16586804446 0.16562823115 0.16531838421 0.16500583425 0.16469353274 0.16437259389 0.1640321657 
0.1637023376 0.1633266395 0.16294567093 0.16254237202 0.162149426 0.1618037493 0.16142446275 0.16107999943 0.16070074839 
0.16036308291 0.1601165574 0.15990444468 0.15967083942 0.15965340974 0.15979929663 0.16004577405 0.16038070335 0.16101317215 
0.16177857447 0.16272053656 0.16400931955 0.16548543936 0.16704642979 0.16878170777 0.17056520253 0.1721408728 0.17368180782 
0.17475480417 0.17532389593 0.17557337757 0.17480094888 0.17368843291 0.17221541698 0.17024479325 0.16784914746 0.16540703953 
0.16314836154 0.16100062568 0.15901795562 0.15699774993 0.1553585274 0.1526388403 0.15145386615 0.15053264393 0.14974736216 
0.14897893566 0.14828646164 0.14773019407 0.14715431168 0.14671114545 0.14630686802 0.14591091768 0.14555405943 0.14518533764 
0.1448905815 0.144652179 0.14436703223 0.14435670198 0.1444292783 0.14465808912 0.14498347448 0.14566032239 0.14661435132 
0.14788188487 0.14985412264 0.15235785425 0.15571014558 0.15986156221 0.1648611688 0.17588673744 0.19281716731 0.15974256013 
0.15397150699 0.14449117337 0.25254200004 0.28456477653 0.16669519924 0.16670623371 0.27579799038 0.19303151317 0.1745889457 
0.16499205933 0.15962252257 0.15518738794 0.15188887198 0.14958152742 0.14774999893 0.14662051024 0.14566272894 0.14506849901 
0.14465875021 0.14450412181 0.14441388986 0.14447144473 0.14458950842 0.14477835646 0.14503544318 0.14535828797 0.14567299919 
0.14605235669 0.14644075938 0.14686779905 0.14733252406 0.14784431339 0.1484388059 0.1490817752 0.14980338194 0.1506331377 
0.15170999536 0.15281597457 0.15413281847 0.15551115293 0.15728499985 0.1592031043 0.16112459464 0.16336669107 0.16582885813 
0.16817118582 0.17025988493 0.17221636768 0.17383560657 0.174853934 0.17549953684 0.17541994499 0.17490713166 0.1738653814 
0.17251871027 0.17084916311 0.1690710938 0.16726410722 0.16555045728 0.16419085858 0.16301895064 0.16202631896 0.16119163993 
0.16052398033 0.16006798156 0.1598141975 0.15965708894 0.15964913342 0.15971072749 0.15987145289 0.16006445314 0.16030918624 
0.16063846102 0.16099630972 0.16135581563 0.16171707666 0.16213447834 0.16255808602 0.16292894568 0.16334313123 0.16370266719 
0.16404954962 0.16440404544 0.16473757351 0.16503419897 0.16533129489 0.16560475088 0.1658441039 0.16607255703 0.16625928631 
0.16644563179 0.16657237039 0.16667183183 0.16671313553 0.16665854716 0.16666829379 0.16666401145 0.16666229386 0.16666659283 
0.16667335765 0.16675237839 0.16688842108 0.16704151332 0.16722957045 0.16743848843 0.16765248284 0.16788263782 0.16811967236 
0.16838403117 0.16864237661 0.16889172605 0.16914366624 0.16937934585 0.16960756623 0.16985263582 0.1702124815 0.17038785272 
0.17054442219 0.17064494025 0.17072713626 0.17079150648 0.17082932258 0.17084569148 0.17082500767 0.17078602167 0.17071578815 
0.17062803239 0.17051107218 0.17036653555 0.17021247133 0.17003316221 0.16983064632 0.16961314123 0.16937721631 0.16910195209 
0.16885852564 0.16861275132 0.1683545213 0.16809115662 0.16785576716 0.16761987238 0.16739629438 0.16718744965 0.16701663229 
0.16686656657 0.1667369913 0.16666926812 0.16666342987 0.17004409205 0.2835913602 0.30738120867 0.38313012858 0.39417731007 
0.41394894504 0.40856364899 0.43029818761 0.42486393885 0.4429880388 0.43467659143 0.45079985419 0.44277322911 0.4526213355 
0.47170988089 0.44398306079 0.44494017759 0.44658945149 0.43849644495 0.44466893119 0.42911784766 0.43252721422 0.40896940663 
0.40021885673 0.38612337202 0.38256614686 0.31745643325 0.34829658885 0.43644127146 0.44824086761 0.41156728929 0.39904434389 
0.41972623566 0.30632721791 0.39223331362 0.32550841773 0.41328981876 0.40542214381 0.16666309873 0.16667354913 0.16665786792 
0.16665593125 0.39457099948 0.39588640322 0.38831865439 0.36795202767 0.37999714201 0.38562341456 0.40667632805 0.37552324453 
0.36459630718 0.26199080544 0.41086812262 0.41122406839 0.42238319214 0.31551431335 0.25368904346 0.2841837927 0.39917036862 
0.16461169359 0.15694803653 0.1609289396 0.34029084577 0.37001939933 0.33985532049 0.40984595129 0.16669833509 0.34927589375 
0.40558944657 0.39798333517 0.36187025714 0.17015183606 0.16895437336 0.16682582851 0.40724898164 0.35535226365 0.34349911005 
0.34710312493 0.30496254484 0.16667294162 0.16666221425 0.34984386907 0.31632120596 0.31043889039 0.17141407648 0.34688774636 
0.35763381985 0.33576059564 0.15191551971 0.18174987214 0.18506392047 0.1686151361 0.1684451468 0.17841612185 0.16880722314 
0.16250693112 0.16511832011 0.16350456282 0.1617806146 0.15966997095 0.15975713836 0.15991573983 0.1600863127 0.1867140848 
0.1729526131 0.17281282893 0.18354944877 0.1850820124 0.16881561382 0.16874263918 0.16865294433 0.16076127678 0.15950971778 
0.16101862637 0.16772487246 0.16860663196 0.16874544761 0.16207143408 0.16421130168 0.16382247961 0.16820118079 0.16817718864 
0.16835569605 0.16895636765 0.16879031498 0.16890928196 0.16874461383 0.16649330115 0.16639067562 0.16621894218 0.16400849427 
0.16341335804 0.16385335675 0.16880133133 0.16880967599 0.1686626792 0.16867456018 0.17236832271 0.1768850809 0.17102864319 
0.17610139445 0.16901766324 0.16885685282 0.16870890408 0.16883161036 0.16868244862 0.16922660256 0.16913388291 0.16938759758 
0.16928388243 0.15646070426 0.15237888435 0.15338035743 0.16602136197 0.16557368617 0.16585676787 0.16541465774 0.17005179418 
0.16965944702 0.17163374832 0.17123832927 0.16694611479 0.16669701425 0.16703573536 0.17043715171 0.17017091021 0.17049146343 
0.17037628039 0.16821491635 0.16841337964 0.16839786814 0.16859031457 0.1393991955 0.16886531076 0.16906842503 0.1664548442 
0.16643946739 0.16640323804 0.1663808204 0.16156609833 0.15841075005 0.15922447329 0.16768713272 0.16797660675 0.16771499745 
0.16799984571 0.16793849861 0.15770741092 0.15771992683 0.15610182435 0.16930745794 0.1690099144 0.16930571009 0.16919243375 
0.16923562891 0.1679891278 0.16583586703 0.16770866239 0.16515628079 0.17571812421 0.16913151155 0.17602194519 0.17112137929 
0.18118986746 0.17883134608 0.18153366286 0.16823171825 0.16818260103 0.16838552652 0.18829350285 0.19681446872 0.18284861022 
0.1694567728 0.16939596585 0.16947135262 0.16944670282 0.16950569789 0.16961842554 0.16982374656 0.17045435953 0.16938089428 
0.16936819356 0.16768553523 0.16749552496 0.16783013002 0.16763994796 0.16786015756 0.1644945467 0.16425013438 0.16468811857 
0.16123356585 0.15952103282 0.16101540963 0.16862805109 0.14792072027 0.14812430786 0.15135821788 0.15188691638 0.16474981021 
0.16529713234 0.16605978591 0.16671952733 0.16224070872 0.16154834667 0.16181703947 0.17130466781 0.16918249859 0.17007156246 
0.16769455152 0.16751535933 0.16914651131 0.16921200806 0.16491742038 0.16586659368 0.16456250404 0.16416247136 0.16383126764 
0.16486464417 0.16457816799 0.16968648581 0.1706884299 0.17053897912 0.16835328653 0.16852144767 0.16312648337 0.14878579068 
0.1614211967 0.16840822797 0.16820868605 0.16842365101 0.15067876463 0.17228027406 0.17181007043 0.17134993605 0.16357173691 
0.16298120104 0.16380343575 0.16321203932 0.1662892086 0.16633738918 0.16623161448 0.16990747606 0.16935224125 0.1698335339 
0.16925374148 0.16620218849 0.1661292284 0.16632287548 0.15389018152 0.18003917931 0.15033643815 0.16553885891 0.16563350321 
0.16581653519 0.16591847559 0.17210304797 0.1717408283 0.1628200334 0.16212003048 0.16194545407 0.16799208428 0.16816472421 
0.1678099767 0.16799326744 0.17378695038 0.15986009678 0.17091611613 0.15952451248 0.15689964351 0.1588801573 0.16306592438 
0.16285091831 0.16255942426 0.17112792116 0.17323578138 0.17388267319 0.17354148698 0.17388461883 0.17389449223 0.17377154081 
0.16163843056 0.16329905007 0.16277842999 0.16258235236 0.16262039133 0.16242503947 0.15543719895 0.15685334577 0.15682461516 
0.1623465598 0.16226536353 0.16226630186 0.16215429538 0.16738175179 0.16606571476 0.16582750167 0.17125938969 0.17062437023 
0.17038500344 0.16962937597 0.14943627142 0.16318268898 0.16349192551 0.1640136114 0.16425426925 0.16900603028 0.16899038933 
0.1689030249 0.16614139291 0.16643905168 0.16631686115 0.16761780332 0.16893080468 0.16645525661 0.16801588192 0.17309922549 
0.17403104413 0.17199949149 0.16686997622 0.17676467651 0.17532390332 0.17372414081 0.17250191632 0.171560365 0.16174298915 
0.1622361749 0.16234243251 0.16284388252 0.16323693672 0.16296808551 0.16002661867 0.15990129544 0.15954401108 0.16965123563 
0.16972954005 0.16990964561 0.15801796503 0.15898157801 0.15928535526 0.15825554514 0.1671134125 0.16768116688 0.16538383329 
0.16366347413 0.16300625508 0.16353726076 0.16841603113 0.16692188347 0.16859326309 0.16818414207 0.1683751817 0.16820186083 
0.16980491568 0.16120235984 0.160577905 0.15850756012 0.16363629571 0.15506832556 0.15726073339 0.15765669181 0.15966248308 
0.1534737429 0.15405217278 0.15664873661 0.15737186093 0.15106800099 0.15164328031 0.15458578744 0.163523526 0.1629028343 
0.16283154965 0.16444019364 0.16698992656 0.16576089057 0.14760785175 0.15073552454 0.16426753384 0.16371974759 0.16913741492 
0.16905575423 0.1692197833 0.16914082385 0.15462890392 0.14316010741 0.16442614924 0.16650181988 0.15527759693 0.15284011863 
0.15550622444 0.15813973656 0.1592515308 0.16393679584 0.16449955248 0.16411146179 0.16466516346 0.15313897726 0.1560148179 
0.1532626411 0.16702987637 0.16536486037 0.17487634228 0.17428743983 0.17487970036 0.17273214698 0.17433713006 0.16764429455 
0.17094082944 0.17347629589 0.17229280842 0.17293868163 0.16733803343 0.16748717116 0.16720008162 0.16735230446 0.16043745536 
0.16155357932 0.16161869051 0.16285288091 0.16853010303 0.16696456986 0.16723236578 0.16705111356 0.16050173773 0.17192096636 
0.17169200688 0.17042175618 0.16838412253 0.16852574714 0.16955792812 0.16993314449 0.17017836211 0.17061108169 0.16387997477 
0.16383590076 0.15968876708 0.17664357131 0.18664454084 0.18255271488 0.15543277249 0.15777226583 0.15557103443 0.16865838374 
0.16851044245 0.16869590017 0.16038095731 0.15499573111 0.15663100247 0.15804354185 0.15807661518 0.13935159096 0.17130877335 
0.16170732465 0.16167866199 0.1630427605 0.15971582351 0.15908872011 0.17605246806 0.13973906145 0.17288801903 0.16855492737 
0.16906374286 0.16932543811 0.16974003971 0.17001191195 0.16981378023 0.16969125659 0.16503444389 0.16010422932 0.16353646874 
0.15982573506 0.16844735743 0.16837693367 0.16994134176 0.16986122648 0.16266211297 0.16868158838 0.1523100302 0.15285918165 
0.154077648 0.16667026259 0.15165913856 0.15341729 0.15151902414 0.16640302697 0.15284377901 0.17369542413 0.1739551462 
0.17350113938 0.15903732827 0.15373160938 0.1666766927 0.18132802158 0.17905597693 0.16885130581 0.17358958587 0.16686813948 
0.16547137444 0.16565908625 0.16425094618 0.16609615849 0.16593677395 0.16622581566 0.16606243138 0.16354524439 0.16409808284 
0.16714187059 0.16616674782 0.18049886021 0.18334823999 0.15471990256 0.16869406634 0.16854855676 0.16859057584 0.15485454245 
0.15475681634 0.15255205904 0.15772281999 0.15442912674 0.15944237424 0.1562275637 0.16985735977 0.17881316823 0.18319499272 
0.16174564033 0.16352627606 0.16338667586 0.16898322794 0.17153552886 0.1693119497 0.17113627405 0.1906157556 0.15867416709 
0.19063395808 0.15155443715 0.17928481163 0.15254980795 0.1699977126 0.16330378018 0.16565005922 0.1637139972 0.1666865272 
0.15438447959 0.15862767176 0.15900591627 0.16031039834 0.16141829058 0.16767143443 0.17522017674 0.16086344562 0.17039154272 
0.15877531641 0.1595633173 0.15840947418 0.17442830955 0.17500573131 0.17470230198 0.14860590389 0.16492203733 0.16451312063 
0.16604226629 0.15750938998 0.15716167057 0.15602959892 0.1631893026 0.16357281552 0.16303489793 0.17599268485 0.17604740555 
0.17589727267 0.16922290204 0.16917056081 0.16922266703 0.16916577591 0.16607714119 0.16572207237 0.16563441717 0.1698140249 
0.16226961869 0.16225677529 0.16254195175 0.16259965873 0.16283790823 0.16709615416 0.1670389159 0.16686377782 0.16460733958 
0.16455800913 0.16491967841 0.16485610742 0.16677212709 0.16699448023 0.1668497089 0.1722729187 0.17141461522 0.17199438462 
0.16957015746 0.16144462088 0.16177936333 0.16322681376 0.15954671554 0.17183376872 0.17327157319 0.1671869669 0.16742581266 
0.16698030093 0.16723294569 0.15997805435 0.16140235041 0.16012647636 0.16155764287 0.16731786623 0.16714913884 0.16732772108 
0.17197558384 0.1600316273 0.16727925198 0.16744866535 0.16733871993 0.16724443831 0.16684907013 0.16679023974 0.16665607358 
0.16683360812 0.16647000218 0.16664962322 0.17060559737 0.17194221666 0.17278594419 0.1673338882 0.16717406849 0.16766954282 
0.16763069063 0.16780706766 0.1731471435 0.17232114179 0.17346424407 0.15925726316 0.15659857592 0.15879385668 0.16119197837 
0.1612821021 0.16191618288 0.16201334942 0.16243254076 0.16251625027 0.16268460223 0.16393103354 0.17368639084 0.17758920029 
0.16247448922 0.16215265993 0.16288982207 0.16235381554 0.16251816126 0.16238442165 0.15571642585 0.15754762688 0.15551884363 
0.1674204331 0.167474487 0.13980069806 0.17457431979 0.1425918585 0.16200801579 0.16112721606 0.16258383604 0.16476800929 
0.16511254241 0.16524079047 0.16630494511 0.16481889188 0.16461815161 0.16311113818 0.16690869493 0.16670755845 0.16501373324 
0.16534339457 0.1642009817 0.16357062243 0.1630125934 0.16884180126 0.16897912869 0.16861280534 0.16716284874 0.1683875405 
0.16689897306 0.16801916583 0.15377097744 0.15522538595 0.15333621273 0.15947738687 0.15997197104 0.1593764206 0.15857407761 
0.15888116285 0.15984925677 0.1634375035 0.16732411211 0.16699207094 0.16719419875 0.16699124839 0.16718628993 0.16530742057 
0.16548523503 0.16573760848 0.16822644772 0.16794227567 0.16918433549 0.16215668135 0.16212013532 0.1618143228 0.1623525735 
0.16574933449 0.16498955812 0.16508147654 0.1643202179 0.1644382934 0.18824639939 0.16166332709 0.16091758238 0.16110294649 
0.16547788479 0.16562116965 0.1654004219 0.16761448462 0.16779853647 0.1678431246 0.1761438445 0.16650083033 0.1685362671 
0.15739129272 0.15638464149 0.15568906555 0.16592301278 0.16623591103 0.16468830271 0.16492876973 0.16467339119 0.16560299644 
0.16541792081 0.16116358049 0.16061704853 0.16147276287 0.17257531302 0.1727606789 0.17318272766 0.14294247722 0.16636099739 
0.16744083722 0.16969424937 0.16929274378 0.16912041059 0.16871147124 0.16527356191 0.16505333685 0.16490776887 0.16468601929 
0.16975524191 0.17133052568 0.16412653047 0.16384703733 0.16376213629 0.16270113828 0.16208672758 0.16284559914 0.16714529847 
0.1669338394 0.16395622355 0.16287302784 0.16938350022 0.16929177055 0.16943984869 0.16934234583 0.16667441521 0.16664788156 
0.16665005047 0.1666016625 0.17438395611 0.17460764215 0.17730182579 0.16346113134 0.16321621089 0.16212824934 0.16186427897 
0.16643539314 0.16630037209 0.16631701522 0.16617701299 0.16409179364 0.16253161297 0.16277536053 0.17451770852 0.17470271724 
0.17433120542 0.1744124738 0.1699272815 0.1696761225 0.1699434712 0.16970301364 0.15267357557 0.16662693204 0.16541221812 
0.16835455202 0.16722382637 0.15135631059 0.15183623138 0.1557751101 0.15607278435 0.15459282759 0.16862558905 0.16861923017 
0.17385316881 0.17460061119 0.17350435298 0.17432775968 0.16584995016 0.16611837869 0.16514412901 0.16658147582 0.16661299748 
0.16663013417 0.17074414193 0.17083434194 0.1700221136 0.17165087295 0.17028159696 0.16006558812 0.15969970783 0.20766712289 
0.21248474125 0.21920658028 0.16579693867 0.16911646098 0.167742815 0.16867929282 0.16327999411 0.16286242256 0.16410219558 
0.16359205823 0.16491264834 0.1655299114 0.16506836684 0.16165290376 0.16170468918 0.16201588497 0.16243542634 0.16270845912 
0.18644772179 0.16788061582 0.17680079922 0.14890911685 0.16712720043 0.16699157383 0.16701055465 0.16191918751 0.16095170666 
0.17213222808 0.17366200626 0.17080008373 0.17245201996 0.17074169867 0.17112183185 0.17076091972 0.17112973556 0.16873541054 
0.16888852584 0.16491608017 0.17409824088 0.173195814 0.16598631861 0.16575895343 0.16431317298 0.16052466602 0.16163019053 
0.15996791529 0.17058421957 0.17033422733 0.17043644003 0.15875497832 0.16755648061 0.18813712358 0.16077999099 0.16156382022 
0.16168176874 0.16685923109 0.16697746635 0.16690314142 0.16703325382 0.14620719057 0.1600352829 0.16115728552 0.16513815162 
0.16424780157 0.17263761409 0.17372429616 0.17272360393 0.15498169501 0.15649976649 0.15568616319 0.16689007402 0.1665915738 
0.16568653924 0.16737091035 0.18370686494 0.18265356842 0.180380312 0.16934391509 0.17234947927 0.16778622394 0.17058876729 
0.17827037102 0.16973170153 0.16606308794 0.16445620947 0.16332360936 0.16491049179 0.15050382567 0.18581084397 0.17982734406 
0.15640090932 0.15099826958 0.15479861745 0.16784557627 0.16634133008 0.16386260229 0.1636489253 0.16512649591 0.18273552881 
0.17921994381 0.16689149695 0.16697406474 0.16838442417 0.16314393673 0.16357117146 0.16301649042 0.17045364715 0.17073044725 
0.17088559377 0.16351649164 0.1637404442 0.16319236665 0.13821936845 0.16083589423 0.1591984537 0.16052437779 0.17175273286 
0.17199776325 0.1685185719 0.16212940009 0.16314926747 0.16348485764 0.16381195356 0.17690292215 0.16562171949 0.16545624507 
0.16683563097 0.1675619503 0.16545299034 0.16943468716 0.16747663638 0.16587616979 0.16418532028 0.18758090538 0.15569226837 
0.18307146695 0.16763197098 0.16728858798 0.1672992812 0.16687049192 0.16979049147 0.17032369046 0.16085462587 0.16111331437 
0.16156819829 0.17890474862 0.16645879203 0.16772703755 0.16671343862 0.16885723122 0.16044504417 0.16334583832 0.16280577628 
0.17868103032 0.152813429 0.18209394135 0.15077514266 0.15774544344 0.15689552844 0.15627437008 0.16294768781 0.16320439064 
0.17069180534 0.17003906618 0.17052271669 0.1709024133 0.17122132543 0.16991090598 0.17416526248 0.16874523155 0.17073140007 
0.16860142714 0.17193997361 0.17254526596 0.17156879858 0.17226713634 0.17135749313 0.17030157873 0.17074344605 0.1700932474 
0.17295637443 0.17272290421 0.17364714097 0.17402411506 0.17345731377 0.17418134853 0.15427095771 0.1697477318 0.17088646129 
0.17007742024 0.17272884696 0.16306424573 0.16180493611 0.1632247451 0.17246541002 0.1739147289 0.17312695322 0.17376503947 
0.17177841845 0.17185619606 0.17231529147 0.17388854456 0.17426177502 0.17345801555 0.17344867021 0.17256638125 0.1725065352 
0.15211880296 0.18030102849 0.16075493461 0.17184835101 0.17443290614 0.15983484139 0.16656331583 0.16714473189 0.16619459674 
0.16949494175 0.16828615907 0.17497714401 0.17860411799 0.16517130649 0.16818189087 0.16824645631 0.16758251627 0.16731766218 
0.16757239807 0.16948896745 0.16850548772 0.17013906845 0.1693597036 0.16678510222 0.16654735784 0.16668067694 0.18246071107 
0.16969351894 0.17931265926 0.18022978501 0.15075955962 0.16068525057 0.16138263555 0.16849215429 0.16870883453 0.16002832297 
0.15951677665 0.16987456828 0.16967913612 0.16992057263 0.1690341768 0.1688802111 0.16895141618 0.16879490256 0.16147449099 
0.16199453923 0.16869128775 0.16856859352 0.16870503138 0.16802401062 0.16779380443 0.16799921525 0.17225160869 0.17126090434 
0.16789839331 0.16633841903 0.16744556004 0.16988923903 0.17014564268 0.17009022105 0.16925621818 0.16935840826 0.17382394905 
0.17317553258 0.17343876023 0.16714688073 0.16685951693 0.16737557022 0.167105114 0.16740969993 0.16902962788 0.16901046667 
0.16911458903 0.16909661097 0.16921811363 0.16459635133 0.1668024543 0.16631453639 0.16678335546 0.16547371053 0.16619347693 
0.16494856633 0.16760166259 0.17443967335 0.1619424852 0.16361350426 0.15939515993 0.15109761625 0.15332934156 0.15321408942 
0.15534838692 0.17650356392 0.16552028972 0.17294668323 0.16625910696 0.16799737435 0.16539169179 0.15229112734 0.16927234755 
0.1700886399 0.16846118669 0.16652254056 0.1681317211 0.16242294979 0.16237315289 0.16207894414 0.16932917683 0.16934031161 
0.16941796282 0.16762719485 0.16780666426 0.16833826074 0.16817345602 0.16835444566 0.16660971293 0.1664958129 0.16615490276 
0.16604953544 0.16106013185 0.16142111209 0.16159467364 0.16123478512 0.16103643007 0.13974860685 0.16043388518 0.16171241227 
0.16024134884 0.15757407485 0.16056227214 0.17559563373 0.17228338192 0.17326695243 0.16286511761 0.16182993592 0.16083585451 
0.17438733376 0.17434784505 0.17490696759 0.15778518064 0.17606399772 0.17612870718 0.16630491196 0.16669570017 0.16638178733 
0.16678079978 0.15937967838 0.15961106546 0.16802758018 0.16803976784 0.16785301573 0.1692987782 0.16926037723 0.16425171696 
0.16467321389 0.16449101399 0.16451049283 0.16513156187 0.16547141544 0.16530892902 0.16489508427 0.17213519912 0.17232074628 
0.17123634398 0.17130744441 0.14121388675 0.13937212322 0.17271215786 0.16854930873 0.16221859201 0.16376442777 0.16246602046 
0.1756590583 0.17540080822 0.17533850276 0.1607341321 0.16928545352 0.16944211067 0.16919401419 0.16786754999 0.1710357944 
0.17088906021 0.17022470492 0.1401094295 0.17111068366 0.17240006062 0.17120239928 0.16606708951 0.1659184203 0.16590428142 
0.16545259215 0.16400501561 0.16855016769 0.16934932904 0.16948634533 0.1703541583 0.14338737748 0.14159567858 0.17496239645 
0.16635414313 0.16688716523 0.16687694852 0.1643445868 0.16582003403 0.17238850554 0.17296414421 0.17271637768 0.17457492813 
0.15582299494 0.15489687715 0.15617718121 0.16422742837 0.16569741269 0.16526772476 0.16500889379 0.16650759939 0.16608922374 
0.16798120514 0.16834376014 0.16802409551 0.19023239589 0.15080917779 0.17840585684 0.16292145564 0.14776544215 0.18256711255 
0.16407787263 0.1634785637 0.16375123956 0.16271292243 0.17236404664 0.17250397254 0.17157284532 0.17172579265 0.16315420793 
0.16280363063 0.16894522216 0.16912618182 0.16919731758 0.14736264872 0.18692604552 0.19930917606 0.20549351786 0.16695625775 
0.16724014062 0.1714394723 0.17125912235 0.17156469478 0.16291598685 0.16303241806 0.16896614261 0.16750358846 0.16069336541 
0.16225193519 0.1646407983 0.16784398325 0.16767106555 0.167640925 0.16745837851 0.17243939796 0.17161599924 0.17125111808 
0.16942414343 0.17152986197 0.16042356326 0.16034601319 0.15866945398 0.15855509209 0.16431706718 0.16427937125 0.16575634538 
0.16571285964 0.19044616904 0.18006022858 0.16932027513 0.16774872999 0.16579236533 0.16750918258 0.16715396863 0.16161123208 
0.16248070348 0.16975250842 0.16878590274 0.17080779854 0.16751806234 0.17508239017 0.19077015146 0.16830510713 0.16866052785 
0.17210986694 0.17469612828 0.17410175934 0.1904134048 0.19877836724 0.17187998393 0.17181012656 0.17152516798 0.16572140543 
0.16543318572 0.16809208703 0.16929069019 0.16686759772 0.16797513936 0.17457351097 0.17585137954 0.17315979988 0.17287385049 
0.21243440961 0.19657831099 0.16722678746 0.16725248333 0.16592827818 0.1671194063 0.16930494678 0.16979887624 0.1568319025 
0.15474291477 0.16731520951 0.16648055612 0.16713442398 0.16813324087 0.16547367581 0.16554453405 0.16065263988 0.17171507054 
0.17149622515 0.1664332116 0.16602968925 0.16596751765 0.16424824384 0.16590797274 0.16589218201 0.16953833755 0.16956195058 
0.16028299856 0.15902758961 0.17149821714 0.17231880466 0.17185889174 0.17183284744 0.16871807471 0.16974989556 0.17186872223 
0.17270012554 0.17450375766 0.1757945995 0.17992729426 0.17254332412 0.17213844766 0.16590568069 0.1654615121 0.18195155216 
0.17874414455 0.16867218689 0.16856334358 0.16897205607 0.16372114287 0.164736286 0.16407542826 0.17029488812 0.17072254358 
0.1706307009 0.17128171334 0.17243853916 0.17367950891 0.18439285236 0.16606676206 0.16457903665 0.1706045426 0.17073119261 
0.17111446605 0.17126976576 0.16766971019 0.16976161169 0.17048375285 0.16833007313 0.17008204621 0.17024458777 0.17020350612 
0.16810145476 0.16673492553 0.16775244563 0.16631693414 0.16495217248 0.17250109236 0.16394267237 0.16080537064 0.16536406725 
0.16900021865 0.1675748669 0.1688450182 0.16334254668 0.16072303712 0.15982227053 0.16194636104 0.15755563864 0.15952831674 
0.1664434505 0.16655884815 0.16296473582 0.16172529407 0.16275674497 0.16294300362 0.16232396914 0.16829866208 0.16944887237 
0.16807917165 0.17165688675 0.17163633498 0.17140534616 0.17027276678 0.16992179925 0.17035706034 0.17001530573 0.17410438696 
0.17361451521 0.16644486521 0.16778515112 0.16712452426 0.1670495151 0.16602897639 0.16594042198 0.16794733131 0.16772491284 
0.16522290729 0.16480774351 0.16941293723 0.16953208116 0.16955550797 0.16581748971 0.17569965566 0.17372451467 0.17458988624 
0.1727324498 0.16882617461 0.1679987753 0.16818997787 0.16800845611 0.14381650865 0.171020448 0.19233096649 0.20300929389 
0.17134446924 0.18816399504 0.17959042282 0.1704311884 0.17022189791 0.17025280389 0.16962058951 0.17972028895 0.17006889458 
0.19724801019 0.17042705146 0.16832978922 0.16849214193 0.16849595072 0.17358935345 0.17388234515 0.16092551253 0.16528319792 
0.16445466315 0.16565127838 0.16335138107 0.16901186399 0.17045788685 0.16931901018 0.16920548363 0.17466826625 0.17425375282 
0.17372342207 0.17343366912 0.16939704651 0.17411902096 0.15479253684 0.15671523959 0.15805733664 0.15947916589 0.15899297164 
0.15918721809 0.16882888479 0.16861405898 0.16864202325 0.16193409506 0.15998264033 0.160875562 0.15101620988 0.1676158593 
0.17451981623 0.18072154234 0.16832259537 0.1685484294 0.16911410533 0.16953155501 0.16967611296 0.1694261899 0.16933777616 
0.16948160428 0.16208272344 0.15792572051 0.16154668678 0.16573139328 0.16210635961 0.16142769548 0.16237802893 0.16164634659 
0.16599744114 0.1658646102 0.16905931023 0.16611953317 0.16627992765 0.16593836528 0.16614512709 0.17240358998 0.16010396508 
0.16654836402 0.16627268697 0.16833456336 0.167947418 0.16672055681 0.16852111176 0.15894206217 0.15826202457 0.17299233811 
0.17263071615 0.16274722406 0.16304809036 0.16563551865 0.16586760045 0.16602347484 0.1680543175 0.16770846533 0.1688320016 
0.16964922385 0.17034998487 0.16916333527 0.17001397872 0.17035475417 0.16916826786 0.16693791263 0.16843509294 0.16585978532 
0.16732681542 0.16121057155 0.16108531867 0.16235198045 0.15815978202 0.15824949835 0.15741377937 0.17132055909 0.17080921732 
0.17123340459 0.17129285786 0.17117344296 0.16329103266 0.17093029292 0.16923829373 0.16736210594 0.17035930679 0.17125359441 
0.16721972189 0.16742999113 0.16709469031 0.16738443468 0.16468171632 0.16511540045 0.16525485165 0.16662704384 0.16667821222 
0.16678432702 0.16855288868 0.16971239525 0.16843689344 0.1678497027 0.16840985542 0.16789947744 0.16770561289 0.1694708338 
0.17014563228 0.16949836547 0.16109441176 0.17088700199 0.16752017889 0.15714865504 0.16507548498 0.16526290766 0.16576962039 
0.17004968214 0.1694032316 0.16946376727 0.17408996347 0.16996162514 0.16928756809 0.17336284054 0.17265070583 0.17364857057 
0.17363597246 0.1715953957 0.17312461078 0.16389228693 0.16600845342 0.16615958048 0.16058013923 0.16133717151 0.16070676676 
0.16423030984 0.17030421725 0.16979389917 0.16958768465 0.16935962518 0.16912434985 0.17007436592 0.16951002693 0.1693707198 
0.14935301625 0.18003458041 0.18672300268 0.16660449459 0.16824737914 0.14990985899 0.1603533472 0.18847961753 0.171468634 
0.17144552021 0.17170325188 0.17566159204 0.16114348022 0.16083018778 0.15897987328 0.17029017884 0.17045594102 0.16980236103 
0.16999189756 0.1584507875 0.16070614382 0.16679560569 0.16577233212 0.16517646024 0.15487551779 0.15675008006 0.16689740362 
0.16517648573 0.15532514985 0.16736185944 0.16779068445 0.16758960412 0.16750979985 0.17354843557 0.17265664891 0.16180401803 
0.16052542553 0.15348123724 0.1688438626 0.1689076011 0.16893413133 0.17040255645 0.17057585454 0.17008706501 0.17316683813 
0.16727631141 0.1604423426 0.16274756821 0.16248889467 0.1587866736 0.15760274578 0.15874582575 0.17087511943 0.15930234856 
0.15251244151 0.15049716377 0.1503134263 0.16395901487 0.16627506427 0.16615783467 0.16679835013 0.17370100346 0.17649598386 
0.17485529792 0.16958188396 0.16961810555 0.1699692717 0.16936941665 0.169385749 0.1692929769 0.15485304343 0.17081486636 
0.17014294855 0.17125060971 0.16498729749 0.16568698294 0.17123008081 0.17021780912 0.17127081322 0.17001950522 0.1701686786 
0.16982876106 0.16857802972 0.16784327245 0.16971449818 0.16784882614 0.16767414138 0.16748774109 0.16580119432 0.171132666 
0.17069497724 0.17151936326 0.17077562118 0.17084472934 0.16052138919 0.16115771658 0.16124120505 0.16067098728 0.15372581549 
0.19201805311 0.15866434152 0.15952606207 0.16541326643 0.16478818702 0.16149802989 0.16990608569 0.17002661171 0.17423056309 
0.17396512287 0.2323972826 0.16697577426 0.16954883938 0.16637711043 0.1696024951 0.16908139165 0.17792901191 0.17779446416 
0.1745958245 0.1645999802 0.17075598984 0.17183306397 0.1643255846 0.16494593788 0.16535595804 0.164704518 0.16915480247 
0.168906887 0.16869270122 0.1668615081 0.16686660914 0.16716727916 0.15915023943 0.15923425745 0.1529298859 0.15444942498 
0.15240971813 0.16861239281 0.15476455336 0.16018997394 0.1617518556 0.1684336935 0.16751290098 0.16857120823 0.19489374647 
0.16273237309 0.16213267113 0.16253805921 0.17706967963 0.16452025855 0.16484433687 0.1643546938 0.17048042273 0.17131615017 
0.16985888715 0.16929879742 0.16700613855 0.16679960074 0.1677835942 0.17090514871 0.15946112167 0.18980536649 0.1761338067 
0.18771349129 0.17217304502 0.17218330574 0.17114248345 0.17310947589 0.17199366425 0.17070879873 0.17094360848 0.17054475634 
0.16370079206 0.18636615433 0.16072433859 0.14984202042 0.15033274049 0.16556622886 0.16859847509 0.1688104203 0.17530419164 
0.15950737997 0.16026884974 0.16134937038 0.16208340906 0.16452516714 0.16952147711 0.19970451126 0.17106515643 0.17282024631 
0.17068638476 0.16326784279 0.16276356631 0.16289217878 0.17134214509 0.17238525774 0.15280394056 0.15078029947 0.17145198321 
0.17160808599 0.17169321479 0.16567512584 0.16548651157 0.1625982876 0.1624135745 0.16202911954 0.16704813602 0.16691820388 
0.16562612056 0.16577567772 0.1659889699 0.16954898568 0.1697116374 0.16938640093 0.17027728155 0.17039333292 0.17087520206 
0.15315584651 0.17135246361 0.17103302428 0.17122617446 0.1707966006 0.16826209886 0.16735265344 0.16644843594 0.16544263073 
0.16308608766 0.16619502018 0.16330221055 0.17471136821 0.1706641048 0.17080152305 0.17140191492 0.17100253344 0.17490492505 
0.17541924786 0.17525687278 0.16312887342 0.1635876649 0.16333173949 0.16378661187 0.16227508389 0.16226207893 0.16378894395 
0.16630199096 0.16785753311 0.1633921611 0.16375696713 0.1631916291 0.17029679979 0.17024000163 0.17073465637 0.16621729912 
0.16796603332 0.17284093217 0.17150114647 0.16907872614 0.16910807158 0.16918880259 0.17615663936 0.17483339795 0.17903555163 
0.16526351436 0.15259334935 0.14844853604 0.14900781422 0.16903600185 0.2037582038 0.18838739132 0.16888049911 0.16896152198 
0.16899789839 0.16877454658 0.16878928676 0.16888685121 0.16329131311 0.16191469554 0.16795378036 0.16943124096 0.16502451424 
0.16473568024 0.16670771651 0.16635148156 0.1712138542 0.17195719948 0.17194971453 0.16774095097 0.16815725569 0.16063063891 
0.16017832918 0.15993520377 0.17055160592 0.1712646663 0.17074437002 0.15773247746 0.15887116096 0.16878149936 0.16801167288 
0.16980732282 0.16811686835 0.16755335653 0.16786746065 0.16860932861 0.16864462958 0.16623857536 0.16573277945 0.1637013986 
0.16653896308 0.16928521217 0.16927839825 0.16928020725 0.16237895225 0.16247783743 0.16244466211 0.16883702383 0.16746919485 
0.16715423801 0.16651059588 0.15556973628 0.17042731376 0.16977765464 0.1707079511 0.15306052209 0.15630419982 0.16393554788 
0.16019778208 0.15969345135 0.15995781383 0.17155059488 0.17156264628 0.16802200908 0.16732860006 0.17103722438 0.17073259641 
0.17060420222 0.16902627883 0.16873828145 0.16984717211 0.16930514374 0.16852665082 0.16769645473 0.16834324671 0.15213083129 
0.17563728194 0.16827046 0.16831388592 0.16553553523 0.16702558644 0.16563733685 0.16502333221 0.16541862517 0.17173506549 
0.17295006283 0.17155903522 0.17278413751 0.16881466126 0.16803631691 0.16849671449 0.1685656425 0.1689997783 0.17112899004 
0.17020267239 0.17042927582 0.17107848107 0.16982725937 0.16901123596 0.16881103415 0.16312598848 0.16359705671 0.17001195798 
0.17134450455 0.17127899365 0.16052870444 0.15994427139 0.16426783954 0.16541454099 0.16525139473 0.16507432405 0.17276977954 
0.16572059139 0.16742836057 0.16125016034 0.17113666896 0.16915693004 0.16984355798 0.17144342233 0.17244695559 0.1670021661 
0.16721995666 0.16813740918 0.16918683775 0.16773337649 0.17270293027 0.16482845845 0.16922436098 0.16539781226 0.18851196029 
0.16645703256 0.16669043274 0.16659285231 0.17079210174 0.17043818054 0.17029491372 0.1698614952 0.16946887396 0.16274766482 
0.16364095416 0.16246706877 0.16915688997 0.16948192639 0.1693635143 0.16714537356 0.16640873862 0.17034789122 0.16469065259 
0.16419864621 0.16728275016 0.16732022001 0.1753808074 0.1756583183 0.17547881815 0.1757199125 0.22261845671 0.16978809621 
0.16272892981 0.16339820056 0.16296641135 0.17615127497 0.17601527629 0.17598238981 0.16517814279 0.16506620533 0.16813278073 
0.16920192858 0.16248604157 0.16735094032 0.16745688229 0.16837710247 0.16866096696 0.16846353749 0.16841417184 0.16880218319 
0.16875189157 0.16839418673 0.16807353992 0.16827829746 0.16864020765 0.16893148087 0.1689210454 0.16903874208 0.16822636426 
0.16820634569 0.17047275349 0.17097657982 0.15074241227 0.14857643335 0.16559124774 0.16575214566 0.166782635 0.16490310975 
0.17477209757 0.17501924241 0.17516425244 0.17539311211 0.17331169311 0.17232166697 0.17288223289 0.17148775129 0.17001352654 
0.17056095648 0.16017256171 0.170512459 0.17058056683 0.16999555791 0.17000735112 0.1601482203 0.17110836141 0.16436046512 
0.17149743139 0.17142684216 0.1710436413 0.17152538403 0.16951732773 0.16952510353 0.17216879872 0.1728596332 0.17063519038 
0.16949072228 0.16974444308 0.16235051596 0.15858251972 0.16580197323 0.17160168916 0.17144984862 0.17628493457 0.14379439776 
0.14374570452 0.169284748 0.16891481391 0.15480975718 0.15280730633 0.15387276457 0.16987496182 0.17156101667 0.17160992824 
0.17136854628 0.16878737946 0.16880288106 0.17368808561 0.17578381083 0.16099844404 0.1670581161 0.16693616763 0.16689200193 
0.16315791768 0.16482523406 0.16489831591 0.16469611488 0.17132921731 0.13829976867 0.1418172512 0.17488549621 0.17438381281 
0.1672682544 0.1566384316 0.15797764072 0.15800394034 0.1664325507 0.16643890284 0.16653305779 0.16662686544 0.15945640606 
0.15950754698 0.16932723877 0.16927742785 0.17313953697 0.16800708925 0.16783407676 0.16189836003 0.16753935444 0.17331494313 
0.17362624322 0.17373451812 0.17574819169 0.1756460914 0.17599040259 0.17591562299 0.156927619 0.17161367627 0.17211848375 
0.1685574487 0.16872142793 0.16785536068 0.16803586805 0.16847361617 0.16226652231 0.16179614123 0.16181267901 0.16123483438 
0.16622588066 0.1665089904 0.16469812888 0.16434405175 0.16290287741 0.16880171667 0.16902809214 0.16965323464 0.1525059722 
0.15020904746 0.17151290012 0.16396114155 0.16352694706 0.16052124844 0.16382336022 0.16259903441 0.16543637066 0.17365515575 
0.17391310141 0.16981383642 0.16956226526 0.1665724781 0.16687455507 0.16307543483 0.1715237107 0.15656033147 0.15346749049 
0.15798440852 0.16927858766 0.16925616444 0.16929011536 0.1692740445 0.16916880516 0.16923757191 0.16689598001 0.16481527915 
0.1640262614 0.17234038995 0.171237873 0.16162284893 0.159885884 0.16020369524 0.18524505378 0.16489402198 0.16495209474 
0.16514122878 0.15282359883 0.15100176977 0.15313384499 0.16046645368 0.16555869131 0.18034505868 0.16429465226 0.16438656329 
0.16274482107 0.1683020854 0.16845705893 0.16240083222 0.16946249772 0.16934344419 0.16664860438 0.160169479 0.16099711716 
0.16250949622 0.16266445153 0.17395867051 0.17008019805 0.17013459361 0.17071700331 0.14981717757 0.1659709805 0.19315550585 
0.16980571506 0.1692476006 0.16895384596 0.16779458487 0.16573017775 0.16204817089 0.16235603457 0.17008427778 0.15953192165 
0.16577457478 0.16574383925 0.16976651085 0.16660199431 0.17007398429 0.17088578298 0.17163802507 0.16582368288 0.16581366821 
0.16137790667 0.16517190433 0.16522213337 0.15102704338 0.17096898828 0.17194356337 0.17122926645 0.17199696859 0.16181175506 
0.16150329874 0.16411759085 0.16851204595 0.16813059498 0.19085238242 0.17385178137 0.1762220555 0.17480805839 0.16342865295 
0.16386146166 0.16335123977 0.16525564581 0.16474122331 0.16865829382 0.16863384791 0.15937460467 0.16591537446 0.16485279813 
0.1642273096 0.17098498731 0.16924108604 0.16926415647 0.17395726187 0.16804344373 0.15316180233 0.15239856091 0.16546062858 
0.16534880355 0.16470581124 0.16487968556 0.16507481361 0.16077024053 0.16907359826 0.16599274267 0.15078458332 0.17292417673 
0.17378661552 0.17121976257 0.16045119561 0.16134021316 0.16033470744 0.161279374 0.1607288776 0.17375937464 0.16129365188 
0.17213620967 0.16856631745 0.16204064307 0.16092370256 0.16017923936 0.16540271864 0.17076088038 0.16329942813 0.18723958437 
0.1632225785 0.1750747967 0.16389723226 0.16213784273 0.16318179935 0.16453318832 0.1481874838 0.16217368184 0.16221320695 
0.16179961672 0.19729247533 0.16712830178 0.16673116682 0.16684400061 0.16692992836 0.16732628851 0.16690587117 0.16014849932 
0.16075383358 0.1617216278 0.16123568569 0.18291786166 0.17080276558 0.17202515669 0.1694579465 0.17027376501 0.25299896617 
0.22371836015 0.16677782298 0.15689299084 0.16575729236 0.16375335933 0.16355134521 0.22198392038 0.16602633871 0.17893547889 
0.16556119826 0.19541405167 0.18353921513 0.17033803861 0.16943187214 0.16954466138 0.15864346627 0.15450214432 0.19591628898 
0.15486511428 0.17828668875 0.16416482193 0.15966626924 0.15993196705 0.16652822134 0.14285245924 0.16978393336 0.16882605508 
0.16830192154 0.14781717455 0.15103816771 0.16676247066 0.16690194132 0.16938494994 0.16949704349 0.16082506655 0.1611300273 
0.18519488834 0.14285242314 0.17884758709 0.16924769521 0.16925269186 0.16932941824 0.15770375475 0.16012952487 0.15935079213 
0.16205771243 0.16348260435 0.16287004132 0.16146667067 0.1677796682 0.1679932517 0.17036591357 0.16879410085 0.16918929869 
0.1700993485 0.17017091146 0.17118890365 0.18588277872 0.1859761741 0.18094497217 0.17315597372 0.17289277056 0.17349928 
0.16298479699 0.16192329923 0.16111457926 0.15091486143 0.14777322505 0.14783047942 0.1588377038 0.16482223325 0.16428464984 
0.16731916809 0.16802877805 0.16802618748 0.17161154273 0.17153485558 0.17152892897 0.17155349728 0.15417027118 0.15356114662 
0.16271573102 0.16595956955 0.16427518143 0.16484979418 0.16699513297 0.14751038362 0.15009833762 0.14748722449 0.15008642777 
0.1552680636 0.15471278625 0.16613052796 0.15415063354 0.15211307168 0.15345215972 0.16187914205 0.15976087264 0.16397160025 
0.15936638908 0.15919275445 0.16471030399 0.16778235567 0.16733327835 0.16077376101 0.1665929522 0.16715476619 0.16721279899 
0.16974864234 0.16125178606 0.16189612838 0.16620401858 0.16424985113 0.16404447972 0.16342565348 0.16233691573 0.16184296859 
0.16240425801 0.16736235856 0.17015831154 0.17162578765 0.15285811274 0.15275302013 0.15023459347 0.16281783316 0.16667399764 
0.16654736613 0.15065327281 0.14829729699 0.15079724554 0.1726940587 0.16923111994 0.17961007228 0.16966903456 0.17167035122 
0.16625541739 0.16531860339 0.15605775541 0.17387403748 0.17430638313 0.16400140478 0.16257154414 0.16032221527 0.16186304137 
0.16196949028 0.1505068863 0.15064713199 0.16677547763 0.16541667633 0.15055334919 0.14807442841 0.14789706282 0.16993513723 
0.17016915371 0.16950993522 0.16723835024 0.16548758563 0.15009550027 0.17285161526 0.16701155302 0.1650616385 0.16689755801 
0.16641537383 0.14898077249 0.17285097522 0.15675440009 0.15503200903 0.15697067471 0.15689504782 0.17110839789 0.17083782877 
0.15733258066 0.15537106851 0.16767559859 0.16846472792 0.16847972704 0.16116711309 0.16276592628 0.18935330801 0.19534872894 
0.17018281708 0.17006922962 0.16991312037 0.16967802938 0.17110297955 0.17068314912 0.17098530096 0.16570752689 0.18243745991 
0.16858313346 0.17979746341 0.18226516546 0.16919799223 0.16496127407 0.16863599498 0.16820508524 0.17082453635 0.15424085274 
0.16253688478 0.17307851209 0.16553053619 0.16534381326 0.1718939525 0.17061331386 0.16254490872 0.19633300322 0.17594452114 
0.16935079261 0.16932599113 0.16595011463 0.16875147884 0.17698422747 0.17559160624 0.17553914162 0.15098892076 0.17411998458 
0.17077218819 0.16803238642 0.16794898491 0.1720360808 0.15919089422 0.16403985658 0.16352942111 0.1638901664 0.1635363695 
0.16213193496 0.16900509669 0.16732488349 0.16197782311 0.16705309566 0.16701670199 0.16842132575 0.1673571207 0.16728732639 
0.16744917511 0.1681889754 0.168225146 0.16419463051 0.16026421684 0.1678308483 0.16992240873 0.15623711352 0.16310307144 
0.16323372498 0.16073908361 0.16133767605 0.16033625507 0.1704856423 0.17082132162 0.16804150283 0.16796290814 0.16775929064 
0.15788354903 0.16949478245 0.16937666745 0.16215835051 0.16175124925 0.16223963206 0.16178026201 0.17275892701 0.1695133448 
0.16342339989 0.16406303214 0.1647185304 0.1967705214 0.1950289371 0.15800964072 0.16458839308 0.16572414711 0.17041496922 
0.16962836155 0.16046982514 0.16044304808 0.15947456773 0.16673069808 0.15448244011 0.17026465013 0.16969543192 0.15833877103 
0.15588887002 0.15383726068 0.15400282503 0.16061600596 0.16898039614 0.16892374541 0.16909575372 0.1690378478 0.16331010248 
0.15985283571 0.15907188553 0.15953727589 0.1581561312 0.16626609203 0.16637180832 0.16641271898 0.1665234858 0.15749667233 
0.15529800451 0.15297788921 0.16749820138 0.16422373645 0.16593297047 0.16933958277 0.16942069002 0.1645637913 0.1644158839 
0.1701747307 0.16903131198 0.16917787455 0.16638632398 0.16654353193 0.16703550238 0.16840701992 0.16837525603 0.16671674332 
0.17278636911 0.15420940719 0.18253480863 0.17202696364 0.1724772884 0.17175081619 0.16546204629 0.16962231606 0.16999453154 
0.16817552701 0.16410918673 0.16392660639 0.16446878336 0.17005010327 0.17015630187 0.15279894024 0.1606417614 0.14925404935 
0.15439795443 0.17256508837 0.17273566406 0.1583341238 0.16123441653 0.16360869953 0.16244784811 0.16213258884 0.16256497757 
0.16896471532 0.16251120367 0.16262958485 0.1628741853 0.16232228915 0.16398174427 0.18532821419 0.16187312793 0.16310491806 
0.17397076404 0.17348489809 0.16370188748 0.16517326465 0.17654483518 0.174201853 0.1746493006 0.17509214971 0.19087988821 
0.18899298255 0.17155907597 0.16904546945 0.16920668228 0.16904088126 0.17136391923 0.16565950323 0.17370344059 0.17450493521 
0.16522379497 0.1735012605 0.1670025014 0.16092597813 0.16156854234 0.16191707781 0.16231066125 0.16363539438 0.16389452439 
0.18558872719 0.17270079529 0.17355202704 0.17385411169 0.16670927912 0.16179989749 0.1700179534 0.1698912544 0.16372456778 
0.1629943073 0.1686435022 0.16205880754 0.16265616007 0.16746540005 0.17366791451 0.16971745526 0.16614458049 0.16781822833 
0.16669965856 0.16662287022 0.16669191097 0.16444446235 0.16483926429 0.16237594871 0.1630409888 0.16472088785 0.16295342264 
0.16662991679 0.16253231201 0.16490109174 0.16493788368 0.16666781741 0.1659185533 0.16350820955 0.1644882692 0.1742458284 
0.16759873078 0.16813887725 0.16917568869 0.16294695343 0.16661289284 0.16745179742 0.1657380576 0.16632579564 0.16447213667 
0.1701329457 0.17001840617 0.16538485071 0.16731128053 0.16317412308 0.16336206243 0.17951162955 0.16417913588 0.17488950748 
0.17446150762 0.16290856558 0.16097135496 0.17049061042 0.17054371356 0.16816820778 0.16600711828 0.15692097707 0.17840455024 
0.17100548979 0.16989707128 0.15893470037 0.16269782519 0.16273681183 0.16340864415 0.16906222048 0.16923519896 0.1691551426 
0.14239980801 0.16717024652 0.16671648052 0.16665938029 0.1667869666 0.16689576118 0.16688316247 0.17155580024 0.16542662024 
0.16624069784 0.162876847 0.16581157771 0.16726120186 0.1703760614 0.16444489117 0.16718759467 0.16767807358 0.16298221065 
0.16838898645 0.16858470201 0.16840441699 0.1694976762 0.17065364557 0.16922704656 0.17255460213 0.17091520682 0.18370917038 
0.18914447824 0.18439454571 0.16713778521 0.17057345901 0.16993393108 0.17151234199 0.17142200256 0.16223924579 0.16183798546 
0.16085978288 0.1624926272 0.17053519004 0.17096812159 0.17122257534 0.17095840856 0.16205212132 0.16929702432 0.1690844339 
0.16799815203 0.1728062323 0.17276495125 0.16801670999 0.16821505908 0.16824773636 0.16178453595 0.16892653463 0.16903039057 
0.16139634636 0.16045701863 0.17578486172 0.16718014191 0.16712539782 0.16932041778 0.17531923388 0.16720534979 0.16777673107 
0.1680249882 0.16648961518 0.16695387715 0.17050247803 0.16983438477 0.16974269572 0.16962395448 0.16527243626 0.16726030905 
0.16691614839 0.17018406041 0.16394116773 0.16585815895 0.16426021351 0.16263157133 0.16683613527 0.16538428897 0.16666742224 
0.16204060651 0.16324473977 0.16340208635 0.16416666845 0.17155910151 0.17169090697 0.16576825683 0.16432311149 0.16439876818 
0.1629478006 0.17156869249 0.17307035165 0.16739156543 0.17001552415 0.17122845792 0.17162772858 0.15861884274 0.14089656948 
0.14247408451 0.16720822579 0.1667128245 0.16679344193 0.16766316169 0.17017775789 0.17151282079 0.17160715008 0.1700323595 
0.16716405387 0.16638669107 0.15938401203 0.16059487727 0.16254913302 0.16230728673 0.16154065854 0.1691553357 0.17138845052 
0.17116684769 0.17148527135 0.17126444349 0.16094939251 0.16144841824 0.17086959434 0.14513259367 0.17544005737 0.16202146581 
0.16218785394 0.16638769035 0.16796068684 0.1716202822 0.14952691897 0.1717097625 0.17160059826 0.16904796114 0.16894305886 
0.16647394645 0.16884891964 0.1749893724 0.17523686006 0.17121291581 0.17171365536 0.17386061112 0.17432667466 0.16872986725 
0.17202298467 0.16704481889 0.1673722974 0.16836110648 0.16801150261 0.1678611584 0.16936391876 0.16870496801 0.17232630961 
0.16933495571 0.17135117348 0.1726548222 0.1722306903 0.17494678873 0.17582450057 0.17557026022 0.17572092874 0.16972758826 
0.16954019067 0.1750648023 0.17536635686 0.1755314658 0.17583228888 0.17364778828 0.17441900785 0.1736355039 0.17589491794 
0.17603356983 0.15937018767 0.17083131301 0.16710707782 0.15900398651 0.17074468288 0.17110720204 0.16909648389 0.16916377785 
0.16919635779 0.16922013337 0.16369198089 0.16457830372 0.16788641622 0.16666769923 0.1662022347 0.16049437392 0.16120702836 
0.16962814302 0.17072460456 0.16648925257 0.15721155719 0.15543521442 0.16805696157 0.17445815025 0.17396259404 0.17485293628 
0.17437399353 0.15131750122 0.1691445128 0.16865639509 0.16861738879 0.16737592368 0.1686232839 0.16653358224 0.16604378742 
0.1687027169 0.16737153085 0.1699469285 0.16631928483 0.16647344706 0.17023382259 0.17309838355 0.16932193804 0.16927776713 
0.14798317539 0.16800429168 0.16779599213 0.1693560191 0.16116453284 0.16165342175 0.16111220764 0.16796850433 0.16901442585 
0.17021514708 0.1645810005 0.16442965148 0.16956770067 0.16939174662 0.16617186804 0.1802183685 0.16598303098 0.16602974333 
0.16585292326 0.16668767482 0.16595456379 0.16887617717 0.17160322086 0.1704267135 0.1660070066 0.16591757753 0.16665536561 
0.15994766948 0.17798424588 0.17047677192 0.16889959917 0.16878060813 0.16939214346 0.16938756754 0.16927586231 0.16927527625 
0.17147342245 0.17140249521 0.17132670943 0.1541097942 0.16964107964 0.17381605549 0.17154970201 0.21815462677 0.17270850715 
0.16546251275 0.16188890315 0.1711787593 0.17122372387 0.17196001357 0.1760139206 0.17568559487 0.17547480388 0.17534258315 
0.17102754382 0.15433053002 0.16974931525 0.17470712604 0.16728517791 0.16890722605 0.1740035633 0.17106903664 0.1705262963 
0.16859364703 0.16917000779 0.16865299654 0.17027592408 0.17156275405 0.1716851706 0.17167325732 0.17731731449 0.17793020263 
0.16375272474 0.16319491173 0.1633234196 0.16398471085 0.17090652239 0.17044353312 0.17185488118 0.1690947526 0.16397495906 
0.16411090461 0.16634469904 0.16265785866 0.16254656255 0.16206447734 0.16685106859 0.17293310534 0.16960949003 0.17199975322 
0.173189955 0.14825429404 0.16557026199 0.1894248907 0.14973706063 0.1877516531 0.1691493076 0.25464365679 0.17383941177 
0.17251030182 0.17108533041 0.17349006668 0.1710039747 0.17140639847 0.16452662718 0.16473427335 0.17062785834 0.1930429768 
0.18104224638 0.18345920386 0.16561205803 0.16575172103 0.1634274854 0.16416583771 0.17178129976 0.16052818066 0.16880366874 
0.16884142521 0.16035351135 0.15953473536 0.16099346482 0.17178901324 0.15126339209 0.17189474435 0.1673774436 0.16606584075 
0.16605460999 0.16232133258 0.17030637363 0.1613302125 0.16052470833 0.16145422975 0.16169866929 0.1748165366 0.1621542946 
0.17442986672 0.17131019421 0.17243188438 0.16627691796 0.16750452087 0.16769233736 0.16672398844 0.16664022062 0.16596558301 
0.16591500581 0.17695582949 0.1617016702 0.16569494262 0.14928671325 0.16609666657 0.1661403715 0.16611274365 0.16592316352 
0.16734426601 0.16739392806 0.16760530419 0.16693148725 0.17096759427 0.17141512886 0.17117747486 0.16895508872 0.1718468175 
0.17298743118 0.15565738928 0.16194027311 0.16908000082 0.16909757272 0.17486206835 0.16205594075 0.16145265998 0.16487552453 
0.16471562937 0.1693078204 0.15792322594 0.1643499433 0.16217255333 0.16912083279 0.16428903731 0.16400885538 0.16398897692 
0.16341408286 0.16167751992 0.15729702007 0.16529350789 0.16377370753 0.16996169438 0.16358649081 0.1741522461 0.16498682384 
0.16609948525 0.16934361155 0.17485347805 0.17356949797 0.1390107865 0.17092304351 0.17145456507 0.16920926083 0.16925351129 
0.16928604906 0.170089597 0.16427754589 0.15241580983 0.15168742689 0.1661796208 0.16863576137 0.1685112317 0.16983403363 
0.17085432227 0.16858608763 0.16757745934 0.16834426726 0.16778619246 0.16843012686 0.16817479465 0.16469931454 0.16521445417 
0.16440172312 0.16325093944 0.13968880275 0.17484388725 0.16446402287 0.17533887176 0.17386413862 0.16934913715 0.16892147385 
0.17049537164 0.17194691108 0.16006577536 0.16687674304 0.16950798925 0.1686651959 0.16834408469 0.16975516837 0.16984166002 
0.16160567134 0.17029161167 0.17001039661 0.15969555024 0.16682608758 0.16777130146 0.16527500548 0.14759418144 0.16373128753 
0.16792194706 0.16796078282 0.16972032913 0.15945452039 0.16054420723 0.13825137163 0.17270079548 0.16927616183 0.1980284767 
0.20960412942 0.17284435472 0.17362614075 0.16663484401 0.16047199654 0.16950701548 0.1680276162 0.16941329711 0.16929940433 
0.16700555714 0.15950885959 0.16628149863 0.17582663105 0.17918140485 0.17617053957 0.17496304803 0.15840946231 0.15250401234 
0.17639208254 0.17527307083 0.16526988494 0.16368756181 0.16612460501 0.16819650591 0.16817955527 0.17638361229 0.1578427578 
0.16856530112 0.16673482171 0.16436293112 0.16404904456 0.16670705176 0.16399748286 0.16377386678 0.17878697882 0.14001228009 
0.17332534509 0.13790572497 0.16805825198 0.16822818676 0.15938905127 0.16901830643 0.16833201616 0.16942785941 0.16220688846 
0.17417655882 0.16287308726 0.15802490707 0.16926458894 0.17546956203 0.17573368448 0.17531968333 0.15865398544 0.16938704226 
0.17405969893 0.16384121493 0.17046146472 0.18083458783 0.17208913878 0.16246925027 0.16268646301 0.16307945322 0.16041533874 
0.15569005442 0.16364427874 0.17450689476 0.15952867217 0.17416930223 0.17040852614 0.16768608358 0.16770304108 0.17492938393 
0.15095177706 0.1532432413 0.16666493209 0.16483014844 0.17447946898 0.16986619259 0.16821734541 0.16113611358 0.16696238838 
0.17492993868 0.17202661466 0.17149909262 0.16678615365 0.16669875836 0.16676866461 0.16207091855 0.15952903761 0.16707817191 
0.16589379444 0.16652106419 0.1647168575 0.16638136585 0.1653922649 0.1669140297 0.16730845336 0.16629055141 0.16471329777 
0.16325340615 0.16354626275 0.16668834598 0.16305160977 0.16042143395 0.16415928111 0.16377836694 0.16864931302 0.16887649463 
0.16469404573 0.16306009984 0.16953031542 0.17144129642 0.17128700141 0.17106328789 0.17510194491 0.17882626403 0.16704100962 
0.14980891061 0.15199030473 0.17205607419 0.16870217702 0.19425981446 0.15165941779 0.16761982619 0.16803770763 0.1700416916 
0.16116846689 0.16140458814 0.15931383286 0.16929775668 0.15497745128 0.16986512864 0.16995849481 0.16429919845 0.16487039915 
0.17094394279 0.17126690664 0.16542002477 0.165102241 0.16529583692 0.16743950992 0.16805738723 0.16373550588 0.16708743858 
0.16602345386 0.15934753047 0.16744408677 0.1665707485 0.14781297601 0.15865048704 0.15774214862 0.15842760376 0.16518187988 
0.16735346298 0.16742876286 0.16774048383 0.16740110864 0.1693833174 0.165086328 0.15689701845 0.15084449777 0.16515995308 
0.17566381084 0.16245884332 0.16767446026 0.15948829039 0.17297433312 0.16667030408 0.16172501258 0.16228109235 0.15047441884 
0.16262611031 0.1769997458 0.1623832864 0.16903951779 0.16669424356 0.16630036342 0.18831853782 0.16050249002 0.16601782088 
0.16226651543 0.17405792292 0.17414811771 0.17457459141 0.17037837862 0.17514304678 0.18155614624 0.17687831488 0.17025305594 
0.16784334774 0.1663801113 0.16774153424 0.17197444426 0.15386654407 0.16824123126 0.16946052217 0.17941965824 0.15100934446 
0.18312594505 0.1671585369 0.16597792868 0.16592990166 0.16282992175 0.17406020737 0.17076496868 0.17018308217 0.17130288863 
0.17160151673 0.1650926919 0.1632201952 0.13897987568 0.16879816061 0.15635473136 0.16882933516 0.17191301667 0.16200974885 
0.17538868574 0.17168567179 0.1574759202 0.15502013316 0.15734702619 0.15747181582 0.1634029159 0.16394394982 0.16675033651 
0.16709563093 0.16338933962 0.16939869114 0.16995533434 0.15863812862 0.1843775538 0.17486634418 0.16971490871 0.16871237601 
0.18240837813 0.17674158847 0.16915905457 0.17644878475 0.16474272438 0.16564955992 0.16262737701 0.17286100924 0.16278410235 
0.16329850172 0.17231247594 0.1638181346 0.16644701181 0.16634150685 0.16966338014 0.16008277088 0.16602064212 0.16438847046 
0.17533414308 0.34714264597 0.17154331176 0.16886007222 0.16620192266 0.16954432004 0.17008154866 0.16970232053 0.16805674662 
0.16916289955 0.16756797732 0.16728543621 0.16448891152 0.16234043174 0.1651505621 0.16301851526 0.1664123826 0.16816653997 
0.16977581204 0.1698061298 0.17071244226 0.16561711268 0.16731241038 0.16748500429 0.16457791913 0.15962589043 0.17012797073 
0.16677728407 0.17062113182 0.166569913 0.16506588167 0.17393840272 0.16750890111 0.16945788024 0.16924227043 0.17101934563 
0.15648142227 0.16858442497 0.17109767981 0.17061342912 0.17385721751 0.17172262096 0.1700412655 0.17386550347 0.17456949247 
0.17471591197 0.17431363624 0.17136874393 0.17149001287 0.17594845574 0.1719497525 0.16991816777 0.16933717419 0.16977135545 
0.16976986612 0.17025763904 0.17391984324 0.17170911919 0.16667407879 0.16283435353 0.1650911624 0.166880945 0.15849661392 
0.16950383675 0.19612002791 0.16608724691 0.15479845036 0.14500208432 0.16583099569 0.16948341786 0.15020296607 0.16431052547 
0.16653023977 0.17033871855 0.17331392444 0.17024122596 0.1631762588 0.16402131099 0.17581694616 0.16916308669 0.16467786083 
0.16678409921 0.17444534919 0.16563122778 0.17099838778 0.16927049396 0.17364034585 0.17300143735 0.16402830667 0.16930328621 
0.16843339026 0.16774608538 0.15950880174 0.16559941151 0.1679715419 0.16528763846 0.16265315734 0.16764874274 0.16627660787 
0.17067118922 0.16950538116 0.17143040738 0.16254836352 0.1661907916 0.17046988815 0.17091434971 0.16647700253 0.17153569699 
0.16279029853 0.17160927807 0.17171808145 0.18433708043 0.16145248766 0.17071096215 0.16498430552 0.17076020222 0.15958831145 
0.16109344239 0.16766294242 0.16825768127 0.17511202262 0.1752710933 0.17999082265 0.16842576641 0.16856037976 0.16533705749 
0.17011525552 0.17352656381 0.16913369016 0.1649665709 0.17200779519 0.16914420292 0.16927588848 0.16911428166 0.16916536691 
0.17104974897 0.16715316979 0.17145868795 0.16900595252 0.17039440573 0.15571183875 0.15990147647 0.17161396329 0.16963449247 
0.1667374935 0.15425257448 0.15707994626 0.16895925793 0.16845947865 0.16387810427 0.16665914059 0.16495997357 0.16833705377 
0.15989815637 0.14027839055 0.16688968349 0.15731018948 0.1711699683 0.16877739586 0.1640236935 0.16342706493 0.16949119778 
0.16881185208 0.15308496375 0.16843206453 0.16890779203 0.16665221133 0.16651752215 0.14772648752 0.17350331022 0.17386186335 
0.16020252471 0.15863093786 0.169258031 0.17000079959 0.15419591151 0.16677112243 0.17928373032 0.16609816439 0.16646944959 
0.17808304278 0.15912987345 0.1643778067 0.17558127354 0.16257413385 0.16424591397 0.1563235173 0.15855941032 0.1701517067 
0.17082335423 0.18062632114 0.16702682099 0.17299988778 0.16697819013 0.16205581002 0.16953892492 0.16642308616 0.16609466675 
0.16913553335 0.18674913159 0.16601882213 0.16129325729 0.18911809426 0.16914491253 0.21196211519 0.21250565326 0.19648817342 
0.16759643655 0.16615002548 0.17133259335 0.16348966199 0.16894814495 0.17110789776 0.16912110467 0.16931251449 0.16745371266 
0.16473977902 0.16389291352 0.17064291655 0.17148870734 0.17152398436 0.1587393236 0.16176699456 0.1739965181 0.16855484776 
0.16836682314 0.17927323996 0.16901883993 0.16896336581 0.16921254466 0.15974811455 0.16749828852 0.16912124666 0.16900327262 
0.17306055359 0.1644024568 0.1700122243 0.17272172001 0.15972638749 0.16912646214 0.16025454316 0.16264712133 0.17067201611 
0.16822332509 0.17071191722 0.1635783996 0.16224850444 0.16779725284 0.17303026832 0.17582019702 0.1681364479 0.17308793415 
0.14540604249 0.16754567184 0.14893006999 0.17199648938 0.16230119328 0.17872742209 0.16458676109 0.16513199721 0.16803793944 
0.15971009006 0.16253652267 0.1709822506 0.16758611875 0.16755314457 0.16915195575 0.16465218322 0.15720514592 0.17009292356 
0.16836537787 0.16976827444 0.17222491559 0.16866178218 0.16651116877 0.34870422107 0.37663974999 
Strain%20xx%20component 1 12526 double
1.24832e-06 9.21142e-07 -0.0241963 1.06815e-06 -0.13331 -0.13333 -0.133316 -0.133325 -0.146378 
-0.133096 -0.0975379 -0.13124 -0.128238 -0.154052 -0.107595 -0.12976 -0.0219675 0.00115171 
0.000708073 -0.00121765 -0.00205922 -4.187e-05 0.00175812 0.00119925 0.00090774 0.000656037 0.000130112 
0.000433672 0.000175842 0.0002022 0.000314678 0.000689124 0.000915702 0.000372602 0.000468082 0.000307423 
0.000803952 0.000635028 0.000740421 0.00121177 0.0014896 0.00415931 -0.0054084 -0.0150844 0.00189793 
0.000141975 0.000113006 0.00253251 -0.000265852 0.000486202 2.61957e-05 0.000440334 0.00151985 0.00105218 
0.000476699 0.000840702 -7.28403e-06 0.000141249 -0.00016251 0.000701003 0.000803595 0.00101371 0.000488298 
0.000673386 0.000673779 0.000639694 0.000809341 0.00114988 -0.0139574 -0.133247 -0.13335 -0.13383 
-0.134562 -0.13541 -0.136354 -0.137389 -0.138403 -0.139325 -0.140111 -0.140749 -0.141334 
-0.141602 -0.141718 -0.141608 -0.141297 -0.140776 -0.140118 -0.139271 -0.138195 -0.137215 
-0.136158 -0.135204 -0.134348 -0.1337 -0.133309 -0.13325 -0.195533 -0.14121 -0.127938 
-0.121684 -0.118349 -0.116634 -0.11585 -0.115647 -0.115778 -0.116145 -0.116638 -0.117247 
-0.117972 -0.118903 -0.120038 -0.121735 -0.123815 -0.126627 -0.129652 -0.133457 -0.1366 
-0.139104 -0.140164 -0.139479 -0.137523 -0.134836 -0.132132 -0.130265 -0.128881 -0.128073 
-0.127772 -0.127838 -0.128112 -0.128619 -0.129184 -0.129842 -0.130432 -0.131006 -0.131569 
-0.132042 -0.13248 -0.132848 -0.133152 -0.133328 -0.133353 -0.133367 -0.133304 -0.133165 
-0.132872 -0.132526 -0.132026 -0.131527 -0.130985 -0.130384 -0.129736 -0.12914 -0.128611 
-0.128103 -0.127844 -0.127787 -0.128123 -0.128971 -0.130332 -0.132524 -0.135136 -0.137694 
-0.139641 -0.140161 -0.138982 -0.136094 -0.132285 -0.128791 -0.125504 -0.123223 -0.121229 
-0.119891 -0.118697 -0.117825 -0.117123 -0.1165 -0.11596 -0.115675 -0.115586 -0.115692 
-0.116837 -0.118877 -0.122894 -0.130326 -0.147045 -0.186965 -0.0548026 -0.0577217 -0.0632161 
-0.065625 -0.0696927 -0.071875 -0.0734256 -0.0705693 -0.0710551 -0.0684383 -0.06491 -0.0588895 
-0.0483532 -0.0603655 -0.0594199 -0.0630235 -0.0669278 -0.0687351 -0.0716179 -0.0705622 -0.0706004 
-0.0695432 -0.0677726 -0.0638452 -0.0579596 -0.0442612 -0.133256 -0.133343 -0.133728 -0.134368 
-0.135207 -0.136131 -0.137184 -0.138175 -0.139108 -0.140067 -0.140799 -0.141259 -0.141566 
-0.141664 -0.141537 -0.141218 -0.1407 -0.140012 -0.139185 -0.138221 -0.137242 -0.136211 
-0.135281 -0.13441 -0.133767 -0.133341 -0.133214 -0.257501 -0.149304 -0.129914 -0.122624 
-0.118837 -0.116904 -0.115901 -0.115618 -0.115692 -0.116011 -0.11651 -0.117129 -0.117842 
-0.118706 -0.11979 -0.121196 -0.123021 -0.125256 -0.128275 -0.131795 -0.135392 -0.138328 
-0.139805 -0.139654 -0.138131 -0.135634 -0.132896 -0.1308 -0.129243 -0.12822 -0.127825 
-0.127802 -0.128057 -0.128452 -0.12901 -0.129578 -0.130246 -0.130903 -0.13145 -0.131978 
-0.132445 -0.132819 -0.13311 -0.133308 -0.133375 -0.133381 -0.133307 -0.133116 -0.132825 
-0.132449 -0.131955 -0.131447 -0.130924 -0.130322 -0.129716 -0.129154 -0.128549 -0.128115 
-0.127829 -0.127782 -0.128082 -0.128733 -0.130197 -0.132362 -0.134868 -0.137495 -0.139663 
-0.140015 -0.138701 -0.135978 -0.132262 -0.128841 -0.125834 -0.12325 -0.121169 -0.119802 
-0.118633 -0.117685 -0.117019 -0.116452 -0.115905 -0.115585 -0.115569 -0.115928 -0.116666 
-0.118381 -0.12204 -0.128514 -0.141906 -0.22364 -0.0525226 -0.0619208 -0.0652234 -0.0680693 
-0.0706773 -0.0714291 -0.072322 -0.0710635 -0.0698219 -0.0675592 -0.0637517 -0.060642 -0.044964 
-0.0546536 -0.0589158 -0.0643239 -0.0665256 -0.069148 -0.0714277 -0.0704416 -0.0706276 -0.0696354 
-0.0674 -0.0643546 -0.0585388 -0.0550247 -0.133469 -0.133807 -0.134356 -0.134991 -0.135731 
-0.136507 -0.13734 -0.138088 -0.13879 -0.139378 -0.139833 -0.140164 -0.140342 -0.140346 
-0.140171 -0.139819 -0.139377 -0.138778 -0.138048 -0.137258 -0.136415 -0.135621 -0.134902 
-0.134284 -0.133838 -0.133511 -0.133358 -0.133627 -0.138032 -0.130959 -0.126437 -0.123767 
-0.121995 -0.121031 -0.12062 -0.120233 -0.120325 -0.120563 -0.120849 -0.121286 -0.121976 
-0.122914 -0.124108 -0.125657 -0.127747 -0.130385 -0.13334 -0.135891 -0.137594 -0.137792 
-0.136446 -0.134208 -0.13212 -0.130496 -0.129468 -0.128876 -0.128649 -0.128686 -0.128908 
-0.129223 -0.129667 -0.13013 -0.130644 -0.131138 -0.131562 -0.131982 -0.132361 -0.13271 
-0.133003 -0.133214 -0.133335 -0.133161 -0.13297 -0.132681 -0.132329 -0.131914 -0.131479 
-0.131021 -0.130519 -0.130031 -0.129573 -0.12915 -0.128844 -0.128655 -0.128686 -0.128998 
-0.129715 -0.130992 -0.132743 -0.134824 -0.136917 -0.137889 -0.137292 -0.135217 -0.132177 
-0.12944 -0.126845 -0.124919 -0.123492 -0.122455 -0.121655 -0.121006 -0.120503 -0.12014 
-0.12 -0.120047 -0.120299 -0.120784 -0.121972 -0.124117 -0.127214 -0.13241 -0.140212 
-0.139524 -0.0409366 -0.0356692 -0.0260052 -0.0190917 -0.0200275 -0.0187743 -0.0174201 -0.0163963 
-0.0151986 -0.0145874 -0.0144882 -0.0138149 -0.0136229 -0.0140045 -0.0141975 -0.0146794 -0.0149478 
-0.015296 -0.0158828 -0.0172502 -0.0186973 -0.0213225 -0.0253442 -0.0329048 -0.050168 -0.152961 
-0.102555 -0.0863132 -0.082119 -0.0813227 -0.080847 -0.081208 -0.0813703 -0.0813724 -0.08158 
-0.0825424 -0.0875679 -0.0986096 -0.151907 -0.274105 -0.140647 -0.106922 -0.0892179 -0.0835824 
-0.0809011 -0.0805332 -0.0805131 -0.0806249 -0.0806811 -0.0819446 -0.0843592 -0.0895591 -0.107875 
-0.155733 -0.268608 -0.0937208 -0.107546 -0.107671 -0.119157 -0.116907 -0.134067 -0.134576 
-0.135146 -0.135785 -0.136474 -0.13715 -0.13778 -0.138308 -0.138711 -0.139042 -0.13925 
-0.139305 -0.139246 -0.139005 -0.138706 -0.138306 -0.137734 -0.137097 -0.136426 -0.135744 
-0.135104 -0.13454 -0.134073 -0.133688 -0.102719 -0.0951417 -0.122616 -0.125103 -0.125177 
-0.124797 -0.124378 -0.123986 -0.123721 -0.123585 -0.123545 -0.123507 -0.123613 -0.123641 
-0.123733 -0.123971 -0.124433 -0.125397 -0.12746 -0.130816 -0.134783 -0.1389 -0.140361 
-0.138456 -0.134722 -0.131029 -0.128958 -0.128058 -0.127836 -0.128046 -0.128483 -0.12901 
-0.129508 -0.130001 -0.130481 -0.130974 -0.131436 -0.131815 -0.132156 -0.132492 -0.132818 
-0.133132 -0.133398 -0.133591 -0.175368 -0.0971771 -0.13325 -0.133029 -0.132752 -0.132421 
-0.132041 -0.131664 -0.131232 -0.130779 -0.130321 -0.129852 -0.129368 -0.128905 -0.128498 
-0.12813 -0.128024 -0.128482 -0.129863 -0.132489 -0.136216 -0.139384 -0.139544 -0.13695 
-0.132864 -0.12897 -0.126461 -0.124977 -0.124145 -0.123727 -0.123528 -0.123404 -0.123291 
-0.123242 -0.123216 -0.123328 -0.123484 -0.123787 -0.124294 -0.124763 -0.125211 -0.124774 
-0.119987 -0.071144 -0.048951 -0.0453255 -0.0428847 -0.0402424 -0.036924 -0.0350166 -0.0332209 
-0.0324994 -0.0316129 -0.0309583 -0.0312595 -0.0309548 -0.0318037 -0.0324371 -0.033307 -0.0345864 
-0.0368562 -0.0399724 -0.0450875 -0.0522197 -0.0631828 -0.113186 -0.168086 -0.124101 -0.0973675 
-0.095037 -0.0940368 -0.0933227 -0.0934484 -0.0948281 -0.0974186 -0.103554 -0.112825 -0.125556 
-0.115113 -0.170757 -0.117171 -0.181371 -0.124895 -0.0999029 -0.0958944 -0.0942122 -0.0939289 
-0.095095 -0.0970505 -0.100872 -0.107769 -0.118373 -0.125723 -0.115133 -0.116298 -0.105745 
-0.125168 -0.133365 -0.140055 -0.120613 -0.11603 -0.132137 -0.104642 -0.134509 -0.135103 
-0.135718 -0.136341 -0.136898 -0.137427 -0.137852 -0.138152 -0.138382 -0.138475 -0.138434 
-0.138301 -0.138104 -0.137807 -0.137397 -0.136884 -0.136311 -0.135706 -0.135103 -0.134545 
-0.134049 -0.106768 -0.110958 -0.109414 -0.116781 -0.120759 -0.123073 -0.124544 -0.125213 
-0.12558 -0.125757 -0.125746 -0.125555 -0.125221 -0.124695 -0.124038 -0.12344 -0.123081 
-0.123623 -0.126831 -0.132638 -0.139847 -0.147347 -0.146684 -0.138544 -0.131088 -0.126758 
-0.125421 -0.125414 -0.126177 -0.127256 -0.128278 -0.129219 -0.130015 -0.130682 -0.131269 
-0.131782 -0.132181 -0.132515 -0.132818 -0.133101 -0.133437 -0.13376 -0.133959 -0.0969013 
-0.115064 -0.122595 -0.133306 -0.133044 -0.132711 -0.132351 -0.131981 -0.131512 -0.131003 
-0.13041 -0.129756 -0.129005 -0.128113 -0.127108 -0.126066 -0.125349 -0.126331 -0.12813 
-0.134274 -0.142403 -0.14595 -0.142061 -0.136077 -0.128099 -0.125052 -0.123889 -0.123521 
-0.123761 -0.124316 -0.124855 -0.125232 -0.125414 -0.125491 -0.125442 -0.125196 -0.124676 
-0.123909 -0.122582 -0.119456 -0.115869 -0.104466 -0.0791698 -0.148925 -0.0703401 -0.0660818 
-0.0619795 -0.0577812 -0.0542453 -0.0514811 -0.0492193 -0.0474575 -0.0464013 -0.0458296 -0.0457838 
-0.0465333 -0.0479226 -0.0492439 -0.0501566 -0.052459 -0.0563272 -0.0629212 -0.0711214 -0.0817565 
-0.116455 -0.103962 -0.103837 -0.104285 -0.106332 -0.110733 -0.116641 -0.121565 -0.118923 
-0.118129 -0.150483 -0.1174 -0.115651 -0.140281 -0.108805 -0.105198 -0.107073 -0.110166 
-0.11503 -0.120251 -0.122299 -0.117281 -0.105867 -0.162198 -0.141394 -0.133517 -0.105784 
-0.127191 -0.133633 -0.125789 -0.120161 -0.119528 -0.120918 -0.157953 -0.130339 -0.113278 
-0.122056 -0.134987 -0.135604 -0.136148 -0.136665 -0.137101 -0.137449 -0.137698 -0.137812 
-0.137807 -0.137738 -0.137591 -0.137376 -0.137057 -0.136629 -0.136135 -0.135585 -0.135 
-0.13444 -0.133919 -0.115433 -0.117407 -0.117248 -0.108038 -0.115421 -0.120526 -0.123701 
-0.125437 -0.126485 -0.127024 -0.127035 -0.126646 -0.12586 -0.124679 -0.123274 -0.121758 
-0.120256 -0.120989 -0.121929 -0.1222 -0.123612 -0.12524 -0.126938 -0.128444 -0.129684 
-0.130683 -0.131499 -0.132154 -0.132648 -0.133005 -0.133282 -0.133539 -0.133747 -0.134308 
-0.0964944 -0.113735 -0.11421 -0.133483 -0.133152 -0.132751 -0.132321 -0.131753 -0.131063 
-0.13025 -0.129292 -0.128101 -0.126603 -0.124841 -0.122926 -0.120783 -0.121693 -0.121966 
-0.122205 -0.122634 -0.124046 -0.12537 -0.126281 -0.126779 -0.126859 -0.126445 -0.125558 
-0.1241 -0.121995 -0.119161 -0.109361 -0.107901 -0.115622 -0.122749 -0.119811 -0.0908338 
-0.0854912 -0.0790423 -0.0744624 -0.0706469 -0.0677592 -0.065378 -0.0627883 -0.0614725 -0.0611028 
-0.0622171 -0.0639809 -0.0655751 -0.066952 -0.06904 -0.0716083 -0.078285 -0.0875596 -0.113765 
-0.116949 -0.11406 -0.116492 -0.119733 -0.121904 -0.117786 -0.133717 -0.114846 -0.120075 
-0.122813 -0.123579 -0.120699 -0.0974333 -0.121214 -0.117423 -0.121483 -0.124178 -0.119898 
-0.113686 -0.118347 -0.118127 -0.117036 -0.118956 -0.121732 -0.135448 -0.135962 -0.136434 
-0.136849 -0.13715 -0.13736 -0.137326 -0.137296 -0.137199 -0.137028 -0.136753 -0.1364 
-0.135953 -0.135457 -0.134882 -0.134272 -0.121601 -0.111628 -0.118382 -0.122659 -0.125215 
-0.126904 -0.127659 -0.127699 -0.127101 -0.125904 -0.124109 -0.12216 -0.119952 -0.121126 
-0.123124 -0.125417 -0.127579 -0.129331 -0.130495 -0.131576 -0.132457 -0.133109 -0.133538 
-0.133852 -0.134114 -0.13432 -0.134076 -0.120912 -0.133605 -0.133182 -0.132635 -0.131925 
-0.130977 -0.129819 -0.128615 -0.127025 -0.124964 -0.122784 -0.12147 -0.119932 -0.122657 
-0.125253 -0.126715 -0.127508 -0.127561 -0.126812 -0.125073 -0.122478 -0.118609 -0.113208 
-0.0981971 -0.126151 -0.0927122 -0.0883152 -0.0855881 -0.0833609 -0.0807067 -0.0757325 -0.078288 
-0.0756172 -0.0802536 -0.0818572 -0.0827732 -0.0843868 -0.0861249 -0.0882134 -0.123177 -0.124158 
-0.122536 -0.100347 -0.124726 -0.12265 -0.122159 -0.126067 -0.125721 -0.134889 -0.123488 
-0.124441 -0.124068 -0.12284 -0.122457 -0.124043 -0.122013 -0.125046 -0.120074 -0.123718 
-0.12084 -0.122606 -0.126916 -0.121536 -0.100404 -0.135789 -0.136724 -0.13692 -0.136894 
-0.136859 -0.136738 -0.136496 -0.136157 -0.135721 -0.135252 -0.134821 -0.110021 -0.126754 
-0.117312 -0.121966 -0.125037 -0.127054 -0.128054 -0.128082 -0.12726 -0.125568 -0.124031 
-0.126836 -0.129265 -0.131128 -0.132627 -0.13356 -0.134129 -0.134459 -0.134692 -0.127517 
-0.123199 -0.127253 -0.127155 -0.134058 -0.133609 -0.13291 -0.131973 -0.13065 -0.128783 
-0.12621 -0.128819 -0.127089 -0.127842 -0.128 -0.126909 -0.124523 -0.120874 -0.115358 
-0.10755 -0.126688 -0.103697 -0.101174 -0.0991654 -0.096962 -0.0938601 -0.0947025 -0.0970805 
-0.0976629 -0.0979469 -0.0987802 -0.128216 -0.12271 -0.136296 -0.12333 -0.127686 -0.13525 
-0.122467 -0.134458 -0.126942 -0.127504 -0.126607 -0.128159 -0.125269 -0.127207 -0.12631 
-0.129229 -0.136372 -0.136393 -0.13629 -0.13622 -0.135831 -0.135398 -0.134938 -0.124998 
-0.116913 -0.121917 -0.124926 -0.127467 -0.128537 -0.128346 -0.113337 -0.128614 -0.127202 
-0.131038 -0.1328 -0.133866 -0.1275 -0.134011 -0.133082 -0.130337 -0.129529 -0.127945 
-0.109419 -0.127909 -0.128536 -0.128425 -0.128653 -0.127478 -0.12463 -0.119957 -0.130621 
-0.112572 -0.112419 -0.109545 -0.111352 -0.131198 -0.135045 -0.136352 -0.128871 -0.12867 
-0.125606 -0.135655 -0.130743 -0.134557 -0.134614 -0.12992 -0.132121 -0.12896 -0.113599 
-0.110788 -0.11004 -0.128774 -0.129303 -0.134441 -0.133962 -0.133735 -0.122215 -0.134994 
-0.135549 -0.135488 -0.13545 -0.134992 -0.131386 -0.119586 -0.131682 -0.12515 -0.128334 
-0.13574 -0.121614 -0.132704 -0.12909 -0.135365 -0.122338 -0.13382 -0.132008 -0.124972 
-0.120602 -0.127283 -0.134034 -0.127949 -0.133445 -0.133752 -0.134243 -0.134871 -0.135626 
-0.1364 -0.137201 -0.137928 -0.138681 -0.139299 -0.139755 -0.140099 -0.140253 -0.140225 
-0.140046 -0.13972 -0.13924 -0.138654 -0.137943 -0.137195 -0.136428 -0.135645 -0.134964 
-0.13432 -0.133811 -0.133479 -0.133351 -0.141121 -0.140418 -0.132438 -0.12745 -0.124295 
-0.122315 -0.121179 -0.120544 -0.120416 -0.120325 -0.120502 -0.120954 -0.121489 -0.122112 
-0.122864 -0.123836 -0.125088 -0.126863 -0.12911 -0.132065 -0.13499 -0.137079 -0.137664 
-0.136699 -0.134824 -0.132672 -0.130821 -0.129634 -0.128965 -0.128681 -0.128689 -0.128867 
-0.129191 -0.129611 -0.13006 -0.130554 -0.131035 -0.131489 -0.131953 -0.132342 -0.132693 
-0.132983 -0.133199 -0.133333 -0.133157 -0.132923 -0.132618 -0.132272 -0.131844 -0.131411 
-0.130968 -0.130478 -0.130009 -0.129553 -0.12914 -0.128814 -0.128631 -0.128656 -0.128958 
-0.129614 -0.130823 -0.132501 -0.134677 -0.136741 -0.137776 -0.137324 -0.13542 -0.132411 
-0.129573 -0.1271 -0.125074 -0.123531 -0.12244 -0.121595 -0.120876 -0.120489 -0.120146 
-0.119889 -0.11995 -0.120355 -0.12101 -0.122191 -0.123774 -0.126908 -0.132095 -0.14026 
-0.141138 -0.0553349 -0.0407436 -0.0312495 -0.0234169 -0.0210326 -0.0173186 -0.0170168 -0.0158728 
-0.0153632 -0.0157031 -0.0154709 -0.0142922 -0.0142633 -0.013947 -0.0141657 -0.0139853 -0.0147599 
-0.0154184 -0.0158339 -0.0163275 -0.0178292 -0.0200775 -0.0236076 -0.0292084 -0.0355831 -0.0427836 
-0.137189 -0.101445 -0.087209 -0.0830539 -0.081661 -0.0803123 -0.0805539 -0.080163 -0.0812139 
-0.0815541 -0.0826192 -0.088757 -0.10462 -0.137636 -0.23603 -0.144732 -0.1036 -0.0885999 
-0.0852457 -0.0828887 -0.0815032 -0.0803901 -0.0806582 -0.0809192 -0.0815209 -0.0828421 -0.0866749 
-0.102983 -0.13805 -0.227519 -0.131488 -0.133319 -0.112677 -0.112738 -0.120393 -0.133906 
-0.13353 -0.135097 -0.135754 -0.136386 -0.137043 -0.137623 -0.138164 -0.138583 -0.138843 
-0.139042 -0.139151 -0.139063 -0.138854 -0.138542 -0.138109 -0.137592 -0.137018 -0.136394 
-0.135753 -0.135153 -0.134552 -0.134032 -0.133628 -0.122556 -0.133363 -0.124784 -0.114919 
-0.0952229 -0.124581 -0.124714 -0.12433 -0.124033 -0.123967 -0.123924 -0.123653 -0.123617 
-0.123805 -0.123886 -0.123899 -0.123888 -0.123987 -0.124615 -0.126268 -0.129134 -0.133355 
-0.138009 -0.140317 -0.139619 -0.135922 -0.132127 -0.12901 -0.127526 -0.127492 -0.127848 
-0.12835 -0.128838 -0.129391 -0.129959 -0.130476 -0.13095 -0.131387 -0.131799 -0.132204 
-0.132547 -0.132881 -0.13319 -0.133424 -0.117239 -0.11727 -0.133204 -0.132978 -0.132677 
-0.132352 -0.131986 -0.131613 -0.131207 -0.130763 -0.13031 -0.129828 -0.129336 -0.128825 
-0.1284 -0.128107 -0.128095 -0.128615 -0.12998 -0.132392 -0.135693 -0.138869 -0.13959 
-0.137552 -0.133202 -0.129445 -0.126801 -0.125021 -0.124178 -0.123784 -0.123501 -0.123332 
-0.123211 -0.123138 -0.123155 -0.123321 -0.123557 -0.123896 -0.124521 -0.12521 -0.125891 
-0.126688 -0.12265 -0.102138 -0.116817 -0.0565808 -0.0802122 -0.0487693 -0.0429968 -0.0389861 
-0.0362533 -0.0350362 -0.03419 -0.0339496 -0.0328226 -0.0320217 -0.0313436 -0.0316421 -0.0318735 
-0.0330772 -0.0347255 -0.0351238 -0.0363947 -0.0384448 -0.0425027 -0.0510406 -0.0618778 -0.075402 
-0.149153 -0.124051 -0.160025 -0.112914 -0.103268 -0.0979919 -0.0945804 -0.0927798 -0.0926042 
-0.093453 -0.0949376 -0.0977522 -0.103731 -0.113796 -0.123577 -0.115092 -0.158067 -0.11489 
-0.106043 -0.100601 -0.0966198 -0.0951889 -0.0947565 -0.0954297 -0.096748 -0.100035 -0.104976 
-0.115429 -0.125982 -0.180644 -0.134454 -0.11753 -0.118927 -0.142288 -0.118369 -0.162458 
-0.116531 -0.12981 -0.136247 -0.135083 -0.13682 -0.137317 -0.137677 -0.137964 -0.138164 
-0.138268 -0.138279 -0.138166 -0.137941 -0.137628 -0.137245 -0.13676 -0.136232 -0.135705 
-0.13513 -0.134563 -0.13404 -0.133624 -0.115711 -0.129928 -0.119553 -0.119504 -0.11207 
-0.119927 -0.123937 -0.124969 -0.125684 -0.125912 -0.125531 -0.125821 -0.125602 -0.125016 
-0.124197 -0.123206 -0.122272 -0.122329 -0.125438 -0.129487 -0.148018 -0.143061 -0.127211 
-0.124239 -0.124299 -0.125599 -0.126805 -0.127918 -0.12896 -0.129857 -0.130638 -0.13124 
-0.13176 -0.132203 -0.132587 -0.132927 -0.133239 -0.133559 -0.133901 -0.155604 -0.115413 
-0.133246 -0.132969 -0.132651 -0.132318 -0.131946 -0.131507 -0.130973 -0.130398 -0.129693 
-0.128862 -0.127975 -0.12696 -0.125985 -0.12552 -0.126606 -0.12912 -0.133526 -0.140513 
-0.145719 -0.143105 -0.138015 -0.128928 -0.125872 -0.123599 -0.123267 -0.12368 -0.124279 
-0.124808 -0.125137 -0.125292 -0.125363 -0.125444 -0.125306 -0.124939 -0.12408 -0.122558 
-0.121013 -0.119807 -0.110771 -0.115513 -0.0779527 -0.0684964 -0.115554 -0.136663 -0.11969 
-0.135692 -0.0611451 -0.0563063 -0.0528025 -0.0510063 -0.0499289 -0.0489659 -0.0480891 -0.047043 
-0.0465941 -0.0471276 -0.0482505 -0.0502403 -0.051892 -0.0539828 -0.0567125 -0.0599315 -0.0684273 
-0.0854839 -0.0973108 -0.122451 -0.116464 -0.111288 -0.107215 -0.104427 -0.102463 -0.103001 
-0.104756 -0.10746 -0.111068 -0.116777 -0.133467 -0.119056 -0.114482 -0.109935 -0.106706 
-0.105608 -0.106455 -0.107828 -0.109948 -0.113649 -0.118484 -0.122223 -0.121145 -0.12198 
-0.134564 -0.119028 -0.119752 -0.13873 -0.146623 -0.133402 -0.120252 -0.119329 -0.126 
-0.121256 -0.117571 -0.0876373 -0.136063 -0.137216 -0.137447 -0.13761 -0.137671 -0.137628 
-0.137465 -0.137208 -0.136892 -0.136485 -0.136017 -0.135518 -0.134996 -0.134429 -0.133898 
-0.115093 -0.118694 -0.11952 -0.105969 -0.153115 -0.124509 -0.122345 -0.127106 -0.127036 
-0.126434 -0.125224 -0.12364 -0.121448 -0.118598 -0.106122 -0.12472 -0.126239 -0.127961 
-0.129385 -0.130559 -0.131421 -0.132086 -0.132621 -0.133057 -0.133414 -0.133749 -0.134061 
-0.134325 -0.120315 -0.117889 -0.133408 -0.133092 -0.132748 -0.132304 -0.131754 -0.131084 
-0.130231 -0.129131 -0.127803 -0.126334 -0.124493 -0.122457 -0.122279 -0.121594 -0.121347 
-0.122479 -0.123956 -0.125276 -0.126156 -0.12664 -0.126793 -0.126603 -0.12594 -0.124591 
-0.122217 -0.118177 -0.113154 -0.118805 -0.117915 -0.0953256 -0.0837137 -0.12272 -0.0695675 
-0.0679522 -0.0663689 -0.0652124 -0.0644305 -0.0637587 -0.0628555 -0.0637784 -0.0663061 -0.0689897 
-0.0721661 -0.074574 -0.0773404 -0.0793784 -0.121984 -0.119891 -0.136951 -0.121293 -0.117578 
-0.115573 -0.113766 -0.111316 -0.113672 -0.115266 -0.116942 -0.119988 -0.136592 -0.072616 
-0.120487 -0.117857 -0.114245 -0.116009 -0.116993 -0.118358 -0.119802 -0.12173 -0.126351 
-0.133682 -0.122585 -0.129954 -0.0765364 -0.122122 -0.119117 -0.134912 -0.125178 -0.123337 
-0.135479 -0.123488 -0.090333 -0.122246 -0.121563 -0.123627 -0.136824 -0.13722 -0.137117 
-0.136885 -0.136598 -0.136247 -0.135793 -0.13529 -0.134791 -0.13421 -0.10386 -0.10603 
-0.127669 -0.126555 -0.126826 -0.125278 -0.123197 -0.121562 -0.137166 -0.137037 -0.130344 
-0.131533 -0.132381 -0.133048 -0.133548 -0.133929 -0.134301 -0.134645 -0.120612 -0.121018 
-0.13322 -0.133617 -0.133938 -0.132687 -0.131957 -0.131085 -0.129844 -0.128291 -0.126527 
-0.124531 -0.0904535 -0.118761 -0.125249 -0.126707 -0.12722 -0.127585 -0.12713 -0.126018 
-0.123819 -0.12039 -0.11487 -0.081487 -0.0842995 -0.123025 -0.128758 -0.085352 -0.0806608 
-0.0814159 -0.0806603 -0.0770001 -0.0805832 -0.0837491 -0.0877212 -0.0906632 -0.0929184 -0.0955402 
-0.124043 -0.136569 -0.126561 -0.123784 -0.127638 -0.123239 -0.122353 -0.120662 -0.121818 
-0.122688 -0.123007 -0.121698 -0.126284 -0.12539 -0.122995 -0.123137 -0.124257 -0.124947 
-0.12478 -0.0870579 -0.122025 -0.121433 -0.110374 -0.124615 -0.116417 -0.12271 -0.0935632 
-0.1363 -0.12575 -0.135286 -0.125979 -0.123349 -0.118562 -0.121178 -0.13597 -0.123677 
-0.135967 -0.135504 -0.135009 -0.134492 -0.127746 -0.127214 -0.124676 -0.128252 -0.136682 
-0.132694 -0.13643 -0.131657 -0.13411 -0.13444 -0.134801 -0.133054 -0.130165 -0.13369 
-0.124676 -0.132216 -0.131007 -0.129412 -0.127284 -0.125356 -0.124374 -0.133513 -0.136783 
-0.127995 -0.127132 -0.127149 -0.123636 -0.118903 -0.113012 -0.0979903 -0.0966266 -0.10468 
-0.0934677 -0.102398 -0.0944188 -0.0948159 -0.100034 -0.103738 -0.12583 -0.125175 -0.136016 
-0.136335 -0.128085 -0.126951 -0.128257 -0.127893 -0.127321 -0.127581 -0.124362 -0.128488 
-0.127072 -0.127782 -0.128335 -0.13661 -0.107339 -0.136822 -0.135902 -0.125979 -0.127402 
-0.126341 -0.127994 -0.0983663 -0.134156 -0.124772 -0.0976051 -0.128083 -0.128403 -0.122312 
-0.116106 -0.106839 -0.128696 -0.135615 -0.10172 -0.135193 -0.1287 -0.127988 -0.136288 
-0.112142 -0.133058 -0.135198 -0.135133 -0.132431 -0.134171 -0.133421 -0.126994 -0.12374 
-0.127264 -0.131693 -0.126516 -0.1175 -0.110172 -0.128905 -0.113796 -0.109187 -0.128746 
-0.133809 -0.13632 -0.130865 -0.135634 -0.129814 -0.134841 -0.132356 -0.131766 -0.13093 
-0.131509 -0.127302 -0.128327 -0.134679 -0.128958 -0.129182 -0.135579 -0.128592 -0.136036 
-0.128497 -0.12877 -0.131154 -0.127094 -0.121852 -0.129669 -0.110306 -0.112278 -0.106934 
-0.128836 -0.136001 -0.128171 -0.130151 -0.125748 -0.134444 -0.133799 -0.133326 -0.134193 
-0.134617 -0.121253 -0.124652 -0.134845 -0.132373 -0.121347 -0.126426 -0.13553 -0.135308 
-0.135516 -0.135015 -0.119083 -0.118534 -0.133974 -0.127256 -0.133844 -0.0553633 -0.0543527 
-0.133379 9.39276e-07 1.06815e-06 9.03008e-07 2.13904e-07 1.54395e-07 1.1671e-07 1.21253e-07 5.65822e-08 
4.70743e-08 4.99024e-08 4.29521e-08 3.90794e-08 4.60328e-08 4.3495e-08 4.13366e-08 4.44653e-08 4.44544e-08 
4.19865e-08 3.98619e-08 4.01297e-08 4.00923e-08 4.55692e-08 4.91476e-08 4.98965e-08 5.22773e-08 5.70455e-08 
7.07824e-08 9.23822e-08 1.35034e-07 1.06815e-06 1.24832e-06 7.91364e-08 8.81833e-08 6.15271e-08 3.13922e-08 
5.09708e-08 5.6888e-08 4.98025e-08 5.55609e-08 5.34293e-08 4.5077e-08 4.9144e-08 4.67527e-08 4.28628e-08 
4.32181e-08 4.82197e-08 5.12733e-08 5.1032e-08 5.48954e-08 5.1413e-08 5.56375e-08 6.17864e-08 6.72752e-08 
7.94735e-08 8.97799e-08 1.43422e-07 6.97591e-07 -0.133263 -0.133274 -0.13355 -0.134161 -0.134965 
-0.135868 -0.136866 -0.137902 -0.138876 -0.139733 -0.140453 -0.141081 -0.141487 -0.141699 
-0.141699 -0.141487 -0.14107 -0.140453 -0.139717 -0.138742 -0.137715 -0.136691 -0.135674 
-0.134757 -0.13401 -0.133483 -0.133248 -0.133287 -0.157335 -0.149226 -0.132643 -0.124206 
-0.119685 -0.117346 -0.116135 -0.115694 -0.11567 -0.115916 -0.116369 -0.116915 -0.117575 
-0.118385 -0.119411 -0.120795 -0.122683 -0.125131 -0.128106 -0.131557 -0.135097 -0.138019 
-0.139823 -0.139965 -0.138608 -0.136237 -0.133448 -0.131153 -0.129513 -0.128413 -0.127868 
-0.127775 -0.127952 -0.128343 -0.12889 -0.129508 -0.130136 -0.130718 -0.131291 -0.131809 
-0.132268 -0.132671 -0.133011 -0.13325 -0.133345 -0.133373 -0.133334 -0.133346 -0.133258 
-0.13303 -0.132706 -0.132285 -0.131781 -0.131259 -0.130686 -0.130063 -0.12944 -0.128867 
-0.128344 -0.127957 -0.127793 -0.127911 -0.12851 -0.129548 -0.131329 -0.133771 -0.136466 
-0.138737 -0.140028 -0.139724 -0.13765 -0.134324 -0.130515 -0.127156 -0.124317 -0.122172 
-0.120538 -0.11924 -0.118226 -0.11745 -0.116793 -0.116197 -0.115812 -0.115637 -0.115639 
-0.116287 -0.117791 -0.120653 -0.126071 -0.136167 -0.154103 -0.113363 -0.0584988 -0.0545932 
-0.0615239 -0.0668799 -0.0696147 -0.0712479 -0.0716077 -0.0715678 -0.0718604 -0.0699426 -0.0669875 
-0.0626439 -0.0563451 -0.0570912 -0.0754532 -0.0571046 -0.0571596 -0.0607604 -0.066405 -0.0686453 
-0.0697297 -0.0711856 -0.0710257 -0.0701801 -0.0682812 -0.0654926 -0.0621127 -0.0579869 -0.0561687 
-0.0922443 -0.133281 -0.133244 -0.133505 -0.134018 -0.134769 -0.135661 -0.136659 -0.137692 
-0.138661 -0.139618 -0.140472 -0.141053 -0.141458 -0.141655 -0.141639 -0.141417 -0.140985 
-0.140399 -0.139617 -0.138725 -0.137734 -0.136718 -0.135728 -0.134817 -0.134045 -0.133508 
-0.133246 -0.13329 -0.19591 -0.141778 -0.136902 -0.125972 -0.120561 -0.11774 -0.116291 
-0.115722 -0.115601 -0.11585 -0.116253 -0.116812 -0.117482 -0.11827 -0.119239 -0.120476 
-0.122085 -0.124123 -0.126731 -0.130032 -0.133616 -0.136953 -0.139167 -0.13986 -0.139002 
-0.136946 -0.134245 -0.131811 -0.129955 -0.128656 -0.127982 -0.127777 -0.127903 -0.128246 
-0.12872 -0.129293 -0.129914 -0.13058 -0.131183 -0.131723 -0.132223 -0.132642 -0.132976 
-0.133226 -0.133358 -0.133366 -0.133335 -0.133349 -0.133227 -0.132982 -0.132648 -0.132214 
-0.131711 -0.131194 -0.130631 -0.130022 -0.12944 -0.128849 -0.128321 -0.127955 -0.127777 
-0.127871 -0.128367 -0.129449 -0.131194 -0.133592 -0.136203 -0.138648 -0.139926 -0.139587 
-0.137504 -0.134209 -0.130526 -0.127284 -0.124481 -0.122151 -0.120464 -0.119201 -0.118142 
-0.117352 -0.116739 -0.116195 -0.115808 -0.115592 -0.115646 -0.116317 -0.117352 -0.119858 
-0.124684 -0.133289 -0.148759 -0.168947 -0.0561774 -0.0587964 -0.0623152 -0.0668145 -0.0696286 
-0.0715154 -0.0722474 -0.0718961 -0.0709108 -0.0691418 -0.0661864 -0.0628496 -0.055912 -0.0603888 
-0.119499 -0.0623929 -0.0560855 -0.0620897 -0.0650699 -0.0685263 -0.0698796 -0.0705652 -0.0708734 
-0.0698575 -0.0684499 -0.0657531 -0.0623359 -0.0566456 -0.0598309 -0.102024 -0.133319 -0.133319 
-0.144295 -0.121421 -0.117692 -0.148436 9.21142e-07 0.000341279 -0.0239339 1.00517e-07 0.00190409 
9.43767e-08 6.7886e-08 0.000411242 -0.000477133 5.7554e-08 -0.00290486 0.00746087 -0.00732741 0.00693017 
-0.00514187 0.00660643 -0.00567173 0.00525364 -0.00389581 0.00388627 -0.00226423 0.00396938 -0.00355496 
0.00409308 -0.00317505 0.00336469 -0.0027365 0.00356104 -0.00333643 0.00321076 -0.00314756 0.00304639 
-0.00232351 0.00193572 -0.000719241 0.00096437 -0.000288319 0.000383572 0.000846361 -0.000179937 0.000639126 
-0.000473272 0.00138559 -0.00100096 0.00197402 -0.0019204 0.00279529 -0.00283204 0.00427383 -0.00424638 
0.00513842 -0.00333964 0.00848826 -0.0236351 -0.133316 -0.133377 -0.133441 -0.133599 -0.133836 
-0.133626 -0.134108 -0.134468 -0.134055 -0.134787 -0.135205 -0.134663 -0.135579 -0.136041 
-0.135357 -0.136431 -0.136941 -0.136118 -0.13736 -0.137859 -0.13693 -0.138236 -0.138687 
-0.137724 -0.139045 -0.139435 -0.138454 -0.139736 -0.140048 -0.139096 -0.140277 -0.140564 
-0.139635 -0.140723 -0.140858 -0.140017 -0.140951 -0.141006 -0.140276 -0.141009 -0.140955 
-0.140367 -0.140866 -0.140712 -0.140282 -0.140534 -0.14028 -0.140023 -0.140049 -0.139731 
-0.139612 -0.139425 -0.139011 -0.139099 -0.138641 -0.138118 -0.138428 -0.137721 -0.137241 
-0.137657 -0.136816 -0.136297 -0.136836 -0.135896 -0.135427 -0.136011 -0.135066 -0.134646 
-0.135251 -0.134335 -0.13402 -0.134577 -0.133785 -0.133604 -0.134041 -0.133434 -0.133394 
-0.133649 -0.133322 -0.133337 -0.13335 -0.133426 -0.103064 -0.145712 -0.143434 -0.140089 
-0.133732 -0.139359 -0.129594 -0.126523 -0.134439 -0.124119 -0.122462 -0.12874 -0.121109 
-0.120213 -0.125204 -0.119348 -0.118895 -0.122962 -0.118461 -0.118319 -0.121545 -0.11815 
-0.118177 -0.120845 -0.11802 -0.11817 -0.120442 -0.118238 -0.118453 -0.120286 -0.118607 
-0.11888 -0.12045 -0.119065 -0.119402 -0.120717 -0.119641 -0.120084 -0.121072 -0.120463 
-0.121002 -0.12164 -0.121511 -0.122317 -0.122452 -0.122974 -0.123954 -0.123514 -0.1248 
-0.126124 -0.124885 -0.127252 -0.128676 -0.126714 -0.130067 -0.131889 -0.129075 -0.133381 
-0.134916 -0.131836 -0.136257 -0.137465 -0.134657 -0.138285 -0.13882 -0.136673 -0.138895 
-0.138562 -0.137597 -0.137914 -0.136937 -0.137067 -0.135833 -0.134529 -0.135312 -0.133464 
-0.132177 -0.133178 -0.131333 -0.130458 -0.131334 -0.12987 -0.129249 -0.130007 -0.128887 
-0.128529 -0.1292 -0.12837 -0.128245 -0.128785 -0.128241 -0.128282 -0.128687 -0.128381 
-0.128521 -0.128804 -0.128672 -0.128922 -0.12907 -0.129147 -0.129421 -0.129447 -0.129661 
-0.129979 -0.129899 -0.130247 -0.130529 -0.130387 -0.130788 -0.131063 -0.13089 -0.131285 
-0.131555 -0.131347 -0.131775 -0.132002 -0.131768 -0.1322 -0.132411 -0.132168 -0.132593 
-0.132768 -0.132533 -0.132923 -0.133067 -0.132853 -0.133175 -0.133265 -0.1331 -0.133324 
-0.133346 -0.133273 -0.0577355 -0.0609143 -0.133328 -0.13323 -0.13315 -0.0585748 -0.0673382 
-0.133063 -0.132917 -0.133056 -0.132771 -0.132599 -0.132821 -0.132422 -0.132176 -0.132501 
-0.131964 -0.13172 -0.132119 -0.131495 -0.131232 -0.131695 -0.130995 -0.130703 -0.131249 
-0.130444 -0.130131 -0.130771 -0.129878 -0.129589 -0.130278 -0.129359 -0.129097 -0.129797 
-0.128881 -0.128641 -0.129362 -0.128492 -0.128357 -0.128993 -0.128263 -0.128247 -0.128755 
-0.128242 -0.128436 -0.128679 -0.12859 -0.129038 -0.128861 -0.129351 -0.130079 -0.12939 
-0.13069 -0.131807 -0.130375 -0.132671 -0.133936 -0.131906 -0.134932 -0.1362 -0.133839 
-0.13722 -0.138124 -0.135895 -0.138769 -0.138806 -0.137281 -0.138679 -0.137875 -0.137556 
-0.137024 -0.135529 -0.136341 -0.134113 -0.132219 -0.133722 -0.130908 -0.129157 -0.130825 
-0.127785 -0.126277 -0.12815 -0.1252 -0.12414 -0.125901 -0.123366 -0.122447 -0.124221 
-0.121836 -0.12122 -0.122973 -0.120747 -0.120205 -0.122051 -0.119826 -0.119436 -0.121332 
-0.119139 -0.118822 -0.120768 -0.118597 -0.118321 -0.120325 -0.118217 -0.117996 -0.120084 
-0.117979 -0.117875 -0.120016 -0.117966 -0.11794 -0.120152 -0.118166 -0.118363 -0.120526 
-0.118828 -0.11949 -0.121375 -0.120355 -0.121622 -0.1231 -0.122931 -0.125211 -0.125642 
-0.127425 -0.131676 -0.129579 -0.13647 -0.144573 -0.135444 -0.149921 -0.160843 -0.138447 
-0.106863 -0.0250471 -0.0165349 -0.0167853 -0.016223 -0.0415307 -0.0118446 -0.0126874 -0.0290924 
-0.0102006 -0.00621665 -0.0232134 -0.00930112 -0.00897309 -0.0239607 -0.0102055 -0.00935248 -0.0189863 
-0.00932537 -0.00880773 -0.0181779 -0.00902323 -0.00843979 -0.0167066 -0.00829559 -0.00716874 -0.0157989 
-0.00764699 -0.0068884 -0.0160984 -0.00789458 -0.00741972 -0.0151071 -0.00771358 -0.00700409 -0.0141609 
-0.00746462 -0.00703723 -0.0147759 -0.00785186 -0.00719318 -0.0141317 -0.00801947 -0.00762395 -0.0148671 
-0.00835642 -0.00754225 -0.0142999 -0.00802687 -0.00780242 -0.0150215 -0.0079912 -0.00798267 -0.0151415 
-0.00823214 -0.00841585 -0.0164392 -0.00890716 -0.00923455 -0.0164408 -0.00940078 -0.0101236 -0.0182875 
-0.0103711 -0.0114822 -0.0201796 -0.0119096 -0.0134976 -0.0231769 -0.0143477 -0.0169611 -0.0288896 
-0.0219891 -0.0299237 -0.0428662 -0.117584 -0.151226 -0.0808641 -0.0830253 -0.1156 -0.0744617 
-0.0729538 -0.0927456 -0.0740921 -0.0734176 -0.0847373 -0.0758 -0.0736062 -0.0832066 -0.0768924 
-0.0748384 -0.0824472 -0.0773419 -0.0766991 -0.0812369 -0.0757846 -0.0785487 -0.0814209 -0.0766958 
-0.0768407 -0.0816667 -0.0754861 -0.0762807 -0.0820254 -0.0741597 -0.0754147 -0.0824346 -0.0727487 
-0.0755081 -0.0853505 -0.0807606 -0.0770136 -0.0937952 -0.14711 -0.111085 -0.1202 -0.233524 
-0.243004 -0.108708 -0.141019 -0.0838397 -0.0873978 -0.121839 -0.0765914 -0.0739066 -0.0961256 
-0.0746059 -0.0710803 -0.0881473 -0.0749665 -0.0737086 -0.0831109 -0.0761853 -0.0743407 -0.0814935 
-0.0761396 -0.0761848 -0.0807778 -0.0761577 -0.0759087 -0.0810871 -0.0757136 -0.075706 -0.081579 
-0.0754926 -0.0758316 -0.0816732 -0.0744749 -0.075937 -0.0829581 -0.0746776 -0.0767015 -0.0862015 
-0.0880027 -0.0824044 -0.0951782 -0.157142 -0.115873 -0.126472 -0.232865 -0.239982 -0.133375 
-0.0793157 -0.115908 -0.132366 -0.0889386 -0.178883 -0.142017 -0.118826 -0.141892 -0.179544 
-0.119271 -0.193734 -0.148925 -0.120301 -0.168855 -0.0849193 -0.0904864 -0.128434 -0.113329 
-0.133937 -0.134226 -0.13447 -0.134796 -0.134316 -0.135073 -0.135441 -0.134857 -0.135764 
-0.136148 -0.135465 -0.136487 -0.136907 -0.136134 -0.137237 -0.137615 -0.13682 -0.137928 
-0.138272 -0.137472 -0.138538 -0.138829 -0.138058 -0.139033 -0.139268 -0.138531 -0.139422 
-0.139587 -0.138904 -0.139685 -0.139782 -0.139169 -0.139801 -0.139811 -0.139302 -0.139773 
-0.139694 -0.1393 -0.139565 -0.139402 -0.139148 -0.139246 -0.139028 -0.138877 -0.138824 
-0.138535 -0.138523 -0.138243 -0.137885 -0.138033 -0.137563 -0.137174 -0.137424 -0.136841 
-0.136422 -0.136767 -0.136081 -0.135685 -0.136086 -0.135372 -0.135009 -0.135418 -0.134728 
-0.134427 -0.134817 -0.134187 -0.133959 -0.134292 -0.133766 -0.133607 -0.133868 -0.0925038 
-0.0957769 -0.114027 -0.0684508 -0.122076 -0.133405 -0.129066 -0.127884 -0.127718 -0.126352 
-0.124321 -0.12572 -0.124786 -0.125393 -0.12427 -0.123613 -0.125127 -0.123172 -0.122809 
-0.124688 -0.122512 -0.122361 -0.124214 -0.122185 -0.122048 -0.12387 -0.121942 -0.121983 
-0.123641 -0.121951 -0.122052 -0.123576 -0.12207 -0.122187 -0.123541 -0.122284 -0.122452 
-0.12356 -0.122528 -0.122799 -0.123612 -0.122927 -0.123296 -0.123671 -0.123516 -0.124009 
-0.123829 -0.12434 -0.125023 -0.124169 -0.125559 -0.126561 -0.124864 -0.127578 -0.128964 
-0.1264 -0.13052 -0.132238 -0.129103 -0.133864 -0.135458 -0.132715 -0.137211 -0.138282 
-0.136949 -0.138963 -0.139001 -0.13959 -0.138251 -0.137294 -0.139442 -0.135685 -0.134267 
-0.136551 -0.132755 -0.13152 -0.13285 -0.130557 -0.129706 -0.129957 -0.129277 -0.128795 
-0.128535 -0.128619 -0.128401 -0.127958 -0.128435 -0.128403 -0.127961 -0.128547 -0.12863 
-0.128278 -0.128826 -0.128986 -0.128751 -0.1292 -0.129396 -0.129269 -0.129612 -0.129856 
-0.129748 -0.130076 -0.130319 -0.130235 -0.130551 -0.13081 -0.130721 -0.13104 -0.131286 
-0.131205 -0.131478 -0.131688 -0.131625 -0.131859 -0.132066 -0.131979 -0.132234 -0.132423 
-0.132319 -0.132586 -0.132761 -0.132653 -0.132913 -0.133065 -0.132979 -0.133192 -0.1333 
-0.133262 -0.133397 -0.133444 -0.133497 -0.160973 -0.202433 -0.111274 -0.120435 -0.112892 
-0.133204 -0.133108 -0.132998 -0.132852 -0.133136 -0.132713 -0.132539 -0.132888 -0.132373 
-0.132166 -0.132585 -0.131975 -0.131759 -0.132231 -0.131571 -0.131343 -0.131852 -0.131127 
-0.130874 -0.131449 -0.130654 -0.130405 -0.131006 -0.13019 -0.129947 -0.130546 -0.129736 
-0.129501 -0.130083 -0.129288 -0.129101 -0.129608 -0.128914 -0.128776 -0.129133 -0.128627 
-0.128581 -0.128704 -0.128477 -0.128575 -0.128313 -0.128585 -0.12887 -0.128096 -0.129121 
-0.129758 -0.128301 -0.130369 -0.131358 -0.129205 -0.132425 -0.133763 -0.1312 -0.135273 
-0.136648 -0.134428 -0.138003 -0.138676 -0.137651 -0.138692 -0.138268 -0.13941 -0.137216 
-0.135862 -0.138414 -0.13413 -0.132347 -0.134958 -0.130663 -0.129141 -0.13098 -0.127959 
-0.126678 -0.127665 -0.125891 -0.124995 -0.125748 -0.124495 -0.123858 -0.12456 -0.123568 
-0.123147 -0.123954 -0.122952 -0.122639 -0.123624 -0.122513 -0.122239 -0.123435 -0.12213 
-0.121923 -0.123334 -0.121858 -0.121719 -0.123274 -0.121682 -0.121634 -0.123219 -0.121691 
-0.121696 -0.123274 -0.121762 -0.121868 -0.123419 -0.122138 -0.122334 -0.123653 -0.122691 
-0.123153 -0.124003 -0.123641 -0.124484 -0.124562 -0.12525 -0.126349 -0.125093 -0.12719 
-0.128732 -0.12497 -0.128353 -0.12873 -0.108949 -0.123012 -0.133543 -0.0650614 -0.0717049 
-0.0526269 -0.0477058 -0.0376763 -0.0343113 -0.0587238 -0.0329285 -0.0345856 -0.0470707 -0.0315801 
-0.0309137 -0.0435356 -0.0288333 -0.0290003 -0.0400839 -0.0269601 -0.0262714 -0.0377361 -0.0253092 
-0.0247933 -0.0350942 -0.0234961 -0.0245085 -0.0331345 -0.0230752 -0.0234883 -0.0318842 -0.0223343 
-0.0227311 -0.0311299 -0.0219935 -0.0225359 -0.03034 -0.022115 -0.0226568 -0.0300997 -0.0223926 
-0.0223441 -0.0300074 -0.0225743 -0.0228606 -0.0303185 -0.0229691 -0.0235089 -0.0310447 -0.0238802 
-0.0237394 -0.0318961 -0.0244634 -0.0252498 -0.0328859 -0.0261158 -0.0264678 -0.0346981 -0.0285303 
-0.0287194 -0.0372403 -0.0317536 -0.0326544 -0.041321 -0.0368553 -0.0378965 -0.0472819 -0.0445015 
-0.0477893 -0.0560071 -0.0653624 -0.100537 -0.109535 -0.106588 -0.201912 -0.154859 -0.167186 
-0.112538 -0.129201 -0.120558 -0.117863 -0.0894245 -0.0902893 -0.0994918 -0.088204 -0.0884804 
-0.094806 -0.0874577 -0.087504 -0.0935132 -0.0872697 -0.0868687 -0.092785 -0.0874242 -0.0868783 
-0.0925565 -0.0881428 -0.0878829 -0.093097 -0.0900281 -0.0896495 -0.0950454 -0.095906 -0.0936136 
-0.0993398 -0.107081 -0.102426 -0.106884 -0.133191 -0.112872 -0.11817 -0.113966 -0.126054 
-0.119713 -0.153212 -0.199244 -0.126935 -0.112943 -0.210495 -0.168545 -0.118509 -0.131854 
-0.0907665 -0.0916693 -0.0888474 -0.088295 -0.0975889 -0.0873629 -0.0874547 -0.0943731 -0.0869624 
-0.0875524 -0.0928053 -0.0877406 -0.0880899 -0.0934876 -0.0891584 -0.0892634 -0.0951966 -0.0920262 
-0.0921139 -0.0978972 -0.0984886 -0.0971638 -0.102904 -0.112442 -0.106293 -0.111148 -0.132076 
-0.120444 -0.122366 -0.115968 -0.124923 -0.13371 -0.104068 -0.113596 -0.121087 -0.0953971 
-0.0995561 -0.109701 -0.101444 -0.146945 -0.12382 -0.133448 -0.133367 -0.133295 -0.133521 
-0.0830033 -0.134565 -0.161955 -0.133263 -0.117787 -0.117523 -0.133819 -0.0768685 -0.173106 
-0.120242 -0.119335 -0.146368 -0.117401 -0.117627 -0.124344 -0.159274 -0.130487 -0.119236 
-0.121421 -0.133309 -0.0990877 -0.0996024 -0.0971703 -0.134544 -0.134831 -0.135129 -0.135447 
-0.134811 -0.135749 -0.136101 -0.135414 -0.136399 -0.136745 -0.136037 -0.137014 -0.137334 
-0.136628 -0.137596 -0.137857 -0.137171 -0.138072 -0.138273 -0.137652 -0.138424 -0.138592 
-0.13802 -0.138696 -0.138807 -0.138289 -0.138846 -0.138879 -0.138448 -0.138852 -0.138828 
-0.138475 -0.138755 -0.13864 -0.138389 -0.138537 -0.138395 -0.138221 -0.138241 -0.138046 
-0.137973 -0.137839 -0.137556 -0.137616 -0.137304 -0.136983 -0.137152 -0.136702 -0.136365 
-0.136603 -0.136066 -0.135726 -0.136012 -0.135426 -0.135103 -0.135405 -0.134832 -0.134544 
-0.134822 -0.134297 -0.13406 -0.134296 -0.100835 -0.10179 -0.105473 -0.104366 -0.106845 
-0.108592 -0.11505 -0.117822 -0.120523 -0.121455 -0.113683 -0.122759 -0.123106 -0.119004 
-0.123745 -0.123918 -0.121995 -0.124387 -0.124468 -0.123845 -0.12459 -0.124602 -0.124869 
-0.124664 -0.124676 -0.125388 -0.12469 -0.124694 -0.125659 -0.124674 -0.124658 -0.125773 
-0.124572 -0.124586 -0.125652 -0.124463 -0.12441 -0.125379 -0.124221 -0.12417 -0.124945 
-0.12395 -0.123937 -0.124352 -0.123761 -0.123864 -0.12371 -0.123814 -0.124193 -0.123225 
-0.124521 -0.125566 -0.123274 -0.127104 -0.129065 -0.125178 -0.131579 -0.134075 -0.129467 
-0.137021 -0.13979 -0.136226 -0.142825 -0.143864 -0.143739 -0.143453 -0.142 -0.147035 
-0.138921 -0.136296 -0.14316 -0.133153 -0.130784 -0.134155 -0.129011 -0.127785 -0.129026 
-0.127199 -0.126739 -0.126067 -0.1267 -0.126663 -0.125407 -0.126963 -0.127161 -0.125812 
-0.127593 -0.127904 -0.126712 -0.128343 -0.128692 -0.127772 -0.12909 -0.129404 -0.128748 
-0.129746 -0.130038 -0.129619 -0.130335 -0.130604 -0.130346 -0.130872 -0.131138 -0.130973 
-0.131377 -0.131618 -0.131522 -0.131807 -0.132003 -0.131976 -0.132165 -0.13234 -0.132343 
-0.132487 -0.132658 -0.132662 -0.132795 -0.132962 -0.132956 -0.133124 -0.133286 -0.133275 
-0.13344 -0.133578 -0.1336 -0.133675 -0.133774 -0.13401 -0.133855 -0.0970196 -0.110122 
-0.103273 -0.0796818 -0.116047 -0.116873 -0.119913 -0.123352 -0.133167 -0.133028 -0.132899 
-0.132731 -0.133173 -0.132569 -0.132374 -0.132878 -0.1322 -0.132006 -0.132531 -0.131826 
-0.131603 -0.132169 -0.131383 -0.131143 -0.131743 -0.130908 -0.130656 -0.131254 -0.130389 
-0.13012 -0.130708 -0.129832 -0.129545 -0.130083 -0.129222 -0.128929 -0.129382 -0.128555 
-0.128264 -0.128562 -0.127851 -0.127586 -0.127614 -0.127161 -0.12703 -0.126589 -0.126753 
-0.126928 -0.125702 -0.127384 -0.128115 -0.125812 -0.128881 -0.13053 -0.127127 -0.132987 
-0.135541 -0.131308 -0.13913 -0.14119 -0.138356 -0.142515 -0.142486 -0.143996 -0.14104 
-0.139186 -0.144709 -0.136869 -0.134206 -0.139009 -0.130744 -0.128507 -0.13222 -0.12706 
-0.125768 -0.126464 -0.125141 -0.124463 -0.124456 -0.124195 -0.123876 -0.123728 -0.123893 
-0.123796 -0.123659 -0.123975 -0.123986 -0.124055 -0.124177 -0.124171 -0.124586 -0.124304 
-0.124297 -0.125042 -0.124361 -0.124356 -0.125314 -0.124401 -0.12436 -0.125432 -0.124365 
-0.124364 -0.125491 -0.124305 -0.124302 -0.125369 -0.124175 -0.124169 -0.125016 -0.12405 
-0.124088 -0.124376 -0.123572 -0.123494 -0.123183 -0.122743 -0.122194 -0.121176 -0.12135 
-0.119773 -0.11785 -0.0988353 -0.0990037 -0.0754372 -0.0642091 -0.14721 -0.159179 -0.0598679 
-0.057883 -0.0745097 -0.0555427 -0.0541968 -0.068108 -0.051865 -0.0506208 -0.0639434 -0.0488206 
-0.0468837 -0.0596576 -0.0453785 -0.0440964 -0.0558554 -0.0429186 -0.0418554 -0.0527148 -0.0409439 
-0.0403436 -0.0502579 -0.0397555 -0.0389876 -0.0482725 -0.0386972 -0.0381929 -0.0468917 -0.0380823 
-0.0380104 -0.046076 -0.0381251 -0.0378348 -0.0457408 -0.0383165 -0.0386363 -0.0460787 -0.03939 
-0.0396982 -0.047144 -0.0404196 -0.0408131 -0.0484812 -0.0412864 -0.0419207 -0.049615 -0.0431159 
-0.0442511 -0.0512429 -0.0461018 -0.0477996 -0.0542635 -0.0509596 -0.0537313 -0.0594022 -0.057648 
-0.0613298 -0.0665628 -0.0665502 -0.0721527 -0.0889061 -0.0759698 -0.109732 -0.114675 -0.113296 
-0.0984208 -0.0985681 -0.104124 -0.0984208 -0.0981971 -0.103757 -0.0993634 -0.0984718 -0.103787 
-0.101703 -0.100268 -0.105108 -0.107058 -0.103912 -0.108244 -0.114706 -0.11026 -0.113356 
-0.123148 -0.116753 -0.118864 -0.117271 -0.121459 -0.121081 -0.117653 -0.16259 -0.143648 
-0.116611 -0.120517 -0.1191 -0.115871 -0.132493 -0.152279 -0.102279 -0.104576 -0.0997227 
-0.0993224 -0.104704 -0.101779 -0.10092 -0.105927 -0.105383 -0.103588 -0.108204 -0.111261 
-0.108074 -0.112282 -0.118997 -0.114248 -0.117311 -0.124085 -0.120456 -0.121576 -0.12336 
-0.116305 -0.099768 -0.100815 -0.107122 -0.104921 -0.134272 -0.168629 -0.172444 -0.153576 
-0.135312 -0.133379 -0.133272 -0.13341 -0.111893 -0.0901165 -0.0923051 -0.116384 -0.12221 
-0.131237 -0.134235 -0.156847 -0.133853 -0.133659 -0.125148 -0.120486 -0.133372 -0.119109 
-0.117661 -0.121473 -0.133836 -0.133493 -0.13344 -0.116443 -0.118008 -0.12109 -0.112918 
-0.120814 -0.111455 -0.137817 -0.118488 -0.116476 -0.122087 -0.166322 -0.16454 -0.149379 
-0.120329 -0.116758 -0.115886 -0.140704 -0.130546 -0.123768 -0.120122 -0.151439 -0.110692 
-0.10649 -0.109349 -0.118493 -0.120992 -0.130789 -0.133574 -0.154694 -0.148212 -0.151765 
-0.135043 -0.135352 -0.135654 -0.135976 -0.135301 -0.136239 -0.136517 -0.135881 -0.136771 
-0.137042 -0.136415 -0.137258 -0.137467 -0.136891 -0.137644 -0.137791 -0.137287 -0.137912 
-0.138032 -0.137583 -0.138084 -0.138136 -0.137775 -0.138126 -0.13811 -0.137828 -0.138072 
-0.13801 -0.137788 -0.137932 -0.137838 -0.137682 -0.137727 -0.137583 -0.137498 -0.137421 
-0.13722 -0.13723 -0.137004 -0.136749 -0.136855 -0.136506 -0.136217 -0.13639 -0.135946 
-0.135644 -0.135863 -0.135353 -0.135051 -0.135295 -0.134773 -0.134493 -0.134721 -0.134233 
-0.133984 -0.13418 -0.110224 -0.111335 -0.112331 -0.114356 -0.116168 -0.0963904 -0.117346 
-0.117135 -0.111983 -0.114728 -0.117794 -0.119525 -0.111895 -0.121687 -0.122844 -0.118002 
-0.124035 -0.12468 -0.122148 -0.125312 -0.125657 -0.124587 -0.126027 -0.126207 -0.125959 
-0.126403 -0.126433 -0.126745 -0.126405 -0.126328 -0.127049 -0.126129 -0.125936 -0.126832 
-0.125576 -0.125249 -0.126254 -0.124728 -0.124294 -0.125263 -0.123687 -0.12326 -0.123966 
-0.12262 -0.122267 -0.122516 -0.12174 -0.121861 -0.120971 -0.122328 -0.124094 -0.120385 
-0.128203 -0.13192 -0.136013 -0.144662 -0.149992 -0.154551 -0.153724 -0.139558 -0.134979 
-0.124176 -0.123614 -0.123724 -0.12384 -0.122108 -0.124439 -0.124937 -0.122921 -0.125643 
-0.126283 -0.124422 -0.127042 -0.127639 -0.12609 -0.128318 -0.128871 -0.127696 -0.12943 
-0.129882 -0.12907 -0.130335 -0.130708 -0.130187 -0.131081 -0.131404 -0.131091 -0.131706 
-0.131983 -0.131826 -0.132214 -0.132424 -0.132399 -0.132594 -0.132766 -0.132822 -0.132899 
-0.133055 -0.133139 -0.133177 -0.133323 -0.133406 -0.13342 -0.133592 -0.133645 -0.133867 
-0.134036 -0.134033 -0.100784 -0.0878199 -0.106718 -0.10897 -0.108974 -0.109258 -0.109584 
-0.114647 -0.113701 -0.133265 -0.133093 -0.132937 -0.132748 -0.133319 -0.132557 -0.132362 
-0.132954 -0.132162 -0.131911 -0.132533 -0.131649 -0.131368 -0.132036 -0.131053 -0.130722 
-0.131413 -0.13035 -0.129983 -0.130664 -0.12955 -0.129117 -0.129774 -0.128584 -0.12806 
-0.128704 -0.127391 -0.126782 -0.127361 -0.126012 -0.125369 -0.125724 -0.12449 -0.124056 
-0.123903 -0.123227 -0.123817 -0.121881 -0.126877 -0.130621 -0.137468 -0.142948 -0.149782 
-0.145405 -0.14137 -0.132563 -0.12775 -0.124842 -0.123616 -0.123993 -0.123312 -0.122859 
-0.121779 -0.122997 -0.122902 -0.122147 -0.123016 -0.123239 -0.122423 -0.123847 -0.124225 
-0.123348 -0.124817 -0.12515 -0.124713 -0.125556 -0.125777 -0.125842 -0.126025 -0.126114 
-0.126527 -0.126191 -0.126166 -0.126846 -0.126047 -0.125913 -0.126653 -0.12558 -0.125323 
-0.126071 -0.124755 -0.124288 -0.124911 -0.123494 -0.122749 -0.123148 -0.121854 -0.120695 
-0.120734 -0.116281 -0.114109 -0.11452 -0.113952 -0.111632 -0.102286 -0.108633 -0.111546 
-0.110542 -0.122513 -0.120661 -0.115507 -0.118208 -0.118381 -0.083614 -0.0809461 -0.07876 
-0.0934365 -0.075881 -0.0737815 -0.0880356 -0.0706202 -0.0686332 -0.0662704 -0.0644962 -0.0765719 
-0.062561 -0.0611561 -0.0723255 -0.0597138 -0.0585805 -0.068977 -0.0573831 -0.0564923 -0.0663964 
-0.0552198 -0.0546864 -0.0639842 -0.0540081 -0.0537403 -0.0620045 -0.053539 -0.0535194 -0.0612161 
-0.0540622 -0.0544564 -0.061497 -0.0553302 -0.0560367 -0.0629571 -0.0568197 -0.0574858 -0.0646006 
-0.0581998 -0.0586595 -0.0660498 -0.0597307 -0.0608686 -0.0678325 -0.0621943 -0.0641135 -0.0701432 
-0.0674806 -0.0708473 -0.0746719 -0.075608 -0.0795866 -0.0826524 -0.109122 -0.108984 -0.113536 
-0.116426 -0.120978 -0.119171 -0.110331 -0.109409 -0.113757 -0.113768 -0.111573 -0.114986 
-0.118313 -0.115267 -0.117956 -0.121766 -0.119053 -0.120706 -0.116618 -0.118252 -0.133514 
-0.133379 -0.133596 -0.117292 -0.110207 -0.109752 -0.114975 -0.117647 -0.115315 -0.121548 
-0.119197 -0.121365 -0.123043 -0.121973 -0.123292 -0.119412 -0.121319 -0.122345 -0.103109 
-0.107635 -0.103009 -0.0898799 -0.134409 -0.134708 -0.133783 -0.120098 -0.121181 -0.121656 
-0.11953 -0.113986 -0.112397 -0.116333 -0.118548 -0.127003 -0.133717 -0.134137 -0.13465 
-0.0818003 -0.123077 -0.11824 -0.12042 -0.119146 -0.118765 -0.125253 -0.14564 -0.124402 
-0.1163 -0.12051 -0.118819 -0.121182 -0.123355 -0.123566 -0.121356 -0.118877 -0.118423 
-0.118723 -0.118779 -0.0848413 -0.114063 -0.109269 -0.109915 -0.121967 -0.0921378 -0.113797 
-0.115861 -0.116657 -0.119483 -0.119915 -0.121821 -0.111641 -0.113014 -0.117574 -0.115165 
-0.119555 -0.11692 -0.118462 -0.133612 -0.133816 -0.117892 -0.117894 -0.135516 -0.135797 
-0.136048 -0.136313 -0.13571 -0.136539 -0.136764 -0.136204 -0.136973 -0.137143 -0.136644 
-0.137296 -0.137416 -0.137006 -0.137525 -0.137578 -0.137262 -0.137564 -0.137561 -0.137354 
-0.137543 -0.137511 -0.137323 -0.137459 -0.13739 -0.137258 -0.137302 -0.137196 -0.137126 
-0.137057 -0.1369 -0.136901 -0.136723 -0.136512 -0.136585 -0.136287 -0.13604 -0.136185 
-0.135795 -0.135518 -0.135711 -0.135233 -0.134939 -0.135171 -0.134636 -0.134355 -0.134578 
-0.134077 -0.121186 -0.120807 -0.120332 -0.121587 -0.113386 -0.116275 -0.119318 -0.121311 
-0.115079 -0.123119 -0.12424 -0.120554 -0.125281 -0.125964 -0.123934 -0.12665 -0.12699 
-0.126109 -0.127326 -0.127385 -0.127235 -0.12737 -0.127194 -0.127697 -0.126892 -0.126482 
-0.127414 -0.125896 -0.125258 -0.126512 -0.124409 -0.123621 -0.125013 -0.122715 -0.121853 
-0.123153 -0.120838 -0.119817 -0.121058 -0.11879 -0.121551 -0.122381 -0.123262 -0.124183 
-0.122163 -0.125257 -0.126197 -0.124267 -0.127221 -0.128032 -0.126525 -0.12886 -0.129522 
-0.128462 -0.130075 -0.130609 -0.129918 -0.131112 -0.131555 -0.13104 -0.131969 -0.132322 
-0.132018 -0.132629 -0.13289 -0.132785 -0.133093 -0.13328 -0.133322 -0.13343 -0.133573 
-0.133691 -0.1337 -0.133831 -0.133978 -0.133929 -0.134034 -0.134211 -0.133785 -0.133607 
-0.120138 -0.118798 -0.117564 -0.133387 -0.133173 -0.133841 -0.132975 -0.132747 -0.133396 
-0.132491 -0.132184 -0.132914 -0.131851 -0.131476 -0.132284 -0.131031 -0.130591 -0.131458 
-0.130051 -0.12953 -0.130412 -0.128974 -0.128329 -0.129228 -0.127587 -0.126776 -0.12783 
-0.125804 -0.124828 -0.125993 -0.123818 -0.122759 -0.12387 -0.124308 -0.117879 -0.117721 
-0.121333 -0.121117 -0.121394 -0.1226 -0.123404 -0.121351 -0.124616 -0.125328 -0.124017 
-0.126038 -0.126507 -0.126003 -0.126928 -0.127147 -0.127151 -0.127215 -0.127191 -0.127553 
-0.126938 -0.126578 -0.127218 -0.125868 -0.125237 -0.12601 -0.124159 -0.123191 -0.12386 
-0.121556 -0.120106 -0.120699 -0.117798 -0.115904 -0.11614 -0.111324 -0.106021 -0.103305 
-0.125113 -0.124465 -0.0860412 -0.0838525 -0.0992075 -0.0815405 -0.0796642 -0.0903251 -0.0782625 
-0.0768167 -0.0867844 -0.0756711 -0.0744869 -0.0842022 -0.0731597 -0.0718259 -0.0818081 -0.0693448 
-0.0687367 -0.0781079 -0.0699427 -0.0697877 -0.0769164 -0.0684472 -0.0690382 -0.0768472 -0.07133 
-0.0722367 -0.0777716 -0.0730676 -0.0738294 -0.0809105 -0.0743077 -0.0749329 -0.082052 -0.075824 
-0.0768064 -0.0833964 -0.0777723 -0.0789685 -0.0850841 -0.0801509 -0.0834302 -0.0870226 -0.121516 
-0.119912 -0.121991 -0.123063 -0.121891 -0.123636 -0.133997 -0.133876 -0.118654 -0.120203 
-0.118091 -0.12106 -0.123328 -0.120464 -0.103754 -0.108181 -0.106083 -0.122829 -0.124098 
-0.119159 -0.120142 -0.118962 -0.118634 -0.124873 -0.124527 -0.125431 -0.1243 -0.123075 
-0.125878 -0.0982372 -0.13493 -0.13525 -0.135174 -0.0920243 -0.0889384 -0.120516 -0.121741 
-0.122892 -0.119742 -0.0941706 -0.0951914 -0.134311 -0.134658 -0.125015 -0.1224 -0.121069 
-0.121039 -0.0897197 -0.12337 -0.122046 -0.125082 -0.134173 -0.119417 -0.122254 -0.120245 
-0.118294 -0.120349 -0.11852 -0.119054 -0.12242 -0.121899 -0.122784 -0.123644 -0.118028 
-0.118264 -0.121992 -0.121595 -0.121707 -0.123723 -0.121418 -0.120021 -0.118907 -0.121425 
-0.0941152 -0.12123 -0.064269 -0.0708148 -0.0976566 -0.118893 -0.118317 -0.122193 -0.122766 
-0.123936 -0.122503 -0.119469 -0.12091 -0.11983 -0.134609 -0.121278 -0.121617 -0.12368 
-0.122343 -0.124705 -0.125571 -0.125931 -0.119679 -0.121346 -0.122665 -0.12077 -0.126547 
-0.0942433 -0.100288 -0.106053 -0.135877 -0.136112 -0.136789 -0.136935 -0.137037 -0.137136 
-0.136829 -0.137121 -0.0669594 -0.073292 -0.13711 -0.137094 -0.136914 -0.137074 -0.137028 
-0.136876 -0.136968 -0.136881 -0.136802 -0.13676 -0.136623 -0.136622 -0.136454 -0.136278 
-0.136332 -0.136061 -0.135837 -0.135945 -0.135601 -0.135354 -0.135491 -0.135143 -0.134849 
-0.135047 -0.13448 -0.110666 -0.114305 -0.105267 -0.124767 -0.125213 -0.117695 -0.120124 
-0.113752 -0.122235 -0.123707 -0.119606 -0.125087 -0.126055 -0.123521 -0.126971 -0.127426 
-0.126054 -0.127834 -0.127905 -0.127553 -0.127884 -0.127606 -0.128083 -0.127182 -0.126566 
-0.127675 -0.125746 -0.124799 -0.126421 -0.123366 -0.121977 -0.100591 -0.12351 -0.124738 
-0.122497 -0.126107 -0.12721 -0.128414 -0.129301 -0.128067 -0.130238 -0.13079 -0.130211 
-0.131371 -0.0689558 -0.0742315 -0.132088 -0.132556 -0.131898 -0.133003 -0.133345 -0.133102 
-0.133621 -0.133843 -0.133844 -0.134003 -0.134163 -0.134292 -0.134277 -0.13441 -0.134569 
-0.126143 -0.126852 -0.12294 -0.121624 -0.122397 -0.125734 -0.125239 -0.12441 -0.124532 
-0.133838 -0.133616 -0.1334 -0.133115 -0.133837 -0.13278 -0.132407 -0.133268 -0.131956 
-0.131455 -0.13245 -0.130823 -0.130209 -0.131323 -0.129315 -0.128675 -0.129739 -0.127899 
-0.068969 -0.0746668 -0.12663 -0.12555 -0.127517 -0.124094 -0.128005 -0.127535 -0.120913 
-0.126168 -0.126881 -0.127332 -0.127664 -0.12749 -0.127801 -0.127752 -0.127966 -0.127289 
-0.126784 -0.12749 -0.125782 -0.124728 -0.125722 -0.12315 -0.121573 -0.122714 -0.119097 
-0.116798 -0.118251 -0.113391 -0.110203 -0.111662 -0.124931 -0.123782 -0.126896 -0.0984707 
-0.0961866 -0.0949668 -0.0935466 -0.102203 -0.0924479 -0.0914827 -0.0998802 -0.090334 -0.088978 
-0.0978378 -0.0874192 -0.0849191 -0.0951293 -0.0862248 -0.0706388 -0.0728424 -0.0865408 -0.0853184 
-0.0939588 -0.0875635 -0.0704173 -0.0716412 -0.0887724 -0.0896506 -0.09551 -0.0899784 -0.0903428 
-0.0971649 -0.0905773 -0.0912639 -0.0976029 -0.0918151 -0.0925048 -0.0982301 -0.0934304 -0.124225 
-0.127199 -0.127089 -0.127839 -0.119955 -0.123597 -0.0678389 -0.0697267 -0.134782 -0.135074 
-0.134443 -0.13636 -0.136573 -0.136511 -0.13604 -0.122444 -0.122443 -0.123645 -0.125229 
-0.127153 -0.125229 -0.12352 -0.124129 -0.12677 -0.135344 -0.135603 -0.134977 -0.122021 
-0.120735 -0.121652 -0.122954 -0.125468 -0.125176 -0.126512 -0.134505 -0.135521 -0.134275 
-0.13403 -0.134261 -0.134642 -0.125251 -0.12554 -0.126802 -0.124692 -0.12487 -0.127127 
-0.125381 -0.126904 -0.125191 -0.124714 -0.121308 -0.119915 -0.128109 -0.127048 -0.126419 
-0.125251 -0.126162 -0.12397 -0.124902 -0.125125 -0.10036 -0.105445 -0.0994799 -0.124676 
-0.124445 -0.126615 -0.127279 -0.12815 -0.103152 -0.124699 -0.123272 -0.128845 -0.0632807 
-0.0673848 -0.136641 -0.136637 -0.0580859 -0.063546 -0.136644 -0.136628 -0.13637 -0.136581 
-0.136521 -0.136338 -0.136483 -0.136364 -0.136265 -0.13617 -0.135997 -0.136022 -0.135785 
-0.135562 -0.135616 -0.135333 -0.135099 -0.135172 -0.104517 -0.124084 -0.123311 -0.124358 
-0.125622 -0.117018 -0.119491 -0.121898 -0.12357 -0.119463 -0.124911 -0.12602 -0.12352 
-0.127201 -0.127825 -0.126212 -0.128295 -0.128331 -0.127998 -0.128229 -0.12782 -0.128482 
-0.127377 -0.108638 -0.107592 -0.134858 -0.127727 -0.12896 -0.126766 -0.12567 -0.123221 
-0.130144 -0.13109 -0.129861 -0.047235 -0.0570795 -0.0519836 -0.0563249 -0.13196 -0.132719 
-0.131925 -0.133248 -0.133722 -0.133337 -0.126039 -0.125327 -0.12684 -0.127741 -0.133814 
-0.133454 -0.133005 -0.132533 -0.133558 -0.130497 -0.129534 -0.129158 -0.129962 -0.128726 
-0.128372 -0.127056 -0.126497 -0.104187 -0.109573 -0.113429 -0.125092 -0.125322 -0.12764 
-0.127511 -0.129001 -0.128907 -0.12762 -0.125645 -0.128202 -0.128325 -0.127724 -0.127106 
-0.128083 -0.125903 -0.12455 -0.126164 -0.122373 -0.120279 -0.122245 -0.117307 -0.114182 
-0.109857 -0.129017 -0.128725 -0.107053 -0.106248 -0.11274 -0.106043 -0.104958 -0.112316 
-0.103598 -0.102095 -0.11061 -0.103386 -0.104483 -0.126972 -0.128653 -0.127948 -0.129018 
-0.129305 -0.130846 -0.127941 -0.135144 -0.135423 -0.134757 -0.136532 -0.136642 -0.136369 
-0.128187 -0.128868 -0.128649 -0.129197 -0.12844 -0.128605 -0.134852 -0.124809 -0.126224 
-0.13535 -0.13572 -0.130887 -0.129039 -0.129201 -0.134311 -0.134082 -0.127144 -0.12404 
-0.111404 -0.104022 -0.134092 -0.134379 -0.134246 -0.134595 -0.13483 -0.128313 -0.12845 
-0.134289 -0.125785 -0.132047 -0.131369 -0.13124 -0.113146 -0.134699 -0.128616 -0.128363 
-0.12866 -0.116697 -0.128458 -0.129972 -0.12858 -0.128839 -0.135982 -0.104457 -0.104222 
-0.10433 -0.11076 -0.104158 -0.104112 -0.110257 -0.103901 -0.128033 -0.127561 -0.12805 
-0.128859 -0.1289 -0.126227 -0.127162 -0.129003 -0.128862 -0.128776 -0.109584 -0.127964 
-0.132612 -0.134498 -0.111941 -0.133501 -0.13305 -0.135146 -0.134751 -0.126234 -0.127797 
-0.124484 -0.129243 -0.130541 -0.133629 -0.134149 -0.113461 -0.128112 -0.133994 -0.136327 
-0.124886 -0.132226 -0.132536 -0.116476 -0.12103 -0.117534 -0.134818 -0.135321 -0.134449 
-0.136004 -0.13599 -0.135987 -0.135961 -0.135893 -0.135475 -0.13588 -0.135839 -0.135464 
-0.135421 -0.135203 -0.12976 -0.129605 -0.130558 -0.11823 -0.120659 -0.114874 -0.131126 
-0.129686 -0.129831 -0.122359 -0.125006 -0.126422 -0.122467 -0.127861 -0.128456 -0.12674 
-0.128818 -0.134734 -0.125431 -0.125631 -0.136038 -0.136038 -0.115582 -0.117528 -0.121667 
-0.125683 -0.135721 -0.131849 -0.132773 -0.133586 -0.128777 -0.12836 -0.129022 -0.134778 
-0.134501 -0.135907 -0.135435 -0.135568 -0.127911 -0.128738 -0.118089 -0.116997 -0.133725 
-0.132536 -0.128932 -0.123314 -0.1308 -0.131331 -0.132824 -0.128238 -0.132083 -0.131157 
-0.123239 -0.119322 -0.11761 -0.133002 -0.116231 -0.115809 -0.115346 -0.121257 -0.127031 
-0.127293 -0.117156 -0.119891 -0.13498 -0.135653 -0.135225 -0.125288 -0.131316 -0.134657 
-0.134631 -0.12341 -0.132289 -0.127695 -0.128422 -0.128241 -0.124985 -0.12411 -0.133872 
-0.0611732 -0.128831 -0.134716 -0.13469 -0.123006 -0.126151 -0.132075 -0.0925688 -0.131444 
-0.134487 -0.132777 -0.133861 -0.132905 -0.135117 -0.135364 -0.128376 -0.128424 -0.13483 
-0.134905 -0.134268 -0.13472 -0.128675 -0.0569659 -0.0546967 -0.134729 -0.127435 -0.126552 
-0.125155 -0.133333 -0.127078 -0.132771 -0.0606289 -0.0584379 -0.133318 -0.133413 -0.133365 
-0.133769 -0.133572 -0.133578 -0.134323 -0.134016 -0.13398 -0.135049 -0.134642 -0.134539 
-0.135885 -0.135431 -0.135233 -0.136791 -0.136275 -0.136007 -0.137684 -0.137196 -0.1368 
-0.138508 -0.138051 -0.137574 -0.139356 -0.13889 -0.138318 -0.140023 -0.13967 -0.139013 
-0.140492 -0.140255 -0.139548 -0.140809 -0.140664 -0.139957 -0.140937 -0.140891 -0.140209 
-0.140861 -0.140923 -0.14027 -0.140613 -0.140771 -0.140166 -0.140199 -0.140447 -0.139907 
-0.139614 -0.139953 -0.139505 -0.138917 -0.139316 -0.138963 -0.13808 -0.138548 -0.13831 
-0.13722 -0.13769 -0.137579 -0.136323 -0.136828 -0.136818 -0.135472 -0.135929 -0.136036 
-0.134702 -0.13513 -0.135295 -0.134063 -0.134381 -0.134626 -0.133596 -0.133811 -0.13405 
-0.133363 -0.133437 -0.133629 -0.133341 -0.1333 -0.133402 -0.133354 -0.136123 -0.151645 
-0.159334 -0.135609 -0.145161 -0.140577 -0.127546 -0.1315 -0.136314 -0.123182 -0.125172 
-0.130045 -0.120589 -0.121619 -0.125966 -0.119059 -0.119647 -0.123349 -0.118363 -0.118574 
-0.121762 -0.118087 -0.118101 -0.120879 -0.118183 -0.118072 -0.120506 -0.118393 -0.118192 
-0.120362 -0.118794 -0.118525 -0.120424 -0.119378 -0.119063 -0.120728 -0.120082 -0.119696 
-0.121209 -0.120935 -0.120452 -0.121786 -0.122012 -0.121383 -0.122471 -0.12341 -0.122589 
-0.123326 -0.125153 -0.12414 -0.124445 -0.127559 -0.126155 -0.125953 -0.130422 -0.128755 
-0.128021 -0.133715 -0.131977 -0.130608 -0.13656 -0.135117 -0.133483 -0.138332 -0.137581 
-0.135964 -0.138588 -0.138637 -0.137275 -0.137364 -0.138121 -0.137125 -0.135225 -0.136442 
-0.135731 -0.132828 -0.134141 -0.133754 -0.130877 -0.131873 -0.131772 -0.129509 -0.130217 
-0.130244 -0.128647 -0.129112 -0.129325 -0.128293 -0.128464 -0.128836 -0.128266 -0.128266 
-0.1287 -0.12847 -0.128344 -0.128791 -0.128828 -0.128636 -0.129038 -0.129309 -0.12904 
-0.12939 -0.129813 -0.129543 -0.12983 -0.130393 -0.130074 -0.130301 -0.130963 -0.130647 
-0.130794 -0.131463 -0.1312 -0.131261 -0.13196 -0.131707 -0.131718 -0.132389 -0.132163 
-0.132144 -0.132751 -0.132569 -0.132514 -0.133039 -0.1329 -0.132835 -0.133248 -0.13315 
-0.133088 -0.0860763 -0.133303 -0.133344 -0.13334 -0.133127 -0.133231 -0.133246 -0.132868 
-0.133016 -0.133037 -0.132529 -0.132719 -0.132768 -0.132113 -0.132357 -0.132442 -0.131646 
-0.131896 -0.132056 -0.131168 -0.131425 -0.131626 -0.130647 -0.130942 -0.131188 -0.130099 
-0.130396 -0.130723 -0.129583 -0.129857 -0.130237 -0.129063 -0.129343 -0.129776 -0.128638 
-0.12885 -0.129342 -0.12834 -0.128454 -0.128974 -0.128234 -0.128224 -0.128723 -0.12839 
-0.128227 -0.128655 -0.128926 -0.128568 -0.12878 -0.129951 -0.12924 -0.129309 -0.131645 
-0.130563 -0.130237 -0.133716 -0.132478 -0.131701 -0.136103 -0.134784 -0.133601 -0.13806 
-0.13701 -0.135783 -0.138743 -0.138567 -0.137244 -0.13789 -0.138597 -0.137451 -0.135499 
-0.136933 -0.136376 -0.13232 -0.134187 -0.134043 -0.129232 -0.130921 -0.131015 -0.126533 
-0.127994 -0.128313 -0.124248 -0.125426 -0.126103 -0.122418 -0.123408 -0.124321 -0.121176 
-0.121792 -0.123009 -0.120161 -0.120692 -0.122026 -0.119313 -0.119741 -0.121244 -0.118776 
-0.119069 -0.120692 -0.118328 -0.118572 -0.120331 -0.117921 -0.118148 -0.120029 -0.117836 
-0.117937 -0.119906 -0.118021 -0.117963 -0.120148 -0.118464 -0.118261 -0.120693 -0.119441 
-0.119026 -0.12156 -0.121161 -0.120177 -0.122984 -0.124548 -0.122601 -0.125406 -0.130422 
-0.127122 -0.129542 -0.141897 -0.13486 -0.13611 -0.149718 -0.146416 -0.143038 -0.120754 
-0.0310435 -0.0384752 -0.0191512 -0.0195116 -0.0503779 -0.0151223 -0.015298 -0.0360225 -0.0141236 
-0.0133712 -0.0260668 -0.010109 -0.0099442 -0.0198908 -0.00807868 -0.00910521 -0.02018 -0.00806732 
-0.00830488 -0.0182679 -0.00802162 -0.00785161 -0.0169667 -0.00776611 -0.0072715 -0.0171249 -0.00791316 
-0.00786603 -0.0172517 -0.00777865 -0.00830549 -0.0157426 -0.00741981 -0.00760385 -0.0158687 -0.00746481 
-0.00772744 -0.0147904 -0.00730362 -0.00779698 -0.0147957 -0.00723175 -0.00737127 -0.0148126 -0.00697237 
-0.00716533 -0.0154132 -0.0074064 -0.00734981 -0.0159595 -0.00786104 -0.00774692 -0.0158033 -0.00806537 
-0.00817292 -0.0173086 -0.00849513 -0.00865228 -0.016638 -0.00913647 -0.00874241 -0.0180669 -0.0101202 
-0.00964981 -0.0200108 -0.0116806 -0.0105205 -0.0227118 -0.0144681 -0.0127124 -0.0283916 -0.0155349 
-0.0153472 -0.0336971 -0.0283087 -0.02129 -0.0457851 -0.0769739 -0.142937 -0.10203 -0.079979 
-0.0817106 -0.120024 -0.0752443 -0.0752843 -0.0931302 -0.0749857 -0.0749302 -0.0845723 -0.0751117 
-0.0762156 -0.0818297 -0.0759901 -0.0758869 -0.0815873 -0.0762264 -0.0765432 -0.0816906 -0.076431 
-0.0755394 -0.0816632 -0.076383 -0.0758222 -0.0812616 -0.075952 -0.0747907 -0.081759 -0.0750785 
-0.0730328 -0.0823782 -0.0760408 -0.0752921 -0.0850134 -0.0848969 -0.0873929 -0.0936706 -0.104385 
-0.13808 -0.119981 -0.228173 -0.21823 -0.13504 -0.108903 -0.0842158 -0.082714 -0.119873 
-0.0759575 -0.0779672 -0.0934387 -0.0771552 -0.0757268 -0.0824484 -0.0737512 -0.0757243 -0.0850382 
-0.0750082 -0.0768919 -0.0825642 -0.077455 -0.0745667 -0.0825711 -0.0767165 -0.0755124 -0.0808515 
-0.0765929 -0.0748709 -0.0814527 -0.0763958 -0.0740334 -0.0823037 -0.0755656 -0.0730566 -0.0826002 
-0.0756335 -0.07331 -0.0855539 -0.0803134 -0.083247 -0.0940088 -0.103929 -0.138747 -0.12173 
-0.229412 -0.222862 -0.133374 -0.188076 -0.149709 -0.127436 -0.133346 -0.133304 -0.133257 
-0.0828437 -0.0950728 -0.144185 -0.128945 -0.124158 -0.144922 -0.171692 -0.168857 -0.122876 
-0.145159 -0.17656 -0.133381 -0.134091 -0.133843 -0.133658 -0.1335 -0.133413 -0.13371 
-0.135366 -0.13499 -0.136076 -0.135694 -0.135424 -0.136794 -0.13639 -0.136071 -0.137481 
-0.137112 -0.136718 -0.138136 -0.137769 -0.137346 -0.138712 -0.138414 -0.137908 -0.139147 
-0.138924 -0.138386 -0.139451 -0.139275 -0.138731 -0.139628 -0.139545 -0.138963 -0.13967 
-0.139677 -0.139119 -0.139538 -0.13962 -0.13913 -0.13927 -0.139426 -0.138981 -0.13888 
-0.139108 -0.138717 -0.138369 -0.138655 -0.138341 -0.13776 -0.138107 -0.137865 -0.137103 
-0.137472 -0.137318 -0.136415 -0.136791 -0.136712 -0.135701 -0.13609 -0.136076 -0.135062 
-0.135409 -0.135453 -0.134448 -0.134766 -0.134845 -0.133936 -0.134189 -0.134287 -0.133565 
-0.133737 -0.13382 -0.125729 -0.126833 -0.133258 -0.13335 -0.131266 -0.114208 -0.125725 
-0.125566 -0.119179 -0.120952 -0.111921 -0.0699704 -0.106846 -0.124786 -0.125746 -0.123941 
-0.123669 -0.124375 -0.124774 -0.122839 -0.12326 -0.124563 -0.122347 -0.122608 -0.12422 
-0.122234 -0.122266 -0.123973 -0.122173 -0.122205 -0.123926 -0.122085 -0.122024 -0.123774 
-0.122277 -0.122088 -0.123627 -0.122636 -0.122423 -0.1237 -0.122979 -0.122747 -0.123829 
-0.123356 -0.123084 -0.123879 -0.12383 -0.123472 -0.123878 -0.124516 -0.124014 -0.123912 
-0.125739 -0.124928 -0.124262 -0.127698 -0.126567 -0.125414 -0.130719 -0.129067 -0.12763 
-0.134469 -0.13256 -0.131225 -0.137674 -0.136374 -0.135741 -0.138972 -0.138651 -0.139034 
-0.137938 -0.138661 -0.140018 -0.135252 -0.136542 -0.137883 -0.132247 -0.133585 -0.133999 
-0.129909 -0.130923 -0.130608 -0.12863 -0.129216 -0.128269 -0.12829 -0.12854 -0.127521 
-0.128313 -0.12835 -0.127652 -0.128557 -0.128476 -0.128109 -0.128892 -0.128748 -0.128611 
-0.129322 -0.129117 -0.129105 -0.129815 -0.129576 -0.12967 -0.130288 -0.13005 -0.130211 
-0.130763 -0.130511 -0.130707 -0.13121 -0.130974 -0.131161 -0.131639 -0.131418 -0.131589 
-0.132074 -0.131845 -0.131999 -0.13244 -0.132248 -0.132371 -0.132781 -0.132607 -0.132709 
-0.13308 -0.132936 -0.133036 -0.133307 -0.133199 -0.133309 -0.115236 -0.125892 -0.115733 
-0.126607 -0.133365 -0.133061 -0.133179 -0.13328 -0.132795 -0.132947 -0.133088 -0.132472 
-0.132645 -0.132824 -0.132097 -0.132309 -0.132512 -0.131698 -0.131911 -0.132168 -0.131289 
-0.131509 -0.131799 -0.130843 -0.131087 -0.131405 -0.130389 -0.130627 -0.13098 -0.129935 
-0.130174 -0.130532 -0.129488 -0.129712 -0.130065 -0.129079 -0.129273 -0.129581 -0.12873 
-0.12887 -0.129081 -0.128514 -0.128565 -0.128616 -0.128515 -0.12843 -0.128257 -0.128859 
-0.128558 -0.128092 -0.129744 -0.129134 -0.12834 -0.13131 -0.130362 -0.129302 -0.13361 
-0.13231 -0.131194 -0.136347 -0.134929 -0.134089 -0.138345 -0.137555 -0.137328 -0.138403 
-0.138684 -0.139161 -0.136143 -0.137449 -0.1386 -0.132642 -0.134467 -0.135435 -0.129433 
-0.131002 -0.131424 -0.126939 -0.128203 -0.128077 -0.125111 -0.12604 -0.125927 -0.123941 
-0.124586 -0.124624 -0.123165 -0.123619 -0.123994 -0.122612 -0.122945 -0.123637 -0.122162 
-0.122449 -0.123417 -0.121891 -0.122043 -0.123292 -0.121664 -0.121805 -0.123177 -0.12157 
-0.121683 -0.123139 -0.121679 -0.121665 -0.123226 -0.121995 -0.121835 -0.123446 -0.12245 
-0.122182 -0.123741 -0.123277 -0.122775 -0.124195 -0.124558 -0.123909 -0.124942 -0.126499 
-0.12532 -0.125545 -0.129376 -0.127693 -0.126246 -0.130766 -0.129453 -0.125102 -0.117546 
-0.1251 -0.114284 -0.0756587 -0.12541 -0.114279 -0.0405413 -0.0437877 -0.0555773 -0.0597822 
-0.0668465 -0.0708586 -0.0339403 -0.0360513 -0.0522348 -0.0297012 -0.0309841 -0.0451633 -0.0281514 
-0.0276762 -0.0408416 -0.026226 -0.0260585 -0.0366433 -0.0254096 -0.025573 -0.0346 -0.0249382 
-0.0251098 -0.0334795 -0.0249073 -0.0242548 -0.0329518 -0.0240546 -0.0237953 -0.0321718 -0.0231844 
-0.0229569 -0.0314019 -0.0230468 -0.0223259 -0.0306297 -0.0232391 -0.0223628 -0.0304877 -0.0234162 
-0.0227989 -0.0307896 -0.0242055 -0.0235484 -0.0314717 -0.0252505 -0.0246277 -0.0326831 -0.025532 
-0.0254799 -0.033724 -0.0263962 -0.0258902 -0.0346207 -0.0280964 -0.0273688 -0.0362285 -0.0311708 
-0.0303933 -0.0392822 -0.0369034 -0.0361632 -0.0454489 -0.0447949 -0.0440861 -0.0551969 -0.054126 
-0.053802 -0.0670414 -0.184031 -0.134081 -0.130012 -0.11552 -0.121324 -0.141125 -0.191733 
-0.108543 -0.101047 -0.118598 -0.0957396 -0.0933677 -0.10703 -0.0907554 -0.0896303 -0.0989819 
-0.0876852 -0.0874958 -0.0951416 -0.0863958 -0.0868583 -0.0927617 -0.0867536 -0.0865658 -0.0917555 
-0.0872325 -0.0870686 -0.0921636 -0.088242 -0.088072 -0.093227 -0.0901929 -0.0901824 -0.0954868 
-0.0940695 -0.0962896 -0.0994384 -0.10099 -0.110038 -0.107602 -0.115977 -0.129445 -0.120245 
-0.118937 -0.123079 -0.113247 -0.147491 -0.181749 -0.109998 -0.102127 -0.119678 -0.097117 
-0.0948886 -0.109487 -0.0933281 -0.092172 -0.102271 -0.0901068 -0.0889893 -0.0972476 -0.0883181 
-0.0874869 -0.0953999 -0.0876315 -0.0881262 -0.0947404 -0.088003 -0.0882106 -0.0944552 -0.0888031 
-0.0895998 -0.0951944 -0.0908427 -0.0918597 -0.0973928 -0.0950497 -0.0966181 -0.10111 -0.103075 
-0.109811 -0.108718 -0.11811 -0.131135 -0.119724 -0.207018 -0.167502 -0.134673 -0.134358 
-0.134171 -0.134764 -0.133411 -0.133502 -0.133465 -0.120038 -0.116424 -0.116585 -0.119872 
-0.133481 -0.124093 -0.118379 -0.170149 -0.131004 -0.139289 -0.129591 -0.162989 -0.0891889 
-0.116617 -0.115729 -0.138058 -0.0660851 -0.0836573 -0.182955 -0.158215 -0.158787 -0.115833 
-0.119889 -0.128337 -0.144572 -0.12272 -0.136646 -0.136308 -0.13542 -0.13509 -0.137216 
-0.136921 -0.13654 -0.137728 -0.137463 -0.137081 -0.13811 -0.13791 -0.13751 -0.138388 
-0.138258 -0.137833 -0.138588 -0.138484 -0.138078 -0.138693 -0.138635 -0.138235 -0.138655 
-0.138694 -0.138292 -0.138496 -0.138595 -0.13824 -0.13823 -0.13838 -0.138071 -0.137858 
-0.138068 -0.137799 -0.137415 -0.137663 -0.137448 -0.136887 -0.137167 -0.137013 -0.136311 
-0.13662 -0.136504 -0.135731 -0.136048 -0.135973 -0.135141 -0.135442 -0.13542 -0.13456 
-0.134865 -0.134847 -0.134044 -0.134304 -0.1343 -0.133631 -0.133837 -0.13383 -0.133491 
-0.115247 -0.116178 -0.138108 -0.12435 -0.122474 -0.121717 -0.12131 -0.117935 -0.117441 
-0.118927 -0.11681 -0.116166 -0.0962202 -0.118387 -0.121867 -0.124172 -0.124052 -0.124651 
-0.124497 -0.124432 -0.124916 -0.124841 -0.125332 -0.12484 -0.12494 -0.12577 -0.124591 
-0.124611 -0.125692 -0.124817 -0.12474 -0.125684 -0.124736 -0.12476 -0.125706 -0.124426 
-0.124521 -0.1253 -0.123989 -0.124121 -0.124593 -0.123532 -0.123629 -0.123688 -0.1234 
-0.123223 -0.122717 -0.124339 -0.123537 -0.122281 -0.127318 -0.125794 -0.123674 -0.131771 
-0.12914 -0.127435 -0.144241 -0.14264 -0.138808 -0.141725 -0.127917 -0.1299 -0.1259 
-0.12666 -0.125743 -0.125969 -0.125893 -0.124257 -0.126781 -0.126478 -0.124945 -0.127644 
-0.127288 -0.12622 -0.128433 -0.128096 -0.127359 -0.129227 -0.128875 -0.128438 -0.12995 
-0.129612 -0.129407 -0.130586 -0.130294 -0.130247 -0.131115 -0.130857 -0.130935 -0.131585 
-0.131354 -0.131495 -0.132008 -0.131795 -0.131977 -0.132399 -0.132194 -0.132391 -0.132737 
-0.132564 -0.132753 -0.133057 -0.132889 -0.133078 -0.133372 -0.133212 -0.133401 -0.133658 
-0.133541 -0.133732 -0.159071 -0.168271 -0.11658 -0.116554 -0.11762 -0.13296 -0.133113 
-0.133669 -0.132658 -0.132822 -0.133105 -0.132316 -0.132501 -0.132809 -0.131964 -0.132153 
-0.132484 -0.131575 -0.131787 -0.132126 -0.131132 -0.13137 -0.131721 -0.130637 -0.130887 
-0.131236 -0.130106 -0.130379 -0.130681 -0.129503 -0.129798 -0.130044 -0.128828 -0.12915 
-0.129281 -0.128164 -0.12846 -0.128422 -0.127492 -0.127751 -0.127477 -0.127001 -0.127103 
-0.126481 -0.127072 -0.126818 -0.125772 -0.128345 -0.127562 -0.125995 -0.130923 -0.129421 
-0.127816 -0.134752 -0.132661 -0.131271 -0.139924 -0.137588 -0.136792 -0.142716 -0.142184 
-0.142981 -0.140144 -0.141568 -0.144941 -0.135071 -0.138055 -0.140759 -0.129128 -0.131334 
-0.133508 -0.126277 -0.127608 -0.127188 -0.124344 -0.125214 -0.124686 -0.123792 -0.124097 
-0.123466 -0.123803 -0.123878 -0.123505 -0.123948 -0.123994 -0.123974 -0.124122 -0.124124 
-0.124533 -0.124212 -0.124227 -0.124978 -0.124252 -0.12427 -0.125221 -0.124279 -0.124294 
-0.125319 -0.124384 -0.12436 -0.125402 -0.124412 -0.124376 -0.12542 -0.124374 -0.124306 
-0.125138 -0.124189 -0.124216 -0.124521 -0.123721 -0.123813 -0.123439 -0.123242 -0.123385 
-0.121946 -0.122933 -0.123411 -0.12064 -0.116097 -0.11975 -0.115523 -0.102657 -0.115933 
-0.11608 -0.0633971 -0.0676995 -0.055512 -0.0587361 -0.0729194 -0.115991 -0.116099 -0.128322 
-0.145973 -0.118616 -0.121754 -0.117409 -0.136041 -0.13572 -0.13539 -0.135972 -0.0498494 
-0.0522518 -0.0644556 -0.0459324 -0.0473838 -0.058566 -0.0437084 -0.0440175 -0.054461 -0.0422578 
-0.0425474 -0.0518113 -0.0415219 -0.0415531 -0.0503484 -0.0404131 -0.0409003 -0.0493004 -0.0395652 
-0.0400512 -0.0484329 -0.0386964 -0.0390909 -0.0474788 -0.0386865 -0.0385359 -0.0467566 -0.0391057 
-0.0389463 -0.0467842 -0.0403327 -0.0395972 -0.0476051 -0.0420034 -0.0411803 -0.0491302 -0.0430293 
-0.0428697 -0.0509155 -0.0446765 -0.0441667 -0.0528023 -0.0471254 -0.0461287 -0.0551452 -0.0507637 
-0.0488648 -0.0581018 -0.0597865 -0.0551844 -0.0636979 -0.0737769 -0.0680596 -0.0763639 -0.0866635 
-0.079853 -0.0908297 -0.105112 -0.12365 -0.123436 -0.12106 -0.114743 -0.11024 -0.1074 
-0.104328 -0.113573 -0.102537 -0.100532 -0.108891 -0.099345 -0.0982071 -0.105549 -0.097516 
-0.0970584 -0.10323 -0.0975066 -0.0979559 -0.102544 -0.0989127 -0.0995616 -0.103746 -0.101112 
-0.102483 -0.105827 -0.104316 -0.107423 -0.108901 -0.110295 -0.115428 -0.113708 -0.133222 
-0.133335 -0.133354 -0.116811 -0.113431 -0.110359 -0.107786 -0.116437 -0.105097 -0.103264 
-0.111927 -0.101765 -0.100833 -0.108095 -0.100484 -0.0999942 -0.105899 -0.100303 -0.100926 
-0.105861 -0.101301 -0.102229 -0.106916 -0.103259 -0.104933 -0.108706 -0.10678 -0.109248 
-0.111414 -0.111963 -0.116709 -0.115814 -0.118773 -0.123527 -0.121015 -0.120297 -0.111318 
-0.122199 -0.117558 -0.118889 -0.122863 -0.118315 -0.120509 -0.120566 -0.133914 -0.0973554 
-0.133417 -0.134825 -0.134835 -0.134513 -0.105007 -0.146475 -0.136123 -0.123693 -0.118222 
-0.117657 -0.117971 -0.123335 -0.142802 -0.139009 -0.135792 -0.134358 -0.143127 -0.14374 
-0.132642 -0.134946 -0.145561 -0.153155 -0.155766 -0.137953 -0.133545 -0.117774 -0.119132 
-0.117164 -0.118066 -0.117349 -0.121037 -0.120723 -0.147632 -0.133475 -0.123726 -0.153328 
-0.124485 -0.134187 -0.127737 -0.146727 -0.13544 -0.119196 -0.117794 -0.122307 -0.118997 
-0.116762 -0.121174 -0.0724523 -0.0844594 -0.129952 -0.0990856 -0.0826083 -0.136438 -0.136145 
-0.137572 -0.137434 -0.137785 -0.137693 -0.137344 -0.137924 -0.137875 -0.13754 -0.137962 
-0.137954 -0.137651 -0.137885 -0.137939 -0.137662 -0.137693 -0.137801 -0.13756 -0.137408 
-0.137561 -0.137349 -0.13706 -0.137247 -0.13706 -0.136619 -0.136854 -0.136696 -0.136123 
-0.136382 -0.136259 -0.135609 -0.135872 -0.135773 -0.135064 -0.135349 -0.13526 -0.134496 
-0.134781 -0.134717 -0.13397 -0.134232 -0.134167 -0.133757 -0.124637 -0.129523 -0.134225 
-0.119123 -0.117097 -0.118922 -0.117195 -0.121928 -0.120769 -0.117452 -0.11318 -0.108788 
-0.110701 -0.164649 -0.149565 -0.125291 -0.124704 -0.123953 -0.123106 -0.121016 -0.123487 
-0.126335 -0.126536 -0.126531 -0.0670111 -0.0622847 -0.12634 -0.126451 -0.127059 -0.125712 
-0.126042 -0.126739 -0.124659 -0.125148 -0.12583 -0.123325 -0.123941 -0.124432 -0.121717 
-0.122364 -0.12259 -0.120373 -0.120509 -0.120089 -0.145046 -0.097362 -0.108252 -0.112795 
-0.139884 -0.147566 -0.12171 -0.123384 -0.125809 -0.125101 -0.127145 -0.126469 -0.125501 
-0.128512 -0.127903 -0.127102 -0.129659 -0.129146 -0.128676 -0.130629 -0.130193 -0.129978 
-0.131352 -0.131022 -0.130989 -0.131939 -0.131658 -0.131749 -0.132423 -0.132187 -0.132349 
-0.132828 -0.132629 -0.132836 -0.133175 -0.133 -0.133232 -0.133494 -0.133336 -0.133576 
-0.133812 -0.133643 -0.133903 -0.134116 -0.133939 -0.134444 -0.155105 -0.0925997 -0.122343 
-0.122125 -0.119624 -0.132125 -0.116806 -0.118842 -0.133029 -0.133193 -0.132704 -0.132876 
-0.133252 -0.132344 -0.132542 -0.132915 -0.1319 -0.132137 -0.132523 -0.131355 -0.131646 
-0.132025 -0.130726 -0.131044 -0.131423 -0.129941 -0.130338 -0.130662 -0.128971 -0.129454 
-0.129684 -0.12785 -0.128382 -0.128475 -0.126595 -0.127212 -0.127068 -0.125166 -0.125782 
-0.125455 -0.123965 -0.124294 -0.123478 -0.124461 -0.123885 -0.122377 -0.150976 -0.147274 
-0.149755 -0.127654 -0.132104 -0.122636 -0.123964 -0.122363 -0.12246 -0.121395 -0.123143 
-0.122803 -0.121898 -0.12418 -0.123773 -0.123238 -0.125089 -0.124743 -0.124616 -0.125673 
-0.125466 -0.125731 -0.125991 -0.125893 -0.126406 -0.1261 -0.126093 -0.126723 -0.126009 
-0.126058 -0.126697 -0.125575 -0.12577 -0.12631 -0.1247 -0.125067 -0.125304 -0.123084 
-0.123797 -0.123425 -0.120149 -0.121489 -0.120293 -0.116735 -0.11825 -0.115817 -0.114081 
-0.117169 -0.119308 -0.117787 -0.116543 -0.11885 -0.0822282 -0.0870072 -0.0727062 -0.0764406 
-0.0891067 -0.121019 -0.118943 -0.0604143 -0.0612983 -0.0590407 -0.0595747 -0.0686265 -0.057734 
-0.0582264 -0.0669819 -0.0567143 -0.0571485 -0.0655873 -0.055819 -0.0563258 -0.0646785 -0.0552415 
-0.0554651 -0.0639971 -0.0550597 -0.0548363 -0.0632174 -0.0560903 -0.0555223 -0.063154 -0.0583554 
-0.0573467 -0.0648831 -0.0605908 -0.0597216 -0.0674298 -0.063181 -0.0621595 -0.0704094 -0.0657717 
-0.0644401 -0.0731771 -0.0687843 -0.0672217 -0.0757551 -0.074033 -0.0698827 -0.078114 -0.0995509 
-0.139977 -0.121493 -0.11945 -0.118321 -0.115814 -0.120933 -0.137301 -0.137125 -0.137095 
-0.12043 -0.121238 -0.121794 -0.11462 -0.112575 -0.118555 -0.11157 -0.110137 -0.116347 
-0.109228 -0.108247 -0.114354 -0.107006 -0.107352 -0.112365 -0.108367 -0.109353 -0.112328 
-0.11016 -0.111546 -0.114249 -0.112397 -0.114195 -0.115949 -0.115753 -0.118502 -0.118334 
-0.133572 -0.133683 -0.136949 -0.136699 -0.136333 -0.136785 -0.0627913 -0.0646045 -0.070905 
-0.117658 -0.115515 -0.121401 -0.114038 -0.112483 -0.119026 -0.110687 -0.110198 -0.115949 
-0.110957 -0.111429 -0.11504 -0.111979 -0.112593 -0.116332 -0.11332 -0.114293 -0.117407 
-0.115212 -0.116816 -0.118871 -0.117921 -0.12013 -0.120567 -0.126259 -0.126011 -0.12543 
-0.126762 -0.133324 -0.133466 -0.133788 -0.124154 -0.123342 -0.123647 -0.125315 -0.132748 
-0.128199 -0.066535 -0.0691617 -0.0798375 -0.11861 -0.0963467 -0.134701 -0.121043 -0.120419 
-0.121978 -0.122935 -0.11739 -0.118814 -0.146013 -0.119072 -0.134997 -0.134622 -0.135298 
-0.118479 -0.116981 -0.100215 -0.121146 -0.153677 -0.119707 -0.135228 -0.13419 -0.121484 
-0.120411 -0.117426 -0.133546 -0.12045 -0.121154 -0.124986 -0.123627 -0.127267 -0.125744 
-0.132073 -0.12934 -0.074343 -0.118945 -0.109836 -0.122501 -0.121027 -0.122762 -0.135775 
-0.135865 -0.135582 -0.121302 -0.123111 -0.122739 -0.0879368 -0.0794516 -0.0847693 -0.0980851 
-0.121177 -0.119684 -0.121732 -0.119749 -0.120517 -0.121678 -0.122494 -0.119762 -0.127708 
-0.122497 -0.122798 -0.137125 -0.13701 -0.137415 -0.137435 -0.137282 -0.137364 -0.137178 
-0.13704 -0.137167 -0.137005 -0.136739 -0.136895 -0.136746 -0.136361 -0.136562 -0.136427 
-0.135903 -0.136133 -0.136024 -0.135403 -0.13565 -0.135548 -0.134892 -0.135153 -0.135043 
-0.134319 -0.134602 -0.134506 -0.134056 -0.104682 -0.109661 -0.104849 -0.09713 -0.100878 
-0.109065 -0.127067 -0.127335 -0.0712873 -0.0639619 -0.126019 -0.12662 -0.127245 -0.124415 
-0.125243 -0.12605 -0.122283 -0.123399 -0.124231 -0.120316 -0.120135 -0.137408 -0.137376 
-0.137199 -0.137313 -0.137231 -0.137108 -0.134484 -0.124979 -0.124141 -0.130471 -0.129842 
-0.131493 -0.131035 -0.130946 -0.132248 -0.131895 -0.131953 -0.132845 -0.132563 -0.132711 
-0.133309 -0.133083 -0.133295 -0.133677 -0.133493 -0.133735 -0.134032 -0.133858 -0.13411 
-0.134359 -0.134197 -0.134467 -0.134771 -0.121523 -0.120283 -0.119173 -0.121768 -0.121069 
-0.132757 -0.132989 -0.133182 -0.133357 -0.133422 -0.120656 -0.133513 -0.133676 -0.133776 
-0.132213 -0.132501 -0.132957 -0.131507 -0.131864 -0.132329 -0.130635 -0.131097 -0.131525 
-0.129457 -0.130056 -0.130474 -0.128007 -0.12874 -0.129076 -0.126373 -0.127192 -0.127412 
-0.124445 -0.12545 -0.125566 -0.121887 -0.123061 -0.123589 -0.0817234 -0.08363 -0.120093 
-0.119909 -0.118239 -0.119968 -0.125283 -0.124563 -0.126437 -0.125978 -0.125975 -0.126942 
-0.126716 -0.127002 -0.127173 -0.127137 -0.127395 -0.126865 -0.127014 -0.127414 -0.125934 
-0.126416 -0.126583 -0.124122 -0.12499 -0.124875 -0.121176 -0.122605 -0.122167 -0.116364 
-0.118776 -0.117709 -0.112375 -0.0734626 -0.0740316 -0.0754584 -0.0762923 -0.0826134 -0.118366 
-0.0953581 -0.123519 -0.122689 -0.122032 -0.124153 -0.129093 -0.128321 -0.129555 -0.0768402 
-0.07756 -0.0847685 -0.0727216 -0.0730261 -0.0807999 -0.0727141 -0.0730004 -0.0809129 -0.0718898 
-0.0723336 -0.0809546 -0.0705013 -0.0700385 -0.0787179 -0.0735575 -0.0722906 -0.0786831 -0.0765391 
-0.0751565 -0.0819194 -0.0800807 -0.0785167 -0.0855573 -0.0827696 -0.0816664 -0.0889795 -0.0852914 
-0.0840451 -0.0916083 -0.0875225 -0.0867198 -0.0939773 -0.12306 -0.122092 -0.123876 -0.136886 
-0.13675 -0.136709 -0.12729 -0.126336 -0.12768 -0.121926 -0.120837 -0.123851 -0.122859 
-0.127409 -0.127388 -0.127188 -0.126954 -0.127676 -0.120516 -0.119545 -0.123366 -0.119079 
-0.118191 -0.122553 -0.117332 -0.116076 -0.121257 -0.117184 -0.0734348 -0.0657949 -0.117822 
-0.11867 -0.121026 -0.119122 -0.11994 -0.122063 -0.120157 -0.121567 -0.122768 -0.12132 
-0.120476 -0.120414 -0.122048 -0.133806 -0.133951 -0.124588 -0.123556 -0.123125 -0.121638 
-0.125707 -0.120599 -0.118743 -0.123995 -0.119551 -0.0742148 -0.0665561 -0.119786 -0.120234 
-0.122722 -0.120847 -0.121429 -0.123546 -0.121865 -0.12242 -0.124469 -0.122473 -0.123308 
-0.124736 -0.0784344 -0.079984 -0.0885277 -0.0859204 -0.120161 -0.121533 -0.122805 -0.121285 
-0.125164 -0.136938 -0.135202 -0.120056 -0.119787 -0.12128 -0.115151 -0.112406 -0.107292 
-0.123812 -0.122346 -0.123421 -0.119529 -0.117866 -0.113473 -0.0744 -0.066438 -0.126404 
-0.120929 -0.122044 -0.122836 -0.0853852 -0.0888545 -0.0995942 -0.123118 -0.134074 -0.0918166 
-0.136449 -0.136623 -0.13644 -0.110415 -0.123838 -0.124548 -0.125235 -0.122132 -0.135682 
-0.135373 -0.12482 -0.124459 -0.126022 -0.125071 -0.123879 -0.12504 -0.121809 -0.120294 
-0.120977 -0.0931036 -0.119532 -0.121357 -0.13628 -0.136011 -0.135628 -0.123006 -0.122196 
-0.0748353 -0.0655023 -0.121742 -0.119858 -0.136105 -0.136283 -0.135647 -0.135876 -0.135738 
-0.135149 -0.135403 -0.135258 -0.134642 -0.134891 -0.134755 -0.134365 -0.12585 -0.125624 
-0.126245 -0.127006 -0.12342 -0.123142 -0.124021 -0.134973 -0.135065 -0.127583 -0.127927 
-0.127758 -0.122275 -0.0994257 -0.136919 -0.136857 -0.132541 -0.132106 -0.136734 -0.136625 
-0.136553 -0.131593 -0.130984 -0.132179 -0.133832 -0.133576 -0.134192 -0.133997 -0.134271 
-0.13456 -0.134369 -0.134616 -0.132501 -0.132876 -0.130262 -0.129455 -0.130929 -0.133186 
-0.133458 -0.133374 -0.123125 -0.124604 -0.123692 -0.134053 -0.13422 -0.131638 -0.132088 
-0.132641 -0.130402 -0.131051 -0.13162 -0.128816 -0.129631 -0.130221 -0.126878 -0.127797 
-0.128378 -0.125621 -0.125952 -0.124462 -0.122986 -0.123861 -0.122776 -0.133289 -0.132944 
-0.133104 -0.136997 -0.136973 -0.136734 -0.127799 -0.127592 -0.126906 -0.126196 -0.127086 
-0.127453 -0.127701 -0.126608 -0.0728131 -0.0636651 -0.123637 -0.124898 -0.125465 -0.119504 
-0.121481 -0.121296 -0.113752 -0.116835 -0.115991 -0.0898838 -0.0913009 -0.0892159 -0.0887811 
-0.0990274 -0.105106 -0.10981 -0.0977653 -0.0872233 -0.0876468 -0.0955143 -0.0948298 -0.0935048 
-0.0940917 -0.0999002 -0.087568 -0.0858025 -0.0894195 -0.0878191 -0.0943984 -0.0939858 -0.0920205 
-0.0972324 -0.0973395 -0.09602 -0.101692 -0.124778 -0.124967 -0.124184 -0.125233 -0.126193 
-0.123402 -0.136418 -0.136289 -0.136219 -0.136463 -0.136608 -0.136151 -0.128426 -0.127299 
-0.12915 -0.125552 -0.125461 -0.127281 -0.126381 -0.12743 -0.127585 -0.0704994 -0.0609948 
-0.125869 -0.125459 -0.127827 -0.125278 -0.124443 -0.127944 -0.0611916 -0.0588166 -0.0582768 
-0.0581532 -0.124164 -0.124708 -0.127418 -0.124842 -0.125253 -0.127234 -0.125273 -0.125195 
-0.12739 -0.123248 -0.123016 -0.124517 -0.123556 -0.127112 -0.125936 -0.052541 -0.125178 
-0.12529 -0.127712 -0.125639 -0.12614 -0.127267 -0.126512 -0.126693 -0.127883 -0.126666 
-0.126433 -0.128045 -0.10328 -0.136743 -0.136861 -0.13647 -0.108702 -0.101701 -0.100404 
-0.11201 -0.136965 -0.13702 -0.136805 -0.13597 -0.13623 -0.136098 -0.124927 -0.134795 
-0.121026 -0.125156 -0.124381 -0.125305 -0.125995 -0.122098 -0.128115 -0.127915 -0.127755 
-0.136716 -0.136143 -0.133811 -0.123706 -0.12444 -0.135037 -0.125218 -0.100338 -0.0919844 
-0.0928166 -0.133688 -0.133888 -0.133926 -0.134326 -0.126008 -0.123056 -0.124554 -0.126739 
-0.0896122 -0.097045 -0.0892898 -0.123848 -0.125208 -0.127302 -0.127289 -0.126312 -0.125626 
-0.122814 -0.125966 -0.125018 -0.108965 -0.126931 -0.127238 -0.127501 -0.124596 -0.122665 
-0.124437 -0.119953 -0.117087 -0.119336 -0.0876518 -0.0956858 -0.100119 -0.0990539 -0.104978 
-0.106944 -0.127621 -0.127191 -0.128358 -0.135795 -0.13546 -0.135206 -0.135952 -0.09457 
-0.0961356 -0.0999656 -0.128483 -0.103007 -0.135353 -0.135585 -0.128865 -0.12878 -0.126675 
-0.126905 -0.12803 -0.136537 -0.136486 -0.105267 -0.107451 -0.132873 -0.132352 -0.135013 
-0.134828 -0.135407 -0.134795 -0.134637 -0.135166 -0.131704 -0.132317 -0.133617 -0.13393 
-0.132817 -0.133239 -0.132917 -0.12571 -0.126559 -0.12766 -0.125878 -0.123692 -0.125662 
-0.127075 -0.126002 -0.126228 -0.127278 -0.126545 -0.131676 -0.130918 -0.132379 -0.125201 
-0.126684 -0.107493 -0.117999 -0.120697 -0.120661 -0.111463 -0.114841 -0.113939 -0.106097 
-0.128715 -0.129028 -0.128591 -0.109061 -0.10707 -0.104739 -0.102087 -0.1113 -0.101987 
-0.126635 -0.127395 -0.127994 -0.133666 -0.133249 -0.133432 -0.136575 -0.136553 -0.136292 
-0.130116 -0.130938 -0.131653 -0.135809 -0.135986 -0.135415 -0.12999 -0.128947 -0.128885 
-0.134473 -0.134174 -0.134335 -0.134985 -0.130364 -0.130263 -0.0652089 -0.12994 -0.12965 
-0.131972 -0.12923 -0.129329 -0.13126 -0.129623 -0.129536 -0.131171 -0.125916 -0.125848 
-0.126654 -0.127313 -0.128411 -0.128534 -0.134589 -0.134417 -0.134847 -0.128447 -0.128815 
-0.1289 -0.128704 -0.128953 -0.135097 -0.127562 -0.136027 -0.1358 -0.117513 -0.128472 
-0.128207 -0.136372 -0.136242 -0.135809 -0.114649 -0.110255 -0.127745 -0.12854 -0.128697 
-0.128331 -0.128428 -0.127818 -0.104323 -0.111637 -0.113007 -0.13419 -0.133804 -0.128026 
-0.128024 -0.128497 -0.129088 -0.113245 -0.127612 -0.129511 -0.129821 -0.131696 -0.135764 
-0.127674 -0.128126 -0.12745 -0.110166 -0.128831 -0.128314 -0.128041 -0.114719 -0.130787 
-0.124186 -0.121791 -0.128691 -0.128209 -0.134431 -0.128839 -0.130361 -0.128302 -0.126678 
-0.124605 -0.0631411 -0.109317 -0.102563 -0.134936 -0.129833 -0.135192 -0.135457 -0.105095 
-0.104584 -0.136471 -0.102557 -0.109358 -0.100226 -0.128597 -0.127942 -0.128742 -0.128486 
-0.128735 -0.136174 -0.136307 -0.135805 -0.128803 -0.0899595 -0.0668058 -0.0655613 -0.130767 
-0.128868 -0.104173 -0.110977 -0.128514 -0.101821 -0.0688666 -0.0690602 -0.109555 -0.12755 
-0.127294 -0.136151 -0.134115 -0.133756 -0.133108 -0.133608 -0.118342 -0.135547 -0.128043 
-0.134693 -0.133194 -0.132517 -0.13389 -0.118079 -0.136154 -0.133331 -0.132992 -0.134034 
-0.134391 -0.134918 -0.134216 -0.115966 -0.11705 -0.0575798 -0.0626137 -0.129415 -0.130529 
-0.128949 -0.106132 -0.126815 -0.126612 -0.124889 -0.135453 -0.135235 -0.131594 -0.132404 
-0.133072 -0.116745 -0.119504 -0.130709 -0.129759 -0.135527 -0.126678 -0.124284 -0.135926 
-0.135812 -0.122446 -0.124088 -0.122783 -0.118718 -0.115801 -0.135663 -0.135841 -0.134624 
-0.135028 -0.135181 -0.126008 -0.124233 -0.131458 -0.13226 -0.135933 -0.135918 -0.135485 
-0.134664 -0.135148 -0.133685 -0.132869 -0.134108 -0.125979 -0.127858 -0.127775 -0.128041 
-0.135338 -0.135538 -0.135147 -0.134814 -0.123575 -0.120361 -0.114212 -0.122801 -0.131286 
-0.0554484 -0.115404 -0.119723 -0.114887 -0.131988 -0.132759 -0.13317 -0.115255 -0.112674 
-0.128099 -0.128314 -0.126653 -0.0465013 -0.0450186 -0.122308 -0.132688 -0.133886 -0.123963 
-0.1275 -0.135376 -0.134417 -0.0635904 -0.0668687 -0.132858 -0.132408 -0.133952 -0.12182 
-0.135571 -0.134595 -0.134724 -0.134901 -0.134665 -0.134489 -0.0668856 -0.0695129 -0.133891 
-0.120007 -0.13488 -0.127748 -0.069176 -0.0713965 -0.134542 -0.07039 -0.0721798 -0.128796 
-0.0708088 -0.0725489 -0.133344 -0.172272 -0.133377 -0.133362 -0.133311 -0.133251 -0.133142 
-0.133005 -0.132848 -0.132684 -0.132489 -0.132246 -0.131991 -0.131747 -0.131487 -0.13122 
-0.130954 -0.130658 -0.130353 -0.130033 -0.129721 -0.129443 -0.129144 -0.128874 -0.128578 
-0.128299 -0.128105 -0.12795 -0.127778 -0.127779 -0.127907 -0.128083 -0.128339 -0.128827 
-0.129488 -0.130263 -0.13126 -0.132442 -0.13366 -0.134998 -0.136406 -0.137611 -0.138873 
-0.139677 -0.14005 -0.140081 -0.139684 -0.138857 -0.13771 -0.136037 -0.134266 -0.132278 
-0.130519 -0.128828 -0.127263 -0.125659 -0.124341 -0.122119 -0.121187 -0.120473 -0.119843 
-0.119213 -0.118664 -0.118207 -0.117749 -0.117393 -0.117068 -0.11675 -0.116472 -0.116179 
-0.115914 -0.115733 -0.115527 -0.115568 -0.115596 -0.115736 -0.116074 -0.116721 -0.117499 
-0.118608 -0.120179 -0.122476 -0.125128 -0.129318 -0.132842 -0.142411 -0.151499 -0.127839 
-0.12321 -0.115602 -0.214878 -0.198155 -0.133353 -0.133362 -0.22016 -0.151772 -0.144611 
-0.133038 -0.129042 -0.124786 -0.122146 -0.120041 -0.118547 -0.117519 -0.116734 -0.11619 
-0.115862 -0.115704 -0.115619 -0.115636 -0.115739 -0.115866 -0.11607 -0.116318 -0.116571 
-0.116869 -0.11719 -0.117523 -0.11791 -0.118311 -0.118804 -0.119314 -0.119914 -0.120572 
-0.121457 -0.122336 -0.123404 -0.124499 -0.125912 -0.127432 -0.128952 -0.130715 -0.132632 
-0.134454 -0.136018 -0.137552 -0.138757 -0.13955 -0.140044 -0.139998 -0.139605 -0.138876 
-0.137853 -0.136614 -0.135238 -0.133846 -0.132496 -0.131441 -0.130514 -0.129714 -0.129044 
-0.128497 -0.128138 -0.127913 -0.127785 -0.127763 -0.127812 -0.127929 -0.128084 -0.128268 
-0.12853 -0.128809 -0.129095 -0.129378 -0.129709 -0.130045 -0.130339 -0.13067 -0.130954 
-0.131232 -0.13151 -0.131779 -0.13201 -0.132253 -0.132462 -0.132659 -0.132834 -0.132989 
-0.133134 -0.133241 -0.133322 -0.133371 -0.133277 -0.1333 -0.133227 -0.133241 -0.133256 
-0.133346 -0.133502 -0.133765 -0.134076 -0.134453 -0.134872 -0.135301 -0.135763 -0.136239 
-0.136769 -0.137289 -0.137788 -0.138294 -0.138766 -0.139226 -0.139714 -0.140439 -0.14079 
-0.141096 -0.141296 -0.141468 -0.141601 -0.141672 -0.141708 -0.141664 -0.141589 -0.141445 
-0.141273 -0.141029 -0.140738 -0.140436 -0.140079 -0.139667 -0.139229 -0.138759 -0.138209 
-0.13772 -0.137228 -0.13671 -0.13618 -0.135709 -0.135236 -0.134788 -0.134367 -0.134027 
-0.133732 -0.133473 -0.133326 -0.13323 -0.140097 -0.0353192 -0.0436954 -0.052261 -0.0566085 
-0.0624104 -0.0628344 -0.066568 -0.0664544 -0.069524 -0.0689961 -0.0711474 -0.070448 -0.071751 
-0.0728524 -0.0708491 -0.0702658 -0.071772 -0.0691108 -0.0699142 -0.0671201 -0.0668422 -0.06353 
-0.0619187 -0.0583517 -0.0516653 -0.0388328 -0.0478667 -0.0698289 -0.0705733 -0.0635504 -0.0584093 
-0.0625118 -0.0429303 -0.0521953 -0.04253 -0.0703973 -0.0705165 -0.133293 -0.133366 -0.133314 
-0.133306 -0.0676939 -0.0679258 -0.0662627 -0.0616322 -0.06413 -0.0658142 -0.0705221 -0.063522 
-0.0615684 -0.0364592 -0.0712163 -0.0713858 -0.0722935 -0.0437173 -0.0422052 -0.0448259 -0.0686557 
-0.129115 -0.124505 -0.126927 -0.0579059 -0.0575188 -0.0525016 -0.0710785 -0.13343 -0.0581279 
-0.0701554 -0.0685624 -0.0565768 -0.143166 -0.140121 -0.136865 -0.0701817 -0.058908 -0.0566553 
-0.0528936 -0.0520752 -0.133374 -0.133353 -0.0513594 -0.0520517 -0.0527332 -0.134612 -0.0564545 
-0.0553493 -0.0538868 -0.0746681 -0.0862894 -0.0799789 -0.0866844 -0.0927856 -0.0834092 -0.0870711 
-0.1243 -0.122869 -0.123826 -0.124755 -0.124256 -0.121806 -0.121774 -0.120427 -0.0833387 
-0.0947882 -0.0964784 -0.0906487 -0.0826378 -0.136247 -0.136376 -0.13606 -0.124878 -0.124836 
-0.125421 -0.0718149 -0.0794605 -0.0804476 -0.12571 -0.125722 -0.126187 -0.136056 -0.136106 
-0.136373 -0.137852 -0.137531 -0.137704 -0.137399 -0.133699 -0.133579 -0.133363 -0.130317 
-0.129997 -0.129941 -0.137027 -0.137203 -0.136818 -0.136982 -0.125506 -0.123552 -0.129158 
-0.128816 -0.138012 -0.13752 -0.137253 -0.137374 -0.13712 -0.136197 -0.136392 -0.136195 
-0.136391 -0.123148 -0.121388 -0.121999 -0.13297 -0.132536 -0.132733 -0.132315 -0.127843 
-0.127096 -0.128645 -0.127806 -0.13421 -0.133934 -0.134377 -0.108456 -0.110322 -0.10271 
-0.104403 -0.136407 -0.136807 -0.136751 -0.137147 -0.00769231 -0.137727 -0.138134 -0.133262 
-0.133307 -0.133159 -0.133208 -0.124095 -0.124158 -0.124346 -0.135125 -0.135537 -0.135026 
-0.135426 -0.13523 -0.124337 -0.124537 -0.123735 -0.138608 -0.137997 -0.138191 -0.137823 
-0.138059 -0.121439 -0.120099 -0.120692 -0.119247 -0.127682 -0.131503 -0.122204 -0.12644 
-0.0686101 -0.078227 -0.0862492 -0.135968 -0.135785 -0.136129 -0.119217 -0.13853 -0.138819 
-0.138605 -0.138495 -0.136344 -0.136584 -0.136329 -0.0986543 -0.099279 -0.104499 -0.136834 
-0.136818 -0.135414 -0.135051 -0.135675 -0.135299 -0.135746 -0.131639 -0.131421 -0.1318 
-0.126117 -0.125389 -0.125753 -0.134906 -0.118162 -0.118305 -0.12075 -0.121095 -0.0369924 
-0.0463855 -0.0469844 -0.0564278 -0.129207 -0.128955 -0.128915 -0.137251 -0.135656 -0.136573 
-0.135448 -0.135119 -0.138222 -0.138399 -0.131484 -0.132406 -0.130624 -0.127453 -0.12661 
-0.127776 -0.126858 -0.0961609 -0.102236 -0.0971979 -0.136478 -0.136741 -0.122919 -0.119824 
-0.154839 -0.136816 -0.13642 -0.136844 -0.0763438 -0.102919 -0.107044 -0.0993687 -0.130707 
-0.130277 -0.130964 -0.130516 -0.133067 -0.133227 -0.133087 -0.128784 -0.129805 -0.12724 
-0.128427 -0.133276 -0.133144 -0.133387 -0.0752469 -0.0845827 -0.0756753 -0.13255 -0.132695 
-0.132861 -0.133006 -0.113217 -0.111121 -0.128612 -0.129068 -0.126696 -0.135737 -0.136076 
-0.135485 -0.135828 -0.0128313 -0.0230475 -0.0158662 -0.115695 -0.117056 -0.118406 -0.13039 
-0.130172 -0.130019 -0.104059 -0.109326 -0.114266 -0.111238 -0.116708 -0.118712 -0.113788 
-0.125911 -0.12651 -0.12595 -0.126517 -0.125345 -0.126021 -0.124157 -0.125289 -0.12499 
-0.125694 -0.12449 -0.125444 -0.124159 -0.134987 -0.134192 -0.133209 -0.119137 -0.119068 
-0.122551 -0.122636 -0.00950905 -0.122252 -0.123688 -0.122395 -0.123875 -0.137113 -0.137293 
-0.136976 -0.133169 -0.133413 -0.133198 -0.12027 -0.116762 -0.122061 -0.118508 -0.104789 
-0.110591 -0.114425 -0.127398 -0.0878267 -0.102413 -0.0990044 -0.102943 -0.0934417 -0.128883 
-0.128854 -0.129101 -0.127539 -0.127319 -0.128043 -0.124791 -0.125335 -0.123758 -0.1392 
-0.139352 -0.139775 -0.125949 -0.12593 -0.126982 -0.126371 -0.133893 -0.134257 -0.132294 
-0.0379644 -0.0267675 -0.0359618 -0.13601 -0.134302 -0.135347 -0.13627 -0.136663 -0.136351 
-0.139574 -0.125009 -0.125237 -0.124305 -0.1244 -0.123232 -0.124354 -0.124338 -0.125434 
-0.121894 -0.122147 -0.12363 -0.123728 -0.120512 -0.120834 -0.122389 -0.129422 -0.128841 
-0.12777 -0.123178 -0.120694 -0.121945 -0.117952 -0.120289 -0.129779 -0.129528 -0.136875 
-0.136984 -0.136977 -0.137097 -0.134263 -0.111517 -0.121937 -0.142927 -0.122108 -0.120798 
-0.122734 -0.12397 -0.124348 -0.129511 -0.129765 -0.12994 -0.130239 -0.121965 -0.123719 
-0.122016 -0.135198 -0.133056 -0.119166 -0.115403 -0.119413 -0.150344 -0.151296 -0.141753 
-0.146161 -0.110779 -0.103279 -0.108211 -0.134754 -0.13504 -0.134543 -0.13482 -0.0307392 
-0.0381213 -0.038461 -0.0461783 -0.136862 -0.134316 -0.134713 -0.134418 -0.128233 -0.125067 
-0.123821 -0.124296 -0.136321 -0.13663 -0.112707 -0.109914 -0.105439 -0.101845 -0.13314 
-0.133998 -0.126751 -0.0857142 -0.119391 -0.10473 -0.123591 -0.124707 -0.123589 -0.137078 
-0.136822 -0.137235 -0.0134165 -0.0103185 -0.117727 -0.115634 -0.117516 -0.00734912 -0.0161187 
-0.0342175 -0.03307 -0.042406 -0.116705 -0.117294 -0.0140111 -0.00880159 -0.0190241 -0.0693518 
-0.0777818 -0.0729208 -0.0809721 -0.140004 -0.139592 -0.139346 -0.119112 -0.115928 -0.117996 
-0.115479 -0.0784398 -0.0781755 -0.0877064 -0.0873458 -0.117039 -0.121019 -0.121612 -0.122008 
-0.122618 -0.133331 -0.121177 -0.122436 -0.118021 -0.148065 -0.0739286 -0.119088 -0.116508 
-0.120631 -0.124234 -0.0752157 -0.133406 -0.0805143 -0.0820043 -0.0879588 -0.0131615 -0.0678689 
-0.0592708 -0.0595062 -0.0505009 -0.133155 -0.132993 -0.133342 -0.133173 -0.129095 -0.129286 
-0.0695485 -0.132933 -0.0852409 -0.0798763 -0.0751072 -0.136507 -0.136322 -0.136198 -0.123155 
-0.123164 -0.121664 -0.123762 -0.122733 -0.124604 -0.123859 -0.0873812 -0.0835318 -0.0782511 
-0.118036 -0.118601 -0.119517 -0.14068 -0.145346 -0.139594 -0.142817 -0.106694 -0.0796651 
-0.0932276 -0.0756674 -0.0837555 -0.0762572 -0.0877886 -0.125601 -0.124935 -0.125105 -0.133361 
-0.116216 -0.129598 -0.116654 -0.116567 -0.116586 -0.141029 -0.153727 -0.130588 -0.147878 
-0.123697 -0.123314 -0.123725 -0.129221 -0.128966 -0.128308 -0.118826 -0.052056 -0.0509842 
-0.0604993 -0.125356 -0.125476 -0.124475 -0.129811 -0.129722 -0.12952 -0.127087 -0.127893 
-0.126599 -0.137482 -0.137403 -0.137669 -0.137572 -0.132658 -0.132477 -0.132182 -0.136458 
-0.127949 -0.128191 -0.127415 -0.127809 -0.127036 -0.1345 -0.134433 -0.134171 -0.131733 
-0.131663 -0.132014 -0.131941 -0.13398 -0.13429 -0.134043 -0.10264 -0.0962256 -0.101338 
-0.138942 -0.116814 -0.118364 -0.118488 -0.0234104 -0.0154818 -0.0147011 -0.134635 -0.134997 
-0.13435 -0.134716 -0.124187 -0.124657 -0.124771 -0.125319 -0.134832 -0.134552 -0.134672 
-0.137871 -0.117565 -0.134593 -0.134928 -0.134117 -0.133828 -0.133584 -0.133302 -0.133659 
-0.133934 -0.133415 -0.133684 -0.13733 -0.137981 -0.138661 -0.134835 -0.134552 -0.135388 
-0.135282 -0.135628 -0.128614 -0.128868 -0.128964 -0.12463 -0.123823 -0.124732 -0.123081 
-0.124543 -0.125558 -0.126922 -0.127032 -0.125892 -0.126514 -0.118495 -0.0204476 -0.0141112 
-0.122552 -0.121235 -0.120865 -0.128055 -0.127014 -0.127123 -0.123682 -0.124671 -0.123624 
-0.135007 -0.13509 -0.00848945 -0.01425 -0.00758206 -0.129398 -0.12844 -0.129754 -0.131774 
-0.13196 -0.132196 -0.12503 -0.123676 -0.124139 -0.122856 -0.13424 -0.13398 -0.126014 
-0.127082 -0.125835 -0.130301 -0.129979 -0.135115 -0.134428 -0.134724 -0.134613 -0.13802 
-0.135112 -0.135934 -0.122477 -0.123344 -0.122202 -0.126127 -0.125824 -0.124999 -0.126243 
-0.126789 -0.127317 -0.127985 -0.134835 -0.134258 -0.13457 -0.134209 -0.134513 -0.132338 
-0.132538 -0.132751 -0.0774524 -0.0759652 -0.0852357 -0.124884 -0.124886 -0.123282 -0.117255 
-0.119139 -0.127666 -0.128466 -0.12743 -0.128172 -0.190196 -0.129202 -0.128655 -0.128839 
-0.1324 -0.132536 -0.132355 -0.135315 -0.135597 -0.135704 -0.0852369 -0.0817137 -0.136946 
-0.1239 -0.123884 -0.123496 -0.133031 -0.133391 -0.131762 -0.13197 -0.13176 -0.132576 
-0.132418 -0.128016 -0.126218 -0.128111 -0.112128 -0.109982 -0.116545 -0.00725595 -0.0615905 
-0.0704446 -0.131206 -0.132188 -0.130389 -0.131343 -0.132363 -0.132155 -0.13201 -0.131809 
-0.123039 -0.122984 -0.131314 -0.131087 -0.131018 -0.129545 -0.129383 -0.129979 -0.134534 
-0.134202 -0.0496905 -0.0415054 -0.138469 -0.138158 -0.138569 -0.138235 -0.133374 -0.133397 
-0.133333 -0.133332 -0.0434428 -0.05654 -0.0618893 -0.126997 -0.126761 -0.126688 -0.126441 
-0.133294 -0.133182 -0.133105 -0.132996 -0.125253 -0.124563 -0.125272 -0.122156 -0.12151 
-0.11843 -0.117837 -0.139742 -0.139146 -0.139767 -0.139204 -0.0767897 -0.127724 -0.127516 
-0.127987 -0.127766 -0.120931 -0.121274 -0.123496 -0.123603 -0.122943 -0.13725 -0.137227 
-0.121137 -0.123586 -0.123496 -0.125682 -0.132461 -0.132618 -0.131456 -0.133351 -0.133313 
-0.133351 -0.0883593 -0.0947907 -0.0574188 -0.0715055 -0.0671543 -0.123743 -0.12277 -0.115218 
-0.0940613 -0.141092 -0.127563 -0.138484 -0.13643 -0.139133 -0.128352 -0.127522 -0.129892 
-0.129185 -0.129441 -0.129834 -0.13004 -0.122557 -0.120906 -0.122749 -0.126833 -0.127052 
-0.14384 -0.124286 -0.130484 -0.119078 -0.134295 -0.134027 -0.134041 -0.125728 -0.123038 
-0.1287 -0.128677 -0.128361 -0.128222 -0.132368 -0.130794 -0.132797 -0.131187 -0.137384 
-0.137665 -0.127339 -0.127268 -0.127454 -0.127359 -0.12695 -0.126758 -0.0309384 -0.0386157 
-0.0306621 -0.0960551 -0.0896028 -0.0845273 -0.0780223 -0.0847582 -0.104961 -0.126879 -0.128307 
-0.128324 -0.133778 -0.134001 -0.13391 -0.134159 -0.00872962 -0.1238 -0.124007 -0.131742 
-0.130439 -0.121569 -0.119102 -0.120746 -0.123132 -0.123741 -0.123605 -0.11989 -0.0570025 
-0.0480742 -0.0589473 -0.0757489 -0.100467 -0.0940408 -0.122901 -0.117519 -0.122725 -0.118442 
-0.162075 -0.086492 -0.133145 -0.0511695 -0.0425677 -0.0525345 -0.0767554 -0.0777318 -0.0844526 
-0.12399 -0.12032 -0.122975 -0.0672434 -0.133484 -0.0495044 -0.0490319 -0.057893 -0.0200819 
-0.0206515 -0.0693023 -0.0697074 -0.0780592 -0.124988 -0.125749 -0.126029 -0.133196 -0.13181 
-0.131994 -0.127448 -0.128131 -0.128103 -0.00768669 -0.0316369 -0.023224 -0.0322381 -0.123781 
-0.118201 -0.124746 -0.0336365 -0.0421699 -0.042222 -0.027507 -0.0185675 -0.0387549 -0.0289529 
-0.12026 -0.121452 -0.120169 -0.136534 -0.0581025 -0.134493 -0.132596 -0.080979 -0.0743935 
-0.0898686 -0.134085 -0.133887 -0.133524 -0.133331 -0.138988 -0.139926 -0.128646 -0.12885 
-0.129134 -0.0178808 -0.0658646 -0.0748324 -0.0671635 -0.0924079 -0.12825 -0.130099 -0.129833 
-0.0839425 -0.0765523 -0.0787943 -0.0756956 -0.123585 -0.11684 -0.12332 -0.130042 -0.1307 
-0.101101 -0.0948102 -0.102776 -0.0780696 -0.0695903 -0.06552 -0.11463 -0.043485 -0.0470632 
-0.0545005 -0.115255 -0.116772 -0.1197 -0.120868 -0.0881913 -0.124033 -0.123651 -0.1255 
-0.107475 -0.106252 -0.111965 -0.113952 -0.110298 -0.115429 -0.0749825 -0.0940373 -0.0945617 
-0.0877008 -0.1043 -0.0467791 -0.0387816 -0.0473613 -0.102437 -0.105241 -0.106978 -0.109348 
-0.0976714 -0.0912836 -0.0998154 -0.112938 -0.116887 -0.110692 -0.110287 -0.105236 -0.105015 
-0.0736113 -0.0873463 -0.0743 -0.017427 -0.013269 -0.0242948 -0.13347 -0.121471 -0.120063 
-0.122034 -0.120759 -0.124136 -0.129195 -0.132148 -0.135486 -0.135703 -0.13518 -0.134769 
-0.13509 -0.115761 -0.119459 -0.114175 -0.117778 -0.133931 -0.13359 -0.133831 -0.0794772 
-0.0883508 -0.0842122 -0.0852441 -0.0742886 -0.128486 -0.128969 -0.135684 -0.135895 -0.124095 
-0.121695 -0.139637 -0.139157 -0.139724 -0.136276 -0.136083 -0.135916 -0.135734 -0.125356 
-0.125061 -0.136685 -0.136372 -0.136506 -0.135705 -0.135369 -0.135752 -0.0863405 -0.0888682 
-0.120377 -0.123024 -0.122368 -0.139664 -0.14025 -0.140138 -0.137925 -0.138273 -0.113851 
-0.108302 -0.109883 -0.134547 -0.134142 -0.134837 -0.134435 -0.134937 -0.137182 -0.137333 
-0.137296 -0.137461 -0.138025 -0.131685 -0.132504 -0.132422 -0.132959 -0.12531 -0.124683 
-0.123851 -0.135201 -0.115972 -0.124719 -0.124863 -0.124127 -0.120738 -0.122225 -0.122103 
-0.123552 -0.1297 -0.119979 -0.125156 -0.126586 -0.126668 -0.12701 -0.121179 -0.0858864 
-0.09292 -0.124271 -0.125812 -0.125305 -0.123153 -0.121886 -0.122429 -0.138037 -0.13803 
-0.138372 -0.135291 -0.13555 -0.136445 -0.136179 -0.136562 -0.133544 -0.133323 -0.133075 
-0.132866 -0.121189 -0.121326 -0.123141 -0.0325533 -0.0332229 -0.00796307 -0.0307182 -0.0385841 
-0.0309624 -0.123979 -0.124341 -0.0527488 -0.0369656 -0.0488485 -0.127862 -0.119485 -0.119731 
-0.11628 -0.11561 -0.119551 -0.125044 -0.128022 -0.128795 -0.133299 -0.133729 -0.133451 
-0.133892 -0.123862 -0.124164 -0.136048 -0.136086 -0.135739 -0.137986 -0.137712 -0.131413 
-0.131781 -0.131588 -0.131652 -0.132198 -0.132554 -0.132382 -0.131994 -0.0934155 -0.101692 
-0.0992368 -0.106965 -0.00708086 -0.00820283 -0.0154568 -0.135506 -0.124941 -0.125556 -0.125537 
-0.124833 -0.122572 -0.12231 -0.124418 -0.13849 -0.138792 -0.138239 -0.135769 -0.0988336 
-0.0987881 -0.0926665 -0.00842709 -0.14242 -0.145714 -0.143769 -0.133004 -0.132829 -0.132866 
-0.126349 -0.126177 -0.124032 -0.122935 -0.124239 -0.123184 -0.00769801 -0.00855621 -0.0160405 
-0.131513 -0.132092 -0.131494 -0.131491 -0.132748 -0.110233 -0.11484 -0.107473 -0.113074 
-0.124204 -0.12347 -0.123878 -0.121488 -0.122127 -0.122959 -0.123951 -0.123875 -0.124824 
-0.134308 -0.134799 -0.134577 -0.19036 -0.122738 -0.16609 -0.123648 -0.0111019 -0.0239268 
-0.126623 -0.126484 -0.127215 -0.126131 -0.122819 -0.119782 -0.121818 -0.118724 -0.128518 
-0.128278 -0.137832 -0.138184 -0.13837 -0.117809 -0.0201355 -0.0425615 -0.0498266 -0.12703 
-0.127474 -0.115482 -0.111445 -0.116213 -0.126521 -0.126816 -0.128137 -0.127855 -0.124607 
-0.124795 -0.128883 -0.135704 -0.135418 -0.135352 -0.135065 -0.0997678 -0.0910189 -0.0981856 
-0.121963 -0.122284 -0.12604 -0.125941 -0.125328 -0.125232 -0.0543023 -0.0541041 -0.0625259 
-0.062418 -0.0382572 -0.018023 -0.128243 -0.127891 -0.125438 -0.124437 -0.125492 -0.0254401 
-0.0343354 -0.0872428 -0.0805619 -0.0935244 -0.135124 -0.110796 -0.148489 -0.127226 -0.127767 
-0.122393 -0.117538 -0.124367 -0.0673091 -0.0729168 -0.118123 -0.115731 -0.119861 -0.132637 
-0.132428 -0.0769134 -0.0847897 -0.0677725 -0.0761731 -0.112893 -0.101207 -0.106199 -0.0950096 
-0.0870486 -0.0294712 -0.133535 -0.133128 -0.124818 -0.122114 -0.120703 -0.11808 -0.124322 
-0.123174 -0.129852 -0.129094 -0.128679 -0.120119 -0.132123 -0.132382 -0.0243194 -0.123612 
-0.122047 -0.132425 -0.132299 -0.131938 -0.125792 -0.132588 -0.132274 -0.138751 -0.138805 
-0.0313703 -0.0226923 -0.119435 -0.116732 -0.118242 -0.107065 -0.123341 -0.122805 -0.125611 
-0.123253 -0.15168 -0.15357 -0.162474 -0.102197 -0.0925625 -0.13151 -0.13149 -0.0793031 
-0.0829099 -0.0870847 -0.137057 -0.127553 -0.130687 -0.131525 -0.130635 -0.139467 -0.138758 
-0.138634 -0.137808 -0.121511 -0.0984094 -0.0898457 -0.127505 -0.126974 -0.107627 -0.108967 
-0.112481 -0.11364 -0.127352 -0.115959 -0.11106 -0.118023 -0.105338 -0.103862 -0.0979322 
-0.073523 -0.063442 -0.0718193 -0.062026 -0.131977 -0.146426 -0.132332 -0.128137 -0.131787 
-0.0822992 -0.0735564 -0.0809836 -0.130674 -0.119378 -0.119917 -0.116198 -0.117441 -0.116052 
-0.133492 -0.133693 -0.0466785 -0.0387466 -0.130197 -0.130339 -0.129852 -0.13475 -0.135882 
-0.135124 -0.113847 -0.11668 -0.112055 -0.140532 -0.139797 -0.140698 -0.13999 -0.121375 
-0.122489 -0.0657917 -0.0749653 -0.0704921 -0.0701579 -0.0639835 -0.0634705 -0.1359 -0.135462 
-0.130582 -0.130651 -0.138358 -0.13874 -0.138783 -0.131922 -0.0716456 -0.0662981 -0.0832234 
-0.0782805 -0.136897 -0.135632 -0.13587 -0.135522 -0.00883379 -0.137119 -0.0954575 -0.111066 
-0.116448 -0.0296459 -0.0468137 -0.101863 -0.0957949 -0.101428 -0.0757508 -0.0952089 -0.0837455 
-0.0292958 -0.140834 -0.13632 -0.136557 -0.136692 -0.109964 -0.114175 -0.0136121 -0.131463 
-0.12343 -0.12235 -0.124212 -0.083151 -0.125687 -0.125794 -0.126776 -0.128974 -0.127828 
-0.128608 -0.0916035 -0.138343 -0.128694 -0.123198 -0.124283 -0.118772 -0.118518 -0.120408 
-0.124746 -0.137642 -0.137191 -0.137273 -0.129807 -0.125348 -0.126489 -0.0756757 -0.133688 
-0.016816 -0.0798438 -0.0868261 -0.0871037 -0.0928201 -0.138968 -0.139316 -0.138764 -0.0976599 
-0.097991 -0.131287 -0.122701 -0.132067 -0.132799 -0.121799 -0.122435 -0.122937 -0.123448 
-0.133033 -0.132848 -0.13799 -0.133208 -0.133445 -0.133059 -0.133278 -0.0176111 -0.0243419 
-0.133611 -0.13335 -0.0783652 -0.125971 -0.124438 -0.125556 -0.123606 -0.124186 -0.128892 
-0.128592 -0.128182 -0.127589 -0.132719 -0.132924 -0.133123 -0.133831 -0.133274 -0.125489 
-0.125606 -0.124381 -0.126943 -0.137737 -0.136884 -0.136455 -0.0697295 -0.0784974 -0.0629237 
-0.0721133 -0.120551 -0.121864 -0.121881 -0.123906 -0.123874 -0.124155 -0.121562 -0.123876 
-0.123042 -0.129832 -0.129931 -0.124694 -0.122117 -0.135525 -0.133847 -0.139514 -0.142546 
-0.134593 -0.134624 -0.134195 -0.13445 -0.0287191 -0.0390225 -0.0404325 -0.133628 -0.133631 
-0.133838 -0.136164 -0.139229 -0.135842 -0.132739 -0.13292 -0.13221 -0.137206 -0.139591 
-0.103355 -0.0848421 -0.117733 -0.125253 -0.12029 -0.124523 -0.128615 -0.129359 -0.129047 
-0.0934737 -0.0866151 -0.0876501 -0.016277 -0.0920393 -0.0854453 -0.124815 -0.126346 -0.126516 
-0.0634076 -0.0596684 -0.0740744 -0.0442511 -0.132855 -0.133057 -0.128357 -0.128884 -0.128487 
-0.0539012 -0.103503 -0.0903763 -0.0895403 -0.0829219 -0.0817259 -0.0958224 -0.0882315 -0.0875361 
-0.0746943 -0.0851869 -0.0773898 -0.133847 -0.133461 -0.0760581 -0.120662 -0.0235794 -0.118042 
-0.117292 -0.1212 -0.134549 -0.126069 -0.126136 -0.125395 -0.0900438 -0.0978168 -0.0838509 
-0.0918165 -0.117833 -0.116698 -0.134045 -0.123152 -0.124315 -0.123224 -0.124301 -0.126205 
-0.125245 -0.123303 -0.134828 -0.135128 -0.134919 -0.134731 -0.111158 -0.105808 -0.122787 
-0.122563 -0.12233 -0.136709 -0.137171 -0.137028 -0.133804 -0.132543 -0.133739 -0.121777 
-0.134786 -0.124125 -0.0266123 -0.0357491 -0.124012 -0.123967 -0.124289 -0.137363 -0.125437 
-0.121642 -0.120298 -0.120129 -0.117992 -0.130877 -0.130225 -0.130824 -0.14924 -0.155158 
-0.151441 -0.13552 -0.135497 -0.134894 -0.136789 -0.136521 -0.136795 -0.0744187 -0.0984845 
-0.0923112 -0.10067 -0.132055 -0.130423 -0.0871177 -0.0751825 -0.0798654 -0.0928434 -0.0987334 
-0.0915745 -0.12357 -0.124195 -0.125223 -0.13573 -0.135428 -0.135116 -0.131028 -0.111807 
-0.116183 -0.115274 -0.121813 -0.119268 -0.128325 -0.128712 -0.128821 -0.128405 -0.0751623 
-0.0881843 -0.124992 -0.125753 -0.121088 -0.119668 -0.13 -0.122168 -0.119889 -0.119347 
-0.116343 -0.144845 -0.133839 -0.138999 -0.133081 -0.0941981 -0.0939685 -0.116852 -0.131239 
-0.12485 -0.131507 -0.126603 -0.126903 -0.129218 -0.131069 -0.131043 -0.118771 -0.133974 
-0.13316 -0.133873 -0.134185 -0.134193 -0.134616 -0.12447 -0.0223753 -0.122027 -0.122856 
-0.121676 -0.132244 -0.123578 -0.125704 -0.126212 -0.126789 -0.125478 -0.125708 -0.240014 
-0.130043 -0.129637 -0.129814 -0.172726 -0.13151 -0.131639 -0.131253 -0.12717 -0.127789 
-0.12806 -0.138317 -0.128676 -0.127452 -0.128348 -0.0161525 -0.0224257 -0.141681 -0.110142 
-0.142037 -0.113248 -0.103198 -0.0955904 -0.109967 -0.103282 -0.097009 -0.0999999 -0.0904126 
-0.121935 -0.115114 -0.0312355 -0.119806 -0.120163 -0.131847 -0.0612269 -0.0692337 -0.122858 
-0.125619 -0.125802 -0.126282 -0.12645 -0.08617 -0.105167 -0.121854 -0.137646 -0.138674 
-0.137315 -0.128932 -0.12888 -0.129195 -0.0962405 -0.103401 -0.0758891 -0.0754017 -0.112458 
-0.117481 -0.114442 -0.132693 -0.132524 -0.129933 -0.129715 -0.12956 -0.134199 -0.133948 
-0.132722 -0.132875 -0.133107 -0.139066 -0.13941 -0.138742 -0.104034 -0.104482 -0.109466 
-0.122005 -0.125527 -0.12765 -0.125055 -0.12722 -0.124962 -0.125379 -0.123913 -0.120764 
-0.118935 -0.120079 -0.118037 -0.118582 -0.112966 -0.106911 -0.128024 -0.129867 -0.127426 
-0.127029 -0.128312 -0.130499 -0.130862 -0.13063 -0.130993 -0.129236 -0.129513 -0.130902 
-0.127656 -0.1279 -0.130479 -0.130586 -0.130226 -0.0956527 -0.0880939 -0.0946992 -0.125427 
-0.126372 -0.147087 -0.143489 -0.136536 -0.136808 -0.136672 -0.107544 -0.117673 -0.114825 
-0.132478 -0.121531 -0.11848 -0.118921 -0.128057 -0.0819277 -0.0286884 -0.136543 -0.136414 
-0.136688 -0.136975 -0.136818 -0.137146 -0.121959 -0.120729 -0.127799 -0.128 -0.127389 
-0.127346 -0.127647 -0.127663 -0.102558 -0.101315 -0.0929502 -0.133719 -0.13632 -0.121527 
-0.122334 -0.121782 -0.131222 -0.127864 -0.129526 -0.123809 -0.123718 -0.137516 -0.135987 
-0.0788382 -0.134718 -0.134058 -0.134214 -0.135319 -0.135005 -0.13198 -0.131503 -0.130969 
-0.133368 -0.137239 -0.137477 -0.137258 -0.126463 -0.126755 -0.127664 -0.1255 -0.126971 
-0.125484 -0.126085 -0.0736235 -0.138628 -0.137568 -0.13727 -0.0747089 -0.0750244 -0.127964 
-0.121999 -0.122675 -0.121373 -0.119237 -0.120181 -0.0658232 -0.0642666 -0.105674 -0.0996963 
-0.100855 -0.0928001 -0.0938247 -0.130298 -0.131083 -0.136478 -0.134362 -0.135089 -0.0128383 
-0.124814 -0.135449 -0.135293 -0.132416 -0.133775 -0.131046 -0.130628 -0.130532 -0.100917 
-0.107429 -0.100192 -0.106233 -0.137613 -0.135036 -0.12715 -0.120415 -0.121105 -0.121414 
-0.130451 -0.128866 -0.120752 -0.0884845 -0.0826549 -0.0811006 -0.128484 -0.128503 -0.0879677 
-0.0960474 -0.095538 -0.116858 -0.118497 -0.130342 -0.132501 -0.132335 -0.132172 -0.105826 
-0.126152 -0.127102 -0.12865 -0.0952182 -0.120614 -0.121565 -0.121035 -0.122025 -0.121852 
-0.133716 -0.12627 -0.136924 -0.12466 -0.10525 -0.118883 -0.121653 -0.11922 -0.229759 
-0.133603 -0.133908 -0.133807 -0.129148 -0.129054 -0.131049 -0.134796 -0.135427 -0.127639 
-0.129425 -0.126454 -0.134909 -0.135084 -0.134628 -0.129707 -0.128997 -0.125895 -0.131347 
-0.130988 -0.132656 -0.132142 -0.126708 -0.128373 -0.12479 -0.126784 -0.243918 -0.121245 
-0.120904 -0.121969 -0.122813 -0.128857 -0.128517 -0.128741 -0.131752 -0.13142 -0.122705 
-0.136673 -0.129343 -0.13428 -0.123026 -0.122353 -0.123471 -0.135252 -0.134917 -0.135614 
-0.135253 -0.135382 -0.13509 -0.135462 -0.136094 -0.136368 -0.13665 -0.136775 -0.136431 
-0.136361 -0.12677 -0.125307 -0.12049 -0.1188 -0.132681 -0.132841 -0.136156 -0.13314 
-0.126643 -0.128177 -0.126181 -0.127813 -0.125653 -0.125848 -0.126979 -0.122918 -0.126951 
-0.125419 -0.124501 -0.112259 -0.10834 -0.117868 -0.114461 -0.125357 -0.123633 -0.128219 
-0.119886 -0.121884 -0.120884 -0.119875 -0.135961 -0.135925 -0.127024 -0.124462 -0.121739 
-0.12179 -0.122617 -0.117229 -0.125174 -0.132904 -0.122716 -0.125523 -0.0166794 -0.00837979 
-0.00906122 -0.118339 -0.120595 -0.123348 -0.122062 -0.122808 -0.134438 -0.127117 -0.127314 
-0.129105 -0.136426 -0.13616 -0.123905 -0.128422 -0.128571 -0.134275 -0.13405 -0.134045 
-0.126424 -0.13188 -0.131932 -0.126698 -0.0174483 -0.00795685 -0.00746292 -0.120314 -0.117429 
-0.12004 -0.123787 -0.124272 -0.124026 -0.133172 -0.133206 -0.133255 -0.13332 -0.124451 
-0.124101 -0.137027 -0.137246 -0.120616 -0.136022 -0.135698 -0.124839 -0.135092 -0.109777 
-0.111828 -0.112816 -0.128455 -0.129022 -0.128329 -0.128682 -0.12393 -0.112911 -0.111849 
-0.135777 -0.135833 -0.135746 -0.136085 -0.134143 -0.128416 -0.128597 -0.128482 -0.128654 
-0.13335 -0.133635 -0.126755 -0.127021 -0.12666 -0.0808464 -0.0826111 -0.0891315 -0.121596 
-0.120044 -0.124185 -0.129884 -0.128962 -0.1245 -0.123484 -0.123744 -0.122687 -0.111676 
-0.115174 -0.139513 -0.138932 -0.13376 -0.134073 -0.125976 -0.111055 -0.123097 -0.122137 
-0.123638 -0.137723 -0.137462 -0.137739 -0.137493 -0.13776 -0.13787 -0.1264 -0.12898 
-0.131219 -0.138052 -0.137179 -0.125765 -0.122974 -0.125011 -0.0803203 -0.13007 -0.131988 
-0.132195 -0.121877 -0.120673 -0.122099 -0.127023 -0.132599 -0.118571 -0.131469 -0.131528 
-0.129777 -0.0780861 -0.0788743 -0.125507 -0.135972 -0.13571 -0.133905 -0.120682 -0.11931 
-0.126412 -0.127788 -0.0129058 -0.140117 -0.140227 -0.108554 -0.119431 -0.133 -0.0902243 
-0.128282 -0.127462 -0.136173 -0.135372 -0.132715 -0.128348 -0.127829 -0.0966415 -0.12555 
-0.13265 -0.132685 -0.12014 -0.121113 -0.126019 -0.127382 -0.12668 -0.132705 -0.132757 
-0.124819 -0.132167 -0.132192 -0.120718 -0.0950472 -0.102067 -0.0973667 -0.125551 -0.0334976 
-0.129044 -0.131317 -0.0744807 -0.0729209 -0.142238 -0.11444 -0.115351 -0.110285 -0.130744 
-0.131099 -0.130049 -0.132345 -0.131128 -0.136642 -0.134914 -0.123105 -0.13254 -0.131715 
-0.130894 -0.125328 -0.137189 -0.137043 -0.159181 -0.118474 -0.122392 -0.121802 -0.132533 
-0.132387 -0.131825 -0.131989 -0.13215 -0.127473 -0.132044 -0.125352 -0.120265 -0.12112 
-0.120079 -0.122159 -0.126148 -0.127468 -0.126632 -0.127858 -0.0247574 -0.0157848 -0.02452 
-0.138051 -0.137214 -0.119394 -0.117546 -0.117969 -0.0531514 -0.142662 -0.136848 -0.177123 
-0.0265701 -0.0165312 -0.0361631 -0.0259573 -0.0348997 -0.0439616 -0.11836 -0.129251 -0.12859 
-0.128929 -0.198846 -0.134104 -0.133634 -0.133882 -0.124747 -0.123627 -0.0629096 -0.127956 
-0.12825 -0.129228 -0.128132 -0.0803928 -0.0901864 -0.0511131 -0.0360515 -0.0473763 -0.161806 
-0.115895 -0.134073 -0.124291 -0.123149 -0.125157 -0.11842 -0.248392 -0.147175 -0.164145 
-0.132477 -0.197387 -0.0785167 -0.0880025 -0.135908 -0.135467 -0.126978 -0.122257 -0.236382 
-0.143499 -0.176298 -0.0283473 -0.122734 -0.121367 -0.133272 -0.0079575 -0.110916 -0.115663 
-0.11742 -0.118074 -0.120578 -0.133743 -0.133984 -0.138314 -0.138672 -0.0320066 -0.0321625 
-0.0139944 -0.00920753 -0.0250275 -0.136781 -0.137009 -0.13684 -0.123967 -0.0309541 -0.0225709 
-0.119485 -0.120778 -0.123685 -0.124097 -0.135443 -0.135837 -0.125983 -0.13449 -0.0836894 
-0.0908427 -0.0918804 -0.0984474 -0.0845719 -0.107464 -0.105354 -0.116993 -0.112208 -0.115429 
-0.12387 -0.124177 -0.125591 -0.120491 -0.118075 -0.118133 -0.124216 -0.123653 -0.124391 
-0.0652643 -0.136049 -0.13601 -0.121918 -0.121748 -0.118425 -0.118168 -0.122289 -0.122089 
-0.124622 -0.0551427 -0.0445484 -0.0460878 -0.121355 -0.117949 -0.119945 -0.117911 -0.119931 
-0.123275 -0.122986 -0.12399 -0.122869 -0.121469 -0.122396 -0.129406 -0.123381 -0.131105 
-0.117367 -0.120667 -0.131823 -0.134341 -0.134165 -0.128393 -0.130717 -0.130648 -0.131387 
-0.139387 -0.128765 -0.128939 -0.133118 -0.131367 -0.131126 -0.129346 -0.128662 -0.128758 
-0.128921 -0.0700752 -0.140301 -0.11805 -0.121709 -0.12168 -0.119978 -0.128571 -0.133559 
-0.133373 -0.120401 -0.118565 -0.120529 -0.093029 -0.0881252 -0.0835666 -0.0903101 -0.119076 
-0.133249 -0.0534675 -0.123516 -0.121184 -0.120093 -0.0438914 -0.0343696 -0.128024 -0.129083 
-0.0251985 -0.120247 -0.120303 -0.134184 -0.132836 -0.120321 -0.118394 -0.118227 -0.139754 
-0.140293 -0.138707 -0.137255 -0.133858 -0.119988 -0.138633 -0.123168 -0.122029 -0.132562 
-0.131968 -0.119097 -0.138668 -0.12424 -0.123282 -0.124147 -0.124254 -0.106549 -0.100853 
-0.124548 -0.123557 -0.129526 -0.129208 -0.130425 -0.121606 -0.125437 -0.0863985 -0.0987733 
-0.0972698 -0.0951281 -0.0994053 -0.0988311 -0.137721 -0.139011 -0.137632 -0.132587 -0.168211 
-0.0928165 -0.161626 -0.167502 -0.137197 -0.0572079 -0.0327172 -0.0433062 -0.0954552 -0.0109492 
-0.123733 -0.127721 -0.132504 -0.132301 -0.144765 -0.141374 -0.12802 -0.196006 -0.12773 
-0.136865 -0.137054 -0.0608978 -0.121527 -0.11218 -0.115826 -0.103622 -0.0744946 -0.113155 
-0.121535 -0.130592 -0.129558 -0.122911 -0.0749799 -0.130689 -0.130374 -0.130402 -0.12417 
-0.123567 -0.137788 -0.134726 -0.116657 -0.134253 -0.134057 -0.136842 -0.134732 -0.134605 
-0.134924 -0.136383 -0.136453 -0.123651 -0.126893 -0.135643 -0.128304 -0.123749 -0.129318 
-0.129675 -0.120367 -0.119294 -0.119451 -0.128211 -0.127722 -0.136089 -0.135932 -0.135529 
-0.124169 -0.138985 -0.138721 -0.128246 -0.128528 -0.128108 -0.128458 -0.12337 -0.137261 
-0.122681 -0.123657 -0.12291 -0.141049 -0.146446 -0.124345 -0.12468 -0.124396 -0.138364 
-0.138622 -0.123778 -0.123219 -0.123645 -0.118791 -0.116861 -0.1266 -0.13938 -0.123937 
-0.123714 -0.122537 -0.122619 -0.125454 -0.137746 -0.137529 -0.137953 -0.137719 -0.126798 
-0.12289 -0.123392 -0.122777 -0.124815 -0.133315 -0.133498 -0.133471 -0.133662 -0.124549 
-0.0742965 -0.0762769 -0.135114 -0.131267 -0.132759 -0.138035 -0.138375 -0.131031 -0.130709 
-0.140306 -0.137938 -0.13821 -0.133362 -0.133571 -0.134304 -0.135983 -0.136108 -0.130041 
-0.12575 -0.122645 -0.125508 -0.115051 -0.112236 -0.107615 -0.13004 -0.132992 -0.131926 
-0.127382 -0.131114 -0.13086 -0.131257 -0.139052 -0.14082 -0.121848 -0.12613 -0.119339 
-0.123359 -0.106805 -0.0980176 -0.125276 -0.125259 -0.126466 -0.127794 -0.128441 -0.128212 
-0.121045 -0.0410727 -0.0412076 -0.124684 -0.126764 -0.127176 -0.0554974 -0.0394122 -0.0472178 
-0.117581 -0.119416 -0.0490411 -0.0579736 -0.0895777 -0.116552 -0.120538 -0.121765 -0.144266 
-0.154906 -0.0608314 -0.135969 -0.135858 -0.135661 -0.124766 -0.122652 -0.111611 -0.117519 
-0.127336 -0.12812 -0.134004 -0.126947 -0.12853 -0.128788 -0.129243 -0.131152 -0.131206 
-0.143232 -0.117051 -0.122183 -0.118496 -0.133457 -0.124413 -0.134699 -0.134685 -0.129847 
-0.129167 -0.136932 -0.129621 -0.130095 -0.119985 -0.0152413 -0.139229 -0.124711 -0.123127 
-0.13345 -0.133421 -0.133511 -0.126676 -0.126374 -0.126219 -0.124953 -0.125063 -0.128985 
-0.123428 -0.125356 -0.131965 -0.135107 -0.139262 -0.129319 -0.120635 -0.132025 -0.119842 
-0.052698 -0.0615758 -0.0634726 -0.119371 -0.0502359 -0.0427633 -0.128517 -0.13275 -0.131616 
-0.140255 -0.140022 -0.126237 -0.132644 -0.130313 -0.130537 -0.0513555 -0.050666 -0.12716 
-0.123724 -0.0464164 -0.121665 -0.138886 -0.140307 -0.139468 -0.135703 -0.123799 -0.111002 
-0.121193 -0.129795 -0.123608 -0.129651 -0.129974 -0.13023 -0.137766 -0.138207 -0.137924 
-0.00917904 -0.134435 -0.133491 -0.133423 -0.133592 -0.133806 -0.133819 -0.118991 -0.127139 
-0.128048 -0.0461366 -0.0629409 -0.0713629 -0.122986 -0.0548088 -0.071064 -0.135435 -0.130073 
-0.136684 -0.137101 -0.136763 -0.125302 -0.124054 -0.127017 -0.105435 -0.10802 -0.129387 
-0.123447 -0.139322 -0.069141 -0.093826 -0.0944994 -0.0996548 -0.0993493 -0.123876 -0.120711 
-0.123314 -0.126482 -0.127264 -0.127004 -0.12477 -0.125288 -0.117977 -0.138584 -0.138161 
-0.135908 -0.121742 -0.122976 -0.135367 -0.135753 -0.135611 -0.129341 -0.137382 -0.137558 
-0.129078 -0.125477 -0.135178 -0.134375 -0.134291 -0.138362 -0.118072 -0.134304 -0.134972 
-0.135222 -0.133141 -0.133646 -0.140985 -0.139559 -0.133838 -0.134545 -0.132028 -0.134474 
-0.134034 -0.140328 -0.120553 -0.12734 -0.127134 -0.126804 -0.133849 -0.0589121 -0.06696 
-0.0397021 -0.0477248 -0.0481839 -0.131037 -0.125258 -0.12228 -0.0624498 -0.054407 -0.0547298 
-0.0464228 -0.143731 -0.147761 -0.134952 -0.0893835 -0.0965119 -0.0999256 -0.121876 -0.00867388 
-0.00719322 -0.134498 -0.133449 -0.133641 -0.135404 -0.09423 -0.106916 -0.105138 -0.0908151 
-0.134347 -0.133538 -0.125927 -0.124947 -0.130837 -0.129258 -0.128762 -0.0872697 -0.11672 
-0.112424 -0.117768 -0.113691 -0.128561 -0.129028 -0.109389 -0.00929766 -0.125952 -0.129273 
-0.12949 -0.0302418 -0.0315197 -0.118365 -0.119292 -0.12206 -0.125079 -0.136956 -0.136827 
-0.132804 -0.116215 -0.125215 -0.123728 -0.126037 -0.127294 -0.126912 -0.127977 -0.122853 
-0.0894489 -0.133873 -0.134119 -0.133186 -0.132275 -0.132746 -0.135711 -0.135456 -0.128773 
-0.124677 -0.128155 -0.128475 -0.127657 -0.123106 -0.126973 -0.125247 -0.127557 -0.127347 
-0.127773 -0.126843 -0.128116 -0.126947 -0.128507 -0.126023 -0.127069 -0.127714 -0.12763 
-0.12836 -0.0227252 -0.105721 -0.134309 -0.119786 -0.116548 -0.112776 -0.136574 -0.137326 
-0.137158 -0.137406 -0.127034 -0.0554783 -0.12069 -0.133324 -0.131559 -0.128238 -0.128686 
-0.139063 -0.128557 -0.133437 -0.124144 -0.123396 -0.0762448 -0.124514 -0.12516 -0.124623 
-0.125264 -0.120889 -0.126322 -0.0798584 -0.0793817 -0.119426 -0.117699 -0.121569 -0.0638108 
-0.080379 -0.0724155 -0.0877241 -0.133487 -0.133656 -0.1325 -0.138876 -0.138 -0.137722 
-0.118325 -0.135922 -0.135542 -0.134393 -0.128637 -0.12859 -0.128632 -0.122141 -0.137526 
-0.106087 -0.130669 -0.130245 -0.124978 -0.126298 -0.121928 -0.140047 -0.132907 -0.133012 
-0.132855 -0.126113 -0.126677 -0.122325 -0.111184 -0.140834 -0.131022 -0.130427 -0.131333 
-0.120655 -0.11912 -0.140935 -0.137336 -0.137146 -0.136293 -0.136585 -0.136452 -0.136733 
-0.118442 -0.1147 -0.113872 -0.122923 -0.127511 -0.124378 -0.119119 -0.137187 -0.127269 
-0.132387 -0.128373 -0.128507 -0.128526 -0.127946 -0.128001 -0.128679 -0.128678 -0.12864 
-0.110061 -0.122844 -0.141381 -0.11923 -0.121199 -0.12008 -0.117315 -0.13165 -0.107446 
-0.13223 -0.13217 -0.131411 -0.134079 -0.124614 -0.121595 -0.121581 -0.0965172 -0.107967 
-0.125662 -0.12561 -0.124634 -0.124759 -0.136926 -0.0340817 -0.103466 -0.137241 -0.12342 
-0.122326 -0.133514 -0.129451 -0.129192 -0.129149 -0.126391 -0.117767 -0.0943214 -0.0928398 
-0.107249 -0.118555 -0.125449 -0.0172832 -0.00944628 -0.116657 -0.137529 -0.159 -0.08732 
-0.0844424 -0.0988037 -0.120994 -0.106925 -0.108682 -0.0552452 -0.0561768 -0.142236 -0.19022 
-0.166495 -0.170151 -0.132685 -0.132819 -0.0480276 -0.130663 -0.115601 -0.125674 -0.137323 
-0.137494 -0.125129 -0.123827 -0.128282 -0.110917 -0.120879 -0.118708 -0.135315 -0.133419 
-0.134281 -0.129585 -0.102955 -0.128662 -0.128254 -0.129116 -0.129336 -0.120584 -0.129356 
-0.11696 -0.12171 -0.110177 -0.13304 -0.135129 -0.135444 -0.133573 -0.133495 -0.132806 
-0.13275 -0.159682 -0.134975 -0.132569 -0.119358 -0.132978 -0.132948 -0.132915 -0.132761 
-0.134654 -0.134802 -0.135059 -0.134241 -0.109569 -0.114653 -0.110809 -0.14169 -0.147828 
-0.148465 -0.123951 -0.129323 -0.137436 -0.137651 -0.12001 -0.128551 -0.128778 -0.130119 
-0.129547 -0.14476 -0.126055 -0.135162 -0.128639 -0.137698 -0.131445 -0.131216 -0.131197 
-0.130733 -0.128758 -0.123978 -0.132174 -0.130941 -0.0895158 -0.13062 -0.0954235 -0.120527 
-0.122254 -0.123836 -0.12885 -0.0123106 -0.00765361 -0.0158603 -0.122639 -0.137628 -0.137684 
-0.137944 -0.103161 -0.131358 -0.0770154 -0.0774081 -0.127312 -0.136773 -0.136438 -0.111084 
-0.0960932 -0.12829 -0.127393 -0.136217 -0.12834 -0.127638 -0.135982 -0.126777 -0.126364 
-0.125756 -0.126995 -0.0072567 -0.0785361 -0.131586 -0.0919007 -0.101328 -0.113993 -0.115498 
-0.14097 -0.145898 -0.0245511 -0.132978 -0.124155 -0.124042 -0.125253 -0.124065 -0.139669 
-0.0382445 -0.108603 -0.109319 -0.124547 -0.133765 -0.134806 -0.129923 -0.117988 -0.130075 
-0.130578 -0.131344 -0.0170432 -0.119964 -0.118024 -0.00728856 -0.0228992 -0.138475 -0.0372933 
-0.0406488 -0.109457 -0.113872 -0.133435 -0.128253 -0.138836 -0.136063 -0.13865 -0.138445 
-0.134205 -0.121689 -0.133051 -0.0220774 -0.0152507 -0.039479 -0.12165 -0.125265 -0.121268 
-0.103507 -0.0969641 -0.122847 -0.130642 -0.127813 -0.136296 -0.136198 -0.111594 -0.120449 
-0.120822 -0.133832 -0.131501 -0.131247 -0.123888 -0.131178 -0.131016 -0.160869 -0.00738329 
-0.0127651 -0.00773702 -0.136127 -0.13645 -0.0227516 -0.117355 -0.118333 -0.114014 -0.0403458 
-0.122519 -0.126008 -0.124564 -0.115101 -0.124728 -0.126113 -0.122854 -0.124535 -0.113933 
-0.129062 -0.130901 -0.140902 -0.142915 -0.135392 -0.127555 -0.127035 -0.126711 -0.0239405 
-0.123395 -0.130912 -0.128364 -0.1229 -0.119805 -0.124084 -0.134581 -0.134741 -0.129051 
-0.0765421 -0.121826 -0.133334 -0.0792899 -0.0853543 -0.139721 -0.136429 -0.126855 -0.0405607 
-0.0222316 -0.124616 -0.123421 -0.133588 -0.133427 -0.133592 -0.116524 -0.115021 -0.123377 
-0.132528 -0.133718 -0.131535 -0.133194 -0.131876 -0.133458 -0.133775 -0.0651833 -0.055934 
-0.130599 -0.13084 -0.13393 -0.130443 -0.128212 -0.128624 -0.129036 -0.137298 -0.137748 
-0.120356 -0.119665 -0.139031 -0.12725 -0.127081 -0.129437 -0.124391 -0.0966723 -0.0495944 
-0.119735 -0.121373 -0.105378 -0.137298 -0.145252 -0.121144 -0.134706 -0.134527 -0.13616 
-0.126251 -0.126431 -0.125635 -0.137061 -0.122515 -0.109579 -0.108851 -0.130953 -0.131374 
-0.131009 -0.129141 -0.132507 -0.132184 -0.132356 -0.131545 -0.131489 -0.130994 -0.134375 
-0.126745 -0.123583 -0.132164 -0.133497 -0.118201 -0.124504 -0.124755 -0.125309 -0.13222 
-0.134859 -0.134368 -0.134615 -0.130674 -0.0975797 -0.132133 -0.12422 -0.12052 -0.125806 
-0.125253 -0.124626 -0.134362 -0.125106 -0.138845 -0.133365 -0.12936 -0.129781 -0.120153 
-0.129586 -0.156346 -0.129856 -0.0324993 -0.133847 -0.13339 -0.111475 -0.0237617 -0.0303376 
-0.0401004 -0.113194 -0.117475 -0.110614 -0.128386 -0.108662 -0.102509 -0.116221 -0.100946 
-0.137082 -0.135733 -0.133243 -0.101817 -0.0755525 -0.134412 -0.135387 -0.0840146 -0.0757902 
-0.0547949 -0.134408 -0.0545492 -0.129841 -0.129714 -0.105643 -0.1053 -0.100569 -0.129737 
-0.127592 -0.135191 -0.13117 -0.00734508 -0.136839 -0.116241 -0.136674 -0.105923 -0.129594 
-0.128777 -0.128541 -0.116295 -0.119291 -0.12461 -0.124679 -0.128604 -0.128717 -0.134031 
-0.134487 -0.127048 -0.138627 -0.139552 -0.124821 -0.173861 -0.11318 -0.0566488 -0.0803247 
-0.120841 -0.0832672 -0.129098 -0.154917 -0.121466 -0.061894 -0.1285 -0.128454 -0.124196 
-0.123933 -0.116446 -0.124996 -0.133645 -0.133298 -0.139223 -0.125099 -0.126857 -0.125982 
-0.122812 -0.0588366 -0.127254 -0.142076 -0.126934 -0.133014 -0.132631 -0.131523 -0.134873 
-0.12813 -0.127481 -0.133073 -0.124575 -0.12987 -0.13214 -0.130417 -0.121586 -0.121429 
-0.0876034 -0.0873837 -0.105727 -0.123061 -0.134813 -0.134543 -0.128912 -0.0225965 -0.103059 
-0.13206 -0.107709 -0.12628 -0.125591 -0.15181 -0.0730213 -0.136314 -0.137219 -0.106872 
-0.124574 -0.12911 -0.110575 -0.131299 -0.101649 -0.149626 -0.111509 -0.113517 -0.122774 
-0.121495 -0.117894 -0.114281 -0.117637 -0.119931 -0.123173 -0.133659 -0.133875 -0.138012 
-0.136487 -0.1405 -0.12878 -0.100391 -0.133352 -0.130253 -0.132096 -0.133783 -0.124781 
-0.138997 -0.242283 -0.133227 -0.114839 -0.111604 -0.13293 -0.0958021 -0.13251 -0.131459 
-0.13375 -0.140657 -0.149469 -0.143861 -0.128284 -0.131234 -0.0679551 -0.135493 -0.131728 
-0.134007 -0.12554 -0.0598349 -0.0958658 -0.0775542 -0.123696 -0.124276 -0.132058 -0.135739 
-0.134282 -0.127145 -0.125664 -0.12817 -0.135118 -0.129242 -0.128915 -0.0741889 -0.0650507 
-0.101936 -0.0981642 -0.108312 -0.0409086 -0.133165 -0.122085 -0.0896117 -0.129744 -0.127784 
-0.127196 -0.124607 -0.121108 -0.0787089 -0.0330687 -0.0887377 -0.131684 -0.123652 -0.12574 
-0.126298 -0.134849 -0.1246 -0.124192 -0.123502 -0.113238 -0.13683 -0.07526 -0.132346 
-0.117095 -0.114992 -0.120633 -0.0572142 -0.105461 -0.136106 -0.136139 -0.135725 -0.135363 
-0.0943503 -0.123222 -0.120642 -0.133062 -0.133941 -0.122811 -0.126798 -0.124238 -0.139074 
-0.133655 -0.122276 -0.12391 -0.136841 -0.135847 -0.130892 -0.13378 -0.1319 -0.05235 
-0.0231009 -0.00725153 -0.127592 -0.124526 -0.104195 -0.136274 -0.130098 -0.129624 -0.138807 
-0.133738 -0.12201 -0.136859 -0.135534 -0.133342 -0.133231 -0.118112 -0.110685 -0.115333 
-0.125494 -0.117442 -0.137455 -0.139962 -0.0760953 -0.133683 -0.0632303 -0.132895 -0.0143096 
-0.0252319 -0.0152115 -0.131537 -0.125807 -0.128496 -0.131583 -0.123747 -0.124976 -0.136176 
-0.143775 -0.028418 -0.0123386 -0.114394 -0.12228 -0.0395163 -0.0714411 -0.133155 -0.133227 
-0.137893 -0.0335061 -0.136621 -0.0253277 -0.0663561 -0.12183 -0.0532581 -0.0829006 -0.0713716 
-0.135123 -0.122465 -0.123023 -0.130765 -0.137569 -0.10167 -0.138002 -0.138465 -0.13475 
-0.131049 -0.125371 -0.0831775 -0.124643 -0.115261 -0.125344 -0.123844 -0.120723 -0.136983 
-0.136585 -0.0791154 -0.12781 -0.135232 -0.138166 -0.123191 -0.126966 -0.0879578 -0.137497 
-0.117209 -0.123501 -0.113821 -0.105006 -0.11659 -0.13708 -0.122539 -0.130108 -0.132967 
-0.133675 -0.114697 -0.13077 -0.128389 -0.135269 -0.110757 -0.102937 -0.12643 -0.0382891 
-0.0100949 -0.135102 -0.118916 -0.118551 -0.1259 -0.162212 -0.127085 -0.131047 -0.134875 
-0.12288 -0.120469 -0.122012 -0.135236 -0.134983 -0.136414 -0.124813 -0.116826 -0.128418 
-0.13593 -0.11316 -0.102819 -0.130218 -0.133258 -0.0522441 -0.057052 
Strain%20xy%20component 1 12526 double
-0.310577 -0.350479 0.316296 0.350803 -3.38833e-05 -1.33549e-05 1.89131e-05 1.70621e-05 -0.0298877 
-0.0271181 0.0254218 0.0245254 -0.0320599 -0.00949899 0.00843952 0.0250925 -0.180568 -0.124714 
-0.102703 -0.0851888 -0.0661668 -0.0566729 -0.0477275 -0.0404908 -0.0335007 -0.026906 -0.0189632 
-0.0109482 -0.00336838 0.00464803 0.0122918 0.0195295 0.026029 0.0326657 0.0398425 0.0480909 
0.0568328 0.0657423 0.0750043 0.0841573 0.0960661 0.111502 0.177459 -0.164189 -0.117923 
-0.102153 -0.0890736 -0.0823536 -0.0733738 -0.062417 -0.0518597 -0.0414947 -0.0328984 -0.025058 
-0.0164364 -0.00825976 -1.72154e-05 0.00809062 0.0172236 0.0264182 0.0357422 0.0449054 0.0545468 
0.064751 0.0760079 0.0888721 0.104835 0.122914 0.163977 3.81535e-05 8.60487e-07 -1.73744e-06 
-1.73171e-05 -2.5174e-05 -3.16411e-05 -3.65282e-05 -3.83788e-05 -4.04688e-05 -3.08277e-05 -7.14329e-06 -4.73897e-06 
9.70094e-06 1.69715e-05 2.30179e-05 2.61095e-05 2.13781e-05 3.25445e-05 1.46547e-05 2.19005e-05 2.78153e-05 
3.51768e-05 3.65655e-05 3.23514e-05 1.13512e-05 5.60502e-06 -3.92938e-05 0.0191735 -0.00148048 -0.000479363 
-0.000384046 -0.00038059 -0.000340525 -0.000301278 -0.000224336 -0.00018697 -0.000161623 -0.000116484 -7.88672e-05 
-4.29666e-05 -2.31463e-05 -8.98799e-06 -8.06717e-05 -0.00016257 -0.000307157 -0.000398823 -0.000498902 -0.00052875 
-0.000385204 -2.32174e-05 0.000230826 0.000384817 0.000432161 0.000331047 0.000245028 0.000144609 5.34169e-05 
-1.82668e-05 -4.9181e-05 -5.88995e-05 -7.91067e-05 -7.88732e-05 -7.56676e-05 -7.06962e-05 -6.71197e-05 -6.01128e-05 
-5.94894e-05 -5.78396e-05 -5.13062e-05 -3.18509e-05 -4.0861e-07 5.13157e-05 -4.32573e-05 1.50874e-05 1.51741e-05 
2.90099e-05 3.08664e-05 4.27504e-05 4.48228e-05 5.05128e-05 5.33657e-05 4.76111e-05 6.69126e-05 4.52986e-05 
4.52084e-05 2.10305e-06 -8.64718e-06 4.13897e-05 -5.26902e-05 7.89361e-06 -0.000196722 -0.000463666 -0.000550613 
-0.000388619 -0.000435143 0.000137584 0.000238786 0.000433127 0.000355053 0.000320756 0.000199779 5.15325e-05 
5.08358e-06 2.88558e-06 3.30422e-05 6.0852e-05 8.1647e-05 0.000134185 0.000181899 0.000117284 0.000213412 
0.000570528 0.000772179 0.00120733 0.00313979 0.00329491 -0.0201938 0.036304 0.0165472 0.0103895 
0.00679611 0.0035818 0.00117338 -0.00142595 -0.005255 -0.00584248 -0.00899725 -0.0128759 -0.0166809 
-0.030957 0.0501422 0.0289237 0.0194954 0.0158813 0.011558 0.00651282 0.00340974 5.48469e-05 
-0.00342648 -0.00731002 -0.0132266 -0.0226644 -0.039488 2.27692e-05 2.10085e-06 -3.1875e-05 -2.84782e-05 
-2.88984e-05 -2.7015e-05 -2.45972e-05 -2.14818e-05 -1.71796e-05 -1.47459e-05 -3.13613e-05 -6.67937e-06 -2.44507e-05 
-1.35307e-05 -9.08059e-06 -6.11408e-06 1.93072e-05 1.19738e-05 3.41489e-05 3.45154e-05 3.58218e-05 2.81057e-05 
2.03725e-05 5.6405e-06 8.04197e-06 -9.9043e-06 -4.01676e-05 -0.0229951 -0.0138936 -0.00300803 -0.00145059 
-0.000856133 -0.000507676 -0.000365891 -0.000236561 -0.000210742 -0.000143122 -0.000110072 -9.58461e-05 -8.95729e-05 
-9.87926e-05 -0.000132721 -0.000182741 -0.000247407 -0.000308405 -0.000438829 -0.000521892 -0.000477489 -0.000233686 
7.00235e-05 0.000312394 0.000452161 0.000462669 0.000353602 0.00023367 0.000128723 -8.27032e-06 -2.57204e-05 
-3.61671e-05 -4.77859e-05 -3.58428e-05 -3.55226e-05 -3.08721e-05 -2.93787e-05 -2.21033e-05 -1.71973e-05 -1.19413e-05 
-4.07864e-06 3.90338e-06 1.28288e-05 3.68745e-05 5.57428e-05 -4.39105e-05 -2.44737e-05 -1.13837e-05 -3.24466e-06 
2.81426e-06 1.30251e-05 1.72972e-05 2.36928e-05 3.29983e-05 5.84108e-05 4.49371e-05 7.68749e-05 5.52033e-05 
0.000104852 0.000108081 -2.2196e-06 -9.33441e-05 -0.000281362 -0.000392436 -0.000393298 -0.000385033 -0.000238783 
0.000249474 0.000319376 0.000642787 0.000483147 0.000285811 0.00016918 0.000187528 9.71836e-05 0.000159118 
0.000116323 9.55889e-05 0.000120251 0.000159754 0.00014346 0.000225136 0.000436035 0.000435587 0.000273369 
0.000392271 0.000385286 0.000788054 0.00384426 -0.00184015 0.038659 0.0168614 0.0119603 0.00793674 
0.00507626 0.0028969 0.00195366 -0.000175035 -0.00247385 -0.00625422 -0.0102532 -0.0170295 -0.0415836 
0.0390028 0.0182083 0.0104303 0.00657141 0.00347381 0.000224824 -0.00395314 -0.00809894 -0.0123156 
-0.0170582 -0.0223801 -0.0281171 -0.043926 -0.000178756 -0.000458277 -0.000732127 -0.000983931 -0.00115501 
-0.00120195 -0.00119446 -0.00113001 -0.00100281 -0.000834005 -0.000611971 -0.000393115 -0.00014076 0.000115816 
0.000363446 0.000613674 0.000800678 0.000958766 0.00107143 0.00114759 0.00117594 0.0011227 0.000962019 
0.000728918 0.000461703 0.00022814 3.65928e-05 0.0973312 0.039421 0.0206267 0.0116111 0.00684674 
0.00361132 0.00160295 0.000319766 -0.000611893 -0.00120664 -0.00170942 -0.00217604 -0.00269255 -0.00347573 
-0.00463203 -0.00601561 -0.00759276 -0.00924781 -0.0102326 -0.00971065 -0.00705827 -0.00303696 0.00172469 
0.00543939 0.00719538 0.00694345 0.00569287 0.00389303 0.00217026 0.000775363 -0.000217236 -0.000957326 
-0.00140716 -0.00169387 -0.00179977 -0.00187125 -0.00183722 -0.00170955 -0.0015305 -0.00133017 -0.001141 
-0.000865362 -0.000552907 -0.000231299 0.000485824 0.000751457 0.00103398 0.0012835 0.0014907 0.00167596 
0.00176635 0.00177042 0.00172252 0.00158573 0.00126519 0.000833435 0.000128888 -0.000931169 -0.00237473 
-0.00395668 -0.00575537 -0.00691842 -0.00703756 -0.00469992 -0.00043496 0.00428417 0.00766736 0.00963476 
0.0092882 0.00798488 0.00651497 0.00504806 0.00404809 0.00311668 0.00241942 0.00189227 0.00144075 
0.00092857 0.00028499 -0.000607061 -0.00203726 -0.00412272 -0.00798097 -0.0132407 -0.0225664 -0.0434237 
-0.107716 -0.137565 -0.114017 -0.0979176 -0.0839829 -0.0673183 -0.0583125 -0.0479816 -0.0392558 
-0.0306132 -0.0222976 -0.0140957 -0.00589419 0.00144727 0.00963805 0.0163211 0.0240372 0.0318029 
0.0402508 0.0483783 0.0585004 0.0680456 0.0788235 0.0922325 0.109131 0.126105 0.0166847 
0.046109 0.035296 0.0245785 0.0154624 0.00966761 0.004174 -0.000326116 -0.00490596 -0.00983549 
-0.0161577 -0.0260426 -0.0403903 -0.00251431 0.00512244 0.0241657 0.0453923 0.0339225 0.0223735 
0.01262 0.00380249 -0.00124319 -0.00749967 -0.0147005 -0.0215568 -0.0298837 -0.0404327 -0.05207 
-0.0058954 0.0159934 0.0132253 -0.0409268 0.0380789 -0.0540092 -0.000569694 -0.00107319 -0.0015567 
-0.00192056 -0.00213478 -0.00219905 -0.00209688 -0.00189135 -0.00161485 -0.00127478 -0.000880305 -0.000458142 
-7.09542e-06 0.000454045 0.000908275 0.00128198 0.00159427 0.00186886 0.0020628 0.00215792 0.00210995 
0.00192547 0.00160553 0.00119899 0.00076071 0.0179123 -0.103805 0.0544735 0.0337199 0.021592 
0.0138846 0.00798421 0.00397466 0.00150278 -0.000195553 -0.00158204 -0.00278534 -0.00383514 -0.0051044 
-0.00661926 -0.00868441 -0.0110265 -0.0137781 -0.0162161 -0.0166331 -0.0148192 -0.00967404 -0.00160243 
0.00623756 0.0108456 0.0116705 0.00987662 0.00725554 0.00457698 0.00220908 0.00032289 -0.00111094 
-0.00206661 -0.0026897 -0.00305915 -0.00325337 -0.00329556 -0.00314675 -0.00292702 -0.00259346 -0.00225434 
-0.00185537 -0.00137183 -0.000776663 0.0205943 0.0984972 0.00116233 0.00167916 0.00217863 0.00259073 
0.00289273 0.00306456 0.00314319 0.00308199 0.00285038 0.00244267 0.00173316 0.000685899 -0.000751378 
-0.0028583 -0.00527083 -0.00806959 -0.0105028 -0.0116795 -0.00953841 -0.00316137 0.00442561 0.0115664 
0.0157661 0.0161657 0.0141146 0.0115259 0.00931492 0.0074074 0.00574646 0.00437077 0.00320867 
0.00214077 0.000967584 -0.000462852 -0.0025047 -0.00533407 -0.00918153 -0.0159443 -0.0246665 -0.0387832 
-0.0643088 -0.0954421 -0.0848752 -0.0743437 -0.0640925 -0.0546349 -0.0457584 -0.0367753 -0.028181 
-0.0207105 -0.0124525 -0.00478719 0.00268692 0.0102888 0.0180809 0.0263845 0.0343881 0.0430606 
0.0519632 0.0618356 0.0717023 0.0820531 0.0942966 0.0189349 -0.0227355 0.00899293 0.0135094 
0.00884264 0.00435531 -0.000410314 -0.00522037 -0.00991562 -0.0143018 -0.0182955 -0.0182094 -0.00674932 
-0.00122174 0.0262139 0.00911664 -0.0270139 0.0132853 0.0188345 0.0125381 0.00591397 0.000301908 
-0.00571749 -0.0123955 -0.0181408 -0.0229878 -0.0226167 -0.00966257 -0.0148787 0.0236569 0.0250227 
-0.0239367 0.000526256 0.0378076 0.0213163 0.0200316 -0.0369123 0.00491792 -0.0023855 -0.00280321 
-0.00297837 -0.00298136 -0.00279037 -0.00242722 -0.00197095 -0.00147528 -0.00092482 -0.00031081 0.000320743 
0.00096883 0.00151084 0.00200738 0.00242656 0.00273887 0.00292095 0.0029545 0.00280651 0.00246961 
0.00196614 0.00771706 0.00947148 0.0565243 0.0400784 0.0274258 0.0183946 0.0109207 0.0060317 
0.00288335 0.000390281 -0.00170164 -0.00340867 -0.00499718 -0.00681317 -0.0089989 -0.0115421 -0.0147866 
-0.0184034 -0.0215791 -0.0210865 -0.0192235 -0.00947423 0.00473644 0.0127407 0.0152969 0.0131884 
0.00968214 0.00612285 0.00322624 0.000757599 -0.00104973 -0.00239052 -0.00329367 -0.0038885 -0.00423558 
-0.00434315 -0.00425144 -0.00402897 -0.00369823 -0.00326545 -0.00281155 -0.00231939 -0.00168306 0.077182 
0.00426539 0.00912299 0.00266691 0.00325304 0.00371828 0.00401243 0.0042043 0.00417441 0.00398489 
0.0035687 0.00287205 0.00185068 0.000341431 -0.00172894 -0.00451749 -0.00771568 -0.0110047 -0.0141872 
-0.0149389 -0.00883617 0.00298427 0.0126563 0.0207069 0.021796 0.0188426 0.0152222 0.0123223 
0.0099535 0.00767035 0.00567428 0.0039521 0.00234688 0.000503959 -0.00187935 -0.004738 -0.00851548 
-0.0137523 -0.0221621 -0.0320025 -0.0442744 0.00210276 -0.0772941 0.02095 -0.0700794 -0.0614761 
-0.0534947 -0.0461664 -0.0379162 -0.0299671 -0.0227971 -0.0154938 -0.00816282 -0.000907357 0.00613515 
0.0136234 0.0208357 0.0284045 0.0363956 0.0442619 0.0524532 0.0605415 0.0674857 0.0741116 
0.00874619 0.00170415 -0.00156708 -0.00487947 -0.00765165 -0.00938194 -0.00823443 -0.0031784 0.00171851 
0.00724389 -0.0248559 -0.00834251 -0.0079506 0.020571 0.0113379 -0.00265585 -0.0074301 -0.0114244 
-0.0136274 -0.0129787 -0.00846442 -0.0210931 0.00724783 -0.000640939 -0.0185983 0.00198377 -0.0652213 
0.0275251 0.00133284 -0.0172507 -0.00109813 0.0133145 0.00453405 -0.00181125 -0.027612 0.0141653 
0.0154151 -0.00359464 -0.00372376 -0.00361366 -0.00324472 -0.0027291 -0.00211836 -0.00148307 -0.000767312 
-2.3669e-06 0.000799493 0.00156571 0.00219678 0.00277236 0.00324714 0.00354895 0.00367899 0.00360511 
0.00329244 0.00273732 0.00308933 0.00375505 -0.0134956 0.041574 0.0294873 0.0197101 0.0123043 
0.00740609 0.00376859 0.000823791 -0.00154679 -0.00351298 -0.00545836 -0.00752715 -0.009865 -0.0126083 
-0.0159392 -0.0214885 0.0104153 0.00642637 0.00316589 0.000515267 -0.0014375 -0.00283125 -0.00379325 
-0.00451171 -0.00496745 -0.00514487 -0.00508442 -0.00487192 -0.00454006 -0.00410761 -0.00356344 -0.00320689 
-0.06042 4.94857e-05 0.00168526 0.00413278 0.00458585 0.00487766 0.00498843 0.00491513 0.00461155 
0.00405497 0.00322012 0.00202839 0.000454359 -0.00190322 -0.00483867 -0.00974569 0.0207592 0.0170851 
0.0140973 0.0112488 0.00859696 0.00628042 0.00417943 0.00206762 -0.000197585 -0.00318656 -0.00669415 
-0.0111932 -0.0170919 -0.0241213 -0.0376728 -0.0459367 -0.00298456 0.00537445 0.00315021 -0.054335 
-0.0489232 -0.0434086 -0.0370627 -0.0303547 -0.0236477 -0.0173334 -0.0107507 -0.00421259 0.00213866 
0.00895997 0.0155175 0.0220382 0.0289097 0.0359709 0.0428536 0.0493281 0.0531544 -0.00167958 
0.0156791 -0.00335422 -0.00410923 -0.0030862 -0.000632192 -0.000365385 0.00346593 0.000291633 -0.00771975 
-0.00761006 -0.00626844 -0.00647614 0.056508 0.00228293 -0.00595217 0.00140984 0.00618942 0.00830258 
0.00350272 0.00830573 0.00464621 0.00583664 -0.00146912 -0.000137404 -0.00430746 -0.00405201 -0.00351177 
-0.00280147 -0.00204954 -0.00131044 -0.000569378 0.000416077 0.00138778 0.00220367 0.00294316 0.00354319 
0.00399262 0.00421639 0.00425915 0.00406437 -0.00144701 0.0276336 0.0187946 0.0122536 0.00769816 
0.00397632 0.0011512 -0.00123387 -0.00323649 -0.00508752 -0.00708239 -0.00939775 -0.0106815 0.00226311 
-0.00046283 -0.00244882 -0.00373678 -0.00456122 -0.00492137 -0.00539983 -0.00559103 -0.00556032 -0.00537481 
-0.00507959 -0.00462836 -0.00400842 0.00472996 -0.0011384 0.00517396 0.00540291 0.00548135 0.00537765 
0.00504625 0.00446778 0.00357606 0.00279584 0.00132678 -0.000915132 -0.000554496 0.0130275 0.00826724 
0.0059491 0.0039126 0.00159176 -0.00090435 -0.00392922 -0.00789208 -0.0127095 -0.0190808 -0.0276151 
-0.0374419 0.00353029 -0.0334679 -0.0284563 -0.0226727 -0.0171188 -0.0114503 -0.00653847 -0.000952896 
0.00471191 0.00991288 0.0158106 0.0217721 0.0278542 0.0336662 0.0394069 0.000148167 0.00154422 
0.00751067 0.0394207 -0.00439457 0.000399368 -0.000182055 -0.0039538 -0.00407884 -0.00431566 -0.000232575 
-0.00363526 0.00496176 -0.00244474 0.000288024 -0.00145875 0.000149735 0.003686 -0.00157032 0.00304185 
-0.00113906 -0.00662351 0.0032978 0.00264434 0.0314393 -0.00426304 -0.00254585 -0.00157533 -0.00038969 
0.000908723 0.00203517 0.00294404 0.0036957 0.00431486 0.00465077 0.00469273 0.0231567 -0.00199443 
0.0161993 0.0111421 0.00709334 0.00389997 0.0012426 -0.00092354 -0.00276653 -0.00435899 -0.00322631 
-0.00440333 -0.00507179 -0.00545665 -0.00564061 -0.00561272 -0.00546863 -0.00521673 -0.00485143 -0.00232927 
0.00219077 0.0028826 0.000748186 0.00540796 0.00558207 0.0056451 0.00555747 0.0052664 0.00463849 
0.00374417 0.000950993 0.00296424 0.00127128 -0.00115143 -0.00406814 -0.00784566 -0.0124494 -0.0187897 
-0.0273227 0.00149355 -0.0244707 -0.0199871 -0.0153671 -0.0103936 -0.00444319 0.00309287 0.00942039 
0.0148381 0.020327 0.0259951 -0.00177534 0.0021247 -0.00346461 -0.00224635 -0.00158243 -0.00473484 
-0.00314872 0.00509438 -0.00320848 8.21725e-05 0.00388402 -0.00148787 0.00484242 0.000284647 -0.000635161 
0.000695685 -0.00146098 0.000237643 0.00179322 0.00281202 0.0037506 0.00452856 0.00499472 0.00395692 
0.0130695 0.0093202 0.00621801 0.00331508 0.00100778 -0.00092438 -0.0163929 -0.00469595 0.00259184 
-0.00505519 -0.00518217 -0.0051974 -0.00119416 0.00533264 0.00546601 0.00519561 0.0044537 0.0047372 
0.0186632 -0.000743519 -0.00202248 0.000877842 -8.17291e-05 -0.00344568 -0.00654518 -0.0107954 0.00347983 
-0.0126564 -0.00901608 -0.00553126 0.004687 0.00213651 -0.00494776 -0.00278948 -0.000180174 -0.00107778 
-0.0039859 -0.00413062 0.000757875 0.00520812 -0.0051074 -0.00364813 0.00538042 -0.00019656 -0.000589983 
0.00928719 0.0138335 -3.13122e-05 0.000352679 -0.00392192 0.0047271 0.00320425 -0.00683252 -0.00435351 
-0.000300132 0.00164697 0.0033332 0.00457931 -0.00224782 0.00867761 -0.000624751 0.00473013 0.00204524 
-0.00317611 -0.00410026 -0.00392147 0.000270695 -0.00217628 0.00209201 0.00087475 0.00464374 -0.000840428 
0.00518279 0.00218719 -0.00183917 0.000652329 -0.000137153 -0.000478642 -0.000760603 -0.000970878 -0.00109745 
-0.00118527 -0.00120184 -0.00117099 -0.00101425 -0.000827532 -0.000615541 -0.000362094 -9.50083e-05 0.000158765 
0.000417657 0.00065177 0.000867052 0.0010427 0.00117095 0.00123546 0.00123339 0.00119825 0.00103316 
0.000785463 0.000487693 0.000183413 -1.70774e-05 0.114475 0.0446791 0.0261362 0.0150909 0.00828022 
0.004487 0.00219144 0.000625346 -0.00027305 -0.00103651 -0.00155686 -0.00209174 -0.00275628 -0.00359798 
-0.00469587 -0.00611027 -0.00774987 -0.00944199 -0.0106294 -0.010704 -0.00880392 -0.00481478 0.000101417 
0.00462067 0.00702455 0.00753924 0.00660722 0.00476218 0.00293969 0.00125608 7.03427e-05 -0.000720215 
-0.00128818 -0.00165607 -0.00185827 -0.00195632 -0.00186244 -0.00176194 -0.00162008 -0.00142783 -0.00122442 
-0.000909048 -0.000544155 0.000240953 0.000487133 0.000794007 0.0010422 0.00127984 0.00144273 0.00162453 
0.00170728 0.00171939 0.00172728 0.00157101 0.00125059 0.000731331 -2.0401e-05 -0.00104315 -0.00235089 
-0.00378178 -0.00538662 -0.00647201 -0.00658954 -0.0047053 -0.000953031 0.00384697 0.00782167 0.00962262 
0.00913281 0.007941 0.0065522 0.00515728 0.0038823 0.00302978 0.00229962 0.00187418 0.00144095 
0.000961587 0.000346616 -0.000613249 -0.00197499 -0.00394144 -0.00658343 -0.0111906 -0.019831 -0.0393373 
-0.0883277 -0.131347 -0.114725 -0.0983708 -0.0835111 -0.0732902 -0.0660971 -0.055719 -0.0471155 
-0.0380024 -0.0287978 -0.0206951 -0.0129502 -0.00464359 0.00233375 0.0101179 0.0180775 0.0268719 
0.0355434 0.0443941 0.0535606 0.0639861 0.0749109 0.0873327 0.101268 0.121015 0.143931 
0.0135347 0.0354541 0.0266899 0.0172278 0.0101515 0.00445118 -0.00102792 -0.00471887 -0.0107578 
-0.0164028 -0.0235868 -0.0315568 -0.0377887 -0.0137908 -0.0129737 0.0101597 0.0468271 0.0387335 
0.0305242 0.0214256 0.0138731 0.0084613 0.000900087 -0.00658626 -0.0135122 -0.0224973 -0.032789 
-0.044478 -0.0147006 -0.00431357 0.0551436 -0.000198275 0.0299231 -0.0190727 -0.0416588 -0.00121695 
-0.000668892 -0.00185488 -0.00207374 -0.00217383 -0.00210933 -0.00195624 -0.00167353 -0.00132241 -0.000919649 
-0.000454581 3.3809e-05 0.000515755 0.000977919 0.00137726 0.00172816 0.00200791 0.00217887 0.00225864 
0.00217837 0.00197866 0.00166321 0.00122555 0.000728018 0.0421171 0.000833553 0.0144893 0.0667252 
0.100931 0.0257366 0.0153317 0.00913671 0.00523019 0.00241375 0.000331203 -0.00127325 -0.0024626 
-0.00364165 -0.00500905 -0.00664255 -0.00868063 -0.0111337 -0.0137431 -0.0160968 -0.0177309 -0.0172778 
-0.0122064 -0.00423835 0.00413263 0.00999532 0.0120414 0.0112848 0.00863359 0.00563473 0.00293153 
0.000786092 -0.00071266 -0.00187094 -0.00268526 -0.00315882 -0.00336774 -0.0034024 -0.00329915 -0.0031233 
-0.00275611 -0.00236711 -0.0018921 -0.0013145 0.0113199 -0.00109378 0.00129862 0.00176509 0.0021712 
0.00256429 0.00288373 0.00305655 0.00315748 0.00312628 0.00290347 0.00244787 0.00172412 0.000593102 
-0.000892445 -0.0028905 -0.00520818 -0.00778655 -0.00983468 -0.0106601 -0.00918914 -0.00442919 0.00339187 
0.0113231 0.0160066 0.0161575 0.0144144 0.0123373 0.00978559 0.00756435 0.00575443 0.00430575 
0.00318768 0.002137 0.00107173 -0.000447448 -0.00241831 -0.00523524 -0.00953277 -0.0149259 -0.0221816 
-0.0350837 -0.0598968 -0.100452 0.000941567 -0.0847692 -0.0919018 -0.0739971 -0.0635661 -0.0541286 
-0.0449096 -0.037157 -0.0293194 -0.0213228 -0.0136962 -0.00639688 0.00116336 0.00824302 0.0157423 
0.0229766 0.0303116 0.0382515 0.046753 0.0553201 0.0645818 0.0740725 0.0826581 0.0918037 
0.0286202 0.0082558 -0.0301088 0.017961 0.0170027 0.0132935 0.00859613 0.00442663 0.000329356 
-0.00413217 -0.00868888 -0.0132368 -0.0173162 -0.0178372 -0.00624898 -0.00911268 -0.0269476 0.0241162 
0.0226564 0.0172857 0.0123815 0.00626711 -3.22453e-05 -0.00647017 -0.0130617 -0.0188964 -0.0241075 
-0.025184 -0.0146471 0.0158047 -0.00160021 0.0152209 0.0257431 0.0322199 -0.0173726 0.00176023 
-0.0212712 -0.0304719 -0.00295505 -0.00274625 -0.00277663 -0.00245795 -0.00206448 -0.00154922 -0.000940942 
-0.000316961 0.000376393 0.00102405 0.00163071 0.00214007 0.00254922 0.00287126 0.00305727 0.00306144 
0.00288948 0.00254777 0.00204863 0.00144003 -0.0125607 0.0192532 0.0303294 -0.00712815 0.0470393 
0.00782513 0.012749 0.00764783 0.00392654 0.000993088 -0.00126424 -0.00273995 -0.00441272 -0.00631302 
-0.00836667 -0.0108741 -0.01397 -0.0176899 -0.0206145 -0.0234322 -0.0124854 0.0132188 0.0144747 
0.0107749 0.00704749 0.0039982 0.00138092 -0.000681827 -0.00224344 -0.00328249 -0.00396668 -0.00432162 
-0.00445656 -0.00440568 -0.00420539 -0.0038765 -0.00340992 -0.00283318 -0.00210145 -0.00928168 0.0134236 
0.00270345 0.0032788 0.00373284 0.00402442 0.00420506 0.00423651 0.00403451 0.00361258 0.00288277 
0.00178252 0.000290253 -0.00177948 -0.00460181 -0.00776339 -0.0109426 -0.0131543 -0.013294 -0.0117947 
-0.00028003 0.0108158 0.0217393 0.0220501 0.0188243 0.0162948 0.0131126 0.0102262 0.00782448 
0.00578831 0.00403024 0.00247934 0.000785193 -0.00134247 -0.00425471 -0.00826817 -0.0140404 -0.0220517 
-0.0314115 -0.040836 -0.0607127 0.00259179 -0.0675411 -0.0615271 -0.00290131 -0.0212635 -0.00144253 
-0.00296404 -0.0542526 -0.0465954 -0.0387795 -0.031548 -0.0240971 -0.0170532 -0.0101577 -0.00318213 
0.003873 0.0107328 0.0177876 0.0247387 0.0313912 0.0387311 0.0464877 0.0541453 0.0612564 
0.0636597 0.0687328 0.0196246 0.00807716 0.0087734 0.00726928 0.00452491 0.00131165 -0.00203865 
-0.00482029 -0.0073111 -0.00914025 -0.00799441 0.00210144 0.0128443 0.0130603 0.0108134 0.00714999 
0.002515 -0.00243966 -0.00708439 -0.0111106 -0.0140091 -0.0140891 -0.0103336 0.00329476 0.00989222 
-0.0023434 0.0109252 -0.0214601 -0.0222129 0.000829899 0.0147153 -0.0131799 0.00184756 0.0264004 
-0.00249335 0.0186628 -0.073045 -0.00354696 -0.0022862 -0.00157574 -0.000810789 3.26922e-05 0.000856083 
0.00163824 0.00234279 0.00291319 0.00338016 0.00368044 0.00379689 0.00371545 0.003402 0.00284285 
0.0303682 -0.00803834 0.0212286 0.0443962 0.0140068 0.00933497 0.0143131 0.0005507 -0.00215636 
-0.00415036 -0.00618311 -0.00825759 -0.010603 -0.0135098 -0.0520089 0.00119189 -0.0011181 -0.00274595 
-0.00382124 -0.00456529 -0.00497558 -0.00515877 -0.00515231 -0.00498363 -0.00468433 -0.00425644 -0.00369762 
-0.00300064 0.0061692 0.0097255 0.00415944 0.00459423 0.00487312 0.00501019 0.00494952 0.00467541 
0.00414094 0.00327796 0.00201314 0.000390706 -0.00191321 -0.0049753 -0.00937246 0.0199247 0.014957 
0.0113826 0.00860109 0.00636555 0.00439968 0.00249761 0.000421497 -0.00210932 -0.00564297 -0.0101066 
-0.0163758 -0.0256757 -0.0366525 -0.00438667 -0.000185754 -0.0510723 -0.0493148 0.00712689 -0.0312019 
-0.0247518 -0.0185722 -0.0124253 -0.0059718 0.000290036 0.00652989 0.0128571 0.018967 0.0245771 
0.0304412 0.0367147 0.0429749 0.049472 0.000330173 0.00278369 -0.00282393 -0.00233438 0.00335014 
0.00267598 0.00133976 -0.00026335 -0.00167385 -0.00284992 -0.00361402 -0.00274723 -0.0032373 -0.0377762 
0.00686209 0.0053356 0.00333419 0.000102329 -0.00308253 -0.0057873 -0.00774907 -0.00846446 0.0046444 
0.00354941 0.00309236 -0.0164339 -0.0439929 -0.00593834 0.00130189 -0.00354208 -0.0133466 -0.00716909 
-0.00369308 0.00632994 0.0501831 0.000120334 0.00604303 -0.00315114 -0.00237805 0.000501271 0.00146212 
0.00231771 0.00306764 0.00367658 0.00414258 0.00438451 0.00438857 0.0041296 0.0388428 -0.0363726 
-0.00137124 0.00472796 -0.00326787 -0.00499031 -0.00675366 3.26589e-05 -0.000485596 -0.00147585 -0.00501474 
-0.0053787 -0.00554421 -0.00554774 -0.00540605 -0.00513572 -0.00473583 -0.00420407 0.000219563 0.0112529 
0.00538688 0.00512567 0.00472274 0.00548943 0.00540978 0.00515037 0.00462897 0.00382011 0.00266861 
0.000971749 -0.0340073 0.0137521 0.00575347 0.00378783 0.00229281 1.81145e-05 -0.00230207 -0.0059049 
-0.010336 -0.0162342 -0.024712 -0.0134479 -0.0184429 0.00815279 -0.00438834 -0.0235494 -0.00790434 
-0.00238043 0.00329423 0.00863427 0.0132694 0.0182939 0.0224873 0.0270759 0.032613 0.0382298 
-0.00158251 -0.00310623 -0.00339241 -0.000513933 0.000808081 3.48548e-05 0.000206202 -3.99572e-05 -0.000336624 
-0.000295778 -7.37904e-05 0.00254059 0.00331385 0.00270011 0.00160765 -0.000795755 -0.00246517 -0.00368569 
-0.00492577 -0.0293185 -0.00277671 -0.00653422 0.0295229 0.00183079 0.0213313 0.00324011 -0.0387646 
-0.0035987 -0.004322 -0.00431286 0.00369883 0.00964711 0.0159979 0.00748825 -0.00387211 -0.00169335 
0.00383642 0.00448226 0.00485212 0.00493278 -0.00237149 -0.00238074 -0.00431277 -0.00050957 -0.00109018 
-0.00556822 -0.00238139 -0.00546604 -0.00540938 -0.00522311 -0.00487622 0.00563833 -0.00523965 0.00554568 
0.00308107 0.00559474 0.005394 0.00500544 0.00430802 -0.00405364 0.00440056 -0.00554849 6.30545e-05 
0.000494176 0.00277749 -0.00371262 -0.00886692 -0.0144233 -0.0211123 -0.0127306 -0.00405896 -0.0301268 
-0.00899646 -0.0163336 0.00698111 0.0122516 0.0153326 0.0186682 -0.00371705 -0.00406593 -0.00355333 
0.00301752 -0.00474707 -0.00307572 -0.00148965 -0.000410786 0.000394567 0.00128582 0.00334884 0.000412357 
2.47376e-05 -0.00075069 -0.00121842 0.00208201 0.026623 0.00108792 -0.00400311 0.00433224 0.00247901 
0.00446363 0.00172927 -0.0223194 0.0053072 0.00486362 0.000935743 -0.00197909 0.00135504 0.00856994 
0.0144259 0.0221578 0.000715602 -0.00432637 -0.025752 0.00462229 -0.00117779 -0.00453285 -0.000258645 
-0.00990984 -0.00506723 -0.00472163 -0.00472691 0.00533479 0.0053268 0.00539057 0.00262607 -0.00724026 
-0.00246239 -0.00487356 -0.00415599 -0.0117229 -0.0181167 -0.00125354 0.0116339 0.00869386 0.00493353 
-0.0051639 0.0012261 0.00520809 0.00377163 -0.00495385 -0.00471929 -0.00176918 1.51449e-05 0.00142588 
0.00309671 0.00396621 -0.00053731 0.00514335 0.00026277 0.000608434 -0.00339389 0.00142939 -0.00193152 
0.000489131 -0.000573598 -0.00323512 0.00292598 0.00632108 -0.00403756 0.00310829 -0.00197393 -0.00692356 
-0.00012533 0.0026553 -0.00177756 0.00429583 -0.00343042 -0.00421078 0.00464466 -0.00381962 -0.000526586 
0.0046836 0.000910138 -0.00192862 -0.0026037 0.00450957 -0.00706792 0.00217639 -0.000967654 0.00222024 
0.000653444 0.00360286 0.00420895 -0.00509275 0.00333542 0.000208095 0.00157563 0.000258001 0.000873314 
5.55679e-05 -0.348105 0.346782 -0.271432 -0.141427 -0.112591 -0.0943888 -0.0765568 -0.0593656 
-0.0494043 -0.0427128 -0.0357009 -0.0295876 -0.0222977 -0.0136503 -0.0063594 0.00166366 0.00990959 
0.017282 0.0236739 0.0295536 0.036331 0.0437644 0.0525101 0.0607552 0.0693152 0.0779127 
0.087555 0.101922 0.121592 0.252847 -0.242414 -0.126485 -0.111076 -0.095349 -0.0853897 
-0.0807879 -0.0693316 -0.058433 -0.0482811 -0.0374169 -0.0293899 -0.0217097 -0.0126538 -0.00510792 
0.00295929 0.0114094 0.0217049 0.0307983 0.0403061 0.0496118 0.0595898 0.070705 0.0828502 
0.0977025 0.114993 0.139751 0.239711 2.9358e-05 2.44609e-05 -9.51756e-06 -1.33968e-05 -2.56081e-05 
-3.32484e-05 -3.86131e-05 -4.21088e-05 -4.26531e-05 -3.68193e-05 -1.5405e-05 -1.17942e-05 2.35193e-06 1.29894e-05 
1.94717e-05 2.55604e-05 2.1878e-05 2.80497e-05 2.75622e-05 2.20167e-05 2.76196e-05 3.50083e-05 3.95646e-05 
3.76121e-05 2.31399e-05 -2.02938e-06 -2.06182e-05 -3.66221e-05 0.163053 0.00628365 -0.00159903 -0.000630734 
-0.000466618 -0.000442138 -0.000379321 -0.000295644 -0.000217681 -0.000204666 -0.0001521 -0.000103544 -6.73549e-05 
-3.91414e-05 -1.94087e-05 -5.67823e-05 -0.000135492 -0.000282174 -0.000409142 -0.000543442 -0.00059231 -0.000526094 
-0.000218183 0.000155707 0.000389896 0.000490507 0.000454658 0.000320064 0.000210378 0.000107633 1.70814e-05 
-4.18917e-05 -5.64879e-05 -7.93268e-05 -8.54566e-05 -8.50419e-05 -7.97529e-05 -7.42946e-05 -6.83653e-05 -6.31549e-05 
-6.11486e-05 -5.67697e-05 -4.35008e-05 -1.70828e-05 3.42434e-05 2.7082e-05 -3.63718e-05 -6.93662e-06 1.93938e-06 
2.37507e-05 3.19406e-05 4.14688e-05 4.74847e-05 5.24245e-05 5.81294e-05 5.81701e-05 6.60978e-05 5.44595e-05 
6.22725e-05 3.08661e-05 8.91318e-06 1.41858e-05 2.3152e-05 1.7208e-05 -9.09725e-05 -0.000369976 -0.000547777 
-0.000562898 -0.000575884 -0.000165531 0.000232586 0.000371724 0.000412688 0.000425458 0.000272922 0.000124503 
5.54729e-05 2.67629e-05 3.85918e-05 6.20971e-05 9.54065e-05 0.000154512 0.00018154 0.000186977 0.000225399 
0.000464138 0.000778453 0.00112887 0.00239335 0.00400359 0.0020988 -0.144398 0.0537765 0.0187709 
0.0112853 0.00665121 0.00403875 0.00241732 -0.000467819 -0.0040832 -0.00515248 -0.00635546 -0.00901198 
-0.0134903 -0.0182407 -0.0633652 0.00441849 0.0593164 0.0355958 0.0253242 0.0169833 0.0124477 
0.00882118 0.003781 0.0018455 -0.00105751 -0.00412428 -0.0080604 -0.0124069 -0.0286747 -0.0631252 
-0.00304601 1.69702e-05 9.80296e-06 -1.34998e-05 -3.60027e-05 -3.36766e-05 -3.20524e-05 -3.11949e-05 -2.7513e-05 
-2.33503e-05 -1.74883e-05 -3.0763e-05 -1.68945e-05 -2.08928e-05 -1.98104e-05 -1.06977e-05 -6.68646e-06 9.25959e-06 
1.38762e-05 2.3495e-05 3.55479e-05 3.69916e-05 3.6063e-05 2.76493e-05 1.6523e-05 5.32596e-06 -4.62976e-06 
-1.89336e-05 -3.18513e-05 0.164519 -0.0294897 -0.00788258 -0.00253761 -0.00129611 -0.000766428 -0.000514864 
-0.00034786 -0.000259243 -0.000196074 -0.000154049 -0.00011771 -9.786e-05 -9.98534e-05 -0.000119607 -0.000167009 
-0.000223382 -0.000303003 -0.00041779 -0.000561728 -0.000605412 -0.000441498 -0.000110168 0.000224687 0.000449538 
0.000550419 0.000486313 0.000339689 0.000194452 6.07781e-05 -2.12693e-05 -3.88888e-05 -5.37926e-05 -5.11192e-05 
-4.50086e-05 -4.16827e-05 -4.03626e-05 -3.40448e-05 -2.45582e-05 -2.1511e-05 -1.35654e-05 -4.89173e-06 3.87204e-06 
2.14677e-05 5.06738e-05 3.29624e-05 -3.14326e-05 -3.19054e-05 -1.80656e-05 -5.65274e-06 2.57715e-06 1.29354e-05 
1.89611e-05 2.24618e-05 3.22422e-05 4.84901e-05 4.75082e-05 7.8279e-05 6.73665e-05 0.000104922 0.000118193 
8.34484e-05 -2.83267e-05 -0.000197823 -0.000345444 -0.000429329 -0.000457069 -0.000414026 -1.62476e-05 0.000356101 
0.00045864 0.000617095 0.00042761 0.000254678 0.000209534 0.000188139 0.000155366 0.000142414 0.000117232 
0.000120012 0.000144843 0.000163304 0.000178167 0.000354007 0.000450531 0.000398332 0.000424213 0.000586148 
0.000859744 0.00370307 0.00269457 -0.175366 0.0507455 0.024344 0.0130804 0.00825363 0.00520097 
0.00344787 0.0014591 0.00368884 -0.000691445 -0.00333968 -0.00709078 -0.0121845 -0.0312246 -0.0514893 
0.0113488 0.0532762 0.0239451 0.0138619 0.00757707 0.00403943 0.000272223 -0.000753191 -0.00599211 
-0.00942356 -0.0133556 -0.0173137 -0.0224924 -0.0242543 -0.0559499 -0.00322475 -2.13698e-05 1.26674e-05 
-0.0258245 0.0171415 0.0227922 -0.0119574 -0.265883 0.251176 -0.16924 -0.129153 -0.121771 
-0.111091 -0.0958344 -0.102876 -0.0876376 -0.0780693 -0.0725916 -0.0700037 -0.0650399 -0.0603875 
-0.055329 -0.0511272 -0.0466211 -0.0422116 -0.0380538 -0.0338183 -0.0298812 -0.0261685 -0.0219815 
-0.0179044 -0.0138926 -0.00976106 -0.00579581 -0.00189 0.00221219 0.00619804 0.0100882 0.0139215 
0.0179637 0.0219901 0.0258922 0.0297808 0.0338768 0.0380161 0.0422663 0.0465581 0.0511452 
0.0558967 0.0606964 0.0655004 0.0707228 0.0758897 0.0814597 0.0871826 0.0939756 0.101047 
0.109537 0.118124 0.128489 0.161078 3.2888e-05 -6.60071e-05 -0.000104683 -0.000218519 -0.000241742 
-0.000321612 -0.000362221 -0.000381165 -0.000605615 -0.00050107 -0.000512254 -0.000863801 -0.000590705 -0.0005985 
-0.00107429 -0.00061621 -0.000620537 -0.00118528 -0.000615637 -0.000613528 -0.00120916 -0.000585447 -0.000580803 
-0.00117057 -0.000522443 -0.000513654 -0.00107187 -0.000439267 -0.000418855 -0.000917582 -0.000322167 -0.000303042 
-0.000727559 -0.000211712 -0.000192882 -0.000502933 -7.62468e-05 -6.01e-05 -0.000266447 5.53003e-05 7.05515e-05 
-1.09343e-05 0.000183363 0.000197207 0.000241692 0.000309502 0.000324183 0.000489264 0.000405751 0.000417105 
0.000710578 0.000489794 0.000494483 0.000884252 0.000543459 0.000556561 0.00102077 0.000585088 0.000591513 
0.00111627 0.000600785 0.000603915 0.00117097 0.000578026 0.000574523 0.00115727 0.000499678 0.00049013 
0.00105139 0.000380162 0.000361517 0.00085064 0.000241719 0.000214315 0.000597022 0.000115953 7.30049e-05 
0.000344111 -1.28746e-05 -1.08698e-05 -1.30718e-05 0.000125471 0.120962 0.0577484 0.0435095 0.0190665 
0.0180677 0.0641516 0.0101213 0.00948111 0.0289655 0.00564524 0.00524933 0.0156796 0.00322003 
0.0029726 0.00901598 0.00164055 0.00147272 0.00505116 0.000643052 0.000562053 0.00249372 2.41431e-05 
-3.25366e-05 0.000889994 -0.000393767 -0.000428258 -0.000189218 -0.00069089 -0.00070905 -0.000949468 -0.00091867 
-0.000936559 -0.001481 -0.00113185 -0.00113747 -0.00195394 -0.00136768 -0.00138429 -0.00244406 -0.00175071 
-0.00177829 -0.00308455 -0.0023168 -0.00241351 -0.00404761 -0.00303384 -0.00314262 -0.00532882 -0.00385597 
-0.00400507 -0.00682278 -0.00474308 -0.00487093 -0.00848426 -0.00530993 -0.00539342 -0.00988691 -0.00511608 
-0.00506355 -0.0101612 -0.00381304 -0.00355867 -0.00854694 -0.00180012 -0.00132269 -0.00520127 0.000769318 
0.00117628 -0.000619429 0.00277498 0.00301009 0.00377346 0.00378192 0.00382781 0.00656172 0.00370931 
0.0035937 0.00725677 0.00306253 0.00292644 0.00641545 0.00209129 0.00194692 0.00481007 0.00117521 
0.00104369 0.00302801 0.000424503 0.000325757 0.0014478 -0.000113685 -0.000175705 0.000252912 -0.000498594 
-0.000533931 -0.000617305 -0.000727267 -0.000757366 -0.00120168 -0.000882073 -0.00089182 -0.00157088 -0.000936386 
-0.000937697 -0.00176239 -0.000971411 -0.000968944 -0.00184945 -0.000953779 -0.00094902 -0.00186698 -0.000890058 
-0.000880481 -0.00178365 -0.000795723 -0.000788705 -0.00162707 -0.000693443 -0.000685263 -0.00143668 -0.000599267 
-0.000585717 -0.00124296 -0.000460445 -0.000434951 -0.00101123 -0.000291106 -0.000257767 -0.000712557 -0.000121208 
-7.75639e-05 -0.000388361 -0.0263368 -0.0186954 4.4921e-05 0.000235154 0.000250947 -0.0148206 -0.0144069 
0.00037147 0.000393037 0.000617078 0.000520669 0.00053473 0.000898269 0.000648536 0.00066636 0.00116535 
0.000759045 0.000769434 0.00139651 0.000857926 0.000866633 0.00159214 0.000908443 0.000913018 0.00173115 
0.000913537 0.000911198 0.0017799 0.000890628 0.000896181 0.00176217 0.000838167 0.000812531 0.00166326 
0.000677275 0.000646786 0.00144578 0.000468378 0.00041228 0.00106038 9.62273e-05 4.60167e-05 0.000496319 
-0.000415481 -0.000495988 -0.000390674 -0.00112874 -0.00130387 -0.00164171 -0.00197502 -0.00209012 -0.00314614 
-0.00285548 -0.00306684 -0.00487192 -0.00354505 -0.00372204 -0.00641151 -0.00382325 -0.00377093 -0.00710611 
-0.00280895 -0.00239536 -0.00601641 -0.000508513 -0.000144633 -0.00274477 0.00188863 0.00244491 0.00193261 
0.0037938 0.00409633 0.00604674 0.00496138 0.00510217 0.00890062 0.00492952 0.00480627 0.00958469 
0.00424467 0.00408879 0.00872905 0.0034378 0.00331847 0.0072933 0.00271441 0.00254763 0.00578524 
0.00210652 0.00200624 0.00452046 0.0016055 0.00156209 0.00354987 0.00124816 0.00122842 0.00276317 
0.000996792 0.000981304 0.00215521 0.000778933 0.000753513 0.00168992 0.000545916 0.000517795 0.00120907 
0.000258702 0.000215618 0.000647797 -0.000135572 -0.000262822 -0.000116311 -0.000857102 -0.000957672 -0.00126392 
-0.00182322 -0.00198195 -0.00299171 -0.00357667 -0.00385609 -0.00583874 -0.00620008 -0.00649653 -0.0103583 
-0.0108278 -0.0108269 -0.0174218 -0.0198556 -0.0232472 -0.0321523 -0.0457982 -0.0675575 -0.0691665 
-0.0952639 -0.140181 -0.127273 -0.116154 -0.110356 -0.121231 -0.0999685 -0.0935203 -0.106248 
-0.0888859 -0.0810863 -0.0917656 -0.0777367 -0.0633513 -0.0734511 -0.0681925 -0.0534691 -0.0624763 
-0.057659 -0.0433881 -0.0518797 -0.0488924 -0.0340824 -0.0431743 -0.0399325 -0.0250435 -0.0347659 
-0.0311467 -0.0168782 -0.0257006 -0.0228237 -0.00834726 -0.0176984 -0.0148275 -0.000294093 -0.00947321 
-0.00711409 0.00741632 -0.00163914 0.000782805 0.0153567 0.00599333 0.00784748 0.0229404 0.0132042 
0.0158144 0.0308628 0.0203584 0.0241721 0.0391375 0.0280284 0.0326771 0.0480837 0.0357646 
0.0413271 0.0567484 0.0445444 0.0508441 0.0666018 0.0533004 0.060332 0.0767454 0.0628944 
0.0709301 0.0877011 0.073135 0.0836713 0.101845 0.0847176 0.0999472 0.119881 0.0996939 
0.118519 0.139157 0.115969 0.0474246 0.0435471 0.0393816 0.0625879 0.0359074 0.0237571 
0.0379888 0.0406974 0.014929 0.0263409 0.0293891 0.00728802 0.0178814 0.0201744 0.00214503 
0.0127532 0.0129583 -0.00281615 0.00834195 0.0072364 -0.00718857 0.00407114 0.00245757 -0.0113427 
-0.0024376 -0.00193115 -0.0167585 -0.00628882 -0.00631873 -0.0234808 -0.0118922 -0.011797 -0.0345069 
-0.0216811 -0.0204367 -0.0544558 -0.0381684 -0.0304265 -0.0468428 -0.04853 -0.033227 -0.011444 
0.00700281 0.0615331 0.0566705 0.0477412 0.0616908 0.0397044 0.0284027 0.040513 0.0408343 
0.0187306 0.0247544 0.0302168 0.00969082 0.0206875 0.0172879 0.00128208 0.0130891 0.00923031 
-0.00326548 0.00663585 0.000863057 -0.00900555 0.00147549 -0.00567248 -0.016458 -0.00550714 -0.0119474 
-0.0235793 -0.0119229 -0.0194964 -0.0331715 -0.0203101 -0.0265484 -0.044819 -0.0306223 -0.0360371 
-0.068524 -0.0454633 -0.0468155 -0.0448569 -0.0456559 -0.0412271 -0.00705498 0.00297018 -4.69456e-05 
0.136286 -0.00345502 0.0160407 -0.145251 -0.0502085 -0.0237361 -0.000217082 0.0353091 0.0548738 
0.0112696 -0.0532639 -0.0459214 -0.015219 0.0445668 -0.135617 0.124265 0.00821804 0.00621152 
-0.000760544 -0.000911857 -0.00113721 -0.00127467 -0.00131872 -0.00145104 -0.0015439 -0.00174555 -0.00164864 
-0.00167435 -0.00203425 -0.00170526 -0.00169934 -0.00218069 -0.00165082 -0.00161492 -0.00215962 -0.00152045 
-0.00144822 -0.00200047 -0.00132179 -0.00121352 -0.00175845 -0.0010622 -0.000935758 -0.0014488 -0.000761104 
-0.000619772 -0.00108094 -0.000431663 -0.000281817 -0.000672335 -8.20096e-05 7.26078e-05 -0.00023553 0.000278314 
0.000425907 0.000222844 0.000630347 0.000774206 0.000681203 0.000940643 0.00105634 0.00109845 0.00119813 
0.00128911 0.0014409 0.00141175 0.00148153 0.00173822 0.00156905 0.00161446 0.00197242 0.00165668 
0.00167587 0.00211806 0.00164819 0.00161903 0.00214246 0.00153096 0.00144563 0.00203025 0.00129511 
0.00116732 0.00177167 0.000978066 0.000821753 0.0014053 0.000621431 0.000486905 0.000979018 0.0209942 
0.019692 -0.10505 -0.120409 -0.0722416 -0.000198129 0.0484294 0.0372472 0.0277833 0.0223209 
0.0433345 0.0169323 0.0140112 0.0272199 0.0105484 0.00850312 0.0174892 0.00590898 0.00462774 
0.0107087 0.00290282 0.00210486 0.00585106 0.000981475 0.000354054 0.00266532 -0.000347094 -0.000752704 
0.000628783 -0.00137087 -0.00170275 -0.000948776 -0.00222885 -0.00253745 -0.00220937 -0.00299515 -0.00334477 
-0.00330997 -0.00388642 -0.00436926 -0.00446948 -0.00502872 -0.00571219 -0.00585404 -0.00663642 -0.00746756 
-0.00763979 -0.00851666 -0.00945031 -0.00985158 -0.0106685 -0.011616 -0.012405 -0.012694 -0.0132759 
-0.0151391 -0.0133913 -0.0131788 -0.0166526 -0.0123139 -0.0108794 -0.0158732 -0.00851786 -0.00619727 
-0.0125781 -0.00251222 0.000243178 -0.0057627 0.00373425 0.00589903 0.00250765 0.00806853 0.00904442 
0.00887229 0.0094499 0.00928746 0.0115805 0.00849871 0.00779316 0.0109198 0.00657164 0.0055551 
0.00859652 0.00433117 0.00336493 0.00591675 0.00226357 0.00147491 0.00337297 0.000599942 3.67543e-05 
0.00123001 -0.000621957 -0.00104707 -0.000427836 -0.00148856 -0.00175956 -0.00161927 -0.00203535 -0.00221704 
-0.00239334 -0.00237422 -0.0024524 -0.0028926 -0.00253271 -0.00257112 -0.00317022 -0.00259153 -0.00257225 
-0.00329208 -0.00250074 -0.00243743 -0.00323186 -0.00233237 -0.00223901 -0.00304073 -0.0020773 -0.00196849 
-0.0027646 -0.00181072 -0.00169732 -0.00242759 -0.00151805 -0.00135774 -0.00205984 -0.00113755 -0.000959661 
-0.00161751 -0.000684691 -0.000492237 -0.00107072 0.0407058 0.0150806 0.101931 0.0699992 0.0748247 
0.000818486 0.000969414 0.00121124 0.0013688 0.00142528 0.00160533 0.00174462 0.00193641 0.00193814 
0.00205448 0.00239442 0.00219401 0.00229386 0.00275311 0.00237218 0.0024243 0.00298961 0.00245708 
0.00246154 0.00311582 0.00243461 0.00240359 0.00312647 0.00230128 0.00220759 0.00297978 0.00203159 
0.00184108 0.00266704 0.00152183 0.00124129 0.00211004 0.000772103 0.000349193 0.00123731 -0.000296901 
-0.000920797 -8.4809e-06 -0.00186885 -0.00271388 -0.00178176 -0.00379548 -0.00469771 -0.00406648 -0.00596062 
-0.00698888 -0.00668402 -0.00811114 -0.00878579 -0.00933412 -0.00935662 -0.00937015 -0.0112089 -0.00837862 
-0.00701713 -0.0108109 -0.00409836 -0.00167155 -0.0066875 0.00179273 0.00451269 0.000655329 0.00761403 
0.00980996 0.00811246 0.0116934 0.0127465 0.0139239 0.0128983 0.0127479 0.016261 0.0117371 
0.011061 0.0152272 0.00982928 0.00901703 0.0128905 0.00799179 0.00716732 0.0104389 0.00628877 
0.00566848 0.00835129 0.00492771 0.00439698 0.00656344 0.00378977 0.0033609 0.00504374 0.00285545 
0.00253855 0.00378017 0.00206188 0.0017756 0.0026888 0.00125374 0.000915339 0.00158252 0.000281136 
-0.000176254 0.000297126 -0.0010892 -0.0016796 -0.00141077 -0.00287544 -0.00377321 -0.00385718 -0.00544361 
-0.00683744 -0.00716423 -0.00968354 -0.0121757 -0.0123912 -0.0159395 -0.0191941 -0.020194 -0.0255416 
-0.0313473 -0.0314489 -0.0429778 -0.0558027 -0.0826251 -0.0508594 -0.000461992 -0.110312 0.109144 
-0.106272 -0.0963853 -0.09189 -0.0843203 -0.0903351 -0.0766509 -0.077554 -0.0787099 -0.0664934 
-0.0683035 -0.0684153 -0.0540727 -0.058639 -0.059358 -0.0443759 -0.0497777 -0.0499699 -0.0345111 
-0.0409271 -0.0412349 -0.0251758 -0.032495 -0.0325518 -0.0179694 -0.0247739 -0.0243609 -0.00960346 
-0.016239 -0.016568 -0.00137108 -0.00888541 -0.00865371 0.00605847 -0.000902342 -0.000896238 0.0140737 
0.00628452 0.0064766 0.0217802 0.0146932 0.0142586 0.0303647 0.0231888 0.0221624 0.0383786 
0.0314525 0.0303904 0.0476286 0.0402486 0.038618 0.0559116 0.0499737 0.0475728 0.066257 
0.0598423 0.0568949 0.0764451 0.0708843 0.0668283 0.0876321 0.0832958 0.0769681 0.101333 
0.0984495 0.0880935 0.113234 0.0266908 0.0241441 0.0186838 -0.0141136 -0.0376582 0.00108019 
0.0252413 0.0109814 0.00369433 0.014567 0.0172795 0.0117387 0.0155632 0.0128266 0.00589541 
0.0113682 0.00786979 0.00112983 0.00660471 0.00258224 -0.00427687 0.00196519 -0.0027951 -0.00933727 
-0.00259462 -0.0074825 -0.0139449 -0.00742276 -0.0128399 -0.018698 -0.0118052 -0.019426 -0.0241842 
-0.0161864 -0.0242245 -0.027468 -0.0181092 -0.00730448 -0.0262629 -0.0136482 -0.0139097 -0.000442639 
-0.00240349 0.0353643 0.0227332 0.0113886 0.0183368 -0.0112424 -0.0486429 0.0299849 0.0166714 
0.0229493 0.0190984 0.0151958 0.0131785 0.0158078 0.00870965 0.00542906 0.00920742 0.00305629 
-0.00238296 0.00301891 -0.00331823 -0.00861339 -0.00311145 -0.0104779 -0.0155111 -0.00930118 -0.0175264 
-0.0218431 -0.0155775 -0.0252784 -0.0289394 -0.0210418 -0.0292098 -0.0341711 -0.0236415 -0.00526212 
-0.0337477 -0.0177779 -0.0263403 -0.0123836 -0.000630352 0.0311552 0.0334894 0.0192733 0.0295616 
0.0275971 0.0243529 0.0215311 -0.029047 -0.0272436 0.000374203 0.00026729 0.000254296 0.000647735 
-0.100027 0.0421217 0.0316227 0.000514967 0.00766619 0.0251543 -0.000930406 0.0971254 0.000359783 
0.00979077 -0.010667 0.029759 0.0145255 0.0270543 0.0290995 -0.0367777 -0.0446229 -0.010718 
-0.0240919 0.000844109 0.00482668 0.00722869 -0.0811369 -0.00197519 -0.00215646 -0.00236367 -0.00246918 
-0.00260132 -0.00255661 -0.00258765 -0.00290214 -0.00259263 -0.00253814 -0.00299631 -0.00245021 -0.00234271 
-0.00289641 -0.00216811 -0.00201805 -0.00261913 -0.00180101 -0.00161809 -0.00220359 -0.00138566 -0.00117045 
-0.00172751 -0.000913867 -0.000682813 -0.00120383 -0.000397976 -0.000149464 -0.000621567 0.000144782 0.000398565 
2.72496e-06 0.000701495 0.000948681 0.000645583 0.00120337 0.00140755 0.00124241 0.0016402 0.00180928 
0.00176411 0.00200779 0.00215761 0.00222265 0.00230264 0.00241012 0.00259118 0.00249106 0.00254582 
0.00283871 0.00255714 0.002537 0.00294821 0.00246125 0.00236743 0.00289109 0.00220014 0.00203767 
0.00265021 0.0017915 0.00158013 0.00222326 0.00855256 0.0112307 0.0063185 0.0120462 0.0135512 
0.00867681 0.0563246 0.0452341 0.0373268 0.0307466 0.0478397 0.0247987 0.0206046 0.033385 
0.0164043 0.0130924 0.0227155 0.00962577 0.00733293 0.014443 0.00512996 0.0036968 0.00838731 
0.00230496 0.00124061 0.00438699 0.000141326 -0.000646362 0.00159018 -0.00160868 -0.00230115 -0.000715128 
-0.00306871 -0.00368536 -0.0025683 -0.00440493 -0.00513677 -0.00420359 -0.00597121 -0.00681842 -0.00589789 
-0.00783864 -0.00895387 -0.00788854 -0.0101557 -0.0114029 -0.0102483 -0.0129623 -0.0144281 -0.0131443 
-0.0161579 -0.0174637 -0.0165768 -0.0188854 -0.0193013 -0.0202044 -0.018848 -0.0179629 -0.0215463 
-0.0169127 -0.0143872 -0.0203482 -0.00969259 -0.00524459 -0.0149277 0.00121581 0.00549052 -0.00216961 
0.00938466 0.011815 0.00910467 0.0130869 0.0135316 0.0143821 0.0125008 0.011533 0.0145277 
0.00985126 0.00849641 0.011441 0.00677196 0.0053962 0.00788809 0.00396459 0.00273282 0.00463733 
0.00152874 0.000557284 0.00194853 -0.000327832 -0.00108076 -0.000178043 -0.00172462 -0.00223377 -0.0017466 
-0.00266004 -0.00300676 -0.00286754 -0.00328384 -0.00349125 -0.00361098 -0.00364877 -0.0037622 -0.00407904 
-0.00380728 -0.00383143 -0.00430417 -0.00377993 -0.00371099 -0.00430657 -0.00359549 -0.00348698 -0.00414673 
-0.00332024 -0.00315287 -0.00386896 -0.0029375 -0.00275795 -0.00348615 -0.00254543 -0.0023281 -0.0030449 
-0.00209954 -0.00184074 -0.00257283 -0.00153379 -0.00121954 -0.00137952 -0.00200484 0.0864256 0.0661101 
0.0664453 0.0864293 0.00217364 0.0116593 0.016214 0.0108482 0.00217494 0.00243029 0.00271834 
0.00293035 0.00296853 0.00315672 0.00331341 0.0034978 0.00345453 0.0035445 0.00387795 0.00363973 
0.00368023 0.00412103 0.00366858 0.00363088 0.00420138 0.00354395 0.00341647 0.0040942 0.0032256 
0.00299723 0.00379675 0.00266789 0.00228635 0.00324099 0.00180003 0.00123963 0.00238689 0.000514704 
-0.000268043 0.00112685 -0.00127018 -0.00235329 -0.000658572 -0.00372008 -0.00496168 -0.00309388 -0.00652103 
-0.0080007 -0.0061223 -0.00951594 -0.0107398 -0.00944997 -0.0123901 -0.012996 -0.0125832 -0.0131797 
-0.0121215 -0.0147224 -0.0092546 -0.00580653 -0.0125916 -0.000317663 0.00368443 -0.00296844 0.00834385 
0.0122116 0.00799528 0.0159743 0.0181967 0.0168443 0.0189435 0.018992 0.0218721 0.0175702 
0.0165429 0.0203009 0.0147138 0.0134511 0.0170401 0.0120254 0.0108696 0.0137804 0.00973751 
0.00870053 0.0111237 0.00762156 0.00672974 0.0087814 0.00576732 0.0050129 0.00666049 0.00419994 
0.00355197 0.00481218 0.00282978 0.00220112 0.00315804 0.00139049 0.000695596 0.00145024 -0.000413185 
-0.00124313 -0.000598008 -0.00258387 -0.00368604 -0.00321873 -0.00546721 -0.00704771 -0.00652797 -0.00948005 
-0.0117223 -0.0110653 -0.015624 -0.0193629 -0.0176977 -0.0237578 -0.028787 -0.0269274 -0.0344232 
-0.0421013 -0.0379849 0.000686859 0.00396023 -0.0854594 -0.0817185 0.0302991 0.0195657 -0.0768122 
-0.0717429 -0.0738323 -0.0673164 -0.0625562 -0.065701 -0.0584494 -0.0536464 -0.0575095 -0.050097 
-0.0456213 -0.0499019 -0.0415397 -0.0369471 -0.0420544 -0.033172 -0.0288049 -0.0339656 -0.0253552 
-0.0213259 -0.0263907 -0.0179423 -0.0136785 -0.0191626 -0.0102287 -0.00616165 -0.0118452 -0.00271041 
0.00123951 -0.00454339 0.00449661 0.00856043 0.00260142 0.0121024 0.0161492 0.00987222 0.0195183 
0.0237791 0.0172242 0.0273348 0.0315732 0.0246151 0.0353117 0.0397282 0.0323857 0.0435163 
0.0481823 0.040337 0.0521112 0.0571166 0.048381 0.0611685 0.066092 0.0565819 0.0696071 
0.0747043 0.064225 0.078231 0.0838091 0.0761022 0.0710304 0.0137885 0.0130793 0.00928451 
0.000869759 0.00328233 0.00333286 -0.00304981 -0.000731293 7.72645e-05 -0.0069096 -0.00456344 -0.0032684 
-0.010438 -0.00817786 -0.00628947 -0.0131161 -0.0113292 -0.00857712 -0.0123371 -0.0125644 -0.00903448 
-0.00447696 -0.0110161 -0.00626847 3.64153e-05 -0.0016695 0.00907672 0.00817484 -0.0255458 -0.0323083 
-0.0113887 -0.00870271 -0.0151134 -0.00568689 0.0225383 0.0222352 0.0119618 0.0144507 -0.00490428 
-0.00165134 -0.000210792 -0.0103676 -0.00717041 -0.00504728 -0.0152387 -0.0123008 -0.00947908 -0.0185633 
-0.0164191 -0.0126798 -0.0179173 -0.0184524 -0.0136712 -0.00981108 -0.0158953 -0.0109614 -0.0283309 
-0.0184742 0.00672817 0.00961999 0.00935606 0.00478394 -0.00162573 0.0114401 -0.0114997 -0.0205681 
-0.0227393 0.0015725 0.00183964 0.0023317 -0.0652878 -0.0803778 -0.0714458 -0.0517609 0.0251382 
0.0312544 -0.00203321 -0.0140151 0.00127587 0.00103909 -0.0196816 -0.0127591 -0.0188056 -0.000109349 
0.000264442 0.0033119 0.00165327 0.000924963 0.0012518 -0.0139117 0.0180417 0.011467 0.0184815 
0.00763152 -0.0543568 0.0257079 0.00692391 0.0120893 0.00602432 0.00833205 -0.0111271 -0.0118263 
-0.000620828 -0.00199251 0.0126447 -0.027314 -0.031668 -0.024917 -0.00788426 0.0123612 0.0128217 
0.0159238 0.0185673 0.0100022 0.0172137 0.0191204 0.00165892 0.0106846 0.0112847 0.0011988 
-0.00320068 -0.00328577 -0.00335436 -0.00335107 -0.00367715 -0.00330414 -0.00319934 -0.00368345 -0.00302228 
-0.00283433 -0.00343965 -0.00258246 -0.00234686 -0.00299702 -0.00205162 -0.00179282 -0.00242882 -0.00148607 
-0.00119916 -0.00180334 -0.000855203 -0.000532499 -0.00112943 -0.000166909 0.000167135 -0.000389251 0.000551612 
0.000893124 0.00039867 0.00126134 0.00154417 0.0011865 0.00184855 0.00210979 0.00188586 0.00238699 
0.00260628 0.00249156 0.00283571 0.00299846 0.00301953 0.00314339 0.00324145 0.00340816 0.00330024 
0.00332242 0.00362413 0.00328035 0.00321022 0.00365483 0.00305069 0.00288503 0.00346048 0.00260656 
0.00235485 0.00302399 0.00406609 0.00529541 0.00583603 0.00640014 0.00347657 0.065988 -0.0169955 
-0.0112175 0.0411913 0.0346074 0.0287776 0.0239229 0.0352637 0.019193 0.0152342 0.0243906 
0.0118026 0.00908717 0.0158425 0.00682286 0.00506988 0.00976534 0.00338304 0.00199683 0.0055202 
0.000641536 -0.000479322 0.002236 -0.00158169 -0.00254238 -0.000382326 -0.00345588 -0.00432477 -0.00252777 
-0.00524179 -0.00620468 -0.0044831 -0.00719868 -0.00833073 -0.00647852 -0.0094813 -0.0107713 -0.00866919 
-0.0121542 -0.0137445 -0.0111973 -0.0155493 -0.0172821 -0.0142522 -0.0199046 -0.0217905 -0.0184657 
-0.0241764 -0.0244264 -0.0239006 -0.021631 -0.0165749 -0.00594262 0.0026863 0.0161077 0.0173187 
0.0118433 0.0101645 0.00807992 0.00634077 0.00843045 0.00465328 0.00324484 0.00475652 0.00190046 
0.000683015 0.00180178 -0.000321841 -0.00120967 -0.000491323 -0.0019286 -0.00260003 -0.00216311 -0.00308717 
-0.00354573 -0.00333402 -0.00390121 -0.00420558 -0.00417195 -0.00443315 -0.00461303 -0.00475714 -0.00469773 
-0.00475878 -0.00507143 -0.00472061 -0.00468268 -0.00512655 -0.00456861 -0.00446487 -0.0049855 -0.00429058 
-0.00413092 -0.00471171 -0.00390796 -0.00369345 -0.00432856 -0.00342358 -0.00318841 -0.00384092 -0.00302699 
-0.00276594 -0.0033896 -0.0629155 -0.0686956 -0.0525485 -0.000691109 0.00079808 0.00172956 0.00320145 
0.00241499 0.000881795 0.00369806 0.00392802 0.00415595 0.00430504 0.00436855 0.00445026 0.00454073 
0.00474707 0.00460181 0.00458554 0.00494119 0.00455265 0.00445395 0.00496469 0.00430133 0.00409092 
0.00477726 0.003811 0.00345995 0.00435484 0.00304445 0.00252628 0.00366238 0.00193585 0.00117788 
0.00264688 0.000376195 -0.000651892 0.00126801 -0.00185954 -0.00324333 -0.000685333 -0.00474622 -0.00626172 
-0.00334026 -0.00876922 -0.0106921 -0.00706913 -0.0156201 -0.0164941 -0.0164968 -0.0135254 -0.0060731 
0.0164747 0.0213443 0.0245807 0.0245309 0.0212255 0.0199734 0.0236952 0.0179396 0.016215 
0.0188832 0.01464 0.0132135 0.0155388 0.0118865 0.0106441 0.0126932 0.00931296 0.00818176 
0.0098844 0.00700616 0.00598881 0.00741632 0.00493747 0.00405042 0.00522638 0.00305415 0.00218856 
0.00313578 0.00112292 8.72845e-05 0.000980188 -0.00128366 -0.00256421 -0.00164632 -0.00424078 -0.00576892 
-0.00483546 -0.00792816 -0.00996086 -0.00881621 -0.0127043 -0.0156109 -0.0139908 -0.0187729 -0.0232935 
-0.0204914 -0.030228 -0.0353854 -0.0306304 -0.0393408 -0.0454602 -0.0529514 -0.0416819 -0.00503579 
-0.00286953 0.00700213 0.00649999 0.006371 0.00567521 0.00354982 -0.0656475 -0.0623139 -0.0581361 
-0.057471 -0.05514 -0.0514194 -0.0515883 -0.0484134 -0.0449325 -0.0415483 -0.0376091 -0.0403034 
-0.0341078 -0.0302477 -0.0337487 -0.0268013 -0.0232973 -0.0270248 -0.0200806 -0.0164873 -0.0205075 
-0.0131082 -0.00949398 -0.0140616 -0.00617602 -0.00260176 -0.00749198 0.000638112 0.00411328 -0.00104412 
0.00755436 0.0112512 0.00553518 0.0145869 0.0181406 0.0122527 0.0214539 0.025189 0.0187808 
0.0287062 0.032626 0.0255156 0.0363002 0.0401049 0.032467 0.0436822 0.0476284 0.0394445 
0.0510575 0.0548252 0.0461653 0.0571115 0.0602643 0.051478 -0.00319906 -0.00167875 -0.000840072 
0.0176739 0.0219876 0.0186106 -0.00542154 -0.0041894 -0.00250376 -0.00656024 -0.00598321 -0.0038003 
-0.00542924 -0.00636727 -0.00371102 -0.00182888 -0.00462976 -0.00202626 -0.00390438 0.000646624 0.00307056 
0.00336003 0.00380812 0.0114705 -0.00103325 0.00115957 -0.00135292 -0.0105087 -0.00967881 -0.0101795 
-0.0106899 -0.00779056 -0.00745023 -0.0095653 -0.00702896 -0.00756124 -0.0071694 -0.00605246 0.0568858 
0.0486016 0.048833 0.0651931 -0.00280233 -0.00300789 0.00197942 0.00180313 -0.000240179 0.000823431 
0.00143272 -0.0085616 -0.00673215 -0.00451989 -0.00689175 0.0159144 0.00236445 -0.00235576 -0.00341254 
-0.0463141 -0.0135134 -0.00912436 0.00168387 -0.0215338 -0.0173484 -0.0246752 0.0128585 0.0144004 
0.0141115 0.00241107 0.00516141 0.00284256 0.00769223 0.00567079 0.00656052 0.00796475 0.0118583 
-0.00950945 -0.00500742 0.0625308 0.00190293 0.00292067 0.00537572 0.0124843 0.0550274 0.00995583 
0.0110926 0.00455501 0.00986718 0.00778718 0.00958695 0.006664 0.00844454 0.00713171 0.00475852 
-0.00147802 0.00103073 0.00124373 0.0027045 0.00310767 -0.000805127 -0.000129622 -0.00401641 -0.00395544 
-0.00383608 -0.00364642 -0.00419414 -0.00338169 -0.00311933 -0.00379718 -0.00276808 -0.00245575 -0.00316587 
-0.00208842 -0.00176273 -0.00242991 -0.00140212 -0.00103654 -0.00168063 -0.000676429 -0.000279542 -0.000945566 
0.000201169 0.000614787 -8.09168e-05 0.00108769 0.00148153 0.000905556 0.00188068 0.0022038 0.00180222 
0.00256644 0.00286109 0.00258124 0.00315546 0.00339985 0.00325265 0.00361901 0.00377244 0.00378089 
0.00388044 0.00395079 0.00411519 0.0039669 0.00393588 0.004248 0.00383278 0.00368453 0.00417502 
0.00338079 0.00126812 -0.000991101 -0.00192297 -4.3677e-05 0.0286571 0.0237884 0.0193908 0.0155274 
0.0230269 0.0123822 0.00980793 0.0154291 0.0076173 0.0056903 0.00991673 0.00393784 0.00235136 
0.00576555 0.00105145 -0.000234421 0.00250541 -0.00138106 -0.00240443 -6.80342e-05 -0.00338318 -0.00438279 
-0.00224323 -0.00529406 -0.00633683 -0.00415285 -0.00734934 -0.00850207 -0.00605987 -0.00967522 -0.0110056 
-0.00823223 -0.01177 -0.013192 -0.0100149 -0.0150273 0.00432801 0.00277876 0.00134207 7.76791e-05 
0.000901402 -0.000988585 -0.00189179 -0.00151878 -0.00261018 -0.0032496 -0.00312758 -0.00370742 -0.00416396 
-0.00416359 -0.00435015 -0.00470928 -0.00473698 -0.00496606 -0.00518541 -0.00517857 -0.00528585 -0.00537788 
-0.00551029 -0.00535469 -0.0053353 -0.00558785 -0.00523157 -0.00513785 -0.00547546 -0.00497963 -0.00482802 
-0.00523293 -0.0045903 -0.00438619 -0.00485999 -0.00406589 -0.00380226 -0.00432326 0.0044468 0.00466626 
0.0057771 -0.00254134 -0.00229234 0.00488667 0.00502757 0.00496833 0.00514528 0.00519826 0.0052976 
0.00523876 0.00520176 0.0054527 0.00514754 0.00500197 0.00544141 0.00482683 0.00456317 0.00522868 
0.00425538 0.00384912 0.00477947 0.00338592 0.00279736 0.00404191 0.00237868 0.00163897 0.0031904 
0.000844061 -0.00027637 0.00208967 -0.00144935 -0.00287507 0.000245955 -0.0122147 -0.00181235 -0.00116637 
-0.000372084 0.0137478 0.0121049 0.00982807 0.00853438 0.0106119 0.00725222 0.00613002 0.00711446 
0.0051009 0.00406027 0.00493792 0.00292183 0.00180482 0.00276438 0.000598911 -0.000586557 0.000385475 
-0.00203489 -0.00361992 -0.00235047 -0.00552547 -0.0073581 -0.00580205 -0.00966623 -0.0120016 -0.010185 
-0.0150944 -0.018215 -0.0157194 -0.0223022 -0.026035 -0.0231265 -0.0322973 -0.0327073 -0.0380269 
0.00480142 0.00453124 -0.0383533 -0.0354109 -0.0502958 -0.0326565 -0.0294751 -0.0310254 -0.0263735 
-0.0231973 -0.0255754 -0.0203129 -0.0172814 -0.0199372 -0.0143222 -0.0111866 -0.0143225 -0.00864083 
-0.00543218 -0.00901416 -0.00253074 0.000509742 -0.00373205 0.00345152 0.006824 0.00184159 0.00947638 
0.0126473 0.00727616 0.0157522 0.0188841 0.0129054 0.0220021 0.0253159 0.0188287 0.0285507 
0.0318792 0.0248502 0.0349607 0.0382199 0.0308048 0.0412807 0.0442725 0.0365841 -0.00133997 
-0.0019985 -0.000508679 0.000539649 -0.00078175 0.000783278 0.0037777 0.0041 -0.011949 -0.00859046 
0.0108897 0.0102294 0.0069364 0.0079574 0.0407997 0.03465 0.0333869 -0.00555989 -0.00525063 
0.00177452 0.00191628 -0.00150563 -7.43352e-05 -0.00516848 -0.00574291 -0.00410257 -0.00578362 -0.00590656 
-0.00403437 0.0475494 -0.003956 -0.00401765 -0.00433389 -0.0430868 -0.0405597 0.00176344 0.00127696 
0.000145136 0.00335936 0.0460728 -0.0355141 -0.00360271 -0.00379785 -0.00393949 -0.00554934 -0.00484549 
-0.000856499 0.0445192 0.00518345 0.00658113 0.00411021 0.00439985 -0.00279939 -0.00134884 -0.00407246 
0.0140519 0.0169162 0.00107804 0.00156416 0.000375273 0.000852179 -0.000186014 -0.000748865 0.000174851 
0.000874891 0.000245459 6.85745e-06 0.0058524 0.00560896 -0.00336584 -0.00546133 -0.00104715 -0.00125322 
0.0396488 0.00489884 -0.00979651 -0.00947259 -0.04386 0.00139123 0.00282295 0.00101705 0.00128311 
0.00228101 0.00258006 0.00154949 0.000542254 -0.00121005 -0.00418416 -0.00862022 -0.00660083 -0.00536915 
-0.0080517 0.00533277 0.00481246 0.00350402 0.00125408 0.00249131 0.00299191 0.000773434 0.00335378 
0.0354686 0.0353676 0.0296068 -0.00415993 -0.00388632 -0.00267621 -0.00230021 -0.00182277 -0.00144505 
-0.00207084 -0.00106596 -0.0061122 -0.00556803 -0.000484581 1.93106e-05 -0.000996943 0.000661576 0.00115531 
0.00025798 0.00170753 0.00212195 0.00147798 0.00257076 0.00294494 0.00250016 0.00331714 0.00361958 
0.00333162 0.00392637 0.00415823 0.0040165 0.00431825 0.00443671 0.00449651 0.00445083 0.00447748 
0.00468024 0.00449383 0.0254597 0.0210068 0.0271712 -0.000801298 -0.00122291 0.0175875 0.0142281 
0.019538 0.0117867 0.00946069 0.0135981 0.00746486 0.00554741 0.00906107 0.00400095 0.00249538 
0.00544693 0.00124115 -1.70131e-05 0.00253115 -0.00106004 -0.00208966 0.000135374 -0.00299871 -0.00392295 
-0.00186403 -0.00474426 -0.0056825 -0.00357753 -0.00692996 -0.000728662 -0.0458561 -0.00198048 -0.00278895 
-0.00221376 -0.00349298 -0.0040368 -0.00442562 -0.00480614 -0.00476796 -0.00502887 -0.0052117 -0.00529173 
-0.0054055 -0.00314839 -0.00360266 -0.00553426 -0.00561528 -0.00556598 -0.00560753 -0.00560469 -0.00563746 
-0.00551879 -0.00544337 -0.00554933 -0.00530015 -0.00516852 -0.00534749 -0.0049684 -0.00476228 -0.00503751 
-0.00337938 -0.00314883 0.000702162 0.000481395 0.00238837 0.00225193 0.00149303 0.000197356 0.000264213 
0.00529635 0.00540506 0.00549697 0.00553495 0.00550579 0.00556589 0.00551613 0.00562467 0.00546769 
0.00531585 0.00561219 0.00514917 0.00489582 0.00542693 0.00452381 0.00411762 0.00497132 0.00376271 
-0.000217866 0.00016251 0.00324517 0.00260831 0.00423268 0.00170207 0.00221496 0.00226789 0.0152516 
0.00445323 0.00342484 0.00262268 0.00143717 0.00214911 0.00021143 -0.0010528 3.52739e-05 -0.00250457 
-0.00405614 -0.00257116 -0.00589353 -0.00792143 -0.0058976 -0.0101756 -0.0126647 -0.0100756 -0.0157873 
-0.0190489 -0.0154756 -0.0232103 -0.0276102 -0.0228785 0.00084086 0.000215904 0.00219766 -0.0288183 
-0.026599 -0.0240569 -0.0213812 -0.0223311 -0.0189199 -0.0163175 -0.017709 -0.0136376 -0.0110102 
-0.0129528 -0.00784231 -0.00549835 -0.00743449 -0.00289587 0.00111975 0.00281963 0.00122874 0.00387052 
-0.000663007 0.00632357 0.00341189 0.00552315 0.00974244 0.012475 0.00625192 0.015435 0.0182868 
0.0121622 0.0211857 0.0240222 0.0176277 0.027035 0.0297939 0.0231843 0.0326995 0.000417831 
-0.00288671 -0.00293022 -0.00200055 0.00384143 0.00295782 0.00579501 0.00881949 -0.00458577 -0.00457822 
0.0047213 -0.00348899 -0.00313379 -0.0030026 -0.00387865 -0.000518306 -0.00181905 -0.00178851 -0.000702686 
-0.00174988 -0.000599346 -0.00308765 -0.00547853 0.00109334 -0.00452484 -0.00439215 -0.00482021 -0.00245821 
-0.00225624 -0.00242841 -0.00287384 -0.00383855 -0.00437663 -0.00329421 -0.0044718 -0.00451825 0.00491646 
0.00513782 0.0052649 0.00490363 -0.00173638 -0.00242153 -0.00258341 3.18781e-05 6.2945e-05 0.000403065 
0.00272754 0.00338088 0.00345618 0.00300601 0.00836963 0.0107279 -0.0016013 -0.00270985 -0.00260099 
0.00540825 0.00390255 0.0064796 0.000107027 0.00106562 -0.030525 -0.0259759 0.0287469 -0.00146986 
-0.000450925 -0.000219619 0.00219334 0.00197759 -0.0321792 0.00494792 0.00655212 0.000776619 0.0106749 
0.011642 -0.00152209 -0.000921038 0.0178753 0.0169787 -7.92211e-05 0.000575361 -0.00060828 0.00134749 
0.0019156 0.00104016 0.00242028 0.00287731 0.00231388 0.00334626 0.00372552 0.00328751 0.0041075 
0.0044235 0.00415639 0.00465049 0.00483189 0.00477527 0.0246638 0.00320354 0.0032927 0.00351028 
0.00382938 0.0146953 0.0121662 0.0102716 0.00824542 0.0111555 0.00670417 0.00509964 0.00769886 
0.00366054 0.00228767 0.00467404 0.00115215 3.40918e-05 0.00217197 -0.000910063 -0.00187829 5.63209e-05 
-0.00249472 -0.0202748 -0.0182622 -0.00497615 -0.00460551 -0.00489517 0.00306797 0.00378202 -0.00319426 
-0.00508338 -0.00528616 -0.00490448 -0.03643 -0.0616485 0.0308789 0.0377622 -0.00535519 -0.00541418 
-0.00514721 -0.00540425 -0.00540221 -0.00519316 -0.00232018 -0.0018811 -0.000917303 -0.00134024 0.0054681 
0.00550258 0.00555517 0.00550734 0.00541896 0.00523778 0.00497878 0.00498607 0.00482014 0.00462449 
0.00469081 0.00428706 0.00437223 0.0222403 0.0209296 0.0174555 -0.000245463 -0.000285403 -0.00112775 
-0.000302306 -0.000491413 -0.000546471 0.000610667 0.00153683 0.000549122 -0.000560818 -0.0022864 -0.00383129 
-0.00170516 -0.00528394 -0.00727628 -0.0049092 -0.00936686 -0.011719 -0.00867807 -0.0144896 -0.0176782 
-0.0216572 0.00319637 0.00249615 -0.0162214 -0.0141355 -0.0146288 -0.0120701 -0.00981482 -0.0108715 
-0.00782711 -0.00496451 -0.00735019 0.00396082 0.00692688 0.00208503 0.000799066 0.00176261 0.00192561 
0.00143204 0.00280738 -0.0016946 -0.00483914 -0.00460307 -0.00510667 -0.00266466 -0.00216873 -0.00214238 
0.000181959 0.000307816 -1.86948e-05 -0.000331375 -0.00161397 -0.000631545 0.00487327 -0.00380272 -0.00421891 
-0.00457264 -0.00419651 0.00146397 0.000781308 0.000391765 0.00531761 0.00539641 -0.00437536 -0.00350291 
-0.0029869 -0.00230637 -0.00535119 -0.00531059 -0.00515679 -0.00520238 -0.00503346 -0.0028282 -0.00344907 
0.00528201 0.00397153 0.00548165 0.0053516 0.00530262 0.0157941 0.005057 -0.000520087 -0.00128327 
-0.00102564 -0.0134743 0.00366706 0.00396359 -0.00112557 0.000432448 -0.00379963 0.0010579 0.00950394 
0.0119838 0.00701567 0.0144176 0.0169819 0.0116159 0.0195692 0.00124163 -0.000306307 0.00011843 
-9.44612e-05 -0.00261322 0.00367783 0.00279116 0.000101574 -0.000702323 -0.000618711 0.0162808 0.0014143 
0.00542483 0.00520496 0.00207043 0.00512556 0.00505065 -0.00461538 0.0051069 -0.00358126 -0.00393906 
-0.00323223 -0.00419257 -0.00438216 -0.00454789 -0.00459012 0.0135077 0.00420936 0.00502164 -0.00312753 
-0.00278961 0.00339808 0.00261489 -0.0117213 -0.00883862 -0.00966255 -0.00475547 -0.00425642 -0.00477986 
-0.0034611 -0.000884507 -4.331e-05 0.000935794 0.0017206 0.00069068 0.00255282 0.00307047 0.00252471 
0.0041652 0.00455047 -0.00145062 -0.00195537 -0.00289981 0.0108184 0.00904657 0.0111278 5.47028e-05 
-0.000238149 -0.000722046 0.00751517 0.00547476 0.00404765 0.00655927 0.0027044 0.00156583 0.00342013 
0.000391676 -0.00412774 -0.00247442 -0.00320583 -0.00298187 -0.00231057 -0.00477259 -0.00250208 -0.00557855 
-0.00424452 -0.00366463 -0.00449801 -0.00455274 -0.00393754 -0.000530417 -0.000489036 0.000334605 0.00490314 
0.00494578 -0.0018289 -0.00125502 -0.00267581 -0.00277726 0.00100557 0.000894389 0.00327478 0.00208502 
0.0015165 0.00118149 -0.00676035 0.00457579 0.00405702 0.00391846 -0.000578231 0.00501653 0.00493711 
-0.00249784 -0.000799654 -0.00810414 0.0047058 0.00505261 0.00715551 0.00906944 0.00366802 -0.000950981 
0.00432473 -0.00626561 0.00701751 0.00486826 0.00353247 0.0039796 -0.00505881 -0.00381607 0.00242217 
0.0032742 0.000645433 0.00081537 0.0021298 0.00135138 0.00110738 0.00225607 0.00359733 0.00399765 
0.049619 0.000122909 0.00029865 0.00124499 0.00494096 0.00344642 -0.0030847 0.00565544 -0.00145099 
0.00465275 0.000118746 -0.000499272 -0.0011748 -0.00355753 -0.00378147 0.000274328 0.000266347 -0.0010703 
-0.00303581 -0.00290667 -0.00199463 0.000496826 -0.0453397 -0.0376295 0.00402148 0.00146972 -3.74749e-05 
0.00128462 -0.00285882 -0.00041857 -0.00210801 -0.0258562 -0.0238398 3.12856e-05 -7.9145e-05 -3.7686e-05 
-0.000266322 -0.000222526 -0.000313138 -0.000401306 -0.00038676 -0.000625896 -0.000502477 -0.000490815 -0.000873539 
-0.00056332 -0.000559298 -0.00104256 -0.000606486 -0.000606357 -0.00114742 -0.000613957 -0.000618338 -0.001202 
-0.000595282 -0.000604841 -0.00119526 -0.000510572 -0.000524768 -0.00109702 -0.000418967 -0.000428343 -0.000926378 
-0.00029846 -0.000329496 -0.000724811 -0.000179077 -0.00018923 -0.000493373 -4.19422e-05 -6.38394e-05 -0.00023263 
8.85441e-05 7.11677e-05 2.89781e-05 0.000219508 0.000202986 0.000286533 0.000346084 0.000317911 0.000535367 
0.000451125 0.00043969 0.000759972 0.000548766 0.000527374 0.000957162 0.000611788 0.000601061 0.00111073 
0.000641021 0.000636848 0.00120729 0.000631724 0.000636777 0.00123898 0.000612839 0.000620685 0.00122142 
0.000519419 0.000536056 0.00112426 0.000392707 0.000407964 0.000913647 0.000225586 0.00026183 0.000637324 
5.31674e-05 9.54374e-05 0.000337286 -1.16216e-05 -3.01334e-05 6.67851e-05 -3.19845e-05 0.0897472 0.0438218 
0.05387 0.0215365 0.0190976 0.0697041 0.012232 0.0123395 0.0349245 0.00700756 0.00730477 
0.0200939 0.0038552 0.00399832 0.011353 0.00201715 0.00216224 0.00620552 0.000939121 0.00102015 
0.00322172 0.000194751 0.000275223 0.00133002 -0.000243956 -0.000220699 0.000112898 -0.000575493 -0.000536813 
-0.000681706 -0.000834571 -0.000801886 -0.00133285 -0.00111699 -0.00108757 -0.00184321 -0.00145494 -0.00140857 
-0.00242227 -0.00190384 -0.00183054 -0.00317079 -0.00250221 -0.00240115 -0.00413465 -0.00325771 -0.00312514 
-0.00538789 -0.00413409 -0.00399021 -0.00692409 -0.0050294 -0.00483156 -0.00860888 -0.00567233 -0.00555756 
-0.010157 -0.0056189 -0.0056916 -0.0108942 -0.00450898 -0.00479057 -0.00992544 -0.00230388 -0.0027402 
-0.00699385 0.000316967 -0.000112415 -0.00236507 0.00262158 0.00232273 0.0024973 0.0038036 0.00371553 
0.00604731 0.00396639 0.00406705 0.00749844 0.00341621 0.00358354 0.00721163 0.00244918 0.00260054 
0.00570347 0.00145592 0.00163845 0.00386407 0.000615357 0.00070289 0.00207477 1.27371e-05 7.00893e-05 
0.000637688 -0.000395852 -0.000350128 -0.000346815 -0.000679098 -0.000661172 -0.0010313 -0.00085839 -0.00084046 
-0.00148621 -0.000955127 -0.000947839 -0.00176863 -0.00100254 -0.00099721 -0.00191473 -0.00094686 -0.000952682 
-0.00192351 -0.000890364 -0.00090019 -0.0018226 -0.000818353 -0.00083016 -0.00169649 -0.000717028 -0.000732179 
-0.00152702 -0.000612524 -0.000629546 -0.00132997 -0.000448956 -0.000468178 -0.00106943 -0.000256447 -0.00028484 
-0.000724494 0.158377 0.000119792 8.56396e-05 8.99614e-05 0.000255166 0.000232209 0.000364648 0.00041034 
0.000391106 0.000643963 0.000535405 0.0005201 0.000925339 0.000659801 0.000643368 0.00116833 0.000738161 
0.000728056 0.00137107 0.00083187 0.000823773 0.00154253 0.000875135 0.000867549 0.001675 0.000884148 
0.00087519 0.00172526 0.000884431 0.000893507 0.00173255 0.000811979 0.000821473 0.0016635 0.000628705 
0.000671457 0.00142442 0.000382461 0.000407089 0.00101509 -7.79874e-06 4.68888e-05 0.000383491 -0.000583967 
-0.000473821 -0.000487768 -0.001273 -0.00113806 -0.0016554 -0.00205255 -0.00189327 -0.0030711 -0.00291097 
-0.00276937 -0.00462209 -0.00343102 -0.00339055 -0.00601559 -0.00345471 -0.00353317 -0.00669752 -0.00240676 
-0.00275056 -0.00585559 -0.000361152 -0.000902355 -0.00294183 0.00220807 0.00182681 0.00147225 0.00434641 
0.00393594 0.0059811 0.00503418 0.00505239 0.00886328 0.00471063 0.00483689 0.00955521 0.0040434 
0.00424069 0.00859949 0.00334684 0.00346055 0.00731212 0.00259137 0.00275048 0.00586371 0.00198791 
0.00202406 0.00452619 0.00153774 0.00160841 0.00347288 0.00117292 0.00122311 0.00266601 0.000964825 
0.000984846 0.00209275 0.000774731 0.000786664 0.00167606 0.000532951 0.000554114 0.0012184 0.000276252 
0.000293785 0.000683654 -0.000165095 -0.000130173 -9.1738e-05 -0.00084688 -0.000699122 -0.00122727 -0.00187925 
-0.00160352 -0.00285662 -0.00317591 -0.00300494 -0.00521764 -0.00554512 -0.0051289 -0.00871627 -0.009876 
-0.0093196 -0.0151794 -0.0190862 -0.0177779 -0.0281986 -0.0434012 -0.0386817 -0.0601278 -0.122098 
-0.127241 -0.149123 -0.108418 -0.120631 -0.121927 -0.0918668 -0.100436 -0.105918 -0.0717483 
-0.0857768 -0.0913742 -0.0655636 -0.0737816 -0.0799383 -0.0550778 -0.0684411 -0.0695214 -0.0453277 
-0.0591029 -0.0621633 -0.0372107 -0.0511931 -0.0524519 -0.0286805 -0.0430487 -0.0433837 -0.0196151 
-0.0344502 -0.0339134 -0.011698 -0.0262242 -0.0251748 -0.00383688 -0.0183768 -0.0174896 0.00425727 
-0.0105239 -0.00949065 0.01153 -0.0031332 -0.00174887 0.0192291 0.00464667 0.0058055 0.0269012 
0.0124002 0.0137422 0.0351313 0.0206098 0.0224009 0.0432085 0.0283519 0.0311642 0.0522518 
0.0368144 0.0398118 0.0609725 0.0455296 0.0491414 0.0709935 0.0553612 0.0589188 0.0814488 
0.0654872 0.0697247 0.0929086 0.0766826 0.0813181 0.106654 0.0891788 0.0943965 0.125023 
0.104804 0.110293 0.146814 0.125655 0.131582 0.13949 0.0395029 0.0507042 0.0482412 
0.0325542 0.033077 0.0344837 0.0212225 0.0310423 0.0226948 0.0117949 0.0222104 0.0163679 
0.00492367 0.0133311 0.0110302 0.000212637 0.0069053 0.0057576 -0.00390779 0.00113293 0.0039598 
-0.00781619 -0.00354297 -0.00314228 -0.0127529 -0.00869829 -0.00772761 -0.0184247 -0.0143866 -0.0140801 
-0.0256208 -0.0206225 -0.0224962 -0.0321561 -0.0293391 -0.0315176 -0.0556029 -0.0374958 -0.0524998 
-0.0410651 -0.0303203 -0.00814087 0.00165832 0.0428654 0.0539948 0.0612713 0.0454053 0.0393216 
0.0416566 0.0343383 0.0417572 0.0348215 0.0237128 0.0346401 0.0231655 0.0138395 0.0279035 
0.0159507 0.00623076 0.017374 0.0115053 -0.000730779 0.0107149 0.00298694 -0.00775978 0.00540271 
-0.00377302 -0.014988 -0.00181191 -0.0108152 -0.0220714 -0.00929414 -0.0188386 -0.0308102 -0.0170799 
-0.0284818 -0.0422458 -0.0266914 -0.043333 -0.0625676 -0.0386797 -0.0571434 -0.0446689 -0.0406981 
-0.0124208 0.000909242 -1.91579e-05 0.0466879 0.0429655 0.018259 -6.4825e-05 -9.07613e-05 -0.000364688 
-0.153086 -0.117231 0.0276364 0.00473194 -0.00359633 -0.0206294 -0.042634 0.0370523 -0.0152803 
-0.0393672 -0.0437174 -0.000170697 -0.00100415 -0.000837533 -0.000580138 -0.000400884 -0.000413737 -0.00094052 
-0.00148277 -0.00141168 -0.00163133 -0.00159083 -0.00197259 -0.00168817 -0.001688 -0.00213065 -0.0016373 
-0.00166104 -0.00215409 -0.00148155 -0.00157105 -0.00204137 -0.00124788 -0.00135458 -0.00182084 -0.000963397 
-0.00109091 -0.00150157 -0.000636278 -0.00078541 -0.00112665 -0.000265228 -0.000429461 -0.000691068 0.000104902 
-4.76453e-05 -0.000211825 0.000477023 0.000320009 0.00027351 0.000827236 0.000683627 0.000747552 0.00113142 
0.00100633 0.00117971 0.00139561 0.00129031 0.00155605 0.00160388 0.00152542 0.00187174 0.00171605 
0.00167779 0.00210028 0.00175538 0.00175065 0.00222662 0.00168784 0.00171144 0.00222702 0.00150111 
0.00158906 0.00208537 0.0012165 0.00135487 0.00183193 0.000847427 0.00101045 0.0014481 0.000446402 
0.000617725 0.000978712 0.0283094 0.0350284 0.000664743 0.000528025 0.0141851 0.0328338 0.0463433 
0.057714 0.0537823 0.0720263 0.104095 0.112102 0.0840064 0.0167697 0.0208372 0.0332676 
0.00977058 0.0120244 0.0201504 0.00557698 0.00698709 0.0120463 0.00278088 0.00377353 0.00702872 
0.000969613 0.0015607 0.00374598 -0.000472582 7.1481e-05 0.00131013 -0.00144355 -0.00111557 -0.000514181 
-0.00233191 -0.00200404 -0.00190468 -0.00329065 -0.00285639 -0.00305009 -0.00440893 -0.00388682 -0.00432109 
-0.00579779 -0.0051391 -0.00581325 -0.00757558 -0.00673426 -0.00764326 -0.0096552 -0.00869595 -0.00989421 
-0.0117876 -0.0107992 -0.012444 -0.0134183 -0.0127371 -0.0149817 -0.0142729 -0.0142162 -0.0171425 
-0.0129847 -0.014033 -0.0177059 -0.00827952 -0.0105269 -0.0150697 -0.00190166 -0.00467055 -0.0083383 
0.00454218 0.00199051 0.000114059 0.00853154 0.0072131 0.00735468 0.0097447 0.00952124 0.0113588 
0.00893208 0.00949792 0.0118303 0.00671946 0.00774549 0.0100006 0.00425477 0.00526006 0.0071139 
0.00205321 0.00297846 0.00424992 0.000401882 0.0010499 0.00182094 -0.000738537 -0.00030211 -8.99707e-08 
-0.00159918 -0.0012753 -0.00132053 -0.00220005 -0.00197663 -0.002305 -0.00253385 -0.0024098 -0.00293906 
-0.00267717 -0.00261893 -0.00327698 -0.0026397 -0.00268312 -0.00339522 -0.00253492 -0.00258848 -0.00335957 
-0.00238026 -0.00245935 -0.00321875 -0.00209272 -0.00220078 -0.0029452 -0.00178979 -0.0019107 -0.0025673 
-0.00139006 -0.00157025 -0.00213758 -0.00091646 -0.00112381 -0.00160768 0.0207152 0.0104537 0.00503406 
0.00065507 -0.000609043 0.00105245 0.000879957 0.00106726 0.00141315 0.00127109 0.00153757 0.00173059 
0.00159914 0.00197766 0.00201314 0.00191594 0.00237743 0.00226215 0.00216319 0.00273557 0.00238663 
0.00233875 0.00298179 0.0024463 0.00243343 0.00311612 0.0024303 0.00243853 0.00315508 0.00223747 
0.00233388 0.00302831 0.00183946 0.00203172 0.00269184 0.00121353 0.00151368 0.00210713 0.000257938 
0.000700909 0.00118514 -0.000999579 -0.000430719 -0.000117726 -0.00271287 -0.00189435 -0.00186071 -0.00464081 
-0.00375961 -0.00400426 -0.0067421 -0.00581784 -0.00648713 -0.0082571 -0.00765599 -0.00887068 -0.00864698 
-0.00863239 -0.0103771 -0.00682563 -0.00802979 -0.0101555 -0.00242714 -0.00475787 -0.00704061 0.00386638 
0.00110881 -0.000595137 0.00971747 0.00751449 0.00753521 0.0129456 0.0118397 0.0138777 0.0126893 
0.0129176 0.016275 0.0111255 0.0118067 0.0153978 0.00943705 0.0102426 0.0133942 0.00746223 
0.00823623 0.0110433 0.00575603 0.00644428 0.0086449 0.00440371 0.00488447 0.00666099 0.00331401 
0.00374815 0.00503197 0.0025234 0.00279996 0.00374673 0.00177711 0.00203882 0.00266937 0.0010149 
0.00131799 0.00162733 -6.29282e-05 0.000397774 0.000361231 -0.00154368 -0.000878266 -0.00135532 -0.00374945 
-0.00279796 -0.00375822 -0.00694748 -0.00564571 -0.0072346 -0.0110394 -0.00928907 -0.0120668 -0.0171858 
-0.0141152 -0.0182878 -0.0283912 -0.0228255 -0.0281818 -0.0512763 -0.0395284 -0.0466123 -0.100443 
-0.0710954 -0.0795887 -0.118224 -0.00175135 -0.00397764 -0.083941 -0.0918709 -0.0960277 -0.104012 
-0.0885006 -0.108892 -0.0731026 -0.0781011 -0.0792162 -0.0654559 -0.0640725 -0.0687563 -0.0570165 
-0.0522818 -0.0590734 -0.0487431 -0.0428293 -0.0497432 -0.0410147 -0.0344257 -0.0411909 -0.0335083 
-0.026193 -0.0333082 -0.0250684 -0.0181249 -0.0253162 -0.0174231 -0.0102324 -0.0177717 -0.00990902 
-0.00289705 -0.0102264 -0.0023532 0.00531066 -0.0028232 0.00500602 0.0123438 0.00456294 0.0123839 
0.0199986 0.0118178 0.0196694 0.0270887 0.019325 0.0275466 0.034647 0.0266866 0.0351451 
0.0427699 0.0341546 0.0443161 0.0511054 0.0424784 0.0535019 0.0598732 0.0509799 0.0632521 
0.0694984 0.0599251 0.0737444 0.0791475 0.0696172 0.084387 0.0891516 0.0788404 0.0982551 
0.0998003 0.0880411 0.0213983 0.0352035 0.0107688 0.0261024 0.00138432 -0.0346085 -0.0293644 
0.0246833 0.0269326 0.0138106 0.0205131 0.0214226 0.0175415 0.012631 0.0180825 0.015 
0.00587104 0.0127456 0.0111207 0.00103045 0.00826161 0.00661292 -0.00304512 0.00431129 0.00221138 
-0.00685465 -0.000752619 -0.00215953 -0.0119377 -0.00597281 -0.00667801 -0.0171146 -0.0117682 -0.0111574 
-0.0227662 -0.0182842 -0.0155652 -0.0263085 -0.0257149 -0.018069 -0.0223416 -0.00917546 -0.00102787 
-0.013061 -0.00762369 -0.0210006 -0.039063 -0.0229422 0.033745 0.0306315 0.0204768 0.0290265 
0.0245731 0.0229482 0.0164158 0.0206229 0.0200027 0.0123449 0.0139366 0.0152649 0.00588273 
0.0084685 0.00958847 -0.00253568 0.00224655 0.00335387 -0.0095333 -0.00472154 -0.00307235 -0.0168705 
-0.0115682 -0.0094688 -0.0232339 -0.0189757 -0.0160435 -0.030476 -0.0262792 -0.0215283 -0.0362985 
-0.0312152 -0.0251699 -0.0357085 -0.0144135 -0.0214701 0.00491055 0.041986 -0.00129885 -0.00117454 
-0.00141597 -0.00173778 0.000231067 0.0007826 0.000481918 -0.00870687 0.0165009 0.00703912 0.0112406 
-0.000994031 0.0329226 0.0179196 -0.00802986 0.0243977 0.0412727 0.0297199 0.0275734 -0.096893 
-0.00688135 -0.0200525 -0.0284701 0.115621 0.0973603 -0.000154882 0.0141448 -0.0119495 -0.0158793 
-0.0272686 -0.0351222 -0.0308886 -0.02574 -0.00252989 -0.00256675 -0.0024141 -0.00230083 -0.00236052 
-0.00244415 -0.00287819 -0.00206069 -0.00221273 -0.00262516 -0.00168891 -0.0018783 -0.00226857 -0.00122827 
-0.00144851 -0.00181227 -0.00069001 -0.000942699 -0.00124858 -0.0001303 -0.000395315 -0.000631658 0.000455923 
0.000194637 2.84534e-05 0.00101074 0.000760741 0.000700926 0.00151259 0.00129649 0.00133053 0.00194302 
0.00175369 0.00188941 0.00228487 0.00213538 0.00235048 0.00253564 0.00243801 0.00271832 0.00266562 
0.00261981 0.00297412 0.00262581 0.00266101 0.00306887 0.00243522 0.00253487 0.00298651 0.00210287 
0.0022652 0.0027286 0.00163552 0.00185823 0.00230434 0.00108317 0.00133654 0.00174419 0.00113007 
-0.0115813 -0.0170654 0.0228196 0.0184567 0.0227174 0.0282514 -0.00946351 -0.00837406 -0.00897236 
0.0363081 0.0449664 0.0382255 0.079929 0.00977404 0.0104757 0.0088795 0.0110394 0.00488568 
0.00653805 0.010083 0.00202369 0.00323912 0.00570321 -0.000245226 0.000723415 0.00240599 -0.00189213 
-0.00125244 -0.000148587 -0.00326961 -0.00259286 -0.00201957 -0.00479723 -0.00403932 -0.00358811 -0.00657141 
-0.00569307 -0.00535986 -0.00861428 -0.00755572 -0.00732393 -0.01111 -0.00984549 -0.00959389 -0.0140391 
-0.012658 -0.0123901 -0.0171516 -0.0158321 -0.0158463 -0.0190585 -0.0182556 -0.0193495 -0.0203858 
-0.0205543 -0.0221252 -0.00802422 -0.0123012 0.0114196 0.00827056 0.0128244 0.0132876 0.00977098 
0.0110978 0.0127538 0.0064137 0.00789494 0.0088937 0.00346657 0.004835 0.0054944 0.00108238 
0.00217998 0.00265891 -0.000695861 7.04668e-05 0.00030571 -0.00206401 -0.00146392 -0.00149813 -0.00299402 
-0.00256931 -0.00278576 -0.00357536 -0.0033218 -0.0036466 -0.00386056 -0.00374007 -0.00415878 -0.0039429 
-0.00391588 -0.00440222 -0.00386372 -0.00391006 -0.00444174 -0.00367263 -0.00376074 -0.0043144 -0.00332535 
-0.003508 -0.00404816 -0.00289237 -0.00309239 -0.00365005 -0.00236235 -0.00261218 -0.00312854 -0.00170856 
-0.00201241 -0.00247861 -0.0176613 -1.37006e-05 0.0198207 0.0128278 0.00948151 0.00244167 0.00222905 
-0.00126921 0.00292477 0.00272311 0.00300082 0.00331133 0.00314795 0.00351744 0.00354346 0.0034528 
0.00389031 0.00368479 0.00363724 0.00412314 0.0036838 0.00370982 0.00423236 0.00346673 0.00359183 
0.00414982 0.00302318 0.00326642 0.00383744 0.00228917 0.0026745 0.00326933 0.00116543 0.00176138 
0.00235793 -0.000309001 0.000442599 0.00105975 -0.00236809 -0.00132264 -0.00071634 -0.00496597 -0.00374452 
-0.00315729 -0.00789046 -0.00647494 -0.00615239 -0.0104621 -0.0093526 -0.00938775 -0.0119533 -0.01151 
-0.0121432 -0.0111806 -0.012053 -0.0134306 -0.00770866 -0.0104204 -0.0127152 0.00179974 -0.002502 
-0.00624779 0.0110963 0.00718733 0.00561205 0.0186348 0.0162322 0.0163218 0.0191413 0.0189784 
0.0220774 0.016546 0.017374 0.0204679 0.0143776 0.0154913 0.0177014 0.0114911 0.0127923 
0.0146804 0.00890627 0.0100485 0.0116487 0.00678272 0.00773512 0.00900071 0.00504856 0.00583775 
0.00679173 0.00360981 0.00422657 0.00490558 0.00230451 0.00288302 0.003266 0.00089523 0.0015418 
0.00165658 -0.00093414 -2.9883e-05 -0.000231994 -0.00342846 -0.00228401 -0.00270763 -0.00689196 -0.00529366 
-0.00612468 -0.0119432 -0.009463 -0.0110112 -0.018716 -0.015618 -0.0178947 -0.0271922 -0.0229776 
-0.0264787 -0.0383178 -0.031337 -0.0359243 -0.0605672 -0.0476979 -0.0503959 -0.0772014 0.00846179 
0.00155891 -0.0711446 -0.0759822 -0.0628065 -0.06754 -0.0645952 -0.00186754 -0.00894061 -0.0210966 
-0.0236979 -0.00124373 0.00201337 -0.000289358 -0.00256545 -0.00252097 -0.00286455 -0.00297044 -0.0548537 
-0.0590785 -0.0579295 -0.0463845 -0.0510994 -0.050375 -0.0382945 -0.0426218 -0.0426689 -0.0306473 
-0.0348811 -0.0351367 -0.0229551 -0.0271111 -0.0278073 -0.015711 -0.0196856 -0.0205736 -0.00847153 
-0.0123944 -0.0136031 -0.00126646 -0.00514997 -0.00667695 0.00591893 0.00211498 0.000346784 0.0130691 
0.00911205 0.00729847 0.0203684 0.016424 0.0142723 0.0275604 0.0236696 0.0212843 0.034899 
0.0306969 0.0280768 0.0428642 0.0384856 0.0350398 0.0511394 0.046651 0.0426194 0.0595887 
0.0548459 0.0502978 0.067916 0.0631462 0.0578423 0.0734315 0.0696488 0.0626955 0.080517 
0.0766847 0.0666274 0.0682561 0.0142922 0.017631 0.0247559 0.0125609 0.0127303 0.0127324 
0.0109632 0.00860101 0.010039 0.00779325 0.0081284 0.00643412 0.00415934 0.0059614 0.00267052 
0.000212601 0.00296598 -0.00129187 -0.00363611 -0.000363083 -0.00489316 -0.00714849 -0.00343373 -0.00844767 
-0.0106202 -0.00610222 -0.0118427 -0.0134067 -0.00831247 -0.0134073 -0.0125618 -0.00880462 0.00193486 
0.00169488 0.0024088 0.0175166 0.0178921 0.0177297 0.0156824 0.0131885 0.0145045 0.0117484 
0.0120379 0.00975372 0.00684031 0.00907412 0.00449299 0.00173027 0.00485835 -0.000913596 -0.00408261 
2.5563e-05 -0.00646848 -0.00958006 -0.00479228 -0.0116058 -0.014604 -0.00916388 -0.0159584 -0.0184604 
-0.0127068 -0.0187049 -0.018929 -0.0142965 -0.0171126 -0.0122246 -0.00834648 -0.0126391 0.0554975 
0.00521381 0.0105782 0.00597764 0.0116815 0.0175156 0.0116275 0.0088687 -0.00165513 -0.0762684 
0.00137287 -0.00254923 -0.00210313 -0.00197047 0.057514 0.0196728 0.0165497 0.0157988 0.0123789 
-0.0171941 -0.0219089 0.0160095 -0.017794 -0.0169849 -0.0195824 -0.0233416 0.00245021 -0.00179594 
0.01337 0.012217 -0.0165464 -0.0187186 -0.00630104 0.0142629 0.00177389 -0.00806215 -0.0148753 
0.00726827 0.0010874 1.24196e-05 -0.00125839 0.000569935 -0.00543775 0.0293892 0.0270162 0.00796042 
-0.0257809 -0.00185942 -0.0181687 -0.0241494 -0.0267437 -0.00548409 -0.0100992 -0.00420955 0.0217862 
0.0164518 0.022648 -0.0795578 -0.0816961 0.0149851 -0.0672344 -0.0703484 -0.00315695 -0.00325163 
-0.00191376 -0.00218232 -0.00125213 -0.00157113 -0.00193619 -0.000557132 -0.000882023 -0.00119574 0.000211146 
-0.000150905 -0.00039029 0.000946036 0.000608795 0.0004448 0.00164099 0.00132485 0.00124966 0.00224688 
0.00198202 0.0019958 0.0027372 0.00252307 0.00263462 0.00313115 0.0029629 0.0031555 0.00337663 
0.00327589 0.00354213 0.00343445 0.00342712 0.00375052 0.00330721 0.00338848 0.00376766 0.00297806 
0.00314577 0.00357055 0.00244858 0.0026966 0.00312896 0.00207704 -0.0228337 -0.0265608 -0.00222666 
0.024908 0.0304418 -0.00756992 -0.0103336 0.0169702 0.0205992 0.0256653 0.0373592 0.0457409 
0.0371858 0.0145949 0.0232264 0.00657256 0.00864779 0.0109358 0.013637 0.0175913 0.0117394 
-0.000418219 0.000815426 -0.00116104 -0.0168383 -0.0162926 -0.00332625 -0.00244323 -0.000856543 -0.00528706 
-0.00429831 -0.00317165 -0.00732988 -0.00628405 -0.00516517 -0.00961339 -0.00837815 -0.00720495 -0.0123345 
-0.0108712 -0.00940247 -0.0159573 -0.0141018 -0.0119997 0.00698001 -0.0623883 -0.0563151 -0.0466365 
-0.0164978 -0.0107505 0.0111356 0.0131795 0.00131032 0.00261457 -0.00085523 0.000145194 1.75701e-05 
-0.00247088 -0.00170876 -0.0019596 -0.00354536 -0.00302679 -0.00330223 -0.0042695 -0.00392406 -0.00421171 
-0.00465725 -0.00447225 -0.00478607 -0.00481885 -0.00474209 -0.00507922 -0.00479075 -0.0048076 -0.00516565 
-0.00460694 -0.00470043 -0.0050771 -0.00429299 -0.00445173 -0.00484136 -0.00384567 -0.00407404 -0.00447724 
-0.00326851 -0.00356474 -0.00398246 -0.00254759 -0.00292113 -0.00267688 0.00358952 -0.0602504 0.00676891 
0.00849925 0.00837683 0.0170074 0.0113535 0.00886121 0.00394665 0.00372151 0.00431096 0.00416609 
0.00438562 0.00453975 0.00445585 0.00473917 0.0046226 0.00461666 0.00495151 0.00449283 0.00460253 
0.00499208 0.00413957 0.00436075 0.00482769 0.00350366 0.00387555 0.00442437 0.00251706 0.00307277 
0.00372972 0.00113335 0.0018802 0.00266717 -0.000715058 0.000302316 0.00122139 -0.00323526 -0.0018859 
-0.000740646 -0.00644618 -0.00487629 -0.00339662 -0.0103006 -0.00854819 -0.00721787 -0.00408762 0.0123419 
0.00662492 0.024347 0.0243484 0.0180159 0.0196434 0.0140934 0.0156731 0.0173668 0.0108777 
0.0122942 0.0131262 0.00826851 0.00946261 0.00997407 0.00609197 0.00713896 0.0074724 0.00420541 
0.00512184 0.00538228 0.00245856 0.00328798 0.00347281 0.000579607 0.00151765 0.00148271 -0.00180661 
-0.000608038 -0.000810145 -0.00503238 -0.00346778 -0.0037919 -0.00929702 -0.00715159 -0.00774957 -0.0153449 
-0.0122554 -0.0130892 -0.0240879 -0.0197797 -0.0208235 -0.0344274 -0.0293516 -0.0309754 -0.0414985 
-0.00393132 -0.00854971 0.00494212 0.00113348 0.00317473 -0.0565555 -0.0591288 -0.0519009 -0.0552374 
-0.05042 0.00987453 0.010097 -0.0314014 -0.0349542 -0.0244217 -0.0280824 -0.0279813 -0.0178092 
-0.0212783 -0.0216831 -0.0113456 -0.0147069 -0.0155277 -0.00463705 -0.0080442 -0.00920006 0.00205141 
-0.00140498 -0.00285251 0.0086435 0.00524133 0.00339252 0.0153158 0.0118332 0.00968963 0.0218424 
0.0184331 0.0159305 0.0279465 0.0246888 0.0218098 0.034568 0.0310343 0.0275363 0.0415826 
0.0378942 0.0336206 0.0485245 0.0448995 0.0398979 0.0551646 0.0518589 0.0462705 0.0557299 
0.0267591 0.00168005 0.00414175 0.0052463 0.00583584 0.00165018 -0.00243978 -0.00264758 -0.00256278 
-0.00187067 9.22331e-05 -0.00106143 0.00588909 0.00538326 0.00317475 0.00480149 0.00366259 0.00309282 
0.00286918 0.00142451 0.00206397 0.000512285 -0.00108071 0.000603839 -0.00194044 -0.00314707 -0.0010196 
-0.00395395 -0.00497385 -0.00229337 -0.00556742 -0.00622388 -0.00327279 -0.00600381 -0.00517665 -0.00330208 
0.00277347 0.00247324 -0.00284131 -0.00301142 -0.0034017 -0.00304044 -0.0383666 -0.0421005 -0.0345014 
0.00980305 0.00895825 0.00714746 0.00787874 0.00629951 0.00619282 0.00517444 0.00295735 0.00435234 
0.0012221 -0.001061 0.00170433 -0.00284711 -0.0049459 -0.00151491 -0.00655327 -0.00828969 -0.00451302 
-0.00949479 -0.0107056 -0.00685356 -0.0112455 -0.0110814 -0.00820129 0.00275934 0.0043843 0.00689078 
0.0025568 0.00341354 0.00312816 0.00320265 0.00368307 0.00509711 0.00211494 -0.0155649 -0.0185341 
0.0163132 -0.0453823 -0.0490628 -0.0467373 -0.000812644 0.0540107 -0.00287508 -0.00681252 -0.00655425 
-0.00791539 -0.0215181 -0.000751654 -0.00135888 0.0187049 0.00150262 -0.00314863 -0.00328198 -0.00325207 
-0.0106845 -0.0130635 -0.0518305 -0.0194275 0.00109305 -0.00173261 -0.0148362 -0.00335936 0.00455757 
-8.37117e-06 0.0138517 0.0038634 -0.00699935 -0.0109383 0.0211877 0.0229939 -0.0133234 -0.0121294 
-0.0149789 -0.0145899 -0.0409153 -0.0173755 -0.0439357 -0.00791808 -0.0105278 -0.0088115 -0.00364002 
-0.00332159 -0.00333311 0.00970765 0.00684902 0.00795651 0.0566167 0.0560092 0.0499705 0.0473732 
-0.00136776 -0.00375493 -0.00111856 0.0197607 0.00698701 0.00781828 0.00626575 0.00768121 -0.0150113 
-0.00265248 -0.00153187 -0.00197192 -0.00233161 0.000680207 0.000260452 0.00155194 0.00115412 0.000983029 
0.00233335 0.00197393 0.00189277 0.00299329 0.00270183 0.00270022 0.00353089 0.0032917 0.00338263 
0.00391474 0.00375894 0.00392219 0.00409618 0.00403209 0.00427869 0.00405638 0.00409185 0.00439847 
0.00377105 0.00392252 0.0042729 0.00347456 -0.043938 0.0345167 0.0416153 0.0445092 -0.0433368 
-0.0368502 -0.00277588 -0.00173751 -0.0113012 -0.0108626 -0.00473255 -0.00371384 -0.00234837 -0.0066187 
-0.00561426 -0.00413842 -0.00866009 -0.00757227 -0.00585029 0.000532022 -0.00211026 -0.000222994 -0.000652079 
6.10053e-06 -0.00113793 -0.00152653 -0.000983347 -0.00362215 -0.00131254 -0.000202989 -0.00478844 -0.00443109 
-0.00518461 -0.00498193 -0.00520739 -0.00536104 -0.00526296 -0.00547163 -0.00536101 -0.00535433 -0.00555308 
-0.00520708 -0.00528041 -0.00548416 -0.00492255 -0.0050613 -0.00527696 -0.00451268 -0.00471499 -0.0049409 
-0.00396326 -0.00423748 -0.00447482 -0.00387449 0.00178894 0.0031977 8.70163e-05 0.0113049 0.0130395 
0.00520309 0.00513963 0.00500227 0.00486254 0.00526412 -0.00478045 0.00465592 0.00444352 0.00492681 
0.00522338 0.00525903 0.00544951 0.00504875 0.0051842 0.00546225 0.0046555 0.00491245 0.00529205 
0.00395782 0.00437533 0.00490881 0.0029184 0.00352776 0.00423961 0.00154046 0.00231892 0.00327475 
-0.000486159 0.000671811 0.00184966 -0.00242798 -0.00107377 -0.0114298 -0.0360281 -0.0389007 0.0145491 
0.0168536 0.0159697 0.0124356 0.00609118 0.00719874 0.00409495 0.00510561 0.00478415 0.00238359 
0.00335541 0.0030663 0.000196937 0.00130962 0.00115479 -0.00226965 -0.000914689 -0.00107578 -0.00586675 
-0.00398734 -0.00410642 -0.0103098 -0.00800234 -0.00806158 -0.0164051 -0.0132101 -0.0131349 -0.0253223 
-0.0205877 -0.0202744 -0.0311944 -0.0129712 -0.0159555 -0.0185676 -0.0215271 -0.0160209 0.0118762 
-0.042997 0.00843058 0.00980635 0.00969646 0.00691152 -0.00409539 -0.00358798 -0.00472368 -0.0242642 
-0.0273889 -0.0210033 -0.00703677 -0.0101483 -0.0106885 -0.00113644 -0.00413162 -0.00514026 0.00486934 
0.00186833 0.000437432 0.0107133 0.00757748 0.00594995 0.0160689 0.013111 0.0109781 0.0213674 
0.018664 0.0158095 0.0264044 0.0236492 0.0204485 0.0318218 0.0289048 0.0248574 0.037737 
0.0348298 0.0299082 0.0438884 0.0407963 0.0355018 -0.000677323 0.000573236 -0.002405 -0.00269061 
-0.0029659 -0.00274847 -0.00304434 -0.002296 -0.00391911 0.00100177 0.00141959 -0.000997118 -0.0135439 
-0.000722306 0.000708322 0.00272443 0.00265226 -0.000341724 0.00153525 0.00139882 -0.00017576 0.00132632 
0.000824512 0.000154873 0.000521169 -0.000175386 0.000148295 -0.000704597 -0.00690748 -0.00644216 -0.00105587 
-0.00148065 -0.000210292 -0.0016092 -0.0018127 -0.000379818 -0.00185318 -0.00137234 -0.000203264 0.000292571 
0.00204983 0.00221586 0.00141895 0.00414346 0.00384537 0.00519179 0.00515296 0.00457987 0.00408104 
0.00306549 0.00329847 0.0024245 0.00220409 0.000979101 -0.00305573 -0.00218017 -0.000446735 -0.00181135 
0.000406556 -0.00286772 -0.00398862 -0.00167542 -0.00483009 -0.00560464 -0.00313743 -0.00629032 -0.0065353 
-0.00435936 -0.0303663 -0.0334603 -0.0317188 -0.0264909 -0.00146407 -0.00266116 -0.00318225 -0.00149073 
-0.00256935 -0.00193563 -0.00362688 -0.0072 -0.00971576 -0.00864373 0.0253534 0.0301231 0.0339924 
0.000916219 -0.000362838 0.00101825 0.017922 0.0213371 0.0252476 0.000388742 0.00155044 0.00479015 
0.00227597 0.00179089 -0.00645403 -0.0414913 -0.0439403 -0.0378208 0.000477841 0.00442816 -0.0364492 
-0.0033606 -0.00320411 -0.00342244 -0.0303939 -0.00629703 -0.00572584 -0.00462156 0.00289949 -0.00392796 
-0.00400267 0.00494067 0.00541797 0.00355153 0.00714055 0.00961665 0.00703307 0.0127254 0.0153592 
0.0126849 0.0439232 0.00852326 0.00673132 -0.00354852 -0.0037102 -0.0041065 0.00061131 -0.00077913 
0.00363592 0.00603869 -0.00616207 0.0104303 0.00375747 0.00344854 0.00431517 0.00408126 0.00417657 
0.00461934 0.00449782 0.00468337 0.00466296 0.00465757 0.00490485 0.00455587 -0.00156107 -0.00115856 
-0.00365313 -0.00280661 -0.00514702 -0.00521458 -0.00566819 -0.00427956 -0.00394649 -0.00186706 -0.000897013 
-0.00146165 -0.00671533 0.0386972 -0.000785658 -0.00128203 -0.00556477 -0.00547668 -0.00192434 -0.00237852 
-0.00173975 -0.00543246 -0.00525627 -0.00552439 -0.00542652 -0.00548012 -0.00518977 -0.00530835 -0.00531826 
-0.00481876 -0.00500568 -0.00505067 0.00553317 0.00556997 -0.00511346 -0.00482663 -0.00536721 0.00552115 
0.00547102 0.00560097 0.00165303 0.00203894 0.00311821 0.00502663 0.00483623 0.00538645 0.00550835 
0.00562491 0.00503826 0.00527539 0.00550838 0.00445299 0.00481201 0.0052159 0.00351327 0.00403168 
0.00467065 0.00281913 -0.0037156 -0.00304131 0.00521988 0.0053476 0.00582742 -0.00556259 -0.00555452 
-0.00556323 0.000285117 -0.000211474 -0.000506927 0.000269899 0.00139822 0.00327347 0.00423215 -0.00301563 
-0.00184114 -0.00152523 -0.00477078 0.00672066 0.0104529 -0.00969598 -0.00735626 -0.00619894 -0.0154246 
-0.0124146 -0.0115472 -0.022995 -0.0187016 -0.0176231 -0.0131554 -0.015539 -0.00335581 -0.00593612 
-0.0344481 -0.0333088 -0.0274512 -0.0321836 -0.00845355 -0.0112034 -0.0108825 -0.00652462 -0.017568 
-0.0198875 -0.0146545 0.0099765 0.00782065 0.0152196 0.0128036 0.00964727 0.0188127 0.0168976 
0.0137849 0.0227798 0.0207188 0.0170863 -0.00341517 -0.00270117 -0.00533424 -0.00454332 -0.00322291 
-0.00528893 -0.00295908 -0.00333077 -0.00298487 0.00304168 0.00266524 0.00343698 -0.00454776 -0.00409564 
-0.00501119 -0.00240274 -0.00182512 -0.00269079 -0.00336459 0.00214274 0.00167752 0.00996312 0.0139438 
-0.000797014 -0.000583167 -0.0018922 -0.000191641 -0.000160219 -0.000934982 0.0200256 0.0253143 0.0340873 
0.0460533 0.00010516 7.8064e-05 2.45931e-05 0.000452215 0.000596603 0.000801087 0.00104801 0.0012687 
0.00183253 0.00180969 0.00290639 0.0026306 0.00342807 0.00143516 0.00104715 -0.051066 0.000779585 
-0.000298685 0.000232404 -0.000861073 -0.00148352 -0.000366661 -0.00190705 -0.0023366 -0.00102184 -0.00285696 
-0.00340535 -0.00166025 0.0338894 0.00219841 0.00177002 0.00255365 0.0281142 0.0322246 0.0296638 
0.0239478 0.00127328 0.00079099 0.000582587 -0.00378213 -0.00353994 -0.00380463 -0.00411839 -0.00452975 
0.0094296 0.00384831 0.00378431 0.00378958 0.00210197 0.00790504 0.000575844 0.000204989 0.0012928 
0.00158605 -0.00374364 -0.00547957 -0.00339799 -0.0035978 -0.0046002 -0.0043412 -0.0192327 -0.0229252 
-0.0256831 0.00534555 0.00522155 0.00543596 0.00512375 0.0037288 0.00618533 0.00463837 -0.00442217 
-0.00055937 -0.00154772 0.00206249 0.00643549 0.0040754 0.00308936 0.00312903 0.00469521 -0.0040123 
-0.00214843 0.00381927 0.0053477 -0.0253912 -0.0031456 0.00249363 0.00231178 0.0067083 0.00923157 
0.00638525 0.0120921 0.0153787 0.0112965 0.00524158 0.00392543 0.0272306 0.0247618 0.0205233 
0.0244087 0.00191665 0.00176957 0.00056907 -0.00411094 -0.00433108 -0.00460926 -0.00396076 -0.0276178 
-0.0297661 -0.0240719 0.00102928 -0.0279804 0.00454848 0.00423159 -0.000328445 -0.000278567 -0.00426648 
-0.00415901 -0.00464537 -0.000101661 -0.000674906 -0.0113779 -0.0130068 -0.0053345 -0.0052738 -0.0048096 
-0.0049781 -0.00453488 -0.00500389 -0.00507209 -0.00472109 0.00538647 0.00548597 0.00548347 0.00544223 
0.00549295 0.00552172 0.00536316 0.00350753 0.00315291 0.00198231 0.00370585 -0.00809473 -0.00552195 
0.00267466 -0.003385 -0.00319486 -0.00237271 -0.00337551 -0.00520015 -0.00509001 -0.00498863 -0.00565499 
-0.00406364 -0.0235228 -0.0132092 -0.0104523 -0.00948738 -0.0196921 -0.0163477 -0.0148222 -0.0217576 
7.46408e-06 -0.00020672 -0.00123511 0.0150185 0.0136388 0.0118783 0.0104113 0.0102709 0.0079815 
0.00429424 0.00465026 0.00468634 -0.00534988 -0.00535896 -0.00510738 0.00115616 0.000630932 0.00049553 
0.00514499 0.0053158 0.00528821 0.00379969 0.0033985 0.00421686 -0.00507712 -0.00484017 -0.00477023 
-0.00511099 -0.00515788 -0.00494655 -0.00471959 -0.00170377 -0.00104056 0.0143493 -0.000233721 0.000277076 
-0.000873147 0.000870128 0.00138306 0.000714137 0.00218974 0.00289216 0.0022887 0.00290243 0.00364919 
0.00421344 0.00326585 -0.000890408 -0.000202103 0.00507603 0.00523457 0.00500138 -0.000283495 -0.000309478 
-0.000389047 -0.000619792 0.00046879 0.00481212 -0.0038546 -0.00288973 -0.00346835 0.0185753 0.000475119 
0.00164422 -0.00150638 -0.00214755 -0.0026657 -0.010994 -0.0141863 0.00155177 0.000890061 -0.000371067 
-0.000596535 -0.00158717 0.00164298 -0.020374 0.0181049 0.0191983 0.0053412 0.0053631 -0.00147661 
-0.00145639 -0.00049546 0.00496071 0.0211794 -0.00223449 -0.00288142 -0.00237106 -0.00245379 -0.00417853 
-0.00265802 -0.000605045 -0.00301996 0.0166547 0.00111346 0.00169009 0.00215639 0.0131323 -0.00492095 
0.00546943 0.00758098 0.000392228 0.000484261 0.00523838 -0.00322869 -0.00363027 -0.00359591 0.00374231 
0.00456535 0.0530015 0.00599894 0.00496144 0.00489607 0.00508384 -0.00407468 -0.00413838 -0.000664631 
-0.00291692 0.00165747 -0.00974077 -0.00851071 -0.00793275 0.000154828 -0.000103034 -0.000393514 -0.000324993 
0.000113727 0.00283708 0.00237619 0.00323223 -0.00426044 -0.00297908 -0.000307099 0.00131235 0.00369888 
0.00342171 0.00206166 0.000584781 -0.00124431 -0.00548502 0.00141567 -0.000860216 -0.00440956 -0.00245335 
-0.00221429 -0.00109831 -0.00469789 -0.00462667 0.00498383 0.0050384 0.0101578 -0.00438296 0.00444733 
0.00497096 -0.00446075 -0.00433957 -0.00400726 0.0088216 0.00194739 -0.00114363 -0.000219003 0.00503274 
0.00502013 0.0046573 0.00465336 0.00184271 -0.000381871 0.000798561 0.00113 0.00466153 0.00477177 
-3.39003e-05 -0.0173729 -0.00165367 -0.00110206 -0.00271178 -0.00229151 -0.00298576 0.00486773 0.00494684 
0.0045775 -0.00863679 -0.00928751 -0.00446075 -0.00453877 -0.00437248 0.00257929 0.00402687 -0.000618724 
-0.0014528 -0.00717367 -0.00565018 -0.000565414 -0.0019864 0.00761544 0.00242627 0.00172538 -0.00343455 
-0.00380641 -0.00177761 -0.000808271 0.000481993 -0.00410113 -0.00357543 0.000931267 0.000189792 -0.00017333 
-0.00443377 0.00422802 -0.00221002 -0.00280879 -0.00319205 -0.00384081 -0.00260416 0.00112794 0.00149906 
0.00368894 0.0031299 0.00293406 0.0041646 -0.00512962 0.00532453 0.00632619 0.00324494 0.0044353 
-0.00362703 -0.00740779 -0.00614365 0.00368417 0.00381454 0.00321573 0.00391096 -0.00362388 -0.00611563 
1.7144e-05 0.000323968 0.00126443 -0.00195577 -0.000113917 -0.00444515 0.00231767 0.00247852 0.00166563 
0.00286152 0.00145336 0.00411012 -0.00094355 0.000962726 0.000775157 0.00151495 0.000520083 -0.00342211 
-0.004169 0.00187542 0.00111629 6.4457e-05 0.00275674 0.00344726 -0.0011716 0.00089593 0.00400169 
0.0026279 -0.000750268 -9.21832e-05 -0.00103739 0.00105607 -0.00160552 -0.00117426 0.000507452 0.00412517 
-0.00154403 -0.00115615 -1.53151e-05 -0.138814 -3.8831e-05 -1.15273e-05 -7.88085e-06 -8.34669e-06 1.55338e-06 
5.76494e-06 1.07348e-05 9.33593e-06 1.44453e-05 1.86602e-05 2.54357e-05 2.25442e-05 2.80968e-05 2.65306e-05 
3.36798e-05 3.21224e-05 4.0288e-05 3.45288e-05 4.74465e-05 3.4429e-05 4.5963e-05 4.90273e-05 5.8764e-05 
5.09081e-05 4.11539e-05 4.44969e-05 5.54464e-05 5.56388e-05 7.10164e-05 2.55751e-05 3.81296e-05 -6.25578e-05 
-9.56989e-05 -0.000118626 -0.000148891 -0.000274475 -0.000256201 -0.000389488 -0.000329784 -0.000345935 -0.000362662 
-0.000246499 -0.000187686 -0.000123226 -1.68294e-05 0.000182407 0.000267566 0.000396231 0.000326099 0.000412844 
0.000266282 0.000249306 0.000258677 0.000241503 0.000199245 0.000104958 6.92122e-05 5.04103e-05 8.62489e-05 
7.09486e-05 5.99404e-05 6.65093e-05 6.26559e-05 6.58724e-05 9.0098e-05 8.52979e-05 0.0001184 0.000138274 
0.000111262 9.34791e-05 0.000139804 0.000252987 0.000242568 0.00024169 0.000249541 0.000409165 0.000453615 
0.000601011 0.000583642 0.000815041 0.000983612 0.00181803 0.00353553 0.00435992 0.00874042 5.50727e-05 
0.000163883 0.000159062 -0.00641016 0.149385 2.53395e-05 4.69328e-05 -0.0112596 -0.00805564 -0.00836612 
-0.00270055 -0.00179583 -0.000970869 -0.000897728 -0.000577502 -0.000584456 -0.00040235 -0.000406507 -0.000319454 
-0.000315567 -0.000229209 -0.000214046 -0.000186998 -0.000184588 -0.0001425 -0.00014933 -0.000114393 -0.000107341 
-8.85714e-05 -8.13186e-05 -6.5678e-05 -6.33171e-05 -5.23614e-05 -5.83363e-05 -5.47347e-05 -6.84639e-05 -7.22423e-05 
-0.00012537 -0.000128542 -0.000189793 -0.000198805 -0.000284898 -0.00032446 -0.000380625 -0.00041423 -0.000472247 
-0.000437651 -0.000462187 -0.000357451 -0.000277634 -0.000145835 3.32199e-05 0.000138601 0.000254377 0.000306136 
0.000388358 0.000378896 0.000412622 0.000352337 0.000315166 0.000240479 0.000216798 0.000157858 0.00012602 
5.35178e-05 2.0597e-05 7.92161e-06 -2.15895e-05 -2.74584e-05 -4.16202e-05 -4.37549e-05 -4.91229e-05 -4.20958e-05 
-5.51855e-05 -4.89968e-05 -5.35371e-05 -4.70984e-05 -5.04402e-05 -4.52977e-05 -4.69139e-05 -4.00769e-05 -4.19177e-05 
-3.5053e-05 -3.72567e-05 -3.04567e-05 -3.47635e-05 -2.80728e-05 -3.0312e-05 -2.44986e-05 -2.32421e-05 -1.78202e-05 
-9.56656e-06 2.41794e-06 1.5411e-05 2.82068e-05 1.73493e-05 -1.63615e-05 -2.94902e-05 2.64209e-05 1.04937e-05 
7.20098e-07 -1.4196e-05 -1.76711e-05 -1.4056e-05 -2.22152e-05 -2.09291e-05 -2.53881e-05 -2.26933e-05 -2.7888e-05 
-2.46436e-05 -2.8753e-05 -2.52978e-05 -2.82801e-05 -2.332e-05 -2.80476e-05 -2.17821e-05 -1.21733e-05 -1.86556e-05 
-1.3003e-05 -3.57856e-06 -1.76273e-06 -6.96327e-06 -3.62588e-06 1.58159e-06 4.26553e-06 6.75317e-06 7.67096e-06 
8.61107e-06 5.82455e-06 1.80335e-05 1.96702e-05 2.00746e-05 1.10869e-05 1.7474e-05 1.52215e-05 2.18641e-05 
2.0447e-05 2.94702e-05 2.53646e-05 3.0121e-05 2.49143e-05 2.71542e-05 1.89685e-05 1.79752e-05 1.44299e-05 
8.19867e-06 -4.13439e-06 -6.07409e-07 3.29825e-07 -2.05906e-05 -0.00240957 0.00120905 0.0021319 -0.00392563 
0.000218919 -0.00136379 0.000780892 -0.000282764 -0.00141546 0.000522402 -0.00146957 0.000634926 -0.00058961 
0.00219616 0.000576128 0.00244685 0.000339393 0.00148622 -0.000498575 0.00101104 -0.000556769 0.00145981 
0.000294774 -0.000225738 -0.00345287 0.000613882 0.00222385 -0.00225922 0.000651105 -0.000154984 0.000716042 
0.00143271 0.00273629 0.00485533 -0.00295312 -0.000112298 -0.000245509 6.85388e-06 1.72287e-05 5.6708e-06 
-2.05951e-05 0.00125378 -0.00139234 0.000366967 -0.000152647 0.00121886 -0.000309738 0.000692539 -0.00200239 
9.12487e-06 -0.0020146 0.000626387 -0.000966317 0.000210663 -0.000399287 -0.000351603 0.00293688 -0.00036972 
-0.016533 -0.00679546 -0.0122997 -0.0019183 -0.00195699 -0.0042519 -0.000819761 0.000115076 -0.00159932 
-0.00124261 0.000554891 0.00192626 0.0214657 0.0170707 0.0210007 0.00117367 0.000945912 0.00357235 
0.00641378 -0.00663874 4.8392e-05 9.11169e-06 0.00678344 0.00692042 -0.00897618 0.0176149 -0.00445649 
0.00146527 0.00558754 -0.0173754 -0.0259307 -0.0218033 -0.00119607 -0.00252664 -0.00249563 -0.00379705 
-0.0111135 -0.0157311 -0.0139517 -0.00840803 -0.0070593 0.018404 0.0160151 0.0157319 -0.0308803 
-0.0259869 -0.0225438 -0.0296659 -0.0249678 0.00336611 0.0033748 0.00376082 -0.00690322 -0.00654854 
-0.00588421 0.0363402 0.0321768 0.0351717 -0.00373297 -0.00615865 -0.00438443 -0.00373561 -0.00357598 
-0.00342403 -0.00153285 -0.00162166 -0.00191892 -0.00202656 0.00350447 0.00383865 0.00339342 -0.00363248 
-0.00298262 -0.00328122 -0.00277286 -0.00259681 -0.00303791 -0.00284364 -0.0369685 -0.0485883 -0.0295187 
-0.0404691 -0.00114773 -0.00219556 -0.00236589 -0.00243775 -0.0026272 -0.00235692 -0.00258204 -0.00169305 
-0.00193146 -0.00706668 -0.00303433 -0.00409051 0.00513737 0.00492806 0.00520004 0.00499054 0.00154961 
0.00261673 0.000739238 0.0017993 -0.00467913 -0.00443818 -0.00440635 -0.0228052 -0.0241191 -0.0250904 
-0.0266665 0.00220155 0.00169058 0.00215845 0.00164799 0.0185183 0.000587124 0.000552161 0.000672294 
0.00099662 0.000485279 0.000811152 0.0105948 0.00655968 0.00857104 -0.00458881 -0.00431941 -0.00480468 
-0.00452302 -0.00472405 -0.00588428 -0.00501364 -0.00503955 0.000545231 0.00111428 -0.00123415 -0.00151673 
-0.00150927 -0.00180384 -0.00202268 -0.00121409 -0.00128593 0.0402747 0.0233101 0.048161 0.0323665 
0.0929748 0.0828058 0.0849211 -0.0039571 -0.00418125 -0.00382189 0.0722225 0.0672858 0.0420509 
-0.000926691 -0.00118787 0.000740192 0.000146525 -1.0103e-05 -0.00498831 -0.00712724 -0.00481803 -0.000160425 
0.000484175 -0.00150574 -0.00141003 -0.00112233 -0.001039 -0.00160927 0.00305614 0.00309444 0.00362644 
-0.00395886 -0.00469545 -0.00491746 0.00373367 -0.000797087 0.000654824 0.00113227 0.00190953 0.0536461 
0.0492502 0.0539805 0.049418 0.00339917 0.00157703 0.00254087 0.00288154 0.00622706 0.00502241 
-0.00199754 -0.00188269 -0.00144195 -0.00106907 0.00673988 0.00721745 0.00914329 -0.00211439 -0.00127208 
-0.00321525 -0.00247072 0.0111112 0.0101074 0.0132714 -0.00316095 -0.0030113 -0.0151822 -0.0451916 
-0.0416146 0.000628057 0.00120048 0.00118887 -0.0135538 0.017105 0.0130194 0.0154144 -0.00320385 
-0.00245332 -0.0033023 -0.00254764 0.000617751 0.00123029 0.00103326 0.00358381 0.00437054 0.00340227 
0.00419153 0.00268296 0.00220773 0.00238173 -0.025368 -0.0174659 -0.00863219 0.00237753 0.00293103 
0.00270681 0.0032637 0.00902663 0.00912376 -0.0135861 -0.0150616 -0.0136417 0.00393952 0.00360929 
0.00400016 0.00367608 -0.0136196 -0.0118219 -0.00941765 -0.00541145 -0.0120563 -0.0104976 0.00239744 
0.00228923 0.00171416 0.0112064 0.0110354 0.00964086 0.0124955 0.0133902 0.0102818 0.0136063 
-0.0023605 -0.00264559 -0.00186919 -0.00308798 -0.00325573 -0.00455499 0.00327029 0.00345375 0.00652008 
-0.0061077 -0.00473752 -0.00771178 -0.00629236 -0.0115845 -0.0159635 -0.0127617 0.011734 0.0128152 
0.00959062 0.0103829 0.0759092 -0.000504343 4.27984e-05 0.00112485 0.0015058 0.00227318 0.00226635 
0.00263599 0.00501668 0.00527641 0.00538967 -0.0178694 -0.0218184 -0.0167273 -0.0209642 0.0516513 
0.0515627 0.0434997 -0.0238249 0.0367839 0.0307961 0.0281964 -0.0175855 -0.0196734 0.000733836 
0.000634418 0.00122242 -0.000670906 0.000350696 0.000316249 0.0170305 0.0148395 0.0157363 0.000956458 
0.000790555 0.000629722 0.00722937 0.0102292 0.0079408 0.00400216 0.00866902 0.00481208 0.00958871 
-0.0497874 -0.0480915 -0.0456218 0.00971249 0.0116461 0.00768405 0.00298335 0.00254148 0.00258575 
0.00072541 -0.00644475 -0.00449759 -0.00377638 -0.00990698 0.000271914 -0.0001295 -0.00128139 -0.00161012 
-0.00171225 -0.0028879 -0.00384906 -0.00531761 -0.00131911 -0.00205552 -0.00382394 0.00699449 0.00593486 
0.00791063 -0.0176588 -0.0232301 -0.0190515 -0.000303292 -0.000647312 -0.00352732 -0.00284312 -0.00198861 
-0.00221125 -0.0015244 -0.00176404 0.012989 0.0249045 -0.0015134 -0.0290294 -0.0207478 -0.0231876 
-0.00547734 -0.00719469 -0.00941612 0.00304228 0.00369445 0.00345687 0.00409037 -0.000650599 8.76416e-05 
-0.000150434 0.0139004 0.0157992 -0.000145459 0.000199403 0.00125581 0.0269166 0.0171823 0.0345012 
0.0266374 -0.00374604 -0.0047806 -0.00621588 0.00132178 0.00146765 0.00163139 0.00179641 0.00189259 
-0.00022949 0.00351616 0.00148893 -0.00277864 -0.00310069 -0.00289952 -0.00269037 -0.000386646 0.00495468 
0.00624586 0.00516451 -0.00355219 -0.00323645 0.0295976 0.0341377 0.0343495 0.0392161 0.024741 
0.0295215 0.0267964 0.0620774 0.0412537 0.0458894 -0.00142113 -0.000488823 -0.000713443 0.00264642 
0.0027997 0.00236386 -0.0850388 -0.0780809 0.0229089 0.016834 0.0194626 0.00847933 0.0133139 
-0.0329588 -0.0288666 -0.0299843 0.0149005 0.0171789 -0.0389473 -0.0354969 -0.0429554 -0.0486778 
-0.0436734 -0.0514861 -0.0463365 -0.000409766 -0.00071828 -0.000826047 -0.000566323 0.00256101 -0.000169701 
0.00367977 -0.00442493 -0.00724715 -0.00351842 -0.00612249 -6.51833e-05 0.00249983 0.00307099 0.00348082 
0.00438946 -1.71783e-05 0.0019243 0.00394884 0.0215698 0.0374015 -0.0265155 -0.0135984 -0.0139998 
-0.0105984 -0.00528081 -0.011339 0.000119837 0.00992303 0.00724578 0.00826298 0.0170671 0.0267199 
0.0264835 0.0301355 0.0299034 -0.00258785 -0.00280598 -0.00310758 -0.00333136 -0.00231174 -0.00301678 
0.029683 0.00544596 -0.0199394 -0.015975 -0.0199597 0.00331219 0.00360441 0.00367978 0.000995814 
0.00159167 0.00128403 -0.00935399 -0.00541853 -0.0117548 -0.0073284 -0.0010614 -0.00314907 -0.000250038 
0.0021666 -0.000736477 -0.000507686 0.0127849 0.00894854 0.00828452 0.00425712 -0.0471205 -0.043767 
-0.0424128 0.0117332 0.00405132 -0.00513648 0.00118698 0.00564438 0.00835889 0.00762868 -2.3705e-05 
-0.0243595 -0.0381581 -0.0165189 -0.013168 -0.0105322 -0.0287055 -0.0255497 -0.0330585 -0.0339444 
-0.0113085 -0.0111723 -0.0100599 0.000474884 0.000389332 0.00143142 -0.00091278 0.0375599 0.0338345 
0.0336968 -0.00763315 -0.00392831 -0.0039561 0.00265987 0.00286977 0.00227366 0.000113161 -7.52315e-05 
-0.000291446 -0.00105787 -0.00144314 -0.00115241 -0.00152685 0.00547573 0.00524208 0.00521144 0.00598933 
0.00256169 0.00147291 0.00184311 0.000777545 0.00106632 0.00291507 0.00334256 0.00306863 0.00228012 
0.00155406 0.00288463 0.00215885 0.00238926 0.00225966 0.00200499 0.01196 0.0126292 0.00976631 
-0.00089767 -0.00183274 -0.00234108 0.000398667 0.0231877 0.0212902 0.0253555 0.00388123 0.00365449 
0.00372948 0.00350673 0.00822362 0.00743019 0.00707465 0.00631022 0.00267998 0.0025052 0.000476358 
0.002413 -0.00607486 0.000874454 0.000995678 -0.00543296 -0.00549741 -0.00550654 -0.00558194 -0.00130179 
-0.0014463 -0.00134253 -0.00149856 -0.0039052 -0.0026412 -0.00139859 0.00223612 0.00205884 0.00155248 
0.0010771 0.00115772 -0.00106142 -0.000424234 0.000228603 0.00418595 0.00197753 0.00274285 0.010585 
0.0125802 0.0119005 0.0137964 0.00306232 0.00360019 0.00226935 0.000670132 -0.0514465 -0.0479479 
-0.00289872 -0.00333388 -0.000765009 -0.00402429 -0.00497273 -0.00369133 -0.00371939 -0.0035347 -0.00315821 
-0.00317154 -0.00276846 -0.0279201 -0.0295682 -0.0315396 -0.00548674 -0.00989481 -0.0104048 -0.00439135 
-0.00479486 -0.00476768 0.00486602 0.00649116 0.00642308 0.00821315 0.0040915 0.00381013 -0.0029333 
-0.00355692 -0.00175245 -0.00327293 -0.00267935 -0.00370092 -0.00406304 -0.00425324 -0.00337543 -0.0104401 
-0.0112445 -0.00929736 0.00375196 0.00431189 0.0033341 -0.0115779 -0.0148808 -0.0137038 -0.00842999 
-0.00483751 -0.00932378 0.00114464 -0.00257139 -0.00201466 -0.00194753 -0.00164258 -0.00157363 0.00453586 
0.00444802 0.00486755 0.0259999 0.0231758 0.0221323 0.00656242 0.00828312 0.0067315 -0.000319993 
0.00157311 0.00331483 0.00368545 0.00237749 0.00278944 -0.0462647 -0.0013426 -0.00066862 -0.000716259 
-0.000656721 -0.00127597 -0.0013752 -0.00325467 -0.00333261 -0.0029663 -0.055382 -0.0363571 0.00245624 
-0.0086583 -0.00741308 -0.00662562 -0.00355027 -0.00375195 -0.000842886 -0.00157101 -0.00165797 -0.00184448 
-0.00199729 -0.0223906 -0.0210173 -0.0195231 0.0105433 0.00897704 0.00782636 -0.0408997 0.0373415 
0.0331647 -0.00399044 -0.00438402 -0.00454681 -0.0049472 -0.00356644 -0.00365887 -0.00312805 -0.00321669 
0.00592747 0.00778145 -0.00179267 -0.00184727 -0.000918503 0.00430804 0.00195774 0.00253027 -0.00236166 
-0.00223656 0.0265487 0.0292685 0.00123584 0.00126869 0.000980692 0.000994796 -3.58388e-05 -0.000198672 
-6.58232e-05 -0.000217685 0.088957 0.0823419 0.0880341 0.00215464 0.00325493 0.0022767 0.00332679 
-0.000938379 -0.00114504 -0.000706958 -0.000887393 0.00584771 0.00726818 0.00616369 -0.00555349 -0.004727 
-0.00694782 -0.00588036 -0.000264572 -0.000455857 -6.36546e-05 -0.000228706 0.00190807 0.00104761 0.000794815 
-0.000340023 -0.000610662 0.00235408 0.00270254 0.0057345 0.0065234 0.0049226 0.000588428 0.001185 
0.0057335 0.00357828 0.00545068 0.00342057 -0.00870532 -0.00663933 -0.00837746 0.000383899 0.000129996 
0.000146077 0.0130829 0.00933975 -0.0675566 -0.0645586 -0.0614216 0.0181109 0.0165981 -0.102215 
-0.122885 -0.09525 -0.000440061 -0.0109193 -0.0135932 -0.0155225 -0.0107012 -0.0094285 -0.0100914 
-0.00892232 0.00387225 0.0045397 0.00428832 -0.00705542 -0.00473902 -0.00494809 -0.00649449 -0.00795715 
-0.00934441 -0.00325074 -0.00951205 0.00100729 0.00075553 0.000612779 0.000359227 -0.0120869 -0.0115945 
-0.000704723 -0.00164299 -0.00091192 -0.00201152 0.00116263 0.00108339 0.000434816 0.000396658 0.00202098 
0.00193319 0.0019314 -0.00274483 -0.00304651 -0.00231724 -0.00324321 -0.00368354 -0.0056825 -0.00373898 
-0.00179268 -0.042673 -0.0437214 -0.0490944 0.0332471 0.0580184 0.0396724 -0.0161379 -0.01327 
-0.0169794 -0.000470488 -0.000611486 -0.000767665 -0.000918926 0.0646397 0.00944391 0.00858708 -0.00608355 
-0.00769396 0.00961512 0.0131315 0.0114798 0.00561247 0.00747921 0.00634619 -0.00110051 -0.04637 
-0.0502221 -0.0500448 -0.0934148 -0.0786921 -0.0782435 -0.0325251 -0.0425663 -0.0283896 -0.0376419 
0.03032 -0.0410976 0.00297603 -0.0307616 -0.0337788 -0.0347019 0.000994337 0.00589736 0.0104919 
0.0075847 0.00308968 0.00565995 -0.0451286 0.00308113 -0.0234566 -0.0199255 -0.0206496 0.0768091 
0.0714378 0.00559273 0.00253635 0.00399773 0.00084683 -0.000330723 0.000979346 -0.00180759 -0.00202983 
-0.0011811 -0.00104315 -0.00176607 -0.000864282 -0.0192758 -0.0132041 -0.0151943 -0.0171614 0.0377784 
0.0410766 0.029614 0.0363651 0.032944 0.037338 0.0571885 0.0610455 0.058501 0.0625033 
0.00180533 0.00232426 0.00197091 -0.000435142 0.0532849 0.0181219 0.0215644 0.025558 0.0197562 
0.0292267 0.00532612 0.00544733 0.00548748 0.00560695 0.00516601 0.00134607 0.00063346 0.000670504 
0.00124525 0.0659198 0.0204881 0.0201507 0.0233221 -0.000233063 0.000129955 0.00298988 0.00243378 
-0.0078006 -0.000794965 -0.00499383 -0.00839538 -0.025713 -0.0212659 -0.0282183 -0.0171412 -0.0193086 
0.0222111 0.0265115 0.0240752 0.0572474 0.0643425 0.0608856 0.0017769 -0.0686334 -0.0743957 
-0.0627117 0.0124029 0.0100889 0.0107334 0.00867331 0.00492836 -0.0015055 -0.000796198 -0.00244613 
0.0092715 0.00715773 0.00654973 0.00340477 0.00524208 0.00464379 0.01787 0.0029385 0.0060612 
0.00646197 0.0147109 0.0121682 0.0144244 0.0157093 0.0209334 0.0235193 0.0161699 0.0183502 
0.0154511 0.0190234 0.0180597 -0.00128185 -0.00312215 -0.0010058 0.00128008 -0.00018532 0.00230396 
0.0166699 0.027511 0.0334595 -0.0253386 -0.021401 -0.0230808 -0.00101841 -0.00620947 -0.0071362 
-0.00731959 -0.00788508 0.00870814 0.0114832 0.00066348 -0.00449541 -0.00429447 -0.00399288 -0.00425655 
-0.00431735 -0.0202025 -0.0176073 -0.0199191 -0.0176083 -0.00188859 -0.00180701 -0.00220787 -0.0101552 
-0.0106301 -0.0131782 0.0196268 0.0267227 0.000458878 0.00103185 0.00417501 0.00378629 0.0200697 
0.020336 0.000445134 0.000483254 0.000291541 0.00290444 0.00337722 0.00329721 0.00375287 0.00498021 
0.00683617 -0.00316015 -0.00355329 -0.00330587 -0.00409211 -0.00430617 -0.00391914 0.058018 0.0516377 
0.0166072 0.0132872 0.0133261 -0.000423175 -0.000248036 -0.00037443 -0.00120625 -0.000931885 -0.00836315 
-0.00930161 -0.0112547 0.00420229 0.00442451 0.00431742 0.00454831 0.00398167 -0.00216931 -0.00219852 
-0.00180757 -0.0018504 0.00156735 0.000741777 -0.00558423 -0.00555822 -0.0055766 -0.00325103 -0.00366988 
-0.00245803 0.00401783 0.0490756 0.0146387 0.0183578 0.0114669 -0.0018873 -0.00245787 -0.00204998 
-0.00260918 -0.0115839 -0.00861308 -0.0121122 0.0043403 0.00440414 0.00222247 -0.00396613 0.025122 
0.0214352 0.00869881 0.00612255 0.00673732 0.00314261 0.00269821 0.00467998 -0.000535035 -0.000166127 
-0.000313319 0.00370077 0.00373183 0.00320177 0.00329812 0.00289958 -0.00538401 -0.00547223 -0.00525842 
-0.00535155 0.00823362 0.00632039 0.00854922 -0.0211673 -0.0246165 0.0253063 0.00923402 0.0107635 
0.0130075 0.00461612 0.00804164 -0.0848268 -0.0840552 -0.0787122 0.0121236 -0.00306065 -0.00697976 
-0.0030341 -0.00140351 -0.00156578 0.00895182 0.000123234 -7.70211e-05 -0.00517408 -0.0052445 -0.00502443 
-0.00510186 -0.0142339 -0.0159737 -0.00256704 -0.00215614 -0.00254388 -0.000857572 -0.000788556 -0.00334352 
-0.00382172 -0.0038637 -0.00244458 0.0027256 -0.00410944 -0.00422037 -0.00376567 0.0534227 0.0502488 
0.0460514 0.0429619 0.0264524 0.0324134 0.0295618 0.00419768 -0.00684557 -0.0056333 -0.00579294 
3.27149e-05 -0.000487452 0.000750456 -0.00794171 -0.0013207 -0.00121443 -0.00163868 -0.00209876 0.0150411 
0.0177826 0.0185824 -0.0429839 -0.00183388 0.00141082 -0.00453308 0.00172057 0.00140688 0.00196937 
-0.00417252 -0.00462804 0.0031689 0.00158882 0.00243339 0.000809917 0.0449307 0.0483448 0.0465842 
0.00534977 0.00556356 0.00547181 -0.0134817 -0.0101502 -0.0132875 -0.0126501 -0.0178903 -0.0181866 
0.00579059 0.00507447 0.00718999 0.0013558 0.00287722 0.0026945 0.00260637 0.00354693 0.00354011 
0.0049961 0.00462808 0.00495185 0.0497228 0.0450181 0.0416522 -0.0014611 0.0762645 0.082723 
0.00160313 0.000419155 0.00126259 -0.00480116 -0.00706866 -0.00920126 -0.00900714 -0.0112401 -0.00787361 
-0.00649434 0.00152184 0.00144666 0.00105318 0.000221954 -0.130397 -0.122993 -0.13132 -0.00301344 
-0.00210251 0.00287995 0.0050509 0.00332355 -0.00381144 -0.00282905 -0.000703565 -0.00112914 -0.0125398 
-0.0154655 0.00341214 0.0030019 0.00292358 0.00332704 0.0032426 -0.0185214 -0.0190365 -0.0156517 
0.00744027 0.00956726 0.00238672 0.00324218 0.00239337 0.00317708 -0.00371466 -0.000476558 -0.00194493 
0.0012084 -0.113428 -0.119053 0.000210231 0.000860864 -0.00686802 -0.00908999 -0.00688677 -0.0361387 
-0.037046 -0.0101939 -0.00965915 -0.00668399 0.00194938 -0.04723 -0.0252742 -0.00257059 -0.00164226 
-0.00472284 -0.0137817 -0.00625371 -0.110299 -0.118699 0.00545723 0.00599291 0.00296845 -0.00511042 
-0.00473935 -0.0237762 -0.0205278 -0.0242025 -0.0209342 0.0181715 0.0273782 0.0184467 0.0218998 
-0.150572 -0.151493 -0.00557464 -0.00558989 0.0236363 0.0263922 0.032807 0.0349818 0.00148518 
0.00212642 0.00509765 0.00481639 0.00483965 0.0288939 -0.00514312 -0.00514017 -0.0276346 0.00736213 
0.00891267 0.0055231 0.00544647 0.00538115 0.0018976 -0.00535624 -0.00537023 -0.000388875 -0.000127997 
-0.00939632 -0.00733837 -0.0042511 -0.00811216 -0.00535679 -0.0134214 -0.00522794 -0.00611854 0.00531018 
0.00640016 0.00764442 0.000205665 0.000806196 -0.0211121 -0.021669 0.00526634 0.0050232 -0.0010122 
0.00173707 0.000637935 0.00211467 -0.00239355 0.00292069 0.00345798 0.00610845 0.000128337 0.0012128 
-0.0017194 -0.00069827 -0.0401284 -0.0290747 -0.036534 0.00178872 0.00311468 0.000713894 0.00159576 
-0.000115589 0.000667345 -0.00232237 -0.0346573 -0.0371684 -0.029423 0.0306196 0.0289742 0.0347715 
-0.0373957 -0.0379089 -0.0341822 -0.0344885 -0.000761818 0.00270485 -0.0156719 -0.0167464 -0.0050591 
-0.0152911 -0.0153074 -0.0124461 0.000876441 0.0134145 0.0172981 -0.000210446 -0.00870807 -0.00450474 
0.00204118 0.00241647 -0.00566778 -0.00754759 -0.00101457 -0.00186703 -0.000904488 -0.00673131 -0.00588576 
-0.0080748 -0.00646182 -0.00386283 -0.00578707 -0.000296508 -0.000610285 -0.000208866 -0.000496541 0.00724828 
0.00732408 -0.0179552 -0.0179048 -0.00943883 -0.00627416 -0.0115933 -0.00835247 0.000618434 0.000563252 
0.00458769 0.00438391 0.000347864 0.000427726 0.000168978 -0.00528181 0.0784499 0.075038 0.0687006 
0.0655544 -0.00281445 0.00418598 0.0040609 0.00438966 -0.0607688 -0.00349982 0.100036 0.101661 
0.0137282 0.0962839 0.0961125 -0.0370462 -0.0380562 -0.0336802 0.0425159 0.0414934 0.0472486 
0.10449 -0.000166397 0.00347 0.00330816 0.00305659 -0.0180771 -0.0138166 0.104656 -0.00496254 
0.0154411 0.0161555 0.0118477 0.0200207 0.00555718 0.00587611 0.00429843 0.00070268 0.00193947 
0.00100202 0.0600486 -0.000624066 -0.000781897 0.00264582 0.00225963 -0.0214647 -0.0174028 -0.021366 
-0.0246135 -0.00118024 -0.00165392 -0.00119583 -0.0252026 -0.0227807 -0.0182687 0.0111569 -0.00537853 
-0.108876 0.0040582 0.00346593 0.00545678 0.0044342 0.00107991 0.000830866 0.00121831 -0.000924604 
-0.00317705 -0.0194842 -0.0174428 -0.0223842 -0.0045329 -0.00996173 -0.0102527 -0.00882955 -0.00904533 
-0.00492035 -0.00502469 -0.00178165 -0.00477018 0.00414129 0.00393249 0.00436931 -0.034307 -0.0310543 
0.00514699 0.00488139 0.0291589 0.00371193 0.00495829 0.00378939 -0.0128901 -0.0110435 -0.000181113 
0.00117639 -0.000135162 1.49532e-05 0.00429693 0.00473639 0.00458678 -0.00517342 -0.0053652 0.00356965 
0.00285681 0.00169281 0.00391829 -0.00464348 -0.0046137 -0.00674094 0.00880948 0.00926174 0.0109115 
0.0113485 0.0121013 0.0112314 0.00978471 0.00990289 0.0109991 0.00953091 -0.00122393 0.00093354 
5.76711e-05 -0.000514343 -0.00112248 -0.00663935 -0.000560311 0.00411633 -0.00361091 0.00389409 0.00331445 
-0.00451757 -0.00503048 -0.00517446 -0.0052126 -0.0578334 -0.0544 -0.0590074 0.00138523 0.00102824 
0.00128484 -0.00374989 0.000245024 -0.00413125 -0.00537192 -0.00511735 -0.00530898 0.0157407 0.0119169 
-0.0018218 -0.0385788 0.0104691 0.00774056 0.0104657 0.00823499 -0.00367026 -0.00417279 -0.00446859 
-0.0252689 -0.0260641 -0.0288768 0.042242 -0.0225113 -0.0230895 0.00517402 0.00350109 0.0033022 
-0.0771361 -0.0719791 -0.0687913 -0.0380037 -0.00102598 -0.00136455 -0.000367867 -0.000839558 -0.000504817 
0.00299722 -0.00347538 0.0359534 0.0331497 0.0411403 0.0381915 0.0292458 0.0303057 0.0274654 
0.00824618 0.0179703 0.0138389 0.00412084 -0.00512553 0.00508196 0.0140352 0.0895642 0.000662404 
-9.27741e-07 6.24382e-05 0.0324915 -0.000797774 0.000411193 0.000628934 0.0445766 0.0387936 0.0443676 
0.0388766 0.0151613 0.0121984 -0.00265647 -0.013674 -0.0106412 0.00317784 0.00287662 0.00379102 
0.00530786 -0.000486943 -0.00170753 0.0047448 0.00477212 0.00496469 -0.00279361 -0.00255224 0.00971386 
0.0113002 -0.00292782 -0.00295135 -0.00250998 -0.00253656 0.00123538 0.00183963 0.0024063 -0.00695517 
0.0030857 -0.00946175 -0.0449069 -0.0413859 0.00882457 0.00765155 0.00773128 -0.00282121 -0.000413116 
0.00173621 0.00164611 0.00143231 0.000577774 0.00518829 0.00494592 0.00531778 0.00810276 0.00701848 
-0.000772439 -0.000640917 0.000178673 -0.000402108 -0.000742519 -0.00127578 -0.001329 0.0255304 -0.0188061 
-0.0193518 -0.0158582 -0.00226278 0.00484132 -0.051827 -0.055265 -0.0580543 -0.036109 -0.0318654 
-0.0337116 0.00498088 0.00469187 0.00397664 0.00256196 0.00248843 0.00284281 0.00508782 -0.0172362 
-0.0154243 -0.0139897 -0.00987507 -0.0125883 0.000340852 0.00043294 0.000772427 -0.000563897 0.0392946 
0.0357452 0.0119026 0.0131888 -0.00666941 -0.00720927 -0.0287377 -0.0106428 -0.0134078 0.00757221 
0.0105769 -0.0967228 -0.00543789 -0.00106117 -0.00554739 0.00874447 0.00646971 0.0308883 0.0187975 
0.0137885 -0.00434015 0.0042839 0.00386469 0.00324117 0.00463308 0.00484659 -0.00783704 0.00404995 
0.00462722 0.00467675 -0.00344526 -0.00384707 -0.00376768 0.0137125 0.000283643 -0.00352505 -0.00437555 
-0.00310174 -0.00502749 -0.0031322 0.00406713 0.00428656 -0.00425298 -0.00401415 -0.00385003 0.00854715 
-0.00234362 -0.0016691 -0.00217277 0.0420856 0.00419584 0.00457067 0.00411173 -0.00362572 -0.00260543 
-0.00142546 0.00145087 -0.004902 -0.00457472 -0.0047161 -0.00144242 -0.00391945 0.0450754 0.0473904 
0.0172683 -0.00899688 0.00577932 0.00824455 0.00669447 0.00909963 -0.0135352 -0.0156703 -0.0161451 
0.00795548 0.0374266 0.0169042 0.00128516 0.00149365 0.00515505 0.0573384 0.0517224 0.00184623 
-0.000440747 0.000715041 -0.000258699 0.000945568 -0.0654656 -0.0557835 -0.0423995 0.00173799 0.00156617 
0.00400131 0.0018132 0.00119163 0.00178768 -0.0127327 -0.0122777 -0.00508453 -0.0192494 0.00556068 
0.00354827 0.00612091 -0.00247741 -0.00266742 0.00219665 0.00201407 0.00156905 0.000994962 0.000832297 
-0.00394666 -0.00378019 -0.00420174 -0.000915358 -0.000501065 -0.00100493 0.00312088 0.00472288 0.00298341 
-0.0011539 -0.000816072 -0.00193018 -0.0009432 -0.00217405 -0.00426634 -0.00423544 -0.00531523 0.00705303 
0.00902339 0.00701323 0.00880352 0.00269115 -0.0187386 -0.0211734 -0.00108225 -0.0018822 0.00177552 
0.00169452 0.000827183 0.0017417 0.00245945 0.00240053 0.00311859 0.0126024 0.00914653 0.00938949 
-0.00128636 -7.55119e-05 -0.0031002 -0.00351584 -0.002918 -0.00943122 -0.00768935 -0.00635575 -0.00468506 
-0.00337315 -0.00414458 -0.00064254 0.00252782 0.0021735 0.00205659 0.0263827 0.0149523 0.0265952 
0.0126813 0.00291261 0.00103832 0.00158488 0.000396988 0.149918 0.150793 0.00300147 0.00297745 
0.0026252 0.00283814 0.00292559 0.00256083 -0.00862208 -0.0106446 0.00104466 0.00148979 -0.000517176 
-0.00167114 0.00099372 -0.00026503 -0.0441831 -0.0485744 -0.0526446 0.00535482 0.000596474 0.0127574 
0.0127126 0.0145331 -0.00268779 -0.00151878 -0.00243524 0.0087456 0.0100652 0.00160925 -0.00297098 
0.0493529 -0.00491747 -0.00531619 -0.00513305 0.00416769 0.00411037 -0.00547017 -0.00517722 0.00088854 
0.000682945 -3.6326e-05 0.000220422 0.000458668 0.00585232 0.00443207 0.00508704 -0.0295878 0.00451824 
0.00412183 0.00401692 -0.0378902 0.00276174 0.00532172 0.00318017 -0.0281288 -0.0336423 0.00201376 
-0.0132221 -0.0143312 -0.0149646 0.00160937 0.0017831 0.0483321 0.0446341 -0.0191287 -0.0211813 
-0.0235258 -0.00467467 -0.00696768 0.00385298 0.00447441 -0.00341854 0.00526243 0.00458837 0.0871948 
-0.000760806 0.00450006 0.00456787 -0.0110805 -0.00876513 -0.00498202 -0.0045299 -0.0047264 -0.00668488 
-0.00725656 -0.00425268 -0.00492094 0.00115505 0.00484224 0.00269155 -0.000486601 1.78273e-05 -0.00282204 
-0.00341845 -0.00301004 0.00189972 0.0139983 0.0170538 0.0145593 0.00109196 0.00189534 0.000515129 
0.00200187 -0.00165599 0.00409661 0.00777404 0.00382781 0.00387088 0.00401406 0.00343903 9.50118e-05 
0.00434093 0.00286741 -0.000967875 -0.00425212 0.00124791 0.00299581 0.00398735 0.00634495 -0.00261754 
-0.00674668 0.0041194 0.0017424 0.00364097 -0.0021459 0.00887379 0.0101559 0.00760673 0.00741697 
0.00275058 0.002787 0.00315153 0.00234696 0.00300981 0.00330267 -0.00139402 -0.00157132 -0.0120575 
-0.0117563 -0.0109167 -0.0032131 -0.00238052 -0.00325431 -0.0051523 -0.00470087 0.00232702 0.00446719 
0.00400017 -0.00559097 -0.00554948 -0.00146553 -0.000815057 -0.001415 -0.000635989 0.00682225 0.000842836 
0.00129619 -4.97318e-05 0.00130826 -0.000171122 -0.000396504 7.17333e-05 0.00492272 0.00479974 0.00269013 
-0.00197112 0.00171967 -0.00532594 -0.00314433 -0.00211587 -0.00270365 -0.00441148 -0.00452352 -0.00376483 
-0.00388064 -0.00443253 -0.00483699 -0.00448422 -0.00373124 -0.00304143 -0.00283275 -0.00245906 -0.00218338 
-0.00257425 -0.00248903 -0.00130635 0.00187974 0.000933822 0.00372244 0.00349688 -0.0181019 -0.0190037 
-0.00256188 -0.00136112 -0.00236662 -0.00122859 -0.00421467 -0.00415552 -0.00303358 0.00020831 -0.00314233 
-0.00187427 -0.019503 0.0191327 0.0226633 0.0161371 0.0195173 -0.00304377 -0.000364031 -0.0027807 
-0.00212323 -0.000666847 -0.0016382 -0.00291263 0.000436371 -0.000289746 -0.00380851 -0.00547171 0.000876385 
-0.000491925 -0.000929598 0.000388221 0.00397647 0.00415539 0.000209457 -0.000569378 0.0561159 0.054346 
0.0573021 0.0174164 0.0141136 -0.00530869 -0.00242252 -0.00309322 -0.00222352 0.000562142 0.00023659 
0.000587533 -0.00327966 -0.00350127 -0.00503198 0.000635189 0.00104655 0.00141692 0.00121022 0.00159119 
0.00413794 0.00146425 0.000741684 0.00384051 -0.0173776 -0.0112897 -0.0235518 0.00360792 0.00556886 
-0.0212286 -0.00661164 -0.00673409 -0.00778868 -0.000300439 -0.000549584 -0.000246596 -0.000106873 -0.00753545 
-0.00865909 -0.000437782 -0.000526508 0.00750617 0.0011855 0.00164365 0.0101961 0.000536377 0.00302831 
-0.00494387 -0.00657143 -0.00030299 0.0002739 -0.000368779 9.52264e-05 0.00839286 0.0142796 0.0127006 
-0.00405918 -0.00383666 0.00213839 0.00166973 -0.00470873 0.000552116 0.00017407 0.000840171 0.000413511 
-0.00460622 -0.00487729 -0.0027812 -0.00123834 -0.00118511 -0.033089 -0.0355781 -0.0312254 0.000943625 
0.00117011 -0.00688646 0.00815206 0.0105365 0.0114333 0.0171068 0.0136683 0.0190302 -0.0127236 
-0.00970253 0.000648317 0.000940288 -0.00464874 -0.00489843 0.00513762 0.0425786 0.0066373 0.00406361 
0.00902018 -0.000405384 -0.000690887 1.545e-05 -0.000262787 0.00160191 0.00128703 0.0242582 0.0178518 
0.00314288 -0.00231955 -0.00266782 0.0053197 -0.0179718 -0.0172299 0.0225097 -0.0117266 -0.00436548 
-0.00432039 0.00250584 0.00208087 0.00283934 -0.0126288 -0.00463443 0.0604836 -0.0025741 -0.00173156 
-0.0139532 -0.0268817 -0.0298977 0.00498198 -0.00120981 -0.0020698 -0.00362695 0.0107524 0.00550501 
0.00737958 0.00639021 0.00976419 0.000389877 0.000262656 -0.00193294 0.00221611 0.00243911 -0.0340916 
-0.00363055 -0.00385837 -0.00316894 0.00429457 0.00217309 0.00262441 0.00372793 0.0320183 -0.00386745 
0.00103632 0.00159847 0.013493 0.0200358 -0.0034601 -0.00241261 -0.00326042 -0.00118032 -0.00172135 
0.0147729 -0.00147418 -0.000747729 0.00166031 -0.00973348 -0.00858237 -0.0115479 -0.00531357 0.0322296 
-0.00112431 0.00240833 0.0429138 0.0397332 0.0444644 0.053672 0.0238379 0.0236362 0.0017347 
0.00241772 0.00519935 0.0033094 -0.0105955 0.00322056 -0.00345775 -0.0152834 -0.00326045 -0.00308129 
-0.00553551 -0.00417531 -0.00102091 -0.00102433 -0.0408524 -0.0249355 0.00251779 0.00208788 0.00313435 
0.00257482 0.0029702 0.00353924 0.00411147 -0.00927477 -0.0212816 -0.0234722 -0.00299113 -0.0119127 
-0.0167484 -0.00944995 0.0163508 0.0173145 0.014213 0.0152478 0.0392166 0.037808 0.0350084 
0.0023264 0.0113758 0.0110235 0.0126687 0.0144717 0.0414518 0.0116013 0.0427944 0.0188265 
0.0525832 0.0508012 0.049284 0.0477318 0.0449469 0.0455039 -0.000920109 -0.00305999 -0.00372998 
-0.00234633 0.0112595 0.00535491 0.00539019 0.00523577 0.00852904 0.010795 0.0411006 0.00414715 
0.00854752 0.00466033 0.0117957 0.0162466 0.0156555 0.077835 0.0774438 0.0730098 0.0646935 
0.118417 0.0034282 0.000813917 -0.023571 -0.0189877 -0.00858456 -0.00188239 -0.0352081 -0.0260021 
0.0011586 -0.020126 -0.00700523 -0.00550159 0.00143507 0.00115417 0.0303136 0.0315419 0.00739064 
-0.0265354 -0.043385 -0.0534449 -0.0161565 -0.0167595 -0.000369046 -0.0508483 0.0285698 0.0244807 
0.0251667 0.000275804 0.000482664 -0.000991222 -0.00114407 0.000674372 0.000732925 0.0205476 0.0246324 
-0.0666343 -0.0607867 -0.0726113 0.00156151 0.00123714 0.00100037 -0.00982778 0.00543107 0.00342584 
0.00228461 -0.000463089 -0.0156791 -0.0117984 -0.00400812 -0.00364096 -0.00515622 0.00414656 -0.0178008 
-0.0148316 -0.0169486 -0.0140984 0.0949338 0.0811553 0.071586 -0.00812331 -0.00944954 -0.00694124 
-0.00767227 -0.00787441 0.00341467 2.85991e-05 -0.000205222 2.23101e-05 0.0123277 0.0126287 0.00996661 
-0.0418728 0.00259995 0.00299257 -0.000477244 -0.000697167 -0.00163106 -0.00202548 0.00147657 0.000584791 
0.009291 -0.0424789 -0.0418639 -0.0458448 0.0169297 0.000261731 0.000609409 0.000493208 0.000924717 
-0.005676 -0.00506306 0.0108021 -0.00464367 -0.0023542 -0.00403434 -0.00152214 -0.0212303 -0.00528405 
0.00781128 0.0130447 -0.00234819 -0.00497654 -0.0092648 0.000692513 -0.00521705 -0.00534323 -0.00545502 
-0.000757499 -0.000472375 -0.000914592 0.00148698 0.00366225 0.00364201 0.00238677 -0.000213892 -0.000421642 
-0.000909885 -0.0307738 -0.000323131 -0.00356833 -0.000134617 0.000303818 0.00027741 -0.000875794 -0.000724856 
-0.00062976 -0.00136384 -0.000805122 -0.00162823 0.0217039 0.0104612 0.0129309 0.0133421 0.00476015 
0.00189169 -0.0383442 -0.00247584 -0.00556859 -0.00457279 0.0408281 0.0405296 -0.00477414 0.0012038 
0.0435521 -0.000777705 -0.000424088 -0.010511 -0.0124157 -0.0011186 -0.000664551 -0.000545075 8.58642e-05 
0.000137995 -0.000679208 -0.0135653 -0.0139194 -0.00140198 -0.000865133 -0.00541924 -0.00659947 0.00561493 
0.00547282 -0.00107867 0.00104189 0.00360175 0.00372359 0.00506435 0.00423404 0.0187056 0.0194879 
-0.00134594 -0.00201332 -0.00499524 -0.0048183 -0.00500075 -0.0115953 0.0022314 -0.0972205 -0.100636 
-0.0294884 -0.0271508 0.00650058 0.00471934 0.000915544 -0.000649071 -0.00147174 -0.00064869 -0.0257883 
0.00196656 0.0159125 0.00427991 -0.00139092 -0.0172206 0.0726762 0.0680595 0.0445946 0.0889987 
-0.0033039 0.00238927 0.00173065 0.00127952 0.00705587 0.00743661 -0.00521087 -0.0189064 0.000413012 
0.000352752 6.21915e-05 -0.031024 -0.00873752 -0.0329472 -0.0240068 -0.0321288 0.0174198 0.0183128 
-0.00160775 0.00518851 0.00504045 -0.0111531 -0.0456173 0.00380623 0.00323466 0.00358026 0.00702373 
0.00841982 -0.0020424 -0.00126588 0.0100711 -0.00133105 -0.000376454 -0.000608315 -0.000486312 -0.000845737 
-0.000975355 -0.000604753 -0.00118953 -0.0126408 0.00941928 0.0033656 -0.000713932 0.000974409 -0.0021299 
-0.00257176 -0.0131778 -0.0119495 -0.0147834 0.00139777 0.00253527 0.00216753 -0.000589295 -0.000555802 
0.0269748 0.000500782 0.000995236 -0.00182626 -0.000993735 -0.00287213 -0.00188212 0.00681728 0.00748821 
-0.00809895 -0.00692781 -0.00672563 -0.062785 -0.0383153 -0.00230055 -0.0060207 -0.00549853 0.00435669 
0.00792184 -0.00909855 -0.0103521 -0.00987795 0.00995902 0.0203563 0.0031258 0.000480312 -0.00883077 
-0.00436334 -0.00332516 -0.00389472 -0.0150494 0.00206877 0.00228501 0.00187138 0.00206931 -4.21897e-05 
0.0122205 0.0126919 0.013534 0.000444564 -0.00234117 -0.00281787 -0.00210619 -0.00257673 -0.00428898 
0.0121611 -0.0115597 -0.00232816 -0.0104469 -0.00555241 0.000194449 3.29432e-06 0.00431474 0.00410228 
-0.000116821 0.00179851 0.00165578 0.00163417 0.00170912 0.00181523 0.00398688 0.00384371 0.00512879 
0.00461082 0.00529856 0.0551939 -0.0121665 -0.011326 -0.0145337 0.0133891 -0.0038648 -0.00358165 
0.00234617 -0.00379447 -0.0036866 -0.00427019 -0.00379015 -0.00626906 0.00204805 0.00141811 -0.00114064 
0.00268264 -0.0487568 -0.0536132 -0.00963136 -0.0149021 -0.0181171 -0.0012871 -0.000828897 -0.000298424 
0.00839202 -0.0224217 -0.0258939 -0.00190957 0.00124457 0.00105452 -0.105019 -0.0111123 -0.00917422 
0.0175343 0.0165732 0.0227937 0.0233633 0.0713229 0.00253225 0.00317615 0.00152988 -0.0114728 
-0.0391662 0.0708542 -0.00308785 -0.00253954 -0.00328105 0.000608553 0.00622928 0.00124063 0.000189996 
0.000886834 -0.00189831 -0.00530657 0.020151 0.0218854 0.0189027 0.0161169 0.0188452 0.0160319 
0.0151959 -0.00972179 -0.00805132 -0.0110624 0.000140487 -0.0102694 0.0007631 0.00158388 -0.00681448 
-0.00577353 0.00289032 -0.000964777 -0.00182327 0.0204681 0.0334373 1.29702e-05 -0.00854607 -0.0114843 
-0.000162016 -0.000440031 -0.00041108 0.00269765 0.00423319 0.00233686 -0.00737318 -0.00835213 -0.00153803 
-0.0115135 -0.00561038 0.00419553 -0.0174146 -0.0197444 0.00459455 -0.00862491 -0.016923 -0.00771338 
-0.0585991 -0.0538178 -0.0578668 -0.00947839 -0.0544698 -0.0636529 0.00422149 -0.00556208 -0.00328983 
0.000327346 0.000400903 -0.00456403 0.00551386 0.00286608 0.00298539 -0.0968658 -0.0270047 -0.0021651 
-0.00386438 -0.00205275 -0.00949139 -0.00377274 -0.00291762 -0.0204786 -0.0216634 -0.0075778 0.0613298 
0.00245011 -0.00384195 0.0112011 -0.0038471 -0.00216132 -0.00464158 -0.00201307 -0.00163891 -0.00176297 
-0.0516909 0.00118316 0.000212869 0.00024952 0.000215424 0.000246291 0.000474547 -0.00230578 0.00354518 
0.00446019 0.00499257 -0.00509659 -0.00339449 -0.000564507 -0.0071478 -0.000366102 -0.00243662 0.00267588 
-0.0025337 -0.00209976 -0.00215529 -0.00637612 -0.00773346 -0.00388517 0.00493513 0.0203974 -0.0528759 
-0.0712096 -0.0411676 -0.0275396 -0.000110749 -0.00314341 -0.00109202 0.00137411 0.00507195 0.00413227 
0.00985336 0.00909911 0.0026835 0.00194978 0.000766008 0.0012957 -0.0107012 -0.000566932 -0.000605461 
0.00335931 -0.0100455 -0.0074696 0.00458945 0.00422192 0.00439362 0.00142003 -0.00238908 -0.00209361 
0.000794835 0.01879 -0.0300371 -0.000379039 -0.000745001 -0.00140467 -0.0495522 0.00519711 0.00491828 
0.00472998 0.00553003 0.00556021 4.42591e-05 -0.000612391 0.00326295 0.00269953 0.00496174 0.00500899 
0.00510499 1.25124e-05 0.00792297 -0.0015843 -0.000291998 9.97843e-05 0.000987337 -0.0239133 -0.0211031 
-0.0150012 -0.0128231 -0.0162839 -0.0123447 -0.000313605 0.000242464 0.00773795 0.00636391 0.0098329 
0.00843781 -0.0065904 -0.0109367 -0.00356313 -0.0119586 -0.00722522 0.00418561 0.0231769 0.0399782 
0.0356291 -0.00478972 0.000120015 0.000360233 -0.0028663 0.0236314 0.0162034 0.0146371 0.0166194 
0.000413999 0.00464221 0.0176896 0.0148791 0.0168 0.0148967 0.00169816 -0.00581007 -0.000299224 
-0.00102895 -0.0008246 -0.00167868 -0.00110993 -0.00128416 -0.00315894 -0.0718809 -0.00184717 0.0015042 
0.00182378 -0.0640753 -0.0638194 0.00343241 -0.00204365 0.000198924 -0.00013133 0.00225826 0.00263614 
0.00556176 -0.0300721 0.00315378 0.00248061 0.00364582 0.00247595 -0.00304652 -0.00176275 0.0109397 
0.0122273 0.00547316 0.0053737 0.00501563 0.00534192 0.00539583 -0.00466474 -0.00789198 0.000628878 
-0.0043495 -0.00146404 -0.00116661 -0.00212687 -0.00300715 -0.000688013 -0.00149982 -0.000976439 -0.00235457 
-0.0017073 0.002204 0.00113376 0.00141605 0.000469124 0.00387893 0.00254342 0.00245865 0.000423115 
0.000217871 0.0154224 0.040191 -0.00498711 0.0199663 0.0153439 0.016499 -0.00245987 0.00151421 
0.00142408 0.00111476 0.000726204 -0.0104606 -0.00153874 2.28438e-05 -0.00537852 5.32248e-05 -7.36978e-05 
0.000712284 0.000185592 0.00130511 0.00580458 0.00497652 0.00666571 -0.00434174 -0.00452807 -0.00369859 
-0.00391463 -0.00212254 -0.00318869 -0.00167279 0.00119504 0.0243996 0.029156 0.0233222 0.0141837 
0.0115978 0.0144064 0.00317905 -0.00348038 -0.0031899 -0.00282653 7.99475e-05 0.000580692 0.000417045 
0.000734241 -0.00332877 -0.00370645 0.00340221 -0.000457622 -0.000349421 4.74081e-05 0.00575027 -0.00707047 
-0.0286591 -0.00422805 -0.00389294 -0.00263172 -0.00339397 0.00636788 0.0231741 -0.0015426 -0.00210797 
-0.00230474 -0.00418505 -0.00387259 -0.0114279 -0.0154057 0.000170417 -0.00516004 -0.0049625 -0.00538613 
-0.0112335 -0.0309195 -8.8319e-05 0.00244836 0.002661 0.00151285 0.00106166 0.00193492 0.00149676 
0.00100681 0.00222013 0.00151125 0.00442685 0.00275189 0.00537133 0.00139889 0.0999623 0.00321079 
0.000633619 0.0016906 -0.000731681 0.000288429 0.00233357 5.00488e-05 -0.000638493 -4.43631e-05 -0.00117031 
0.00389448 -0.00517767 -0.010251 -0.00141712 -0.0266872 -0.0316793 -0.0105608 -0.000315292 -0.037072 
0.00498985 0.00456358 0.00491152 -0.00119509 0.000249065 -0.00026002 -0.000447517 -0.0690781 -0.0629303 
0.000809236 -0.000713103 -0.000450324 0.00114201 0.00375943 -0.0782271 0.0116206 0.00191413 -0.00111013 
-0.00134817 -0.00439314 -0.00196504 -0.00149304 -0.00138323 -0.0049274 -0.0106809 -0.00903147 0.0212463 
-0.0166045 0.000779344 0.00339981 -0.078021 -0.0811864 -0.0346815 0.00160031 -0.0545809 -0.06392 
-0.0608024 -0.0448399 0.00995738 0.00747335 0.00841838 0.0132438 0.0166438 -0.0110357 0.0155627 
0.0115998 -0.0100456 -0.00321936 -0.00300766 0.0192992 -0.00391923 -0.00612879 0.00195071 0.0024824 
0.00221755 0.0213319 0.0231685 0.024516 -0.00921842 -0.00181604 -0.00587626 0.0104122 0.0114573 
0.0125801 -0.00196642 0.0264514 0.00100993 0.000352286 -0.000860908 -0.000856015 -0.00402007 -0.00167423 
-0.00451592 0.0011788 0.0129674 0.000361142 0.00238463 0.00204505 0.000471057 0.000632961 0.000911689 
0.000505758 0.0271161 0.0263587 0.000538992 0.00114821 0.00122236 0.000771619 -0.000488576 -0.000558585 
0.00480694 0.00453449 0.0045269 0.00264002 -0.00416007 -0.00308885 -0.0052565 -0.0147513 -0.0143915 
-0.00884642 -0.00603667 -0.00184665 0.00192062 0.00190636 -0.00281761 -0.0026929 -0.0016087 -0.00418417 
-0.0037986 0.0234142 0.0202331 0.0195006 -6.456e-05 -0.0018275 0.0016473 0.00169008 0.000835777 
-0.000964599 0.000291555 0.00677955 0.00503024 0.00471913 -0.0139123 -0.00262769 0.0260181 -0.00193215 
-0.00298585 -0.00228516 -0.000487475 0.00178782 0.00051864 0.00619366 -0.00832069 0.00121367 0.000827169 
0.000917425 0.00150274 -0.0038498 -0.00347367 0.00334175 0.002542 0.00308588 0.00345782 -0.0261015 
0.0135529 -0.00460952 -0.0044803 0.0036786 0.00482737 0.00436351 0.00383145 0.0027304 0.00317833 
0.00201708 -0.0018377 0.0171972 -0.0718464 0.00367835 -0.0664561 -0.056173 -0.0261173 -0.0267154 
-3.23905e-05 0.0151835 0.030937 0.00563129 0.00834357 -0.0091061 -0.00687385 -0.00835559 0.000453865 
0.00692409 0.0248898 0.0271643 0.0057652 0.000629929 0.00506277 -0.00436406 -0.000161221 0.00325487 
-0.00513208 -0.00525288 0.12325 -0.0183426 -0.0134718 0.00404781 0.120463 0.00132395 0.113953 
0.122875 -0.00806725 -0.00538032 0.00547125 -0.000139824 -0.00109828 -0.00116651 -0.00129411 0.00148417 
0.00491783 -0.0193431 -0.000416487 -0.0624299 -0.0569705 -0.0922121 -0.0196621 0.00994688 0.00416789 
0.0625184 0.062297 0.0212855 0.00343107 -0.00423978 -0.00296575 -0.00326038 0.0338656 0.015054 
-0.00170525 0.00170092 -0.000854884 -0.000912461 -0.0035095 -0.00332119 -0.00264088 -0.0137737 -0.00715312 
-0.00530562 -0.00362975 -0.00163562 -0.00168697 0.00802242 0.0200645 0.020707 0.0243819 -0.0185934 
-0.00634153 0.00391595 0.0106085 0.0299716 0.00104084 -0.000308539 -5.71763e-06 0.00669118 -0.0314158 
-0.000203379 0.0127597 9.86778e-05 -0.0198494 -0.0180401 -0.00236154 -0.00174827 -0.000679697 -0.0199029 
-0.00145587 -0.0138879 -0.00157746 -0.012693 0.00473006 -0.00538716 -0.00517058 -0.0050897 -0.000311337 
0.00649674 -0.000967169 3.67172e-05 0.0338912 0.0305238 -0.000429855 0.00169268 0.0133243 0.0632258 
-0.0853158 -0.0055085 -0.00676322 -0.000209822 -0.000103679 -0.000328625 -0.00956883 -0.0127204 -0.00869449 
0.0035556 0.00442568 0.0118178 0.00949766 0.00944016 0.00734752 0.00394413 -0.0148752 -0.0138418 
-0.00191163 -0.00186101 -0.00301897 -0.000937714 -4.56943e-05 0.00267013 0.00248623 -0.000618058 -0.000600445 
0.0018955 -0.000202998 0.000909745 0.000989647 0.00138699 0.00175095 0.0021783 0.0725957 0.057917 
-0.00138924 -0.00271436 -0.0109135 0.00814709 0.0392068 -0.00243217 0.00876594 0.00709418 0.00363269 
-0.0031015 -0.00213356 -0.00146124 0.000747211 0.00354266 -0.0319364 -0.029035 -0.00410233 -0.00463631 
0.00179308 0.00106935 -0.00340522 -0.00301787 -0.00283496 0.00538392 0.00528673 0.00173358 0.00472079 
0.00402343 0.0141093 0.0054862 0.0010752 0.000552215 -0.0122846 -0.00938693 -0.0106485 -0.00210786 
-0.00212869 0.00526924 0.00517016 0.00527881 0.000744309 0.00203061 -0.0084914 -0.00180263 0.00600538 
0.000869706 0.00361744 -0.00526062 -0.00560738 -3.37403e-05 -4.51491e-05 0.000820477 0.00164467 -0.000183347 
0.00210046 -0.00542567 -0.00176397 -0.0729802 0.00493087 0.00485338 -0.0809764 0.0268403 0.0668352 
0.0218082 -0.0189553 -0.0180839 -0.0242403 0.000217237 -0.0262536 -0.0402659 -0.0231473 0.00850452 
0.0111834 0.0137229 0.00542239 -0.00971132 -0.0182852 -0.00476384 0.00193514 -0.0104352 -0.00172332 
0.101814 -0.00114808 0.04537 -0.00478488 -0.00236765 -0.0235984 -0.00622505 -0.00853721 5.67747e-05 
-0.000151665 -0.0251306 -0.0221743 0.0115605 -0.00961299 0.00610033 0.00300157 -0.0125387 0.000874218 
-0.000406606 0.00122144 0.00945067 0.0180336 -0.00289537 -0.00210502 -0.00166122 -0.00252306 -0.00412564 
-0.00410602 -0.000511236 0.00132551 -0.00702447 0.00571503 -0.00404269 -0.0521956 0.0663463 0.00654731 
-0.0619693 -0.075101 -0.00433559 -0.00750913 -0.00199817 0.00434561 0.00046844 0.00173075 0.00214746 
0.000414264 0.00840852 -0.000651873 -0.00417639 -0.00162966 -0.000934692 0.00602548 0.00336812 0.00487964 
-0.00158271 0.00344457 0.000834246 0.0167672 -0.00312348 0.00383862 0.00313054 0.00400434 -0.00490435 
0.000843599 0.00205328 0.00554551 -0.0020329 0.000885861 0.00459459 0.000895179 0.00257586 -0.0144269 
0.0112326 0.00844254 0.00615002 -0.00287671 -0.0038893 0.00515263 -0.00333594 0.0109695 -0.000196092 
-0.00550738 -0.00082798 -0.00386966 -0.00503771 0.0123048 -0.0119553 -0.000854196 0.000944727 -0.00745575 
-0.00680773 0.00467789 -0.0412027 0.00258803 -0.0237878 -0.021813 0.0356958 0.00814966 0.00520307 
0.00462445 0.00683702 -0.00230832 -0.00119256 0.020217 0.0115478 -0.00281744 -0.00386063 -0.00700098 
-0.00597253 0.000299068 0.00132103 0.00681744 3.15974e-05 0.0017148 0.00138144 -0.000245316 0.00158293 
-0.000528802 0.00908101 -0.0039845 -0.00686925 -0.0287075 -0.00436568 -0.0113446 0.0364296 0.000839303 
-0.00390972 0.000228567 -0.0179219 -0.023181 0.00921767 -0.00256799 -0.0812721 -0.00278228 0.0041878 
0.00472137 0.00354031 -0.0272781 0.0108009 0.0460919 -0.00627339 -0.00599373 0.0149717 0.00216038 
0.00468779 0.00290998 -0.0030672 -0.00406562 -0.00481827 0.00411552 -0.0046278 0.0173826 0.0172448 
-0.0107403 0.002719 -0.00849854 0.0256229 -0.0018697 -0.000241971 -0.0145028 -0.00490425 -0.000589571 
0.0104879 0.000112659 -0.000100166 -0.0141673 0.0284231 -0.0124284 -0.00473004 0.00792215 -0.00217422 
-0.00139893 -0.00497496 -0.00350062 -0.00305215 -0.00247195 -0.0630114 -0.00169191 -0.0404746 0.00192297 
-0.0165444 0.00659539 -0.013681 0.0199126 0.0122597 0.00273321 0.00222025 0.00298531 0.00279112 
0.00500324 0.00321443 0.00156571 -0.00450756 0.000166254 0.00499109 0.0109479 1.26868e-05 -0.00068587 
0.000745462 0.00226159 0.00321846 -0.00258656 0.00408506 0.00355145 0.00201537 0.00460636 0.0627085 
0.0186626 -0.0153286 0.00451658 0.00766143 -0.0117745 0.00754273 0.0114624 0.0127122 0.00113024 
-0.0044873 -0.00160405 -0.00120087 0.00354112 7.76056e-05 0.000224487 -0.000372717 0.00394317 0.00445206 
0.0050609 0.00714379 0.000641632 0.000512785 0.00669243 -0.000632188 -0.0893956 0.000416188 -0.0921984 
-0.0912441 0.101383 0.00233456 0.00130144 0.00484088 0.0135571 -0.00580691 0.00481803 -0.00345263 
-0.0161796 -0.0982538 -0.101001 0.0129366 -0.0137508 0.0181097 0.0548209 0.000260309 0.00370357 
0.00182037 -0.10632 0.0167711 -0.0393542 0.108438 0.00099652 0.134793 0.121986 0.115012 
0.00430648 -0.0221356 4.41241e-05 -0.0025931 -0.00224634 -0.0180661 -0.00182599 -0.0014674 -0.00486109 
-0.00446161 0.0192223 0.0514509 0.000393446 -0.00358915 0.00154894 -0.00851231 -0.00813376 -0.0024362 
-0.00287888 -0.083684 0.00171153 0.00346397 0.00168387 0.01076 -0.00323787 -0.00882407 0.00217065 
0.0112847 -0.01933 0.0360129 -0.0144895 -0.0144444 0.00183647 -0.0117116 0.000873193 -0.000546979 
0.00505581 -0.038886 0.00309387 0.00370904 0.00451481 -0.048124 -0.0609187 -0.00499188 0.0836537 
0.0665123 -0.000507044 -0.00173556 0.00640405 -0.00934653 -0.0140104 -0.00267964 -0.0047458 0.00490715 
0.0150991 0.00994487 0.000667948 -0.0036462 -0.00457137 0.00244083 0.00219338 -0.0186406 -0.00335609 
-0.00403641 0.0223138 0.00311414 0.00481954 0.000365204 -0.00417558 -0.00105494 
Strain%20xz%20component 1 12526 double
0.0386687 -5.66683e-08 -0.0350525 1.34635e-07 6.38663e-06 -9.45443e-07 -6.4932e-06 3.7048e-06 0.000409596 
-0.00193362 -0.000491413 -0.000658011 0.000588089 0.0015698 -0.00162493 0.00411495 -0.000704263 0.00617831 
0.000865826 0.00033585 -0.00345267 -0.00287686 -0.00329451 -0.00218749 -0.00231163 -0.00134755 -0.000748292 
-0.001844 -0.00133564 -0.0017924 -0.00254658 -0.00210745 -0.000836776 -0.000457645 -0.000421593 -6.46723e-05 
-3.58566e-05 0.00117164 0.00232336 0.0028657 0.00184428 0.00162303 0.0101259 0.00381506 -0.00439363 
-0.000537896 -0.00026442 -0.00633745 -0.00349501 -0.00239309 -0.00257035 -0.00222886 -0.00160417 -0.00191313 
-0.00139506 -0.00169929 -0.00233644 -0.00236796 -0.00151046 -0.000596664 -0.000405316 0.000296098 -0.000122533 
0.000775377 0.00200691 0.00315658 0.00448964 0.00535291 -0.00277941 -8.5419e-06 2.5023e-06 7.7193e-06 
9.27146e-06 1.13993e-05 1.14811e-05 1.22796e-05 1.00436e-05 8.09647e-06 9.63979e-06 7.23822e-06 4.8836e-06 
2.94188e-06 3.54325e-06 2.19262e-06 7.22921e-07 -2.46871e-06 -4.04554e-06 -2.91788e-06 -5.15692e-06 -7.78288e-06 
-9.23357e-06 -6.66164e-06 -5.18361e-06 -4.41445e-06 7.17956e-06 1.2849e-05 -0.00532507 -0.00096319 -0.000338531 
-0.000199806 -0.000117529 -7.69897e-05 -3.891e-05 -3.0529e-05 -1.43576e-05 -1.69133e-05 -1.10056e-05 -7.40991e-06 
-1.12111e-05 -1.64072e-05 -2.09188e-05 -2.95562e-05 -3.80719e-05 -4.05369e-05 -2.5858e-05 1.05754e-05 5.35183e-05 
8.51039e-05 0.000104819 8.14176e-05 4.169e-05 -4.65206e-06 -3.10802e-05 -3.8422e-05 -4.24159e-05 -3.06368e-05 
-2.43052e-05 -1.9094e-05 -1.02503e-05 -7.08352e-06 -4.11327e-06 -1.69655e-06 3.45638e-07 1.37209e-06 1.8296e-06 
2.57486e-06 2.9788e-06 3.42034e-06 4.61309e-06 8.05838e-06 3.88451e-06 -1.80949e-06 -4.84816e-06 -4.26118e-06 
-3.5797e-06 -3.4529e-06 -2.22475e-06 -1.90287e-06 -5.39257e-07 6.03696e-07 2.11232e-06 7.12e-06 5.18627e-06 
6.99701e-06 1.28906e-05 2.06129e-05 -1.2051e-06 -4.77708e-06 2.31468e-05 1.73364e-05 3.29713e-06 -1.62803e-05 
-3.27653e-05 -8.01881e-05 -3.86846e-05 -4.7719e-05 -6.61118e-07 3.13732e-05 3.62412e-05 1.89635e-05 6.92669e-07 
1.29285e-05 1.00477e-05 8.03943e-06 1.00647e-05 1.0987e-05 -9.37024e-06 5.71355e-06 2.82934e-05 -4.77263e-05 
7.84062e-05 7.95377e-05 0.000139214 0.000309182 0.00208343 0.0037061 -0.0015489 0.000756454 -0.000640297 
-0.00129863 -0.000504897 -9.99802e-05 -0.000469206 -0.00297236 -0.00116117 -0.000810363 -0.000697517 -0.000894996 
0.00132929 -0.000135739 -0.00115841 0.000291102 -0.000891534 -0.00103634 0.000513774 -0.00104045 -0.0011096 
-0.00107661 -0.000951231 -0.000976957 -0.00157131 0.00131973 9.17349e-06 4.43306e-06 1.51015e-06 -4.31216e-06 
-6.43199e-06 -5.60501e-06 -7.26711e-06 -7.74279e-06 -7.00372e-06 -2.53325e-06 -7.14129e-07 4.47427e-07 2.3305e-06 
3.80772e-06 6.26327e-06 7.97735e-06 4.5218e-06 9.80147e-06 1.64007e-06 2.19653e-06 8.61556e-06 1.11323e-05 
1.11054e-05 8.58083e-06 2.78729e-06 -1.25285e-06 -1.23856e-05 0.0274179 0.000981138 0.000434039 0.000202614 
0.000114743 6.67894e-05 4.41921e-05 2.93598e-05 1.29286e-05 9.50291e-06 1.27626e-05 8.06374e-06 6.32665e-06 
1.14417e-05 1.55137e-05 2.24505e-05 2.67751e-05 3.57763e-05 2.64219e-05 1.14556e-06 -2.19549e-05 -7.49205e-05 
-9.53876e-05 -8.2152e-05 -4.71781e-05 -7.7346e-06 2.72605e-05 2.70131e-05 3.24983e-05 2.60114e-05 2.33254e-05 
1.51987e-05 9.8365e-06 6.28388e-06 2.36416e-06 2.03596e-06 3.2698e-07 -2.1541e-06 -2.4548e-06 -2.33836e-06 
-3.53799e-06 -4.07402e-06 -4.71581e-06 -5.77007e-06 5.70929e-07 -4.62017e-06 3.94133e-06 5.09359e-06 3.84518e-06 
3.68216e-06 2.48829e-06 1.70208e-06 1.27058e-06 -3.3355e-07 -1.08925e-06 -2.29884e-06 -4.19912e-06 -4.18714e-06 
-8.93825e-06 -2.33597e-05 -3.24508e-05 1.79313e-05 -2.43229e-05 -8.98386e-06 8.724e-06 5.48479e-05 3.43599e-05 
7.51362e-05 2.83107e-05 3.36464e-05 -1.82465e-05 -6.45032e-05 -3.35273e-05 -1.94808e-06 9.06504e-07 -1.66562e-05 
-1.05233e-05 -8.41139e-06 -1.00062e-05 -1.48691e-05 1.72131e-05 2.15551e-05 -1.77983e-05 -8.42355e-06 -7.99712e-05 
-9.61176e-05 -0.000154426 -0.000352747 -0.00127876 -0.00870973 -0.0013213 0.000146598 -0.000215602 -0.000410912 
-2.57366e-05 -0.0010218 -0.000984025 -0.00172853 -0.000738283 -0.000897993 -0.000210468 -0.000735203 0.00066567 
-0.0012529 -0.000196772 0.000247564 -0.000288205 -0.000701286 -0.000497254 -0.00133288 -0.000852307 -0.00144788 
-0.00126012 -0.00189426 -0.00272019 -0.000438761 -1.65192e-06 -2.48468e-06 -2.37216e-06 -3.12241e-07 -2.68017e-06 
-1.6389e-06 1.39511e-06 -1.58642e-06 -1.74418e-06 -1.16496e-06 -1.42189e-06 -1.43118e-06 -2.31276e-06 -1.51132e-06 
-6.95565e-07 -1.35033e-06 2.17422e-06 -3.3753e-07 9.75241e-07 1.3973e-06 2.16648e-06 -7.60965e-07 9.231e-07 
1.1905e-06 -5.95696e-07 -1.72505e-06 -5.3306e-06 -0.00182692 -3.88694e-05 -4.04309e-05 -2.61896e-05 -1.83986e-05 
-1.078e-05 -4.89082e-06 -6.70944e-06 -7.93472e-06 -2.51794e-06 -8.42113e-07 -2.97223e-06 1.88201e-06 3.97135e-06 
6.45393e-06 1.19003e-05 9.01737e-07 4.74763e-06 -9.1628e-06 -2.52516e-05 -4.37989e-06 -6.43504e-06 -9.26565e-07 
1.86076e-05 6.0635e-06 8.47751e-06 2.25486e-05 6.14356e-06 2.30846e-06 9.46313e-07 -4.40668e-07 -1.33711e-06 
-1.85331e-06 3.34056e-07 -1.49748e-06 -8.26497e-07 -7.80032e-07 -3.35814e-06 -2.99114e-06 -2.69629e-06 -2.52935e-06 
-2.51779e-06 6.94413e-07 1.52275e-06 -1.51384e-06 -1.02681e-06 -6.34734e-07 -9.15899e-07 7.14221e-08 5.08683e-07 
6.61049e-07 6.365e-07 1.64043e-06 5.04429e-08 -1.05285e-06 -2.46314e-06 -4.06312e-06 2.38181e-06 1.48084e-05 
-8.55622e-06 -1.0249e-05 -1.54383e-05 -1.26272e-05 -1.63035e-05 -2.53182e-05 -3.07466e-05 -1.04448e-05 2.12736e-05 
-1.14331e-05 1.42757e-05 -2.60819e-06 -1.31729e-06 4.98605e-06 5.33673e-06 -3.55181e-06 2.4725e-06 -5.16444e-06 
-1.38117e-06 3.1901e-06 1.96906e-05 2.44245e-06 -1.26679e-07 -4.40572e-05 -1.42551e-05 1.89947e-05 0.000678616 
-0.00611532 -0.00147721 1.82722e-05 -0.00147053 0.00263669 0.000870176 0.000362724 -0.000138051 0.000242262 
-0.000101732 -0.000102037 0.00036619 -5.15026e-05 0.00027331 0.00075051 0.000713318 0.000299062 0.000223824 
4.51492e-05 0.000140973 0.000240974 -0.000197696 -0.000907279 -0.00132048 -0.000438757 0.00424542 0.00101279 
-0.00404736 -0.000270939 -0.000572689 -0.000705975 -0.00090492 -0.000427247 0.00073348 -3.06323e-05 -0.000502143 
-0.000255411 -0.000390563 0.000747018 0.00220649 -0.00744513 0.00326017 -0.000532096 -0.000347105 -0.000733213 
-2.2465e-05 0.000240696 -0.000404459 -0.000205364 0.000319615 0.00012627 0.000183136 -0.000466914 -0.00112782 
-0.00539161 0.0113175 -0.00482697 0.000583966 0.00410587 -0.00445835 -0.00119747 6.34536e-07 -4.6198e-07 
-2.94833e-07 3.26709e-07 -8.02646e-07 -4.70405e-07 4.92106e-07 5.37831e-07 1.04206e-06 -4.12911e-07 -7.95384e-07 
-4.19255e-07 -4.02975e-07 1.28809e-07 -2.78982e-07 4.5803e-07 1.21149e-07 1.24029e-06 1.35659e-06 9.68448e-07 
1.16554e-06 -1.08532e-06 -1.65978e-06 -9.10006e-07 -0.000568958 -0.000740369 -1.83704e-05 8.63299e-06 -1.89142e-05 
-9.51491e-08 -5.64844e-06 1.00904e-06 1.5107e-05 8.72078e-07 -1.15757e-06 1.19264e-06 1.61582e-06 6.76826e-07 
1.14524e-06 3.795e-06 2.12932e-06 -9.78948e-06 -1.10853e-06 -3.38095e-05 -1.47377e-05 -3.82334e-05 1.73266e-05 
1.25877e-05 -6.58413e-06 1.83878e-05 9.18948e-06 -2.11827e-06 4.94399e-06 -1.6129e-07 -2.45325e-06 -7.78341e-07 
2.40944e-06 6.87192e-08 -1.5389e-06 -1.46873e-06 -1.48735e-06 -2.46195e-06 -1.45356e-06 -7.54356e-07 1.11364e-06 
-8.91754e-08 -2.41505e-07 -3.17877e-07 -0.00105526 -0.000352254 -4.72747e-07 -4.16331e-07 -2.3978e-07 -9.26004e-08 
2.73257e-07 -3.12966e-08 1.32413e-06 2.6893e-07 1.606e-06 8.76408e-08 3.35742e-06 -5.95591e-07 -6.08203e-06 
-2.63434e-06 1.13456e-05 3.35964e-06 -1.41975e-05 -2.88824e-05 1.72655e-05 1.51517e-05 -1.42026e-05 -2.03479e-05 
2.75114e-05 1.16847e-05 -1.19218e-06 -1.27858e-05 -1.44181e-05 9.88626e-06 -3.07454e-06 3.82808e-06 1.63668e-06 
-1.72965e-06 6.37716e-06 3.27887e-06 -6.10009e-06 -4.19012e-06 -1.64912e-05 -4.26371e-05 2.38881e-05 -4.10786e-05 
0.000144453 -6.94766e-05 -0.000464775 -0.000539912 -0.000122833 2.12026e-05 -5.28411e-05 -4.38747e-05 -4.26924e-05 
-0.000165282 -7.08261e-05 -0.000159287 -8.78835e-05 -8.7551e-05 5.81341e-05 2.84141e-05 -7.20769e-05 -8.7805e-06 
-3.71505e-05 -2.59256e-05 0.000135964 0.000216473 0.000281277 -0.00010398 0.000410289 0.000841925 -0.000235303 
-1.93242e-05 0.000159408 0.000191604 0.000178096 0.000108311 0.000120863 3.73475e-05 -0.00119569 0.000265764 
0.00169225 0.000724081 0.000679175 0.000454884 0.000822294 -0.000201967 -0.00053193 -0.000604597 -5.03449e-05 
-0.000200045 -7.0792e-05 -0.000147956 -3.59241e-05 0.000185596 0.000666369 -0.000222668 -6.79877e-05 -0.000339655 
-0.000627328 2.74547e-07 0.000889895 -0.000160285 -0.000210508 -0.000141651 3.56969e-05 1.00473e-06 -1.79125e-07 
-2.01263e-06 -1.72689e-06 -1.98179e-06 5.89334e-07 6.15022e-07 4.86418e-07 5.40693e-07 -3.49872e-07 1.01365e-07 
2.24199e-07 5.79767e-07 5.62411e-07 8.03401e-07 3.27367e-07 6.67293e-08 4.11985e-07 1.04492e-06 2.43764e-06 
1.85344e-07 2.90778e-05 4.77405e-05 -2.17194e-05 9.82397e-07 -8.45511e-06 -5.52906e-06 1.77059e-05 6.65506e-06 
-6.40853e-06 -1.15436e-05 6.17378e-06 -3.60837e-06 -3.14163e-06 -4.60751e-06 -8.39791e-06 -9.63701e-06 -1.51973e-06 
-9.64017e-06 1.76783e-06 4.27982e-06 -5.80906e-05 1.45471e-05 2.6971e-05 -4.35325e-05 -4.76724e-05 -7.03501e-06 
-7.98494e-06 -8.97286e-06 -7.11244e-06 -5.71203e-06 -1.0305e-06 -9.21299e-07 -3.63447e-06 -2.35105e-06 -1.97144e-06 
-8.97925e-07 -1.04761e-06 -5.56607e-07 1.55344e-07 1.08604e-06 -2.9558e-07 7.18004e-08 -2.23943e-06 -3.36256e-05 
4.79098e-05 6.4901e-05 9.03176e-08 1.87151e-07 1.0167e-07 2.05349e-07 1.56403e-07 7.97891e-07 1.48852e-06 
1.1789e-06 2.43907e-06 3.75919e-06 6.11376e-06 -3.77122e-07 -4.34683e-06 -4.10853e-06 1.71661e-05 2.44873e-05 
-2.03237e-06 6.07531e-05 -5.27971e-05 1.38005e-05 5.50692e-05 1.2417e-05 -4.26006e-06 -1.40863e-05 2.23198e-06 
8.63698e-06 -5.03881e-06 -8.16861e-07 5.09288e-06 9.89208e-06 -1.05932e-06 8.50878e-06 -1.09204e-07 -2.09412e-05 
2.79524e-06 2.58686e-05 -5.75171e-06 6.20497e-05 -5.13348e-05 -0.000153932 -0.000151448 -3.27731e-05 2.29023e-06 
9.17334e-05 2.56292e-05 1.82536e-05 5.24963e-06 1.3649e-05 -2.48971e-05 -1.80254e-05 -1.22019e-05 8.34511e-07 
1.37978e-05 1.67105e-05 3.63574e-07 -9.16945e-06 -1.42684e-05 -1.60028e-05 7.21307e-06 -6.18453e-07 4.25168e-05 
5.70254e-05 6.35468e-05 4.72353e-05 0.000116752 6.56909e-05 5.38851e-05 -0.000146678 -0.000119284 0.000245844 
-6.2986e-06 3.00121e-05 4.40575e-05 4.17592e-05 0.000240949 4.27733e-05 3.33632e-06 4.86373e-05 8.91237e-06 
2.94952e-05 0.000131183 0.000150424 -0.000100297 -4.37066e-05 -6.69604e-05 2.53408e-06 1.5398e-07 1.88835e-05 
0.000118886 2.90745e-07 -0.00012457 -0.000266807 7.66602e-05 7.91197e-05 0.000368813 -2.25164e-05 8.9048e-05 
6.85247e-06 1.39621e-06 -5.87912e-07 4.98824e-07 -7.13051e-07 6.63184e-07 6.94913e-07 -4.28166e-08 -3.07892e-08 
6.84083e-08 3.36991e-07 3.59638e-07 6.0461e-07 6.11555e-07 5.69759e-07 7.91049e-08 4.07857e-07 4.14342e-07 
3.14895e-07 -9.11203e-08 1.50482e-05 2.31711e-05 -8.24688e-06 2.54017e-05 -1.2626e-05 9.48575e-07 -2.53703e-06 
9.11315e-07 -1.53656e-05 8.86805e-06 5.46787e-06 -3.85534e-06 -5.47446e-06 -4.86813e-06 -9.52142e-06 -7.38376e-06 
-2.11312e-05 2.32449e-05 -2.22981e-05 -3.67673e-05 -7.49515e-06 -9.51513e-06 -2.80324e-06 -3.1122e-06 -4.19609e-06 
-2.35514e-06 -2.11066e-06 -1.32958e-06 -6.97269e-07 -4.34757e-07 -3.75327e-07 1.20077e-06 -2.7563e-07 1.48432e-07 
6.93477e-06 2.91533e-05 1.45379e-05 -9.57978e-07 2.54948e-06 -9.71124e-08 5.19505e-07 1.76744e-06 1.66692e-06 
1.91624e-07 1.398e-06 4.55163e-06 3.03562e-06 3.98739e-06 -2.35427e-06 1.40449e-05 9.8268e-06 -4.26369e-05 
2.10936e-05 -1.50823e-06 3.73471e-06 5.33243e-06 2.93047e-06 3.97578e-06 1.56114e-05 -2.08382e-06 5.32232e-06 
-3.69345e-06 3.03072e-05 6.48692e-05 -3.55425e-06 8.74521e-05 -2.20564e-05 1.71274e-05 2.45786e-05 -7.97647e-05 
5.41846e-05 3.10174e-05 1.33654e-05 -9.07955e-06 -1.2536e-06 4.59906e-06 -1.71553e-06 2.74694e-06 -1.17376e-06 
-5.02075e-06 1.79891e-07 1.59753e-06 4.0417e-06 2.13311e-06 7.34682e-06 -1.01155e-05 -4.79086e-06 2.35781e-05 
-2.22641e-05 1.81283e-05 -3.7433e-06 -5.16916e-05 -2.12582e-05 6.19938e-05 1.00138e-07 -4.13999e-05 1.00033e-05 
3.70943e-05 6.21545e-05 2.41572e-05 -2.54411e-05 3.65343e-05 8.0576e-06 -7.46346e-06 2.51396e-05 -1.64447e-05 
-3.69236e-05 -2.02397e-05 -5.36273e-06 -2.06138e-05 -5.52614e-05 4.26446e-06 -4.35997e-07 -1.3339e-06 -4.52986e-07 
1.21e-06 -5.8849e-07 -4.35205e-07 -1.40194e-06 -4.1022e-09 5.7289e-07 1.37874e-06 9.00695e-07 6.74254e-07 
2.90615e-07 -6.99549e-07 4.39242e-07 5.19979e-07 -1.87144e-05 -2.16467e-05 -3.17061e-06 1.45125e-05 -2.41131e-05 
-4.05763e-06 5.69523e-07 -8.22778e-07 3.35155e-06 -4.63365e-07 5.41535e-06 1.50494e-05 -2.24413e-05 1.88698e-05 
-6.40455e-06 -9.27768e-06 -1.23489e-06 -4.27644e-07 9.60126e-07 -1.71326e-06 -1.2774e-06 -4.73863e-07 -4.90567e-07 
-1.3875e-07 6.73309e-08 -1.35983e-06 4.89003e-07 -1.78708e-05 -2.5491e-07 8.03717e-07 2.43948e-07 1.476e-06 
1.48801e-06 -3.09658e-07 -1.63165e-06 3.63305e-06 7.68895e-06 -7.67948e-06 -3.38918e-06 -1.45702e-05 -1.35659e-05 
1.08133e-06 2.08093e-06 1.10772e-05 -5.88481e-06 5.52679e-06 1.00522e-05 1.14514e-05 2.25976e-05 2.41351e-06 
-6.71279e-06 1.19832e-07 5.27896e-06 1.69099e-05 3.15782e-07 8.24405e-06 2.0117e-05 -6.38829e-06 -7.69694e-07 
1.29708e-05 -1.17031e-05 5.47421e-06 7.78484e-06 -9.63239e-07 1.62855e-05 1.18222e-05 -1.27727e-05 -7.99203e-06 
1.22776e-07 6.23423e-06 5.32583e-06 1.09816e-05 -2.52274e-05 3.66652e-05 -8.13143e-06 -1.0354e-06 9.74361e-06 
1.35643e-05 -6.32397e-06 -5.71351e-06 1.65797e-05 -7.63931e-06 8.15194e-07 -5.17527e-06 9.85499e-06 4.77714e-06 
-2.33714e-05 4.03804e-06 6.56159e-06 2.08674e-05 1.52774e-05 -2.38403e-06 -2.00988e-06 3.68791e-07 6.95813e-07 
1.40663e-06 -2.45213e-07 1.27903e-06 3.45045e-07 -8.24116e-07 2.49254e-06 -2.4897e-07 -1.13089e-05 2.43852e-06 
8.701e-06 -6.4146e-06 -2.24181e-05 -1.37906e-05 -1.46037e-06 6.22622e-07 4.48982e-06 7.04661e-07 -9.25923e-06 
-1.13061e-05 -1.3328e-06 1.1303e-06 -8.34725e-07 5.55269e-07 1.01973e-06 -2.91162e-07 -1.69043e-06 3.6457e-06 
4.55342e-07 -5.86258e-07 -9.80457e-07 6.43087e-07 1.09314e-06 5.88059e-07 6.13107e-07 1.21157e-06 -1.12879e-06 
3.14037e-06 -1.97738e-05 6.84219e-06 -5.11785e-07 -5.16209e-06 1.41813e-05 -2.25846e-06 -2.15884e-05 -3.2161e-06 
5.98229e-06 -1.52544e-06 -6.94209e-06 1.01869e-05 4.19849e-07 2.24819e-06 -3.71652e-05 1.81622e-06 6.92641e-06 
2.37659e-05 4.27701e-06 1.45298e-05 -2.525e-06 -8.12803e-06 -8.98099e-07 2.19233e-06 1.09133e-06 -1.60299e-06 
-4.33471e-06 2.19557e-06 1.44233e-06 1.11564e-05 4.92588e-07 7.26472e-06 4.36191e-06 2.18979e-05 -5.56715e-06 
-2.33289e-05 -1.74494e-06 9.8845e-07 -1.72559e-06 -6.71142e-07 1.5499e-06 5.1978e-07 6.4851e-07 6.16765e-07 
-2.20691e-06 -1.00828e-05 5.82853e-06 1.82666e-05 -1.64413e-05 1.78739e-05 -2.85468e-05 -9.40238e-07 -3.42015e-06 
8.29765e-07 -2.99887e-06 1.0725e-06 -1.68061e-05 1.20739e-06 2.6983e-07 9.46149e-07 -4.1515e-06 -1.50206e-06 
-3.41461e-05 2.36178e-05 -3.27205e-05 2.19625e-05 2.34706e-05 -8.05489e-06 -3.43506e-06 1.23125e-05 -5.35216e-06 
-2.92227e-05 6.93152e-06 -8.73587e-06 -2.94741e-06 -6.74926e-06 2.32108e-07 3.80831e-06 -3.67615e-05 3.3862e-05 
-3.71014e-06 6.91752e-07 -1.12521e-06 4.2977e-07 -5.65742e-07 8.58924e-06 -9.08459e-07 1.60749e-05 3.33552e-05 
-3.87716e-05 7.51437e-06 -2.58145e-05 8.57185e-06 -3.59112e-07 -2.62991e-07 -6.28041e-08 -1.01659e-05 -3.28351e-06 
1.25579e-06 1.6346e-06 5.64559e-07 -6.20614e-06 5.67444e-06 1.31616e-05 4.76064e-06 7.3778e-06 2.22158e-06 
-1.16537e-06 -1.95834e-05 -3.81519e-06 6.24454e-06 9.71509e-07 1.47757e-05 3.38393e-06 8.61512e-07 -1.19891e-05 
2.43382e-05 1.29287e-05 1.22642e-05 -1.23861e-05 -8.48425e-07 7.22201e-09 -1.43795e-06 -1.3282e-07 1.68096e-06 
1.69953e-06 -1.78967e-06 6.43329e-07 2.02535e-06 1.8065e-07 6.74394e-07 1.97448e-06 1.03437e-06 2.65727e-08 
-1.25298e-06 1.70116e-07 -1.7137e-06 -5.24637e-07 5.1041e-07 -1.49073e-06 -1.90701e-06 -3.57222e-08 -7.25568e-07 
1.31089e-07 1.48122e-06 1.79073e-06 7.39873e-07 -0.0073559 0.00015328 -2.60059e-05 -4.38781e-06 1.83158e-06 
-5.02443e-07 -4.47513e-06 -1.01691e-05 -6.50468e-06 -1.83468e-06 -3.7391e-06 -6.33999e-06 -5.13271e-06 -7.47939e-06 
-1.00533e-05 -1.02446e-05 -5.27439e-06 -5.01932e-06 -5.0413e-06 9.02013e-06 5.30924e-06 3.09409e-05 5.20784e-06 
1.57433e-05 2.68423e-06 -8.33178e-06 -1.79794e-05 -2.30299e-06 -3.71475e-06 -1.02343e-06 -1.03765e-06 -1.76637e-06 
-1.91019e-06 -3.84423e-07 7.56313e-07 -6.60378e-07 -9.8032e-07 2.00236e-06 1.22818e-06 1.47368e-06 -4.76011e-08 
-3.78204e-07 -1.26258e-06 1.96687e-06 1.55574e-06 1.26122e-06 1.10014e-06 9.40265e-07 3.69476e-07 3.49851e-07 
3.48291e-07 7.93897e-07 1.77866e-07 -1.37976e-06 1.077e-06 -4.18851e-07 3.95006e-06 1.82185e-06 2.38483e-06 
7.95566e-06 6.4363e-06 5.09241e-06 -1.16544e-06 1.65631e-05 3.86306e-06 1.84411e-05 2.0028e-05 5.70945e-07 
4.40359e-06 -8.8468e-06 8.63989e-07 -1.6965e-07 -5.91676e-06 8.22431e-06 7.69918e-06 -2.46185e-06 4.86814e-06 
1.46489e-06 -1.6424e-05 -7.82926e-06 1.07448e-05 -3.24784e-05 1.02236e-05 2.47842e-05 7.94849e-05 0.000285752 
-0.00301727 0.00656794 0.000707681 0.000736478 0.00162256 0.00223989 -0.000411787 -0.000994891 -0.000171649 
-0.000297063 -0.000713356 -0.000216215 -0.000588777 -0.000280713 0.000154512 0.000506094 0.000101572 -0.000125268 
0.000315081 -0.000244409 0.000376821 0.000367374 -8.2921e-05 -0.000118988 -0.000824284 -0.000422133 0.00830055 
0.00450756 -0.00132862 0.00032931 0.000644707 -0.000303473 -0.000776042 -0.000221671 3.00295e-05 -6.93921e-05 
-0.000533441 -0.000654082 0.000380108 0.000819964 -0.00346424 0.00372761 -0.0024822 0.000627861 0.000297238 
-0.00218923 0.000568373 0.000338405 -0.000604438 0.000199507 0.000432239 0.000459643 0.000380273 0.000471843 
0.000188434 0.00458492 0.000765584 0.000567207 -6.35411e-06 0.00028066 -0.00459089 -0.000412235 1.54403e-06 
-1.75778e-06 -1.13105e-06 -1.43307e-06 1.62259e-07 1.27155e-07 -2.78064e-07 -4.17966e-07 -7.70867e-07 9.52903e-08 
5.5673e-07 6.64495e-07 4.41529e-07 2.02048e-07 5.89663e-08 1.68018e-07 -6.5564e-08 3.19343e-07 4.85712e-07 
-9.22367e-08 -3.94273e-07 4.5858e-07 -5.961e-08 3.64311e-07 -4.86587e-05 1.91248e-06 -0.000301004 -0.000222855 
-0.00199447 -2.22553e-05 -7.24938e-06 -2.18307e-05 -1.92011e-05 -5.5677e-06 -8.34863e-06 -1.02846e-06 -5.08955e-06 
-1.77781e-06 -1.17287e-06 -1.20635e-06 -3.71162e-06 -6.6991e-06 -1.58712e-05 -1.42952e-05 -2.1218e-05 6.69459e-06 
4.13243e-05 3.80808e-05 5.43931e-05 9.8675e-06 7.62883e-06 -1.16674e-05 -5.17191e-06 -5.65507e-06 -4.39017e-06 
-1.74399e-06 -3.57086e-06 -4.80848e-07 -8.61527e-07 -9.10137e-07 -1.23975e-06 5.8167e-07 2.97977e-07 -1.02636e-06 
-7.07496e-07 -1.89668e-06 -1.02705e-06 -6.00305e-07 -0.0011339 -0.000501751 2.94101e-07 5.46234e-07 5.90752e-07 
6.89441e-07 1.27335e-07 1.06896e-06 -7.98906e-07 -6.37633e-07 -5.45368e-07 -1.24033e-06 -1.64617e-06 -2.95258e-06 
9.83917e-06 2.8618e-06 -1.66084e-05 -3.15595e-07 3.14647e-06 -3.28724e-06 9.79503e-06 -1.30407e-05 -1.40106e-05 
-8.42256e-06 -1.12781e-06 1.20073e-05 6.91266e-06 1.63801e-05 2.29043e-06 -1.59617e-05 -9.76455e-06 1.35336e-06 
-1.16894e-06 2.31211e-06 -5.30186e-06 -2.53467e-06 -4.40291e-06 -8.15352e-06 1.16535e-05 -3.16111e-05 7.75914e-06 
-5.46231e-05 -8.54203e-05 -0.00105557 0.000345407 0.000305286 -0.000118467 0.000501922 -5.9584e-06 -0.000206418 
0.000128842 -6.88551e-06 7.52749e-05 8.21223e-05 7.1529e-05 0.000102111 -8.15286e-07 -1.23891e-05 -9.06132e-05 
-2.70241e-05 -2.15279e-06 7.54239e-05 -2.30559e-05 2.60034e-05 3.83132e-06 -7.44906e-05 -1.64437e-05 -0.000118572 
-0.000777041 0.000272782 0.00149615 -0.000252268 3.44265e-05 0.000132463 4.04836e-05 3.42616e-06 6.85546e-05 
0.000131748 1.79157e-05 5.22534e-05 0.000140651 0.000294102 -0.000440027 -0.000748216 4.37368e-05 -8.4438e-05 
0.000150512 -0.000105645 -2.55783e-05 -0.000272462 -0.000204358 -5.14601e-05 -4.08433e-05 -1.33621e-05 -5.79903e-05 
0.000141735 0.000222693 -0.00119447 -9.06086e-07 0.000252241 -0.000456995 -9.83411e-05 -0.000268013 2.39743e-05 
5.38511e-05 -0.000200121 1.41884e-06 -4.27371e-07 2.27142e-06 3.30996e-07 -6.15777e-07 -3.6779e-07 4.35057e-07 
3.67101e-07 4.2555e-07 1.61783e-07 1.55943e-07 1.74045e-07 2.16987e-07 9.73037e-07 3.79865e-07 4.12499e-07 
-2.46967e-07 -1.60604e-06 1.68411e-07 8.44259e-07 2.29341e-05 -0.000120991 -2.08634e-05 -3.48809e-05 -5.23904e-05 
-0.000285392 -1.93319e-05 -9.8827e-06 -8.37311e-06 -4.08963e-06 -4.71085e-06 -2.74403e-06 3.22267e-06 1.79944e-06 
1.90511e-06 2.00506e-06 7.63942e-07 -1.87443e-05 -1.79157e-05 -9.27784e-05 0.000159131 9.69419e-05 2.65768e-06 
1.80352e-05 -3.14337e-06 -6.9704e-06 -3.63538e-06 -5.47552e-07 -4.63548e-07 -9.57772e-07 -3.80021e-07 -1.46358e-07 
-6.61879e-07 -8.89315e-07 -9.96193e-07 -9.35217e-07 -2.52799e-06 -3.57661e-07 -6.89882e-07 -0.000191843 -9.50412e-05 
7.10092e-07 3.20977e-07 8.49777e-07 1.06399e-06 -1.86409e-07 -8.55179e-07 1.01454e-07 -7.44435e-07 -1.17824e-06 
-1.91891e-06 -2.86651e-06 -4.38409e-06 4.88283e-06 -4.25721e-06 -4.55876e-06 6.53974e-06 -3.05052e-05 -1.66965e-05 
-0.000154168 0.000126017 -0.000111473 -1.75228e-05 9.65684e-06 1.34244e-05 -3.51061e-08 4.07602e-06 -1.26634e-07 
-1.69907e-06 -9.01136e-06 -1.47661e-06 -3.14284e-06 -3.19638e-06 -1.11333e-06 1.00646e-05 -4.90561e-05 -2.44286e-06 
2.23831e-05 -1.14537e-05 -7.79052e-05 4.39687e-05 5.31004e-05 7.07846e-05 8.59008e-05 0.000171078 1.90657e-05 
1.65362e-06 3.57066e-05 0.000102932 6.7126e-05 3.34128e-05 1.57295e-05 4.96897e-05 3.10283e-05 2.52331e-05 
2.85246e-05 2.80939e-05 1.66505e-05 1.03074e-05 2.747e-05 2.71904e-05 1.42082e-05 1.20493e-05 -6.15942e-05 
4.70005e-05 -4.74187e-05 -2.53203e-05 -2.96762e-05 -2.8973e-05 -1.06147e-05 3.55153e-05 8.30894e-05 9.2127e-05 
5.72641e-05 1.94848e-05 4.8906e-07 -5.09344e-05 6.15642e-07 0.000123349 3.08738e-05 1.06311e-05 -7.3833e-05 
-6.62496e-05 -3.33787e-05 1.53085e-06 7.72327e-05 0.000117091 9.30632e-05 -4.65278e-06 5.3041e-05 1.36965e-05 
-8.72935e-07 -6.91842e-05 1.7238e-06 -5.67067e-05 3.21933e-05 0.00013189 -2.27081e-05 3.97065e-05 4.74918e-06 
-0.000171625 1.38487e-05 7.28834e-05 -4.165e-07 -8.75159e-08 -1.10662e-08 4.15464e-07 9.41057e-07 2.73099e-07 
-6.72844e-07 2.39476e-08 1.51087e-07 5.62557e-08 1.80632e-06 7.08875e-07 -4.05697e-08 1.90371e-07 4.75296e-07 
-1.87927e-05 1.01469e-05 -1.67505e-05 -8.79828e-06 2.53191e-05 -1.7442e-05 -6.66168e-06 3.74462e-06 -6.89177e-06 
-2.59283e-06 2.08588e-06 -6.40935e-06 3.86782e-06 -1.16534e-05 -1.36663e-05 -7.16519e-07 -1.92175e-06 -6.45341e-06 
-5.03908e-06 -2.83924e-07 -4.65037e-08 -7.27757e-07 -1.24372e-06 -1.01463e-06 -8.4861e-07 -1.16669e-06 4.20316e-07 
-9.50284e-07 -9.48763e-06 -3.14623e-05 1.1489e-07 -6.26193e-07 1.08402e-06 3.56253e-07 -1.24716e-06 6.00622e-07 
7.29583e-07 -1.28355e-06 5.9296e-06 3.11048e-07 -2.6873e-06 4.94838e-05 3.68478e-05 5.71775e-05 2.50813e-05 
-7.86223e-06 2.2147e-06 -8.01687e-08 3.44385e-06 -3.83879e-06 7.76246e-08 1.07148e-05 2.38923e-07 -2.8534e-06 
-1.20219e-05 3.48355e-07 -1.85318e-05 -2.0899e-05 2.55121e-05 2.972e-05 4.60585e-05 3.91631e-05 -8.00031e-06 
-8.25777e-06 -1.65436e-06 -7.47411e-06 4.53858e-06 -3.34538e-06 5.3898e-06 9.66443e-07 -1.36981e-06 -1.12558e-05 
1.69649e-06 -2.07542e-06 -1.50161e-06 -5.57064e-06 -5.22487e-06 -4.51427e-06 1.21064e-07 2.52115e-05 -3.04168e-06 
9.5543e-06 2.26743e-05 8.0956e-06 2.75633e-05 3.50574e-05 -3.0268e-06 -3.51431e-05 4.74897e-07 7.28237e-06 
5.80986e-06 -2.1715e-05 -2.07944e-05 -1.48491e-05 -1.3466e-05 -9.20487e-06 3.41595e-05 6.82954e-06 1.41037e-06 
3.30289e-07 7.82342e-07 -7.49017e-05 2.70903e-05 2.26622e-07 2.16436e-05 -1.77942e-06 -2.36549e-05 -1.17336e-05 
-2.14924e-08 3.95079e-05 -7.3763e-05 -4.78278e-05 2.45634e-05 -5.70515e-06 4.09179e-07 -4.93626e-07 1.40051e-06 
3.89687e-07 -1.0658e-08 7.89583e-07 3.54063e-07 1.55798e-06 -1.07743e-08 4.49947e-07 -5.02839e-05 -7.15299e-06 
3.41863e-06 1.39554e-05 1.71296e-06 5.17627e-06 -1.51745e-06 1.43837e-05 -5.00804e-07 1.59109e-06 -3.12445e-06 
-2.56504e-06 -1.1559e-06 -2.0691e-06 -1.45158e-06 4.31269e-08 5.26938e-08 -2.12699e-07 -6.4915e-05 9.23696e-07 
3.14907e-07 -9.6136e-08 1.68358e-07 1.19288e-06 2.31634e-07 3.07365e-07 2.25584e-06 4.15208e-06 2.62678e-06 
1.75161e-05 1.97929e-05 -1.36944e-05 -5.36454e-06 5.15262e-07 -1.83425e-06 -9.21332e-06 -4.90306e-06 -3.62679e-06 
1.35334e-05 6.65546e-06 -9.35919e-06 -5.22861e-06 5.67891e-06 -1.25597e-06 -2.14686e-06 4.44455e-05 -3.06051e-06 
1.49427e-05 -1.45367e-05 1.96734e-05 1.85469e-05 -1.66889e-05 -1.18873e-06 -1.80984e-05 -5.06529e-06 -2.66975e-05 
4.15272e-06 -1.19115e-06 1.74208e-06 3.43036e-06 5.48057e-06 2.36776e-06 9.88213e-06 2.09437e-05 4.51266e-06 
8.87821e-06 1.92616e-05 -1.8309e-05 1.03598e-05 -4.81434e-06 -3.76859e-05 -1.4717e-05 -6.66683e-06 -9.14465e-06 
1.90573e-05 3.06934e-05 1.96423e-05 2.04938e-05 -1.25797e-06 -1.80306e-05 3.62386e-05 4.19974e-06 2.6444e-05 
1.62049e-06 1.44017e-05 -6.54589e-08 2.13e-05 1.67782e-05 -1.86954e-05 -8.72356e-06 -8.54637e-08 -2.0495e-05 
4.7026e-07 2.47919e-06 -4.87857e-08 1.39279e-06 6.9735e-07 5.53304e-06 4.33915e-06 9.54226e-07 1.32408e-07 
-3.4676e-06 -3.2043e-07 5.0171e-08 -2.23127e-06 -3.9038e-07 1.57186e-06 -3.80211e-07 -4.99469e-06 -8.14233e-07 
-4.78277e-06 2.07353e-06 5.09422e-08 -2.67113e-06 5.65368e-06 1.8773e-07 5.44582e-07 3.22275e-08 -5.68129e-07 
-9.37298e-06 6.35127e-07 8.76725e-06 3.58812e-06 1.22742e-05 2.9665e-05 -7.30237e-06 3.71727e-05 3.25612e-05 
-3.24179e-05 3.43628e-05 1.55734e-07 -2.72926e-05 -6.99193e-06 -4.14594e-08 -2.23084e-06 1.60766e-05 2.54569e-08 
-2.98012e-07 -4.7253e-06 -2.12839e-06 -1.30689e-05 1.87411e-06 8.23367e-06 9.86277e-06 -7.80782e-06 -1.17219e-05 
3.13722e-05 2.82588e-05 6.05646e-07 1.04094e-06 -2.65677e-06 1.63031e-06 1.97132e-06 -5.23523e-06 -1.21223e-05 
-1.34568e-05 -6.98234e-07 -4.06404e-05 -1.03197e-06 8.01651e-07 -1.42832e-06 6.62842e-06 -1.13883e-05 1.13722e-05 
-2.72356e-06 -1.07772e-05 -5.32819e-06 -5.5137e-07 -1.53877e-06 1.61378e-06 -4.78248e-06 2.04336e-06 1.07786e-06 
1.10258e-05 2.54923e-06 2.01784e-06 8.72332e-07 4.47828e-06 1.30727e-07 -4.17063e-06 8.5543e-06 -3.30159e-05 
7.12368e-06 9.78046e-06 3.44155e-05 2.99306e-05 3.24229e-05 3.17105e-05 1.08208e-05 1.00632e-05 -1.96819e-06 
2.64511e-06 2.07349e-07 9.26445e-07 4.44571e-06 -1.99808e-06 1.35576e-06 9.36433e-07 -3.43442e-07 1.87418e-05 
7.91044e-06 -2.61247e-06 4.32801e-05 8.39911e-07 7.19517e-06 -8.27882e-06 8.06705e-07 5.08742e-06 1.02555e-06 
7.45841e-06 -5.79026e-06 5.1672e-06 3.72779e-05 -1.25612e-05 -5.77458e-06 1.59034e-05 -3.87424e-05 4.74753e-06 
-1.16767e-05 4.53572e-06 -9.62539e-06 -6.93268e-06 -6.63371e-06 -2.06218e-06 -1.77062e-06 5.44646e-06 5.01666e-07 
1.98708e-06 -5.08844e-05 1.21294e-05 -4.36891e-06 3.74554e-06 -6.62679e-06 -3.3706e-05 1.31744e-05 -7.31197e-06 
-1.68859e-07 -4.41038e-08 -1.83577e-06 1.46871e-05 7.84667e-06 1.32304e-05 -5.75193e-06 0.0012371 0.00143825 
9.71766e-07 7.30475e-09 1.34635e-07 -1.20641e-07 0.00355481 -0.000103049 -0.00029327 0.000798158 1.41902e-08 
2.987e-08 2.41988e-08 2.07046e-08 1.74287e-08 1.70639e-08 1.94944e-08 1.76268e-08 1.38155e-08 1.18469e-08 
1.2174e-08 9.82371e-09 6.3956e-09 5.40628e-10 1.82217e-10 -3.18461e-09 -5.79844e-09 -9.89072e-09 -1.65126e-08 
-2.06761e-08 -1.16967e-08 4.07243e-08 1.34635e-07 0.0232051 2.43013e-09 1.42546e-09 3.28807e-09 4.21762e-08 
2.11423e-08 1.78423e-08 1.94501e-08 1.5657e-08 9.12072e-09 7.70135e-09 3.29939e-09 5.72901e-09 6.71288e-09 
9.1249e-09 6.0972e-09 3.97424e-09 1.86275e-09 -1.69302e-09 -4.36184e-09 -1.5264e-09 -1.98417e-09 -2.05404e-09 
-6.42825e-09 -2.46049e-08 -4.28976e-08 -4.45274e-09 -1.36199e-05 -5.04588e-06 4.58942e-06 1.4415e-05 1.52548e-05 
1.70037e-05 1.73329e-05 1.58738e-05 1.31245e-05 1.09334e-05 1.2885e-05 7.81646e-06 7.46971e-06 7.09149e-06 
4.46684e-06 2.18843e-06 -3.35722e-06 -4.35883e-06 -8.37078e-06 -5.93305e-06 -1.18309e-05 -1.50497e-05 -1.31509e-05 
-9.43028e-06 -6.33391e-06 -1.82455e-06 1.59655e-05 1.29109e-05 -0.0109409 -0.000604739 -0.00165544 -0.000848457 
-0.000491136 -0.000301247 -0.000199993 -0.000134222 -0.000100473 -6.10511e-05 -5.91826e-05 -4.52598e-05 -4.11259e-05 
-4.91303e-05 -6.39293e-05 -8.39262e-05 -0.000106837 -0.000105372 -9.90605e-05 -2.92438e-05 6.15834e-05 0.000168151 
0.000264462 0.000277061 0.00018054 6.42684e-05 -2.6156e-05 -7.87836e-05 -9.66668e-05 -8.41527e-05 -7.14084e-05 
-5.61814e-05 -4.31012e-05 -2.64153e-05 -1.88819e-05 -8.26726e-06 -6.45979e-06 -3.80432e-06 2.4977e-07 7.8951e-07 
2.54199e-06 5.65331e-06 9.93432e-06 1.57099e-05 1.34114e-05 -9.06301e-06 -1.71026e-06 3.22831e-06 -1.16848e-05 
-8.75394e-06 -6.32218e-06 -3.09767e-06 -1.0555e-06 1.35243e-06 5.58014e-06 1.03089e-05 -4.75838e-07 2.17295e-05 
9.67098e-06 3.68366e-05 4.36048e-05 4.55796e-05 2.74003e-06 9.45108e-05 0.000106051 0.00010264 2.67024e-05 
1.84002e-05 -0.000146293 -0.000201341 -9.09822e-05 -0.000133231 -2.41752e-05 -9.23689e-06 1.41458e-05 1.43839e-05 
6.17653e-05 4.30723e-05 3.58129e-05 3.1578e-05 3.62634e-05 3.71826e-05 1.65036e-05 3.5183e-05 5.93682e-05 
-2.89519e-05 0.000106774 0.000139262 0.000180016 0.000216802 0.0198699 0.00650033 -0.000898551 -0.000260648 
0.00105606 -0.00048363 0.00129441 0.000294944 0.000173166 -0.001894 0.00120488 0.000306857 -3.12741e-05 
0.000745085 -0.00167195 0.000299193 -0.00472593 0.000581735 0.0017318 -0.00203973 0.000344046 0.000222637 
-0.000991879 0.000649997 0.00110791 0.000185345 0.000851157 -0.000262708 0.00255159 -0.00119412 0.00204446 
-0.00203235 8.20247e-06 1.90173e-05 3.4328e-07 -4.44325e-07 -7.4603e-06 -1.02919e-05 -1.12417e-05 -1.25161e-05 
-1.27639e-05 -1.08982e-05 -2.54616e-06 -3.63439e-06 7.70597e-08 5.67135e-06 8.2821e-06 1.25801e-05 6.80938e-06 
1.38523e-05 8.69574e-06 7.66526e-06 9.54623e-06 1.44283e-05 1.70505e-05 1.59367e-05 9.77984e-06 -1.48387e-06 
-1.4138e-05 -1.09006e-05 -0.0246935 0.0224303 0.00134923 0.000772079 0.000384955 0.000212559 0.000131341 
9.02104e-05 4.8847e-05 1.10189e-05 2.5041e-05 1.53973e-05 1.10084e-05 1.98375e-05 3.31851e-05 4.2807e-05 
6.72823e-05 7.79907e-05 9.74058e-05 3.17294e-05 -4.49462e-05 -0.000172785 -0.000255321 -0.000263819 -0.000178244 
-4.8879e-05 5.98129e-05 0.000101689 0.00011161 9.8284e-05 7.32333e-05 5.18003e-05 3.5436e-05 1.47566e-05 
9.91368e-06 2.39058e-06 1.1262e-06 -6.75768e-06 -1.16755e-05 -1.16474e-05 -1.36959e-05 -1.47398e-05 -1.52396e-05 
-1.43565e-05 -4.66414e-06 1.62172e-06 -3.61481e-07 1.2008e-06 1.04247e-05 1.36281e-05 1.36331e-05 1.39788e-05 
1.24507e-05 1.14831e-05 1.06595e-05 1.05475e-05 -8.07023e-06 4.58418e-06 1.2916e-06 -1.0127e-05 -3.28214e-05 
-5.23727e-05 1.53806e-05 -3.35899e-05 2.16679e-06 5.75906e-05 7.59541e-05 7.70638e-05 0.000230267 0.000104627 
-1.6547e-06 -8.54963e-05 -0.000108119 -0.00014262 -0.000117096 4.52799e-06 -2.52163e-05 -1.71504e-05 -1.25886e-05 
-1.32797e-05 1.06566e-07 1.35316e-05 2.73154e-05 2.33123e-05 3.11898e-05 -8.2938e-05 -0.000318072 -0.000434426 
-0.000759593 -0.000168509 -0.00103212 0.0103935 0.00279709 -0.00298997 0.000436216 0.000345852 -0.000224719 
0.000111349 -0.000802924 0.0022379 -7.45242e-05 0.000231973 0.000341292 0.00183136 -0.00298786 0.00404264 
0.00680924 0.000632732 0.00114452 0.0012523 0.000431371 0.00045615 0.00152361 -0.00284009 0.000582961 
0.000199041 0.000252333 6.30524e-05 -0.00123434 -0.00123208 -0.00340437 -0.00942235 1.10304e-06 -1.69536e-06 
-0.00106186 0.00255226 -0.00129146 0.00472367 -5.66683e-08 -0.0232708 0.0182857 -5.60958e-09 -0.0014858 
-4.55956e-09 8.44469e-11 -0.000100863 -0.000221077 3.12847e-08 -0.0161613 0.0123229 -0.0160849 0.0128055 
-0.0157127 0.0153323 -0.0171478 0.0146651 -0.0172111 0.0151768 -0.0163955 0.0164764 -0.0169857 
0.0154591 -0.0171161 0.0164328 -0.0172399 0.0162336 -0.0181191 0.0155882 -0.0189927 0.0156436 
-0.0183773 0.0163244 -0.0175383 0.0172265 -0.0179781 0.0166423 -0.0167458 0.0174571 -0.0174975 
0.0166369 -0.0171744 0.0176617 -0.0164292 0.0189988 -0.0157295 0.0185763 -0.0139141 0.0184242 
-0.0140537 0.0196216 -0.016808 0.0249813 -5.09246e-06 -9.06294e-06 -6.94213e-06 2.93353e-06 -1.6739e-06 
-2.25501e-06 1.91776e-06 -1.98277e-07 -3.07345e-06 4.79787e-06 1.34522e-06 -2.0071e-07 3.99397e-06 1.55823e-06 
1.26617e-07 6.53722e-06 5.31518e-06 2.54167e-07 1.06329e-05 6.13513e-06 4.44182e-07 8.2006e-06 5.78533e-06 
-2.02352e-06 6.38695e-06 5.18033e-06 -4.85182e-06 -2.74958e-06 1.30316e-06 -6.08235e-08 -1.99243e-06 3.59362e-06 
-2.15084e-07 -7.52618e-06 -2.91015e-06 -2.25548e-06 -6.87544e-06 -3.79408e-06 9.14942e-07 -5.40842e-06 -4.27398e-06 
1.03621e-06 -5.31133e-06 -4.89713e-06 1.83531e-06 -4.76862e-06 2.16356e-07 1.472e-06 -5.12888e-06 -4.93605e-06 
1.81263e-06 -4.41284e-06 1.45121e-06 3.38694e-06 1.67455e-06 3.53152e-06 3.00907e-06 -1.1975e-06 -1.52773e-06 
3.06652e-06 -6.26073e-06 -4.0368e-06 3.03171e-06 -9.67833e-06 -5.17858e-06 5.29936e-07 -7.08292e-06 -6.03591e-06 
1.57583e-06 -5.64415e-06 -8.22979e-06 2.83539e-06 -3.73038e-08 -6.46865e-06 5.62108e-07 1.59239e-06 3.12799e-06 
7.61715e-08 2.85643e-06 -6.97537e-07 -7.45707e-06 -4.6274e-06 0.0100139 -0.00208432 -0.00334342 -0.000169119 
-9.56929e-05 -0.000618818 -5.02088e-05 -7.53381e-05 -0.000257529 -3.97218e-05 -2.37477e-05 -0.000206695 -3.53765e-05 
-1.26243e-05 -0.000135514 -2.99849e-05 -6.86715e-06 -8.62821e-05 -1.13334e-05 -5.812e-06 -6.86054e-05 -1.69709e-05 
-1.80597e-06 -4.9369e-05 -2.51428e-05 -6.40773e-06 -4.87471e-05 -1.17183e-05 -2.95026e-06 -8.9296e-06 -5.17585e-06 
1.43172e-06 -2.74077e-05 -1.58724e-05 -3.28745e-06 -2.46231e-05 -1.65236e-05 -8.31052e-07 -5.25323e-06 -1.87715e-05 
-2.81895e-07 1.16063e-06 -1.80171e-05 1.46303e-06 8.79245e-06 -2.21466e-05 2.61272e-06 1.6732e-05 -3.14643e-05 
-5.2167e-06 2.05589e-05 -1.26301e-05 -4.46432e-06 2.61609e-05 -1.96166e-05 -2.32381e-06 -1.40706e-05 -3.1789e-05 
-4.09107e-06 -4.47217e-05 -2.27546e-05 -3.40464e-06 -8.78383e-05 -1.33806e-05 1.01984e-05 -4.67464e-05 1.08095e-05 
1.65686e-05 -4.90696e-06 2.73337e-05 2.24724e-05 2.35291e-05 2.48447e-05 4.44858e-06 2.88158e-05 2.83153e-05 
3.40923e-06 2.96232e-05 2.13266e-05 4.65021e-06 4.96092e-05 1.10484e-05 -1.43563e-06 5.01035e-05 4.10067e-06 
4.60455e-07 2.50067e-05 -7.35635e-07 -7.18522e-07 7.68139e-06 -4.20916e-06 -3.00478e-06 2.37494e-06 -5.2118e-06 
-1.03233e-06 -2.37844e-06 -7.81155e-06 -1.97119e-06 -8.26867e-06 -7.35885e-06 -1.16136e-06 -2.8339e-06 -7.07714e-06 
-2.74451e-07 -3.26558e-06 -3.83851e-06 -1.3973e-06 -4.00669e-06 -3.72492e-06 -1.87394e-06 -7.9919e-06 -5.30006e-06 
-2.07363e-06 -9.0833e-06 -3.96828e-06 -2.4507e-06 -9.27044e-06 -2.60327e-06 -2.24656e-06 -8.78907e-06 -1.28872e-06 
-1.89176e-06 -8.20722e-06 -4.74744e-07 -1.62359e-07 -8.41201e-06 1.49017e-06 4.83193e-06 -8.07446e-06 9.57484e-06 
4.5601e-06 1.67263e-06 0.00161687 -0.00582752 -1.9646e-06 -6.80097e-06 -7.2395e-07 0.00778904 -0.00805935 
-6.7549e-07 4.04817e-07 1.22449e-06 4.66901e-07 4.40044e-07 3.76691e-06 6.44399e-07 2.34144e-06 4.89844e-06 
2.1413e-06 2.4283e-06 6.94752e-06 2.6465e-06 3.52048e-06 8.08353e-06 3.15808e-06 4.74429e-06 8.61357e-06 
3.89549e-06 6.65382e-06 1.10665e-05 1.57311e-06 -1.06916e-06 7.38048e-06 4.77339e-06 8.29134e-06 6.72845e-06 
7.3988e-06 -3.52902e-06 6.80679e-06 -1.61836e-07 9.37486e-06 4.19795e-06 1.06307e-06 1.04713e-05 -3.34671e-06 
3.42251e-06 2.16621e-05 -4.86447e-06 3.66579e-05 4.33649e-05 1.01334e-05 7.93398e-06 2.29665e-05 3.01e-05 
3.35686e-05 2.72283e-05 1.2404e-05 3.09184e-05 3.69973e-05 2.03948e-05 3.30483e-06 -3.95811e-05 4.49586e-05 
-4.04431e-06 -9.48185e-05 3.24764e-05 3.45864e-05 -1.98152e-05 -3.18564e-05 -6.5657e-05 -1.99951e-05 -2.99136e-05 
2.46959e-05 -9.11559e-05 -5.81381e-05 -5.26956e-05 -3.53455e-05 -8.14879e-05 -4.48156e-05 1.39364e-05 -7.90902e-05 
-2.66102e-05 -8.58455e-06 -5.38758e-05 -1.86894e-05 -3.49647e-05 -6.05564e-05 2.96126e-05 -2.26204e-05 -1.66976e-05 
9.27598e-06 1.48562e-05 -4.57838e-06 1.00215e-05 1.84166e-05 1.10287e-05 4.59143e-06 8.91434e-06 5.77052e-06 
-1.13868e-07 8.34723e-06 9.14889e-06 1.0184e-05 1.34354e-05 1.81774e-05 1.10641e-05 6.87312e-06 1.08652e-05 
-1.13979e-05 3.05073e-05 -1.89812e-05 -1.10906e-05 5.19362e-05 -3.24988e-07 4.43564e-05 -3.02642e-05 2.31903e-05 
-5.15657e-05 -1.60874e-05 4.10352e-05 2.07005e-05 -5.15232e-05 -5.13072e-05 3.36316e-05 -6.26617e-05 -0.000140576 
6.96638e-05 -1.32246e-05 -0.000130623 0.00106246 0.00332024 -0.000121912 0.00236695 0.0170901 0.00150344 
-0.0169012 0.011428 -0.00474966 -0.00163755 -0.00118681 -0.00208388 -0.000182293 -0.000934138 -0.000995617 
-0.00380231 -0.0079972 -0.000272686 -0.00524003 -0.00420964 0.0045301 -0.00365773 -0.00457548 0.00249788 
-0.00374325 -0.00374874 0.00189888 -0.00284856 -0.00310847 0.00111797 -0.00221608 -0.00269226 0.000903883 
-0.00184218 -0.00260776 0.00122719 -0.00117749 -0.00191987 0.000954163 -0.00127563 -0.0022201 0.000580823 
-0.00169388 -0.00211708 0.00112857 -0.00185653 -0.00177829 0.000980482 -0.00150867 -0.0012132 0.000926769 
-0.000973613 -0.000861366 0.000435812 -0.000232641 -0.000422654 0.00031489 0.000410703 0.00019213 -4.83202e-05 
0.000559853 0.000467645 -0.00015888 0.000562889 0.000639941 -0.000115678 0.000958744 0.000729396 -0.0001444 
0.0015489 0.00111047 -0.000339833 0.00300368 0.00194596 -0.000859406 0.00537081 0.00403484 -0.0014212 
0.00707807 -0.000141346 -0.000846729 -0.000900896 -0.00201559 0.00103346 0.00138632 -0.00140782 -0.00275581 
-0.00173832 0.00103415 -0.00288034 -0.0022622 0.00171072 -0.00203846 -0.00235249 0.000537827 -0.00203362 
-0.00264571 0.00118838 -0.00192946 -0.00211538 0.000628351 -0.00298437 -0.00154403 0.000832524 -0.00244226 
-0.00310939 0.00154819 -0.00251203 -0.00438659 0.00150646 -0.00218367 -0.00433028 0.00122223 -0.00233659 
-0.00374391 0.00133505 -0.00328137 -0.00851373 0.00234486 0.00619097 0.00154806 0.000235043 -0.00412055 
-0.00877112 -0.0014612 0.00877197 -0.000848764 -0.002578 0.00130617 -0.00625633 -0.0019658 5.36713e-05 
-0.00402666 -0.00554022 0.00234988 -0.00232471 -0.00339668 0.0011378 -0.00420922 -0.00311852 0.00180826 
-0.00494751 -0.00238701 0.00217584 -0.00482435 -0.00320849 0.00119416 -0.00502996 -0.00329795 0.00208749 
-0.00451261 -0.00312915 0.00154973 -0.00410199 -0.00308494 0.00145174 -0.00330589 -0.00300257 0.00115494 
-0.0031482 -0.00300412 0.000847655 0.00314779 0.00588001 -0.00173364 0.00561093 0.00982729 5.87683e-06 
-0.00647161 -0.00167493 -0.00137986 -0.00717078 -0.000806204 -0.000393391 0.00391219 0.00155452 -0.00671262 
0.00387921 -4.32503e-05 -0.00223182 -0.00231926 0.00642812 0.003436 0.00133962 -0.00194391 -0.00386329 
-4.73114e-07 -5.38643e-06 -3.42114e-06 -4.40774e-06 -3.22482e-06 2.36694e-06 2.61426e-06 6.66414e-07 6.06017e-06 
2.56064e-06 2.65487e-06 3.69086e-06 -2.98047e-06 -7.70967e-07 3.21351e-06 -4.74321e-06 -1.3307e-06 -7.27353e-06 
-4.063e-06 -2.6487e-06 -6.03389e-06 -5.26766e-07 -7.87031e-07 -5.35208e-06 -2.06228e-06 -5.76946e-07 -9.19762e-06 
6.10023e-07 -1.33443e-06 -7.09371e-06 1.39629e-06 -3.32386e-06 -4.98109e-06 3.00493e-06 -2.3936e-06 -3.63387e-06 
3.90134e-06 -1.6711e-06 -1.31509e-06 4.06559e-06 -1.14145e-06 -2.03057e-06 6.14045e-06 5.64925e-07 2.74951e-06 
5.61988e-06 3.47958e-07 5.24097e-07 4.56314e-06 2.0165e-06 2.51238e-06 6.31411e-06 3.40512e-06 6.9464e-06 
7.72552e-06 5.69593e-06 5.7683e-06 3.38961e-06 4.25239e-06 -2.81856e-06 3.38257e-06 1.07025e-06 5.15864e-06 
1.3649e-06 2.19537e-06 3.15798e-06 -1.78583e-06 -4.61442e-07 3.58369e-06 1.56766e-06 -1.78221e-06 -0.000432221 
0.000513907 -0.00388106 -0.00314104 0.0011917 1.76112e-06 -0.000274211 -0.000122515 -4.15953e-05 -4.11034e-05 
-9.75025e-05 -3.59803e-05 -1.81633e-05 -8.19106e-05 -2.8227e-05 -1.62986e-05 -4.11793e-05 -1.54583e-05 -7.99495e-06 
-4.17914e-05 -2.81981e-05 -2.04968e-05 -3.95276e-05 -1.91288e-05 1.77216e-05 -8.40777e-06 1.79176e-05 -2.49482e-05 
2.96082e-06 -4.92635e-06 -1.98002e-06 -2.24697e-06 -1.45124e-05 3.4548e-06 -2.28476e-05 1.3019e-05 -1.09095e-05 
-1.40451e-06 1.5487e-05 -1.31095e-05 -4.54493e-06 1.73654e-05 -1.51159e-05 -4.24812e-06 1.88299e-05 -1.29346e-05 
2.54746e-07 2.06061e-05 -1.41643e-05 -2.6024e-06 4.56359e-06 -3.78212e-05 -1.00939e-05 -5.76483e-06 -3.90631e-06 
6.57024e-06 -5.37095e-05 1.30464e-05 -4.49293e-05 -4.17659e-05 -1.48648e-05 -1.40078e-05 -1.18271e-05 -6.75187e-06 
-8.44608e-05 -8.15484e-06 2.11808e-05 -8.64132e-05 1.96334e-05 4.56703e-05 1.53821e-05 1.7591e-05 1.62875e-05 
2.24334e-05 2.46071e-05 7.85833e-06 3.06075e-05 3.22426e-05 -6.43216e-06 5.08626e-05 1.6962e-05 -1.00714e-05 
2.03112e-05 1.03625e-05 -4.25607e-06 1.77676e-05 3.97305e-07 -3.18195e-06 1.40906e-05 -1.62815e-06 -5.54932e-06 
8.80548e-06 -4.678e-06 -6.84964e-06 1.47518e-06 -5.25769e-06 4.64529e-06 -2.58778e-06 1.17408e-06 2.62934e-07 
6.45938e-07 9.21971e-07 -9.95754e-07 -3.9142e-06 -4.8272e-07 -4.83501e-06 -4.59657e-06 -5.44514e-06 -2.64399e-06 
-6.14161e-06 -5.46425e-06 -3.71695e-06 -7.04605e-06 -4.21769e-06 -5.12078e-06 -5.72478e-06 -4.14521e-06 -4.05871e-06 
-4.80464e-06 -3.07646e-06 -4.60784e-07 -4.31729e-06 -3.41136e-06 4.86665e-07 2.02532e-06 -3.85994e-06 2.63163e-06 
1.49388e-06 3.43536e-06 1.62555e-06 -2.2109e-06 0.00292725 -0.00336808 -0.00111002 -0.000301209 0.00031253 
-3.07044e-06 -5.58999e-07 1.26939e-07 5.27498e-07 3.64578e-06 1.53826e-06 9.08004e-07 5.47191e-06 2.27974e-06 
2.29313e-06 7.18017e-06 3.6456e-06 3.29755e-06 8.33035e-06 3.65108e-06 3.75981e-06 8.11736e-06 4.44782e-06 
5.54403e-06 8.62502e-06 5.70706e-06 -8.45384e-08 8.51582e-06 4.88072e-06 -2.58487e-07 7.17321e-06 4.85847e-06 
-8.5869e-06 7.75657e-06 -1.04283e-06 -4.28548e-06 8.1231e-06 -1.60086e-06 -1.20044e-05 7.52708e-06 -1.36699e-05 
-1.26959e-05 4.49508e-07 3.11839e-05 -1.72983e-05 6.22855e-06 3.71089e-05 2.93796e-05 -6.7735e-06 2.64149e-05 
2.4453e-05 1.7764e-05 6.39316e-06 -1.12072e-05 2.43184e-05 -1.11037e-06 -2.65445e-05 2.63825e-05 -3.70727e-07 
-5.82423e-06 4.77423e-05 4.28132e-05 -1.34938e-05 4.65017e-06 7.53795e-06 1.67966e-05 1.67543e-05 -4.81833e-06 
3.12406e-05 -4.53976e-05 3.08881e-05 -3.32582e-05 -7.71777e-05 -2.39091e-05 -3.77e-05 -5.82282e-05 -4.26009e-05 
-1.13446e-05 -5.23283e-05 -3.23204e-05 -1.79448e-05 -4.41953e-05 -1.78543e-05 -3.72085e-05 -4.15059e-05 -5.84363e-06 
-2.61883e-06 -1.34444e-05 3.19603e-06 2.72535e-05 -2.15997e-05 -5.1178e-06 2.59443e-05 -6.64751e-06 1.61151e-05 
2.26189e-05 1.65833e-05 1.47856e-05 8.4223e-06 9.0717e-06 -1.4504e-06 3.68914e-05 -7.54365e-06 -1.20316e-05 
1.61958e-05 -3.07502e-06 -4.09814e-05 -4.43862e-05 -3.89834e-06 2.41464e-05 -5.2904e-05 -2.66056e-05 -6.10693e-05 
-5.14812e-06 2.68306e-06 0.0001012 9.43778e-05 8.17063e-05 6.50986e-05 0.000219608 -5.97702e-05 0.00013738 
0.00035468 -3.3332e-05 0.000373104 0.00103227 0.000736547 -0.000137574 -2.76313e-06 0.0011088 0.00141674 
-0.000295133 2.26725e-06 -0.0017067 0.0010145 -0.000113343 0.000428029 0.00165593 -0.000939539 0.00120855 
0.001859 -0.000530171 0.000522887 0.00160115 -0.0002387 0.000367162 0.00107124 -0.000285285 0.000449458 
0.000619077 -0.000217774 0.000277941 0.000684367 -0.000158807 0.000208164 0.000474015 -0.000292579 -2.15615e-06 
0.000594144 -0.000181907 3.27301e-05 0.000736689 -0.000166751 -5.55325e-05 0.00105292 -0.000225706 1.85205e-05 
0.000890495 -0.000127204 5.40255e-06 0.000772391 -0.000115159 -6.09991e-06 0.000366701 -6.91527e-06 -0.000130056 
6.18676e-05 1.13384e-06 -0.000275039 0.000104523 3.26155e-05 -0.000506593 0.00031592 3.4577e-05 -0.000499776 
0.00017416 7.25316e-05 -0.000400183 6.20284e-05 0.000129205 -0.000579357 -0.00014933 0.000173468 -0.000865134 
-1.87785e-05 0.000302742 -0.00155187 -0.000244321 0.000972337 -0.000265299 -0.00247336 0.00301677 3.90924e-05 
-0.000503639 0.000986038 -0.000272416 0.00105747 -0.000427443 0.000225078 -0.000717613 3.57226e-05 0.000842299 
-0.000524552 -7.91284e-05 0.00109651 -0.000122499 0.000310708 0.00118847 -2.65169e-06 0.00024513 0.00165621 
-5.00835e-05 0.000196511 0.00147755 -0.000235069 6.95858e-05 0.00147432 -0.0002639 0.000379964 0.001362 
-0.000251429 -0.000727017 0.00124251 -0.000494323 0.000514037 0.00129651 -0.000731304 0.0016851 0.00253938 
0.000623848 -0.00228671 0.00311052 0.000896432 0.0031849 0.00406068 -0.00121699 -0.000392469 0.0019416 
0.00110125 -0.000731313 0.000865395 2.90919e-05 -0.000571048 0.000871029 0.000411816 -0.000282345 0.0013796 
6.04666e-05 -0.000280297 0.00126983 0.000524471 -0.000495163 0.00137148 0.000329806 -0.00042006 0.00102754 
0.000572832 -0.000387066 0.00120748 0.000270101 -0.000279282 0.001048 0.000645652 -0.000302787 -0.00282826 
0.00120254 -0.00012089 -0.000758546 -0.00371502 -4.16457e-06 7.65355e-05 0.000281923 0.000109856 0.00131302 
0.000734307 -0.000343653 -0.000493479 0.000862456 0.000579105 -1.72683e-06 2.79321e-06 -1.10825e-05 -1.62337e-06 
-0.000186218 0.00198778 0.000801518 -1.45019e-06 -0.000160285 -0.00270838 4.68936e-08 0.000295216 -0.0010604 
0.0011888 0.000294515 0.00107664 -0.000262453 0.00112323 -0.000324184 0.00112088 -0.000944553 0.000383097 
-0.000718223 1.10148e-06 -9.39722e-05 7.87892e-05 0.000467998 1.10618e-06 3.44258e-06 2.00133e-06 3.26258e-06 
2.17232e-06 1.58661e-06 -4.761e-06 2.40214e-06 2.91509e-06 -4.45761e-06 -2.90526e-06 2.16622e-06 -8.58213e-07 
9.24532e-10 -3.1834e-06 -2.93409e-07 -3.05771e-06 -2.33995e-06 1.77479e-08 -7.4051e-07 -2.52447e-06 -9.79122e-07 
-4.21088e-07 -4.93507e-06 -6.51185e-07 -4.97388e-07 -4.74815e-06 -1.46866e-07 -1.09089e-06 -3.51105e-06 1.68616e-06 
-1.09406e-06 -3.13054e-06 1.89705e-06 -4.56441e-07 -1.34351e-06 2.97365e-06 7.02122e-07 -3.37648e-07 3.6908e-06 
1.37415e-06 6.41126e-07 4.63425e-06 1.68653e-06 2.15896e-06 5.6678e-06 3.80126e-06 3.22626e-06 4.42382e-06 
2.48555e-06 4.05901e-06 4.32379e-06 3.131e-06 4.13362e-06 4.10378e-06 3.91681e-06 -9.86275e-07 1.02703e-06 
2.33674e-06 1.48864e-06 1.65992e-06 2.81347e-06 -0.000140119 -0.000101628 -3.59786e-05 -0.000260634 -3.86524e-06 
5.93126e-05 -7.22877e-05 2.74432e-05 -4.28921e-05 -2.02051e-05 -7.50674e-05 -4.23345e-05 -1.96138e-05 6.90054e-06 
-2.44585e-05 -2.16929e-05 -2.04374e-05 -2.05897e-05 4.85115e-05 -1.46225e-05 2.5815e-05 1.34267e-05 8.03063e-06 
1.82135e-05 1.52139e-05 -9.88252e-06 3.01356e-05 -2.36372e-05 -1.171e-05 -1.73257e-05 1.09788e-05 1.4958e-06 
9.68512e-06 4.91232e-06 -2.24027e-07 2.02264e-05 1.99586e-06 -6.89956e-06 1.53459e-05 -1.05641e-06 -7.30489e-06 
1.14149e-05 3.79744e-06 -7.13389e-06 9.40948e-06 -3.36025e-06 -9.75926e-06 1.7299e-05 -7.79795e-06 -3.74612e-06 
2.78206e-05 -4.90039e-05 -1.35842e-05 -1.22968e-06 9.79006e-06 6.8115e-06 -4.12416e-05 2.88658e-05 9.26263e-05 
-2.39128e-05 7.80743e-05 -8.71239e-05 -7.01015e-05 0.000118475 -4.66326e-05 -1.6553e-05 -2.4718e-06 5.27503e-06 
3.69314e-05 -2.4411e-05 -6.73821e-05 1.09697e-05 -7.50206e-05 9.37458e-05 4.13594e-05 -4.07605e-05 -7.71217e-05 
3.91338e-06 -3.26215e-05 -6.29897e-06 -1.73963e-05 -6.63869e-06 -7.48748e-06 -1.42465e-05 -1.06484e-05 -3.97671e-06 
4.14727e-07 -9.28163e-06 1.09434e-05 -3.40873e-06 5.89083e-06 -6.9394e-06 -3.59164e-06 4.23558e-06 -1.68531e-07 
-3.71086e-06 6.51135e-06 -1.9631e-06 2.17086e-06 4.015e-06 -4.80853e-06 1.25573e-06 3.19892e-06 -3.8007e-06 
2.05531e-06 -1.29098e-06 -3.70098e-06 -2.03678e-06 -2.3665e-06 -3.90589e-06 -2.05277e-06 -2.37618e-06 -3.83476e-06 
-1.01244e-06 -3.41845e-06 -3.30069e-06 -4.53112e-07 -1.60669e-06 -3.20073e-06 2.7397e-06 -2.15725e-06 3.37973e-06 
9.96531e-07 -2.64154e-06 3.91805e-06 -2.30355e-06 -1.61726e-06 -2.56195e-06 -9.1104e-07 2.91174e-05 -2.31979e-08 
5.40148e-06 -0.000544594 -0.000106396 -0.000107512 -1.88072e-05 0.000498071 1.04224e-06 7.68457e-07 2.01026e-06 
1.6926e-06 6.54995e-06 2.81491e-06 2.80039e-06 7.56751e-06 3.27803e-06 3.38056e-06 7.40548e-06 3.19823e-06 
1.28566e-06 7.42188e-06 3.53696e-06 -1.33809e-06 6.62152e-06 1.15623e-06 -1.04822e-06 7.0726e-06 -9.76576e-07 
-3.36223e-06 6.2196e-06 -3.84284e-06 -3.38616e-06 7.40988e-06 -5.81179e-06 -4.57478e-06 8.59186e-06 -9.06731e-06 
2.16753e-07 8.82789e-06 -1.0809e-05 -1.39764e-05 7.50554e-06 -2.47444e-05 -2.76582e-05 -2.73683e-06 1.97739e-05 
-2.89006e-05 -7.21193e-06 1.93672e-05 -1.24556e-05 -5.68785e-05 3.14199e-05 -5.50428e-07 2.9487e-06 -6.05165e-05 
4.28249e-05 7.51677e-05 3.18099e-05 5.34797e-05 0.000166758 -6.63965e-06 -7.55819e-05 -4.59631e-05 -3.83238e-05 
2.63302e-05 0.000109678 1.4911e-05 3.72926e-05 -5.95314e-05 -2.97761e-05 -1.61845e-05 -0.000109761 -4.44401e-05 
5.19509e-06 -4.11517e-05 -5.02306e-06 -1.92934e-05 1.21023e-05 -2.50764e-06 -1.95853e-05 -1.96221e-05 -4.50285e-07 
-6.43105e-06 -1.00725e-05 -1.10125e-05 1.05827e-05 -1.90527e-05 -1.18751e-05 1.61776e-05 -5.83607e-06 -5.49574e-06 
1.60071e-05 -2.04019e-06 2.22893e-06 3.08557e-05 3.03521e-06 1.08637e-05 3.15226e-05 -9.78193e-07 -1.74733e-05 
-1.89876e-05 1.75369e-06 -1.60103e-05 -2.26101e-05 -1.72734e-05 -2.24945e-06 -5.36807e-05 -1.65011e-05 -1.20871e-05 
-3.41254e-05 -2.0309e-05 -7.13183e-05 -3.11765e-05 -8.42494e-05 5.36578e-05 -1.91866e-05 9.15653e-05 7.27362e-05 
0.00014988 8.92496e-06 3.20168e-05 -0.000105919 -0.000195617 -0.000100153 0.000205325 -0.000196606 4.88671e-06 
-5.14212e-05 -3.55942e-05 0.000257454 0.000260556 -2.93877e-05 0.000227649 2.13332e-05 2.37505e-05 -7.96814e-05 
-2.82165e-05 3.19648e-05 -0.000125408 -9.18306e-06 -2.98031e-06 -0.000148961 1.20357e-05 -1.01949e-05 -0.000146183 
-3.50626e-05 -1.54103e-05 -0.000183492 -5.88281e-06 -1.8593e-05 -0.000168938 1.04592e-05 -2.28601e-05 -0.000194389 
3.14288e-05 -1.44421e-05 -0.000180479 6.60885e-05 -1.04341e-05 -0.000161086 0.000113181 3.60694e-06 -0.000111279 
0.000121687 9.69035e-06 -0.000113042 8.30351e-05 8.47163e-06 -0.000148177 0.000105946 5.00394e-07 -0.00015439 
0.000120395 5.14336e-06 -0.000146472 0.000151345 -2.19185e-06 -0.000112905 0.00018728 4.29988e-05 -9.0279e-05 
0.000218743 -6.90569e-06 -0.000240075 0.0001676 -7.50046e-05 -0.000181655 8.43604e-06 0.000332137 3.79246e-05 
-3.32799e-05 0.000111075 1.60326e-06 -2.25085e-05 7.27624e-05 4.20888e-05 -5.02941e-05 0.000104045 9.5984e-06 
-0.000103597 0.000110026 0.000117744 -0.000165136 0.000123189 0.000109809 -0.000577789 2.05171e-05 5.47809e-05 
3.64026e-05 -0.000410419 -0.000188052 0.000378021 -9.99882e-05 0.000267266 0.000299732 0.000563492 0.000345255 
5.47431e-05 2.06507e-05 -0.00030324 0.000659448 -6.3601e-05 0.000976457 -2.92102e-05 -0.000231147 -5.37534e-05 
-0.000207223 2.29592e-05 -5.38555e-05 -0.00023094 7.57992e-05 -4.49288e-05 -0.000137591 -5.08339e-05 0.000104229 
-0.000127067 1.39755e-06 0.000254124 -4.11448e-05 -2.25646e-05 2.39249e-06 0.000168219 8.30262e-06 2.2523e-06 
-0.000374424 5.93383e-05 -4.76317e-05 3.35887e-05 3.39227e-07 -2.15094e-06 0.000579795 0.000235077 -0.000122684 
-3.92046e-06 7.58898e-07 -3.12993e-07 4.35576e-06 8.20019e-05 0.000426998 0.000112583 2.04955e-05 -0.000155846 
0.000501464 2.12255e-07 -1.50483e-05 1.23706e-06 1.67657e-06 -0.000408264 7.58725e-05 0.000198854 -0.000267544 
6.24739e-05 3.36155e-05 3.25006e-07 9.97297e-07 -1.8559e-06 -0.000114611 3.52192e-05 -4.00742e-05 0.000185114 
5.85098e-05 -7.95098e-05 6.81199e-05 0.000173612 0.00027338 0.0003941 0.000128125 0.000959905 0.000120816 
-6.8259e-05 -9.70539e-05 -0.000226016 0.000314274 -0.000235929 -0.000167126 0.000166854 4.01487e-05 0.000149888 
-8.07382e-05 -0.000248458 4.16343e-05 -0.000414507 3.70931e-05 2.86535e-06 -0.000149871 -1.72389e-05 -9.77128e-05 
7.3848e-06 3.62824e-06 3.96647e-06 -4.29142e-06 2.96576e-07 4.35844e-06 2.02092e-06 -2.11739e-06 1.9098e-06 
-1.10221e-06 1.81537e-06 -2.19518e-06 1.0707e-07 -3.04059e-06 -1.10346e-06 -8.29023e-07 -4.94844e-07 -2.38095e-06 
-9.16042e-07 -4.88587e-07 -3.46122e-06 -1.23625e-06 -1.05528e-06 -2.66821e-06 -3.37803e-07 -2.43772e-07 -2.4312e-06 
1.22766e-06 -4.72399e-08 -9.62101e-07 2.05699e-06 9.9864e-07 3.44232e-07 3.01411e-06 1.27647e-06 8.50836e-07 
3.34397e-06 1.88783e-06 1.26712e-06 4.05534e-06 2.54064e-06 2.32369e-06 3.74177e-06 4.20866e-06 3.34506e-06 
4.00927e-06 3.18584e-06 3.83569e-06 5.00067e-06 3.46438e-06 4.48898e-06 6.39833e-06 3.42023e-06 4.46545e-06 
3.95238e-06 2.10683e-06 2.81032e-06 3.06234e-05 -1.75358e-05 6.99691e-05 2.94183e-05 2.14977e-05 -0.000140346 
8.10018e-05 1.93771e-05 1.02581e-05 -2.44594e-05 -0.000134014 2.4312e-05 1.52366e-05 6.09331e-05 -5.25974e-05 
1.59568e-05 5.30482e-05 5.39896e-06 4.22515e-05 2.81743e-05 -5.0822e-06 2.30905e-05 1.69715e-05 -4.19827e-06 
2.36321e-05 -2.33899e-07 3.33602e-05 1.94206e-05 2.23725e-05 5.91658e-06 1.51816e-05 8.37744e-06 -3.87665e-06 
7.45705e-06 3.61181e-06 -1.00671e-05 3.66623e-06 4.37553e-06 -5.11435e-06 -1.74451e-06 8.80685e-06 -5.72162e-06 
-7.75223e-07 1.02519e-05 -1.92006e-06 -8.03473e-06 -7.3301e-05 1.88748e-05 -2.25204e-07 -3.63004e-05 -7.80753e-05 
-6.77785e-05 0.000153783 -1.7408e-05 -2.02492e-05 0.000163315 0.000161105 8.0354e-05 0.000141541 0.000330874 
-2.30393e-06 -4.22943e-05 -3.77911e-05 -3.38118e-05 -3.93627e-05 -3.19422e-05 -1.05713e-06 -2.06867e-05 6.74427e-07 
-5.29201e-06 -1.30854e-05 -1.73444e-05 4.03757e-06 -5.17424e-07 -1.13186e-05 8.16695e-06 -1.45572e-06 -3.78418e-06 
5.53779e-06 -3.33187e-06 -2.09451e-06 4.42809e-06 -3.76933e-06 -9.58923e-07 3.46874e-06 -4.69202e-06 -1.53022e-07 
3.23185e-06 -3.74587e-06 9.4225e-07 1.31773e-06 -2.81106e-06 8.90912e-07 -1.10824e-06 -3.09059e-06 1.49334e-07 
-2.45332e-06 -3.13198e-06 1.48664e-06 -1.828e-06 -2.38626e-06 2.73145e-06 -5.79187e-07 3.14421e-06 -1.81728e-07 
3.60973e-07 1.17603e-06 3.33082e-05 9.32726e-05 3.61483e-06 9.17219e-05 1.68267e-05 3.8562e-05 3.40516e-05 
-2.26605e-05 -1.03286e-05 3.05958e-06 2.18109e-06 3.46423e-06 4.43044e-06 3.87338e-06 3.48219e-06 -1.43667e-06 
9.44963e-06 -4.25427e-08 -3.89837e-07 5.40142e-06 -2.65725e-07 -1.12897e-06 6.86997e-06 -3.12224e-06 -3.3132e-07 
-5.58956e-06 -4.79661e-06 1.00655e-06 -4.82654e-06 -6.30328e-06 1.38447e-06 7.30657e-06 -7.63035e-06 6.61941e-06 
6.09136e-06 -9.86281e-06 1.05858e-05 6.54578e-06 -4.44307e-06 2.39308e-05 6.43993e-07 -7.06944e-06 -1.74106e-05 
2.01015e-05 3.12891e-05 9.42758e-05 3.11987e-06 -6.86847e-05 3.12374e-05 8.37151e-05 0.000124549 0.000101066 
-7.79759e-05 -0.000208331 0.000117772 8.09678e-05 7.63025e-05 5.42185e-06 -4.67537e-05 1.47721e-05 8.47169e-07 
1.28479e-05 2.43446e-05 1.03324e-05 -3.06013e-05 9.04271e-06 -1.21679e-05 -9.97302e-06 1.20568e-05 -2.39581e-05 
2.17832e-07 -3.57648e-06 -1.12942e-05 -3.2387e-06 -4.05704e-06 -6.27023e-06 -8.93062e-06 1.80621e-05 3.02252e-05 
-1.71303e-06 4.60962e-06 1.6247e-05 7.88082e-07 -8.74417e-06 2.24044e-06 1.54335e-05 1.0583e-06 1.3516e-06 
-1.58828e-05 -8.781e-06 -2.96347e-05 -1.71931e-05 -6.59804e-05 3.66738e-06 -7.48596e-06 -0.000101057 0.000100631 
6.09005e-05 7.37583e-05 3.06742e-05 -5.27188e-05 -9.18027e-05 9.14094e-05 -7.959e-05 0.000103412 3.00337e-05 
-4.01909e-05 -5.23961e-06 2.20859e-05 2.55088e-05 8.77333e-05 3.98248e-05 5.40434e-06 -1.39632e-05 5.78375e-05 
-8.2221e-05 3.95487e-05 -5.41567e-05 -6.18143e-05 2.25591e-05 -4.76354e-05 9.43773e-06 -1.27574e-05 -1.33441e-06 
2.91293e-05 1.76496e-05 -5.58031e-06 1.96687e-05 9.20022e-06 -2.72522e-05 1.65904e-05 7.76763e-06 -3.45005e-05 
-1.5352e-05 6.26207e-07 -1.38606e-05 -1.81947e-05 -4.73629e-06 1.70132e-05 -1.90756e-05 -4.37131e-06 6.82416e-06 
5.13103e-06 -2.56699e-07 -1.18171e-06 9.87983e-06 -2.69851e-06 -2.03995e-06 1.28208e-05 -1.35647e-05 1.22146e-06 
1.04729e-05 3.49567e-06 -1.51101e-05 -2.28343e-05 -7.59132e-06 -3.94798e-05 -2.63123e-05 5.67001e-07 -3.50726e-05 
-7.30997e-05 -1.597e-05 -1.69214e-05 2.40708e-05 -1.95321e-05 2.80003e-05 5.0648e-05 6.21341e-05 2.30096e-06 
-3.19302e-05 -8.91933e-05 -2.02356e-05 -9.56888e-06 8.09579e-05 1.75361e-05 -9.40947e-05 2.18568e-05 1.28434e-05 
-0.000163263 -5.02291e-05 -1.35822e-05 -2.17444e-05 -9.33235e-05 -6.37076e-05 -3.66217e-05 0.00015606 2.23385e-06 
1.74492e-06 6.16698e-06 2.84172e-05 7.27989e-06 -6.00784e-05 -2.14121e-05 1.09757e-05 4.98365e-05 5.91121e-05 
6.11221e-05 1.95808e-05 3.1224e-05 0.000118269 1.04356e-05 4.40787e-06 0.000145656 5.27333e-05 -0.000117255 
-3.42196e-05 -3.58379e-05 2.91404e-05 2.54841e-06 2.19334e-06 8.75694e-07 8.45068e-05 -9.76842e-05 -4.5465e-05 
-2.41882e-05 9.96973e-06 -1.94531e-05 -2.45996e-05 -8.37029e-06 -0.000209276 1.09874e-06 6.661e-07 2.51294e-06 
-1.87607e-05 -0.000106247 1.903e-05 -8.52956e-06 -0.000166704 -0.000142825 5.89991e-06 9.34244e-05 -8.56926e-05 
0.000205485 6.68837e-05 3.23515e-05 3.15449e-05 0.000113394 2.88218e-05 -8.77866e-06 -9.55484e-06 -7.4227e-05 
0.000142112 -3.99501e-05 4.98001e-05 -3.26114e-05 9.51223e-06 -6.13902e-05 0.000106545 -0.000115197 5.01638e-05 
1.42633e-05 -0.00010353 -4.92313e-05 -9.54933e-05 8.58905e-06 1.38541e-06 -1.43751e-05 5.54727e-06 1.36869e-05 
-2.39696e-05 7.59333e-05 9.3463e-05 1.174e-06 4.86369e-06 -1.76059e-05 3.67239e-05 3.06918e-06 -1.52711e-06 
-6.02957e-07 -4.17516e-07 5.69852e-07 7.26703e-07 -2.1761e-06 -9.4704e-07 -1.34444e-06 -6.27554e-07 -1.18651e-06 
-1.77212e-07 -2.87631e-07 -3.56997e-07 1.02216e-06 1.11151e-06 -2.63764e-07 7.77833e-07 -1.11049e-06 -1.89266e-06 
-1.11495e-07 5.17575e-07 -4.24187e-07 2.26787e-07 1.15796e-06 1.95753e-07 1.40683e-06 2.11206e-06 2.54633e-06 
1.59322e-06 2.75512e-06 2.44828e-06 1.93994e-06 3.05472e-06 2.64886e-06 1.53309e-06 3.16626e-06 3.23379e-06 
1.60192e-06 3.09691e-06 3.67638e-06 3.66066e-06 4.52663e-06 3.00127e-06 3.93523e-06 5.20548e-06 3.44478e-06 
2.27037e-06 6.19026e-05 -3.21417e-05 6.33712e-05 -1.34191e-05 -1.38882e-06 -2.10224e-05 -3.1113e-05 3.32764e-05 
1.96687e-05 2.83523e-05 1.51427e-05 -5.15277e-06 1.32457e-05 1.55415e-05 -1.65722e-05 -3.47429e-06 1.60013e-05 
4.3792e-05 8.18949e-06 1.36328e-05 1.20738e-06 3.09571e-06 1.01749e-05 -3.51916e-06 -1.70437e-06 1.31454e-05 
-4.57317e-06 2.79579e-06 1.00876e-05 -3.5685e-06 3.91272e-06 1.25785e-05 -3.65849e-06 1.31098e-06 1.14705e-05 
1.32163e-05 1.96813e-06 8.94528e-05 -1.7303e-05 -7.54243e-05 -1.82178e-05 2.70417e-06 -3.88105e-05 -3.50094e-07 
-7.52848e-06 -2.96515e-05 -2.24316e-06 -4.21652e-07 -1.9772e-05 3.36374e-06 1.00607e-05 -8.67542e-06 1.19987e-06 
5.82558e-06 -3.35782e-06 4.85842e-06 -1.36838e-06 -2.12654e-06 3.60506e-06 -5.22156e-06 -1.03562e-06 2.99377e-06 
-4.81935e-06 1.05169e-06 3.06412e-06 -3.53169e-06 1.67671e-06 7.01361e-07 -2.37934e-06 1.40806e-06 -2.06245e-06 
-2.24744e-06 6.23775e-07 -4.23943e-06 -1.55546e-06 4.39408e-06 -3.87589e-06 6.3534e-07 3.38411e-06 -1.16866e-07 
-2.14473e-05 -4.62493e-05 1.86249e-05 1.30491e-06 -2.5252e-06 -7.38017e-06 -3.21646e-07 -1.94352e-06 -3.84944e-06 
-1.66705e-06 1.05011e-06 -5.05859e-06 -9.88191e-07 -1.06502e-06 -4.01807e-06 1.28298e-06 -1.67866e-06 -5.32327e-06 
-6.31874e-06 1.60068e-06 -6.47732e-06 -7.20646e-06 2.95635e-06 7.21199e-06 -2.17983e-06 1.81012e-05 -4.14318e-06 
5.95529e-06 4.39469e-06 -5.64681e-07 -6.03141e-06 5.34415e-05 2.12626e-05 8.27082e-05 -2.08765e-05 1.31539e-05 
-3.78572e-07 8.99925e-06 -1.8374e-05 -1.45273e-05 -1.43131e-05 -3.56881e-05 8.35501e-06 -1.67981e-05 1.83618e-06 
-1.97611e-06 -8.42659e-06 -7.12351e-06 1.63686e-05 2.00337e-05 -1.27073e-05 -3.66648e-06 -8.42385e-06 5.43568e-06 
3.50702e-05 2.20556e-05 -3.23027e-05 7.57287e-06 3.73109e-06 9.64103e-06 8.97358e-06 -8.28386e-06 5.3789e-06 
1.85574e-05 7.75348e-06 1.58836e-05 4.43931e-05 1.72262e-05 2.90968e-05 3.32309e-05 4.76986e-05 -7.95173e-05 
-9.30595e-06 2.24495e-05 1.92919e-05 -6.63987e-05 -5.93314e-05 4.97105e-06 -3.85043e-05 5.72053e-07 1.76573e-05 
4.12936e-05 2.24458e-05 3.23139e-05 2.84923e-05 -4.52791e-06 2.28359e-05 2.96752e-05 -3.03694e-05 -2.34284e-05 
1.49357e-05 9.29393e-06 -5.165e-07 5.88669e-06 8.55468e-06 -1.52091e-05 5.08438e-06 2.76591e-05 1.00457e-05 
-7.3705e-06 -1.52659e-05 1.82149e-05 -4.36668e-06 -2.02904e-05 2.47109e-05 1.49867e-05 -4.71284e-06 7.09776e-07 
9.99835e-06 -3.54358e-05 -7.50908e-06 1.05945e-05 -2.73601e-05 -4.35375e-05 2.13294e-05 -1.6137e-05 -7.06296e-05 
-4.66112e-05 -5.02693e-06 -1.6471e-05 -4.16745e-05 -2.77642e-05 3.40587e-06 2.21938e-06 -3.61987e-05 3.55496e-05 
6.28441e-05 4.95612e-05 3.03985e-05 3.90952e-05 3.36039e-05 -1.63419e-05 -2.90816e-06 2.23346e-06 8.32806e-05 
9.84185e-06 4.29142e-05 -1.02148e-05 -5.62694e-05 4.09874e-05 4.70606e-05 3.73271e-05 -1.22109e-05 2.64147e-05 
1.47289e-05 -0.000145721 1.03307e-06 -3.62068e-06 -5.69751e-07 9.3682e-05 -2.41249e-05 2.38701e-05 3.96223e-05 
3.47581e-05 7.15205e-06 1.67399e-05 -1.28516e-05 1.10031e-06 -1.35916e-06 -4.7569e-06 4.45787e-05 -4.98812e-07 
-1.57592e-05 -4.44685e-05 3.96661e-05 -3.79287e-05 -1.576e-06 7.06437e-06 -5.99375e-05 -2.00501e-05 2.27318e-05 
-1.3504e-05 1.45357e-05 3.56007e-05 4.91273e-05 -3.85896e-06 3.94006e-05 4.09454e-05 2.30933e-05 2.27363e-05 
2.58599e-05 -1.36617e-05 6.78347e-06 3.07614e-05 -3.14768e-05 6.00337e-05 -2.15828e-05 6.98871e-05 -5.68211e-06 
-2.6969e-05 3.13839e-05 0.00675476 -0.00896999 -2.03712e-05 2.45169e-05 1.39993e-05 -1.10281e-05 -3.89831e-05 
-2.90939e-05 1.22746e-05 1.68189e-05 -5.31663e-05 -2.41373e-05 -3.03962e-06 -1.87409e-05 9.62842e-06 2.4437e-05 
-6.41844e-07 -9.15877e-06 8.67144e-06 -9.79126e-06 -4.12667e-05 -1.45598e-06 -9.99957e-06 -1.98452e-06 1.48184e-06 
-3.07629e-05 -9.56967e-06 4.9192e-05 3.20279e-06 4.02506e-06 3.32616e-07 1.28553e-07 -7.46169e-07 -2.04755e-06 
1.97468e-06 -8.92473e-07 0.00745314 -0.00910343 9.28827e-07 -6.98522e-07 1.7557e-06 9.71549e-07 -1.66972e-06 
-1.07893e-06 2.08241e-06 4.41896e-07 -2.32672e-07 3.5248e-06 2.07314e-06 9.0102e-07 3.26577e-06 2.59571e-06 
2.96309e-06 3.11999e-06 1.95834e-06 2.92579e-06 3.80005e-06 3.0057e-06 3.33067e-06 -3.26782e-07 2.06561e-06 
2.86781e-06 4.20203e-06 -4.5135e-05 4.73958e-05 1.37201e-06 3.526e-06 1.93952e-05 -2.06177e-05 -3.40037e-05 
2.56301e-05 -1.7098e-05 -3.60014e-05 -1.94314e-07 -3.01713e-05 -2.78567e-05 2.62039e-05 -1.72468e-05 -1.02655e-05 
-8.67732e-06 2.94632e-06 5.90019e-06 -1.21814e-05 1.53384e-06 -1.88975e-06 1.20248e-05 3.80078e-06 7.86418e-07 
1.52003e-06 8.51461e-07 -2.15743e-07 -9.47016e-06 -1.13478e-05 -2.17299e-05 4.08504e-05 -7.65634e-06 -2.90635e-06 
-9.89342e-06 -5.71464e-06 -1.12149e-05 2.9774e-06 -6.32693e-06 -1.62124e-05 1.78362e-06 2.62021e-06 -7.64395e-06 
1.75599e-06 0.00661269 -0.00970862 3.14276e-07 3.9107e-06 6.60114e-07 2.60592e-06 2.4052e-06 5.66876e-06 
4.09746e-06 1.86644e-06 2.71168e-07 2.63187e-06 -3.85078e-07 -5.1898e-08 1.14092e-06 -2.22819e-06 -1.94764e-06 
-1.71164e-05 1.74422e-05 6.86178e-06 -1.47333e-05 1.64195e-05 -1.99326e-05 -2.34879e-05 -3.62916e-06 -1.92456e-05 
-1.54457e-06 -2.99821e-06 -1.7549e-06 -2.49517e-06 -2.99508e-06 -1.57228e-06 -2.41858e-06 -4.21871e-06 3.27166e-07 
-1.77931e-06 -4.29554e-06 2.99692e-06 -2.76544e-06 -4.19238e-06 -7.85682e-07 2.81268e-06 -4.03621e-06 -8.53046e-06 
0.00514416 -0.00830543 1.14108e-05 -1.63888e-06 2.37214e-06 1.1953e-05 -2.7012e-05 2.72125e-05 -2.91645e-05 
-3.77769e-06 -5.20976e-06 -8.43181e-06 8.37001e-06 1.36331e-05 -7.45969e-06 -1.26791e-05 -7.26306e-06 1.71344e-05 
1.42819e-05 -1.12666e-05 -3.51854e-05 2.27084e-05 -3.7383e-05 -4.57417e-05 1.11046e-07 -4.01603e-05 1.77211e-05 
-6.01409e-06 2.0934e-05 3.10825e-05 -2.8867e-05 2.83259e-05 -2.04645e-05 -3.50829e-05 1.87012e-06 3.96005e-05 
6.80891e-06 3.97166e-05 -7.12718e-05 1.10249e-05 -1.78927e-05 -1.72774e-06 2.36322e-05 1.12796e-05 -1.55305e-07 
-3.51462e-05 -1.60632e-05 8.78807e-06 -2.69492e-05 6.69468e-06 0.00713973 -0.00940158 -1.21943e-05 -1.56726e-05 
-2.82935e-05 5.07165e-06 0.00841129 -0.00944618 1.99639e-05 -1.23905e-05 -1.83337e-05 9.36755e-06 1.14632e-07 
4.44006e-05 -2.88141e-06 4.03378e-06 -1.54793e-05 -1.99842e-05 -2.344e-05 2.12976e-05 2.59278e-05 -4.75465e-05 
2.85752e-05 8.09667e-06 1.63622e-05 -3.67049e-05 -3.28949e-07 0.00795437 -0.00865472 2.04677e-07 -2.18531e-06 
3.45706e-06 6.42082e-07 -1.85908e-06 -2.7415e-06 5.88379e-07 -1.34585e-05 -1.80736e-05 2.67291e-05 3.89053e-05 
1.38098e-05 4.17714e-05 -8.83718e-06 -3.09413e-06 1.59273e-05 -3.33689e-07 6.55363e-07 1.00193e-06 2.13022e-05 
-4.60098e-05 -9.18775e-06 1.65175e-05 -1.35017e-05 3.76247e-06 1.62525e-05 -3.09081e-07 1.06255e-06 -2.26127e-06 
-1.97135e-06 -5.23748e-07 -1.78785e-06 3.03044e-05 2.09336e-05 1.13231e-05 -1.21186e-05 2.65968e-06 1.81714e-05 
-1.87397e-05 -1.52383e-05 -6.54859e-06 3.86401e-06 3.04142e-05 5.2618e-05 5.84869e-06 1.91664e-05 -2.03746e-05 
4.06655e-06 5.75407e-06 1.51259e-06 -3.83373e-05 -8.06112e-05 -4.91683e-06 -3.25283e-06 7.0864e-06 1.13715e-05 
-5.83393e-05 5.5212e-05 -2.32684e-05 -1.98337e-05 3.12635e-05 9.97031e-06 -1.27583e-05 -2.68594e-05 0.00819934 
-0.00645623 -2.13812e-06 -1.57386e-06 0.00855769 -0.00514137 2.28026e-06 -6.79661e-07 -1.26178e-06 1.91289e-07 
2.85609e-07 -3.55369e-07 1.86092e-06 -6.42348e-07 -3.75705e-06 5.97073e-06 1.61793e-06 2.53089e-06 5.38527e-06 
3.54996e-07 2.07449e-06 2.11142e-06 1.39532e-06 1.15775e-06 5.76744e-05 -8.91815e-07 -4.8211e-06 -7.76613e-06 
7.89723e-06 2.26198e-06 -2.48915e-05 -1.47166e-05 -1.37654e-05 8.62003e-06 3.26305e-06 4.00713e-06 -2.39566e-05 
-2.84966e-06 2.46774e-05 -1.57592e-06 -9.5191e-06 -5.00034e-06 1.54861e-05 -5.72924e-06 -7.87278e-09 1.10775e-05 
1.5219e-06 -2.67391e-05 -2.95306e-05 2.71931e-06 5.52747e-07 3.03264e-06 1.57938e-05 5.00702e-06 -7.97276e-06 
1.45969e-05 -4.29925e-06 -5.09651e-06 0.00119387 0.00129821 0.0078517 -0.00215087 -9.28763e-07 3.54032e-06 
-1.05722e-06 2.62613e-06 3.7488e-06 -1.67889e-06 1.96271e-05 -3.49651e-05 -3.30829e-05 -2.72696e-06 -6.18365e-07 
-2.64374e-06 -1.70405e-06 -2.24805e-06 -1.31155e-06 2.72896e-06 -1.13275e-06 6.70341e-07 -2.36606e-06 -1.64876e-05 
7.97688e-06 -1.92844e-05 -7.57746e-06 -5.30667e-06 -2.49766e-05 -1.7518e-05 2.42973e-05 1.95218e-05 -8.67843e-06 
-1.22881e-05 -5.69005e-05 4.72023e-05 3.04384e-05 1.86022e-07 -2.24012e-05 1.57382e-05 -1.1711e-05 -1.61596e-05 
8.62717e-06 -2.03762e-05 6.89667e-06 4.73127e-05 -6.26872e-05 8.11747e-06 -4.74132e-05 -5.649e-05 -7.5533e-06 
-5.40257e-05 -5.97308e-06 9.9364e-06 -1.93586e-05 1.10671e-05 -1.82751e-05 6.00091e-05 8.98334e-05 -6.57086e-05 
3.81262e-05 0.000108488 -1.04221e-05 -5.79971e-06 3.53588e-05 -3.21259e-05 -2.4067e-05 -3.40144e-05 -1.10289e-06 
-1.16296e-05 -1.69007e-05 -1.63831e-05 1.1207e-06 1.81356e-06 2.82073e-06 1.93093e-06 2.1929e-06 3.5535e-06 
-3.86541e-05 -6.43053e-05 -1.77769e-05 3.7154e-05 8.20862e-05 -2.27023e-05 1.07505e-06 -2.94662e-05 -4.81587e-06 
3.16497e-06 -2.20834e-06 2.85744e-05 -6.80648e-06 9.87618e-06 -5.09407e-07 -2.7979e-06 -3.30814e-05 -4.24984e-06 
-1.49404e-05 3.09378e-05 6.10508e-06 2.54718e-06 3.04876e-06 5.45742e-06 8.49534e-08 1.61965e-05 -4.16566e-06 
-6.59544e-07 -1.90243e-05 5.76091e-07 -3.84029e-06 -4.96336e-06 -1.64534e-05 1.9018e-06 3.27338e-05 -2.61834e-05 
4.78502e-07 -2.55147e-05 -5.76356e-06 -4.50225e-06 -5.02679e-05 1.07645e-05 -2.94504e-06 5.10522e-05 6.25729e-05 
-2.2886e-05 1.98023e-05 -2.40985e-05 -2.23917e-05 -4.11142e-05 -3.44708e-05 1.7855e-05 -2.77784e-05 -2.77359e-05 
2.09278e-05 2.05687e-05 3.85662e-07 -4.34759e-06 3.38283e-05 6.47185e-06 -1.61475e-05 2.66367e-05 3.07075e-05 
-4.08357e-07 -7.34312e-07 -2.61591e-05 -8.85136e-06 -8.01571e-06 4.36463e-06 5.36871e-07 3.55863e-06 6.5192e-06 
1.91235e-05 -3.03393e-06 5.96301e-06 6.60491e-06 4.0951e-06 2.26515e-05 -9.70711e-06 2.92455e-06 4.44038e-06 
2.62888e-05 3.47312e-06 -1.91958e-05 -2.72916e-05 -1.09485e-05 1.14156e-05 1.21632e-06 2.72361e-06 4.16981e-06 
1.69604e-06 -5.6636e-07 -2.8523e-06 1.1219e-06 2.20365e-06 1.74533e-06 3.01712e-06 2.0219e-06 1.04722e-07 
3.19835e-07 -4.63264e-07 2.84084e-05 -2.67868e-06 2.28487e-05 1.66814e-06 6.6212e-06 4.03393e-06 -2.31068e-05 
2.86743e-05 3.39614e-05 -4.22038e-05 3.30931e-05 3.89312e-05 -3.60406e-08 4.11894e-06 3.51574e-05 2.33773e-05 
-3.06236e-05 -2.40175e-06 -5.94388e-05 7.28695e-06 3.26334e-06 4.09797e-06 -4.90142e-05 5.00944e-06 -6.62794e-05 
6.32192e-05 1.27697e-06 4.07471e-06 -9.58916e-06 -1.03305e-05 1.80787e-05 -7.70709e-06 4.4986e-05 -5.5568e-07 
-2.78995e-06 -7.78141e-06 7.79026e-06 -1.43376e-06 -6.73792e-05 -1.16926e-05 -1.09829e-05 4.52843e-05 -6.14571e-07 
5.81327e-06 -4.78517e-05 -0.000110702 -4.63034e-06 -1.27679e-05 -7.62284e-06 -5.7304e-06 -2.77501e-06 -2.62129e-06 
2.06501e-05 1.95822e-05 -5.3186e-05 -1.02219e-05 7.1081e-06 -6.2308e-05 5.897e-05 4.55008e-05 1.15901e-05 
2.77312e-06 1.78927e-05 4.71054e-05 8.90144e-07 1.67525e-06 4.34026e-07 4.25251e-05 4.61853e-06 7.65832e-06 
4.94856e-06 -8.20302e-06 1.001e-05 3.40958e-05 4.27728e-05 5.35889e-07 5.6599e-05 -5.33787e-05 5.07063e-06 
0.00101307 1.66444e-05 1.12218e-05 2.40595e-06 -5.50785e-07 -1.13614e-05 -1.16909e-05 0.00446764 -1.5794e-05 
1.64393e-06 -4.2923e-07 -1.9796e-06 3.11285e-05 1.25594e-05 -6.68574e-07 7.06321e-06 -1.21859e-05 -6.12182e-06 
-3.96147e-06 1.12318e-05 1.08699e-05 3.41707e-05 -0.00372992 0.00779344 6.13884e-06 1.00008e-05 3.54672e-05 
1.59532e-05 2.28135e-05 1.65715e-05 -4.48872e-06 -0.00783867 0.00729921 3.40632e-06 1.08294e-06 2.70686e-06 
-7.95892e-06 1.84427e-06 8.29306e-07 -6.22796e-06 -4.54698e-06 -2.92751e-06 -7.50104e-06 -4.28666e-06 7.13283e-09 
-5.81137e-06 -4.59378e-06 2.93316e-06 -5.58174e-06 -2.52929e-06 3.25966e-06 -7.59286e-06 -3.00481e-06 1.27086e-06 
-2.64776e-06 -1.10046e-06 -1.69652e-06 4.2329e-08 2.60255e-06 -1.36604e-07 -3.99052e-06 -4.14496e-06 1.09849e-07 
-1.25125e-08 -7.93921e-06 -7.07512e-07 -4.37971e-06 -4.48305e-06 -9.33396e-07 -6.0209e-06 -4.74607e-06 1.058e-06 
-5.29818e-06 -3.95905e-06 3.6861e-07 -3.75834e-06 -3.00697e-06 -2.62294e-07 1.36347e-06 -2.35883e-06 -2.42849e-07 
-2.01164e-06 -7.34493e-07 -9.77074e-07 2.62481e-06 8.55507e-07 -1.85309e-07 3.82986e-06 2.16268e-06 6.12743e-07 
4.65379e-06 2.45139e-06 1.04272e-06 5.15568e-06 1.28686e-06 2.46894e-07 6.68859e-06 1.31402e-06 3.59311e-07 
1.70729e-06 3.13987e-07 -5.29459e-07 -1.02714e-06 -2.21222e-06 1.40463e-06 -1.71565e-06 1.86312e-06 1.43476e-06 
-2.07033e-06 -1.0674e-06 -3.10965e-06 -2.50642e-06 -5.05582e-06 4.84847e-06 -2.85693e-06 0.00453599 0.000220056 
0.00798342 0.000153742 0.000530828 -0.00166747 -5.08026e-05 -9.78173e-05 -0.000403914 -4.05286e-05 -4.19403e-05 
-0.000224585 -3.58275e-05 -3.2772e-05 -0.000117216 -3.13948e-05 -2.63768e-05 -5.85343e-05 -1.91564e-05 -2.18131e-05 
-3.50336e-05 -2.92142e-05 -1.72586e-05 -2.57197e-05 -5.74081e-06 -1.04285e-05 -2.73591e-05 -1.06532e-05 -1.41402e-05 
-1.12348e-05 -1.11486e-05 -8.95068e-06 -1.51723e-05 -2.55713e-06 -5.72589e-06 -1.79597e-05 3.20881e-06 -4.96412e-06 
-1.85035e-05 4.98598e-06 -4.0032e-06 -2.33623e-05 8.3598e-06 -3.29552e-06 -3.07184e-05 9.35278e-06 6.44172e-07 
-4.02871e-05 2.10713e-05 4.15718e-06 -4.10396e-05 -9.16522e-06 1.78657e-06 -2.09647e-05 -1.30074e-05 -1.7662e-06 
-4.02459e-05 7.11725e-06 8.79571e-07 -2.28609e-05 -2.23006e-05 -3.72758e-06 3.10759e-05 -3.14702e-06 -5.03897e-06 
3.98971e-05 -1.33741e-07 -7.65057e-06 5.80605e-05 1.67987e-05 1.67656e-06 6.8574e-05 1.62169e-05 6.04408e-06 
7.27653e-05 1.64489e-05 2.75152e-06 3.46032e-05 2.66714e-06 9.00454e-06 -5.93208e-06 7.46744e-06 3.87009e-06 
-1.06452e-05 4.0531e-06 3.77886e-06 -1.85903e-05 4.77463e-06 3.79878e-06 -2.30303e-05 2.90783e-07 4.43701e-07 
-1.82307e-05 -2.23794e-06 -2.33176e-06 -1.38745e-05 2.51115e-06 -1.73528e-06 -1.38946e-05 -7.44108e-08 -6.39745e-07 
-7.22961e-06 1.43028e-06 -1.13122e-06 -4.54986e-06 -1.60381e-06 -6.23489e-07 -1.9469e-06 -3.42419e-06 -2.00178e-06 
-6.07093e-06 -1.86009e-06 -2.68369e-06 -4.32551e-06 -1.96846e-06 -2.58223e-06 -1.45992e-06 -2.89117e-06 -2.15659e-06 
-2.24904e-06 -3.81424e-06 -3.19333e-06 -2.70299e-06 -3.5608e-06 -2.05858e-06 -1.68045e-06 -2.45703e-06 -6.4501e-07 
5.99193e-07 0.00993524 2.51031e-06 -4.16047e-06 -1.9335e-06 4.11713e-06 2.5247e-06 -7.65225e-07 2.80348e-06 
3.23216e-06 2.44056e-06 2.83378e-06 3.20665e-06 4.80251e-06 3.21624e-06 4.43803e-06 6.08177e-06 2.9624e-06 
3.95154e-06 7.17375e-06 3.43089e-06 4.00841e-06 7.33795e-06 3.64657e-06 4.93685e-06 8.16059e-06 5.52992e-06 
5.07606e-06 1.05717e-05 -3.45271e-06 -1.24017e-06 7.62794e-06 2.88833e-06 5.17691e-06 5.20803e-06 -1.13106e-05 
-4.60265e-06 1.11271e-05 4.47759e-06 2.71494e-06 3.1159e-06 -1.5736e-06 -4.44194e-06 8.10505e-06 -1.1374e-06 
-1.65465e-05 7.8267e-06 3.43263e-05 -5.28587e-06 1.08168e-06 4.75318e-06 3.04654e-05 1.84292e-05 1.8066e-05 
1.40432e-05 6.40614e-05 3.06708e-05 2.42002e-05 7.87462e-05 7.60737e-06 4.32607e-05 7.38531e-05 -2.46314e-05 
8.94455e-05 7.15761e-05 2.30171e-05 -2.68553e-06 6.35095e-05 -6.33333e-06 2.83331e-05 -6.79959e-06 7.3646e-05 
0.000111716 -3.29272e-06 -5.20966e-05 -2.69917e-05 -6.56633e-05 -1.67412e-05 -5.18744e-05 -0.000122492 -4.93027e-05 
-5.61175e-05 -6.35367e-05 -2.07523e-05 -3.15692e-05 -5.80816e-05 -2.22265e-05 -1.66185e-05 -3.49028e-05 1.76551e-06 
-1.07592e-05 -2.12834e-05 5.12406e-06 3.59594e-06 2.24017e-05 4.57582e-06 5.41143e-06 2.25515e-05 9.22236e-06 
5.2043e-06 1.85995e-05 5.82287e-06 4.84241e-06 1.71016e-05 1.80718e-05 6.78431e-06 3.75083e-05 7.4312e-06 
2.10293e-06 -1.31878e-05 1.23984e-05 1.99726e-05 -4.26622e-05 -4.06268e-05 4.06689e-06 4.01162e-05 -0.000119297 
7.9222e-06 -1.47683e-05 -0.000101106 -3.85736e-05 -2.92637e-05 -0.000145798 -1.26336e-05 -3.05647e-05 -0.000227027 
-1.11793e-05 -2.70452e-05 0.000530109 -0.000267338 3.97149e-05 -0.00147287 -0.00242073 -0.0021361 0.0161688 
0.00540786 -0.0120133 0.000404084 0.00736531 0.00176136 -0.000125627 0.00219687 0.000108288 0.00379449 
0.00168144 0.00098586 -0.00275324 0.00271323 -0.000615471 -0.00494328 -0.00435706 0.00131864 -0.00399944 
-0.00457526 0.00235739 -0.003419 -0.0034494 0.00105143 -0.00318562 -0.00268586 0.00141431 -0.0032215 
-0.00189705 0.00112428 -0.00367761 -0.0019702 0.000810614 -0.00309238 -0.00244602 0.00145178 -0.00280928 
-0.00197884 0.000819586 -0.00214595 -0.00207683 0.000995687 -0.00219829 -0.00202477 0.000825883 -0.00144092 
-0.00171577 0.00113421 -0.00102687 -0.000601594 0.00036666 -0.000795881 0.000155317 0.000178524 -0.000478819 
0.000321224 9.77607e-05 0.000464558 0.000396798 0.000141188 0.000896194 0.0011475 -0.000262004 0.0014659 
0.00192964 -0.000480386 0.00182908 0.00277478 -0.000822117 0.00123099 0.00353776 -0.00173963 0.000643793 
0.0025042 -0.000890811 0.0146934 -0.00234148 0.00226339 0.00474048 0.014509 -0.00477307 -0.00630011 
-0.00669873 0.00284156 -0.00227613 -0.00400513 0.000288696 -0.00174607 -0.00297848 0.00117255 -0.00145774 
-0.00221417 0.00107599 -0.000586312 -0.00319264 0.000251796 -0.00178317 -0.00440755 0.00105084 -0.000554878 
-0.00362757 0.00197754 -0.00277859 -0.00298921 0.00158541 -0.00297036 -0.00287841 0.00138494 -0.00309418 
-0.00317295 0.00129458 -0.00232508 0.00299539 0.00188714 0.00449214 0.00219754 -0.00111698 0.00206428 
-0.0111955 -0.000497835 0.0107531 0.0100294 -0.0072803 -0.00285896 -0.000912412 0.0023137 -0.00023354 
0.000452166 0.000942173 0.000598733 0.00214522 0.000963049 0.000105819 -0.00356264 -0.00270299 0.00148829 
-0.00464093 -0.00265907 0.00133803 -0.00613262 -0.00450144 0.000802002 -0.00288481 -0.00292172 0.00159833 
-0.00289388 -0.00328415 0.00168814 -0.00282627 -0.00309266 0.00196613 -0.00295107 -0.00329909 0.00147798 
-0.00328299 -0.0029174 0.00184906 -0.00329267 -0.00231497 0.00068665 0.00255973 0.00612935 0.00354853 
-0.00434754 -0.00606019 4.04742e-06 -0.000542942 -0.00381247 -0.00320513 -3.27318e-06 -5.61242e-06 1.62751e-06 
-0.00566663 0.00864584 0.00308309 0.00553185 -0.00498714 -0.0114335 0.00507167 0.00441933 0.00373933 
0.00753819 -0.00291753 -1.28753e-06 -3.77632e-06 2.73403e-06 -1.54702e-06 -5.15178e-06 1.54728e-07 -4.80935e-07 
4.90876e-06 3.01215e-07 5.99823e-06 5.42504e-06 1.49111e-06 -2.13301e-06 7.68305e-06 2.08182e-06 -3.11852e-06 
4.24451e-06 -1.41765e-06 -2.93876e-06 -2.79468e-06 -9.98392e-07 -1.26585e-06 -3.6368e-06 -1.94317e-06 -1.44236e-06 
-5.59423e-06 -1.34344e-06 5.29204e-07 -7.91113e-06 -1.45408e-06 2.42922e-06 -3.62432e-06 -3.29086e-07 1.72057e-06 
-2.18069e-06 -1.07549e-07 2.3742e-06 -2.37056e-06 -3.916e-07 3.0628e-06 -1.41843e-06 -1.33686e-07 3.13869e-06 
3.30724e-08 -1.89771e-07 2.40761e-06 1.1954e-06 9.73343e-08 4.54508e-06 1.94644e-06 1.0308e-06 4.98883e-06 
4.15082e-06 1.36559e-06 5.97844e-06 2.74543e-06 2.10803e-06 2.93739e-06 3.3921e-06 2.07842e-06 2.27725e-06 
-4.94935e-06 2.2889e-06 2.44253e-06 2.67446e-06 -6.22117e-08 1.63867e-06 4.271e-06 1.79935e-06 2.1865e-06 
2.34226e-06 1.42899e-07 -0.0001407 9.61556e-05 1.55765e-06 3.04551e-07 -0.000316865 -0.00031707 -7.93959e-05 
7.98855e-05 -0.000254171 6.36645e-05 -0.00409592 0.00123842 -0.00101486 -4.69712e-05 5.3015e-07 -0.000322214 
-2.61521e-05 -1.94434e-05 -0.000138975 -3.22691e-05 -2.30016e-05 -7.88555e-05 -9.64894e-06 -6.69714e-06 -6.76195e-05 
-2.01066e-05 -8.52938e-06 -2.07826e-05 2.44528e-05 3.01117e-05 -1.06161e-05 -1.43293e-05 -1.18287e-05 -1.81724e-05 
-1.45673e-05 -6.76229e-06 -3.22474e-05 -2.77044e-06 2.10119e-05 -2.19853e-06 -4.76537e-06 2.27562e-05 -6.75709e-06 
-6.19401e-06 2.5695e-05 -9.21195e-06 -1.65963e-06 2.67413e-05 -1.40368e-05 8.76009e-06 3.77393e-05 -1.89576e-05 
4.84659e-05 4.17835e-05 -3.2319e-05 -1.19176e-05 -2.12841e-05 -3.22678e-05 6.47654e-06 -1.10703e-07 -3.38161e-05 
2.16299e-05 -1.75046e-05 3.64537e-05 1.05957e-06 -2.64942e-05 8.73445e-05 4.07182e-06 3.25933e-05 6.36451e-05 
-6.72436e-06 -1.64756e-05 6.17461e-05 2.27237e-05 8.40122e-06 -2.01352e-05 -6.76103e-06 6.14768e-06 7.63334e-05 
-2.35806e-07 2.99525e-06 -3.77058e-06 5.09912e-06 -8.27751e-06 -6.77952e-06 4.29281e-06 2.11898e-05 -8.36267e-07 
2.59011e-08 9.59439e-06 -8.24179e-06 -6.59862e-07 7.61048e-06 -1.76592e-05 2.5618e-06 4.50227e-06 -1.89162e-05 
-3.93393e-06 3.09418e-06 -7.43762e-06 2.86422e-06 7.92786e-06 -2.66584e-06 2.75747e-06 6.60532e-06 -3.96916e-06 
3.25701e-06 5.14045e-06 -4.06299e-06 -1.38439e-06 -2.41867e-06 -5.31379e-06 -9.36403e-07 -2.14993e-06 -2.51e-06 
-1.80413e-06 9.97008e-08 -2.68821e-06 -2.40005e-06 -2.46317e-06 -4.14612e-06 -4.19311e-06 -5.45803e-06 -5.07972e-06 
-5.52017e-06 9.53445e-09 1.72409e-06 -7.1009e-06 -2.92988e-07 5.79576e-07 -0.00160958 -0.00410941 0.00049447 
0.000665847 -3.8452e-06 1.90695e-06 8.25818e-07 4.00977e-07 2.94427e-06 3.052e-06 2.08698e-06 3.49587e-06 
3.65358e-06 4.67252e-06 3.68571e-06 4.52428e-06 6.34335e-06 3.3428e-06 4.26843e-06 7.11562e-06 4.47579e-06 
4.47222e-06 7.8304e-06 4.82717e-06 3.95105e-06 5.95094e-06 -3.159e-06 6.71452e-07 6.42514e-06 -6.704e-06 
1.46722e-07 4.77956e-06 -7.87532e-06 -2.48794e-06 6.11638e-06 -1.39772e-05 -3.0931e-06 4.11965e-06 -1.83029e-05 
-1.01324e-05 1.65898e-06 1.41236e-05 1.08559e-05 3.31094e-06 2.11401e-05 4.36679e-06 -1.61271e-06 9.66325e-06 
1.13023e-05 -2.90182e-05 2.98249e-05 2.07488e-05 1.40037e-05 2.47914e-05 2.38792e-05 3.48592e-05 -6.55227e-06 
2.74939e-05 4.78505e-05 -2.4079e-05 -1.64102e-06 4.07107e-05 4.82404e-06 -5.77195e-05 4.25677e-05 -3.62623e-05 
1.35277e-05 3.79922e-05 5.19822e-05 6.87447e-05 -3.4975e-05 1.17822e-05 9.25503e-06 -2.47312e-05 -3.70386e-05 
-3.91807e-05 -0.000119809 -3.51248e-05 -3.07847e-05 -5.62463e-05 -1.73636e-05 -2.2614e-05 -2.10338e-05 -9.72226e-06 
-1.82486e-05 -7.32516e-06 -3.09898e-05 -1.10884e-05 -1.64043e-05 1.04871e-05 -7.28904e-06 -3.03421e-06 1.36291e-05 
1.31794e-05 -1.08955e-05 2.45596e-06 9.51973e-06 8.53272e-06 1.41931e-05 3.07737e-06 2.91098e-05 1.51598e-05 
1.24449e-05 -2.12129e-06 2.61278e-05 3.76008e-06 -3.7558e-05 -6.49921e-07 1.55554e-05 -2.80854e-05 -3.04132e-05 
-5.3332e-05 -6.93507e-05 5.89922e-05 4.36828e-05 1.97115e-05 4.365e-05 -3.82703e-05 8.18473e-06 0.000115943 
1.48474e-05 -5.41157e-05 0.000159025 1.93571e-05 -9.26721e-05 0.000570972 0.000192798 -0.000114624 -0.00249011 
0.00105446 -0.00079675 0.00305573 -0.000757324 -0.000420298 0.0016949 4.51981e-05 0.000949182 -0.000268212 
9.60894e-05 0.00155184 0.00117827 0.000806716 0.000437697 -3.57241e-05 0.000888071 0.00017487 0.000476564 
0.00098899 -0.000238061 0.000377718 0.0012546 -0.000420193 7.36514e-05 0.00148935 -0.00028941 3.37037e-05 
0.00139164 -0.000225398 0.000153816 0.0012179 -6.16481e-05 0.000142391 0.00141429 -0.000242261 -5.01893e-06 
0.00118826 -0.000142812 8.3758e-05 0.00102921 -0.000141378 9.1035e-05 0.000849223 -0.000109485 -5.3492e-05 
0.000977128 -0.000175972 -0.000320302 0.000752939 -0.000104166 -0.00054656 0.0007799 -6.06933e-07 -0.000633488 
0.000759796 -7.32238e-05 -0.000588469 0.000537453 1.70948e-05 -0.000608736 0.000392079 7.1373e-06 -0.000981528 
0.000435336 7.74505e-05 -0.00123807 0.000282275 0.000209548 -0.00154051 9.46943e-05 -2.96187e-05 -0.000595458 
-0.000117787 -0.000197711 0.000701341 -0.00124435 0.00205404 -9.61184e-05 0.000338501 8.02047e-05 0.00425037 
-0.000778274 0.000516921 -0.000252857 -0.000127365 0.00113237 -0.000128658 0.000389744 0.00117276 3.93245e-05 
-0.000131745 0.00073149 -2.57336e-05 -0.000116676 0.00105103 -0.000103851 0.000166125 0.00145573 -0.000227754 
0.000465186 0.0014084 -0.000271253 0.00030426 0.00122057 -0.000226749 0.000370434 0.00137987 -0.000163731 
0.000449366 0.00169319 -0.000178208 0.000870668 0.00029171 0.000104966 0.00108736 -0.00274843 -0.000389099 
8.6504e-05 0.000189244 0.000133487 -0.00109761 -0.00158684 0.00136513 -0.000755985 0.000311388 0.00112653 
-6.51197e-05 0.000230461 0.00126509 0.00100832 -9.98575e-05 0.00129461 0.000185905 -0.000197818 0.000476615 
-0.000410459 -0.000135923 0.00102012 0.000362756 -0.000254219 0.00142612 0.000344021 -0.000230247 0.00158577 
0.000627818 -0.000303064 0.00160575 0.000245753 -0.00031902 0.00176479 0.000310574 -0.000411984 0.00174539 
0.000204656 -0.000194903 0.00262572 0.00153485 0.000129192 -0.00141216 0.00159798 -5.108e-06 -3.41513e-06 
-5.66776e-07 3.03856e-06 5.76746e-07 1.02234e-06 4.16951e-06 -0.000165219 0.000341444 1.31515e-05 -0.000340883 
-5.75669e-07 7.24929e-05 -0.00139038 -0.000147345 -0.00085544 0.000883836 -0.000577082 0.000371559 -0.000500147 
3.30653e-05 -0.00166836 0.000728426 -0.00062466 -0.000645487 0.00142123 0.000319352 0.000123283 -0.000187176 
-0.000209751 -0.000521623 -0.000146841 -0.000165718 -1.7327e-06 6.11125e-06 1.86632e-06 3.1624e-06 -1.82539e-07 
5.93602e-06 -2.72179e-07 -2.48144e-06 -2.42447e-06 1.27933e-06 -4.37869e-07 -3.77465e-06 -2.16792e-06 1.74462e-07 
-3.71634e-06 -1.29673e-06 -1.40392e-07 -5.67475e-06 -6.15582e-07 9.75789e-07 -5.42311e-06 6.15859e-08 1.93297e-06 
-3.28299e-06 4.65276e-07 2.5033e-06 -1.86278e-06 4.77026e-07 2.58706e-06 -6.58254e-07 5.92051e-07 2.85764e-06 
3.95189e-07 5.72628e-07 1.62374e-06 1.83174e-06 1.27137e-06 4.68784e-06 1.22082e-06 1.95772e-06 5.31143e-06 
2.51695e-06 1.86621e-06 4.7516e-06 2.87914e-06 2.17114e-06 2.55931e-06 2.62837e-06 2.51363e-06 -2.1107e-07 
-5.11954e-06 2.53211e-06 6.93467e-07 1.19105e-06 9.83725e-07 -1.58718e-07 2.3174e-06 2.13588e-06 2.1558e-06 
7.71509e-05 0.000114341 -0.000651449 -4.22324e-05 -2.47053e-05 1.11281e-05 -5.85897e-05 -0.000171989 -0.000232385 
-0.00010035 3.41145e-07 -0.000208054 0.000468422 0.000158815 -0.000109778 -2.57201e-05 -1.98478e-05 1.20063e-05 
3.77781e-05 -3.15655e-06 1.12518e-06 2.9305e-05 -5.00282e-06 2.46679e-05 2.45694e-05 -2.04002e-05 -1.09062e-05 
3.51747e-06 -3.21008e-05 -1.71496e-06 1.54961e-05 -1.86296e-06 -2.18682e-06 1.80168e-05 3.77882e-06 -6.86321e-06 
1.59918e-05 -2.01807e-06 -8.10646e-06 1.50083e-05 -7.11851e-06 -1.63056e-05 1.21832e-05 -1.07201e-05 -1.42801e-05 
1.36885e-05 -1.76488e-05 6.93126e-05 1.58145e-05 -3.09422e-05 -7.80608e-05 -8.05609e-06 -4.89638e-05 -3.14456e-05 
-8.36765e-05 -4.32535e-05 1.10446e-05 -4.14877e-05 -6.59541e-05 3.13334e-05 -7.69924e-05 -3.74581e-06 -4.6439e-06 
8.90516e-06 6.01228e-05 -2.67286e-06 -3.13017e-06 1.01155e-06 8.59461e-06 -1.84964e-06 -5.05765e-06 3.63257e-06 
6.93177e-06 -2.89534e-06 1.9094e-07 7.42735e-06 -2.45786e-06 6.4058e-06 3.4988e-06 -3.98715e-06 1.70042e-06 
3.10934e-06 -2.92234e-06 1.04094e-06 2.06196e-06 -3.10133e-06 1.50613e-06 2.33923e-06 -2.86217e-06 2.2899e-06 
1.62291e-06 -3.34633e-06 1.43634e-07 1.78113e-06 -3.10794e-06 -1.18107e-06 -9.93715e-08 -3.37474e-06 -2.25715e-06 
-1.51532e-06 -3.88157e-06 -2.26343e-06 -4.5961e-06 -5.20975e-06 -2.9638e-06 -2.91588e-07 1.00237e-06 -1.99636e-06 
-1.79407e-06 7.11781e-07 0.000680629 -0.000623194 -0.000204036 -0.000278208 -4.03886e-05 3.3886e-06 3.71348e-06 
6.69435e-07 4.11839e-06 3.76689e-06 5.14155e-06 3.67392e-06 4.55581e-06 7.25134e-06 5.09805e-06 4.20195e-06 
8.22364e-06 -1.88729e-06 1.19611e-06 6.07322e-06 -3.03614e-06 -5.16303e-07 5.23706e-06 -3.30367e-06 -1.16105e-06 
4.23431e-06 -4.87841e-06 -1.67539e-06 4.62057e-06 -6.894e-06 -4.68233e-06 4.31026e-06 -8.44036e-06 -6.99783e-06 
3.09465e-06 -7.86119e-06 -9.57239e-06 -1.33084e-06 -6.35691e-06 -1.67169e-05 -5.71126e-06 -5.38481e-06 3.37497e-06 
-4.10629e-06 8.05177e-06 5.00341e-06 -1.75771e-05 5.22704e-06 -5.46725e-06 -3.52824e-05 5.49374e-07 -1.5997e-05 
3.12898e-05 1.00659e-06 -4.65643e-05 3.6714e-05 3.68901e-06 -6.58726e-05 -4.85405e-05 -7.83321e-05 -1.23066e-05 
0.000139582 -6.18601e-06 4.73569e-05 -0.000178869 8.76226e-05 -0.000107829 -0.000262695 -5.3839e-05 -2.9936e-05 
5.4325e-05 3.60582e-06 1.04281e-05 1.31677e-05 8.68874e-07 4.67018e-05 3.50503e-05 -1.79459e-05 4.11748e-06 
-8.46591e-06 -2.4312e-05 1.12279e-06 -1.13836e-06 1.70895e-05 -2.55403e-05 -1.55429e-05 1.50476e-05 -1.7091e-05 
-7.6471e-06 9.00144e-06 5.99696e-06 -1.01114e-05 1.23607e-05 1.11848e-05 -2.99421e-06 1.80637e-05 7.8258e-08 
-1.49799e-05 -2.61918e-06 2.65079e-05 -1.78377e-05 -1.30532e-05 7.37188e-07 -2.70848e-05 1.97085e-05 -1.16e-05 
-1.21553e-05 9.533e-06 -8.48704e-05 -4.14475e-05 6.79382e-05 -7.51885e-05 -9.18048e-05 0.000189264 0.000141675 
8.47629e-05 7.29806e-05 0.000184058 -4.40109e-05 -8.73465e-05 0.000270445 9.80034e-05 0.000362496 -0.000164248 
0.000302791 0.000114051 1.7223e-05 3.00902e-05 0.000200989 0.000103017 -0.000115426 0.000189146 -9.69376e-05 
0.000735215 9.01597e-05 0.000229129 0.000155094 -2.65246e-06 3.4617e-06 4.06746e-06 1.25995e-06 -4.65624e-05 
0.000122199 -1.34228e-05 -0.000117056 2.72411e-05 -2.15602e-06 -0.000141385 0.000105525 8.89129e-05 -0.000159158 
5.41454e-05 5.92256e-06 -0.000178732 9.50415e-05 -8.92565e-06 -0.000158352 9.767e-05 2.01855e-05 -0.000135065 
0.000142678 3.23485e-05 -0.000151871 0.000144935 1.86582e-05 -0.000137839 0.00011153 1.80895e-05 -0.000167374 
9.02106e-05 4.22271e-06 -0.000171156 7.60255e-05 1.34668e-05 -0.00014544 0.000100171 8.75776e-06 -9.50763e-05 
0.000165334 2.37087e-05 -0.000105425 0.000225281 -9.98917e-07 -8.73522e-05 0.000189906 -2.20338e-05 -0.00013438 
0.000191792 -4.66681e-05 -0.00025347 0.000158584 1.87302e-05 -1.31945e-05 2.68956e-05 0.000114364 -8.79888e-05 
0.000167558 -7.60385e-05 -0.00015494 9.01989e-06 1.11748e-06 -0.000158065 1.33247e-05 -3.19457e-05 -6.12131e-05 
-2.75886e-05 -3.68812e-05 -8.77859e-05 4.71529e-05 1.1077e-05 -9.8717e-05 8.87933e-05 9.46686e-06 -9.69119e-05 
0.000164167 1.17105e-05 -7.28068e-05 6.78729e-05 9.44673e-05 -1.1399e-05 4.93676e-05 3.76364e-05 -4.88672e-05 
2.23088e-05 3.36082e-05 -0.000150302 -1.93146e-06 -5.62812e-06 -0.000194762 -8.66049e-05 7.69914e-07 2.77502e-06 
2.53105e-06 4.10324e-06 0.000330197 0.000226432 0.000101205 3.07644e-05 -9.21614e-06 -5.49231e-05 7.10516e-06 
6.47946e-05 -4.3629e-05 -0.000134968 -1.69354e-05 -6.65771e-05 -0.000185019 -5.6483e-05 -9.64366e-05 -9.80965e-05 
-2.27649e-05 -4.31673e-05 -0.000102208 4.58747e-06 6.175e-05 -3.72872e-05 -5.0787e-06 0.000140228 -1.707e-06 
2.13468e-05 0.000198035 3.95259e-05 6.19583e-05 0.000156981 -8.34458e-05 0.000168268 0.000103049 9.49276e-05 
0.000348891 -4.54015e-05 -3.55832e-05 -1.65377e-05 -0.000114931 0.000182715 -1.55221e-05 1.7479e-06 0.000147925 
2.14315e-06 2.47036e-06 1.39457e-06 -3.87218e-07 -4.91087e-05 -1.43684e-05 -7.5727e-05 -8.8201e-05 -1.13325e-05 
-3.91769e-05 4.58671e-06 -5.16385e-05 -8.82797e-05 0.000208819 -2.66453e-05 -0.000188987 0.000115444 2.12925e-05 
6.77951e-05 7.58199e-05 0.000288782 0.000375605 0.000356304 0.00012065 1.67681e-06 0.000186479 -0.00023489 
-0.00019575 -7.39589e-06 3.56647e-05 -0.000141674 -1.15881e-05 0.000322968 0.000399534 -9.85172e-05 0.000434689 
-3.86625e-05 -3.87945e-06 0.000119671 -0.000245433 -0.000286003 -3.33314e-05 -8.165e-05 -0.000520859 1.77016e-05 
-9.33046e-05 -0.000150615 3.94609e-05 0.000154517 -3.24527e-05 -8.37613e-05 0.000116994 4.40347e-06 5.53499e-06 
7.62746e-07 -2.57318e-06 3.66684e-06 -9.54722e-07 -1.02596e-06 2.19004e-06 -9.90122e-07 -4.74437e-07 1.51935e-06 
-2.95511e-06 8.93696e-07 1.64694e-06 -1.72292e-06 1.43698e-06 2.14861e-06 -1.0331e-06 4.64855e-07 2.41107e-06 
2.096e-07 1.007e-06 2.51388e-06 1.17499e-06 1.62733e-06 2.17541e-06 1.83763e-06 1.9791e-06 4.24659e-06 
2.53097e-06 2.39204e-06 5.0627e-06 2.64803e-06 2.43291e-06 4.42959e-06 2.72283e-06 2.277e-06 4.65582e-06 
2.91931e-06 2.47758e-06 3.54102e-06 2.86435e-06 3.07293e-06 2.73395e-06 -6.21435e-05 -3.32878e-05 3.40934e-06 
-0.00010286 2.11123e-05 -3.79912e-05 -2.79021e-06 -2.46551e-05 -1.33922e-05 -7.9744e-06 -4.26844e-05 3.67118e-05 
-0.000111301 -0.000582197 0.000166302 -8.63299e-06 3.787e-06 2.29946e-05 3.77095e-05 -4.75608e-05 2.47176e-05 
7.47249e-06 3.87037e-06 2.71514e-05 -0.00754645 0.00741277 -3.9881e-06 2.99435e-06 -9.94719e-06 -4.44043e-06 
4.66307e-06 -1.02523e-05 -5.42059e-06 6.11608e-06 -2.36481e-06 -8.66556e-06 3.17639e-06 -8.97969e-06 -2.48566e-05 
-2.1631e-06 -3.41117e-06 2.91429e-06 -1.9744e-05 -2.51954e-05 9.58788e-05 -0.000100271 -6.7474e-05 0.000139731 
-5.29414e-05 8.19728e-05 -6.3904e-05 1.04484e-05 4.5998e-07 4.05989e-06 6.09541e-06 -1.15774e-05 1.92976e-05 
3.8454e-06 -7.23764e-06 -4.48056e-06 1.94692e-06 -2.18387e-06 -7.30324e-06 1.02015e-06 -1.00044e-06 -6.42771e-06 
2.55763e-06 1.50401e-06 -2.1503e-06 2.36672e-06 1.70446e-06 -3.61149e-06 1.20349e-06 8.22303e-07 -3.99791e-06 
-3.19674e-07 2.07232e-07 -3.1443e-06 -1.1408e-06 -3.85474e-07 -3.19169e-06 -3.5266e-07 -2.38919e-06 -2.94611e-06 
-9.67185e-09 1.43592e-06 4.03117e-06 1.84626e-08 2.16875e-06 3.06786e-06 -0.000366374 -7.44847e-06 -1.58656e-05 
-9.76409e-06 -0.000138119 4.94648e-05 -4.89987e-05 -2.63824e-05 3.4112e-06 3.19051e-06 3.8603e-06 2.78379e-06 
5.13521e-06 -7.58895e-07 2.38234e-06 7.07706e-06 -2.32969e-06 2.90981e-07 5.18139e-06 -3.66167e-06 -5.23553e-07 
4.70933e-06 -4.54643e-08 -1.68743e-06 -8.18536e-06 -2.95599e-07 -4.1644e-06 -6.42175e-06 -1.64525e-06 -4.89717e-06 
5.56565e-06 1.01447e-06 -5.64968e-06 8.40357e-06 8.00391e-06 -1.03923e-05 2.38249e-06 -2.09081e-06 -1.35866e-05 
1.8404e-06 5.41279e-05 2.02619e-05 4.5186e-05 -1.66298e-05 1.01337e-05 4.29018e-05 -0.000135547 0.000262912 
-0.000117286 -2.33414e-05 0.000214456 1.27355e-05 2.6661e-05 -2.24093e-06 2.25487e-05 2.10449e-05 -1.78773e-05 
7.3923e-06 -6.95226e-07 -2.62032e-05 6.88222e-06 -4.1978e-06 -1.60406e-05 -6.03064e-06 -1.00507e-05 -6.9039e-06 
-4.65507e-06 -1.20241e-05 1.83152e-05 -1.4371e-05 1.29312e-06 2.8244e-05 9.68886e-06 -1.22524e-05 -1.44537e-05 
3.55881e-05 1.00711e-05 -3.13021e-06 -2.47915e-06 1.76356e-06 1.93725e-05 -5.34522e-07 3.45312e-06 3.36424e-06 
-7.89345e-05 -4.69927e-05 2.36807e-05 -0.000127612 -1.59767e-05 3.62425e-05 8.86901e-05 -1.60765e-05 -0.000100602 
-1.16224e-06 3.91968e-05 2.3104e-05 7.75836e-05 0.000119825 0.000205984 6.4319e-05 8.38731e-06 0.000118863 
-4.04311e-07 0.000118327 5.94688e-05 2.19498e-05 3.12826e-05 1.86279e-05 1.11519e-05 -4.30373e-05 1.34186e-05 
1.12422e-05 -3.07253e-05 1.17977e-05 2.86977e-06 -7.97156e-06 5.53127e-06 -6.4661e-06 2.44311e-05 2.87414e-05 
-4.23893e-06 8.83503e-06 1.35525e-05 1.3728e-05 -1.36025e-06 1.03057e-05 1.37511e-05 -2.17416e-05 5.05126e-06 
7.95956e-06 -6.87505e-06 1.67302e-05 6.99373e-06 6.90218e-06 1.10816e-05 -8.45182e-06 -1.25869e-06 9.9244e-06 
1.15467e-05 -3.24474e-05 2.92531e-05 2.01854e-06 -3.87861e-05 -7.78103e-05 5.07754e-06 -6.08709e-05 -5.12336e-05 
-1.00569e-05 0.000104699 -2.71264e-05 7.72557e-05 -3.04432e-05 -1.5435e-05 -2.03399e-06 -2.4651e-06 -1.65229e-06 
0.000132371 3.29242e-05 1.73069e-05 3.14957e-05 -2.32013e-05 -4.09576e-06 2.07098e-05 1.33833e-05 2.41425e-05 
2.48507e-05 5.71929e-05 -1.24311e-06 1.32391e-05 5.45618e-05 -1.83896e-06 5.79621e-05 1.96849e-05 -1.39846e-05 
4.66878e-05 -2.47135e-05 9.06936e-06 1.86939e-05 -6.17204e-05 2.0121e-05 -1.16558e-05 -0.000143884 -9.85932e-06 
3.18735e-06 2.90402e-06 -2.54531e-07 6.96935e-06 1.79313e-06 -3.20872e-08 -1.83451e-05 4.4621e-05 -1.86129e-05 
3.89548e-06 3.50146e-05 -8.96803e-06 2.28901e-05 1.91935e-05 -2.2157e-05 -3.04024e-05 -1.89977e-05 -2.85925e-05 
-7.56524e-05 -1.0965e-05 4.78317e-06 -8.73264e-05 5.79543e-06 -3.4039e-05 -6.13988e-05 6.09504e-05 -3.31467e-05 
7.35103e-05 6.63467e-05 -1.13834e-05 7.04105e-05 6.08254e-05 3.74569e-05 1.12409e-05 2.23157e-05 -3.18472e-05 
2.09982e-05 3.45166e-06 3.52777e-06 4.74397e-06 -3.90064e-06 -1.30207e-05 3.26409e-06 -0.000312334 0.000249694 
-0.000156644 -1.11203e-05 3.64103e-05 -4.01806e-06 7.56857e-05 -1.46849e-05 2.88289e-06 6.26215e-06 -3.6778e-06 
-3.04666e-05 8.21277e-06 7.03166e-05 9.47131e-05 -0.000316296 -6.30442e-05 2.53437e-06 2.28085e-06 4.49011e-06 
1.03354e-05 9.13926e-05 1.13237e-05 -4.66118e-06 -0.000146734 -8.74807e-05 -0.000232121 1.5142e-06 5.73923e-06 
-9.79995e-05 -0.000152483 5.34876e-06 -8.91705e-05 1.45516e-05 0.000178033 -5.81861e-05 -5.42148e-05 -2.16399e-05 
-7.30389e-05 2.84925e-05 -1.02444e-05 -3.21195e-05 9.70207e-05 5.17647e-05 2.76228e-05 -1.33291e-05 -2.58157e-06 
-2.57923e-06 5.47946e-06 6.23026e-05 7.463e-05 7.35682e-05 -2.83736e-05 -9.76242e-05 1.05683e-06 -7.81917e-05 
-3.45672e-05 -1.38394e-05 -0.000215649 2.00987e-05 -8.91783e-05 4.90837e-05 6.86737e-05 6.29182e-05 -5.5351e-05 
4.93635e-05 2.33271e-05 9.68062e-07 -7.99515e-07 1.39095e-06 -2.36473e-07 1.86739e-06 1.0532e-06 2.05486e-06 
2.16248e-06 -4.33443e-08 2.72855e-06 2.28361e-06 5.41582e-07 1.93946e-06 2.27728e-06 1.46547e-06 2.62303e-06 
2.02035e-06 1.40811e-06 3.32703e-06 2.90583e-06 2.53911e-06 2.24711e-06 3.74858e-06 2.87483e-06 2.85407e-06 
6.0458e-06 3.33849e-06 1.49089e-06 2.90158e-06 7.24489e-05 -9.92246e-05 -3.58559e-05 -4.65612e-05 8.64673e-05 
-4.45055e-05 2.09339e-06 -6.80448e-07 -0.00689486 0.00775814 2.02243e-06 1.07721e-06 5.11997e-06 1.89582e-07 
1.57167e-06 8.682e-07 1.07667e-05 -1.11768e-05 7.84491e-06 -1.2485e-05 5.21455e-05 2.08503e-06 -2.25317e-06 
1.0501e-06 3.46171e-06 -9.82008e-07 -1.24768e-07 -1.274e-06 -7.84798e-06 -1.53027e-05 3.76557e-06 -6.23737e-06 
-7.66165e-07 -4.11242e-06 -8.34724e-06 1.03773e-06 6.36942e-07 -2.83371e-06 2.01241e-06 1.74838e-06 -4.19906e-06 
1.01135e-06 5.05035e-07 -4.46833e-06 3.01471e-07 7.11689e-07 -2.55257e-06 -1.26783e-07 5.90298e-09 -1.03507e-06 
1.61666e-06 -3.7319e-07 8.07379e-07 1.37066e-06 -1.48241e-05 -1.01437e-05 2.89562e-05 6.93786e-06 1.26758e-05 
-1.92192e-06 -4.64658e-07 -1.3581e-06 -1.21774e-07 -5.31782e-06 -4.29621e-05 2.5084e-07 2.26964e-06 -5.35982e-06 
-1.03576e-06 6.74591e-07 -4.49656e-06 -1.0549e-06 -2.53268e-06 -5.12435e-06 1.80963e-06 3.36099e-07 -5.58842e-06 
6.19569e-06 1.60939e-06 -6.30771e-06 6.21604e-06 -8.46241e-06 1.24911e-05 6.5624e-06 -7.07201e-06 9.97876e-06 
-1.18691e-05 1.48256e-06 2.58329e-05 6.0181e-05 -7.26317e-07 0.000102522 -4.51911e-05 9.64412e-06 3.58415e-06 
-9.16227e-05 5.19629e-05 -2.50016e-05 -1.24578e-05 1.68269e-06 -4.88217e-06 -5.42273e-06 -4.02612e-06 1.61058e-05 
-6.88052e-06 -1.46131e-05 -8.4905e-06 2.56359e-05 6.90572e-06 2.98826e-06 -9.81336e-08 -2.20459e-05 -9.27338e-06 
4.82336e-05 -1.07906e-07 -1.14626e-05 -1.02164e-05 1.01351e-05 8.22906e-06 4.50312e-06 2.62734e-05 3.20339e-05 
1.75385e-05 2.42766e-05 -5.29017e-05 -9.78718e-06 8.04299e-06 2.16865e-05 7.16291e-06 -4.12436e-05 -1.45329e-05 
-9.3647e-05 -5.49358e-06 -3.21403e-05 -1.7562e-06 -8.53091e-06 7.08175e-06 -1.37767e-05 -3.66724e-06 3.63637e-05 
4.52095e-05 2.44161e-05 -2.9198e-07 -1.07006e-05 2.72456e-05 9.25887e-06 -2.71877e-06 1.26439e-05 3.84907e-05 
-2.2574e-05 6.68807e-06 2.76817e-05 3.08477e-05 -2.63479e-05 4.15887e-07 1.56789e-05 2.24617e-05 -1.59296e-05 
-1.72131e-06 -1.03689e-06 7.54004e-06 -2.82273e-05 1.55881e-05 5.37299e-06 1.0382e-06 -1.73137e-05 1.44457e-05 
8.4083e-06 -1.27653e-05 4.52332e-05 -2.4405e-05 -5.04855e-05 8.17919e-05 6.94771e-06 1.49103e-05 -1.63426e-06 
-3.09112e-06 3.27978e-08 7.26723e-06 -3.07981e-05 -5.33269e-06 4.85746e-05 -5.42557e-06 -5.96946e-06 -4.18039e-05 
1.4898e-05 6.8822e-06 1.46571e-05 -4.57879e-06 7.20416e-06 4.01433e-05 -7.46604e-06 1.74723e-05 1.59042e-05 
2.73783e-05 1.01532e-05 5.50565e-05 3.31401e-05 -2.59091e-06 2.64945e-05 -0.00686493 0.00669096 5.60076e-05 
5.66749e-06 1.7907e-05 4.28959e-05 -7.56201e-05 4.52579e-06 -3.41886e-05 -4.35843e-05 3.87458e-05 -5.58418e-05 
-6.30749e-05 -3.68898e-05 -5.31399e-05 2.97145e-06 3.83623e-06 -5.11831e-06 -5.55768e-06 1.39451e-06 -1.63291e-05 
-1.30952e-06 -3.91439e-05 -6.87229e-05 -5.93752e-05 5.46544e-06 -0.00626869 0.00790951 -4.08942e-05 1.33554e-05 
5.73508e-06 -6.60345e-05 3.27649e-05 -3.60553e-05 -4.81736e-05 7.65613e-05 -4.9477e-05 5.96555e-05 -3.5303e-06 
-8.51309e-06 -1.57705e-05 3.81456e-05 4.81581e-06 3.32241e-05 -2.34071e-05 2.14591e-05 -3.43808e-05 -2.47027e-05 
-2.94729e-05 1.17347e-06 2.50255e-07 1.98751e-05 2.28519e-05 7.40008e-06 2.96592e-05 3.02785e-06 2.62663e-05 
-2.378e-05 -1.27959e-05 -7.9675e-05 -2.70204e-05 1.11692e-05 -3.42438e-05 -0.00669231 0.00829848 -7.44817e-06 
3.2102e-05 1.2802e-05 6.92752e-05 -6.55614e-05 6.0312e-05 -0.000104166 -1.0482e-05 6.04778e-06 -2.45033e-05 
1.64285e-06 2.75638e-08 5.92311e-06 -8.91841e-06 -2.3894e-06 9.77069e-06 6.20368e-05 -3.36927e-05 -3.73116e-06 
3.0985e-06 -1.87585e-06 3.44633e-05 2.60557e-05 -3.64164e-05 1.56072e-05 3.89366e-05 1.54259e-06 -2.51061e-05 
1.08135e-05 -0.000102681 -5.91196e-05 -3.10569e-05 1.64123e-06 1.52e-06 -1.14803e-06 -3.21486e-05 -3.91856e-05 
-0.00484348 0.008005 -1.92063e-05 8.44751e-05 2.83423e-06 1.41855e-06 3.5735e-06 1.66983e-06 3.80296e-06 
1.50914e-06 -9.51813e-08 1.84035e-06 -5.4543e-07 1.32734e-06 2.95449e-06 6.30522e-06 3.74542e-05 -6.47831e-06 
4.27546e-06 -4.55011e-07 4.70586e-05 2.91344e-05 -2.04391e-05 4.66732e-07 -2.71757e-06 1.50294e-06 3.94047e-06 
1.23416e-06 2.82704e-05 -8.62639e-05 2.30391e-06 -2.9161e-07 -2.69246e-06 5.47264e-06 1.96082e-06 -1.52629e-06 
3.45879e-07 -5.78629e-06 -1.30984e-05 7.02677e-06 2.51676e-06 8.06737e-07 2.52074e-06 1.73081e-06 -3.70549e-06 
1.42976e-06 1.72888e-06 -5.42813e-07 -2.61505e-06 -4.19974e-07 -4.66541e-06 -9.82606e-06 3.2828e-06 -3.56233e-06 
-1.72277e-06 -4.86624e-06 2.81472e-05 1.40169e-05 -1.51965e-05 2.42177e-06 -7.97854e-07 1.68089e-07 1.44691e-06 
-3.42594e-06 3.79618e-06 2.79754e-06 -5.55542e-06 1.84e-05 5.85212e-06 -7.2541e-06 7.0345e-06 -2.1684e-07 
-1.75952e-06 -1.08654e-05 -4.67192e-06 -4.55143e-05 1.20854e-05 2.51004e-05 -1.57867e-05 -7.86915e-07 7.69638e-06 
6.73444e-06 6.51293e-07 -1.19055e-06 4.94184e-07 -4.16592e-06 9.0772e-06 -3.43864e-06 -5.19486e-06 1.70963e-05 
3.48512e-07 1.79299e-06 -1.95856e-05 -0.00665222 0.00804406 1.35288e-06 -3.23547e-05 -5.60821e-06 -1.20374e-05 
6.35805e-06 -2.71824e-05 -2.03179e-05 7.71525e-06 -9.132e-06 9.70793e-06 1.1358e-05 3.87287e-05 -6.79172e-05 
-5.42676e-05 -8.80099e-06 4.91241e-05 -5.98919e-05 -3.79222e-05 -1.98361e-05 -2.17387e-05 5.08095e-05 4.07147e-05 
-5.05908e-05 -2.8385e-05 -1.68847e-05 -1.67315e-05 -2.63055e-05 3.14936e-05 -4.44458e-05 -2.17351e-05 -5.11434e-05 
3.01855e-05 -1.56985e-05 -4.297e-05 1.19625e-06 1.89953e-05 1.2621e-05 5.94454e-06 4.41188e-06 2.00343e-05 
2.77677e-06 1.92817e-06 -2.69605e-07 4.6835e-06 1.91543e-06 -2.27201e-07 3.02288e-06 -4.24324e-06 9.12597e-07 
-8.76982e-07 5.07061e-05 2.2233e-05 -1.66578e-05 5.81457e-06 -3.07033e-05 1.4399e-05 -0.00605616 0.00788545 
-5.47983e-06 1.02023e-05 -1.42985e-05 3.51143e-05 1.12915e-05 -3.19203e-05 0.00106784 -0.00110079 -0.00177346 
-0.00124472 -1.3386e-06 -2.47917e-06 6.87942e-06 -2.0504e-05 2.49664e-05 7.26025e-06 1.25997e-05 -2.41383e-05 
-1.8664e-05 -2.52339e-05 -5.77945e-05 -2.71123e-05 -2.50944e-05 -7.91844e-05 -6.26777e-06 0.00183962 -3.53017e-05 
-5.80746e-05 -9.14975e-06 -4.64748e-05 2.87983e-05 7.89978e-05 3.79948e-06 4.19531e-05 4.11034e-05 7.99329e-06 
2.43111e-05 1.02784e-06 8.3982e-05 2.12628e-06 4.01091e-07 1.75854e-06 -6.12766e-05 7.98058e-05 2.71625e-05 
5.44579e-05 7.30044e-07 6.29271e-07 1.60422e-06 4.72387e-06 2.75389e-06 5.90821e-06 -3.06643e-06 -1.11746e-06 
-3.38383e-06 -1.47079e-05 -8.24113e-06 -4.92847e-06 -1.78736e-05 6.93868e-07 5.77177e-06 5.58243e-06 -1.64568e-05 
-3.32684e-07 2.49763e-06 -3.5836e-06 -1.2469e-05 -1.82122e-05 3.72568e-06 2.27346e-05 -5.54644e-05 -2.90875e-05 
3.428e-05 -7.62063e-07 -3.14454e-06 -3.7235e-06 -1.36681e-06 7.12716e-06 9.32831e-06 -3.0217e-07 -4.07435e-06 
7.92972e-06 4.14979e-05 5.10148e-05 3.45764e-06 1.41904e-05 -3.43317e-06 1.43261e-06 -2.29521e-06 -2.50405e-05 
-1.68387e-06 -1.66415e-05 -6.62242e-06 4.71212e-05 9.98459e-06 2.04708e-05 1.795e-05 -1.99031e-06 -7.32273e-06 
-1.52702e-05 -8.25856e-06 -1.9878e-05 1.67188e-05 2.96803e-06 -3.84613e-06 6.23781e-05 -5.19131e-05 -6.43301e-06 
-3.5518e-05 -5.36715e-05 -9.09234e-06 2.64873e-05 1.51176e-06 1.18081e-06 1.51881e-07 2.28553e-06 -4.48835e-05 
-2.01157e-05 -1.64084e-05 -1.53595e-05 6.12612e-06 3.04163e-06 -1.98437e-07 1.25233e-05 -7.40227e-05 -1.30202e-06 
-2.47656e-05 -6.97684e-06 3.86602e-06 -1.4868e-06 3.48438e-05 9.81589e-05 3.25131e-06 1.09e-05 7.56421e-07 
1.41368e-06 -2.22307e-06 1.63378e-06 1.48549e-06 9.26585e-07 -3.32619e-06 -3.01023e-07 -2.80047e-06 -1.06921e-06 
-3.88066e-06 -3.28238e-06 -4.13182e-06 -5.86682e-06 1.79467e-05 1.73588e-06 1.05417e-05 -4.17929e-05 -7.11025e-06 
1.34898e-06 -4.76635e-06 2.59608e-06 6.47313e-06 7.98447e-06 -2.3165e-06 -1.57873e-05 8.0903e-06 3.88979e-05 
3.94431e-05 1.04497e-05 4.75073e-05 3.65215e-05 2.89906e-05 8.94337e-06 -6.21374e-05 -6.97575e-05 5.53461e-05 
6.73159e-06 -3.50112e-05 1.3682e-05 7.95331e-05 -5.00163e-05 6.94152e-06 -5.10818e-06 -1.20427e-05 8.28e-06 
-5.018e-06 -2.14974e-05 1.3809e-05 -1.41864e-06 2.73462e-06 9.66254e-06 -2.56744e-06 -2.56283e-07 -1.3937e-06 
5.58279e-06 2.67323e-06 -6.3645e-06 2.92324e-06 4.6344e-07 3.11672e-06 -5.60135e-06 -3.63411e-06 -1.06447e-05 
-1.37554e-08 -3.48856e-06 1.00151e-05 4.74073e-06 4.23743e-05 8.11525e-07 0.000253352 -7.3569e-06 9.21159e-06 
1.09193e-05 -2.27032e-06 1.15911e-05 3.06411e-05 2.41044e-05 -7.90194e-06 -5.22966e-06 -1.42805e-05 -3.45056e-05 
-8.45261e-06 2.21173e-05 8.92383e-06 -4.03287e-05 -1.09294e-06 2.63634e-07 -1.34817e-07 -9.79957e-06 2.87491e-05 
-2.32867e-05 1.93092e-05 3.51754e-05 1.14228e-06 8.77435e-06 1.17491e-06 -1.72914e-06 -4.66145e-05 -2.36415e-05 
1.68558e-05 -6.7172e-07 6.13345e-07 -4.73524e-06 -9.05482e-05 4.38874e-05 -4.24115e-06 -3.33181e-05 6.86057e-05 
1.98706e-06 2.26081e-05 2.10085e-05 4.68886e-05 3.97142e-05 -1.50422e-05 3.06076e-08 -3.69703e-06 -7.93055e-06 
-1.11556e-05 2.28913e-06 -3.92347e-06 -1.30695e-05 -5.60263e-06 -5.00531e-06 2.77687e-05 -4.55664e-06 -1.23547e-06 
-2.46406e-05 -9.01607e-06 -4.46267e-05 -6.26763e-06 -1.02347e-06 1.79352e-05 4.7988e-05 -8.4383e-06 9.48477e-06 
-3.94959e-05 -7.60077e-06 9.21566e-07 7.26102e-06 -3.10671e-06 -2.75096e-06 -2.75417e-05 8.60481e-07 1.84407e-05 
-9.94989e-06 0.00252124 -1.14514e-05 1.0918e-05 2.35886e-06 -5.12004e-06 3.49736e-06 4.39614e-06 9.90687e-05 
-1.28524e-05 -1.76977e-06 -1.14613e-05 -2.34987e-05 -1.89698e-05 -1.55092e-05 -2.78665e-05 5.74896e-05 -3.28136e-05 
3.74479e-05 1.19016e-06 1.23964e-06 6.45461e-06 -7.77634e-06 -0.00818238 -0.000306454 0.000486158 1.20377e-05 
-4.33159e-06 -2.25676e-05 -4.03601e-05 -9.05811e-06 4.26787e-05 0.00077843 -0.000329033 7.3845e-05 0.00010242 
-2.68815e-06 5.06158e-06 -9.62051e-07 6.07505e-06 -9.03592e-06 -8.47269e-06 1.62372e-05 -4.83049e-06 -3.1679e-06 
1.10211e-06 -3.74546e-06 6.23445e-06 1.01922e-05 -4.82399e-06 6.74568e-06 -2.02403e-06 2.28689e-05 3.27217e-06 
3.07486e-06 -1.03962e-06 7.77374e-06 6.35981e-05 2.75049e-05 0.000939356 0.000451044 1.20526e-05 -4.57774e-06 
-3.45082e-05 7.79343e-05 6.0389e-05 3.97341e-06 3.8823e-07 -9.63478e-06 1.26585e-05 3.85109e-06 2.18402e-06 
-1.04126e-05 -4.33101e-05 -8.57881e-06 5.12806e-06 -8.8978e-06 -4.60656e-07 -4.15061e-05 -6.58131e-05 3.74963e-06 
-6.97334e-06 -1.71744e-05 -6.53142e-05 8.03225e-06 7.56897e-06 6.17015e-05 4.93243e-06 3.4545e-06 -9.98301e-06 
1.08435e-05 1.22638e-05 -1.78434e-05 7.12143e-06 2.61874e-05 2.74997e-06 1.84929e-06 -3.8832e-06 -4.08836e-07 
-2.68938e-06 3.8689e-06 -1.88971e-06 -1.65225e-05 5.70939e-06 3.68584e-05 -0.000100463 -3.2386e-05 3.74325e-05 
1.89506e-06 2.50103e-06 3.13882e-06 4.30668e-06 -5.27673e-05 6.63979e-05 -5.09085e-05 4.82891e-05 -9.20946e-07 
-1.35229e-05 2.13766e-05 1.57601e-05 2.08771e-05 -1.15528e-05 -6.01328e-06 -9.08323e-06 -5.66577e-05 2.19452e-05 
-2.54115e-05 4.96175e-06 4.43229e-05 -0.00647741 -0.000692913 -9.32133e-05 -7.60862e-07 2.33448e-05 2.68147e-06 
2.21573e-06 9.36778e-07 1.35947e-05 -7.60732e-06 0.000260589 -1.09558e-06 -6.78931e-06 -2.4181e-06 0.000113785 
-1.47847e-05 4.1971e-06 8.74954e-06 -4.50016e-06 1.24187e-05 8.12682e-06 -0.000177925 -2.31505e-05 5.2543e-06 
-6.15081e-05 3.80419e-06 5.61624e-05 0.000129981 0.000215306 -1.51456e-05 -3.87808e-05 0.000166579 -1.47014e-05 
0.000518725 0.00127017 3.30695e-06 0.0119632 -1.73472e-06 2.59607e-06 -2.51786e-07 -4.62704e-07 -1.09565e-06 
4.03473e-07 -2.28871e-06 -1.0782e-07 -3.00187e-06 -1.02912e-07 -4.4031e-06 -6.45279e-07 -4.61374e-06 -8.75289e-07 
-4.61433e-06 -1.36251e-06 -5.20568e-06 -1.79976e-06 -2.61295e-06 2.88514e-06 2.12408e-06 -1.31301e-06 -5.36229e-06 
-2.54179e-07 6.34949e-06 8.6718e-07 -7.28358e-08 2.50186e-06 -9.09441e-06 -3.86523e-05 -9.64782e-06 -3.26534e-05 
-2.16422e-05 -2.7367e-05 -1.07173e-05 -3.32143e-05 -9.05356e-06 -3.25782e-05 -1.33161e-05 -1.25413e-06 -2.7654e-05 
4.43811e-05 1.2577e-05 -1.0523e-05 -4.8265e-06 -4.14896e-05 1.32385e-05 3.13521e-05 1.64028e-05 3.34361e-05 
2.41729e-05 3.13674e-06 2.41699e-05 3.23523e-05 2.27158e-05 -2.09984e-05 2.47464e-05 8.99766e-07 -1.52935e-05 
-2.06117e-06 -1.44341e-05 -2.77061e-08 -1.11826e-05 2.13666e-06 -1.48953e-05 -1.76783e-06 -1.50178e-05 -2.01679e-05 
-8.22795e-06 -1.42653e-05 -5.00589e-06 -2.37404e-05 -1.67752e-05 -1.40944e-05 -2.12586e-06 2.29306e-05 7.18085e-06 
3.0521e-05 5.62386e-06 5.87963e-06 3.26915e-05 1.16247e-05 0.000262516 -0.00124702 -0.00148959 1.91612e-07 
3.41829e-05 -3.42469e-06 -0.00605142 -0.013434 -1.41242e-06 1.65005e-06 0.0314049 -0.00307938 -0.00127766 
0.000452972 -2.39855e-05 5.7664e-05 -1.75782e-05 3.50285e-06 6.49048e-06 -1.03952e-05 2.16885e-05 -1.44228e-05 
3.56829e-05 -1.09112e-05 2.50743e-05 -4.6827e-06 2.01432e-05 -4.62386e-06 1.62532e-05 -7.2667e-06 1.61287e-05 
-2.74669e-06 1.25091e-05 -3.53335e-06 8.64175e-06 -6.0453e-06 8.82568e-06 -9.60024e-06 1.10509e-05 -1.81961e-05 
1.81614e-05 -2.95953e-05 2.12394e-05 -4.35588e-05 3.40348e-05 -4.83806e-05 4.41027e-05 -4.22532e-05 5.15803e-05 
-2.75946e-05 5.38785e-05 -1.17688e-05 3.46273e-05 2.42172e-06 1.33097e-05 1.24129e-05 -3.60559e-06 1.24172e-05 
-2.31643e-05 2.28674e-05 -4.52037e-05 2.51299e-05 -4.3656e-05 1.90602e-05 -4.05254e-05 1.52544e-05 -3.29756e-05 
5.18559e-06 -2.01314e-05 2.99946e-06 -8.73902e-06 -4.61708e-07 -2.05544e-06 -1.07651e-06 1.46703e-06 -2.55532e-06 
4.19036e-06 -5.78131e-06 5.53228e-06 -6.19529e-06 6.86485e-06 -6.03935e-06 6.93232e-06 -2.81375e-06 5.93983e-06 
-1.60364e-06 5.35466e-06 -1.26988e-06 4.72652e-06 -3.48089e-07 3.59408e-06 -1.44001e-07 2.68617e-06 -1.6568e-07 
8.26219e-07 -1.34454e-06 1.16882e-06 -3.7645e-06 2.17767e-06 1.2259e-06 -6.26723e-07 3.61279e-06 1.30339e-06 
1.42026e-06 9.00368e-06 8.58553e-06 6.27264e-06 4.53416e-06 4.08388e-06 3.7781e-06 4.4055e-06 3.65726e-06 
1.85243e-06 2.3345e-06 1.19309e-06 7.58323e-07 -7.51155e-07 -9.60651e-07 -1.61846e-06 5.96802e-06 8.00977e-06 
7.67394e-06 2.6581e-06 6.32685e-06 6.76471e-06 9.15513e-06 6.96864e-06 9.28524e-06 7.19807e-06 9.87368e-06 
8.42086e-06 8.02196e-06 -1.18571e-06 4.54355e-06 6.51178e-06 5.29709e-06 -4.2139e-06 -4.51079e-06 -5.11271e-06 
-2.65739e-07 -1.5407e-08 2.08192e-06 1.62918e-06 3.36142e-06 3.0567e-06 4.67873e-06 4.09606e-06 3.07652e-06 
-2.14883e-06 2.70263e-06 4.2509e-06 1.0222e-06 6.0321e-06 0.00064207 -0.000780436 -1.44472e-05 -0.00134739 
0.000223833 3.25929e-05 0.000615496 -0.000284518 0.000249729 -0.000405948 0.000806183 -0.000391378 0.000761967 
0.000549022 -1.74857e-05 0.00014124 -4.95487e-05 0.000249981 0.000337788 0.000243276 -8.46814e-05 0.000103704 
0.000496215 8.66192e-05 0.00051311 -0.00325893 0.000212346 -0.000664281 0.000538213 -0.000516519 -0.000661924 
8.99963e-05 -0.000883501 0.000633481 0.000688171 -7.84956e-05 6.39347e-05 -4.73977e-06 2.99597e-06 6.49818e-06 
1.96578e-06 0.000290493 -0.000214402 0.000700252 -0.00016689 2.00475e-05 0.000290762 0.000414094 -0.000313696 
0.000149268 -0.00316564 0.000466706 7.4503e-06 0.00127556 0.00152921 0.000913466 -0.000303574 0.000249993 
-2.5726e-05 7.63182e-05 1.61397e-05 0.00180189 0.00104116 0.00153297 3.52443e-05 3.13662e-06 0.000932544 
7.69025e-06 0.000382825 1.27201e-05 -0.000233389 -0.000123519 0.000119175 7.61464e-06 -0.000225296 -0.00135574 
0.000138113 0.000857048 -4.68531e-06 -2.89436e-06 0.000830987 -0.000469834 0.00205866 0.000150353 -0.000999034 
0.00108305 -0.000177126 -0.00346292 -0.00412109 0.00603146 0.000917967 -0.000740393 -0.00429003 0.00101319 
-1.74296e-05 1.38187e-05 5.62723e-05 4.11281e-05 2.6815e-05 1.42407e-06 -6.53074e-06 -2.81041e-05 0.00633307 
0.000544466 0.00114007 -0.00498451 0.00544765 -2.64674e-06 1.44217e-06 -5.72505e-06 -5.64053e-06 -5.1379e-07 
-6.00056e-06 4.01864e-05 1.92091e-05 -7.81597e-06 3.35862e-05 -3.62466e-06 8.01754e-06 1.88237e-07 -2.12532e-06 
-1.5461e-06 1.98587e-08 2.52639e-06 3.06538e-06 -2.04043e-07 -3.30577e-06 -2.04441e-06 -2.1873e-06 -2.91469e-06 
-4.55809e-06 -1.47211e-06 3.90834e-06 -1.06114e-06 1.59308e-07 1.18994e-06 -0.000123897 -0.000275258 1.12544e-05 
-0.000116835 6.99158e-07 -8.07884e-07 1.13876e-06 3.6548e-06 -1.60803e-07 4.1643e-06 -3.80873e-06 9.65242e-06 
-1.88342e-06 -3.28162e-05 -3.43576e-05 -1.58141e-05 -5.55191e-07 -1.88651e-06 2.63179e-06 -1.41405e-06 -4.91164e-06 
1.04385e-05 -4.59388e-05 -1.02864e-05 1.96726e-06 -1.86729e-06 1.03313e-06 -1.2147e-05 -3.30341e-06 1.80857e-05 
3.0508e-05 -3.32706e-06 -2.18031e-06 -2.07572e-06 -8.57879e-07 -0.00136065 -6.85353e-08 -2.45673e-07 -1.71159e-06 
7.42917e-07 -3.69649e-07 -6.26093e-07 -9.61236e-06 -9.09466e-06 1.04182e-06 -1.74812e-06 -3.80046e-07 -1.5859e-06 
-4.93059e-06 2.18006e-06 -3.60139e-06 -1.20135e-05 -4.34203e-06 -6.29565e-07 -2.2845e-06 1.25337e-06 -1.51498e-06 
1.99419e-06 -4.34775e-05 -5.68269e-05 -2.39762e-05 1.00203e-06 0.000200454 1.38691e-05 -0.000108522 -0.000121393 
-0.000621406 -0.00016942 -8.19849e-05 -4.56318e-06 2.23676e-06 -2.89969e-06 -0.000278425 -0.00183352 0.000223389 
5.22132e-07 4.12977e-06 -3.81165e-06 1.80367e-06 6.04544e-06 -3.87943e-05 -4.50223e-06 5.84951e-05 -2.12219e-06 
1.98013e-06 -2.85872e-06 -3.5431e-06 -1.8207e-06 1.28183e-06 -4.13596e-06 -3.18479e-06 -1.81919e-06 -1.90025e-06 
-3.27814e-06 -4.68093e-06 -5.86157e-06 -1.03761e-05 -8.58701e-06 2.76892e-05 -4.06523e-06 1.95453e-05 -0.000740161 
1.31169e-05 5.29762e-05 1.41968e-05 1.03177e-05 -9.98447e-06 -1.33963e-05 -1.87672e-05 2.11803e-05 -1.01677e-05 
-3.45582e-06 -3.22587e-06 2.83852e-06 2.25318e-07 1.65354e-05 -4.59376e-05 -1.45733e-05 -3.86012e-06 4.23733e-06 
-6.52758e-06 -2.02086e-05 -0.00066062 1.8521e-05 0.000275863 -3.09436e-06 -2.18799e-06 0.00142575 -0.00152182 
0.0016327 -2.4714e-06 -2.25416e-06 -1.56322e-06 -0.00341713 -0.00010578 1.9369e-05 -0.000283705 -1.57631e-06 
-2.92151e-06 1.66821e-06 -1.05809e-06 -4.0584e-08 -5.66229e-07 -2.39727e-06 -7.52087e-06 1.96863e-05 -5.04226e-06 
-1.20505e-05 -2.35221e-06 -1.46097e-06 -7.5158e-07 -0.00324096 -0.00400199 -0.00381343 -1.67764e-06 -3.22576e-06 
-2.35501e-06 -3.29509e-06 -2.58324e-05 -2.37441e-05 -3.42987e-06 4.47957e-05 -7.06549e-05 9.79905e-07 -3.91751e-06 
4.58822e-08 -2.21246e-06 0.00759214 0.00054966 -0.00722965 3.95168e-05 0.000160757 0.000309425 1.65336e-06 
-5.13929e-07 -5.45915e-07 2.02294e-05 -3.01045e-05 -1.80749e-05 4.31171e-05 9.13711e-06 2.54946e-05 2.73627e-05 
-8.10996e-06 -4.69761e-06 3.99246e-06 1.15524e-05 8.13738e-06 3.16699e-06 1.21419e-05 3.44315e-05 2.08379e-05 
2.24067e-05 -1.14367e-05 -1.56126e-06 -3.10975e-05 -1.51798e-05 4.7556e-05 -2.82133e-05 -2.29988e-05 -8.76161e-06 
7.86344e-06 2.6178e-05 0.00180167 -2.95057e-05 -5.15808e-06 3.45384e-06 1.73801e-05 2.13365e-06 -2.65742e-06 
4.98998e-07 1.3431e-06 1.29291e-06 4.87101e-06 -6.63304e-06 2.71667e-05 2.42884e-05 3.88281e-05 6.17462e-05 
1.10294e-05 -0.000103851 -7.0451e-05 -0.000210834 -0.000633227 0.000498851 0.000372915 0.000819368 -5.26477e-08 
2.04876e-06 5.38678e-06 1.41128e-05 -2.49117e-06 2.96915e-06 -3.30454e-05 -2.54804e-05 1.32005e-05 -7.60738e-07 
4.07522e-06 -2.31578e-06 2.11175e-05 4.48907e-05 4.55123e-05 2.58951e-05 6.61764e-06 3.13728e-05 5.70729e-05 
-0.000883017 0.00104185 0.000517447 4.97739e-06 -2.33336e-05 1.09777e-05 -3.91699e-06 -2.13323e-06 -6.74857e-07 
1.73985e-06 2.07418e-05 7.07623e-06 -9.12529e-06 -2.74686e-06 4.00311e-06 1.08011e-05 1.38725e-06 8.82032e-06 
-2.89858e-06 -1.92026e-05 1.88013e-05 2.82857e-05 -2.38005e-05 3.34841e-05 1.48913e-05 5.49673e-06 1.37574e-05 
-2.74547e-05 -3.1172e-05 4.32809e-05 -4.25223e-05 -1.34529e-05 7.86639e-06 -2.09748e-06 -3.91449e-06 -1.94311e-06 
2.7456e-06 -1.21378e-06 2.24198e-06 0.0032411 -0.00398258 -0.00057933 0.00027146 -0.000661957 -0.00168558 
-1.10096e-05 1.96253e-06 2.77353e-05 -1.37277e-06 4.53256e-06 5.0569e-06 1.39228e-06 4.49806e-06 -1.75269e-05 
-2.415e-07 -4.05909e-05 3.04252e-05 -9.88923e-06 -3.86165e-05 2.06022e-05 0.00023605 8.34071e-05 0.000101734 
-0.000215816 1.23746e-06 2.60852e-05 -2.49261e-05 -2.41108e-07 -1.56898e-06 -2.19406e-06 1.09923e-06 0.00068847 
-4.02505e-05 -6.77555e-05 -1.32012e-05 -2.83699e-06 -4.85939e-06 -2.05714e-06 -2.97656e-07 -3.37696e-06 1.14555e-05 
-4.49861e-06 2.46742e-06 -8.28022e-07 -2.89447e-06 3.47226e-06 -3.91738e-05 3.98623e-05 2.84263e-05 0.000155376 
0.000318452 7.38351e-05 -0.000542759 0.00195191 -0.00015677 9.32904e-06 1.77588e-06 -2.70712e-06 -2.04853e-06 
-3.53625e-06 -7.8377e-07 -0.00106627 -0.00107287 8.48407e-06 -0.00024975 -3.72383e-05 -0.00204612 -0.00648711 
-0.000849409 0.000683621 -5.91895e-05 -2.90503e-05 3.79399e-05 0.00769594 -0.00285306 -0.00604712 9.28215e-05 
6.72833e-05 2.98577e-05 6.45786e-05 3.57581e-07 2.11887e-06 4.27396e-06 -0.000294898 4.84985e-05 -6.27755e-05 
-6.99453e-05 2.13787e-05 6.36682e-06 -2.20686e-05 -4.30541e-05 -0.0011731 -0.000298407 -6.72591e-07 -7.6639e-06 
-8.34596e-06 3.7117e-06 -1.91528e-06 3.45269e-07 -0.00202856 -0.000960469 -0.00349237 3.75945e-05 3.68244e-05 
3.37836e-05 3.3379e-05 -0.00236389 -2.07988e-06 0.00615163 -0.0067001 0.000542098 0.00828092 6.14152e-08 
-5.77069e-07 8.55392e-06 1.12663e-05 -2.96057e-07 6.00378e-07 -1.96873e-06 -3.0503e-07 -1.31885e-06 -8.47886e-06 
2.95656e-05 2.67467e-06 -0.00508141 0.00575538 -0.00240746 -2.47535e-06 -4.7023e-06 1.71359e-06 -1.36504e-05 
3.06416e-06 -2.69836e-06 -2.55243e-06 1.59217e-05 -4.17792e-05 -1.12957e-05 0.000830717 -0.00425108 0.00566096 
0.000116721 -0.000192535 -1.8963e-05 -8.73992e-05 9.03296e-05 1.52375e-05 5.97599e-05 -0.00535715 -0.00318803 
0.00580651 -0.00362535 -0.00479511 -0.00320688 0.000402572 4.39388e-06 -4.66352e-05 -7.57868e-06 1.64674e-06 
-5.07988e-05 -0.00115069 -0.000167765 0.000113053 -1.37692e-05 -0.000103347 -0.000128647 3.03899e-06 0.000196877 
-3.25506e-05 1.12544e-05 -7.87249e-06 -1.27233e-05 -1.31916e-05 1.95238e-05 1.28946e-05 1.68795e-05 3.66369e-05 
1.7993e-05 1.40913e-05 -4.63472e-06 1.31598e-05 4.60466e-07 1.50941e-07 3.15627e-06 8.16443e-05 2.23133e-05 
1.59205e-05 4.50033e-07 -1.61312e-06 3.19278e-07 2.08438e-06 5.93285e-06 9.26674e-09 2.76839e-06 -1.10146e-05 
-1.32238e-05 3.17908e-06 -7.43468e-06 5.75935e-06 -6.72531e-06 -1.72735e-06 -3.25714e-06 -2.35661e-06 -3.75199e-06 
-2.05e-06 -3.46531e-06 -2.92742e-06 -1.11337e-06 2.85573e-07 -1.89655e-06 -4.83759e-05 -0.000124484 -3.76514e-05 
2.01385e-06 5.62148e-05 0.000143306 5.94958e-05 0.000357599 -0.0071672 0.00791883 -8.41071e-07 -4.07688e-06 
-1.29115e-06 -2.68451e-06 2.95529e-06 1.53559e-05 4.23196e-06 8.62941e-06 -1.54231e-06 -8.08748e-07 8.25787e-07 
7.41312e-06 -4.98425e-05 2.0707e-06 2.4778e-08 -8.75984e-07 1.13475e-06 -3.63586e-06 -3.03637e-06 -2.45373e-07 
-5.21801e-07 4.91308e-07 -3.98113e-07 2.36971e-05 3.36093e-05 -2.33866e-05 8.20695e-07 -5.84137e-07 2.43873e-06 
8.34679e-07 8.73185e-07 1.65241e-05 2.46275e-05 -9.2421e-06 -3.71661e-06 8.34087e-07 -5.14249e-06 -7.94431e-06 
0.000130158 2.74661e-06 -2.78802e-05 -5.04942e-06 -1.21042e-05 3.00511e-06 -4.92101e-05 -0.00636492 0.00728262 
2.60865e-05 -1.18612e-06 -4.75696e-06 1.35014e-05 1.94131e-05 3.13007e-06 -5.10893e-06 -1.38159e-05 -4.628e-06 
-2.29368e-06 -3.84056e-06 -0.00196018 0.00765766 -0.00321718 1.10947e-06 -3.43702e-05 4.20957e-05 2.08123e-06 
-3.11864e-06 -4.24936e-06 -2.81329e-06 3.14504e-06 -1.10286e-06 -2.29435e-06 -3.22489e-06 -3.20064e-06 5.28912e-06 
1.3624e-05 -9.04161e-06 -5.64812e-06 4.4463e-08 4.54568e-06 -4.83534e-06 -4.16192e-06 -1.80608e-06 -2.45897e-05 
2.36281e-05 1.17387e-05 7.73841e-06 -8.00327e-06 -1.14377e-05 -1.6416e-05 -3.87705e-05 5.77892e-06 -3.08668e-05 
-6.5943e-06 4.62768e-05 5.38249e-06 -2.60786e-06 -1.371e-06 -2.908e-06 -2.61072e-06 2.65387e-06 1.90364e-06 
-2.40671e-06 -1.12727e-06 8.16976e-06 -4.50896e-06 2.72474e-05 -4.26414e-06 -1.01659e-05 -2.17988e-05 0.000320349 
0.000286331 7.06349e-07 -8.72385e-06 4.02549e-06 5.64626e-06 -0.00556415 -7.64092e-07 4.39911e-06 6.79505e-07 
1.64464e-06 -5.26741e-07 4.22537e-06 -4.01535e-06 -2.6958e-06 -2.71098e-06 -0.00113229 -0.00100142 -1.4837e-07 
3.46203e-06 -1.91325e-05 7.0354e-06 5.83967e-07 -4.58635e-07 3.18774e-06 4.46953e-06 4.78597e-07 -2.20598e-07 
1.83971e-06 -8.19625e-05 2.73757e-05 -2.43258e-05 3.99023e-05 -3.4362e-05 1.01896e-05 -0.00306852 1.30936e-05 
-1.34507e-05 -1.21119e-06 2.17392e-05 -8.45299e-07 -1.50243e-05 -1.05981e-06 -1.47793e-06 -5.0469e-07 3.04818e-06 
2.3229e-06 1.52778e-05 -3.71348e-07 4.96132e-06 1.99391e-06 -2.07564e-05 6.33999e-06 -1.56791e-05 -2.08809e-06 
-5.71331e-07 1.75413e-05 6.14728e-06 -1.8608e-07 -1.28736e-06 3.70753e-06 -7.88392e-07 3.15918e-06 -1.52501e-06 
6.89332e-07 -5.24212e-06 -0.000711578 -0.000585076 0.0011167 -1.0889e-05 4.39483e-06 -1.20429e-05 5.02624e-07 
9.66282e-07 -1.30744e-06 -1.04934e-06 1.95897e-06 8.02351e-07 6.24725e-07 1.36879e-06 2.2247e-05 -5.44354e-06 
-2.9156e-06 9.06801e-06 5.93153e-06 1.25513e-06 1.7267e-06 3.33222e-07 -0.00170606 1.15477e-05 5.12929e-06 
-4.1417e-06 -2.47777e-05 -8.7281e-06 -1.02767e-05 -1.76801e-05 1.67699e-05 -3.47494e-07 1.88079e-06 -3.34706e-06 
6.60478e-05 1.32094e-06 -2.76848e-05 -8.64814e-05 -1.36363e-05 -5.112e-05 1.1447e-05 4.22534e-06 9.11925e-07 
2.26796e-08 0.000264634 -0.000309316 0.000134208 3.13196e-06 -6.00892e-05 -4.31939e-05 -3.19466e-05 -0.00247042 
0.00533597 -0.00258102 -4.9975e-06 3.27077e-05 1.28424e-05 1.64729e-05 1.27722e-05 -8.40637e-06 -3.61006e-05 
-1.61132e-05 2.73634e-06 1.43035e-06 4.43361e-07 -1.89837e-05 -4.22299e-05 2.21735e-05 -1.2083e-06 1.20523e-05 
-0.00149358 0.000619242 -0.000880784 -9.55851e-06 2.08554e-06 4.03598e-06 3.23701e-07 -1.48631e-05 9.33837e-05 
6.07613e-05 -3.83951e-05 2.19801e-05 -6.96167e-05 1.26403e-05 6.71926e-06 -1.84276e-08 8.90554e-09 -2.74254e-06 
-3.55268e-06 -8.9551e-07 4.34855e-05 -3.51831e-05 3.99469e-06 -5.22461e-06 8.33327e-06 0.00068657 -6.85649e-05 
-0.000995221 4.33801e-05 0.000125278 7.69184e-05 -0.00282644 -0.00335067 -0.00625899 2.4561e-05 1.83509e-05 
-2.77234e-05 -2.97059e-06 -5.09497e-07 2.3542e-06 7.61165e-07 0.00108849 -3.1544e-06 -2.92706e-06 -2.1111e-05 
-1.59891e-05 4.00735e-06 -3.82081e-05 -8.71813e-05 1.00638e-05 1.35222e-05 9.28683e-06 -0.000266843 6.39623e-05 
-9.08546e-05 0.00011859 -0.000125372 -0.000365431 -5.67592e-05 -5.24838e-05 -7.26184e-05 1.75017e-05 -2.20354e-05 
0.000525779 4.31319e-05 -1.27851e-06 5.34684e-06 -9.07805e-05 9.74785e-06 -0.00269266 0.00781462 -0.00491763 
2.71973e-05 4.84071e-05 -3.46022e-06 5.73475e-06 -2.57629e-06 6.4902e-06 2.32115e-05 1.36091e-05 -0.0082419 
0.00723405 1.37735e-05 -7.00376e-06 3.23649e-06 -7.78737e-06 -1.0661e-06 -4.29499e-06 5.29951e-06 -1.43248e-05 
2.51177e-05 -1.01017e-06 -1.29379e-05 -3.00938e-06 -0.00155766 0.000661814 0.000350468 -0.000911376 -0.000101168 
-0.000104731 1.68256e-05 -0.000789245 -6.6577e-06 4.01006e-05 -0.000130292 0.00771496 0.000842555 -3.70901e-05 
2.42689e-06 6.88337e-05 4.12461e-05 3.65751e-06 -8.90599e-06 7.76164e-05 5.88016e-05 0.00819165 -0.00278501 
-0.00519465 6.71061e-06 5.89644e-06 -2.00341e-06 5.5987e-08 2.46033e-05 3.26707e-05 -3.33483e-06 -2.99382e-06 
1.6393e-06 -0.0076786 3.3263e-06 -1.61735e-06 5.20991e-06 0.000611508 -2.49207e-06 2.66262e-06 -7.17774e-07 
-0.00464639 -0.00286155 0.00602232 -0.00391972 -4.52772e-05 0.000177604 -6.16747e-05 9.16284e-06 -1.51984e-05 
3.06376e-05 -2.90595e-05 2.08185e-05 2.43389e-05 -4.78845e-05 -1.08053e-05 -4.9903e-05 1.79919e-06 0.000359756 
-7.49989e-05 -3.95009e-05 3.33142e-06 6.09851e-05 2.85601e-05 0.000679752 -3.62986e-05 -1.22017e-05 -4.86195e-06 
-4.6527e-05 -9.22111e-05 -5.43376e-05 -3.47133e-05 -9.60346e-05 -1.32814e-05 -0.00288866 -0.00102825 -0.000150812 
7.33684e-05 -0.000115013 2.59475e-05 -4.862e-05 -7.48353e-07 -0.000937152 -7.95123e-05 -0.000106992 1.5381e-05 
-0.000424617 0.000967568 0.000108287 -3.15851e-05 -7.61818e-05 -1.69573e-05 -8.37969e-05 -5.98976e-05 -7.12982e-05 
-0.00383293 -0.00472384 -0.00283307 -0.00721672 0.00759162 0.000655553 7.00409e-07 -4.06625e-05 1.43204e-06 
6.72301e-05 0.000174459 0.000470164 0.00160141 -2.79992e-06 -3.10234e-08 -2.3649e-06 9.53932e-07 -2.36287e-06 
4.75776e-07 4.03024e-05 -9.79079e-06 4.20704e-05 -5.03276e-05 7.88904e-07 -8.43485e-07 -2.62327e-06 0.00585254 
0.000798672 -0.00537639 -0.00552147 -0.00246482 -4.42894e-06 7.42964e-07 3.14607e-06 2.43429e-06 1.21986e-05 
8.33382e-05 4.20772e-06 -3.85601e-07 8.08128e-07 1.38368e-06 3.09148e-06 -9.87521e-07 -2.0087e-06 -1.76131e-05 
-2.67651e-05 -3.7154e-09 -1.54282e-06 6.57056e-07 -2.72072e-07 -1.62422e-06 2.11713e-06 7.94539e-05 -2.02143e-05 
-1.16697e-05 -2.68387e-05 1.36328e-05 1.77229e-06 3.45785e-06 4.56045e-06 1.53886e-06 1.82877e-06 4.26155e-05 
3.89987e-05 -3.23133e-05 -3.08846e-06 4.90141e-07 -4.31435e-06 -9.72447e-07 -3.99858e-07 -2.49014e-06 3.57122e-06 
-2.22659e-06 2.5127e-06 -1.72265e-06 -3.27397e-06 -2.38416e-06 2.07043e-07 -4.15063e-06 -4.10637e-06 -6.91644e-06 
-6.7486e-06 6.16246e-08 0.000172426 9.84442e-06 5.42463e-06 -2.7011e-05 -3.44847e-06 -2.78559e-06 3.4504e-06 
-1.8255e-06 0.00144818 -0.000277985 0.000547771 1.44453e-05 -3.11077e-05 3.89382e-06 3.9514e-05 -1.13348e-05 
-6.89192e-06 -3.19878e-05 3.25071e-06 -7.60126e-06 1.77651e-05 1.53986e-05 -3.36348e-05 3.06392e-06 7.56271e-07 
9.07681e-08 -2.7945e-06 -3.78374e-06 -1.98131e-08 2.9797e-08 -2.35775e-06 5.60234e-07 -5.20561e-07 -3.82818e-06 
-2.49972e-06 -5.08144e-05 2.1909e-06 2.88166e-06 0.00055694 -0.000843464 -0.000850584 0.000695668 -4.97525e-05 
-0.000973927 -2.15516e-05 7.97775e-06 0.000135009 0.00128805 3.8391e-05 3.11484e-06 3.89854e-05 -9.79272e-05 
-7.67938e-06 -1.72127e-05 3.52925e-05 4.80137e-06 -3.338e-05 -5.65611e-05 -2.34424e-06 4.50615e-07 -2.54375e-06 
1.82589e-06 -4.62314e-05 -6.29517e-06 1.79668e-06 -1.11676e-06 -1.77858e-06 -8.45905e-07 8.53566e-07 3.85381e-06 
-1.7825e-06 -2.08333e-06 7.97771e-07 -2.14718e-06 2.42606e-06 5.85993e-07 -1.98509e-06 -3.98395e-05 4.98708e-05 
-2.09337e-05 2.97255e-06 -0.00110443 -0.000326747 -0.00747516 -3.42222e-06 2.39886e-07 3.05681e-06 -1.02628e-06 
-5.12823e-05 2.00653e-05 -3.85314e-05 -8.22594e-06 -5.51903e-07 2.15822e-06 2.89701e-06 -3.25534e-06 5.5347e-05 
-4.22924e-06 1.92245e-05 -0.00348393 -9.86935e-05 -0.00019678 -3.08669e-05 -1.9974e-06 -2.76636e-06 -1.08846e-06 
2.07406e-07 -3.01233e-06 3.63731e-05 -2.12918e-05 1.32314e-05 -2.23318e-05 -0.000106869 0.000554217 -0.00781713 
-3.69575e-08 7.42895e-06 -1.7856e-06 -2.77799e-05 6.01459e-05 -0.000255154 -0.00012731 -0.000977186 -9.48428e-05 
2.09072e-05 1.31466e-05 9.77802e-06 3.90926e-05 5.13818e-05 -1.49546e-05 6.31987e-06 -1.54648e-05 1.08166e-05 
9.12475e-06 -1.04238e-05 -3.83119e-06 -0.00455991 0.00347267 0.00112757 -6.5859e-06 0.00098811 0.00649202 
1.17581e-05 -5.64906e-06 6.81666e-06 -7.2362e-06 -4.4664e-05 5.5626e-05 -3.40553e-05 8.39546e-05 -2.12802e-05 
-2.47411e-05 7.15561e-07 -1.03014e-06 -2.18981e-06 -2.05709e-05 0.00183013 -0.00273388 0.00219978 1.38064e-05 
-4.32899e-06 7.66173e-06 1.37612e-05 1.64529e-05 -8.49617e-06 -1.16957e-05 -1.12251e-05 1.48052e-05 -5.62129e-05 
-9.0106e-05 -5.55184e-06 -3.65463e-06 -2.61658e-06 -7.26682e-07 -1.53388e-06 0.000363046 0.000917799 -0.000834001 
6.43999e-06 7.02781e-05 -2.92279e-06 -2.15998e-06 -7.3443e-06 8.39882e-06 3.79567e-06 -3.84313e-06 3.77712e-06 
-1.38519e-06 -0.000107825 0.00435786 -1.66092e-05 -8.20391e-06 -2.41514e-05 2.73027e-05 1.21598e-05 0.000688097 
0.00055727 -9.62396e-06 4.24688e-05 -4.55763e-05 1.47473e-06 0.00191804 -0.00356293 -3.85398e-06 1.29764e-05 
-6.89531e-05 -0.000150147 -0.000415454 0.000405906 0.00167275 1.01432e-05 -5.00553e-05 -1.22709e-05 1.58665e-06 
-2.87667e-06 2.49702e-05 -1.5144e-05 -1.99336e-05 2.36714e-05 -4.49322e-05 0.000690479 -0.000315323 0.000334955 
-0.00778701 -0.00765627 -1.51187e-06 -3.70313e-06 -3.84892e-05 -5.01568e-05 0.000104215 4.21501e-05 -4.36578e-06 
-8.79978e-06 -1.0463e-05 6.30945e-06 5.74254e-06 -3.38351e-05 1.31993e-06 -7.60965e-07 0.000591306 -2.8517e-05 
-7.58301e-07 1.31038e-06 1.17556e-06 5.91163e-06 -0.00149317 -5.06984e-06 -2.04414e-06 2.07349e-07 4.39413e-06 
-0.000850924 0.000400042 6.06915e-06 -8.82129e-05 -6.78461e-05 -6.25954e-05 8.94549e-06 8.39098e-05 2.10087e-05 
-4.56307e-05 -0.000201727 -5.66088e-05 -0.000253887 -0.000950081 0.000979492 -1.02176e-07 3.72219e-06 0.00666881 
-0.00576429 0.000732768 -3.41844e-06 -4.64381e-07 4.57832e-06 -1.97625e-05 -3.93044e-05 1.6076e-05 -5.24332e-05 
1.99261e-05 -4.32339e-05 -0.000104922 0.000935325 -0.00484976 5.23815e-06 -2.27168e-06 3.4172e-06 4.41757e-05 
1.82577e-05 1.17041e-05 2.5608e-05 3.95539e-06 -0.000124119 3.84613e-05 2.89275e-05 3.26123e-05 -3.04039e-05 
3.43407e-05 -9.78649e-06 9.20253e-07 2.54145e-05 1.57514e-06 1.96731e-05 -9.87701e-05 -4.35868e-05 -8.08696e-07 
-2.25152e-05 1.24337e-05 -3.87565e-06 -3.72905e-06 -3.50063e-05 1.78378e-05 0.00147932 0.000845603 -0.000100208 
-1.65417e-06 -1.62866e-06 -9.47556e-06 -3.74156e-05 5.34156e-07 -4.87162e-06 -6.14968e-08 -3.52854e-05 -1.7296e-06 
-1.11948e-05 -1.71616e-05 3.42689e-05 4.31414e-05 1.35508e-06 1.48092e-06 -7.03154e-07 4.5316e-06 4.21358e-05 
-3.71279e-05 -1.26094e-05 2.21025e-05 -2.75461e-05 -7.54273e-06 -1.26712e-06 1.70264e-05 -1.924e-06 1.59708e-06 
2.28437e-06 -6.55169e-07 -4.50716e-07 4.20184e-06 4.87546e-07 -5.86736e-06 8.60519e-05 -0.000167257 -3.03059e-05 
0.000101629 -1.10337e-06 -2.47896e-06 -5.38895e-06 2.13846e-06 -0.00472352 -1.04908e-05 -0.00211193 -0.00211064 
-5.0956e-06 0.00512887 -0.000598601 -6.18458e-05 5.96451e-05 -4.66692e-06 -0.00116568 4.52903e-05 0.000134929 
-0.00829197 -7.60116e-07 -2.09588e-06 -4.45714e-06 1.74263e-06 3.77488e-05 2.35684e-05 0.00381877 7.22825e-07 
5.85544e-06 2.74149e-05 -1.59662e-05 9.94819e-06 3.78237e-05 1.4677e-05 5.30933e-06 8.15415e-07 1.25862e-05 
-2.08374e-05 -5.81819e-05 3.2514e-07 1.65456e-05 -1.27706e-05 -9.3049e-06 -0.000119332 -7.86492e-06 7.47639e-05 
-5.92984e-05 6.27734e-08 -2.36953e-06 -1.10239e-06 -2.00576e-05 2.29008e-05 -7.77849e-07 -0.00237956 -7.12241e-06 
0.000438322 0.00594696 0.000423419 0.000406659 0.000637527 1.79263e-06 1.13025e-06 -6.42594e-07 8.84712e-05 
-1.99616e-05 0.000140194 -0.000234322 -0.000612838 -2.04922e-06 1.46699e-05 -1.582e-05 3.36416e-06 -1.60366e-07 
1.79138e-06 5.05133e-09 2.33877e-06 8.87319e-07 -4.76915e-06 -3.17408e-06 -6.64626e-07 -0.00683675 0.00054739 
2.126e-06 -4.61688e-07 -3.03279e-06 -3.6961e-06 1.11645e-05 1.40077e-05 -1.76201e-06 6.86115e-06 4.1202e-05 
-2.65923e-05 -4.64569e-06 -2.72507e-06 -4.10844e-06 -3.08279e-06 -1.60483e-06 2.49642e-07 -2.16372e-06 -1.49403e-05 
-7.35875e-06 8.29306e-06 2.45533e-05 -3.91719e-05 2.405e-08 -6.28698e-06 2.23478e-05 -1.35498e-06 -9.46356e-06 
3.55181e-06 -2.21629e-05 1.79187e-05 -1.92583e-05 2.05468e-06 -1.12681e-06 1.05627e-05 -1.25702e-05 -3.65812e-06 
3.71599e-05 -8.72175e-06 5.17163e-07 -8.87995e-07 -3.98597e-06 3.10429e-05 -3.86409e-05 -1.33117e-05 -1.66076e-05 
6.4434e-08 -2.40241e-07 -2.52831e-06 9.09696e-07 0.00119519 0.000382377 -0.000890739 -1.11209e-06 2.21962e-07 
3.11096e-07 1.49514e-06 -4.6695e-08 -4.35674e-06 -6.81496e-06 -8.82437e-06 8.31097e-06 -1.41177e-05 -9.13591e-06 
3.6475e-05 8.50605e-05 5.53385e-05 -0.0016692 -5.26076e-05 2.84945e-05 -1.26561e-05 -2.64823e-06 1.12986e-05 
1.11936e-06 3.30491e-05 3.43329e-05 0.00753507 -5.69513e-05 1.89307e-05 2.5132e-05 -1.13216e-05 6.12321e-05 
4.70971e-05 7.11462e-05 -5.76879e-05 -8.46886e-05 -9.2538e-07 8.04571e-07 -2.0308e-06 1.47067e-06 6.54264e-06 
1.29523e-05 8.89512e-05 -1.66501e-05 4.27549e-05 -8.71441e-06 3.08812e-05 -1.56045e-05 -1.49807e-05 2.87763e-05 
-0.00354041 -0.00502355 0.00849422 -1.94143e-06 8.55616e-07 -0.00332093 1.14408e-05 -0.00826591 2.25135e-05 
5.54659e-05 -8.58371e-06 -0.000135986 -7.96045e-07 -2.90157e-06 -1.50768e-05 2.05575e-05 -6.96181e-05 7.0402e-05 
1.48464e-05 -0.000641568 -9.87012e-06 -3.13535e-06 9.86694e-06 -1.97767e-05 -1.32183e-05 -1.67941e-06 1.62386e-06 
1.51539e-06 -4.43925e-06 -1.14154e-06 -4.14442e-06 -1.89794e-06 4.33504e-06 -5.25127e-05 -5.34114e-05 9.58936e-06 
-1.36898e-05 7.28008e-07 4.34024e-06 3.34338e-06 -8.25116e-07 -2.47167e-05 -1.16728e-05 1.58465e-05 8.94967e-06 
-8.36925e-07 4.76025e-06 0.000884146 -0.000873941 1.78124e-05 1.15654e-05 -3.56818e-06 2.32279e-06 -2.78256e-06 
-8.70032e-06 -9.16733e-06 -1.53723e-05 0.00017964 3.72962e-06 -2.93587e-06 8.87187e-06 0.000116956 0.000185445 
6.997e-05 1.75502e-05 -1.13598e-05 -4.25621e-06 3.2291e-06 -4.25848e-06 1.89917e-06 -0.00317329 -1.51758e-05 
9.17165e-06 -1.63723e-05 5.17537e-07 -3.51611e-06 4.42479e-05 5.94677e-05 7.37802e-05 2.80133e-05 -2.82008e-05 
4.96065e-05 4.58499e-05 1.27647e-06 -3.61802e-05 -1.47884e-06 -7.9644e-07 -3.36628e-06 5.4628e-06 7.02009e-06 
-1.97521e-05 1.78314e-05 6.96391e-07 5.37133e-05 -2.42036e-06 2.03637e-06 -2.99327e-06 1.1287e-09 -0.0027207 
0.00693159 2.92979e-05 3.0205e-05 -2.11711e-05 5.50614e-05 -0.000205397 7.75289e-06 2.61158e-05 -2.62239e-05 
-3.43194e-05 -0.00951556 -1.60496e-06 1.36513e-06 7.29195e-07 0.000564965 -0.000660423 -0.000776181 0.000920954 
0.000581835 -1.14642e-06 -1.94964e-05 -1.21653e-05 -2.07896e-06 6.13657e-06 2.1064e-06 -6.72695e-05 5.18772e-06 
-3.31375e-07 -5.954e-07 1.07149e-06 -2.89078e-06 -9.48338e-07 -2.30587e-06 0.000431573 -3.64628e-06 -1.24224e-05 
-1.86726e-06 5.96521e-06 2.42996e-06 3.8742e-07 9.00973e-06 -1.98012e-05 1.10457e-06 -9.9244e-06 0.000470248 
-3.95034e-07 4.53691e-06 -2.48653e-06 0.0057236 -2.71056e-06 -4.31272e-08 -8.22563e-07 -2.95895e-05 -3.49038e-05 
3.53142e-05 3.01327e-06 7.12823e-06 -2.18738e-05 4.41786e-06 -0.00689174 0.000429233 0.00663977 -0.00287867 
0.00297871 -7.7297e-07 2.3957e-05 -4.65361e-05 2.12236e-05 3.13098e-05 0.000470331 -0.000815274 0.000661692 
-8.06982e-06 0.000368155 0.000733316 -1.01179e-05 -5.46427e-06 7.67348e-07 2.30729e-05 1.9912e-05 -3.69683e-05 
-7.21431e-06 -2.66182e-05 -1.43743e-05 4.42195e-06 -0.00363793 0.00611036 0.00782438 4.56306e-06 2.0746e-05 
-4.47682e-06 1.45617e-06 2.90546e-06 2.01987e-06 0.000376082 -6.7511e-05 -0.00294894 -0.00367907 -3.59631e-05 
-1.10236e-05 1.69941e-05 8.29937e-07 3.46918e-06 7.38017e-08 -1.60872e-06 -4.36819e-06 9.41815e-07 -7.11607e-07 
1.55706e-06 2.96407e-06 -1.12967e-06 9.00692e-08 3.44164e-07 2.65764e-07 4.34433e-05 3.36492e-05 2.3564e-05 
-5.8271e-06 1.06714e-05 7.19493e-06 -1.35721e-05 -5.0045e-06 8.15593e-06 1.33547e-05 9.37895e-06 -3.81554e-05 
-7.7219e-05 4.70006e-05 8.64103e-05 -3.19425e-05 3.50403e-05 3.14881e-05 -1.59995e-06 1.03575e-05 1.381e-05 
-1.44276e-05 1.77015e-05 -4.74364e-06 -4.80509e-06 -2.49454e-06 -3.4469e-06 4.75143e-05 3.44641e-05 3.82876e-05 
-1.47174e-05 3.32839e-06 6.54891e-07 -3.69502e-06 -2.06225e-06 -0.00101087 0.0009666 0.00026861 4.09515e-07 
5.34833e-06 3.95241e-05 3.62022e-05 -4.74697e-07 7.16802e-07 -1.26012e-06 -0.000399418 -0.000127564 0.00109356 
3.72221e-05 -5.75907e-06 4.47067e-07 3.57901e-05 6.64349e-06 0.0035201 -0.010471 1.59484e-06 -3.58348e-06 
1.11018e-06 -3.60591e-06 2.02298e-06 -2.28628e-06 1.05035e-05 -1.92431e-05 1.16844e-05 -2.39323e-05 -6.90799e-06 
8.59308e-06 -1.16341e-05 7.81325e-06 8.75865e-05 0.000114934 -9.9555e-05 -3.87536e-06 3.33268e-06 3.54532e-05 
2.69936e-05 1.68974e-05 3.55005e-05 -4.19202e-05 -1.92789e-06 1.69411e-06 1.19411e-05 -1.4603e-06 -1.41464e-06 
7.81507e-06 -6.52529e-06 -8.25153e-07 -1.84528e-06 3.12263e-06 -5.18644e-06 5.81968e-07 -1.47505e-07 -4.034e-06 
1.38364e-06 -1.43416e-06 6.97051e-07 -1.61724e-06 2.85116e-06 -1.2348e-05 -1.78042e-05 -7.90838e-05 -1.61221e-05 
2.39226e-05 -6.46994e-06 -0.00374759 9.38697e-06 -2.98295e-05 5.85875e-06 -0.00273226 -0.00327506 1.31637e-06 
-2.56191e-05 2.68598e-05 6.08543e-06 -1.48596e-05 1.42494e-05 3.86715e-05 1.64837e-05 4.15172e-05 -1.23989e-05 
-1.13124e-05 0.00058773 -0.00078922 -2.6147e-05 -6.01638e-06 -2.61444e-08 -3.41916e-06 2.05892e-06 0.00154417 
-2.43625e-05 3.26888e-06 -4.1063e-06 -4.4226e-05 8.31863e-06 -4.4387e-06 2.8688e-07 3.36009e-06 -5.58071e-05 
2.37562e-06 -0.000157269 -8.24287e-06 -1.80544e-06 -2.94875e-06 -1.20084e-05 1.21004e-05 -4.8476e-05 -0.000157515 
-1.05772e-05 4.05536e-06 -3.26493e-05 -4.88425e-06 1.11703e-05 1.34995e-05 9.36399e-06 -1.91199e-07 2.83342e-07 
-2.79243e-05 -6.11521e-05 -5.42592e-06 -0.00012894 -1.50471e-06 -2.02492e-06 -2.84725e-06 -3.09741e-06 3.653e-05 
-1.84549e-07 -4.29465e-06 -5.53329e-06 -9.45948e-08 -8.58731e-05 -1.80956e-05 7.54088e-05 -4.25663e-05 1.6419e-06 
-2.39488e-05 1.05057e-05 -6.3733e-07 -1.07427e-05 -1.33073e-05 -1.70831e-05 0.000161891 -0.000359472 0.00246713 
-1.64407e-06 -2.55529e-06 -1.37738e-06 1.39958e-06 -9.3091e-06 2.7302e-05 6.98771e-06 -6.95377e-07 -1.40103e-05 
-1.65219e-05 2.51708e-05 4.05836e-06 4.91339e-06 -2.67709e-05 -1.19228e-05 -4.76126e-07 -5.1402e-06 3.63195e-06 
-1.74238e-06 -1.0147e-05 -5.7957e-07 -1.23463e-06 5.68232e-05 -0.000108554 2.77813e-05 0.00601833 -3.33803e-05 
-2.50966e-05 -3.11878e-05 -6.53314e-06 4.42982e-05 -1.53838e-05 -2.37634e-05 2.03453e-06 6.72491e-07 -2.57442e-05 
2.45872e-06 2.02441e-06 2.43157e-07 -2.56649e-05 3.26192e-05 -1.57788e-05 8.25171e-06 -7.14963e-06 -1.24379e-06 
-4.81409e-06 1.0299e-06 1.53469e-07 -2.99074e-06 3.23299e-06 3.47855e-06 -3.95386e-06 -3.43315e-06 -8.98981e-07 
-1.6212e-06 1.17431e-06 5.4875e-06 -7.36225e-06 -1.63487e-06 -3.10328e-06 -1.75257e-06 -5.69437e-05 -4.56572e-05 
5.5102e-06 -3.44549e-05 9.10466e-06 1.15698e-05 2.20531e-05 -2.7843e-06 7.40515e-06 -9.45135e-07 -1.46312e-05 
-1.68899e-05 -2.07457e-05 -3.53475e-06 -3.89846e-05 3.27144e-05 -1.20206e-05 8.95086e-06 -1.80138e-05 1.01834e-06 
-3.71598e-05 3.35418e-06 -4.79085e-06 -3.5754e-05 -2.02923e-07 -4.60815e-07 7.49346e-05 1.33556e-05 -5.53619e-06 
-3.79642e-05 -3.32349e-05 2.22042e-05 -3.98308e-06 -1.56083e-06 6.24246e-06 1.44198e-05 -0.00729761 0.000598332 
0.000402333 -4.72957e-05 -1.07071e-05 -9.629e-06 9.76013e-07 1.20413e-05 1.21111e-06 2.39093e-05 6.11843e-06 
-1.22112e-06 -4.3689e-06 5.38695e-06 4.06779e-05 6.01211e-05 5.64019e-06 -1.2112e-06 -1.77418e-06 -1.04074e-06 
4.54418e-06 -3.8471e-06 -3.05726e-06 1.60455e-05 -0.00647636 -0.00128014 -0.00303155 -3.46039e-05 -3.27739e-05 
5.58473e-05 -1.42021e-06 -1.36656e-05 -4.63279e-06 5.4247e-07 -1.08642e-06 -1.09843e-06 -3.22109e-06 2.5129e-06 
3.78658e-06 5.58843e-07 -1.05731e-06 -2.31125e-05 1.63685e-06 -2.0207e-06 3.46478e-06 -3.07971e-06 -5.87335e-05 
1.85727e-05 -2.47527e-05 -3.57708e-06 -2.99088e-05 8.13467e-06 -6.31179e-06 6.43654e-06 3.88618e-05 3.03478e-05 
6.99007e-08 -1.08629e-05 -3.21015e-06 -2.21358e-06 -5.61926e-06 -7.386e-06 9.50798e-06 -7.56898e-06 1.36333e-06 
1.98321e-06 -2.0198e-06 -2.50093e-05 1.33624e-05 -2.91662e-06 5.26678e-05 1.36716e-05 3.03277e-05 -1.33032e-05 
-1.1527e-05 -1.7874e-05 5.26488e-06 -2.53968e-05 -1.55067e-06 4.03268e-06 4.14174e-05 5.10218e-05 2.89556e-05 
2.54207e-05 7.77408e-08 -1.26887e-06 -1.12356e-06 1.13178e-06 7.00371e-06 -4.75068e-05 -1.72413e-05 3.06329e-05 
6.21098e-05 9.42606e-08 -5.08564e-07 8.32381e-08 2.41241e-06 2.77704e-06 -2.47588e-07 0.000132851 -1.6313e-05 
-3.62974e-06 -3.59052e-05 -6.24962e-06 1.03032e-05 1.73611e-05 -2.18422e-05 0.00598267 7.76678e-05 -5.45234e-07 
2.14163e-06 -7.62633e-06 -3.57438e-06 -2.79709e-07 -1.53771e-05 -3.06288e-06 -0.000220521 3.36832e-06 4.7631e-06 
2.00048e-05 3.62382e-05 -1.62758e-05 -1.111e-05 1.88273e-06 -4.83006e-06 -2.0849e-06 -6.43159e-05 -3.17129e-05 
8.10331e-06 -1.58855e-06 0.00853527 1.18745e-06 2.09093e-06 6.8973e-05 -1.89541e-06 -2.7879e-06 0.00807464 
6.36971e-06 6.86353e-06 4.23863e-06 -4.54335e-06 -2.58511e-06 -1.49534e-05 2.03634e-06 -5.75391e-05 -2.32351e-06 
-2.34276e-06 -1.48438e-06 1.29508e-05 -2.70463e-05 -9.16244e-06 4.34423e-06 2.82361e-05 3.03798e-06 1.59982e-06 
9.1195e-05 9.47564e-07 3.18152e-06 -6.70532e-06 -3.07988e-05 1.05324e-06 -3.27044e-05 7.31154e-05 0.000734274 
-2.25728e-06 -3.55453e-06 4.03281e-05 -1.39925e-05 0.00291052 -0.00200718 2.71251e-05 -0.000320402 -2.70645e-06 
-3.50382e-06 1.73141e-05 -3.37598e-06 -1.61021e-05 6.589e-07 -2.18259e-05 -0.000190001 -3.30487e-05 -2.94128e-05 
-3.83303e-05 3.0188e-05 -2.01856e-07 1.11824e-06 -0.000926803 9.10016e-05 2.45781e-06 1.77752e-06 -2.90801e-06 
-3.26064e-06 -2.73361e-06 -3.44281e-06 -2.31287e-06 7.05602e-05 3.87684e-05 -2.18832e-05 5.18625e-05 6.64103e-05 
8.90492e-05 -1.51973e-05 8.18421e-06 2.36509e-05 2.89308e-05 2.92016e-05 -0.000117075 -0.0074904 4.71815e-05 
5.56861e-06 6.69001e-06 1.08864e-05 -0.00011509 -1.70555e-05 2.73337e-05 0.000110013 0.0017172 -0.00193956 
-0.000111807 0.00772408 0.000774424 -0.000190331 -0.000796823 2.99943e-05 1.31079e-05 -7.15607e-06 -1.07377e-05 
-9.05996e-06 -0.00453544 4.00981e-06 1.06997e-06 2.90257e-06 -2.75451e-05 2.14175e-05 3.49799e-05 4.33626e-05 
1.20559e-05 3.04894e-05 3.26735e-05 0.00645201 0.000800948 0.00111255 -0.00035451 -0.000696251 -0.0197304 
-0.00466971 -1.37646e-06 -5.15233e-06 2.05265e-05 -7.1411e-05 2.2128e-05 -0.00141559 0.000589154 0.000487945 
-1.2331e-06 -0.00141982 0.00594786 0.00102714 2.1194e-06 1.03739e-05 0.000121062 0.00138038 0.00119137 
-0.00176983 0.00422581 0.000986981 -1.67064e-05 -7.64244e-05 -2.80584e-06 -0.00353186 -7.30033e-05 1.4e-05 
-1.92258e-06 -1.71626e-07 1.20043e-05 1.90682e-06 1.46869e-06 -6.10517e-07 1.20185e-07 -0.000817269 0.000770106 
0.00877139 -0.00363033 -0.00371878 1.4694e-07 -2.17991e-07 2.26722e-06 -3.15834e-06 -0.000922733 0.000371568 
-4.293e-05 -7.36596e-05 -5.0485e-05 3.89639e-05 -1.47813e-06 -1.01429e-06 2.01966e-05 8.18783e-06 -1.77173e-05 
6.7e-06 -2.98864e-06 -2.35456e-05 0.000736662 -0.000134871 0.000134852 1.5379e-06 -3.31982e-05 7.66712e-06 
-1.46117e-06 -4.38534e-06 -3.16103e-05 -6.49236e-06 1.48342e-05 2.26766e-05 -2.62137e-06 -2.61669e-05 -9.6653e-06 
4.53453e-05 -1.24602e-06 -2.25429e-06 -8.9252e-06 -2.67429e-05 1.85681e-05 4.14632e-05 3.53805e-07 8.64132e-06 
-2.64996e-05 3.63368e-05 -0.000102195 -5.6266e-05 -1.87581e-05 -7.07667e-06 4.04923e-06 -1.69175e-05 -8.86005e-06 
-1.63963e-05 4.81126e-06 -2.3732e-05 -1.54158e-06 1.25524e-05 -3.10658e-06 -4.65026e-06 -1.53087e-05 7.98068e-06 
-8.22021e-05 0.000136496 -3.02602e-07 2.65832e-06 -3.8192e-05 -5.06926e-06 4.87604e-06 9.11991e-06 -1.18968e-05 
4.81162e-07 -2.3943e-07 6.98914e-06 -5.24443e-07 -1.66767e-06 2.60484e-06 5.92212e-06 -8.45248e-07 -2.05151e-06 
-4.91387e-06 -6.41623e-06 3.20696e-08 -3.17081e-06 7.63579e-06 8.6834e-06 -1.47092e-05 1.2173e-06 -1.68092e-06 
1.00384e-06 -1.08458e-06 1.79475e-06 6.15198e-06 0.000723285 0.000476509 -0.00599328 0.000691967 -5.71553e-05 
-1.99445e-06 3.41989e-05 1.01403e-05 4.89822e-06 2.60838e-05 -3.91359e-06 0.000866816 1.88238e-05 -8.14873e-07 
-6.22162e-05 -1.00005e-05 -9.48778e-06 -5.87093e-06 -4.38016e-05 1.49187e-05 1.67861e-05 -1.11936e-06 5.36771e-06 
2.08324e-06 4.41276e-06 -4.23226e-06 -8.32837e-05 6.30735e-07 -3.14195e-05 8.04323e-06 2.94289e-05 1.91293e-06 
3.51245e-06 7.82573e-06 -3.09406e-05 -7.98976e-06 -1.67279e-05 1.8464e-06 -1.27213e-06 -5.35183e-05 2.19009e-05 
-7.22609e-07 -5.20116e-06 -2.62589e-06 -1.02724e-05 1.18001e-05 1.56472e-06 -6.17259e-06 -0.000530018 -0.000633838 
8.76115e-06 -2.26056e-05 -2.81982e-05 -4.61346e-06 -5.13568e-06 -5.63554e-05 4.34096e-06 1.51297e-06 0.00032177 
-0.000648581 -0.000630357 -0.000285328 1.9412e-06 7.73848e-06 -0.000145908 0.00095697 -1.02781e-05 0.0032067 
1.3982e-05 -1.20098e-05 -3.66137e-06 -3.64623e-06 9.82043e-05 4.90328e-05 -1.70293e-05 0.00128951 2.43992e-05 
1.21949e-06 1.74985e-06 1.72159e-05 2.00562e-05 0.00131815 0.000518798 0.000883533 -0.00254994 4.42323e-05 
-6.32304e-05 1.46291e-05 -9.44114e-06 -0.000175226 -0.00418806 3.28665e-07 -2.45901e-07 -1.61801e-06 -2.30799e-06 
1.20612e-06 1.73526e-06 1.45706e-06 -2.54622e-05 7.10206e-07 2.96661e-07 -1.81503e-06 1.05459e-06 1.81064e-06 
2.23987e-06 2.86012e-06 -1.79205e-06 -3.82742e-05 9.10472e-05 -5.81946e-07 1.85695e-05 -7.96427e-06 -8.39458e-07 
-5.25619e-06 -3.5099e-05 -2.98967e-05 2.87883e-05 -1.00613e-06 2.7033e-05 -2.02309e-06 -2.67184e-06 2.77129e-06 
-0.000118709 -3.77083e-08 -3.5932e-06 1.56204e-05 8.23383e-06 -2.44737e-06 -5.58597e-07 2.7599e-05 5.10806e-06 
7.16383e-06 -1.12525e-06 -5.39659e-06 -0.00291338 -0.00102676 1.8452e-05 1.04031e-05 -5.95378e-06 3.91187e-05 
-1.26765e-05 -6.75164e-06 -1.39938e-05 -5.56203e-07 0.00225449 0.00291588 2.02721e-06 1.61767e-06 -2.1636e-05 
2.28299e-06 -9.84903e-06 2.8497e-06 -0.000128214 2.62289e-07 -2.04175e-06 2.42791e-06 -2.67606e-06 -1.42857e-05 
-1.46791e-05 9.64268e-06 8.24417e-06 -1.70146e-05 -5.21105e-07 -2.43973e-06 5.71256e-07 8.04338e-07 -3.41278e-06 
-0.0021664 -0.0034115 -2.65891e-06 -2.96744e-05 2.17006e-05 3.67306e-06 -1.04845e-07 4.47284e-07 3.71116e-06 
2.55201e-06 -1.83025e-06 -2.86715e-06 -2.98108e-07 1.32196e-07 2.96284e-08 1.442e-06 -2.25488e-06 -6.8748e-06 
2.01816e-05 7.12776e-05 -0.000351263 -3.66257e-05 1.43661e-05 3.51208e-05 6.26572e-05 -1.23836e-05 4.27047e-06 
-1.00425e-05 -4.08992e-06 -4.8175e-06 1.31174e-06 -2.08693e-05 4.64344e-05 -1.15869e-05 2.1834e-06 -1.2615e-06 
4.3222e-07 0.000140486 -0.000105292 -3.27967e-05 -4.9079e-05 -7.97469e-06 2.51054e-06 5.3452e-06 4.62305e-06 
-8.74716e-05 -8.71206e-05 -7.33672e-05 -7.99217e-06 6.13955e-07 9.76622e-07 -0.000730765 -6.81864e-05 1.25315e-05 
8.65017e-05 -3.71919e-05 -8.78013e-07 3.75331e-06 0.000175177 5.79919e-05 3.35053e-05 -0.000112628 -0.00621905 
0.00481449 4.36568e-05 4.66318e-07 -3.07501e-06 -4.7531e-06 4.26616e-06 -3.27166e-05 5.35562e-05 2.21399e-05 
1.03968e-05 -3.50092e-05 -2.95569e-06 5.6365e-05 3.59348e-07 2.85386e-05 5.61872e-05 6.33208e-05 4.51656e-05 
0.000973292 1.07938e-05 5.88303e-06 1.55021e-05 -3.09885e-06 4.12896e-05 4.89757e-06 4.33759e-06 1.37177e-05 
-2.00467e-05 3.44376e-07 3.21931e-06 4.86765e-06 -2.70383e-05 0.00795617 2.85768e-07 2.17719e-05 -5.81732e-06 
4.80927e-07 4.69505e-07 -1.71443e-06 1.11835e-05 -3.26087e-05 -2.98387e-06 3.98398e-05 1.2834e-05 -7.44187e-06 
-3.47259e-05 -1.10218e-05 -2.57752e-06 7.48205e-05 -8.02586e-06 2.16864e-06 -8.11421e-06 -2.72013e-05 -2.31145e-05 
8.23501e-05 6.66877e-05 -1.09969e-05 -1.05297e-05 -0.000126912 0.000230627 -1.07823e-06 2.79704e-07 -9.87767e-07 
9.04146e-07 6.20831e-07 1.56536e-05 -4.98088e-07 -1.31839e-06 -1.4014e-06 0.000719822 -1.06515e-05 -2.72608e-05 
-4.70209e-05 1.45732e-05 7.50101e-05 5.5372e-05 2.23417e-05 5.31833e-05 -5.45697e-05 1.14048e-07 -0.000226852 
-2.66159e-05 4.52174e-06 2.86189e-05 -2.03355e-05 -2.25422e-05 -2.48845e-05 3.09924e-06 8.15418e-07 1.97191e-06 
-0.00387932 -1.15423e-06 -1.4412e-06 1.35084e-06 3.49249e-07 1.65863e-06 6.8119e-07 -1.42046e-05 -6.90234e-07 
-1.00206e-05 1.32264e-05 7.52364e-07 -1.21326e-05 -2.18185e-05 -1.37974e-05 -1.89003e-06 -2.52137e-06 -1.50024e-07 
2.90139e-06 -1.64966e-06 -1.28552e-06 -9.43621e-06 2.35316e-05 3.24538e-05 -6.96383e-05 -1.22818e-05 -1.49675e-05 
-0.0011416 0.000250411 -2.28131e-05 0.000311401 -0.000912099 -0.00015828 -0.000285794 2.20908e-06 4.3337e-05 
2.60306e-05 1.30805e-06 3.66283e-05 -1.62452e-05 3.33618e-05 -2.23378e-05 -2.06473e-05 -2.3621e-07 3.9257e-06 
-1.04409e-06 5.72695e-05 2.63434e-05 -3.231e-06 2.19345e-06 -5.69023e-06 -2.21422e-06 8.913e-07 -2.2387e-06 
-5.10797e-06 1.13221e-06 -8.46575e-05 -3.31856e-06 2.07898e-06 -4.86062e-07 -6.33771e-05 -8.24687e-07 3.42829e-06 
3.94731e-06 1.91857e-06 4.85405e-06 -1.71955e-06 5.93509e-06 4.60176e-06 1.63478e-06 -2.05808e-08 6.12707e-06 
1.94538e-06 2.1553e-06 2.7891e-06 -6.42533e-06 -4.50419e-06 -5.65003e-07 -2.59518e-06 5.92244e-06 -2.12839e-05 
-5.38395e-05 -6.06035e-06 1.66181e-05 7.94116e-06 2.06259e-05 -1.37823e-05 -2.05274e-05 1.63293e-06 8.71907e-06 
-1.02944e-06 4.99375e-07 7.82198e-05 -2.67796e-06 7.72758e-06 5.66667e-05 -0.000102359 4.97206e-05 2.92565e-06 
4.80193e-05 -2.7155e-06 8.55485e-07 1.63645e-06 -2.76976e-06 2.51156e-05 1.09031e-05 -2.93667e-05 -1.37712e-05 
-3.04173e-06 -1.07922e-07 -2.05822e-05 1.70603e-05 -6.25591e-05 -0.000101675 3.07983e-06 0.00090745 3.73925e-05 
3.51971e-05 2.73799e-05 2.45927e-05 -6.96181e-06 7.45311e-06 1.58596e-05 -0.00471865 -9.9329e-06 3.38605e-06 
2.05076e-06 0.000616113 0.00141838 2.63389e-06 7.04006e-06 -1.82273e-06 2.41471e-05 -1.58306e-06 -1.62535e-06 
2.43685e-06 2.91513e-05 2.33248e-05 1.1424e-05 1.97255e-05 2.84019e-05 3.11715e-06 5.09449e-05 3.86836e-05 
0.000693617 -1.17261e-06 -1.65082e-06 -7.81751e-07 1.0982e-05 3.59573e-06 1.86733e-05 3.56984e-05 -4.18618e-06 
-6.95883e-06 -7.19507e-06 -6.10545e-06 2.62379e-05 6.52544e-05 1.17466e-05 2.01692e-05 -2.87528e-05 2.2257e-05 
-6.13494e-07 -3.26242e-05 -1.72705e-05 -4.04798e-05 2.04172e-05 2.57585e-05 4.92764e-05 8.19907e-06 -5.19536e-05 
7.29584e-06 0.000468526 1.2238e-05 -1.62895e-06 2.78825e-05 3.88215e-06 1.28454e-05 -6.55251e-07 1.48586e-06 
9.79539e-07 -2.18462e-08 -2.24228e-05 3.91004e-06 0.000163695 -1.88047e-06 -6.46484e-07 -3.02178e-06 4.29401e-07 
-6.41909e-07 6.93268e-06 -5.42779e-07 -1.13313e-06 1.45263e-05 1.41386e-05 -4.52639e-07 -4.29495e-06 1.50463e-06 
-2.40484e-05 -7.31282e-06 2.14716e-05 -4.74811e-06 -1.61666e-05 -4.80239e-05 -9.25965e-07 -1.73175e-05 -3.12207e-07 
1.23328e-06 9.80621e-06 5.64997e-06 -9.24331e-07 -4.78563e-07 -3.269e-05 1.02499e-05 8.84678e-08 -5.6261e-07 
-1.07983e-05 2.50364e-06 -7.04604e-07 3.82325e-06 1.50457e-06 -3.1363e-06 4.38485e-06 -2.76529e-05 -2.39568e-05 
6.23719e-05 -1.63865e-06 -6.15285e-06 1.09627e-05 1.92789e-06 5.00504e-06 0.000601442 -1.15863e-06 -1.89093e-06 
9.62312e-07 2.28464e-05 3.86704e-07 -2.66318e-05 -2.0204e-05 -9.47817e-07 -1.82021e-06 4.94528e-06 -1.00997e-06 
7.2384e-05 0.000743721 -2.74181e-06 2.89331e-07 2.1162e-06 2.8883e-06 2.64716e-07 8.45224e-07 7.88949e-07 
3.29324e-05 5.15738e-06 -6.37159e-06 1.45505e-05 -7.34677e-06 -4.12849e-05 1.84026e-05 -0.0027007 -3.76317e-05 
-2.70263e-06 9.82116e-06 7.16201e-06 3.82338e-06 9.9509e-06 -4.16324e-05 -4.08932e-05 -5.74286e-06 3.31008e-05 
-1.28963e-05 3.83402e-05 4.9687e-05 2.63793e-05 1.52066e-05 -1.89662e-05 2.30009e-06 -3.23698e-05 8.62589e-05 
7.33152e-06 2.14277e-05 -6.0125e-06 -2.73569e-05 -5.73117e-06 -3.85866e-06 1.90709e-05 -1.27617e-05 -0.000147658 
-4.40256e-06 3.80496e-06 3.88458e-06 2.75288e-05 1.69531e-05 -0.000348175 2.77166e-05 -1.17412e-07 2.99423e-06 
-2.53617e-05 2.93601e-07 1.13369e-06 -3.05165e-06 -1.58825e-06 1.60362e-07 -9.87767e-05 0.000470096 0.000435972 
-3.76746e-05 -1.10429e-05 -6.89529e-06 0.0110983 -0.00421843 -0.00151438 -1.63548e-06 -0.0180903 4.03935e-05 
2.64931e-05 -1.9595e-06 1.44022e-05 -3.41631e-05 -1.44925e-05 6.1285e-06 6.03395e-06 -0.000138524 0.00178976 
0.00023988 -0.000555865 3.35173e-07 -2.84061e-07 2.42751e-05 1.5383e-07 2.50421e-05 -3.59633e-06 -3.46825e-06 
1.82506e-06 -4.84739e-05 -9.64765e-05 -3.00821e-05 -6.1103e-06 1.50788e-06 -3.91735e-05 -2.97341e-06 -7.86424e-06 
7.26926e-05 -1.76821e-06 2.3505e-05 -5.29071e-06 6.64817e-06 3.1319e-06 9.67765e-07 3.74843e-05 1.71418e-06 
5.96175e-06 3.01326e-06 4.29232e-05 -6.53514e-07 -1.69936e-06 3.76706e-07 -7.26416e-07 -5.97287e-07 -4.70084e-07 
-1.65453e-06 0.000796075 -0.000632699 -2.04262e-06 -4.69611e-06 -3.87104e-07 -1.78747e-06 1.20364e-06 1.63505e-06 
-4.10911e-06 5.23631e-07 1.58593e-06 -2.02777e-06 5.11169e-05 3.31761e-05 -1.04402e-05 2.52202e-05 -0.000252817 
-0.000190036 5.26368e-06 -1.98402e-05 -1.82316e-06 -2.92281e-08 -9.60043e-06 5.0517e-06 -1.43259e-05 -2.77887e-06 
-1.71584e-06 -0.00011802 1.12399e-05 -4.87852e-06 6.70801e-06 3.64831e-08 -3.729e-06 -2.43878e-06 -3.18756e-06 
2.21311e-06 -3.18947e-06 8.97845e-07 4.44073e-05 4.32105e-05 0.000771888 -2.81459e-05 0.000543034 -2.03043e-05 
-2.33297e-07 -1.60507e-05 -4.67031e-05 0.00793295 -0.00223785 -0.0064806 -5.27663e-05 -1.33622e-06 -6.41478e-07 
3.41958e-06 6.50486e-05 -4.2323e-06 -0.00219076 -0.00265173 6.36729e-06 -2.37662e-06 1.73072e-06 -6.55283e-05 
-3.5125e-05 1.45066e-05 8.5984e-06 6.34344e-07 1.2028e-05 9.79727e-06 1.61591e-06 -4.20735e-06 6.42226e-06 
-2.66338e-06 -2.12926e-05 -0.00157745 5.11392e-05 1.5002e-06 0.000141052 -0.000113843 -4.47187e-05 1.04579e-06 
-1.49448e-06 0.000100868 0.000168628 6.92244e-06 -8.51771e-07 4.0466e-05 -1.65153e-05 4.20549e-05 -3.86794e-06 
-4.51483e-05 -5.47548e-05 -4.90742e-05 -9.54346e-06 7.66766e-07 -3.71017e-06 -6.96759e-06 5.79391e-06 2.41514e-06 
4.88835e-06 -8.07748e-06 0.00374558 1.59413e-05 -7.25245e-05 -0.00159261 0.00531193 2.26922e-06 0.00601193 
-0.00763256 -1.78397e-06 -2.02951e-05 4.39558e-06 5.99071e-06 1.75426e-06 -1.73791e-06 2.50492e-06 -1.78791e-06 
-1.23897e-06 -8.68903e-07 1.50731e-06 -0.00486777 0.00693515 -0.000739391 -0.000515672 -1.61503e-07 -9.03335e-08 
-0.000176078 -9.72217e-05 5.09222e-05 3.01099e-06 -2.41769e-06 -1.09467e-06 -2.02452e-06 7.61581e-05 1.75823e-05 
-3.81702e-05 -6.74164e-07 9.01873e-07 3.71657e-06 7.86482e-07 -1.23395e-06 2.91118e-06 0.000212463 -0.00253029 
0.00766965 -0.00160766 -3.42498e-06 -3.84193e-06 0.000570148 3.1835e-06 -1.63675e-05 2.49748e-05 -8.94769e-05 
2.3161e-05 -2.02251e-05 1.36009e-05 6.33652e-05 3.10708e-05 3.89351e-05 -5.52016e-05 1.19347e-05 -5.60856e-05 
-7.91663e-06 6.18492e-05 -2.0862e-06 0.00064684 0.000169814 -2.52559e-06 -2.97562e-06 1.85626e-06 0.000677277 
6.39482e-07 5.12311e-06 -2.56624e-05 -1.10556e-06 1.10007e-05 3.40229e-05 -2.94108e-06 -1.97088e-06 -6.08393e-06 
-0.0026091 1.55865e-05 6.64473e-06 -0.000649764 -0.000689065 -1.555e-06 -1.93068e-06 9.05428e-06 -0.000776777 
0.0010099 -7.02138e-06 -1.81968e-05 1.16093e-06 4.18174e-07 1.85177e-06 2.06273e-05 -0.000926194 0.00135884 
2.39353e-07 8.77461e-07 -2.40642e-05 -1.90697e-05 -1.62631e-06 2.32828e-05 -1.9904e-05 -7.80248e-06 -6.54758e-06 
5.8715e-06 -2.94191e-06 -3.22432e-07 2.51961e-06 -8.48849e-07 5.13078e-06 4.85832e-06 1.76969e-06 3.81536e-07 
2.67535e-06 -2.73988e-05 -6.76126e-07 -6.08773e-06 2.97688e-05 -2.85713e-07 2.6133e-05 9.29523e-05 1.01139e-05 
8.82041e-06 -2.85958e-06 4.91627e-05 1.48491e-05 -0.00325563 -3.1323e-06 -2.71284e-05 -3.45861e-05 -8.8684e-06 
-3.93524e-06 -3.85401e-06 7.52905e-06 2.00097e-06 3.52334e-06 2.33392e-05 6.36707e-05 -1.26365e-06 -2.40266e-06 
2.90379e-05 -2.04239e-06 -1.51168e-06 3.02941e-06 2.3266e-06 -5.0766e-06 -3.45935e-06 -4.27091e-06 5.79804e-07 
1.35153e-05 1.37233e-05 5.83721e-06 -1.05007e-07 -1.3758e-05 -1.30784e-05 -2.17026e-05 5.22607e-06 -1.03718e-06 
-2.00522e-06 4.44956e-06 4.78274e-06 5.27107e-06 1.6229e-05 -3.61668e-06 1.38496e-05 8.95405e-06 2.38944e-06 
-5.81834e-06 -5.80189e-06 -4.74563e-07 1.13506e-06 2.06322e-05 -4.22753e-06 -4.66951e-06 -2.70887e-06 1.92333e-05 
2.7086e-06 -8.07901e-05 -3.25856e-06 0.00113686 4.21614e-07 1.23271e-06 -0.00122268 0.000233222 -0.000184694 
-4.2427e-05 3.22334e-05 9.12026e-05 -0.000778318 -7.54179e-06 -0.000973259 0.000195819 0.00137928 -5.43484e-05 
-1.8511e-05 1.46447e-05 6.48463e-06 -0.000133429 -0.00287841 5.86918e-06 -1.38184e-05 -0.00353257 -0.00373758 
-0.00134968 1.25849e-06 1.26372e-05 -2.93276e-06 -2.82015e-06 0.000463255 4.96639e-05 -0.000108634 1.66488e-05 
9.76809e-06 8.1518e-05 -5.24816e-06 -0.0018716 3.35234e-05 -7.30533e-05 -3.72846e-06 4.15086e-05 3.17599e-07 
1.18451e-05 -3.15628e-05 5.09014e-05 0.000260504 4.61402e-07 -5.98348e-07 -5.32945e-06 -1.93967e-06 -1.03378e-06 
2.50617e-07 -9.96526e-07 -2.06279e-06 1.61089e-05 -4.11345e-06 -0.000844988 -1.67027e-05 5.93148e-06 -6.02973e-05 
-0.000211113 -7.79659e-05 -1.29436e-05 6.09495e-05 1.89749e-05 -2.16405e-06 4.28381e-06 4.37437e-05 -3.69041e-06 
-5.93571e-06 -6.96136e-06 -1.1827e-05 -3.37149e-07 -1.1455e-06 5.91354e-06 9.22395e-06 4.30396e-06 9.03565e-07 
1.72441e-06 0.00225372 0.000282261 0.000143061 -9.6154e-06 -1.06137e-05 -1.13059e-05 5.73875e-06 -2.29353e-07 
2.97206e-06 9.52317e-06 3.09098e-06 -4.0874e-06 -2.31087e-06 -1.3993e-06 -5.17184e-06 -2.75767e-05 2.37603e-05 
-2.01015e-06 -2.76338e-06 3.59243e-06 2.41181e-05 -9.31406e-07 -2.32448e-06 -3.03695e-06 0.000498416 3.8749e-05 
-6.71677e-07 4.08933e-05 -7.87246e-07 -4.66514e-07 0.000389701 3.45867e-06 -2.98709e-06 -1.22566e-06 1.82478e-05 
-1.43451e-05 -8.19904e-06 4.84697e-05 -6.83105e-06 0.000524317 0.000150919 8.72963e-06 -4.8273e-05 -5.93697e-06 
-9.69204e-06 -1.85057e-05 2.68932e-05 4.66529e-05 -8.40619e-05 0.000136214 3.38992e-05 7.19297e-06 -1.5216e-05 
1.13942e-05 9.26252e-07 -3.72861e-05 -0.000219745 -4.32037e-06 -3.4097e-06 -1.44525e-06 -6.51511e-08 -1.40295e-05 
4.45369e-06 -0.000896508 5.18273e-08 -0.00101565 -0.00276768 -1.97565e-06 -0.000832666 -0.00550899 -3.38818e-06 
-5.78032e-07 -2.9681e-06 -8.55953e-05 -5.57853e-05 5.14797e-06 4.95793e-07 -8.60651e-05 4.29513e-06 -1.95381e-06 
-1.43295e-06 -1.93383e-05 2.05054e-05 -2.64054e-05 1.03635e-05 1.02373e-06 2.18505e-05 4.98458e-05 9.49388e-08 
4.0142e-06 -3.36563e-06 -1.27226e-05 -4.30379e-06 2.05879e-08 5.67084e-06 2.58513e-06 1.06507e-06 -5.69045e-06 
-4.04068e-05 7.31765e-06 1.59894e-05 -1.63988e-06 4.62771e-08 -1.54315e-05 0.00113015 -6.40357e-06 8.0925e-06 
2.03485e-05 -9.93876e-06 2.67348e-05 0.0062099 -0.000780947 0.00072169 -5.10521e-06 -5.09695e-05 -1.32587e-05 
4.58783e-06 -1.33221e-06 9.39046e-06 8.01197e-06 -8.19232e-06 -6.17049e-05 2.89594e-06 4.72602e-05 -2.45858e-06 
9.23673e-07 -5.84942e-05 3.29249e-05 3.87752e-06 -5.81219e-05 -1.92948e-06 -6.73022e-06 8.72375e-06 -6.49826e-06 
4.70924e-05 1.60877e-05 -2.91856e-05 -1.42129e-05 2.35009e-05 4.77245e-05 1.58119e-05 -4.81769e-06 8.72544e-07 
-2.20063e-06 1.28365e-05 -1.30548e-05 3.87415e-06 -2.92574e-06 -6.90661e-08 -9.07492e-07 3.2113e-06 5.40118e-05 
0.000390759 -0.00290851 1.38746e-06 1.43966e-05 -0.00014916 2.0634e-05 1.75801e-05 7.13211e-05 -1.19499e-06 
7.32905e-06 1.8854e-05 -2.25878e-06 4.13429e-06 -3.27538e-06 2.0059e-06 6.90457e-07 -6.18105e-05 -1.65883e-05 
4.86665e-06 -0.000121203 2.57849e-06 -4.69936e-07 -0.00185777 3.80187e-07 -1.23301e-06 -1.41913e-06 -0.000774667 
0.000507381 0.00308313 -3.34817e-06 2.35702e-05 -1.68311e-05 -2.54888e-05 2.45349e-06 3.67164e-06 -1.668e-05 
-6.00855e-05 -0.000559971 0.000492928 -9.07706e-05 3.15254e-05 -1.42216e-05 -5.87628e-05 7.53076e-07 -3.55017e-06 
-1.84978e-06 0.000205792 0.000156444 0.000840028 -0.000120736 3.7793e-06 0.0145692 0.00801636 -0.000501274 
-1.67548e-06 -8.42772e-06 1.11306e-05 -1.47374e-06 2.87269e-06 3.11119e-05 -1.97038e-06 1.75418e-06 1.21305e-06 
-5.38873e-06 -3.51209e-05 -1.48764e-05 -1.49223e-05 2.65077e-05 5.68079e-07 1.11502e-05 -1.11598e-05 -5.66832e-07 
-1.46322e-06 -0.000116947 8.20944e-06 -1.16849e-05 -1.10989e-07 1.0018e-06 3.46374e-05 0.000847581 2.43318e-06 
-4.4008e-05 -8.55791e-05 7.00829e-05 -3.27127e-05 0.000203126 1.16307e-07 -1.60777e-06 -3.1161e-06 1.55669e-05 
-4.47392e-06 4.54423e-07 -2.58843e-06 1.26903e-05 2.68052e-06 7.49698e-05 -0.000101737 3.46588e-06 -0.000365162 
0.000756225 -1.65493e-06 -1.09731e-05 -5.79938e-05 1.6365e-05 -8.51342e-05 -3.74945e-06 -1.02286e-06 5.79538e-06 
1.76399e-06 1.11033e-05 -3.54075e-05 1.39708e-08 -1.92363e-07 2.14035e-06 -9.21138e-06 -0.000397028 -8.71638e-06 
-7.70293e-08 3.8619e-05 -1.92766e-05 5.15909e-07 1.18415e-06 0.00087777 -0.000295484 
Strain%20yy%20component 1 12526 double
0.516572 0.347346 0.408178 0.422057 0.333357 0.33334 0.333345 0.333338 0.236358 
0.22054 0.184308 0.210306 0.223914 0.250533 0.174281 0.230633 0.269429 0.212343 
0.198019 0.206716 0.178269 0.169327 0.168277 0.167289 0.166996 0.166851 0.166639 
0.166632 0.167079 0.167162 0.168053 0.167755 0.167683 0.167107 0.166996 0.167414 
0.168289 0.16826 0.168941 0.169899 0.174226 0.184092 0.207086 0.20411 0.154137 
0.153014 0.140948 0.168453 0.167398 0.16903 0.169507 0.170101 0.170398 0.171227 
0.170481 0.169692 0.169427 0.168767 0.169278 0.170095 0.170508 0.169549 0.169833 
0.169821 0.171355 0.174229 0.178564 0.183327 0.236413 0.333307 0.333343 0.333541 
0.333826 0.334164 0.334538 0.334948 0.335351 0.335716 0.336035 0.336286 0.336525 
0.336623 0.33667 0.336625 0.3365 0.336304 0.336031 0.335704 0.335273 0.334888 
0.334469 0.334089 0.33375 0.333482 0.333329 0.333292 0.514326 0.346539 0.317888 
0.303157 0.29527 0.291198 0.289347 0.288955 0.289312 0.29027 0.291517 0.29302 
0.294808 0.297102 0.299892 0.304088 0.309276 0.31636 0.324045 0.333768 0.341941 
0.348358 0.350986 0.349114 0.343951 0.336994 0.330143 0.3254 0.321982 0.320006 
0.319305 0.3195 0.320222 0.321508 0.322938 0.324601 0.326088 0.327528 0.328945 
0.330135 0.331237 0.332161 0.332917 0.333338 0.333385 0.333428 0.333303 0.332934 
0.332212 0.331343 0.330095 0.32884 0.327479 0.325976 0.324356 0.322831 0.321497 
0.320224 0.319521 0.319344 0.32012 0.32224 0.325694 0.331327 0.338126 0.344557 
0.349494 0.350894 0.347621 0.340148 0.330529 0.3219 0.313558 0.30789 0.302976 
0.299594 0.29664 0.294497 0.292745 0.291191 0.289802 0.289028 0.288816 0.289145 
0.291387 0.29619 0.305367 0.320099 0.3543 0.437984 0.126982 0.15159 0.169159 
0.181361 0.171643 0.171364 0.162179 0.15397 0.13051 0.128381 0.127512 0.116976 
0.11226 0.169809 0.177733 0.18381 0.171464 0.170306 0.141623 0.135254 0.12938 
0.128321 0.12327 0.126931 0.1309 0.109091 0.333275 0.333344 0.333506 0.333757 
0.334091 0.334456 0.334873 0.335266 0.335635 0.336014 0.336301 0.336488 0.336607 
0.336648 0.336598 0.33647 0.336265 0.335993 0.335665 0.33528 0.33489 0.33448 
0.334112 0.333768 0.333514 0.333347 0.333293 0.552256 0.344902 0.320188 0.304431 
0.295897 0.291598 0.289326 0.288768 0.289044 0.289894 0.291184 0.292736 0.294519 
0.29666 0.299333 0.302788 0.307315 0.312894 0.32051 0.329441 0.338647 0.34621 
0.350084 0.349748 0.345701 0.339206 0.332145 0.326743 0.322864 0.320308 0.319382 
0.319378 0.320049 0.321064 0.322491 0.323935 0.325616 0.327264 0.328643 0.329969 
0.331142 0.332084 0.332812 0.333307 0.333432 0.333456 0.333293 0.332815 0.332083 
0.331136 0.3299 0.328623 0.327308 0.325791 0.32424 0.322863 0.321299 0.32022 
0.319443 0.319298 0.320025 0.321769 0.325234 0.330655 0.337011 0.343973 0.349381 
0.350625 0.347093 0.340501 0.330947 0.322037 0.314451 0.307965 0.302806 0.299396 
0.296492 0.29413 0.29247 0.290999 0.289717 0.288888 0.288561 0.289436 0.291267 
0.295349 0.304062 0.318957 0.347715 0.549095 0.150535 0.113689 0.12654 0.12787 
0.128815 0.129199 0.131342 0.170604 0.170469 0.169578 0.169107 0.155336 0.134133 
0.123252 0.102767 0.0989032 0.127346 0.128216 0.130033 0.169588 0.171037 0.170651 
0.170815 0.169962 0.161501 0.153142 0.333312 0.333457 0.333694 0.333955 0.33427 
0.334598 0.334945 0.335264 0.335558 0.335794 0.335989 0.336124 0.336197 0.336199 
0.336128 0.335981 0.335798 0.335544 0.335239 0.334912 0.334555 0.334223 0.333915 
0.333656 0.333474 0.33332 0.333284 0.401443 0.359492 0.334119 0.319698 0.311681 
0.306338 0.303469 0.302134 0.300904 0.301075 0.301636 0.30239 0.303572 0.305492 
0.308101 0.311303 0.315254 0.320367 0.326299 0.332355 0.337692 0.340906 0.341519 
0.339405 0.335234 0.331027 0.327549 0.324947 0.323253 0.322411 0.322295 0.322645 
0.323267 0.324267 0.325351 0.326591 0.327785 0.328812 0.32984 0.33077 0.331607 
0.332309 0.332812 0.333137 0.332765 0.332289 0.331575 0.330714 0.329695 0.328626 
0.327509 0.326296 0.325132 0.324038 0.323104 0.322441 0.322164 0.322433 0.323477 
0.325363 0.328463 0.33232 0.336396 0.340028 0.341685 0.340645 0.336389 0.330048 
0.32402 0.31808 0.313297 0.309517 0.306698 0.304588 0.302818 0.301477 0.30055 
0.300243 0.300549 0.301374 0.302938 0.306314 0.312839 0.321978 0.337655 0.363676 
0.432408 0.368534 0.345498 0.32632 0.311972 0.295867 0.291875 0.289243 0.288244 
0.287514 0.286657 0.286886 0.286435 0.287154 0.288041 0.287819 0.287385 0.28649 
0.287312 0.287881 0.289786 0.291533 0.294951 0.30259 0.318332 0.34736 0.406176 
0.358139 0.338254 0.33172 0.329062 0.328309 0.32807 0.328961 0.330274 0.331123 
0.332904 0.338197 0.366394 0.398803 0.39197 0.353625 0.332963 0.31781 0.333304 
0.33065 0.331133 0.330998 0.331159 0.332025 0.332611 0.336522 0.342274 0.360532 
0.381203 0.386115 0.270748 0.275673 0.280883 0.27509 0.319883 0.333426 0.333639 
0.333921 0.334248 0.334602 0.334939 0.335249 0.335512 0.335707 0.335864 0.335957 
0.335988 0.335955 0.33585 0.335698 0.335498 0.335219 0.334912 0.334579 0.334231 
0.333901 0.333613 0.333388 0.33323 0.328829 0.35327 0.346703 0.335385 0.32723 
0.321565 0.317016 0.313816 0.311909 0.310883 0.310359 0.310123 0.31066 0.311183 
0.312065 0.313521 0.315338 0.317879 0.321389 0.32604 0.331008 0.335424 0.337512 
0.33636 0.332644 0.32879 0.326329 0.324782 0.324016 0.323814 0.32401 0.324424 
0.32497 0.325742 0.326571 0.327522 0.328451 0.329255 0.330008 0.330756 0.33146 
0.332112 0.332663 0.333127 0.346109 0.346243 0.332566 0.332023 0.331371 0.33062 
0.329776 0.328952 0.328017 0.327105 0.326222 0.325431 0.324691 0.324098 0.323793 
0.323799 0.324287 0.325461 0.327525 0.330352 0.3341 0.337173 0.33743 0.334071 
0.328604 0.323596 0.31959 0.316175 0.313851 0.312237 0.311059 0.310185 0.309595 
0.309396 0.309555 0.31032 0.311593 0.313813 0.31697 0.322429 0.329004 0.338347 
0.350104 0.323735 0.302017 0.294254 0.289679 0.287756 0.285091 0.283789 0.282463 
0.282156 0.281697 0.281166 0.281523 0.281206 0.281854 0.282146 0.282686 0.283453 
0.285456 0.288199 0.293047 0.300744 0.313539 0.33737 0.338861 0.342613 0.324794 
0.322181 0.321218 0.320676 0.321237 0.322902 0.325414 0.330907 0.337175 0.341859 
0.314592 0.33933 0.318552 0.345546 0.340477 0.32774 0.323891 0.322813 0.32383 
0.324879 0.326599 0.329826 0.335094 0.341244 0.337166 0.308861 0.339826 0.332309 
0.310659 0.333011 0.319185 0.306949 0.308604 0.312404 0.327984 0.333421 0.333805 
0.334225 0.334644 0.335018 0.335347 0.3356 0.335785 0.335917 0.33599 0.335993 
0.335918 0.335782 0.335577 0.335313 0.334981 0.334615 0.334218 0.33381 0.333434 
0.333134 0.32977 0.332725 0.334428 0.33252 0.32939 0.326725 0.323577 0.321228 
0.319931 0.318894 0.31807 0.317577 0.317248 0.316959 0.316725 0.316648 0.316908 
0.317642 0.320182 0.325586 0.330817 0.336831 0.336861 0.331725 0.325616 0.323003 
0.322522 0.32276 0.323518 0.324539 0.325464 0.326329 0.32709 0.327874 0.328665 
0.329414 0.330037 0.330595 0.33113 0.331647 0.332227 0.332741 0.333137 0.334041 
0.313385 0.337149 0.3321 0.331575 0.330961 0.330322 0.329701 0.328943 0.328199 
0.327445 0.326667 0.325884 0.325052 0.324203 0.323364 0.322719 0.323263 0.323982 
0.328197 0.334454 0.337203 0.334577 0.327998 0.321428 0.318833 0.317132 0.316192 
0.316197 0.316297 0.316411 0.316583 0.316918 0.31758 0.318735 0.320061 0.321469 
0.323713 0.327752 0.330256 0.333699 0.331526 0.319938 0.333866 0.311284 0.306447 
0.302789 0.299572 0.296996 0.295165 0.293796 0.292718 0.292083 0.291727 0.291657 
0.292072 0.292879 0.293627 0.294078 0.295611 0.298468 0.303629 0.310377 0.320055 
0.336007 0.327399 0.327546 0.328257 0.330116 0.333187 0.336311 0.33616 0.324615 
0.323345 0.333076 0.320343 0.312252 0.327246 0.333964 0.332255 0.333597 0.335554 
0.338072 0.339404 0.334922 0.310115 0.332164 0.342075 0.328188 0.332579 0.336199 
0.316902 0.332942 0.318618 0.328479 0.339654 0.336522 0.340741 0.319586 0.336751 
0.315918 0.333703 0.334273 0.334772 0.335238 0.335601 0.335864 0.336038 0.336171 
0.336252 0.336213 0.336067 0.335854 0.335561 0.335176 0.334736 0.334256 0.333735 
0.333238 0.332812 0.334182 0.335244 0.315709 0.328446 0.329283 0.328977 0.328044 
0.327057 0.326223 0.325353 0.324487 0.323567 0.322524 0.321156 0.319622 0.318213 
0.316459 0.314828 0.318902 0.320373 0.322372 0.324341 0.326015 0.327359 0.328351 
0.329269 0.330106 0.330727 0.331183 0.331541 0.331846 0.332168 0.332462 0.333115 
0.326553 0.333188 0.333463 0.332108 0.331685 0.331206 0.330727 0.330129 0.329449 
0.328648 0.327693 0.326613 0.325324 0.323546 0.321533 0.317911 0.315754 0.316722 
0.317083 0.318582 0.320272 0.32142 0.322277 0.323298 0.324301 0.325401 0.326319 
0.327179 0.328176 0.3288 0.328498 0.329381 0.33918 0.3318 0.336076 0.321213 
0.317305 0.313117 0.310267 0.307999 0.306383 0.305028 0.303435 0.30262 0.302362 
0.303036 0.304068 0.304897 0.305491 0.306614 0.308171 0.312649 0.318712 0.333356 
0.314204 0.333696 0.335103 0.336218 0.335326 0.319756 0.332455 0.338664 0.340845 
0.34029 0.336464 0.326476 0.325696 0.329502 0.340038 0.335523 0.338692 0.322559 
0.337757 0.339872 0.317336 0.339631 0.323352 0.337179 0.334443 0.335092 0.335658 
0.336035 0.336293 0.33642 0.336666 0.336723 0.336581 0.336331 0.335985 0.335551 
0.334995 0.334403 0.333757 0.333063 0.331666 0.328901 0.330739 0.331373 0.331385 
0.33111 0.330698 0.32964 0.328398 0.326868 0.324506 0.321556 0.3199 0.32122 
0.324093 0.326721 0.328733 0.330068 0.33053 0.331655 0.332261 0.332549 0.332716 
0.332848 0.33297 0.333101 0.332979 0.336654 0.332615 0.33234 0.331992 0.33151 
0.330801 0.329839 0.328495 0.327485 0.325607 0.323037 0.337006 0.317845 0.323006 
0.325447 0.32709 0.328549 0.329875 0.330641 0.331017 0.330959 0.330318 0.329015 
0.323543 0.337024 0.320992 0.318999 0.317923 0.316924 0.315562 0.312381 0.31418 
0.312306 0.315257 0.315995 0.316085 0.316577 0.317198 0.318149 0.336925 0.335838 
0.341028 0.324571 0.333396 0.337163 0.343459 0.339344 0.342501 0.333766 0.336857 
0.343641 0.330084 0.343552 0.337339 0.335723 0.33726 0.343862 0.320846 0.332442 
0.323532 0.326098 0.342063 0.326373 0.324778 0.335631 0.336603 0.33698 0.3374 
0.337353 0.336993 0.336568 0.336068 0.335397 0.334631 0.333925 0.329506 0.337693 
0.332668 0.334139 0.335025 0.335413 0.335057 0.333802 0.332469 0.330619 0.327782 
0.33055 0.332228 0.333029 0.333989 0.334261 0.334174 0.333992 0.333852 0.337375 
0.325923 0.33707 0.339009 0.333767 0.333705 0.333443 0.33304 0.332273 0.330766 
0.328994 0.341282 0.331704 0.332516 0.334645 0.334928 0.334633 0.333615 0.331497 
0.328014 0.338338 0.327227 0.327034 0.326773 0.326176 0.324642 0.325225 0.326347 
0.325911 0.325223 0.324699 0.342163 0.343634 0.336293 0.333314 0.338711 0.334767 
0.328805 0.333811 0.336221 0.339284 0.33453 0.344904 0.329129 0.346572 0.345903 
0.345072 0.338036 0.338284 0.337943 0.337269 0.336744 0.335868 0.334866 0.33046 
0.334653 0.336499 0.338515 0.339403 0.338804 0.337127 0.332541 0.334646 0.335341 
0.335569 0.336001 0.335896 0.345945 0.335274 0.334888 0.334196 0.336028 0.332687 
0.330714 0.33927 0.343439 0.346629 0.338146 0.339382 0.337678 0.336026 0.338174 
0.333997 0.335432 0.334703 0.335904 0.339464 0.335199 0.337133 0.347453 0.346202 
0.332881 0.336458 0.339893 0.335079 0.335562 0.3377 0.334991 0.341258 0.33771 
0.334466 0.332651 0.347364 0.344736 0.337915 0.336868 0.338802 0.339605 0.336898 
0.339223 0.338946 0.337825 0.336458 0.339416 0.338007 0.340045 0.34151 0.342672 
0.337711 0.341895 0.338164 0.346551 0.338766 0.342993 0.339918 0.336917 0.344947 
0.340704 0.344864 0.339582 0.3467 0.333296 0.333409 0.333628 0.333905 0.334222 
0.334549 0.33489 0.335195 0.335507 0.335769 0.335959 0.336099 0.336163 0.336154 
0.33608 0.335943 0.335744 0.3355 0.335202 0.334887 0.334565 0.334229 0.33394 
0.333666 0.333451 0.333318 0.333311 0.432257 0.364416 0.339589 0.323713 0.313463 
0.307354 0.304 0.302 0.301576 0.301137 0.301547 0.302767 0.304221 0.305986 
0.308149 0.310866 0.314212 0.318484 0.323564 0.329794 0.335295 0.339247 0.34076 
0.339317 0.336143 0.332092 0.328259 0.325483 0.323709 0.322701 0.322398 0.322627 
0.323312 0.324217 0.325247 0.3264 0.327553 0.32866 0.329787 0.330733 0.33157 
0.332269 0.332806 0.333137 0.332759 0.332177 0.331433 0.330579 0.329533 0.328466 
0.327383 0.326193 0.325075 0.324023 0.323073 0.322414 0.322134 0.322362 0.323352 
0.325093 0.328083 0.331859 0.336209 0.339986 0.341523 0.340226 0.336494 0.330602 
0.32451 0.318578 0.313611 0.309695 0.30675 0.304476 0.302507 0.301458 0.30061 
0.300025 0.300244 0.301404 0.30332 0.306745 0.311267 0.320228 0.335844 0.363754 
0.404136 0.321419 0.300266 0.284892 0.275911 0.296246 0.292759 0.291402 0.290898 
0.291046 0.291208 0.291302 0.289508 0.289292 0.288261 0.288859 0.288541 0.289621 
0.290548 0.290549 0.290061 0.292653 0.296916 0.303344 0.31328 0.327658 0.349648 
0.359355 0.35034 0.337958 0.332313 0.330634 0.328244 0.329259 0.327219 0.327984 
0.329184 0.332198 0.338584 0.330906 0.354935 0.361868 0.388612 0.372927 0.357104 
0.338151 0.333156 0.33212 0.330156 0.328499 0.330206 0.330885 0.333433 0.336996 
0.352396 0.375086 0.369895 0.297698 0.333158 0.287347 0.287691 0.295689 0.333255 
0.333119 0.333907 0.334242 0.334564 0.334896 0.335193 0.335465 0.335679 0.335828 
0.335922 0.335956 0.335918 0.335814 0.335654 0.335441 0.335187 0.334892 0.334571 
0.334235 0.333922 0.333608 0.333353 0.333185 0.338124 0.332858 0.343321 0.345949 
0.349947 0.329401 0.322264 0.317614 0.31492 0.313418 0.312325 0.310908 0.310697 
0.311448 0.31223 0.31313 0.314211 0.315411 0.317084 0.319755 0.323757 0.328388 
0.333552 0.336523 0.336099 0.332995 0.329322 0.326047 0.324385 0.323919 0.323816 
0.323995 0.324431 0.325135 0.325944 0.326781 0.327597 0.328432 0.329267 0.330106 
0.330845 0.331556 0.3322 0.332724 0.31631 0.319146 0.332445 0.331909 0.331233 
0.330489 0.329665 0.32885 0.327997 0.327107 0.326271 0.325452 0.324739 0.324115 
0.323775 0.323784 0.324262 0.325416 0.327533 0.330717 0.334131 0.336717 0.337204 
0.334348 0.32911 0.32434 0.31991 0.316614 0.314218 0.312495 0.31105 0.310022 
0.309378 0.309122 0.309321 0.310305 0.311739 0.313949 0.317536 0.322126 0.32788 
0.338122 0.350452 0.354189 0.319131 0.304267 0.326643 0.296363 0.291346 0.28722 
0.285138 0.284207 0.283742 0.283751 0.282896 0.282415 0.281791 0.281957 0.281985 
0.282863 0.284032 0.284303 0.285417 0.287354 0.29111 0.298963 0.309239 0.324281 
0.325658 0.341864 0.330845 0.337763 0.330578 0.325456 0.322541 0.320765 0.320156 
0.320555 0.321823 0.324578 0.329643 0.337878 0.340687 0.316773 0.335457 0.341109 
0.33411 0.329859 0.327174 0.32557 0.323824 0.324165 0.325251 0.328066 0.332125 
0.339777 0.343127 0.346809 0.333564 0.307801 0.310055 0.3251 0.306966 0.341104 
0.309674 0.317233 0.334592 0.333808 0.334962 0.3353 0.335571 0.335786 0.335929 
0.335996 0.33599 0.33591 0.335756 0.335548 0.335282 0.334963 0.334603 0.334231 
0.33383 0.333446 0.333108 0.332895 0.315559 0.319917 0.329885 0.327679 0.332403 
0.327453 0.324482 0.32304 0.321908 0.320303 0.317747 0.318901 0.318995 0.318732 
0.318278 0.317767 0.317202 0.317052 0.319167 0.321846 0.335929 0.331872 0.322405 
0.320993 0.321846 0.323185 0.324249 0.325368 0.326454 0.327384 0.328213 0.328905 
0.329564 0.330192 0.330781 0.33133 0.331855 0.332395 0.332967 0.337722 0.314011 
0.332012 0.33146 0.330866 0.330274 0.329658 0.329002 0.328259 0.32752 0.326705 
0.325851 0.324983 0.324078 0.323207 0.322668 0.323453 0.325444 0.32901 0.33234 
0.336701 0.335082 0.328777 0.322063 0.319697 0.317308 0.316584 0.316349 0.316368 
0.316397 0.31638 0.316477 0.316936 0.318242 0.319843 0.321832 0.324264 0.32729 
0.33102 0.335048 0.337745 0.315455 0.315343 0.307827 0.315455 0.323229 0.327858 
0.334209 0.302165 0.298766 0.296351 0.295155 0.294535 0.293995 0.293494 0.292812 
0.292486 0.292777 0.293423 0.294634 0.295636 0.296967 0.298919 0.301485 0.308023 
0.319979 0.330608 0.326537 0.336192 0.333208 0.330303 0.328152 0.326681 0.326867 
0.328086 0.330011 0.332716 0.336038 0.332483 0.338847 0.337782 0.335359 0.333169 
0.33222 0.332639 0.333483 0.334817 0.337079 0.339182 0.338079 0.336374 0.336516 
0.33348 0.314995 0.314213 0.328459 0.336491 0.327187 0.314898 0.326904 0.317348 
0.335882 0.31339 0.324124 0.334701 0.33588 0.33612 0.336249 0.336286 0.336224 
0.336082 0.335852 0.335551 0.335166 0.334724 0.334248 0.333752 0.333227 0.332775 
0.329161 0.32295 0.328888 0.327921 0.337322 0.329365 0.328821 0.326289 0.325713 
0.325051 0.323735 0.322061 0.32023 0.317267 0.330103 0.32381 0.325746 0.327451 
0.328693 0.329662 0.330351 0.33089 0.33135 0.331763 0.332127 0.332489 0.332844 
0.333175 0.318882 0.319924 0.332024 0.331617 0.331217 0.33075 0.330212 0.329574 
0.328781 0.327796 0.326576 0.325165 0.323392 0.320975 0.319585 0.316365 0.317085 
0.31852 0.320249 0.321597 0.322191 0.322835 0.323672 0.324573 0.32614 0.327245 
0.328155 0.329117 0.32964 0.318333 0.320637 0.32329 0.316091 0.340317 0.307432 
0.306628 0.30582 0.305232 0.304843 0.304421 0.303754 0.304234 0.305741 0.307289 
0.309059 0.31036 0.312046 0.313577 0.335308 0.336252 0.335556 0.329993 0.335475 
0.334359 0.33328 0.331815 0.333127 0.33407 0.334976 0.336084 0.335159 0.30914 
0.341015 0.340252 0.338152 0.339377 0.339858 0.340303 0.340453 0.340463 0.328704 
0.33241 0.321834 0.323054 0.311502 0.332218 0.322977 0.333675 0.320899 0.338489 
0.334187 0.337127 0.320187 0.335166 0.330021 0.332221 0.336407 0.336725 0.336583 
0.336377 0.336028 0.335562 0.334983 0.334351 0.333723 0.333012 0.326111 0.326924 
0.331282 0.334615 0.330108 0.328166 0.325551 0.322944 0.336792 0.33668 0.33124 
0.331963 0.332413 0.332728 0.332954 0.333109 0.333313 0.333511 0.322284 0.319689 
0.332396 0.332614 0.332812 0.332081 0.331631 0.331059 0.330164 0.328919 0.327286 
0.325111 0.319761 0.317036 0.326018 0.327635 0.32748 0.329365 0.329395 0.33111 
0.331285 0.330874 0.329628 0.316104 0.317579 0.323147 0.330107 0.317721 0.315832 
0.316465 0.315953 0.313319 0.315519 0.317187 0.319221 0.32043 0.321114 0.322231 
0.335782 0.335985 0.328425 0.337068 0.33154 0.337498 0.33738 0.336685 0.337109 
0.337234 0.336925 0.330486 0.342674 0.344362 0.343784 0.344014 0.344225 0.34362 
0.342198 0.318226 0.327076 0.326012 0.328333 0.336059 0.330132 0.327892 0.321107 
0.335476 0.340371 0.334299 0.339119 0.333784 0.332135 0.32437 0.334938 0.32554 
0.336147 0.33541 0.334557 0.333696 0.338049 0.334814 0.335392 0.336442 0.33748 
0.334136 0.337167 0.333846 0.334435 0.334226 0.334179 0.333578 0.333061 0.333698 
0.327554 0.333307 0.332777 0.331826 0.330136 0.330337 0.333335 0.334376 0.337472 
0.333481 0.33254 0.335288 0.334877 0.333239 0.330584 0.326636 0.326602 0.326724 
0.324177 0.328531 0.324994 0.324717 0.327334 0.328501 0.334024 0.331979 0.336589 
0.336712 0.331762 0.336587 0.339075 0.339383 0.339191 0.338885 0.333043 0.34683 
0.346467 0.346623 0.345776 0.337091 0.328047 0.337211 0.33579 0.331454 0.337757 
0.339546 0.336658 0.325235 0.333717 0.329638 0.327364 0.343303 0.341685 0.337312 
0.333825 0.328943 0.345058 0.335006 0.326212 0.335946 0.34588 0.334396 0.338303 
0.335035 0.336163 0.33504 0.335627 0.335285 0.335086 0.335256 0.336397 0.337848 
0.338743 0.33633 0.340623 0.335702 0.331123 0.343117 0.3349 0.333851 0.333682 
0.335801 0.338059 0.334822 0.336934 0.33475 0.336247 0.339761 0.340087 0.339722 
0.338841 0.335356 0.346842 0.334841 0.346886 0.344779 0.337501 0.340889 0.338115 
0.338368 0.340846 0.338567 0.342917 0.340288 0.336944 0.335485 0.336973 0.332918 
0.347508 0.337676 0.338569 0.336805 0.343224 0.337414 0.337006 0.338195 0.339798 
0.336504 0.342673 0.344498 0.338786 0.337205 0.339566 0.344858 0.339003 0.338733 
0.339113 0.337795 0.340396 0.339871 0.338608 0.346442 0.339684 0.040627 0.0396581 
0.333328 0.394098 0.419655 0.274683 0.228053 0.21251 0.203195 0.194934 0.185525 
0.184172 0.181334 0.181188 0.180933 0.180806 0.181133 0.181615 0.181639 0.182055 
0.182235 0.181977 0.18186 0.181747 0.181879 0.18289 0.183334 0.18378 0.184473 
0.187769 0.19479 0.200433 0.277076 0.352537 0.170364 0.151888 0.146342 0.159909 
0.1827 0.181767 0.18457 0.184146 0.183425 0.184909 0.18475 0.184452 0.184374 
0.183907 0.183804 0.184271 0.185516 0.184053 0.185143 0.184901 0.185592 0.188496 
0.191618 0.196903 0.20835 0.290117 0.3333 0.333326 0.333432 0.33367 0.33399 
0.334347 0.334742 0.335151 0.335537 0.33588 0.336169 0.336416 0.336576 0.336659 
0.336658 0.336573 0.33641 0.336165 0.335871 0.335491 0.335084 0.33468 0.334277 
0.333914 0.333614 0.3334 0.333303 0.333331 0.512233 0.374596 0.327741 0.308675 
0.298168 0.292623 0.289871 0.288887 0.288935 0.289654 0.290798 0.292173 0.293809 
0.295817 0.298319 0.301741 0.306398 0.312522 0.319984 0.328847 0.338091 0.345699 
0.350422 0.350726 0.346967 0.340613 0.333405 0.327517 0.32342 0.320748 0.319462 
0.319267 0.319763 0.320796 0.322187 0.323754 0.325342 0.326811 0.328249 0.329556 
0.330709 0.331727 0.332579 0.333171 0.333394 0.333389 0.333383 0.333396 0.333164 
0.332607 0.331805 0.330746 0.329485 0.328174 0.326737 0.32517 0.323577 0.322143 
0.320808 0.319814 0.319323 0.319502 0.32096 0.323583 0.328184 0.334534 0.341394 
0.347365 0.350911 0.349675 0.344404 0.335633 0.32623 0.317612 0.310601 0.305278 
0.301194 0.297974 0.295471 0.293554 0.291912 0.290386 0.289312 0.288845 0.288869 
0.290028 0.293411 0.299901 0.311162 0.334767 0.386827 0.515224 0.159749 0.124402 
0.158306 0.161096 0.162155 0.161852 0.161509 0.156615 0.120292 0.115896 0.114511 
0.113136 0.112944 0.158389 0.0945321 0.178156 0.163933 0.195805 0.161235 0.161807 
0.159086 0.117836 0.116535 0.115716 0.115087 0.114128 0.114611 0.11875 0.167237 
0.115781 0.333289 0.333305 0.33342 0.333627 0.333921 0.334271 0.334665 0.335073 
0.335455 0.335835 0.336164 0.336401 0.336559 0.33664 0.336631 0.336544 0.336371 
0.336142 0.335829 0.335483 0.335089 0.334681 0.334291 0.333932 0.333629 0.333417 
0.333302 0.333332 0.557454 0.356355 0.329994 0.310374 0.299082 0.293091 0.290036 
0.288816 0.288731 0.289388 0.29047 0.291913 0.293577 0.295508 0.297876 0.300888 
0.304815 0.309832 0.316414 0.324838 0.334166 0.342891 0.348835 0.350657 0.348273 
0.342686 0.335555 0.329165 0.324486 0.321268 0.319621 0.319216 0.319601 0.320492 
0.321733 0.323195 0.324772 0.326456 0.327979 0.329335 0.330593 0.331652 0.332492 
0.333109 0.333418 0.333382 0.333376 0.33341 0.333093 0.332485 0.331645 0.330552 
0.329293 0.327995 0.326576 0.325025 0.323563 0.32206 0.320727 0.319742 0.319248 
0.319519 0.320718 0.323364 0.327712 0.333747 0.340584 0.346976 0.350446 0.349723 
0.344133 0.335898 0.326377 0.318075 0.31098 0.305196 0.300942 0.29788 0.295262 
0.293278 0.291735 0.290367 0.289326 0.288645 0.288781 0.290178 0.292801 0.2988 
0.309999 0.329106 0.365645 0.540285 0.169906 0.120768 0.112837 0.113946 0.115269 
0.115729 0.116315 0.158183 0.160589 0.160497 0.15956 0.159138 0.158329 0.180377 
0.123987 0.159812 0.10956 0.103324 0.109594 0.114196 0.115305 0.157596 0.160935 
0.161008 0.161051 0.160519 0.159673 0.130141 0.174201 0.105574 0.333346 0.333343 
0.229581 0.200368 0.196033 0.237005 0.237111 0.282707 0.213565 0.164878 0.158438 
0.150374 0.148066 0.153183 0.14756 0.138401 0.158444 0.163921 0.159297 0.163051 
0.158659 0.163621 0.160019 0.162902 0.159874 0.162618 0.159263 0.162998 0.160926 
0.16305 0.159991 0.163024 0.159598 0.162367 0.159956 0.162674 0.160291 0.161784 
0.160543 0.161731 0.161073 0.161901 0.161817 0.161274 0.160468 0.161059 0.161726 
0.161249 0.162064 0.160924 0.16302 0.162031 0.16552 0.163019 0.167957 0.167207 
0.172106 0.172609 0.190013 0.213377 0.333328 0.333317 0.333333 0.333414 0.333503 
0.333389 0.333622 0.333762 0.333571 0.333897 0.33406 0.333829 0.334221 0.334402 
0.334118 0.33457 0.334769 0.334438 0.334949 0.335144 0.334771 0.335307 0.335483 
0.335102 0.335635 0.335791 0.335408 0.335913 0.336037 0.335676 0.336134 0.336247 
0.335895 0.336314 0.336368 0.336058 0.336404 0.336429 0.336158 0.336428 0.33641 
0.336194 0.33637 0.336312 0.33616 0.336232 0.336133 0.336052 0.33604 0.335912 
0.335885 0.33578 0.335618 0.335669 0.335462 0.335255 0.335389 0.33509 0.334901 
0.335073 0.334721 0.334516 0.334734 0.334344 0.33416 0.33439 0.334005 0.333839 
0.334073 0.333707 0.333578 0.333789 0.333491 0.333409 0.333565 0.333344 0.333314 
0.333392 0.333299 0.333321 0.33335 0.333302 0.398912 0.429857 0.381555 0.356673 
0.340256 0.377677 0.327163 0.319267 0.34458 0.312 0.307808 0.325712 0.303833 
0.301605 0.314997 0.298982 0.297909 0.308547 0.296552 0.296272 0.304584 0.29565 
0.29576 0.302581 0.2952 0.295601 0.301401 0.295703 0.296296 0.30088 0.296614 
0.297346 0.301261 0.297765 0.298637 0.301948 0.299252 0.300384 0.302905 0.30138 
0.302765 0.304442 0.30411 0.306182 0.306681 0.307841 0.310392 0.309552 0.312426 
0.315877 0.313125 0.318502 0.322231 0.317669 0.32525 0.329945 0.323228 0.332992 
0.336906 0.329381 0.339647 0.342698 0.335325 0.344316 0.345596 0.339738 0.345899 
0.345048 0.341697 0.344007 0.341559 0.340827 0.33947 0.336151 0.337482 0.334028 
0.330743 0.333098 0.32898 0.326679 0.329152 0.325308 0.323648 0.326065 0.322743 
0.321767 0.323938 0.321308 0.320953 0.322695 0.32088 0.32096 0.322248 0.321127 
0.321475 0.322386 0.321785 0.322403 0.322909 0.322912 0.323605 0.323737 0.324156 
0.324968 0.324792 0.325597 0.326326 0.325968 0.326934 0.327641 0.327191 0.328162 
0.328858 0.328306 0.329379 0.329965 0.32934 0.330436 0.330979 0.330322 0.331402 
0.331856 0.331211 0.332212 0.332584 0.331982 0.332837 0.333053 0.332588 0.333217 
0.333271 0.332988 0.136954 0.142356 0.333272 0.333023 0.332828 0.145104 0.158722 
0.332591 0.332232 0.33254 0.331872 0.33144 0.331954 0.331008 0.33039 0.331165 
0.329876 0.329254 0.330224 0.328713 0.328039 0.329176 0.327476 0.326733 0.328081 
0.32612 0.325324 0.326913 0.324735 0.323995 0.325711 0.323433 0.322786 0.324575 
0.322307 0.321694 0.323545 0.321377 0.321039 0.322741 0.320902 0.320843 0.322245 
0.320973 0.321384 0.322217 0.321956 0.322984 0.32283 0.323921 0.325678 0.324248 
0.327223 0.329986 0.32675 0.331921 0.335157 0.330307 0.337246 0.34027 0.334398 
0.342209 0.344469 0.338355 0.345347 0.34582 0.34124 0.345404 0.343694 0.341513 
0.341773 0.338103 0.338784 0.334991 0.330317 0.333472 0.327276 0.323076 0.327102 
0.320015 0.315997 0.320985 0.313525 0.310731 0.315589 0.308764 0.306354 0.311354 
0.304935 0.303239 0.308011 0.302133 0.300673 0.305565 0.299757 0.298696 0.30364 
0.298007 0.297132 0.302113 0.296624 0.295881 0.300935 0.295714 0.295044 0.300345 
0.295209 0.294801 0.300314 0.295174 0.295186 0.3008 0.295886 0.29628 0.301971 
0.297802 0.299201 0.304366 0.302282 0.304989 0.309076 0.309499 0.314504 0.316624 
0.322259 0.330823 0.328385 0.344646 0.36387 0.348682 0.391046 0.444312 0.38205 
0.347711 0.300664 0.2777 0.272487 0.266512 0.356227 0.258722 0.25309 0.333557 
0.247322 0.24536 0.320561 0.240588 0.238122 0.290071 0.239905 0.238855 0.28709 
0.238785 0.238044 0.282754 0.238569 0.238636 0.281136 0.239009 0.238522 0.280029 
0.238791 0.23792 0.280256 0.239022 0.238292 0.27931 0.238496 0.237632 0.279003 
0.238412 0.237728 0.279758 0.238798 0.238194 0.280004 0.238573 0.238368 0.281033 
0.238928 0.238487 0.280022 0.238359 0.238427 0.27943 0.238803 0.238809 0.279108 
0.23868 0.238966 0.280399 0.239658 0.240503 0.280806 0.24041 0.241994 0.283169 
0.242695 0.245217 0.285647 0.247424 0.251547 0.290143 0.255981 0.261893 0.300517 
0.274103 0.298322 0.322493 0.331441 0.384549 0.297083 0.298905 0.382554 0.289372 
0.290254 0.337717 0.287828 0.28808 0.326842 0.288096 0.287975 0.322419 0.287761 
0.287555 0.322079 0.286807 0.287523 0.320711 0.285946 0.286968 0.320807 0.286968 
0.286552 0.323217 0.286382 0.2861 0.324638 0.286977 0.286023 0.326233 0.289932 
0.28749 0.328625 0.30094 0.299048 0.339372 0.374577 0.318289 0.384936 0.295885 
0.327279 0.327852 0.371364 0.303225 0.310429 0.34484 0.290383 0.296413 0.323918 
0.289336 0.296779 0.317688 0.286405 0.287546 0.324045 0.286173 0.286751 0.322739 
0.286705 0.286735 0.324822 0.28615 0.286235 0.325331 0.286304 0.286197 0.325056 
0.286561 0.285991 0.326347 0.288899 0.287563 0.327555 0.29184 0.289544 0.332619 
0.310838 0.296904 0.341798 0.365791 0.322316 0.366603 0.29572 0.326045 0.333314 
0.339938 0.329476 0.287113 0.35511 0.319835 0.286323 0.326715 0.300643 0.324737 
0.297891 0.334838 0.278092 0.314873 0.314528 0.395507 0.361421 0.330701 0.307652 
0.333441 0.333568 0.333667 0.333801 0.333531 0.333935 0.334099 0.333788 0.334255 
0.334426 0.334092 0.334598 0.334777 0.334426 0.334941 0.335106 0.334771 0.335251 
0.335403 0.335089 0.335529 0.335652 0.335378 0.335747 0.335846 0.335611 0.335922 
0.335989 0.335791 0.336034 0.336072 0.335912 0.336086 0.336086 0.335974 0.33607 
0.336035 0.335972 0.335982 0.335911 0.335902 0.335839 0.335741 0.335772 0.335645 
0.335518 0.335596 0.335383 0.335224 0.335357 0.335077 0.334907 0.335066 0.334745 
0.334562 0.334748 0.334398 0.334225 0.33441 0.334064 0.333903 0.334066 0.33377 
0.333635 0.333764 0.333528 0.333427 0.3335 0.333353 0.333275 0.333306 0.320071 
0.324217 0.38064 0.340089 0.358816 0.333218 0.35343 0.341868 0.335325 0.328484 
0.3401 0.323955 0.32008 0.330606 0.316997 0.314367 0.323855 0.311914 0.310506 
0.318874 0.308835 0.308164 0.315166 0.307154 0.306536 0.312664 0.305986 0.30608 
0.311286 0.305784 0.306069 0.310451 0.305959 0.306331 0.310149 0.306588 0.307173 
0.310332 0.307448 0.308398 0.310819 0.308845 0.310134 0.311518 0.31088 0.312455 
0.312672 0.313386 0.315323 0.314304 0.316611 0.319154 0.316488 0.320884 0.323902 
0.319464 0.326113 0.329189 0.323609 0.331611 0.334227 0.328554 0.336307 0.337966 
0.333478 0.338972 0.339262 0.336831 0.338805 0.337686 0.337248 0.33599 0.333776 
0.334675 0.332074 0.329903 0.330663 0.328719 0.326958 0.327491 0.326173 0.324955 
0.325491 0.324536 0.323714 0.324314 0.323592 0.323201 0.323827 0.323261 0.323226 
0.323849 0.323393 0.323584 0.324172 0.323834 0.324154 0.324656 0.324521 0.325028 
0.325332 0.325432 0.325969 0.326133 0.326443 0.327059 0.327033 0.32752 0.328119 
0.327981 0.328515 0.329031 0.328855 0.329408 0.329908 0.329634 0.330291 0.330746 
0.330387 0.331111 0.331515 0.331125 0.331852 0.332187 0.331809 0.332472 0.332721 
0.3324 0.332955 0.333118 0.332907 0.321758 0.354986 0.369729 0.356522 0.348203 
0.33266 0.332415 0.332145 0.331784 0.332306 0.331463 0.331026 0.331709 0.330658 
0.330143 0.331009 0.329728 0.329186 0.330211 0.328789 0.32822 0.329374 0.327765 
0.327152 0.328491 0.326706 0.326118 0.327563 0.32569 0.325145 0.326656 0.324766 
0.324281 0.325805 0.323938 0.323598 0.325028 0.323334 0.32316 0.324348 0.323053 
0.323186 0.323904 0.323201 0.323772 0.323718 0.32397 0.324925 0.323988 0.325538 
0.327011 0.324825 0.328084 0.329936 0.326404 0.331348 0.333313 0.328896 0.335141 
0.336933 0.332252 0.338322 0.339277 0.335905 0.339354 0.338829 0.337611 0.337251 
0.33506 0.336032 0.332496 0.32915 0.331461 0.326885 0.323774 0.32615 0.321846 
0.31881 0.32154 0.317172 0.31477 0.317803 0.313633 0.311733 0.314937 0.31091 
0.309541 0.312989 0.308937 0.307852 0.311598 0.307415 0.30655 0.310531 0.306227 
0.305576 0.309804 0.305491 0.305013 0.309441 0.305129 0.304956 0.309389 0.305364 
0.305498 0.309783 0.306172 0.306586 0.310753 0.307722 0.308454 0.312512 0.310239 
0.312023 0.315112 0.314708 0.318076 0.319312 0.321706 0.326109 0.325423 0.331404 
0.339107 0.333075 0.345849 0.358216 0.351386 0.343483 0.333229 0.324502 0.330217 
0.31217 0.302106 0.292367 0.286787 0.312001 0.284796 0.28652 0.298916 0.281962 
0.28171 0.292146 0.279686 0.280305 0.288682 0.277849 0.277356 0.286143 0.276201 
0.275733 0.284213 0.274565 0.275719 0.282829 0.274655 0.275145 0.281934 0.274061 
0.274802 0.281653 0.273977 0.27489 0.281158 0.274601 0.275296 0.280839 0.274806 
0.274676 0.280864 0.274804 0.274662 0.281101 0.274607 0.27492 0.281566 0.274957 
0.274899 0.282106 0.274987 0.276143 0.282622 0.276979 0.27737 0.284049 0.279076 
0.279533 0.286261 0.282447 0.283631 0.290198 0.288474 0.290683 0.29648 0.298398 
0.304872 0.306597 0.32323 0.328267 0.336676 0.333507 0.355605 0.314654 0.341626 
0.340433 0.340658 0.328422 0.340996 0.318673 0.319423 0.326936 0.316993 0.317666 
0.322903 0.315974 0.316549 0.321225 0.316082 0.315971 0.320596 0.317401 0.316983 
0.320597 0.319068 0.318853 0.321438 0.320787 0.320716 0.32361 0.326501 0.3245 
0.327739 0.33488 0.332031 0.334055 0.345791 0.341358 0.34062 0.304766 0.326075 
0.324382 0.312072 0.35119 0.333158 0.305139 0.360489 0.320511 0.339072 0.344329 
0.320954 0.322027 0.318152 0.317839 0.325755 0.318706 0.317073 0.323524 0.319705 
0.319502 0.32339 0.320469 0.320341 0.323851 0.321939 0.321409 0.325306 0.324406 
0.324029 0.32794 0.329688 0.328246 0.332133 0.33915 0.33533 0.338113 0.339296 
0.346463 0.342183 0.298081 0.318748 0.333299 0.329902 0.334579 0.341541 0.323823 
0.327887 0.336019 0.32945 0.323193 0.30146 0.333172 0.333154 0.333113 0.333113 
0.33792 0.310822 0.334351 0.332883 0.314174 0.297503 0.333271 0.327701 0.343343 
0.328282 0.313881 0.320093 0.314206 0.301095 0.309913 0.328301 0.302518 0.31869 
0.310485 0.332803 0.324385 0.324988 0.337226 0.333529 0.33368 0.333859 0.334037 
0.33362 0.334231 0.334421 0.334016 0.334616 0.334799 0.334433 0.334972 0.335141 
0.334837 0.335292 0.335433 0.335177 0.335551 0.335656 0.335472 0.335744 0.335824 
0.335694 0.335885 0.335934 0.335855 0.335968 0.335985 0.335956 0.335986 0.335969 
0.335992 0.335933 0.335879 0.335956 0.335816 0.335735 0.335849 0.335639 0.335532 
0.335679 0.335409 0.335259 0.335443 0.335103 0.334936 0.335145 0.334768 0.334587 
0.334802 0.334403 0.334214 0.334421 0.334027 0.33385 0.334019 0.333674 0.333516 
0.333623 0.333376 0.333257 0.33329 0.325917 0.327144 0.328932 0.329066 0.331059 
0.331282 0.340159 0.335686 0.334174 0.330472 0.333237 0.328596 0.325977 0.330548 
0.324374 0.322174 0.327731 0.320491 0.31893 0.324821 0.317633 0.316789 0.322241 
0.316049 0.315553 0.320411 0.314957 0.314755 0.319276 0.314314 0.314188 0.318348 
0.313919 0.314188 0.317754 0.313996 0.314259 0.317326 0.314103 0.314539 0.317028 
0.314424 0.315124 0.316772 0.315096 0.315979 0.316618 0.316136 0.317369 0.31672 
0.317753 0.319549 0.317194 0.320803 0.323154 0.318697 0.325855 0.328388 0.322648 
0.330782 0.333102 0.32828 0.335943 0.33706 0.334106 0.336965 0.336364 0.337242 
0.33414 0.331949 0.334597 0.329258 0.32714 0.328323 0.325919 0.324709 0.324212 
0.324438 0.323688 0.322734 0.323768 0.323435 0.322617 0.323762 0.323713 0.323154 
0.324174 0.324299 0.324028 0.324735 0.324973 0.324988 0.325376 0.325684 0.325892 
0.326042 0.326435 0.326704 0.326812 0.327236 0.327473 0.32762 0.328098 0.328263 
0.328467 0.328935 0.329033 0.329246 0.329643 0.329719 0.329926 0.330297 0.330312 
0.330565 0.330935 0.330861 0.331199 0.331547 0.331393 0.331842 0.332166 0.331951 
0.332417 0.332694 0.332495 0.332897 0.333118 0.333284 0.332944 0.339879 0.340084 
0.334111 0.324144 0.315175 0.309472 0.339421 0.338116 0.332058 0.331727 0.331472 
0.331089 0.33184 0.330791 0.330359 0.331272 0.330055 0.329627 0.330646 0.329329 
0.328861 0.330013 0.328485 0.328025 0.329323 0.327664 0.327214 0.328567 0.32685 
0.326443 0.327816 0.326074 0.325685 0.327044 0.325322 0.324998 0.326258 0.324618 
0.324436 0.325446 0.324054 0.324014 0.324604 0.323665 0.323868 0.323767 0.323572 
0.324138 0.322966 0.324409 0.325436 0.322893 0.325769 0.327225 0.323524 0.329246 
0.331121 0.326059 0.334083 0.335841 0.331396 0.336934 0.337061 0.336095 0.336012 
0.334233 0.336392 0.331153 0.328182 0.331269 0.325178 0.322473 0.324632 0.321178 
0.319214 0.3201 0.318357 0.316667 0.318009 0.316155 0.315082 0.316644 0.315035 
0.314269 0.316153 0.314288 0.313736 0.316219 0.313761 0.313335 0.316324 0.313416 
0.313151 0.316447 0.313322 0.313223 0.316692 0.313563 0.313622 0.317147 0.314253 
0.314642 0.317957 0.315349 0.315952 0.319192 0.316787 0.317773 0.320569 0.319056 
0.320538 0.322452 0.322627 0.32541 0.325195 0.32696 0.330307 0.328784 0.332027 
0.336423 0.331633 0.327493 0.327623 0.321269 0.31028 0.327544 0.339463 0.306002 
0.302826 0.315677 0.300508 0.298574 0.309029 0.296673 0.295025 0.304666 0.293586 
0.292188 0.301179 0.290986 0.29011 0.298303 0.289308 0.288626 0.29609 0.288036 
0.287787 0.294532 0.287336 0.286987 0.293306 0.286726 0.286482 0.292455 0.286335 
0.286388 0.291965 0.286361 0.286196 0.291714 0.286426 0.286673 0.291898 0.287059 
0.287273 0.292504 0.287627 0.287922 0.293293 0.288072 0.288584 0.293886 0.289283 
0.290295 0.294914 0.291592 0.293127 0.297078 0.29553 0.298162 0.301057 0.301435 
0.305338 0.307122 0.310015 0.316445 0.327158 0.315129 0.333399 0.336332 0.334457 
0.323847 0.324053 0.327729 0.324205 0.323975 0.327482 0.325457 0.324557 0.327842 
0.327661 0.326374 0.329187 0.331802 0.329318 0.331704 0.336384 0.333862 0.334973 
0.33794 0.337705 0.336591 0.321447 0.3316 0.330952 0.321548 0.339068 0.323589 
0.316677 0.328096 0.31033 0.312214 0.317575 0.332861 0.32975 0.331184 0.328429 
0.327981 0.331898 0.330029 0.329238 0.332922 0.332519 0.331122 0.334533 0.336213 
0.334137 0.336796 0.339613 0.337697 0.339043 0.336702 0.339076 0.337902 0.31001 
0.308156 0.328024 0.328761 0.333053 0.331725 0.33339 0.34095 0.344275 0.332713 
0.320373 0.332567 0.332293 0.332341 0.342893 0.330766 0.327572 0.338004 0.312492 
0.31709 0.33328 0.338394 0.333163 0.333087 0.314952 0.315506 0.32306 0.32588 
0.320878 0.334192 0.333038 0.332972 0.332744 0.31451 0.339318 0.338679 0.336621 
0.330635 0.334981 0.325197 0.336393 0.337733 0.338736 0.341984 0.340071 0.334744 
0.329712 0.317513 0.315064 0.325952 0.316608 0.314712 0.327413 0.335549 0.335305 
0.332644 0.334308 0.314649 0.311912 0.320353 0.332763 0.338173 0.336061 0.338837 
0.333743 0.333977 0.334236 0.334468 0.333989 0.334693 0.334905 0.334524 0.335118 
0.335304 0.335011 0.335468 0.335605 0.335415 0.335726 0.335826 0.335732 0.335907 
0.335976 0.335951 0.33604 0.33608 0.336108 0.336114 0.336119 0.336214 0.336102 
0.336061 0.336233 0.335994 0.335919 0.336141 0.335823 0.335708 0.335959 0.335574 
0.335429 0.335708 0.335253 0.335067 0.335369 0.334866 0.334661 0.334955 0.334442 
0.334223 0.3345 0.333984 0.333759 0.334001 0.33353 0.333328 0.333492 0.333129 
0.332968 0.333031 0.331243 0.331999 0.332731 0.333895 0.334729 0.327942 0.31348 
0.317443 0.330609 0.329286 0.32954 0.328186 0.328718 0.327982 0.326553 0.328888 
0.325929 0.32487 0.328417 0.324232 0.323693 0.327424 0.323146 0.3227 0.326488 
0.322174 0.321836 0.325636 0.321344 0.321114 0.324852 0.320607 0.320468 0.323945 
0.319912 0.319768 0.323003 0.319066 0.318925 0.321807 0.318159 0.31807 0.320373 
0.3174 0.317432 0.318948 0.316676 0.316947 0.3174 0.316323 0.317585 0.31557 
0.319997 0.323052 0.325613 0.331915 0.335274 0.339397 0.33926 0.32962 0.326059 
0.320846 0.320602 0.321408 0.321545 0.319664 0.322549 0.32292 0.321469 0.323866 
0.32441 0.323407 0.32524 0.325733 0.325221 0.326393 0.326844 0.32673 0.327331 
0.327725 0.32788 0.328176 0.328578 0.328825 0.32899 0.32939 0.329696 0.329697 
0.330072 0.330418 0.3303 0.330611 0.33095 0.330791 0.331068 0.331354 0.331221 
0.331487 0.331685 0.331649 0.331905 0.332001 0.332052 0.332343 0.33231 0.332671 
0.332927 0.332806 0.331305 0.323361 0.330451 0.330438 0.330386 0.330502 0.330763 
0.333852 0.333361 0.331844 0.331532 0.33133 0.330996 0.331893 0.330771 0.330451 
0.331442 0.330217 0.329836 0.330966 0.329541 0.329165 0.33043 0.32883 0.328448 
0.329791 0.328052 0.327654 0.329051 0.327185 0.326779 0.328179 0.326249 0.325811 
0.327172 0.325174 0.324726 0.325996 0.323848 0.32341 0.324474 0.322369 0.322082 
0.322626 0.320532 0.320696 0.319911 0.321283 0.323423 0.328249 0.331749 0.337199 
0.33428 0.330882 0.32268 0.319362 0.31855 0.317432 0.316386 0.317542 0.316792 
0.316317 0.317137 0.316698 0.317043 0.317379 0.317425 0.317773 0.318237 0.318345 
0.319411 0.318874 0.318973 0.320846 0.319385 0.319496 0.321816 0.319988 0.320154 
0.32274 0.320696 0.321038 0.323706 0.321617 0.322158 0.324745 0.322687 0.323308 
0.325673 0.323824 0.324492 0.326524 0.325004 0.326138 0.327475 0.326465 0.328349 
0.328328 0.328607 0.329465 0.328677 0.330361 0.331871 0.327935 0.328641 0.336304 
0.33578 0.334202 0.328334 0.334691 0.335802 0.3357 0.319034 0.31658 0.313948 
0.323976 0.311874 0.309996 0.319348 0.30802 0.306382 0.304994 0.303695 0.311695 
0.302536 0.301613 0.309144 0.300839 0.300119 0.307182 0.29946 0.298937 0.305725 
0.29816 0.297834 0.304222 0.297425 0.297239 0.303004 0.297102 0.297058 0.302503 
0.297373 0.297597 0.302685 0.298098 0.298521 0.30357 0.298911 0.299302 0.304489 
0.2996 0.299903 0.305183 0.300423 0.301243 0.306029 0.30198 0.303463 0.307374 
0.305674 0.308221 0.310309 0.311352 0.314672 0.315845 0.330778 0.330542 0.333261 
0.311712 0.313892 0.314547 0.331849 0.331027 0.333545 0.333909 0.332725 0.334419 
0.335973 0.334896 0.335747 0.33571 0.335966 0.335759 0.316387 0.321528 0.332282 
0.332013 0.332269 0.318229 0.335419 0.335156 0.3389 0.3393 0.338418 0.339675 
0.339508 0.340643 0.335879 0.338212 0.338585 0.324102 0.330514 0.331542 0.330199 
0.329646 0.326977 0.323089 0.333264 0.33347 0.332854 0.327855 0.332641 0.332334 
0.324418 0.337765 0.336913 0.339619 0.340453 0.320884 0.332697 0.333081 0.333412 
0.31507 0.318008 0.315036 0.331847 0.312562 0.314977 0.316458 0.3329 0.319593 
0.338377 0.335777 0.335922 0.335973 0.337888 0.335285 0.327141 0.322706 0.318413 
0.320725 0.318171 0.318463 0.338182 0.334704 0.335072 0.31756 0.322064 0.337192 
0.338257 0.315486 0.315746 0.317941 0.33924 0.336079 0.336829 0.339808 0.338657 
0.325217 0.31892 0.320423 0.332455 0.332626 0.335267 0.335233 0.334343 0.33462 
0.334917 0.335178 0.33477 0.335435 0.33564 0.335374 0.335813 0.335955 0.335843 
0.336074 0.336168 0.336164 0.336226 0.336302 0.336356 0.336412 0.33646 0.33655 
0.336484 0.336466 0.336695 0.336403 0.336321 0.336653 0.336205 0.336086 0.336456 
0.335929 0.335764 0.33616 0.335568 0.335352 0.335769 0.3351 0.334852 0.335275 
0.334582 0.334313 0.334699 0.334015 0.333728 0.334085 0.333409 0.333136 0.333419 
0.332851 0.334055 0.330461 0.327442 0.333516 0.329185 0.329146 0.329935 0.329546 
0.329753 0.32974 0.329387 0.33102 0.329269 0.328929 0.331275 0.328753 0.328222 
0.331181 0.328128 0.327632 0.330799 0.327136 0.32663 0.33013 0.326026 0.325489 
0.328991 0.324698 0.324001 0.327636 0.322815 0.321996 0.325707 0.320534 0.319664 
0.323063 0.319015 0.317826 0.320874 0.315923 0.320686 0.321647 0.323167 0.324094 
0.32276 0.325468 0.326289 0.325494 0.32734 0.327994 0.327834 0.328687 0.329178 
0.329458 0.329423 0.329885 0.330304 0.330456 0.330874 0.33112 0.331181 0.331494 
0.33197 0.331641 0.331868 0.332404 0.331954 0.332133 0.332623 0.3322 0.33235 
0.332769 0.332414 0.332572 0.332893 0.332648 0.332782 0.333019 0.332546 0.332336 
0.31875 0.33578 0.335264 0.332165 0.331912 0.332791 0.331777 0.331536 0.332476 
0.331361 0.331061 0.332166 0.330819 0.33048 0.331754 0.330116 0.329723 0.331167 
0.329227 0.328757 0.330342 0.32807 0.327527 0.329203 0.327017 0.326382 0.328022 
0.325403 0.324497 0.326613 0.323182 0.322157 0.324429 0.320785 0.335302 0.335189 
0.337088 0.317408 0.318426 0.320785 0.321641 0.320445 0.322844 0.323411 0.32432 
0.324262 0.324716 0.32628 0.325454 0.325972 0.327808 0.326668 0.327163 0.329133 
0.327591 0.328096 0.330174 0.328359 0.328784 0.330718 0.328815 0.329192 0.330867 
0.329001 0.329368 0.330475 0.328784 0.328853 0.329498 0.328465 0.326641 0.326045 
0.337755 0.334584 0.317104 0.315742 0.325128 0.314666 0.31355 0.320008 0.312952 
0.31218 0.318458 0.311659 0.311002 0.317444 0.310293 0.309531 0.316256 0.307939 
0.30754 0.313929 0.308425 0.308303 0.313279 0.307378 0.307681 0.313248 0.309183 
0.309668 0.313727 0.310039 0.31044 0.315659 0.310516 0.310838 0.316069 0.311088 
0.311665 0.316311 0.311972 0.312765 0.316875 0.313292 0.315439 0.31765 0.336448 
0.336124 0.336797 0.33555 0.336082 0.336397 0.332766 0.332593 0.318064 0.322951 
0.339242 0.340125 0.339873 0.340506 0.326445 0.32713 0.32673 0.330233 0.334847 
0.335764 0.336114 0.341302 0.341105 0.337994 0.339923 0.336388 0.341356 0.341866 
0.341008 0.32394 0.333718 0.33403 0.334108 0.320531 0.318546 0.336163 0.33634 
0.337019 0.319571 0.321695 0.322245 0.333089 0.333413 0.343103 0.342178 0.341975 
0.336842 0.318888 0.330738 0.32655 0.333566 0.333002 0.341459 0.343486 0.341737 
0.316321 0.316171 0.335457 0.335707 0.337287 0.335968 0.335526 0.33628 0.335273 
0.33536 0.337329 0.337214 0.341834 0.342414 0.321069 0.318872 0.32024 0.322024 
0.32137 0.341927 0.146258 0.159056 0.323259 0.341226 0.340775 0.343479 0.333832 
0.334096 0.331248 0.320482 0.322337 0.323281 0.333435 0.322959 0.326149 0.329824 
0.32376 0.341495 0.340418 0.343065 0.323539 0.327674 0.329369 0.323584 0.339605 
0.321514 0.324586 0.326815 0.335345 0.335658 0.336318 0.336453 0.33663 0.336692 
0.336798 0.336832 0.147184 0.160509 0.337022 0.337064 0.337194 0.337037 0.336962 
0.337377 0.336794 0.336655 0.337182 0.336461 0.336269 0.336785 0.336041 0.335799 
0.336321 0.335493 0.335181 0.335736 0.334829 0.334502 0.335023 0.334179 0.333825 
0.334282 0.333384 0.329151 0.330171 0.32716 0.3375 0.337228 0.331769 0.332099 
0.331061 0.332788 0.332876 0.333334 0.333275 0.333123 0.334535 0.333352 0.33309 
0.335152 0.33294 0.332368 0.335195 0.331769 0.331107 0.3344 0.330447 0.329653 
0.33312 0.32871 0.32755 0.331563 0.325277 0.323775 0.325129 0.32588 0.327184 
0.325824 0.328594 0.329586 0.330451 0.331138 0.331464 0.331569 0.331774 0.332647 
0.332316 0.148318 0.161953 0.332816 0.333119 0.333537 0.333266 0.333405 0.33413 
0.333371 0.333453 0.334201 0.333367 0.33343 0.334064 0.333361 0.333417 0.3339 
0.335445 0.338339 0.324495 0.323548 0.326058 0.336459 0.337055 0.337991 0.338072 
0.333198 0.333052 0.333027 0.332849 0.333727 0.332716 0.332478 0.333577 0.332267 
0.331913 0.333252 0.33152 0.33105 0.332677 0.330265 0.329612 0.331563 0.329123 
0.144713 0.144734 0.328201 0.327256 0.329964 0.325698 0.341685 0.339212 0.317108 
0.328564 0.329391 0.329827 0.330573 0.33211 0.331676 0.332306 0.333586 0.332502 
0.332821 0.334733 0.332758 0.332838 0.334684 0.332442 0.332362 0.334064 0.331407 
0.331003 0.332478 0.329435 0.328656 0.329698 0.33763 0.337504 0.337716 0.324082 
0.323267 0.323055 0.322561 0.327138 0.322317 0.321903 0.326889 0.321543 0.320928 
0.326579 0.320098 0.31859 0.325316 0.319488 0.146644 0.160202 0.319727 0.318818 
0.324919 0.320242 0.147221 0.16043 0.320851 0.321167 0.325801 0.321037 0.321071 
0.326116 0.320741 0.320959 0.325559 0.320725 0.321047 0.324947 0.321029 0.337724 
0.340798 0.342388 0.339793 0.341647 0.343701 0.147099 0.160532 0.333788 0.334158 
0.333458 0.335965 0.336172 0.33645 0.335958 0.334484 0.332539 0.334513 0.337878 
0.338244 0.338064 0.34364 0.328483 0.338711 0.334582 0.334947 0.334316 0.329931 
0.326321 0.326171 0.331091 0.329268 0.331918 0.333989 0.333377 0.335201 0.333395 
0.333211 0.333779 0.333867 0.336607 0.335919 0.336979 0.338194 0.33827 0.339152 
0.335175 0.335796 0.333588 0.327598 0.322844 0.320228 0.343593 0.343716 0.344336 
0.327276 0.330421 0.326088 0.345099 0.345093 0.324701 0.327633 0.324734 0.344757 
0.34474 0.346267 0.344557 0.343616 0.32564 0.329557 0.326513 0.343181 0.161837 
0.143551 0.337484 0.337731 0.159955 0.131793 0.337836 0.337817 0.338166 0.337656 
0.337451 0.338135 0.337142 0.336912 0.337617 0.336671 0.336392 0.337006 0.33599 
0.335616 0.336316 0.335149 0.334733 0.335379 0.327171 0.328183 0.328661 0.331355 
0.329663 0.333662 0.334436 0.335342 0.335878 0.335586 0.336821 0.337057 0.337466 
0.337456 0.337282 0.338911 0.336966 0.336318 0.339084 0.335508 0.334793 0.338 
0.334906 0.329911 0.329914 0.334391 0.332587 0.333423 0.336129 0.332819 0.328209 
0.333905 0.334297 0.335144 0.11861 0.15597 0.165296 0.139979 0.334548 0.334989 
0.335778 0.33495 0.335092 0.335928 0.34478 0.34485 0.345936 0.345438 0.334495 
0.334368 0.33417 0.333976 0.335096 0.333213 0.332484 0.333489 0.335116 0.334367 
0.3317 0.330807 0.331688 0.327745 0.330141 0.33171 0.338299 0.338297 0.33901 
0.339297 0.344216 0.342432 0.346641 0.345224 0.335327 0.336385 0.33703 0.337204 
0.338735 0.336356 0.336214 0.338537 0.33545 0.334831 0.336826 0.333238 0.332005 
0.329539 0.337632 0.338279 0.330553 0.330542 0.333236 0.331075 0.33091 0.334815 
0.330525 0.32981 0.335022 0.330636 0.331166 0.345255 0.345851 0.338295 0.338895 
0.339284 0.33885 0.337191 0.334956 0.335432 0.334603 0.336858 0.337076 0.337591 
0.347084 0.347095 0.346453 0.345755 0.344879 0.346826 0.334232 0.330313 0.331634 
0.335844 0.336026 0.339722 0.339469 0.339597 0.334435 0.334397 0.333835 0.331001 
0.336209 0.331301 0.334921 0.334888 0.335698 0.334704 0.335365 0.337658 0.33697 
0.335158 0.332455 0.334008 0.333637 0.334612 0.332685 0.334345 0.339188 0.33945 
0.341712 0.334259 0.336581 0.337103 0.340883 0.339773 0.336387 0.331568 0.330511 
0.330262 0.335127 0.329389 0.329015 0.333556 0.328001 0.336792 0.34667 0.346982 
0.347464 0.33826 0.332241 0.333532 0.343008 0.343518 0.344795 0.331688 0.335007 
0.334938 0.334327 0.336802 0.335887 0.335974 0.336036 0.334952 0.334587 0.33546 
0.332936 0.336218 0.336678 0.33701 0.336939 0.333666 0.335332 0.336062 0.336721 
0.334362 0.33851 0.339133 0.335089 0.337829 0.336869 0.336261 0.33666 0.336436 
0.336805 0.338635 0.338744 0.338635 0.338425 0.339104 0.337924 0.337541 0.338405 
0.33663 0.336137 0.339388 0.339059 0.338604 0.336322 0.337262 0.335373 0.339998 
0.339678 0.339646 0.33835 0.340056 0.340536 0.339716 0.341036 0.340819 0.342073 
0.340024 0.33737 0.344161 0.342992 0.337405 0.337884 0.33832 0.33987 0.340756 
0.341591 0.337092 0.336895 0.337125 0.33799 0.34579 0.346264 0.345637 0.33578 
0.335876 0.338413 0.339011 0.338244 0.341452 0.342041 0.340363 0.339495 0.339409 
0.339719 0.343742 0.338631 0.336486 0.33754 0.337904 0.346707 0.335969 0.335589 
0.343446 0.341367 0.33771 0.336874 0.338388 0.337607 0.336303 0.341819 0.345632 
0.333595 0.338619 0.339374 0.33549 0.337263 0.337155 0.339675 0.337914 0.33893 
0.338284 0.343934 0.339886 0.343731 0.344863 0.345693 0.344012 0.342837 0.337863 
0.154981 0.346959 0.339589 0.339428 0.341205 0.343214 0.338818 0.102225 0.339727 
0.336639 0.340009 0.339812 0.339833 0.337816 0.337307 0.347029 0.34709 0.339435 
0.338382 0.338796 0.339134 0.346705 0.146606 0.164274 0.337401 0.345769 0.345879 
0.344844 0.338924 0.346273 0.339492 0.145905 0.161639 0.333333 0.333321 0.333306 
0.333468 0.333395 0.333363 0.333695 0.333579 0.333519 0.333996 0.333837 0.333765 
0.334339 0.334162 0.334065 0.33471 0.334507 0.334388 0.335075 0.334884 0.33472 
0.335412 0.335233 0.335042 0.335758 0.335573 0.335348 0.336029 0.33589 0.335634 
0.336218 0.336124 0.335862 0.336349 0.336296 0.336028 0.336403 0.336386 0.336131 
0.336373 0.3364 0.336157 0.336272 0.336337 0.336116 0.336101 0.336204 0.336009 
0.335867 0.336002 0.335842 0.335582 0.335744 0.335618 0.335239 0.33543 0.335349 
0.334887 0.335078 0.335042 0.334525 0.334724 0.334731 0.334175 0.334355 0.334401 
0.333858 0.334027 0.334087 0.333594 0.333722 0.333806 0.33341 0.333493 0.333565 
0.33332 0.333343 0.333391 0.333323 0.33331 0.33331 0.333358 0.39905 0.387381 
0.455213 0.345338 0.363576 0.378808 0.323145 0.332013 0.348663 0.31043 0.315086 
0.329968 0.302876 0.305265 0.317611 0.298498 0.299806 0.309777 0.296491 0.296867 
0.305254 0.295589 0.295522 0.302709 0.295775 0.295377 0.301563 0.296192 0.295616 
0.301232 0.297168 0.296413 0.301224 0.298679 0.29779 0.302046 0.3005 0.299439 
0.303396 0.302742 0.301419 0.304981 0.305576 0.30387 0.306914 0.309227 0.307004 
0.309309 0.313695 0.310973 0.312316 0.319611 0.315949 0.316148 0.326482 0.322195 
0.320851 0.334057 0.329663 0.326637 0.340405 0.336817 0.332688 0.344233 0.342371 
0.337623 0.34489 0.344998 0.3405 0.342261 0.344162 0.340526 0.337623 0.340688 
0.338033 0.332235 0.335588 0.334178 0.327705 0.330313 0.330073 0.324369 0.326259 
0.326729 0.32218 0.32343 0.324412 0.321173 0.321644 0.323033 0.320974 0.320994 
0.322418 0.321391 0.321078 0.322412 0.322224 0.321732 0.32289 0.323371 0.322684 
0.323713 0.324594 0.323895 0.324699 0.326002 0.325186 0.325807 0.3274 0.326591 
0.326968 0.328638 0.327958 0.328112 0.329864 0.329212 0.329236 0.330919 0.330343 
0.330275 0.331803 0.331342 0.331175 0.332514 0.332157 0.331942 0.333033 0.332782 
0.332555 0.355603 0.333185 0.333284 0.33324 0.332766 0.33301 0.332976 0.332112 
0.332479 0.33249 0.33127 0.331743 0.331828 0.330232 0.330845 0.331026 0.329072 
0.329708 0.330076 0.327882 0.328535 0.329014 0.326589 0.327339 0.327936 0.325226 
0.325992 0.326793 0.323978 0.324661 0.325625 0.322695 0.323439 0.324529 0.321681 
0.322212 0.323518 0.321 0.321342 0.322682 0.320803 0.320845 0.322192 0.321279 
0.320912 0.32211 0.322692 0.321818 0.322718 0.325327 0.32364 0.324116 0.329517 
0.326849 0.326419 0.334503 0.331432 0.329851 0.340029 0.33672 0.334024 0.344441 
0.341885 0.33828 0.345708 0.345093 0.34094 0.343357 0.345052 0.341328 0.338235 
0.341437 0.338685 0.330665 0.335275 0.333717 0.323294 0.327625 0.327661 0.316594 
0.320323 0.321488 0.310942 0.314087 0.315984 0.306391 0.3089 0.311514 0.303166 
0.304845 0.308155 0.300557 0.301995 0.305521 0.298371 0.299536 0.303432 0.297006 
0.297826 0.301919 0.295859 0.296569 0.30099 0.294926 0.295512 0.300231 0.29474 
0.294996 0.300039 0.295161 0.295166 0.300715 0.296375 0.296003 0.302168 0.299226 
0.29807 0.304691 0.303654 0.301383 0.30868 0.312723 0.307969 0.315269 0.328645 
0.320413 0.327115 0.35812 0.342714 0.347639 0.423109 0.387613 0.384561 0.433791 
0.28587 0.310022 0.267745 0.274489 0.312407 0.257143 0.260965 0.292003 0.241414 
0.253014 0.278994 0.242911 0.25079 0.281915 0.239176 0.241513 0.287522 0.2383 
0.239663 0.284831 0.23846 0.238912 0.284565 0.238972 0.239021 0.284484 0.2388 
0.239494 0.2844 0.238913 0.239651 0.284347 0.23811 0.238336 0.283857 0.237994 
0.238542 0.282275 0.237608 0.23818 0.282035 0.237724 0.238474 0.281286 0.23755 
0.23833 0.281756 0.238364 0.238925 0.282012 0.239156 0.238964 0.283016 0.239194 
0.238958 0.28357 0.239496 0.238967 0.283122 0.241078 0.239966 0.283815 0.243565 
0.241809 0.287295 0.24811 0.245148 0.29227 0.255978 0.250499 0.300535 0.267391 
0.259089 0.310642 0.296128 0.275183 0.330393 0.391928 0.365664 0.317377 0.30778 
0.294065 0.351419 0.291001 0.287541 0.337725 0.28715 0.285764 0.329403 0.28579 
0.286154 0.325382 0.285286 0.284879 0.32304 0.285774 0.286947 0.322533 0.28626 
0.285109 0.322289 0.286226 0.286688 0.320426 0.286359 0.287054 0.321643 0.287845 
0.288612 0.323641 0.290198 0.295891 0.328108 0.289048 0.308719 0.329071 0.333272 
0.357222 0.344648 0.308859 0.294569 0.356 0.316258 0.305709 0.298693 0.385743 
0.293167 0.295206 0.363168 0.286517 0.287643 0.350239 0.286254 0.286607 0.328834 
0.286784 0.289188 0.327731 0.287387 0.286151 0.325499 0.285525 0.286575 0.321882 
0.287935 0.287667 0.32188 0.287814 0.287883 0.323687 0.28909 0.289599 0.325074 
0.289588 0.291588 0.328274 0.295975 0.301724 0.336002 0.313372 0.362146 0.361695 
0.317775 0.317091 0.333328 0.33572 0.287216 0.327667 0.333297 0.333207 0.333008 
0.355037 0.349539 0.302468 0.323696 0.316486 0.305928 0.319324 0.322035 0.322224 
0.30743 0.326718 0.333213 0.333452 0.333338 0.333268 0.333222 0.333133 0.333195 
0.334072 0.333906 0.334398 0.334228 0.33408 0.334727 0.334549 0.334408 0.335045 
0.334888 0.334729 0.335351 0.33519 0.335045 0.335614 0.335481 0.335325 0.335811 
0.335716 0.335567 0.335953 0.335882 0.335751 0.336033 0.335999 0.335874 0.336048 
0.336053 0.335938 0.335992 0.336029 0.335936 0.335871 0.335942 0.335865 0.335695 
0.335793 0.335732 0.335464 0.335591 0.335545 0.335189 0.335341 0.335312 0.334885 
0.335044 0.335044 0.334563 0.33473 0.334735 0.334226 0.334402 0.334407 0.333931 
0.33408 0.334084 0.333635 0.333779 0.333766 0.333408 0.333515 0.333487 0.33326 
0.333326 0.333272 0.332116 0.339812 0.332798 0.332995 0.349731 0.342718 0.345082 
0.35643 0.341545 0.357679 0.370018 0.338903 0.348008 0.322091 0.327093 0.332928 
0.315212 0.318212 0.325163 0.311099 0.312735 0.319419 0.308666 0.309619 0.315822 
0.307669 0.307884 0.313904 0.306834 0.307058 0.31265 0.306331 0.306149 0.311497 
0.306797 0.306175 0.310627 0.307881 0.307151 0.310982 0.309166 0.308278 0.311755 
0.310706 0.309626 0.312599 0.312594 0.311268 0.313588 0.314864 0.313236 0.314702 
0.317846 0.315736 0.316096 0.321752 0.319197 0.318293 0.326779 0.323614 0.321569 
0.331753 0.329048 0.326117 0.336244 0.334233 0.331184 0.338426 0.337595 0.335255 
0.337439 0.338243 0.336789 0.334393 0.33605 0.334763 0.330628 0.332772 0.331249 
0.327236 0.329155 0.327605 0.32504 0.326392 0.325129 0.323899 0.324789 0.324143 
0.323327 0.323819 0.323815 0.323256 0.323394 0.323838 0.323589 0.323459 0.324152 
0.324274 0.323922 0.32474 0.325105 0.324656 0.325505 0.326029 0.325519 0.326345 
0.32701 0.326436 0.327174 0.327995 0.32742 0.328003 0.328955 0.328404 0.328845 
0.329926 0.329378 0.329691 0.33077 0.330307 0.330479 0.331548 0.331131 0.331208 
0.332223 0.331867 0.331888 0.332759 0.332483 0.332475 0.304161 0.329389 0.307833 
0.332521 0.332947 0.332294 0.332592 0.332663 0.331655 0.332033 0.33219 0.33089 
0.331327 0.331584 0.329997 0.330529 0.330872 0.329052 0.329594 0.330086 0.328106 
0.328659 0.329262 0.327092 0.327692 0.328422 0.3261 0.326651 0.327547 0.325164 
0.325684 0.326679 0.324295 0.324759 0.325844 0.323615 0.323945 0.325071 0.323186 
0.323323 0.324392 0.32312 0.32304 0.323878 0.323595 0.323162 0.323711 0.324722 
0.323911 0.32388 0.326789 0.325382 0.324678 0.329718 0.327887 0.326356 0.333476 
0.331263 0.329046 0.337027 0.335031 0.332498 0.338943 0.338119 0.335525 0.338537 
0.339111 0.337278 0.335191 0.337112 0.336163 0.329806 0.332637 0.331773 0.324311 
0.327512 0.326829 0.319257 0.322287 0.322112 0.315169 0.317691 0.318213 0.312048 
0.314014 0.315375 0.309672 0.311155 0.313316 0.307839 0.308937 0.311681 0.306361 
0.307271 0.31048 0.305478 0.305989 0.30966 0.304908 0.305322 0.309135 0.304788 
0.305009 0.309123 0.305344 0.305211 0.309707 0.306742 0.306124 0.310883 0.308824 
0.307812 0.31258 0.312287 0.310644 0.315386 0.316933 0.314749 0.319378 0.324535 
0.320328 0.324436 0.337698 0.330403 0.332282 0.357531 0.345668 0.343732 0.377428 
0.362053 0.352512 0.33423 0.331542 0.306444 0.287466 0.293154 0.303224 0.312057 
0.31418 0.322612 0.282744 0.285347 0.300275 0.281803 0.28093 0.293756 0.28046 
0.280254 0.289387 0.278728 0.278942 0.285861 0.27779 0.278394 0.284154 0.277324 
0.277817 0.283281 0.277763 0.27733 0.283059 0.277063 0.27678 0.2824 0.276289 
0.276104 0.282089 0.275959 0.275257 0.281472 0.27617 0.27502 0.281447 0.275937 
0.275499 0.281501 0.276525 0.276221 0.281963 0.277652 0.276912 0.282632 0.277616 
0.277359 0.283372 0.278223 0.277659 0.284166 0.280343 0.278731 0.285782 0.283981 
0.282032 0.288551 0.290103 0.288823 0.294398 0.299419 0.297506 0.303472 0.313291 
0.309722 0.315857 0.344617 0.306865 0.347683 0.338774 0.330694 0.312708 0.344788 
0.334292 0.328913 0.340987 0.325116 0.322152 0.33421 0.321081 0.320006 0.327441 
0.31761 0.317716 0.323483 0.316026 0.317094 0.321351 0.316289 0.316356 0.32002 
0.316246 0.316238 0.320002 0.316564 0.317779 0.320775 0.318811 0.319923 0.322999 
0.322722 0.325438 0.326652 0.327841 0.33687 0.333267 0.34117 0.344126 0.329293 
0.34039 0.329648 0.306381 0.318347 0.347873 0.337024 0.331115 0.343501 0.326605 
0.326934 0.337757 0.326667 0.324539 0.331136 0.321515 0.320459 0.3282 0.319195 
0.319017 0.326413 0.318779 0.318639 0.324697 0.318932 0.318865 0.323942 0.319652 
0.320376 0.32438 0.321975 0.322819 0.32638 0.325329 0.326758 0.329591 0.331973 
0.33708 0.33607 0.344113 0.350549 0.342691 0.355208 0.328135 0.333744 0.333597 
0.33341 0.333735 0.333222 0.333021 0.333151 0.328871 0.301186 0.311926 0.325766 
0.332933 0.304397 0.314283 0.340497 0.313351 0.316562 0.316725 0.33608 0.339779 
0.311937 0.297473 0.315529 0.330553 0.336841 0.346726 0.335412 0.338296 0.312959 
0.306072 0.312083 0.325784 0.313684 0.334748 0.334569 0.334031 0.333848 0.335082 
0.334923 0.334777 0.335387 0.33524 0.335137 0.335625 0.335511 0.335432 0.335804 
0.335721 0.335674 0.33592 0.33587 0.335857 0.335969 0.335953 0.335961 0.335947 
0.335967 0.335992 0.335855 0.335911 0.335948 0.335698 0.335784 0.335832 0.335488 
0.335602 0.33565 0.335229 0.335364 0.335412 0.334919 0.335079 0.335122 0.334577 
0.33475 0.334788 0.334223 0.334405 0.334421 0.333864 0.334038 0.334035 0.333522 
0.333688 0.333645 0.333229 0.333365 0.333282 0.333042 0.333129 0.333007 0.332878 
0.315792 0.312654 0.322362 0.314073 0.326513 0.329866 0.334121 0.32345 0.321623 
0.331568 0.335461 0.330886 0.335172 0.322645 0.333276 0.320031 0.321257 0.318481 
0.319165 0.323474 0.317288 0.317785 0.322319 0.315699 0.316419 0.32092 0.314301 
0.314404 0.318915 0.315228 0.314837 0.318275 0.315659 0.315284 0.318885 0.31596 
0.315541 0.318813 0.316252 0.31575 0.318467 0.316583 0.316033 0.318004 0.317132 
0.316374 0.317465 0.318367 0.317147 0.317025 0.321553 0.319528 0.317801 0.325187 
0.322738 0.320365 0.336192 0.334578 0.332192 0.334137 0.324267 0.325964 0.322766 
0.323584 0.321597 0.32294 0.323143 0.321467 0.323512 0.323523 0.322577 0.324157 
0.324044 0.323766 0.324941 0.324702 0.324819 0.325824 0.32546 0.325915 0.326688 
0.326268 0.326925 0.327513 0.327092 0.327799 0.328258 0.327852 0.328553 0.328998 
0.328585 0.329228 0.329726 0.329314 0.329873 0.330439 0.330024 0.330483 0.331078 
0.330714 0.331053 0.331696 0.331342 0.331591 0.332292 0.331967 0.332127 0.332842 
0.332581 0.332689 0.335182 0.342395 0.31062 0.314297 0.321028 0.331614 0.331962 
0.332993 0.330964 0.331347 0.331736 0.330255 0.330678 0.331165 0.329555 0.329977 
0.33057 0.328829 0.329256 0.329964 0.328061 0.328501 0.329326 0.327274 0.327692 
0.328628 0.326503 0.32691 0.327884 0.325746 0.326102 0.327108 0.325016 0.325329 
0.326277 0.324416 0.324589 0.325415 0.323987 0.323978 0.324536 0.323768 0.323545 
0.323633 0.324061 0.323526 0.322938 0.325521 0.324495 0.32293 0.32814 0.326514 
0.324294 0.331628 0.329811 0.327104 0.33452 0.332942 0.330611 0.336906 0.336462 
0.334793 0.334459 0.336103 0.336526 0.328739 0.331594 0.332096 0.323149 0.325775 
0.325391 0.319802 0.322042 0.320794 0.317083 0.318672 0.318422 0.315481 0.316635 
0.31694 0.314456 0.315309 0.316479 0.313714 0.314472 0.316326 0.313249 0.313766 
0.316339 0.312949 0.313242 0.31632 0.312887 0.312964 0.316344 0.313188 0.313086 
0.316616 0.31436 0.313878 0.317498 0.315927 0.315222 0.318872 0.318122 0.316949 
0.320547 0.321289 0.319337 0.322718 0.324935 0.322795 0.325493 0.329496 0.326983 
0.328801 0.336521 0.332183 0.332674 0.343954 0.338396 0.336348 0.339156 0.311527 
0.316447 0.305555 0.309745 0.299185 0.301691 0.311578 0.316261 0.311188 0.315198 
0.326407 0.324719 0.33422 0.321271 0.334394 0.334217 0.334012 0.334406 0.294747 
0.296644 0.304887 0.291802 0.293034 0.300504 0.290123 0.290591 0.297568 0.289152 
0.289526 0.295795 0.288813 0.288901 0.29488 0.288189 0.288538 0.29426 0.287675 
0.287973 0.293758 0.287065 0.28733 0.293168 0.287065 0.286914 0.29268 0.287235 
0.287184 0.292672 0.287981 0.287542 0.293145 0.289091 0.288539 0.294062 0.289702 
0.289553 0.295153 0.2909 0.290316 0.296317 0.292908 0.291815 0.297924 0.296037 
0.294079 0.30019 0.303309 0.299286 0.304661 0.314627 0.309455 0.313723 0.327609 
0.319988 0.325157 0.338238 0.322471 0.324657 0.327829 0.336456 0.333625 0.33152 
0.329358 0.334717 0.327688 0.326201 0.331731 0.325151 0.324318 0.329216 0.323614 
0.323284 0.327435 0.323421 0.323598 0.326736 0.324203 0.324832 0.327481 0.325853 
0.327084 0.328972 0.328677 0.330835 0.331284 0.3332 0.336272 0.334444 0.332188 
0.332464 0.332249 0.338563 0.337137 0.335766 0.334015 0.338633 0.332584 0.331197 
0.33652 0.329995 0.329234 0.334247 0.328701 0.328075 0.332612 0.328193 0.328361 
0.332453 0.328766 0.329272 0.33303 0.330064 0.331417 0.334177 0.332666 0.334432 
0.336018 0.336112 0.338853 0.338353 0.339443 0.33984 0.332732 0.339109 0.335233 
0.338519 0.337811 0.336628 0.338208 0.338981 0.337985 0.331202 0.333111 0.333482 
0.332665 0.333646 0.3337 0.333516 0.331661 0.329704 0.326115 0.316335 0.312052 
0.314718 0.311514 0.325214 0.332111 0.331005 0.328373 0.325213 0.336049 0.336333 
0.328178 0.330284 0.330342 0.335593 0.338251 0.329344 0.332691 0.315016 0.311337 
0.314863 0.324117 0.320855 0.333034 0.33233 0.336642 0.320717 0.313307 0.336257 
0.315368 0.333282 0.317657 0.331681 0.323092 0.336311 0.337503 0.337936 0.312317 
0.313924 0.314925 0.314481 0.325461 0.32451 0.33062 0.319975 0.334838 0.334634 
0.335834 0.335715 0.336022 0.335941 0.336001 0.336119 0.33608 0.336183 0.336132 
0.336136 0.336266 0.336061 0.336106 0.336253 0.335911 0.335996 0.336152 0.335692 
0.335806 0.335966 0.335406 0.335554 0.3357 0.335056 0.335231 0.335357 0.334651 
0.334851 0.334946 0.334226 0.334431 0.334492 0.333776 0.333998 0.334005 0.333322 
0.333537 0.333498 0.332935 0.333113 0.33301 0.332797 0.318055 0.319809 0.333216 
0.32802 0.329617 0.32514 0.319441 0.326972 0.327845 0.328904 0.329171 0.330122 
0.328394 0.34107 0.332766 0.325905 0.326355 0.32628 0.326782 0.328568 0.329014 
0.322049 0.323495 0.322633 0.143898 0.161907 0.322411 0.322356 0.325895 0.321903 
0.322053 0.325355 0.320967 0.321241 0.324391 0.319795 0.320141 0.322914 0.318523 
0.318979 0.32127 0.316956 0.317296 0.318936 0.334667 0.3275 0.333711 0.332397 
0.328221 0.334622 0.31808 0.318709 0.324008 0.323431 0.325557 0.324988 0.324832 
0.326952 0.326391 0.326653 0.328041 0.327562 0.328108 0.328942 0.328522 0.329202 
0.329632 0.329284 0.330013 0.330229 0.329899 0.330618 0.330772 0.330458 0.331115 
0.331271 0.330978 0.331551 0.331725 0.331453 0.331939 0.332165 0.331908 0.332305 
0.33262 0.33235 0.332662 0.333067 0.332782 0.333328 0.338539 0.323181 0.320298 
0.31981 0.317147 0.324045 0.317667 0.323026 0.331444 0.331749 0.330941 0.331256 
0.33182 0.330439 0.330751 0.331412 0.329877 0.330207 0.330979 0.329245 0.329608 
0.330478 0.328553 0.32892 0.329896 0.327746 0.328155 0.329184 0.326825 0.327262 
0.328307 0.325775 0.326225 0.327221 0.324616 0.32508 0.325903 0.323269 0.323737 
0.324375 0.321865 0.32215 0.322271 0.321486 0.321128 0.320275 0.337438 0.335726 
0.33693 0.319836 0.323215 0.316984 0.318096 0.316902 0.317224 0.31676 0.317468 
0.317531 0.31784 0.318329 0.318307 0.319412 0.319008 0.318988 0.320927 0.319317 
0.319326 0.321898 0.31971 0.31967 0.322437 0.320358 0.320172 0.323184 0.321542 
0.320867 0.324016 0.323102 0.322358 0.325235 0.324673 0.323751 0.326508 0.326488 
0.32518 0.327482 0.328489 0.32699 0.328443 0.330674 0.328878 0.329137 0.331098 
0.316839 0.316454 0.316923 0.318301 0.318949 0.315691 0.319262 0.309296 0.311994 
0.319672 0.339481 0.33936 0.301309 0.30194 0.300586 0.300927 0.307059 0.299914 
0.300209 0.306245 0.299405 0.299658 0.305527 0.298875 0.299214 0.305012 0.298509 
0.298665 0.304646 0.298298 0.298165 0.304086 0.298866 0.298539 0.303983 0.300219 
0.299609 0.30499 0.301519 0.300991 0.306525 0.303107 0.302402 0.308165 0.304757 
0.303735 0.3097 0.306851 0.30557 0.31119 0.310738 0.307609 0.312787 0.326689 
0.32692 0.335688 0.336132 0.336059 0.334997 0.335908 0.33557 0.335417 0.335716 
0.329005 0.333031 0.332791 0.334251 0.33306 0.335891 0.332296 0.331376 0.33491 
0.330722 0.330074 0.333806 0.3293 0.329365 0.332516 0.330028 0.330588 0.33242 
0.331198 0.332013 0.333581 0.332677 0.333793 0.334531 0.334685 0.335902 0.335577 
0.332391 0.332634 0.335235 0.335049 0.334934 0.335364 0.302762 0.303968 0.308276 
0.339298 0.338478 0.340825 0.337779 0.336883 0.340622 0.335723 0.33533 0.339151 
0.33587 0.336072 0.338781 0.336339 0.336714 0.339604 0.337016 0.337513 0.340039 
0.33785 0.338691 0.340421 0.33906 0.339608 0.340459 0.324652 0.325462 0.328883 
0.327421 0.331933 0.332217 0.332584 0.322441 0.321768 0.322907 0.318584 0.323103 
0.321162 0.305172 0.306951 0.313751 0.323691 0.324519 0.3335 0.330429 0.327387 
0.335039 0.316894 0.319864 0.320481 0.333063 0.324467 0.333731 0.33343 0.333953 
0.319988 0.316197 0.326629 0.315927 0.338228 0.325225 0.327635 0.333004 0.320643 
0.331283 0.316172 0.332209 0.318884 0.317567 0.318836 0.316949 0.323254 0.32219 
0.326107 0.324357 0.310304 0.315434 0.329511 0.33962 0.339076 0.338153 0.334444 
0.334397 0.334186 0.338372 0.338895 0.336756 0.32001 0.314441 0.316805 0.323944 
0.335721 0.335896 0.335424 0.314488 0.328646 0.333307 0.333451 0.32483 0.322035 
0.331285 0.333752 0.336269 0.33613 0.336469 0.336505 0.336325 0.336403 0.336653 
0.336106 0.336233 0.336477 0.335778 0.335946 0.3362 0.33535 0.335566 0.335794 
0.334842 0.335087 0.335273 0.334285 0.334549 0.33467 0.333719 0.333993 0.334043 
0.333105 0.333392 0.333377 0.332824 0.326731 0.327598 0.327005 0.323248 0.324893 
0.328286 0.328178 0.328564 0.145499 0.162192 0.326911 0.327588 0.330667 0.325052 
0.325929 0.329158 0.322775 0.323749 0.32691 0.322749 0.320765 0.336534 0.336512 
0.336758 0.336463 0.336391 0.33674 0.333264 0.325554 0.324583 0.330433 0.329945 
0.331154 0.330812 0.331615 0.331653 0.331378 0.332187 0.332042 0.331808 0.332564 
0.33236 0.332153 0.332833 0.33262 0.332438 0.33302 0.332907 0.332723 0.333201 
0.333183 0.333007 0.333405 0.333579 0.321857 0.320296 0.321506 0.319071 0.318249 
0.33158 0.331805 0.331933 0.332093 0.332499 0.31962 0.332232 0.332419 0.332703 
0.33115 0.331415 0.332232 0.3306 0.330921 0.33186 0.329911 0.330316 0.331354 
0.328965 0.329464 0.330632 0.327717 0.328328 0.329573 0.326195 0.326901 0.328172 
0.32414 0.325092 0.326282 0.321875 0.323073 0.319948 0.314543 0.315676 0.316951 
0.316402 0.315547 0.318534 0.323829 0.323122 0.324938 0.324602 0.326832 0.325166 
0.32488 0.327566 0.326569 0.32615 0.328382 0.327062 0.326639 0.329306 0.32871 
0.327971 0.330244 0.329335 0.328865 0.331071 0.329593 0.329225 0.330936 0.329493 
0.329141 0.330121 0.328221 0.310684 0.310949 0.31169 0.312098 0.31685 0.318378 
0.321893 0.321693 0.320788 0.321451 0.324634 0.329371 0.328747 0.330715 0.312197 
0.312621 0.317708 0.310383 0.310561 0.315959 0.310485 0.310699 0.316136 0.30991 
0.310237 0.31626 0.308793 0.308559 0.314584 0.310629 0.309898 0.314426 0.312238 
0.311476 0.316323 0.314196 0.313322 0.318202 0.315481 0.31486 0.319826 0.316717 
0.315871 0.320771 0.318006 0.317271 0.321641 0.335497 0.336171 0.33407 0.335946 
0.335759 0.336202 0.327892 0.327043 0.329342 0.336573 0.336424 0.336454 0.318138 
0.328675 0.329043 0.333102 0.330617 0.331371 0.336427 0.336052 0.337295 0.335832 
0.335377 0.337451 0.334927 0.3343 0.337016 0.334894 0.145046 0.162428 0.335187 
0.335565 0.336873 0.33576 0.336047 0.337189 0.336086 0.336462 0.337101 0.332974 
0.329082 0.326595 0.332814 0.332526 0.332721 0.341402 0.342014 0.342589 0.342385 
0.343594 0.342046 0.341053 0.344062 0.341647 0.145682 0.162736 0.341775 0.341961 
0.343837 0.342165 0.342268 0.344124 0.342095 0.341979 0.34393 0.341444 0.341233 
0.342957 0.312885 0.313701 0.318968 0.31796 0.324275 0.328272 0.329501 0.32469 
0.327084 0.336546 0.333941 0.324585 0.321314 0.322821 0.328798 0.328746 0.327164 
0.336493 0.336163 0.335606 0.329706 0.329625 0.32912 0.145118 0.162856 0.331864 
0.325741 0.325274 0.335414 0.316478 0.318577 0.32405 0.324128 0.332898 0.320444 
0.335744 0.335523 0.335304 0.328088 0.34053 0.339373 0.341287 0.328953 0.334511 
0.334226 0.338063 0.339886 0.340964 0.331454 0.331707 0.334093 0.331077 0.33054 
0.332823 0.321202 0.322543 0.32698 0.335062 0.33481 0.334621 0.32348 0.324068 
0.131981 0.161628 0.329016 0.320506 0.335839 0.3361 0.335178 0.335503 0.335781 
0.334438 0.334788 0.334995 0.333695 0.334039 0.334131 0.333282 0.337522 0.337875 
0.331488 0.332473 0.333861 0.330725 0.336955 0.333914 0.333861 0.333316 0.333919 
0.335623 0.325767 0.324132 0.337132 0.337071 0.33327 0.333046 0.336934 0.336775 
0.337323 0.332894 0.332522 0.333993 0.333696 0.333583 0.333675 0.333599 0.334307 
0.333757 0.333653 0.334186 0.332613 0.332833 0.332131 0.33157 0.333473 0.332895 
0.333056 0.333626 0.325392 0.32634 0.327616 0.333166 0.333259 0.332182 0.332467 
0.333444 0.33145 0.331909 0.333057 0.33034 0.330977 0.332334 0.328663 0.329472 
0.331039 0.327371 0.329315 0.327862 0.331823 0.335222 0.328783 0.333551 0.333402 
0.334239 0.337091 0.337134 0.337479 0.331472 0.330494 0.330091 0.329281 0.332347 
0.332425 0.334377 0.333255 0.145162 0.162423 0.333138 0.333013 0.335048 0.332108 
0.332403 0.334025 0.33009 0.330828 0.331846 0.321397 0.322102 0.321584 0.321274 
0.323923 0.32674 0.328199 0.32332 0.320071 0.320154 0.325362 0.325312 0.323153 
0.323183 0.327573 0.320243 0.319192 0.320949 0.320188 0.324822 0.323273 0.322313 
0.325941 0.32452 0.324026 0.327918 0.333182 0.334896 0.328817 0.330027 0.333415 
0.329193 0.336517 0.336266 0.336882 0.336358 0.33655 0.336426 0.330903 0.330033 
0.332469 0.336146 0.336896 0.337306 0.335358 0.330608 0.332994 0.144994 0.163009 
0.338272 0.338288 0.338593 0.338356 0.338079 0.339249 0.135029 0.137668 0.141838 
0.141126 0.337972 0.338156 0.33934 0.338045 0.338052 0.339038 0.337653 0.337275 
0.338356 0.334042 0.331923 0.334556 0.330425 0.345598 0.345424 0.147607 0.345145 
0.345298 0.346667 0.345423 0.345448 0.346508 0.345108 0.344638 0.346221 0.34357 
0.342699 0.344576 0.325501 0.336725 0.336837 0.336901 0.328225 0.325157 0.324741 
0.3291 0.336893 0.336971 0.337352 0.33619 0.335891 0.335628 0.333595 0.333818 
0.321907 0.332165 0.32986 0.329457 0.336931 0.323682 0.336487 0.334021 0.334095 
0.337151 0.335215 0.334395 0.328801 0.331142 0.334235 0.337917 0.32678 0.321496 
0.321707 0.333064 0.333182 0.333693 0.33369 0.328964 0.327189 0.331377 0.331092 
0.321946 0.327041 0.32172 0.326364 0.336235 0.335542 0.338236 0.337119 0.332163 
0.326171 0.331134 0.327783 0.328583 0.341833 0.340398 0.342265 0.336138 0.335615 
0.338373 0.334004 0.333025 0.33549 0.320499 0.326153 0.325076 0.32485 0.328706 
0.328521 0.343823 0.344796 0.345913 0.33497 0.334654 0.334598 0.335253 0.32229 
0.322999 0.325785 0.343408 0.326468 0.335657 0.336066 0.345503 0.34637 0.33242 
0.334159 0.333094 0.337878 0.337893 0.330947 0.331751 0.335144 0.335028 0.334627 
0.334655 0.335021 0.334944 0.335056 0.335317 0.334038 0.334285 0.334348 0.334405 
0.334297 0.334422 0.335257 0.334884 0.337837 0.339064 0.333035 0.336421 0.336827 
0.334468 0.337128 0.335377 0.33681 0.339574 0.335074 0.334723 0.336193 0.339256 
0.337985 0.328549 0.334448 0.335489 0.336804 0.330886 0.332403 0.333403 0.328577 
0.342368 0.344112 0.344477 0.331685 0.331313 0.330599 0.329342 0.334439 0.32947 
0.330735 0.332663 0.331901 0.335095 0.33498 0.335947 0.337619 0.337774 0.338195 
0.333317 0.333789 0.335055 0.336523 0.336835 0.336452 0.3339 0.333257 0.334525 
0.33535 0.335332 0.336035 0.335918 0.3394 0.339628 0.138185 0.339743 0.339661 
0.339951 0.339487 0.339307 0.339906 0.338892 0.338304 0.339317 0.335668 0.334306 
0.333408 0.336605 0.346437 0.346908 0.334154 0.334291 0.334678 0.346801 0.346384 
0.345336 0.344022 0.345885 0.335143 0.335521 0.337364 0.337022 0.33106 0.338725 
0.338812 0.337812 0.337635 0.337813 0.335429 0.332436 0.33733 0.340079 0.340802 
0.33841 0.340898 0.335462 0.32831 0.331301 0.33071 0.334285 0.335149 0.339765 
0.337874 0.338709 0.332717 0.330236 0.341071 0.338286 0.338843 0.339217 0.335394 
0.336865 0.336033 0.339716 0.331339 0.342881 0.343879 0.342048 0.334368 0.335624 
0.340061 0.338781 0.340829 0.335933 0.334941 0.337571 0.337781 0.33673 0.341286 
0.34159 0.159004 0.33464 0.330285 0.335407 0.334278 0.336877 0.336469 0.332178 
0.331823 0.337576 0.329764 0.333965 0.32865 0.347189 0.346972 0.347261 0.347154 
0.347176 0.337182 0.337387 0.337306 0.335706 0.0999537 0.0652479 0.0666042 0.337852 
0.337318 0.331457 0.336171 0.342118 0.329766 0.0681847 0.0666031 0.334831 0.343367 
0.34454 0.338221 0.336614 0.336822 0.336169 0.336147 0.336295 0.335425 0.334487 
0.33554 0.33721 0.337316 0.337746 0.337592 0.337873 0.339799 0.339935 0.335907 
0.335817 0.336203 0.336726 0.339116 0.339877 0.0615645 0.0651231 0.33526 0.335821 
0.342895 0.329885 0.345291 0.345685 0.343794 0.338448 0.338115 0.336041 0.336245 
0.337058 0.337379 0.337578 0.33659 0.335869 0.33573 0.3439 0.342587 0.338658 
0.338574 0.338685 0.340245 0.343587 0.340909 0.337245 0.338188 0.338412 0.33811 
0.337482 0.338906 0.345549 0.344541 0.337492 0.338335 0.338582 0.338709 0.339067 
0.336786 0.33675 0.339259 0.339015 0.338537 0.341924 0.341808 0.345888 0.34493 
0.337351 0.337777 0.338259 0.337165 0.341329 0.340415 0.337142 0.34267 0.337002 
0.0660639 0.337353 0.3397 0.337964 0.338056 0.338685 0.337938 0.338445 0.33637 
0.347007 0.34678 0.345646 0.0686426 0.0593113 0.341738 0.339304 0.339167 0.343882 
0.340147 0.338932 0.337438 0.0643113 0.0672212 0.339933 0.339694 0.339772 0.342204 
0.336133 0.339179 0.339395 0.33948 0.338697 0.338158 0.0661034 0.0680393 0.337823 
0.341618 0.339392 0.346625 0.0666375 0.0685174 0.33933 0.0673838 0.0690515 0.336128 
0.0672799 0.0610154 0.333376 0.594309 0.333436 0.333423 0.333315 0.333145 0.332888 
0.33254 0.33216 0.331736 0.331253 0.330637 0.330007 0.329387 0.328741 0.328065 
0.327402 0.326654 0.325888 0.325084 0.324295 0.323605 0.322844 0.32215 0.321384 
0.320717 0.320219 0.319783 0.319301 0.319251 0.31953 0.320033 0.320723 0.321993 
0.323484 0.325349 0.327963 0.330908 0.334066 0.33754 0.341116 0.344252 0.347401 
0.349464 0.350705 0.351031 0.349686 0.347355 0.344454 0.340441 0.335702 0.330783 
0.326278 0.321973 0.317977 0.313926 0.310657 0.305242 0.302875 0.301019 0.299448 
0.297928 0.296535 0.295438 0.29428 0.293398 0.292588 0.291801 0.291076 0.290333 
0.289775 0.289285 0.2887 0.288628 0.288803 0.289301 0.28988 0.291126 0.29302 
0.295458 0.299411 0.304123 0.310855 0.31828 0.328667 0.349615 0.376255 0.319439 
0.307896 0.288972 0.487662 0.535069 0.333388 0.333412 0.520599 0.378055 0.343787 
0.328794 0.317886 0.309731 0.303139 0.298786 0.295151 0.293018 0.291119 0.29 
0.289178 0.288906 0.288737 0.288884 0.289108 0.289512 0.290027 0.290685 0.291309 
0.292077 0.292841 0.293706 0.294621 0.295653 0.296823 0.298115 0.299536 0.301198 
0.30333 0.305543 0.308165 0.310923 0.314479 0.318321 0.32218 0.326688 0.331621 
0.336319 0.340452 0.344389 0.347581 0.34964 0.350902 0.350769 0.349723 0.347687 
0.344991 0.34168 0.338111 0.334484 0.331031 0.32829 0.325931 0.323959 0.322287 
0.32097 0.32005 0.319566 0.319254 0.319254 0.319377 0.319711 0.320097 0.320598 
0.321258 0.321979 0.3227 0.323427 0.324263 0.325112 0.325853 0.326685 0.327401 
0.328098 0.328803 0.329475 0.330062 0.330663 0.331202 0.331687 0.332138 0.332517 
0.332885 0.333145 0.333341 0.333424 0.333296 0.333323 0.333288 0.333292 0.333313 
0.333339 0.333405 0.333523 0.33364 0.33379 0.333955 0.334126 0.334308 0.334496 
0.334706 0.33491 0.335109 0.335309 0.335496 0.335676 0.335873 0.336157 0.336296 
0.336429 0.336509 0.336568 0.336616 0.33665 0.33666 0.336646 0.336611 0.336559 
0.336486 0.336402 0.336288 0.336159 0.336014 0.335858 0.335687 0.335497 0.335277 
0.335085 0.334889 0.334683 0.334474 0.334287 0.334101 0.333921 0.333758 0.33362 
0.333494 0.33339 0.333336 0.333288 0.336026 0.052689 0.0518503 0.0668384 0.0657291 
0.0663697 0.0642447 0.0672725 0.0657227 0.068229 0.0662302 0.06906 0.067295 0.0690387 
0.0738308 0.0672739 0.0680675 0.067164 0.0672706 0.0684216 0.0663655 0.0677159 0.0636692 
0.062588 0.0617744 0.0671483 0.059483 0.0603803 0.065869 0.0688496 0.0644853 0.0657194 
0.0679729 0.0521934 0.0693973 0.0585521 0.0580138 0.0554723 0.333309 0.33332 0.33331 
0.333305 0.0547096 0.0547241 0.0541247 0.0525671 0.053678 0.0539015 0.0557481 0.0529939 
0.0515599 0.0443832 0.0564412 0.0562344 0.0588485 0.0543018 0.0365188 0.0431007 0.0552724 
0.327618 0.313463 0.320907 0.0477454 0.0572096 0.0525686 0.0562799 0.333325 0.0501427 
0.0556826 0.0550069 0.0556622 0.331319 0.331716 0.328353 0.0561327 0.0512211 0.0496785 
0.0541333 0.041751 0.33331 0.333301 0.0565409 0.0452259 0.0418728 0.341637 0.0507473 
0.0557535 0.0497854 0.287635 0.33701 0.336622 0.317329 0.320819 0.331132 0.317867 
0.322503 0.326284 0.323973 0.321596 0.317939 0.316677 0.317012 0.316707 0.340622 
0.326951 0.327719 0.341608 0.338473 0.336388 0.336055 0.336109 0.319968 0.317859 
0.32064 0.308429 0.313459 0.313781 0.322548 0.326107 0.325652 0.334848 0.334735 
0.334974 0.335215 0.335071 0.335226 0.335069 0.33243 0.332252 0.332001 0.327642 
0.326522 0.327235 0.335583 0.335436 0.335398 0.335272 0.338016 0.343392 0.338145 
0.345346 0.335232 0.335258 0.335109 0.335329 0.335161 0.337613 0.337154 0.338078 
0.337588 0.312142 0.304438 0.306455 0.331776 0.330965 0.331549 0.330739 0.336826 
0.335855 0.339799 0.338806 0.333146 0.332733 0.333241 0.328991 0.329203 0.32664 
0.327047 0.334573 0.334738 0.334743 0.334895 0.237342 0.335094 0.335257 0.332809 
0.33272 0.332769 0.332656 0.320964 0.315676 0.317126 0.334308 0.334719 0.334477 
0.334887 0.334904 0.314641 0.314763 0.311717 0.335452 0.335226 0.335859 0.335906 
0.335791 0.330796 0.326621 0.330067 0.325128 0.344272 0.33597 0.34155 0.336865 
0.319449 0.321692 0.329293 0.335014 0.335052 0.335289 0.357317 0.380022 0.360498 
0.335871 0.335808 0.338174 0.337866 0.338287 0.324386 0.324917 0.328127 0.337433 
0.337412 0.334095 0.333929 0.334244 0.334087 0.334252 0.328905 0.328437 0.32927 
0.321307 0.318126 0.320779 0.337192 0.295789 0.296186 0.302553 0.303592 0.286699 
0.292026 0.292685 0.298652 0.324213 0.322994 0.323403 0.342366 0.33789 0.339522 
0.334081 0.333909 0.33538 0.335389 0.32958 0.331542 0.328612 0.326779 0.325876 
0.328061 0.327224 0.323915 0.327427 0.325249 0.334868 0.335081 0.321009 0.28671 
0.28879 0.334726 0.334559 0.334737 0.286709 0.33032 0.331163 0.327563 0.327066 
0.325915 0.327562 0.326398 0.332541 0.332511 0.332357 0.336935 0.336408 0.336199 
0.335693 0.332058 0.331997 0.332293 0.289154 0.333969 0.286266 0.330934 0.331042 
0.331394 0.33152 0.334398 0.332845 0.324739 0.323707 0.322493 0.334574 0.33473 
0.334315 0.334496 0.291973 0.276801 0.290699 0.314255 0.31032 0.314144 0.3261 
0.325652 0.325104 0.328894 0.334597 0.337692 0.335883 0.338623 0.339486 0.337204 
0.321933 0.324935 0.323829 0.32373 0.323335 0.323253 0.310795 0.313627 0.313399 
0.322965 0.322363 0.322708 0.322048 0.333109 0.329695 0.330406 0.335148 0.334045 
0.335167 0.333887 0.242778 0.323042 0.324153 0.324501 0.325488 0.336081 0.335858 
0.335923 0.33192 0.332496 0.332365 0.329311 0.329852 0.328102 0.329082 0.329023 
0.333046 0.332186 0.330624 0.328772 0.334524 0.33117 0.330725 0.324273 0.323284 
0.324098 0.324362 0.32459 0.325158 0.325002 0.318374 0.318488 0.317196 0.335819 
0.335888 0.335971 0.315758 0.317331 0.318301 0.316405 0.333702 0.335149 0.330376 
0.28649 0.279614 0.285501 0.335155 0.332498 0.336464 0.334607 0.33476 0.334586 
0.335878 0.320718 0.319832 0.316028 0.324594 0.30977 0.313947 0.314615 0.318399 
0.306633 0.307672 0.312544 0.313838 0.301943 0.303094 0.308669 0.326419 0.325169 
0.324577 0.325024 0.328173 0.326788 0.295177 0.30135 0.327863 0.326849 0.336693 
0.336352 0.336828 0.336484 0.296791 0.281766 0.321964 0.319644 0.308926 0.30321 
0.310326 0.315132 0.317162 0.327202 0.328248 0.327671 0.328711 0.306073 0.311592 
0.306301 0.331658 0.328886 0.34144 0.338963 0.341558 0.3303 0.335636 0.322551 
0.329496 0.335733 0.330702 0.333773 0.333784 0.333915 0.333606 0.333753 0.282117 
0.286619 0.286859 0.292068 0.33499 0.333143 0.333501 0.333295 0.320951 0.338811 
0.337922 0.335986 0.335101 0.335197 0.328788 0.327836 0.32644 0.325231 0.323044 
0.320917 0.317151 0.331976 0.358721 0.344424 0.310557 0.314952 0.310768 0.335136 
0.334973 0.33509 0.267531 0.255984 0.309493 0.311476 0.312168 0.237685 0.291296 
0.283891 0.283529 0.289201 0.314696 0.313762 0.293367 0.236744 0.292376 0.307171 
0.312231 0.309518 0.314404 0.336028 0.335885 0.335786 0.325195 0.315241 0.321973 
0.314687 0.314364 0.314059 0.320555 0.320242 0.320052 0.331437 0.30451 0.305572 
0.307872 0.333335 0.303256 0.30669 0.301192 0.311796 0.288343 0.339214 0.338645 
0.339547 0.316848 0.289171 0.333289 0.332904 0.331036 0.318239 0.291838 0.306368 
0.30053 0.300589 0.294607 0.331886 0.331596 0.332049 0.331753 0.326387 0.327389 
0.307221 0.332207 0.33509 0.334806 0.290405 0.33579 0.335559 0.335798 0.30942 
0.309229 0.304963 0.314399 0.308418 0.317588 0.311929 0.319853 0.332149 0.333782 
0.318944 0.322148 0.322296 0.331781 0.334619 0.334189 0.336289 0.358023 0.298189 
0.350541 0.286894 0.332894 0.288214 0.320278 0.324549 0.328176 0.325025 0.333362 
0.305276 0.307862 0.313489 0.315707 0.317593 0.324928 0.334221 0.31495 0.324361 
0.316065 0.317232 0.315488 0.344726 0.345621 0.344811 0.297194 0.29549 0.294822 
0.301271 0.314679 0.314221 0.311907 0.326073 0.32668 0.325708 0.346502 0.34691 
0.346169 0.336337 0.336266 0.336149 0.336083 0.332033 0.331367 0.331104 0.338871 
0.32378 0.323856 0.324041 0.324289 0.324379 0.333333 0.333228 0.333008 0.329145 
0.329089 0.329725 0.329637 0.332957 0.333273 0.333119 0.330241 0.326307 0.329278 
0.335851 0.31796 0.31917 0.321611 0.275987 0.290995 0.29196 0.333424 0.333739 
0.333136 0.333484 0.318336 0.320949 0.318866 0.32149 0.333628 0.333439 0.333844 
0.343636 0.315852 0.333786 0.333925 0.334305 0.334327 0.333462 0.33349 0.332971 
0.333191 0.332694 0.332926 0.340302 0.343428 0.345132 0.333679 0.333518 0.334077 
0.334079 0.334225 0.342311 0.341042 0.343018 0.317397 0.312611 0.316679 0.31987 
0.32052 0.322054 0.322702 0.323683 0.323365 0.32391 0.322747 0.293035 0.293861 
0.32197 0.320896 0.322006 0.323924 0.323825 0.323635 0.311063 0.314545 0.310692 
0.333727 0.333805 0.237293 0.293032 0.240697 0.323897 0.321929 0.324885 0.329493 
0.330144 0.33038 0.329371 0.326311 0.326163 0.323079 0.333032 0.332739 0.327625 
0.328595 0.326176 0.326909 0.325844 0.337584 0.337634 0.337132 0.333394 0.333002 
0.331662 0.334151 0.307327 0.310092 0.306473 0.31822 0.31876 0.317504 0.316796 
0.31762 0.319346 0.325773 0.333644 0.333302 0.333557 0.333355 0.333598 0.330435 
0.330736 0.331212 0.312553 0.311678 0.3176 0.322314 0.322234 0.321086 0.319625 
0.326127 0.328239 0.328704 0.327013 0.327516 0.328405 0.323272 0.321806 0.322192 
0.330936 0.331196 0.330759 0.33396 0.334192 0.334219 0.331633 0.313391 0.334929 
0.313885 0.312234 0.310908 0.331499 0.332009 0.329362 0.32982 0.329313 0.331098 
0.330735 0.321001 0.319714 0.322007 0.334669 0.334114 0.337475 0.239533 0.301819 
0.307789 0.33755 0.337264 0.33625 0.335942 0.330349 0.329936 0.329689 0.329266 
0.33434 0.336923 0.328227 0.32767 0.327513 0.325124 0.324069 0.32558 0.33345 
0.333191 0.294109 0.28862 0.335798 0.335853 0.335858 0.33592 0.333315 0.333218 
0.333286 0.333153 0.297199 0.305568 0.311545 0.325415 0.324896 0.323046 0.322479 
0.332721 0.332454 0.33258 0.332296 0.32573 0.322815 0.323514 0.341976 0.34207 
0.340255 0.340097 0.336055 0.335946 0.336074 0.335965 0.287893 0.331026 0.328897 
0.334031 0.332047 0.302642 0.303573 0.311058 0.311566 0.308875 0.3349 0.334901 
0.340492 0.342745 0.340835 0.343148 0.331529 0.332063 0.329931 0.333076 0.333204 
0.333213 0.321063 0.324968 0.301252 0.310699 0.307053 0.317945 0.317033 0.381871 
0.376213 0.413793 0.329563 0.334538 0.332462 0.332148 0.325496 0.324516 0.327519 
0.326389 0.328811 0.329997 0.329303 0.320531 0.319976 0.321255 0.323576 0.324097 
0.368152 0.331755 0.349622 0.297802 0.333659 0.333548 0.333588 0.322148 0.319437 
0.340669 0.34322 0.338288 0.341019 0.339791 0.339804 0.339989 0.339976 0.335058 
0.335206 0.32799 0.343379 0.34194 0.32979 0.32924 0.326733 0.282282 0.286949 
0.281537 0.322379 0.319184 0.316566 0.297827 0.315076 0.35473 0.320505 0.322524 
0.322558 0.333427 0.333534 0.333416 0.33353 0.240138 0.318273 0.320248 0.330057 
0.328057 0.33856 0.339264 0.338306 0.309581 0.312338 0.310959 0.328369 0.299111 
0.293252 0.30069 0.326425 0.338806 0.332395 0.332237 0.334178 0.330048 0.331977 
0.33338 0.317229 0.331794 0.295134 0.289363 0.296038 0.287132 0.336669 0.333665 
0.312242 0.301825 0.309147 0.305627 0.332231 0.294141 0.293866 0.299853 0.300093 
0.297258 0.308038 0.30838 0.314088 0.324077 0.325111 0.32427 0.339636 0.33955 
0.339884 0.325678 0.326335 0.325403 0.235188 0.282788 0.276088 0.28257 0.336182 
0.334099 0.331776 0.283728 0.289002 0.288983 0.279592 0.294635 0.288116 0.281645 
0.328394 0.330082 0.326013 0.337882 0.299955 0.328542 0.325095 0.340416 0.291325 
0.340454 0.335164 0.334395 0.334434 0.333635 0.336314 0.336973 0.321698 0.322214 
0.323086 0.295811 0.305327 0.311079 0.306083 0.32083 0.320855 0.326454 0.32544 
0.331712 0.288657 0.332363 0.28605 0.313581 0.309695 0.310576 0.324923 0.324638 
0.326513 0.322566 0.326774 0.313394 0.309176 0.305849 0.338479 0.292838 0.296445 
0.29856 0.334762 0.336448 0.335945 0.337663 0.322654 0.335716 0.336328 0.33593 
0.333503 0.3326 0.336437 0.33792 0.335443 0.338803 0.289245 0.32356 0.325049 
0.320048 0.331534 0.292407 0.286931 0.29274 0.330877 0.333487 0.333244 0.335096 
0.327544 0.32396 0.329069 0.337309 0.3395 0.335675 0.335488 0.332052 0.331804 
0.287985 0.335814 0.300993 0.291999 0.292489 0.276992 0.332903 0.329314 0.327146 
0.333533 0.330885 0.343496 0.352621 0.33033 0.335337 0.335308 0.333983 0.333643 
0.334034 0.330514 0.330449 0.330965 0.331234 0.333052 0.332728 0.332854 0.333248 
0.319718 0.332777 0.334302 0.285383 0.321348 0.322699 0.33602 0.336429 0.317886 
0.316077 0.336011 0.335944 0.336053 0.336984 0.336733 0.337101 0.336833 0.321349 
0.322114 0.335608 0.335567 0.335822 0.334691 0.334374 0.334581 0.318983 0.319425 
0.329854 0.328422 0.330019 0.336025 0.336157 0.336115 0.335985 0.335927 0.337423 
0.334175 0.335167 0.333388 0.332982 0.333735 0.333371 0.333743 0.33608 0.335876 
0.336211 0.335995 0.335775 0.329182 0.333188 0.332338 0.333341 0.328101 0.329062 
0.326646 0.334015 0.336226 0.321646 0.324292 0.317322 0.302117 0.306489 0.306236 
0.310397 0.347584 0.325719 0.340537 0.329939 0.332889 0.32865 0.30432 0.317832 
0.322236 0.332628 0.330014 0.332503 0.322109 0.321525 0.32125 0.336083 0.336122 
0.335998 0.334006 0.334248 0.334858 0.33466 0.334795 0.332839 0.332737 0.33204 
0.331949 0.318968 0.319658 0.320642 0.283272 0.28324 0.237242 0.281955 0.286874 
0.281793 0.314285 0.319407 0.304569 0.292736 0.30034 0.324567 0.319625 0.318027 
0.339468 0.339187 0.341634 0.314988 0.346992 0.347409 0.33224 0.332901 0.332309 
0.332983 0.317051 0.317488 0.334401 0.334406 0.334221 0.336047 0.336215 0.328443 
0.329241 0.328922 0.328951 0.330139 0.330693 0.330406 0.329651 0.322592 0.326687 
0.32438 0.32807 0.238828 0.23568 0.291263 0.336357 0.322445 0.325306 0.323106 
0.345018 0.343699 0.343535 0.319723 0.335503 0.33564 0.335494 0.334242 0.326559 
0.326186 0.322537 0.236131 0.336674 0.336997 0.335511 0.331972 0.331734 0.331649 
0.328477 0.32597 0.332764 0.333681 0.33442 0.335457 0.2396 0.236538 0.292673 
0.332043 0.333167 0.332917 0.327883 0.331099 0.333558 0.336203 0.333655 0.338128 
0.311399 0.309577 0.311855 0.324488 0.327211 0.326815 0.326792 0.329274 0.32894 
0.335899 0.336473 0.335787 0.332711 0.28916 0.32643 0.32315 0.241172 0.301637 
0.326298 0.325236 0.325992 0.323782 0.338647 0.337607 0.336862 0.335824 0.325427 
0.324746 0.335204 0.33536 0.335378 0.294702 0.298453 0.32718 0.338433 0.331286 
0.331944 0.334195 0.332213 0.334751 0.324281 0.324611 0.335119 0.332548 0.319454 
0.322178 0.328129 0.334221 0.334024 0.333995 0.333774 0.329325 0.32367 0.327281 
0.333348 0.336959 0.31993 0.319754 0.316692 0.316437 0.297742 0.297622 0.303495 
0.303361 0.312222 0.292826 0.33576 0.332975 0.328662 0.331075 0.330944 0.27839 
0.284364 0.319913 0.315655 0.324317 0.333911 0.34143 0.381646 0.333637 0.334451 
0.33808 0.340321 0.342109 0.330852 0.346064 0.33592 0.334873 0.336084 0.33127 
0.330687 0.312271 0.317725 0.306515 0.311979 0.338093 0.33424 0.333253 0.326744 
0.374574 0.320194 0.334316 0.334193 0.327919 0.328761 0.331297 0.330816 0.31322 
0.309232 0.332992 0.331295 0.332221 0.3294 0.330812 0.331029 0.277372 0.337846 
0.336832 0.332539 0.331813 0.331563 0.324699 0.331725 0.331572 0.335955 0.335969 
0.282155 0.275862 0.3359 0.336078 0.335939 0.33111 0.332734 0.33423 0.33895 
0.339388 0.336689 0.338654 0.341318 0.330758 0.324987 0.331293 0.33054 0.332665 
0.33135 0.317723 0.334902 0.334883 0.327325 0.32937 0.327841 0.337358 0.339257 
0.339119 0.341777 0.33632 0.329526 0.341782 0.329996 0.327262 0.32966 0.330405 
0.332467 0.333202 0.33262 0.330083 0.328975 0.328828 0.326581 0.326394 0.323407 
0.309646 0.303152 0.308758 0.302273 0.329887 0.336546 0.325633 0.320863 0.330492 
0.316506 0.310569 0.315828 0.326679 0.317511 0.316009 0.318523 0.311647 0.314239 
0.332533 0.332646 0.292409 0.28704 0.325509 0.325875 0.324646 0.336292 0.338428 
0.335221 0.333823 0.334998 0.332731 0.336231 0.335982 0.336303 0.336051 0.340986 
0.340598 0.305429 0.311357 0.308815 0.308631 0.3043 0.304078 0.33435 0.334167 
0.329782 0.329113 0.335997 0.33595 0.335973 0.331307 0.314515 0.30961 0.319874 
0.315112 0.335783 0.334691 0.334991 0.33482 0.23844 0.341687 0.348604 0.374549 
0.33419 0.310587 0.304465 0.325206 0.322221 0.32499 0.318476 0.336792 0.319989 
0.319989 0.336362 0.334953 0.335174 0.335057 0.33511 0.337547 0.255356 0.330229 
0.325261 0.326884 0.323926 0.316622 0.336616 0.334721 0.334956 0.345034 0.343841 
0.343329 0.322869 0.335968 0.34398 0.309306 0.313002 0.312411 0.31492 0.314637 
0.316456 0.335073 0.334917 0.334918 0.320798 0.318194 0.320428 0.286316 0.335033 
0.28361 0.33172 0.316942 0.317611 0.321418 0.335716 0.335774 0.335623 0.323525 
0.323893 0.320866 0.313998 0.318001 0.331161 0.320926 0.320022 0.321869 0.320837 
0.331656 0.331464 0.335363 0.331829 0.332066 0.331501 0.331846 0.292092 0.276535 
0.332612 0.332112 0.312829 0.332526 0.329831 0.333326 0.316253 0.3154 0.342185 
0.341455 0.324695 0.324955 0.330981 0.331409 0.331652 0.335831 0.335024 0.333817 
0.33524 0.335937 0.334953 0.338212 0.34002 0.337024 0.308211 0.314251 0.30363 
0.30974 0.318869 0.31919 0.321371 0.315157 0.315239 0.313989 0.336431 0.336507 
0.336891 0.339698 0.339541 0.324149 0.33602 0.338267 0.334673 0.337429 0.336918 
0.333536 0.334072 0.333555 0.334111 0.281253 0.287928 0.288509 0.33292 0.333064 
0.333152 0.335724 0.335965 0.335709 0.335045 0.336064 0.334918 0.331313 0.334328 
0.327186 0.316461 0.317453 0.335147 0.329052 0.31374 0.328753 0.329358 0.330085 
0.322121 0.318286 0.318531 0.292444 0.321593 0.317802 0.341127 0.340576 0.342322 
0.307912 0.303966 0.313388 0.290433 0.331965 0.332182 0.321123 0.322596 0.321387 
0.297447 0.327526 0.319554 0.319104 0.31514 0.314614 0.322842 0.318749 0.318444 
0.284364 0.334132 0.337511 0.332573 0.336003 0.285767 0.317364 0.30752 0.335271 
0.334924 0.336948 0.347379 0.321157 0.320665 0.317243 0.319212 0.323368 0.315838 
0.320117 0.313087 0.316243 0.332953 0.327487 0.327067 0.309467 0.313063 0.330855 
0.327556 0.310266 0.333772 0.334591 0.334235 0.33419 0.335995 0.332374 0.320825 
0.318538 0.306776 0.336016 0.335743 0.335961 0.339794 0.339575 0.33924 0.33956 
0.333547 0.3191 0.279481 0.284797 0.316247 0.314297 0.316328 0.341053 0.317779 
0.30488 0.300939 0.300574 0.322792 0.331653 0.331203 0.332514 0.336852 0.33883 
0.338151 0.339105 0.339157 0.339504 0.337443 0.337753 0.337218 0.290101 0.325897 
0.322214 0.327624 0.329888 0.330497 0.318675 0.311352 0.314634 0.320937 0.323933 
0.320295 0.332601 0.331625 0.335188 0.334219 0.334034 0.333816 0.330924 0.33182 
0.332914 0.333995 0.335492 0.334532 0.321011 0.322213 0.322412 0.321306 0.2899 
0.349715 0.316355 0.31805 0.326285 0.324631 0.31852 0.334162 0.333364 0.340369 
0.338622 0.424459 0.333567 0.335734 0.332643 0.322714 0.322054 0.345006 0.351797 
0.342988 0.329105 0.337504 0.33942 0.327739 0.329509 0.330182 0.324128 0.33775 
0.336995 0.336926 0.332976 0.332971 0.333392 0.316902 0.276071 0.305716 0.308611 
0.304686 0.336132 0.309443 0.319382 0.322203 0.333657 0.331587 0.333462 0.305116 
0.325405 0.324234 0.324987 0.315437 0.328975 0.329566 0.328592 0.337267 0.338922 
0.336578 0.335711 0.332011 0.331182 0.333184 0.291167 0.27618 0.377311 0.342792 
0.369205 0.334518 0.330493 0.325662 0.334778 0.330141 0.325522 0.327671 0.321814 
0.3237 0.356965 0.282265 0.299663 0.300621 0.330855 0.302507 0.307076 0.343652 
0.318185 0.319573 0.321592 0.322897 0.306281 0.324247 0.37637 0.341324 0.345212 
0.34054 0.325858 0.325003 0.325331 0.326313 0.330731 0.288167 0.286092 0.332957 
0.335268 0.334118 0.331172 0.330807 0.325134 0.324737 0.324029 0.333532 0.33342 
0.330965 0.331235 0.331587 0.335667 0.335782 0.335536 0.327717 0.328028 0.330805 
0.306116 0.338067 0.338396 0.337676 0.337822 0.332641 0.33128 0.329169 0.326171 
0.321466 0.327212 0.321466 0.34093 0.33146 0.329076 0.339174 0.339215 0.344801 
0.345473 0.345785 0.326247 0.327156 0.326642 0.327543 0.324112 0.324291 0.327314 
0.330447 0.333153 0.326678 0.327331 0.326236 0.325039 0.320561 0.324823 0.329386 
0.332719 0.336796 0.336712 0.336857 0.336675 0.337039 0.337057 0.340804 0.344503 
0.329563 0.304919 0.2968 0.297918 0.335199 0.357809 0.299516 0.336285 0.336641 
0.336477 0.33556 0.335755 0.33571 0.323001 0.320175 0.333283 0.335842 0.328196 
0.327696 0.331128 0.330532 0.325914 0.326197 0.322116 0.335256 0.334518 0.318252 
0.317805 0.317115 0.339009 0.338871 0.338649 0.314406 0.316249 0.33506 0.334409 
0.313141 0.335906 0.334972 0.335665 0.336714 0.337128 0.332035 0.330996 0.327391 
0.33294 0.33676 0.336502 0.336726 0.323329 0.323647 0.323933 0.332554 0.332115 
0.330992 0.330145 0.291683 0.338536 0.33769 0.34067 0.288784 0.292036 0.32659 
0.317706 0.317088 0.316977 0.335883 0.336265 0.304862 0.303582 0.329108 0.326074 
0.326219 0.321246 0.321668 0.337452 0.336839 0.335347 0.335071 0.336182 0.246139 
0.344991 0.335623 0.335897 0.330551 0.333568 0.330658 0.329463 0.330085 0.328788 
0.333453 0.328278 0.332782 0.335062 0.335366 0.333927 0.331303 0.332368 0.336038 
0.338111 0.33785 0.335733 0.320401 0.316574 0.315732 0.325439 0.326234 0.320794 
0.326263 0.325993 0.316397 0.315985 0.328085 0.330595 0.330299 0.329986 0.332556 
0.328841 0.332111 0.322358 0.325585 0.332363 0.334009 0.336414 0.338552 0.329293 
0.334299 0.332954 0.336787 0.33163 0.332216 0.324542 0.332947 0.325443 0.297726 
0.332444 0.332791 0.33261 0.338578 0.337939 0.338503 0.339282 0.338876 0.324281 
0.326524 0.32337 0.338139 0.338756 0.338373 0.332656 0.331134 0.336533 0.329196 
0.328228 0.334056 0.333918 0.345312 0.346473 0.344713 0.345912 0.379022 0.333743 
0.32173 0.323312 0.322899 0.347466 0.347113 0.347135 0.330169 0.32985 0.33154 
0.337076 0.32471 0.334182 0.330527 0.331837 0.332727 0.336364 0.336556 0.336971 
0.337189 0.336039 0.335416 0.335632 0.336039 0.336601 0.336294 0.336508 0.334583 
0.334588 0.337105 0.337345 0.301436 0.297129 0.330915 0.331212 0.329429 0.327021 
0.344255 0.345299 0.344731 0.34579 0.341403 0.339813 0.341214 0.337265 0.336391 
0.336699 0.318351 0.330848 0.329215 0.332389 0.330886 0.319153 0.33691 0.327402 
0.33606 0.336776 0.33571 0.336095 0.338687 0.338744 0.340027 0.340146 0.335363 
0.333436 0.334222 0.319771 0.316468 0.331268 0.3374 0.338236 0.293242 0.238762 
0.238423 0.331337 0.331736 0.309353 0.30555 0.307622 0.339158 0.339075 0.339236 
0.339532 0.336133 0.336436 0.341321 0.346692 0.321916 0.33348 0.333365 0.333243 
0.324651 0.329622 0.329781 0.327349 0.29199 0.236115 0.240639 0.341885 0.339908 
0.328364 0.312616 0.315064 0.314979 0.332839 0.332821 0.333037 0.333235 0.317577 
0.317519 0.337089 0.33673 0.339053 0.334391 0.334226 0.321783 0.334017 0.335045 
0.336365 0.336933 0.346631 0.34669 0.346986 0.347027 0.313096 0.333219 0.333671 
0.336113 0.336525 0.33423 0.334404 0.336666 0.323971 0.323259 0.323248 0.322324 
0.331991 0.332488 0.327391 0.326907 0.324333 0.314255 0.31509 0.319296 0.304865 
0.300357 0.337759 0.327325 0.326158 0.319239 0.324279 0.32241 0.326524 0.336226 
0.338106 0.335963 0.335839 0.33255 0.333074 0.324324 0.33021 0.31224 0.30664 
0.314773 0.336257 0.336453 0.336272 0.336474 0.335902 0.335989 0.330217 0.327944 
0.32801 0.344475 0.342258 0.32179 0.317363 0.318772 0.337164 0.329101 0.329795 
0.330119 0.30549 0.301935 0.306108 0.320188 0.330872 0.345697 0.328528 0.328741 
0.325042 0.312866 0.313178 0.323007 0.338516 0.338434 0.332656 0.317198 0.318167 
0.323506 0.324327 0.292374 0.336108 0.336149 0.3302 0.299485 0.331693 0.352406 
0.336561 0.335304 0.336855 0.334374 0.331309 0.323579 0.323859 0.322934 0.318195 
0.331514 0.331387 0.333005 0.327869 0.336132 0.338035 0.339015 0.331595 0.331509 
0.320777 0.330305 0.330427 0.302019 0.325117 0.329577 0.32642 0.339111 0.283654 
0.322933 0.328187 0.310042 0.30922 0.382466 0.337243 0.341364 0.337283 0.326843 
0.327688 0.326395 0.330324 0.329068 0.335557 0.337203 0.316681 0.331739 0.329643 
0.328216 0.337353 0.336682 0.336893 0.320983 0.328875 0.306267 0.30476 0.330714 
0.330561 0.329313 0.32962 0.329986 0.321069 0.336273 0.328302 0.301453 0.338801 
0.339664 0.33638 0.319661 0.321646 0.31974 0.32179 0.27667 0.292116 0.277619 
0.343908 0.334223 0.319804 0.31714 0.316063 0.29626 0.334904 0.312196 0.345724 
0.278975 0.292379 0.285797 0.278062 0.284741 0.290287 0.296311 0.32411 0.323948 
0.323392 0.3529 0.333733 0.333089 0.333163 0.330247 0.330398 0.302807 0.3202 
0.321264 0.323347 0.321963 0.334567 0.321773 0.300115 0.288423 0.296448 0.469621 
0.402916 0.332854 0.313313 0.327031 0.324547 0.322122 0.373136 0.312326 0.334164 
0.331089 0.34827 0.334313 0.3208 0.338492 0.339022 0.313062 0.305097 0.311897 
0.286434 0.315095 0.281117 0.316946 0.316867 0.333006 0.238484 0.328494 0.329087 
0.328832 0.29557 0.301968 0.333188 0.333336 0.335962 0.335917 0.282642 0.282731 
0.300404 0.237978 0.299251 0.337102 0.336893 0.337279 0.314364 0.281847 0.276183 
0.32006 0.322966 0.322772 0.320797 0.334272 0.334487 0.336567 0.337353 0.317245 
0.321771 0.322189 0.326727 0.33475 0.346821 0.339362 0.33761 0.335214 0.337559 
0.323287 0.321611 0.320893 0.3017 0.295489 0.295621 0.316342 0.326186 0.325625 
0.304381 0.334403 0.334425 0.337095 0.336872 0.33551 0.335463 0.307937 0.306834 
0.323067 0.29786 0.290724 0.291696 0.328686 0.295004 0.300116 0.294947 0.300116 
0.310139 0.309085 0.328518 0.308091 0.304133 0.306711 0.323711 0.317146 0.327878 
0.314617 0.315477 0.329342 0.335345 0.334001 0.321469 0.332126 0.333042 0.333434 
0.335907 0.3224 0.323564 0.332244 0.328468 0.32803 0.326281 0.324182 0.323407 
0.324405 0.307703 0.336141 0.335563 0.305497 0.305315 0.300388 0.324959 0.333126 
0.332958 0.301243 0.296566 0.301544 0.326165 0.318877 0.332733 0.320423 0.336028 
0.332251 0.296631 0.311568 0.340581 0.34084 0.290123 0.284234 0.320537 0.32357 
0.277817 0.300939 0.301205 0.332313 0.329664 0.301052 0.296127 0.295764 0.336064 
0.33618 0.335919 0.330226 0.328669 0.300164 0.345348 0.329796 0.326055 0.333375 
0.332325 0.297922 0.345309 0.313029 0.309736 0.313332 0.313272 0.329604 0.326806 
0.314145 0.31042 0.333472 0.334674 0.335186 0.319215 0.32362 0.339836 0.354826 
0.323555 0.322691 0.325117 0.324526 0.341364 0.3389 0.341117 0.331392 0.34 
0.320877 0.340787 0.342767 0.33655 0.299508 0.286136 0.292435 0.322302 0.247603 
0.322551 0.34185 0.330969 0.330655 0.33633 0.336112 0.32425 0.352406 0.346687 
0.337317 0.33706 0.301551 0.332024 0.339902 0.340809 0.334321 0.285647 0.337307 
0.33548 0.334496 0.333948 0.337961 0.295255 0.327841 0.326865 0.327479 0.324349 
0.321701 0.335409 0.333776 0.318654 0.333488 0.333589 0.334736 0.333867 0.333797 
0.333929 0.334545 0.334572 0.325106 0.319985 0.334235 0.33679 0.311952 0.325734 
0.326099 0.317954 0.318572 0.316842 0.337699 0.338054 0.334407 0.334363 0.334195 
0.313666 0.335599 0.335529 0.323703 0.323177 0.323796 0.32318 0.339514 0.33714 
0.323533 0.325022 0.325831 0.382413 0.386133 0.315196 0.326335 0.328139 0.338719 
0.336073 0.318991 0.318694 0.317229 0.323086 0.306006 0.336669 0.335766 0.315493 
0.311331 0.307463 0.307758 0.319733 0.33538 0.335435 0.335501 0.335568 0.325084 
0.317518 0.316374 0.316871 0.315647 0.332207 0.332308 0.332466 0.332576 0.314397 
0.290788 0.288769 0.333857 0.328081 0.331718 0.336116 0.336003 0.328854 0.328484 
0.336184 0.335335 0.335476 0.332508 0.332739 0.333381 0.335489 0.335279 0.332074 
0.34055 0.30815 0.353476 0.334819 0.334505 0.331301 0.329908 0.338143 0.33834 
0.333474 0.328132 0.327726 0.328787 0.337028 0.335453 0.305447 0.320337 0.29849 
0.30874 0.329396 0.325458 0.315867 0.320741 0.325132 0.324026 0.323757 0.324409 
0.332169 0.288475 0.288493 0.323497 0.323387 0.326363 0.317674 0.28748 0.292761 
0.338988 0.339055 0.293744 0.299754 0.325211 0.339275 0.341648 0.34285 0.375431 
0.366968 0.304496 0.337318 0.337894 0.337607 0.337795 0.327318 0.336509 0.340156 
0.328513 0.34273 0.333483 0.320614 0.32174 0.322995 0.324006 0.325472 0.326576 
0.366198 0.336794 0.340357 0.339305 0.333328 0.321451 0.339507 0.339285 0.326953 
0.325473 0.335235 0.324106 0.325295 0.328783 0.291911 0.335979 0.328914 0.331001 
0.333308 0.333123 0.333225 0.326908 0.327459 0.323273 0.323821 0.326642 0.325358 
0.329156 0.323181 0.329682 0.325403 0.325734 0.330439 0.322838 0.327296 0.340603 
0.296865 0.302425 0.304309 0.32135 0.294988 0.291575 0.329822 0.332485 0.32886 
0.336116 0.336029 0.328317 0.334101 0.326247 0.326647 0.308396 0.29485 0.344664 
0.342574 0.292251 0.318981 0.338427 0.33718 0.329618 0.327093 0.313043 0.33919 
0.335731 0.337325 0.31628 0.325173 0.325403 0.326556 0.335591 0.33564 0.335697 
0.238932 0.333636 0.333314 0.333224 0.333412 0.333502 0.333453 0.335781 0.328755 
0.33048 0.29205 0.303695 0.309514 0.335411 0.298091 0.309292 0.334039 0.325823 
0.334777 0.334918 0.33475 0.334809 0.336265 0.33509 0.332088 0.329778 0.357617 
0.361178 0.363485 0.307281 0.324294 0.324062 0.327973 0.327759 0.322079 0.320158 
0.31944 0.323462 0.337395 0.338019 0.337562 0.337316 0.31926 0.335447 0.335273 
0.33444 0.338908 0.339365 0.334991 0.335174 0.335401 0.323522 0.335589 0.335708 
0.322778 0.319284 0.347717 0.333729 0.333658 0.335727 0.338501 0.333756 0.3347 
0.335154 0.332899 0.333692 0.336422 0.335975 0.338688 0.338777 0.330435 0.333749 
0.33322 0.336188 0.323555 0.329562 0.326821 0.323944 0.333288 0.300444 0.30609 
0.287639 0.293069 0.293329 0.327964 0.338311 0.337353 0.303379 0.297752 0.29791 
0.292205 0.33648 0.336342 0.33369 0.321154 0.326235 0.328198 0.314466 0.237152 
0.239521 0.333586 0.333347 0.333381 0.334018 0.322791 0.330548 0.330052 0.321563 
0.333711 0.332252 0.317685 0.319464 0.323058 0.32403 0.322872 0.318428 0.334599 
0.332572 0.335181 0.333194 0.321838 0.32286 0.330782 0.237871 0.345111 0.323904 
0.324274 0.283237 0.286879 0.335701 0.298946 0.337314 0.338311 0.336357 0.336184 
0.332757 0.32884 0.344048 0.343911 0.338038 0.339397 0.342836 0.344068 0.332454 
0.324132 0.333724 0.3344 0.336093 0.335131 0.335067 0.338416 0.336654 0.341012 
0.334326 0.339132 0.341438 0.340402 0.343133 0.346183 0.345044 0.346241 0.336076 
0.33593 0.344845 0.345847 0.345685 0.346791 0.342121 0.34385 0.342781 0.346553 
0.347075 0.275894 0.327108 0.333485 0.314359 0.333176 0.332194 0.33687 0.336323 
0.336583 0.336404 0.325823 0.298487 0.330057 0.33333 0.331807 0.320936 0.322298 
0.335893 0.338241 0.332726 0.31374 0.310438 0.312772 0.342908 0.342298 0.343587 
0.343049 0.302562 0.334677 0.31529 0.315042 0.328156 0.329303 0.327628 0.304155 
0.315371 0.309822 0.32057 0.332155 0.332426 0.338987 0.345799 0.3361 0.336255 
0.295941 0.334443 0.334229 0.338254 0.322183 0.323018 0.322119 0.330995 0.335504 
0.327261 0.328739 0.328322 0.334853 0.335095 0.327873 0.358743 0.331835 0.331852 
0.33151 0.330461 0.329448 0.332472 0.332461 0.33636 0.331268 0.330879 0.332473 
0.316808 0.34503 0.336399 0.335558 0.335409 0.337996 0.337695 0.337505 0.337228 
0.33544 0.333865 0.333375 0.308025 0.335981 0.341722 0.335826 0.408812 0.341043 
0.330907 0.323323 0.33899 0.339066 0.340062 0.346896 0.346672 0.34625 0.346035 
0.331313 0.308442 0.333474 0.341196 0.32847 0.330465 0.339062 0.340059 0.327601 
0.336095 0.337045 0.335871 0.339692 0.338059 0.337087 0.337038 0.329908 0.336878 
0.325355 0.324422 0.324235 0.325398 0.341554 0.290433 0.329902 0.336209 0.324845 
0.324641 0.332168 0.32504 0.324745 0.323931 0.330834 0.337568 0.322739 0.324742 
0.333441 0.296494 0.328325 0.305801 0.24265 0.359158 0.336078 0.47168 0.321063 
0.31822 0.324051 0.339697 0.329976 0.331395 0.298204 0.298747 0.335011 0.349362 
0.33989 0.343136 0.330984 0.331246 0.293125 0.328044 0.334794 0.319921 0.335302 
0.335241 0.318869 0.316843 0.319825 0.332841 0.302484 0.336237 0.332879 0.331001 
0.329989 0.324533 0.326344 0.322492 0.320992 0.322889 0.323391 0.341882 0.324161 
0.339843 0.33645 0.333487 0.332535 0.333859 0.334076 0.333254 0.333095 0.331894 
0.331811 0.332793 0.314685 0.331376 0.298542 0.332087 0.332243 0.3322 0.331823 
0.333811 0.333814 0.334148 0.333137 0.331014 0.333816 0.331837 0.330463 0.332479 
0.335575 0.311036 0.323802 0.335972 0.335807 0.341755 0.323692 0.322718 0.329017 
0.328521 0.326982 0.314274 0.323361 0.323893 0.335826 0.328553 0.327995 0.327968 
0.326822 0.323133 0.313781 0.330497 0.327466 0.32048 0.327069 0.329367 0.325397 
0.327928 0.334028 0.345284 0.291632 0.237686 0.290755 0.336986 0.336152 0.336223 
0.336053 0.32701 0.328513 0.287692 0.288849 0.330093 0.335366 0.335343 0.328849 
0.325248 0.33451 0.33246 0.33509 0.333187 0.333988 0.334845 0.327394 0.328088 
0.326499 0.325048 0.237459 0.317687 0.328854 0.325156 0.328285 0.32917 0.329059 
0.336417 0.334594 0.276688 0.333503 0.334333 0.332877 0.332852 0.334726 0.335887 
0.286675 0.328685 0.328348 0.318092 0.333346 0.334844 0.329606 0.295166 0.327081 
0.334301 0.334671 0.265799 0.315424 0.31668 0.235977 0.276615 0.335492 0.325905 
0.341534 0.334091 0.337217 0.333014 0.320901 0.335779 0.334409 0.3357 0.335583 
0.333306 0.316154 0.332536 0.295343 0.295376 0.298145 0.342744 0.316019 0.304734 
0.332406 0.327834 0.326196 0.32724 0.33019 0.334617 0.334659 0.340313 0.313114 
0.331569 0.333012 0.328711 0.328086 0.329603 0.327967 0.32752 0.338975 0.238932 
0.291705 0.235714 0.334425 0.334576 0.276244 0.330353 0.329586 0.32943 0.28802 
0.341573 0.324021 0.315137 0.329207 0.344675 0.34567 0.343683 0.316281 0.328785 
0.344038 0.327134 0.33639 0.360862 0.343178 0.32398 0.324122 0.324667 0.277462 
0.310887 0.326449 0.344541 0.316931 0.340501 0.335898 0.334827 0.334718 0.34548 
0.286956 0.306188 0.333324 0.310687 0.325815 0.335904 0.334568 0.321171 0.290038 
0.286492 0.338795 0.337422 0.333414 0.33333 0.33336 0.318755 0.313766 0.327666 
0.331705 0.332457 0.329062 0.332286 0.330498 0.333665 0.334569 0.305106 0.298756 
0.326492 0.327074 0.332758 0.326097 0.320801 0.32723 0.326759 0.334919 0.335105 
0.324835 0.321793 0.335651 0.338935 0.338597 0.339149 0.343898 0.331971 0.294767 
0.299571 0.303882 0.331032 0.334787 0.383312 0.30322 0.334301 0.335761 0.339902 
0.321258 0.321739 0.317896 0.33697 0.30937 0.327818 0.327935 0.32838 0.329504 
0.339587 0.33938 0.330618 0.330063 0.330437 0.333877 0.334899 0.327451 0.333375 
0.329601 0.316868 0.334131 0.332897 0.295615 0.316088 0.314822 0.316148 0.330271 
0.333711 0.334314 0.334945 0.333462 0.323569 0.33009 0.313194 0.301624 0.327725 
0.345189 0.322754 0.335009 0.317926 0.345482 0.333312 0.323442 0.324537 0.300812 
0.325031 0.339134 0.324739 0.285941 0.332792 0.33215 0.352783 0.277056 0.282478 
0.287735 0.337177 0.339025 0.337326 0.337583 0.337818 0.342094 0.343911 0.326268 
0.332347 0.329322 0.335065 0.329515 0.289484 0.336383 0.338841 0.333305 0.287313 
0.313194 0.33363 0.297214 0.330672 0.32543 0.334169 0.328996 0.326021 0.33968 
0.339332 0.324328 0.323689 0.237004 0.335405 0.309329 0.336009 0.330948 0.324014 
0.346149 0.339847 0.311041 0.307665 0.314185 0.314429 0.325956 0.3269 0.332796 
0.333309 0.325306 0.335683 0.336115 0.316398 0.34232 0.335424 0.300612 0.315516 
0.349976 0.322165 0.335807 0.338911 0.325357 0.30303 0.324613 0.341782 0.323163 
0.323897 0.335949 0.325207 0.332331 0.332447 0.33583 0.318924 0.329642 0.326535 
0.343703 0.048072 0.33847 0.329539 0.329975 0.338028 0.338777 0.337683 0.335584 
0.33545 0.3325 0.334228 0.326168 0.324678 0.330191 0.326029 0.328178 0.330804 
0.320079 0.320108 0.329086 0.327449 0.333598 0.334301 0.328046 0.276374 0.327046 
0.33297 0.329701 0.330329 0.327513 0.33459 0.310389 0.338165 0.336656 0.329981 
0.312625 0.334834 0.329316 0.33914 0.330804 0.329213 0.32849 0.337362 0.342335 
0.342091 0.339983 0.333651 0.335137 0.343065 0.338113 0.338919 0.338016 0.337142 
0.338719 0.336222 0.343688 0.328556 0.333334 0.325657 0.330151 0.333483 0.316195 
0.335612 0.306353 0.331749 0.306646 0.285865 0.331315 0.323673 0.280618 0.328607 
0.332469 0.336291 0.334485 0.330554 0.325327 0.327997 0.312829 0.338131 0.329294 
0.332893 0.343281 0.300963 0.325455 0.312205 0.341125 0.340318 0.326243 0.338291 
0.336651 0.332658 0.318235 0.329459 0.335105 0.329361 0.324818 0.310837 0.304895 
0.327258 0.323988 0.331292 0.288243 0.332155 0.335219 0.322174 0.331548 0.339296 
0.32422 0.338139 0.336939 0.335314 0.283339 0.321567 0.32982 0.336258 0.318385 
0.321174 0.334502 0.332496 0.343877 0.343842 0.342672 0.33475 0.310816 0.330582 
0.332258 0.337434 0.332165 0.299364 0.330925 0.337465 0.337813 0.337758 0.338267 
0.325086 0.330087 0.336293 0.337132 0.339842 0.310704 0.319192 0.338003 0.335901 
0.333207 0.308065 0.313406 0.336217 0.335768 0.327655 0.332848 0.329867 0.297118 
0.276611 0.238753 0.33138 0.31408 0.329043 0.336062 0.327412 0.32616 0.335764 
0.337076 0.305994 0.334745 0.337355 0.333284 0.333017 0.295436 0.335723 0.338159 
0.31931 0.313307 0.336466 0.336039 0.290157 0.333275 0.314247 0.33218 0.275784 
0.292871 0.254858 0.328696 0.34529 0.324502 0.327505 0.312053 0.316328 0.340197 
0.333434 0.295536 0.271754 0.336138 0.329188 0.287435 0.308736 0.332829 0.331779 
0.335672 0.306585 0.327018 0.277712 0.326922 0.332876 0.350716 0.370648 0.339208 
0.334067 0.327454 0.337081 0.326962 0.335465 0.327667 0.335524 0.335601 0.33402 
0.329158 0.325089 0.316127 0.337953 0.334282 0.31679 0.321198 0.340529 0.334946 
0.334806 0.322872 0.335073 0.337814 0.335617 0.317489 0.332177 0.318634 0.335692 
0.337492 0.325221 0.3294 0.331846 0.314754 0.336459 0.318064 0.325287 0.339914 
0.336056 0.330667 0.327108 0.323921 0.334476 0.331912 0.331558 0.333022 0.29319 
0.239471 0.334024 0.297779 0.336376 0.322883 0.337439 0.327326 0.329812 0.335529 
0.317152 0.321098 0.336062 0.333949 0.334077 0.337186 0.32653 0.310238 0.337106 
0.335424 0.329798 0.330419 0.335404 0.332973 0.0556186 0.0599844 
Strain%20yz%20component 1 12526 double
-0.110338 0.143063 -0.104306 0.167421 7.98724e-07 -4.2143e-07 4.3912e-06 -1.8073e-06 0.0339357 
-0.0226998 0.0241291 -0.0282058 -0.0432073 0.0214836 -0.0251652 0.0270096 0.0572879 0.0823748 
0.0683505 0.0683239 0.0728704 0.0743133 0.0708571 0.0710342 0.0705014 0.0714096 0.071263 
0.0718271 0.0733145 0.0739984 0.0731634 0.0732628 0.0732092 0.0733195 0.0741494 0.0752616 
0.0752524 0.0755793 0.0756388 0.0771438 0.082272 0.0957189 0.093691 -0.0844972 -0.120791 
-0.112076 -0.107807 -0.0721835 -0.0725946 -0.0722007 -0.0722076 -0.0729466 -0.0722138 -0.0710268 
-0.0731678 -0.0736901 -0.073415 -0.0740212 -0.0746621 -0.0741474 -0.074228 -0.075656 -0.0758906 
-0.0770163 -0.0772481 -0.0774791 -0.0800064 -0.0910125 -0.0677848 1.643e-07 -3.83649e-07 -6.31121e-06 
-4.46429e-06 -1.81692e-06 -1.55967e-06 -4.43191e-07 1.33991e-06 2.23914e-06 3.529e-06 4.4618e-06 8.65892e-08 
3.46796e-06 4.23421e-06 3.68212e-06 4.39359e-06 -3.78442e-06 4.09808e-06 -3.27637e-06 2.23095e-06 6.01875e-07 
-2.42325e-07 -2.28215e-06 -3.13643e-06 2.44663e-06 -1.66428e-06 -5.44093e-06 0.00542809 -0.00272371 -0.000243843 
-0.000217643 -0.000190953 -0.000145853 -0.000119247 -0.00010028 -9.04012e-05 -5.9092e-05 -5.40229e-05 -5.18895e-05 
-3.78943e-05 -3.21298e-05 -3.04625e-05 -3.20414e-05 -3.73162e-05 -4.44943e-05 -6.8736e-05 -7.18236e-05 -6.63862e-05 
-2.26544e-05 2.9225e-05 7.18166e-05 7.82486e-05 6.94964e-05 4.48685e-05 1.92372e-05 1.11261e-06 -1.70917e-05 
-2.74003e-05 -3.04951e-05 -3.34297e-05 -2.94333e-05 -2.5606e-05 -2.33053e-05 -2.45119e-05 -2.17071e-05 -1.7492e-05 
-1.55555e-05 -1.24744e-05 -8.8301e-06 -5.81712e-06 3.07309e-06 1.06371e-06 1.02126e-06 4.49266e-06 4.06291e-07 
-6.89656e-06 -9.92579e-06 -1.33559e-05 -1.61169e-05 -1.8431e-05 -2.0626e-05 -1.97465e-05 -1.69875e-05 -2.04352e-05 
-2.28443e-05 -2.02019e-05 -2.35612e-05 -5.6207e-07 6.3316e-06 6.64718e-05 9.97253e-05 9.99362e-05 2.87401e-05 
1.40179e-05 6.06339e-06 -8.48622e-05 -0.000155618 -0.00013721 -4.18096e-05 -8.16529e-05 -1.88977e-05 -1.1849e-05 
-3.74697e-05 -3.10322e-05 -2.63262e-05 -3.05899e-05 -3.5797e-05 -3.8952e-06 7.54697e-06 -6.07519e-05 -5.23654e-05 
-8.27961e-05 -9.85055e-05 -0.000152872 -0.000798853 -0.0030866 0.0527111 -0.0400949 -0.0314301 -0.037909 
-0.0409776 -0.0379234 -0.0394747 -0.0357207 -0.0320872 -0.0265976 -0.0267817 -0.0260211 -0.0218111 
-0.0326835 0.0243429 0.0276495 0.0340391 0.0362809 0.0368829 0.0292733 0.0276152 0.0259094 
0.0262006 0.0259044 0.0266223 0.0249407 0.0252902 1.92991e-06 1.30601e-06 4.00084e-06 3.62994e-06 
2.14522e-06 7.60751e-07 2.93644e-07 -1.86623e-06 -2.11534e-06 1.27619e-06 -4.34263e-06 -6.53644e-07 -3.52968e-06 
-3.77848e-06 -3.4415e-06 -4.98907e-06 1.48626e-06 -4.05531e-06 6.07584e-07 -5.96657e-07 -5.12484e-07 7.95035e-07 
2.55431e-06 3.32931e-06 -5.02155e-07 1.06854e-06 1.72693e-06 -0.0399916 0.00174345 0.000473503 0.000106213 
5.88496e-05 4.18711e-05 2.88508e-05 1.5276e-05 1.09936e-05 1.00381e-05 1.91482e-05 8.67015e-06 5.03648e-06 
9.67737e-06 1.63916e-05 2.81428e-05 4.63373e-05 8.10143e-05 0.000107616 0.000126395 0.000115738 8.37799e-05 
2.60928e-05 -3.32619e-05 -8.46864e-05 -0.000104454 -9.7219e-05 -8.98848e-05 -6.18849e-05 -4.10765e-05 -2.7991e-05 
-1.75637e-05 -1.12936e-05 -1.01296e-05 -6.14277e-06 -2.7153e-06 -4.97487e-07 9.80988e-07 2.56559e-06 3.73181e-06 
3.7298e-06 4.40674e-06 2.28768e-06 -3.14718e-06 -1.30198e-05 -1.14719e-05 -2.4632e-06 3.00425e-06 5.12375e-06 
6.47803e-06 9.02969e-06 1.13007e-05 1.22515e-05 1.27369e-05 7.19802e-06 4.72447e-06 6.36947e-06 1.65008e-07 
-5.51825e-07 -6.4017e-07 -2.03823e-05 -2.5718e-05 -5.20064e-05 -7.23172e-05 -9.86451e-05 -0.000102753 -7.07422e-05 
-3.31407e-05 1.78177e-05 0.000103893 0.000175566 0.000121029 0.000109188 4.76492e-05 2.30636e-05 3.02685e-05 
2.1763e-05 3.26032e-05 3.6775e-05 4.44138e-05 3.95936e-05 5.79071e-05 6.0253e-05 -1.50294e-05 0.000170164 
0.000261884 0.000384985 0.000711178 0.00353141 -0.00586427 0.0248505 0.0252224 0.0269039 0.0265579 
0.0278152 0.0276352 0.0267332 0.0349857 0.0371023 0.0376932 0.0373445 0.0286417 0.0239127 
-0.0335489 -0.0283999 -0.0290044 -0.0260673 -0.0263138 -0.0268353 -0.0358371 -0.0369087 -0.03694 
-0.0362758 -0.0361173 -0.0328763 -0.0305479 -1.29113e-07 -1.24744e-06 2.32044e-07 1.46688e-07 1.20444e-06 
1.22215e-06 -6.19292e-08 -1.83272e-06 -2.44874e-06 -1.44088e-06 -3.13228e-07 -1.64878e-06 -1.45916e-06 -1.5459e-06 
-1.85269e-06 -1.45748e-07 -2.30028e-06 1.32213e-06 -1.30212e-06 -2.35718e-07 1.053e-06 2.96585e-08 9.54685e-07 
1.12824e-06 -2.50021e-06 -7.63072e-07 6.27353e-06 0.00999145 -0.000363941 -3.39115e-05 1.37544e-05 5.80727e-06 
-4.11568e-06 -6.05848e-06 6.67993e-06 8.69845e-06 -5.92012e-06 -1.9623e-06 9.9949e-06 1.04715e-05 1.12263e-05 
7.72392e-06 8.88291e-06 1.49719e-06 -3.18994e-06 -2.80699e-06 3.30336e-05 4.01021e-05 -3.4285e-06 -4.26522e-06 
-1.22182e-05 -1.23421e-05 -5.63208e-06 -1.06706e-05 -1.1666e-06 3.75067e-06 5.90212e-06 3.73208e-06 3.62919e-06 
4.95673e-06 5.39126e-06 2.51098e-06 -2.53754e-07 6.29183e-07 3.00809e-06 3.15307e-06 2.21427e-06 2.31411e-06 
1.86449e-06 -5.02968e-07 5.99239e-07 -4.16284e-06 -2.30815e-06 -2.21058e-06 -2.57958e-06 -3.33686e-06 -4.17771e-06 
-3.30184e-06 -2.71824e-06 -1.45077e-06 4.13692e-06 2.20533e-06 7.10588e-06 6.94729e-06 2.34831e-06 -5.89016e-07 
-1.25573e-05 -2.99121e-05 -2.75232e-05 -1.64537e-06 6.42252e-06 6.82315e-06 2.65813e-05 1.1049e-05 -2.48404e-05 
-5.94414e-05 -2.44753e-06 -1.11024e-05 -1.54014e-05 -7.03488e-06 1.1907e-05 8.4264e-06 -9.91324e-06 4.25681e-06 
-7.18541e-06 -3.4646e-05 -1.39977e-05 1.39775e-05 1.53012e-05 5.92482e-05 8.74758e-05 4.83584e-05 0.00101942 
0.00627396 0.0096202 0.00898647 0.00898764 0.00633169 0.00762998 0.00803224 0.00740069 0.00838726 
0.00869559 0.00776855 0.0083537 0.00792211 0.007895 0.00800823 0.00850785 0.00882878 0.00847048 
0.00890586 0.00840392 0.00879235 0.00861366 0.00856723 0.00915541 0.00781043 0.00555038 0.0167679 
0.0081847 0.00758556 0.007465 0.00737643 0.00763442 0.00852557 0.00859771 0.00708322 0.0068736 
0.00727986 0.00764221 0.00535533 0.012601 -0.000404048 -0.0229567 -0.0177131 -0.0147295 -0.00559255 
-0.00734718 -0.00773139 -0.00593142 -0.00616916 -0.00650404 -0.00654103 -0.00765075 -0.00746749 -0.00641697 
-0.0147513 -0.00123813 -0.00162177 -0.000521226 0.000940937 0.00305912 -0.000428986 -7.48766e-08 3.87981e-07 
-3.42677e-07 3.39636e-07 3.41987e-07 -8.33615e-07 -3.47662e-07 1.05104e-06 -7.31416e-07 9.35795e-07 -7.98107e-08 
-7.60137e-07 -2.45964e-07 -8.24248e-07 3.20827e-07 -8.97288e-07 -3.1619e-07 1.40391e-06 -2.45382e-09 -4.93177e-07 
6.44303e-07 4.20063e-07 -1.51179e-06 4.72545e-07 0.000136185 0.00345792 9.27034e-05 4.41527e-05 4.13007e-05 
2.43502e-05 9.91375e-06 1.97624e-05 1.94963e-05 7.43354e-06 1.73098e-06 3.88594e-06 -2.61754e-06 -5.85747e-06 
-8.78398e-06 -4.94239e-06 1.95289e-07 9.69597e-06 1.65532e-05 1.49821e-05 3.14496e-05 3.41856e-05 1.89763e-05 
-3.13647e-05 8.83117e-06 -3.77402e-05 -2.38566e-05 -1.70359e-05 -1.1814e-05 1.89556e-06 6.72887e-07 1.41586e-06 
3.1746e-06 1.18491e-06 9.69891e-07 2.91873e-06 4.85217e-06 4.14381e-06 6.05807e-07 -8.34985e-07 -1.4611e-06 
-1.40035e-06 -1.39495e-06 2.4324e-06 0.00168014 0.000565464 -3.14417e-07 -8.46315e-07 -8.09255e-07 -7.34804e-07 
-7.45373e-07 -3.45155e-07 6.26887e-06 2.21274e-06 6.6541e-07 2.74865e-07 1.76591e-06 1.51794e-06 -5.32262e-06 
2.58724e-06 1.72435e-05 2.03667e-07 -1.62971e-05 -1.17257e-05 -4.09146e-07 -4.54806e-06 1.26858e-05 1.76884e-05 
-1.28796e-05 3.492e-05 4.33631e-05 4.09208e-05 2.57659e-05 -1.16017e-05 6.76881e-06 4.44958e-06 -4.6061e-07 
1.29507e-06 -1.63878e-05 -2.2283e-05 3.26886e-06 -2.34933e-05 -3.6654e-05 1.44757e-05 -2.8719e-05 4.25828e-05 
0.000649806 0.00273821 0.00301352 0.000933207 0.000928729 2.72938e-06 -2.89308e-05 -0.000183343 -8.45343e-05 
-0.000201301 -0.000135492 1.34389e-05 -7.4981e-05 -5.625e-06 -0.000108241 -0.000112123 -0.00017125 -3.65416e-05 
-0.000100146 4.34238e-07 3.27365e-05 -0.000113568 5.5507e-05 0.000437495 -0.00116153 0.00305931 -0.000822233 
0.000186461 0.000183183 5.81044e-05 0.000119013 3.09828e-05 0.000145395 -0.000248009 0.000948132 0.00235617 
0.00110169 -0.00132943 -0.000959102 0.000393137 -0.000795567 0.000518134 5.92503e-05 -0.000739688 -0.000238094 
-4.19967e-05 -6.82103e-05 3.3696e-05 -8.94509e-06 -4.64895e-05 0.000334355 -0.00019489 -0.000572278 -0.00137965 
0.000480887 -5.38691e-07 -0.000454004 0.000717207 -0.000614919 0.000658472 -1.49059e-05 2.69511e-06 -2.83173e-07 
-3.17172e-07 3.64793e-07 1.24137e-07 5.18437e-07 5.97481e-07 5.55916e-07 2.67043e-07 4.11e-07 1.30219e-07 
1.01003e-07 -5.32724e-08 3.70129e-08 1.88463e-07 -4.34924e-07 1.62276e-08 3.30378e-07 1.10632e-07 1.88666e-06 
-2.4836e-07 -6.15673e-05 2.63249e-06 5.2297e-06 5.22792e-05 3.33551e-06 4.40468e-06 1.21715e-05 1.37032e-05 
1.63745e-05 5.6199e-06 -2.46487e-07 1.57165e-06 -1.89514e-06 -2.69117e-06 -3.78621e-06 -1.11883e-05 -1.42632e-05 
1.35903e-05 1.82757e-05 1.58603e-05 4.14671e-05 3.16408e-05 2.62357e-05 -4.97184e-06 -6.30317e-05 9.2873e-06 
-7.16561e-06 -2.73095e-06 -1.28316e-06 -7.40186e-06 -4.26993e-07 2.92923e-06 1.43668e-06 3.59607e-07 -2.03978e-07 
-2.33368e-08 4.68084e-07 4.18959e-07 4.21366e-07 -9.69237e-07 -3.93717e-07 -7.76941e-07 -1.83118e-06 -0.000141686 
0.000138256 6.28526e-05 -1.51473e-07 2.96933e-07 4.22918e-07 -9.79954e-07 9.14185e-07 2.63436e-07 -4.20079e-07 
3.30604e-07 1.20111e-06 2.25901e-06 7.63093e-06 8.30585e-06 -2.86033e-05 6.11999e-06 -1.54726e-05 2.20801e-05 
-3.12371e-05 -9.98059e-06 8.08919e-05 -4.08827e-05 6.51276e-05 6.31978e-05 1.40994e-05 2.56133e-05 -2.26611e-06 
-7.70813e-06 -4.60997e-06 -1.58053e-05 -4.82307e-06 -4.03127e-06 -4.26086e-06 1.08986e-05 -6.57862e-06 9.35002e-06 
7.65563e-06 4.24214e-05 4.65096e-06 -1.6703e-05 4.48371e-05 0.000161881 2.10774e-05 0.000126182 -3.51544e-05 
-5.44042e-06 3.20817e-05 -2.05441e-05 -2.46091e-05 -3.24419e-05 -2.39038e-05 -4.25049e-05 -2.94475e-05 -2.81163e-05 
-3.00376e-05 -4.28785e-05 -5.46136e-05 -5.26959e-05 -4.52833e-05 -3.32901e-05 -1.62455e-05 1.44321e-05 -4.6437e-05 
1.63062e-05 6.97102e-06 4.67531e-06 -1.10775e-05 -7.1423e-05 -1.48503e-05 0.000135595 7.92812e-05 -1.52642e-05 
2.67294e-05 7.69674e-06 0.000210692 -5.87337e-05 -0.00028611 -4.80147e-05 5.05574e-05 1.85575e-05 5.58946e-05 
3.33388e-05 1.38808e-05 7.0334e-05 -0.000162531 5.18725e-05 0.000159691 -4.26724e-05 -6.5325e-07 -2.46438e-05 
-3.64723e-05 -1.31326e-06 -2.64217e-05 2.26592e-05 3.95133e-06 -0.000100066 -9.61106e-05 8.56863e-05 -8.56099e-05 
-1.52854e-05 5.96481e-08 5.40798e-07 1.90577e-07 5.67614e-08 5.15116e-07 3.90741e-07 -1.51073e-07 9.35814e-07 
2.92326e-07 2.74655e-07 2.78827e-07 1.24796e-08 -4.08381e-08 2.5449e-08 -1.79637e-07 1.50585e-07 3.99743e-07 
1.11906e-06 5.59705e-09 5.97386e-06 3.07523e-05 -3.93674e-05 9.1613e-06 -2.79453e-06 8.10496e-06 1.14111e-05 
9.06895e-06 1.6909e-06 -3.4604e-06 7.33546e-06 5.33233e-06 1.72665e-06 1.12802e-06 -3.1915e-06 -2.40866e-05 
-3.92508e-05 -2.72612e-05 -5.66874e-05 -1.28348e-05 -1.30025e-05 4.32899e-06 2.88989e-06 -6.0655e-07 -1.37362e-06 
1.90004e-07 3.99589e-07 3.99617e-07 7.78299e-07 6.14251e-07 3.42344e-07 6.18773e-07 -2.45547e-07 7.59382e-07 
-8.37509e-05 1.92608e-05 6.37151e-08 2.17179e-06 -1.6947e-06 8.54205e-07 5.28568e-07 5.88938e-07 -1.04134e-06 
7.90233e-07 -4.41172e-07 5.1841e-07 2.32109e-06 1.0004e-05 -2.12471e-05 2.55872e-05 -1.5947e-05 5.5035e-05 
2.53612e-05 7.06498e-06 -4.59509e-06 -1.12845e-06 2.19871e-06 7.93778e-07 -7.62938e-06 4.5357e-06 9.37191e-06 
1.10237e-05 -2.87568e-05 -7.20576e-05 2.13486e-05 -5.04046e-05 1.5417e-05 2.48871e-05 4.16148e-05 3.96391e-05 
-1.84828e-05 3.00583e-05 2.23729e-05 -1.4014e-05 1.16907e-05 4.33887e-06 9.05848e-07 8.71672e-07 3.87485e-06 
8.80876e-06 -2.57227e-07 5.08088e-07 7.99452e-06 -8.07404e-07 -7.01899e-07 -7.48019e-07 1.41062e-05 -2.24811e-05 
-1.22085e-05 -1.10982e-05 -1.72143e-06 1.80862e-05 -1.26363e-05 1.02405e-05 2.6614e-07 -1.47187e-07 1.1245e-05 
5.92456e-06 1.31017e-05 -2.10618e-05 3.64292e-05 -8.64434e-06 3.32349e-05 -3.47005e-05 1.16512e-05 -7.34157e-06 
-1.72044e-06 -3.54771e-05 -2.42982e-05 -2.05219e-05 5.96889e-05 1.79502e-05 1.7153e-06 -1.8157e-06 -1.1633e-07 
5.85006e-07 8.70994e-07 1.9687e-06 8.9677e-07 1.72907e-06 1.07556e-06 2.52758e-07 -1.09136e-08 1.40116e-07 
2.64671e-07 5.43526e-07 -1.36951e-07 7.13706e-07 -1.30213e-05 1.36047e-05 -4.73685e-06 -1.52318e-05 2.02362e-05 
2.29705e-06 7.71781e-06 7.41462e-07 3.93991e-07 7.02385e-08 8.65507e-07 -1.17726e-05 -9.76246e-07 -3.24002e-06 
2.46616e-05 -9.69726e-06 2.54695e-07 2.98767e-07 1.93897e-06 1.49007e-06 2.55652e-07 -1.1401e-07 6.55184e-07 
5.29912e-07 4.41557e-07 8.37907e-07 5.37956e-07 1.30742e-05 1.61782e-06 -2.98671e-06 -1.41825e-06 -9.67113e-07 
-1.50991e-06 1.15902e-06 -4.24034e-07 -1.35442e-06 6.23693e-06 1.27129e-05 4.82568e-07 -3.38243e-05 1.28492e-05 
6.26331e-07 -1.02633e-06 -3.55279e-06 1.02385e-05 -8.54515e-06 1.1407e-08 -4.7429e-06 -3.48238e-06 -1.91694e-05 
-2.8455e-05 1.40844e-05 -5.52807e-06 2.37044e-05 1.7782e-05 -4.83138e-06 3.9084e-07 1.16904e-05 -9.71294e-07 
2.31595e-05 5.59838e-07 3.58002e-06 2.51396e-06 -4.40907e-06 1.04023e-05 3.16612e-05 7.27536e-06 -1.02224e-05 
-1.65066e-05 -6.37135e-06 2.49522e-05 1.89968e-05 4.31442e-06 1.6415e-05 6.36032e-06 8.89788e-07 2.82491e-05 
1.1271e-05 1.73303e-05 8.24732e-06 7.81616e-07 2.40231e-06 -4.76551e-06 -7.94627e-06 -1.11231e-05 -7.33583e-06 
6.08364e-05 -1.51595e-05 1.11391e-05 1.72406e-05 2.00748e-06 8.76743e-07 3.35532e-06 9.47902e-07 5.0826e-08 
-2.78501e-06 4.9946e-07 -2.18857e-07 1.78894e-07 3.00568e-07 6.38529e-07 -5.97625e-07 1.579e-05 2.26941e-05 
-1.28564e-05 -4.32553e-06 8.70771e-06 -2.00608e-06 -2.49348e-06 2.20281e-07 1.24585e-06 -3.92679e-06 1.31568e-05 
1.16019e-05 -9.75536e-08 1.1641e-06 -7.63308e-07 -1.2356e-07 1.55138e-06 1.18374e-06 9.03385e-07 -8.28589e-06 
1.08114e-05 -8.0933e-06 -1.87931e-06 6.50195e-07 -3.90058e-07 -1.41145e-06 -2.68969e-06 -2.17035e-06 -9.49218e-07 
5.57771e-06 -1.3773e-05 2.939e-06 -7.80888e-06 2.11969e-06 3.04396e-06 2.09215e-05 9.37635e-06 1.05404e-06 
7.36487e-06 -2.22737e-05 2.63734e-06 -3.40399e-05 1.60151e-06 -1.49981e-05 1.95908e-06 -1.49806e-05 -1.73195e-05 
1.76697e-05 2.524e-06 1.79476e-05 1.71595e-05 -1.31911e-05 -8.66995e-07 -9.29144e-06 2.09087e-06 3.19489e-06 
-4.42698e-06 7.00488e-07 1.37952e-05 -7.62141e-07 -4.57789e-06 3.05996e-05 -2.7581e-06 2.40987e-06 -9.66928e-06 
-5.87376e-06 -2.08499e-06 -3.81154e-06 -1.11175e-07 8.75187e-07 2.00625e-07 1.16903e-06 1.2052e-06 4.27637e-06 
1.36419e-05 -2.88938e-05 1.34858e-06 1.11742e-05 1.32961e-06 3.14303e-06 1.07236e-05 3.37918e-07 -7.78363e-06 
3.11529e-06 1.55399e-06 2.21087e-06 1.05067e-05 -2.00858e-06 -8.61928e-07 -3.83218e-06 -1.94441e-06 4.53392e-06 
2.02803e-05 -1.84138e-05 1.27566e-05 -1.01053e-07 -4.86458e-06 3.07361e-05 -3.51086e-05 2.68101e-05 8.02016e-06 
2.20829e-05 -2.49098e-05 2.53677e-05 2.26799e-05 -1.87816e-05 2.75332e-06 -9.70163e-07 -1.47658e-05 1.71668e-05 
3.50545e-06 3.47664e-06 -7.54706e-07 1.14869e-06 -9.90907e-07 -2.79965e-06 -3.67808e-06 -2.07856e-06 -3.03265e-06 
-1.6397e-05 9.03545e-06 1.93242e-05 9.74373e-07 2.63123e-06 -2.13492e-06 1.1347e-06 -2.20444e-05 -5.21394e-07 
-2.82683e-06 -3.29265e-06 7.82273e-07 1.10165e-06 -2.57413e-05 -1.88125e-05 6.16023e-06 1.03982e-06 -4.42453e-06 
7.95078e-06 -1.02496e-05 9.20923e-06 1.80054e-05 -7.07811e-06 4.2746e-07 -2.93332e-06 -1.73288e-06 -2.26496e-06 
2.00596e-05 -8.38957e-06 3.64666e-07 4.96211e-06 3.2332e-06 3.29128e-07 8.09667e-07 5.79409e-07 -1.52168e-06 
-1.21093e-06 1.03147e-07 1.89692e-06 1.13148e-06 5.46265e-07 1.06906e-06 -1.19192e-07 1.03417e-06 1.69529e-06 
1.23418e-06 7.24313e-07 7.71756e-07 6.62368e-07 7.30007e-08 1.47516e-08 -9.12703e-07 3.23172e-07 -1.60701e-06 
-5.85057e-07 1.5793e-06 2.7863e-07 -3.6112e-07 -0.00256339 -0.000985882 -0.000270111 -8.3201e-05 -3.10801e-05 
-1.62475e-05 -3.39851e-06 -4.44608e-06 -3.44893e-06 -8.17097e-07 3.90271e-06 -9.1777e-07 -3.89324e-06 -4.62753e-06 
-2.63838e-06 -2.71571e-06 -9.9812e-06 9.76807e-07 1.05863e-05 -4.33784e-06 6.27788e-06 3.42141e-06 -2.86816e-08 
1.27329e-05 -1.1417e-05 -1.03606e-05 -9.78349e-07 -2.3263e-06 -1.31086e-05 -7.38168e-06 -3.47027e-06 -2.1569e-06 
-7.79896e-07 -3.79043e-07 -1.64359e-06 1.18933e-06 3.64473e-06 3.94738e-07 -1.13386e-06 -5.40816e-07 -3.38312e-07 
-5.67805e-07 1.62662e-06 -1.2103e-06 1.01919e-06 1.84487e-06 2.86367e-06 3.34722e-06 3.98939e-06 3.88443e-06 
3.25144e-06 1.41238e-06 -3.14658e-06 -5.05957e-06 -4.95114e-06 -8.02214e-06 8.46466e-08 1.36851e-06 -6.57319e-06 
9.10947e-06 1.11047e-05 1.70874e-05 -4.93758e-06 3.31639e-06 1.7662e-05 -4.93895e-06 -1.28033e-05 2.86994e-05 
4.0312e-05 1.50164e-05 9.85887e-06 7.73856e-06 6.73005e-06 -1.22937e-05 -7.51285e-06 5.60504e-06 -1.37018e-05 
-1.06308e-05 -9.18712e-07 5.72507e-06 4.39508e-05 1.2533e-06 -9.70306e-05 -0.000110206 -0.000106602 0.000500396 
-0.00604427 -0.0262488 -0.0237523 -0.0221029 -0.0212034 -0.00749017 -0.00632094 -0.00673393 -0.00674758 
-0.00764982 -0.00866686 -0.00824127 -0.00780399 -0.00833151 -0.00780978 -0.00802895 -0.0077377 -0.00827123 
-0.00832531 -0.00865665 -0.00838136 -0.00846138 -0.00806448 -0.00770431 -0.00801934 -0.00795999 -0.0121589 
-0.0183479 -0.00771217 -0.00681042 -0.00655926 -0.00842642 -0.00751836 -0.0066136 -0.00766285 -0.00745881 
-0.00712112 -0.00721254 -0.00978384 -0.0134251 -0.0184066 0.00186282 0.0107076 0.0103275 0.00799631 
0.00783001 0.00561154 0.00589039 0.00757954 0.00669879 0.00689323 0.00618005 0.006348 0.00693292 
0.00893921 0.00337276 -0.000222871 -0.000210749 -7.95265e-07 0.000685286 -0.00354917 0.00156254 -6.23656e-08 
-1.23487e-06 7.54674e-07 -1.68525e-07 1.47831e-07 -2.96336e-07 7.36805e-07 4.96007e-07 -4.68442e-07 7.48715e-07 
5.39357e-07 -1.16488e-07 3.35327e-07 3.39381e-08 3.06451e-07 1.94349e-09 6.43689e-07 -7.22704e-07 -5.19464e-07 
-4.74629e-07 1.37707e-08 -1.06981e-06 5.78404e-07 -4.95594e-07 -3.95721e-05 1.55846e-06 0.00303854 0.000188807 
0.000253784 -7.20925e-05 -5.28513e-05 -4.7987e-05 -2.93889e-05 -3.0618e-05 -1.87974e-05 -1.07875e-05 -1.37089e-05 
-5.41354e-06 -2.72649e-06 -7.22382e-07 1.71266e-06 9.77048e-06 9.57864e-06 8.62909e-07 -4.96509e-06 1.22224e-05 
-3.55194e-05 1.54763e-05 9.25801e-06 3.48917e-06 1.29683e-05 1.48868e-06 -1.11675e-05 2.25222e-06 6.52992e-07 
-5.31432e-06 -5.45573e-06 -3.96608e-06 -2.53545e-06 -3.78593e-07 -4.53353e-07 -2.39402e-06 -3.94134e-06 -1.04258e-06 
6.07042e-07 1.10003e-07 -3.68035e-07 1.79902e-06 0.000138685 -0.000195525 1.1231e-06 6.95954e-07 3.84254e-07 
3.68555e-08 1.15045e-07 -2.39925e-06 -6.04697e-06 -2.19486e-06 -4.00146e-07 -1.91588e-06 -3.20793e-06 -8.71229e-06 
-1.00403e-05 -6.99479e-06 -2.72534e-05 -9.00629e-06 -1.24391e-06 6.81527e-06 -6.68261e-06 6.22859e-06 3.06344e-06 
2.50069e-05 3.83301e-05 4.06028e-06 -4.18173e-05 -4.56733e-05 -3.20768e-05 1.66034e-05 -6.43989e-06 -7.20812e-06 
-4.48285e-06 -1.1222e-05 7.18651e-06 1.38917e-05 1.20462e-05 -1.25094e-05 -4.98905e-05 2.7227e-06 -1.70702e-05 
-9.67597e-05 -0.000362224 -0.00307145 -0.000156567 -0.00122355 -0.000915392 -8.50517e-05 0.00102936 -5.5796e-05 
-0.000198924 -0.000114353 -7.44176e-05 -6.61325e-05 -0.000225241 -6.6759e-05 -0.000184217 4.98095e-05 -6.54476e-05 
3.19614e-05 -4.74055e-06 -3.6108e-05 2.16304e-05 7.5593e-05 -4.21142e-05 -6.54205e-05 -0.000240167 5.22423e-05 
-0.000342133 0.000164277 0.00061788 0.00075507 0.000857969 7.44711e-05 0.00014745 -2.73173e-05 -0.000183456 
-0.000240749 -0.000227795 -0.000335481 -0.000565557 0.000377744 -0.000168649 -0.00138495 -0.000173609 0.00251404 
0.000471791 2.17143e-05 -0.000924889 -0.00104967 0.000259328 0.000108794 0.000334773 0.000142906 0.000221505 
-3.8088e-05 0.000101535 0.000458608 1.70666e-06 -0.000158909 -3.49326e-05 0.000118837 -0.000584928 0.000264909 
-7.91462e-05 0.000177783 9.84055e-07 7.83985e-07 -5.74048e-07 -2.10135e-07 -1.37348e-07 -7.30542e-07 2.82492e-08 
1.30642e-07 -3.26014e-07 -1.50612e-08 -2.1198e-07 -3.99552e-10 2.81214e-07 4.76942e-07 -3.4519e-07 -5.30095e-07 
-9.71375e-07 -1.4602e-06 -5.52165e-07 4.00327e-07 -6.32061e-05 -2.05095e-05 -4.41033e-05 -0.000197535 4.18526e-05 
0.000243314 -9.19892e-07 -9.96051e-06 -6.10022e-06 -1.50083e-05 5.91115e-06 -3.98592e-06 -6.37585e-06 -8.21964e-06 
-6.45567e-06 -2.3041e-06 1.48325e-05 1.00025e-05 2.08556e-05 4.28882e-05 0.000127524 -3.32638e-05 -4.83421e-07 
-2.30699e-05 -6.95515e-06 -5.79996e-06 -2.19921e-06 1.97864e-06 2.03362e-06 8.60366e-07 5.19601e-07 4.76097e-07 
4.08854e-07 1.71276e-07 3.05655e-07 1.02579e-06 -8.97077e-08 9.78333e-07 1.65104e-07 7.07918e-06 0.000107875 
-5.6163e-07 -1.26275e-06 -5.2488e-07 -6.53916e-07 -1.17756e-06 -1.3448e-06 -3.97009e-07 -3.00692e-08 -1.09417e-06 
-1.50889e-06 -1.30799e-06 -3.57833e-06 5.00934e-08 1.17181e-06 -1.22233e-05 5.5231e-06 -1.29609e-05 6.52094e-05 
-5.95813e-06 6.25282e-05 3.30503e-05 -3.75094e-05 -5.45441e-05 -3.49443e-05 -1.65929e-05 -5.58216e-06 -8.83444e-07 
4.75093e-06 5.87508e-06 6.53565e-06 7.31671e-06 -6.21502e-06 -1.07077e-05 -2.9688e-05 2.68218e-05 -3.42586e-05 
-5.17967e-05 -7.04922e-05 -7.11256e-05 -8.80205e-06 1.07266e-06 -1.50344e-05 0.00013564 -5.20037e-05 -4.57128e-06 
9.88428e-08 -1.08203e-05 2.63884e-05 4.62691e-05 5.10308e-05 2.53168e-05 3.82521e-05 3.02277e-05 1.5663e-05 
2.66136e-05 1.43164e-05 2.62142e-05 2.89133e-05 3.07051e-05 2.20764e-05 5.19459e-05 6.29215e-05 -1.16098e-05 
7.79278e-05 9.81703e-05 -2.23085e-07 1.24344e-05 4.3735e-05 2.83593e-05 6.0396e-05 4.85335e-05 -3.04334e-05 
-5.49705e-05 -1.62583e-05 -8.07261e-05 -6.23374e-05 -2.43141e-07 4.52786e-05 -3.63953e-05 -7.21954e-05 -7.54409e-05 
-1.09937e-05 4.46925e-05 5.579e-05 3.48297e-05 -1.50169e-05 1.87734e-06 -2.32885e-05 0.000161646 8.32737e-05 
5.34577e-07 2.58113e-05 -1.72341e-05 2.5449e-05 -2.44939e-05 -3.6912e-05 -1.47337e-05 0.000151968 1.78577e-05 
4.26504e-05 -2.25267e-05 -4.14987e-05 1.17578e-06 -1.15224e-07 2.86566e-07 -6.13577e-07 -3.37548e-07 -5.69159e-07 
3.1021e-07 7.6041e-08 -1.05224e-07 3.37174e-07 1.51267e-07 -5.75212e-07 -8.15566e-07 -1.14877e-06 -1.03853e-06 
3.04739e-05 -1.30908e-05 3.04675e-06 6.02087e-05 -1.62781e-05 -9.22243e-06 5.62502e-06 -3.44692e-06 -7.11109e-06 
-3.73341e-06 -8.33343e-06 -1.65685e-05 -8.02979e-06 -3.75575e-05 -1.32004e-05 -4.72554e-06 -2.9529e-06 2.13856e-06 
3.85394e-06 1.38566e-06 4.18517e-07 1.40608e-06 8.26592e-07 3.71004e-07 6.55368e-07 -8.51386e-07 7.41962e-07 
-5.71823e-07 3.06348e-05 -1.54985e-05 -3.98228e-06 -6.79898e-07 -2.21861e-06 -6.82642e-07 -5.53301e-07 1.01979e-06 
8.89781e-08 -4.83639e-07 2.13955e-06 -4.98546e-06 -1.79991e-06 -5.80794e-06 5.09125e-06 1.74236e-05 -2.58653e-05 
-1.89561e-05 -3.02757e-06 -1.17859e-06 -5.45852e-06 -5.84497e-06 -7.83484e-06 -5.29912e-06 -2.10611e-05 -9.13799e-06 
-1.88601e-05 -2.96597e-05 1.44783e-05 -1.5494e-05 -2.14487e-05 -2.04008e-05 7.33948e-06 -1.32243e-05 3.22796e-05 
1.96565e-05 5.12409e-06 -6.12118e-07 1.5031e-06 -8.38184e-07 -1.18903e-05 2.48655e-06 4.35701e-06 6.50161e-06 
1.2448e-05 1.61728e-05 2.66793e-05 2.4265e-05 2.99432e-05 3.25851e-06 -1.94868e-07 3.00631e-05 7.41349e-06 
7.69885e-06 2.2173e-05 -1.30405e-05 -8.33898e-06 -4.67155e-05 -4.96426e-05 -3.24505e-05 -3.07277e-07 -1.18155e-06 
4.25494e-06 -2.7281e-05 4.42331e-06 2.75583e-05 2.60667e-05 2.18119e-05 3.06259e-05 -8.92026e-06 -1.19029e-05 
-1.27735e-06 5.0011e-06 3.32969e-05 1.53263e-05 -1.78496e-05 5.73877e-05 -1.20376e-07 -0.000102566 1.67153e-06 
-1.94589e-07 7.60526e-07 3.38464e-05 1.20421e-06 3.06133e-05 1.49766e-05 -6.08924e-07 -2.51337e-06 -1.13419e-06 
-3.8848e-07 -1.9104e-08 -2.25278e-07 -2.39183e-07 1.27662e-06 -1.9456e-06 -6.1918e-07 -1.42572e-05 -4.61847e-05 
-6.22982e-06 -9.48467e-06 -9.16408e-06 -3.72941e-06 -4.20123e-06 7.55433e-06 -5.35556e-07 7.13673e-07 -2.97322e-06 
1.37302e-06 4.11596e-07 8.02184e-07 1.66498e-06 2.47839e-07 2.99646e-07 -6.95594e-07 -3.17564e-05 -1.95207e-05 
2.57924e-06 -1.60962e-06 -1.28463e-06 1.85214e-06 1.69594e-06 2.39685e-06 1.80138e-06 -2.0776e-06 -5.8277e-07 
-2.0394e-06 4.09741e-06 -4.39442e-06 3.11443e-06 -4.44825e-06 4.04141e-07 -1.10702e-06 2.82098e-06 -7.47821e-06 
-1.9221e-05 -2.25043e-05 7.50914e-06 1.80011e-06 -3.60288e-06 1.11767e-05 2.11694e-07 9.76038e-06 -1.31727e-05 
-3.88409e-06 -9.22466e-06 -9.0324e-06 2.04344e-05 6.04798e-06 1.30158e-05 -9.6745e-07 -6.05293e-06 -1.16049e-05 
2.43602e-06 -1.26384e-06 9.43569e-06 1.67695e-06 -4.34758e-06 3.01943e-06 1.31774e-05 -1.18118e-05 -9.7028e-06 
-8.10985e-06 -3.3342e-05 4.0458e-05 -6.14166e-06 -1.00759e-06 -8.46359e-06 3.04307e-05 2.16182e-05 1.20494e-05 
2.53045e-05 -1.16475e-05 -1.05751e-05 -3.39721e-05 1.51646e-05 -5.69511e-06 6.74707e-06 1.07687e-05 -4.49846e-05 
1.40459e-06 9.80045e-06 -5.05238e-07 -2.60916e-05 2.69682e-05 1.31882e-05 -5.83856e-06 1.52022e-06 -6.85451e-06 
6.1318e-08 -4.31022e-07 -1.37473e-06 2.68328e-06 3.10593e-06 5.26079e-07 -3.02734e-05 -9.24638e-07 8.75301e-07 
2.45689e-06 -3.98119e-07 6.56346e-06 3.04894e-06 2.58462e-07 4.40013e-08 5.86986e-07 5.60235e-06 -1.0102e-06 
-4.67404e-06 2.46119e-06 4.97081e-06 2.22974e-06 6.22644e-06 1.06198e-05 -1.13278e-05 5.21624e-06 4.80432e-06 
1.58955e-06 -9.81403e-07 3.40128e-07 -1.01588e-05 -6.96446e-06 4.68639e-06 1.91756e-05 2.19574e-06 1.85388e-05 
1.05792e-05 1.90651e-05 2.75658e-05 -3.87774e-06 -1.4975e-05 1.18362e-06 6.17416e-06 -5.8619e-06 -1.05701e-07 
-6.22657e-07 4.29032e-06 8.79907e-07 1.7727e-05 -6.97865e-07 -5.72322e-06 5.79151e-06 7.40846e-06 1.04066e-05 
1.08411e-05 -7.48696e-06 -2.34695e-06 2.45645e-06 -1.59067e-06 -1.08723e-07 3.30096e-06 8.70817e-06 -7.52666e-06 
-4.07751e-06 -6.09018e-06 4.39634e-06 -1.94567e-06 -2.72901e-06 1.29023e-05 4.76042e-06 1.22233e-06 -7.03356e-06 
8.39643e-06 1.14099e-05 9.54466e-06 1.06683e-06 5.29935e-06 -1.37521e-07 -1.15501e-05 5.8025e-06 7.95697e-06 
1.30582e-05 1.04611e-06 -7.77682e-07 -6.87213e-06 2.51429e-06 -1.3101e-06 -4.65669e-06 -6.0859e-06 7.86313e-06 
1.91589e-06 5.35119e-09 2.30812e-05 -2.03687e-05 2.57132e-05 1.56855e-05 1.64336e-06 1.07983e-05 -1.38043e-06 
6.17037e-07 3.24644e-06 3.34421e-06 7.16437e-08 5.05795e-06 -1.10352e-06 7.78309e-06 4.12872e-06 9.79082e-07 
-4.12852e-06 2.5852e-06 -4.61032e-07 -8.56684e-07 -3.07095e-06 1.10216e-05 -4.49444e-06 1.55566e-05 4.70448e-06 
8.78154e-06 -6.75229e-06 -3.43692e-06 1.07114e-05 1.26429e-05 1.9691e-05 2.07448e-05 -1.38446e-05 5.42614e-05 
4.48014e-06 -2.51835e-06 -1.65594e-05 3.61619e-07 -1.71366e-05 3.33902e-06 -2.46955e-06 2.58788e-06 -1.31425e-06 
8.62751e-07 -3.72529e-07 -2.15409e-05 7.62987e-06 1.68135e-06 3.14269e-05 1.6654e-05 -2.55996e-06 2.89416e-07 
2.51116e-06 -2.56351e-06 -1.6067e-05 -4.14627e-06 4.7804e-06 9.64426e-06 7.46989e-07 0.000353854 0.00230503 
8.41097e-07 0.0311003 0.0550968 0.127768 0.0848744 0.0735465 0.0679885 0.0658991 0.103769 
0.0964751 0.0968839 0.0951868 0.095822 0.0969492 0.0956865 0.0976529 0.0992052 0.0989472 
0.0984436 0.0987688 0.0985484 0.0984697 0.100511 0.101331 0.101496 0.101119 0.101351 
0.103998 0.116627 0.142273 0.146949 -0.091676 -0.137008 -0.113366 -0.109913 -0.106095 
-0.0964467 -0.0993774 -0.0970606 -0.0989149 -0.10004 -0.0970324 -0.098663 -0.100183 -0.0994741 
-0.0992282 -0.100317 -0.101195 -0.100178 -0.102307 -0.101979 -0.103214 -0.104114 -0.104197 
-0.107416 -0.114025 -0.128344 -0.121882 1.3539e-05 -6.9699e-06 -1.68743e-06 -1.38498e-05 -1.15715e-05 
-8.16528e-06 -7.06524e-06 -1.55239e-06 7.72858e-07 -1.78583e-07 1.19259e-05 3.16669e-06 1.18164e-05 1.12042e-05 
1.09302e-05 9.44239e-06 -8.51044e-07 2.21493e-06 -2.88846e-06 4.67568e-06 4.79191e-06 5.80341e-06 7.8576e-07 
-2.2767e-06 -5.5675e-06 -1.71917e-06 -7.46118e-06 -5.35059e-06 -0.0493883 0.00376376 -0.00103828 -0.000587382 
-0.000435149 -0.000298249 -0.000212138 -0.000174458 -0.000144924 -0.000111617 -8.15442e-05 -7.1982e-05 -6.10678e-05 
-4.68027e-05 -4.44544e-05 -4.43496e-05 -5.46577e-05 -6.97961e-05 -0.000120869 -0.000153594 -0.000174153 -0.000115581 
9.12427e-06 0.000109657 0.00017755 0.000171531 0.000112729 5.75152e-05 1.4659e-05 -2.62765e-05 -4.3788e-05 
-4.68452e-05 -5.10717e-05 -4.63452e-05 -4.08124e-05 -3.5382e-05 -3.3289e-05 -3.07051e-05 -2.56e-05 -2.33272e-05 
-1.97458e-05 -1.41475e-05 -7.42815e-06 1.33072e-06 6.79363e-06 5.72549e-06 5.21641e-06 -3.73755e-06 1.42363e-06 
-4.37997e-06 -1.13187e-05 -1.40839e-05 -1.92356e-05 -2.11015e-05 -2.45243e-05 -2.77661e-05 -2.4896e-05 -2.81403e-05 
-2.82665e-05 -3.43183e-05 -4.0468e-05 -2.08257e-05 -1.37147e-06 7.37653e-05 0.000145427 0.000174393 0.000140967 
0.000141322 4.10789e-05 -7.88503e-05 -0.000206958 -0.000251598 -0.000161727 -0.00013035 -7.19475e-05 -2.35431e-05 
-3.65599e-05 -4.45967e-05 -3.81286e-05 -3.57549e-05 -4.63486e-05 -4.2198e-05 -2.82309e-05 -4.88152e-05 -9.94493e-05 
-0.000142665 -0.000143977 -0.000226237 -0.000488029 -0.00288454 0.00274461 -0.0100186 -0.0497235 -0.0308278 
-0.0416795 -0.0429182 -0.0421639 -0.0430143 -0.0434147 -0.0402152 -0.0283736 -0.028466 -0.0285478 
-0.0273221 -0.0290733 -0.0417693 -0.0016432 0.0275731 0.024359 0.0320396 0.041583 0.040885 
0.0424063 0.0278615 0.0279246 0.0279762 0.0279514 0.0281844 0.027732 0.0276044 0.041257 
0.000753822 1.77409e-06 1.79673e-05 4.66704e-06 7.84549e-06 4.99233e-06 -5.51814e-07 -3.48155e-06 -7.03161e-06 
-9.78956e-06 -1.07412e-05 -5.83696e-06 -1.17057e-06 -6.9814e-06 -1.0348e-05 -1.16853e-05 -1.35132e-05 -3.36089e-06 
-1.21873e-05 -5.97469e-06 4.45642e-06 3.16633e-06 7.34107e-06 9.31832e-06 1.18316e-05 1.15265e-05 2.61745e-06 
3.68675e-06 -4.23624e-07 0.0506963 -0.0265548 0.00274835 0.000400583 0.000133274 8.65524e-05 6.31324e-05 
4.80818e-05 2.85029e-05 2.79795e-05 2.03241e-05 1.77219e-05 9.40589e-06 5.62874e-06 5.53224e-06 1.19974e-05 
3.21964e-05 7.28463e-05 0.000119211 0.000167688 0.000204138 0.000182457 0.000133377 5.83378e-06 -0.000117139 
-0.000170013 -0.000173319 -0.000148918 -0.000102988 -7.19767e-05 -4.53885e-05 -2.54136e-05 -1.38734e-05 -6.23419e-06 
-4.81817e-06 2.21749e-07 7.65345e-07 4.29931e-06 7.8135e-06 7.11704e-06 8.72167e-06 9.90848e-06 8.67343e-06 
1.49311e-06 -1.45323e-05 -1.17451e-05 -1.55984e-05 -5.83818e-06 -2.86507e-07 7.51301e-06 1.07936e-05 1.28442e-05 
1.63822e-05 1.9817e-05 2.0391e-05 1.6493e-05 1.46174e-05 1.44494e-05 1.54499e-05 1.21376e-05 -4.16767e-06 
-1.09728e-05 -2.70747e-05 -4.22152e-05 -8.43153e-05 -0.000157596 -0.000174311 -0.000115284 -0.000104732 5.39595e-06 
0.000151776 0.000189079 0.000233569 0.000147937 0.000135871 7.49596e-05 5.06694e-05 3.20707e-05 2.9832e-05 
4.21899e-05 5.59878e-05 5.55715e-05 6.9929e-05 9.00724e-05 5.87053e-05 0.000102051 0.000360671 0.000492425 
0.000880696 0.00134276 -0.00682267 0.0482472 0.0207058 0.0292543 0.0293231 0.0283001 0.0289027 
0.0296859 0.029435 0.0383632 0.0403139 0.04149 0.0419887 0.0413272 0.0254022 0.0246118 
0.000820608 -0.0380972 -0.0287853 -0.0303879 -0.0295786 -0.0276739 -0.0279281 -0.0418693 -0.0407007 
-0.0409113 -0.0406496 -0.0401599 -0.0410489 -0.0275538 -0.0332513 0.000289416 1.55714e-06 -2.34144e-07 
0.0126626 -0.0104317 0.00149595 -0.0183009 0.034872 -0.0101643 -0.022144 -0.0364506 -0.0303813 
-0.0287496 -0.0268232 -0.0282524 -0.0281025 -0.0257332 0.00480663 0.00219191 0.00139641 -0.00152568 
0.000157285 -0.000354329 -0.000191359 -0.000580313 -0.000696737 -0.000236345 -3.45812e-05 -0.000442992 0.000677121 
0.000113072 0.000501911 -7.83317e-05 8.87515e-05 -7.21188e-05 0.000838225 -0.000291031 -8.20861e-05 -0.000705895 
0.000368316 -0.000779028 0.000233517 -0.000251538 2.46167e-05 0.00029512 -0.000194477 -0.000422855 0.000227182 
9.97106e-05 -0.000950263 9.74419e-05 -0.00083106 0.000110309 -0.000642572 0.00101055 -0.000536591 0.000878591 
-0.0021852 -0.000890988 0.00379132 0.0191047 4.47326e-06 2.33595e-06 8.15032e-07 2.70381e-06 -5.47383e-06 
-1.02405e-06 -4.33932e-06 -1.74877e-06 7.02618e-07 -3.35513e-06 -1.10444e-06 -1.99419e-06 -1.99933e-06 -1.7844e-06 
-3.0542e-06 -2.70378e-06 -2.3226e-06 -3.08616e-06 -3.09666e-06 -1.73495e-06 -5.99694e-06 -2.65156e-06 -1.61415e-06 
-5.52272e-06 -2.68495e-06 -4.62513e-06 -8.23384e-06 -9.95523e-07 3.30864e-06 -4.38416e-06 3.89052e-06 -4.05585e-06 
-1.06243e-06 -1.24459e-06 2.56389e-06 4.52048e-08 -1.61409e-07 2.74075e-06 -3.25572e-06 -4.4852e-07 1.73176e-06 
-4.22422e-06 -1.04528e-06 1.20411e-06 -4.76594e-06 1.70144e-06 -5.02213e-06 -5.33607e-06 -5.13941e-06 -9.65138e-07 
-3.71328e-06 1.03117e-06 -2.63965e-06 -6.28086e-06 -3.10454e-06 3.07078e-06 -3.32795e-06 -8.04533e-07 3.65827e-06 
-3.61469e-06 3.64754e-06 2.52203e-06 5.88634e-06 2.57329e-06 1.95035e-06 6.15918e-06 1.21156e-06 7.07261e-07 
5.10006e-06 6.20982e-07 2.47594e-06 6.31513e-06 2.71123e-06 -6.09324e-06 1.40415e-06 -7.84586e-07 -3.77176e-06 
-2.06621e-06 2.83384e-06 5.44368e-06 1.03636e-05 2.71736e-06 -0.0243472 0.014263 9.26623e-05 -0.000442661 
0.000135116 0.000757038 -7.84578e-05 1.46199e-05 -0.000268056 -7.42868e-05 8.71371e-06 -0.000161715 -8.11147e-05 
-1.10118e-05 -9.2753e-05 -7.25574e-05 -2.49368e-05 -6.35899e-05 -6.15017e-05 -2.54828e-05 -4.06717e-05 -4.47513e-05 
-2.1995e-05 -2.72236e-05 -4.02255e-05 -8.69788e-06 -1.25628e-05 -3.47716e-05 -2.02782e-05 -4.654e-06 -3.04733e-05 
-1.80053e-05 -1.62213e-05 -2.16388e-05 -1.82729e-06 -6.00786e-06 -1.39176e-05 3.34628e-06 2.37663e-06 -1.07461e-05 
6.60853e-06 2.0733e-06 -1.32421e-05 3.82452e-06 1.52435e-06 -1.54763e-05 -1.06344e-06 1.28647e-06 -2.3531e-05 
-1.04241e-05 -2.19568e-06 -3.11664e-05 -3.8214e-05 -8.40876e-06 -4.96247e-05 -4.26209e-05 -3.24612e-05 -3.2052e-05 
-2.69414e-05 -3.83361e-06 -4.86094e-05 -2.04597e-05 1.397e-05 -3.52515e-05 -2.52167e-05 2.60728e-05 6.40627e-06 
1.89829e-06 3.94081e-05 3.77405e-05 1.82013e-05 4.9164e-05 4.97305e-05 2.85761e-05 3.47888e-05 5.07834e-05 
3.14901e-05 1.55418e-05 3.6037e-05 2.48084e-05 -1.49281e-05 3.2407e-05 1.92651e-05 -1.25245e-05 2.06812e-05 
1.5845e-05 -1.38318e-05 7.65837e-06 9.20137e-06 -1.2273e-05 -2.98651e-06 -1.34728e-07 -9.53943e-06 -8.42412e-06 
-5.47758e-06 -7.47468e-06 -1.16854e-05 -5.0308e-06 -3.2628e-06 -1.06492e-05 -5.90836e-06 2.17276e-06 -1.13451e-05 
-8.12315e-06 1.53903e-06 -1.35888e-05 -1.16539e-05 -6.78003e-07 -1.51578e-05 -1.06958e-05 -1.84388e-06 -1.30095e-05 
-8.62639e-06 1.32923e-06 -1.22648e-05 -8.64012e-06 4.75527e-06 -1.18691e-05 -8.72946e-06 3.92343e-06 -1.09991e-05 
-8.57586e-06 4.4585e-06 -9.71825e-06 -9.52666e-06 4.74008e-06 -8.61743e-06 -6.29008e-06 4.68042e-06 1.43832e-07 
7.11679e-06 9.18435e-07 -0.0104471 0.00441609 1.5169e-06 -3.35297e-06 -3.15706e-06 0.00371668 0.00290914 
-6.59524e-06 -8.01817e-06 -4.55137e-06 -8.51604e-06 -1.03186e-05 -4.74385e-07 -1.00682e-05 -1.22554e-05 -3.6072e-07 
-1.10014e-05 -1.50603e-05 -8.084e-08 -1.21638e-05 -1.71508e-05 -8.56932e-07 -1.22185e-05 -1.81643e-05 -1.13755e-06 
-1.19288e-05 -1.71263e-05 -9.02343e-07 -7.86329e-06 -9.27905e-06 1.86178e-06 3.872e-06 -8.08987e-06 3.857e-06 
1.61483e-07 -1.13107e-05 6.0586e-06 1.79369e-05 2.80508e-06 1.09215e-05 1.69292e-05 7.06415e-06 1.94374e-06 
1.82857e-05 1.31692e-05 1.75399e-07 -2.74301e-05 -2.5109e-07 -3.59641e-06 -2.28681e-05 -3.52948e-05 4.0071e-06 
-6.58279e-06 -2.89243e-05 -1.8063e-06 3.36185e-05 8.96784e-06 -8.22627e-06 0.000102059 5.62266e-05 1.9095e-05 
0.000151022 3.19793e-05 5.031e-05 9.86886e-05 0.00010561 -2.72319e-05 6.83122e-05 0.000131667 -3.28392e-05 
-5.50619e-05 -2.26771e-06 5.85469e-05 -0.00011679 -4.99698e-05 -1.54324e-05 -0.000156263 -9.41874e-05 -5.37462e-05 
-9.4506e-05 -6.39558e-05 -2.81227e-05 -8.22587e-05 -1.62004e-05 5.60507e-06 1.87659e-05 2.96305e-06 -1.46412e-05 
3.75102e-05 -3.3058e-06 -1.40839e-05 1.67438e-05 1.09521e-06 -2.55519e-06 1.18441e-05 -1.16254e-06 1.40598e-05 
-2.32721e-06 -2.39162e-05 -4.02721e-06 -8.122e-06 -1.94831e-05 -5.61325e-06 4.19362e-07 -1.29412e-05 1.25843e-06 
-5.54494e-05 -4.24807e-05 -4.95041e-05 -4.07987e-05 -4.50951e-05 -3.38629e-05 1.12859e-05 -1.5885e-05 1.61824e-05 
1.77078e-05 -4.78477e-05 7.02304e-05 -0.000127539 -0.000110289 -1.20843e-05 -0.000195446 -0.000208032 2.41322e-05 
-0.000476223 -0.000642994 -4.35705e-05 -0.00147349 -0.000881202 -7.17067e-06 0.00421701 0.0139091 0.00640241 
0.0163497 -0.0487227 -0.0467662 -0.0469771 -0.0411297 0.00905812 -0.0422805 -0.0429677 0.0119464 
-0.0428062 -0.033343 0.00686259 -0.0301516 -0.0359972 0.0122566 -0.0289451 -0.0344335 0.0130482 
-0.0298243 -0.034665 0.0111611 -0.0296321 -0.0335998 0.0110171 -0.0298404 -0.0326348 0.0114559 
-0.0304438 -0.033433 0.0108512 -0.0298162 -0.0336186 0.0104046 -0.031252 -0.0340636 0.011132 
-0.0311764 -0.0338697 0.01099 -0.0308936 -0.0333316 0.0112175 -0.0309335 -0.0330682 0.0118863 
-0.0314475 -0.0322567 0.0121213 -0.0323369 -0.0326708 0.0115738 -0.0323173 -0.0324488 0.0115418 
-0.0334508 -0.0331015 0.0118048 -0.0334506 -0.0328351 0.0119444 -0.0344021 -0.0333552 0.0124291 
-0.0350272 -0.0336084 0.012267 -0.0358081 -0.033895 0.0121212 -0.0388809 -0.038709 0.0123589 
-0.0446956 -0.0406239 0.0138056 -0.0321429 -0.0250099 -0.0233089 -0.0320609 0.01089 -0.0244056 
-0.0267193 0.0113608 -0.0233764 -0.0268986 0.0105471 -0.0229168 -0.0252661 0.00915622 -0.0238413 
-0.0257177 0.0103695 -0.0228301 -0.0260767 0.0114295 -0.0207235 -0.0261432 0.0119099 -0.0228023 
-0.0259385 0.011125 -0.0235475 -0.0273785 0.0102675 -0.022972 -0.0276815 0.010671 -0.0220102 
-0.0270794 0.0105544 -0.0263799 -0.0214835 0.0125232 -0.0271113 -0.0256263 0.00995321 0.00651471 
-0.00714214 0.0104142 0.00866039 0.0129012 0.0136462 -0.0196396 0.0162371 0.0127734 -0.0168878 
0.0260758 0.0249205 -0.0160652 0.0259305 0.0225893 -0.00904585 0.0268154 0.0227144 -0.01043 
0.0288004 0.024312 -0.010955 0.0274259 0.024331 -0.00984088 0.0273918 0.0227309 -0.00953935 
0.0270306 0.0232689 -0.00999431 0.0263802 0.0219842 -0.0103018 0.0237568 0.0227387 -0.0111734 
0.0339541 0.020254 -0.0107338 0.0235015 0.0257245 -0.00996432 -0.00493354 0.00328073 1.14362e-05 
-0.0175045 0.00770652 -0.0224518 -0.0195074 2.03557e-05 -0.020599 0.00724277 0.0221537 -0.00380173 
-0.0142394 0.00221215 0.0172664 -0.00480872 0.00157359 0.0113913 0.0175387 0.015053 -0.000954804 
2.25244e-06 -5.84844e-07 1.67127e-06 -3.52045e-06 -1.34974e-06 -3.13969e-06 -9.76822e-07 -2.93476e-06 -1.00769e-06 
9.23177e-07 -3.84863e-06 -2.92021e-06 -1.984e-06 -5.44228e-06 -3.55769e-06 -3.2717e-06 -6.14416e-06 -3.1838e-06 
-3.07349e-06 -3.61494e-06 -2.80874e-06 -1.4949e-06 -2.608e-06 1.77624e-06 -5.46475e-06 -1.67694e-06 2.82254e-08 
-3.55335e-06 1.46423e-06 4.19915e-07 -5.01728e-06 2.2391e-06 1.33499e-07 -5.21841e-06 5.96813e-07 -4.39183e-08 
-5.03208e-06 -7.41652e-07 -9.39724e-07 -5.5382e-06 -1.14433e-06 -1.55459e-06 -4.07693e-06 -1.87069e-06 -3.05879e-06 
-3.01051e-06 -2.42886e-06 -1.47576e-06 -3.68516e-06 -3.32617e-06 -1.97788e-06 -1.42871e-06 3.491e-06 -2.67205e-07 
2.6291e-06 3.19074e-06 9.93894e-07 1.59918e-06 3.97829e-06 3.13347e-06 2.75716e-06 5.604e-06 3.4954e-06 
1.72353e-06 3.5367e-06 1.72531e-06 4.17329e-07 1.55851e-06 2.58453e-06 3.42763e-06 -2.17836e-06 0.00675604 
0.00797444 0.00723853 0.0162681 0.00277564 -5.70391e-07 0.000125978 0.000200517 0.000141874 0.000181351 
-3.00142e-05 0.000115014 0.000169794 -4.7294e-05 7.09822e-05 0.00010704 -3.15834e-05 3.72891e-05 5.37415e-05 
-3.7313e-05 3.01483e-05 5.98381e-05 -1.54001e-05 3.78452e-05 8.4673e-05 -4.3843e-06 1.66643e-05 2.79981e-05 
2.89891e-05 5.32897e-06 1.9808e-05 -9.55128e-07 1.26133e-05 4.64584e-05 -1.46083e-05 1.64544e-05 3.7843e-05 
4.36606e-06 1.2538e-05 3.72821e-05 7.0453e-06 1.19671e-05 3.671e-05 4.90216e-06 2.04681e-05 4.85195e-05 
1.04502e-05 3.13568e-05 5.65679e-05 2.24361e-05 4.05883e-05 2.36226e-05 5.02402e-05 1.52937e-05 1.65753e-05 
1.1678e-05 2.51405e-05 8.27279e-05 -3.87576e-05 0.000114509 6.53591e-05 6.13788e-05 2.22709e-06 2.09489e-05 
1.02261e-05 -4.18949e-05 -1.48377e-06 4.94651e-05 -4.24195e-05 -6.03324e-05 6.1442e-05 -1.63579e-05 -4.0129e-05 
-5.66757e-06 -2.8587e-05 -4.68475e-05 1.24085e-05 -1.49293e-05 -5.09456e-05 -2.5671e-05 -5.99981e-05 -3.32442e-05 
-2.84004e-05 5.93201e-06 -8.31397e-07 -1.22396e-05 1.74619e-05 1.36283e-05 -1.07522e-05 1.22322e-05 1.07014e-05 
-6.24678e-06 8.29701e-06 9.10406e-06 -2.996e-06 8.70239e-06 1.81093e-05 -2.98466e-06 7.4588e-06 1.34027e-05 
7.52173e-06 9.70853e-06 1.14272e-05 8.245e-06 7.88775e-06 5.69821e-06 8.73736e-06 6.77564e-07 6.43081e-06 
3.53451e-06 1.57059e-06 1.06953e-05 2.79027e-06 1.06727e-05 9.35988e-06 3.86085e-06 9.10145e-06 5.98115e-06 
1.02859e-06 7.1393e-06 3.1151e-06 9.65715e-07 7.23885e-06 8.57194e-07 1.81929e-06 3.66491e-06 -2.07935e-06 
-6.00421e-07 -3.66194e-06 6.80584e-06 2.0338e-06 -0.000229507 -0.00015636 0.00188472 0.000489585 0.000767137 
-2.58287e-06 -4.17296e-06 -2.59835e-06 -5.20204e-06 -3.07998e-07 -1.72975e-06 -5.98624e-06 1.94935e-07 -1.32448e-06 
-7.25488e-06 1.27015e-06 -3.99211e-07 -7.77764e-06 1.77765e-06 1.73228e-06 -6.95961e-06 1.14403e-06 5.73666e-06 
-2.1921e-06 3.44078e-06 8.07881e-06 5.95082e-06 8.26685e-06 1.36394e-05 7.71019e-06 9.22285e-06 1.68848e-05 
7.85975e-06 8.24364e-06 1.88663e-05 3.51109e-06 9.79155e-06 1.93146e-05 6.29033e-07 1.30019e-05 1.9923e-05 
5.6959e-06 4.68357e-06 5.63864e-06 2.65026e-05 -6.69109e-06 2.76317e-05 4.51181e-05 1.30864e-05 1.68908e-05 
2.69407e-05 2.15925e-05 2.60917e-05 2.99076e-05 2.6467e-05 4.53804e-05 1.45542e-05 4.46806e-06 0.000108391 
-7.24712e-07 5.77925e-05 6.11048e-05 1.06044e-05 -3.58069e-05 2.77564e-05 8.46713e-05 -9.52271e-05 8.6489e-06 
0.000102802 3.41998e-05 5.14861e-05 7.56619e-05 4.856e-05 -2.99035e-05 4.34084e-05 3.39192e-05 -2.37844e-05 
4.677e-05 3.69845e-05 -1.51743e-06 2.7038e-05 4.02828e-05 -2.15263e-05 2.57067e-06 3.54871e-05 -8.0504e-06 
-1.8408e-05 9.44331e-06 -3.72955e-05 -1.54012e-05 -5.99547e-07 -8.39088e-06 -5.07169e-06 -7.63485e-06 -1.04695e-05 
-4.57962e-06 -8.40144e-07 1.96526e-05 4.65917e-06 1.04814e-06 -3.43838e-05 -3.565e-05 -2.7775e-05 -7.32991e-05 
-2.33466e-05 -2.21023e-05 -4.94175e-05 6.25953e-06 9.57633e-06 4.70362e-05 2.08784e-05 1.23186e-05 0.000136669 
-1.24924e-05 6.14579e-06 -5.57297e-05 8.41613e-06 -1.15449e-05 -0.000241196 -7.19728e-06 -7.72848e-05 -0.000260791 
0.00020315 -0.000115164 0.000132043 0.00123558 0.00180175 0.000300399 9.73872e-07 0.0134076 0.0059155 
0.0133809 0.0120655 0.0120235 0.0122013 0.00276427 0.00855945 0.0102685 0.00174742 0.00865173 
0.00794326 0.000200255 0.00244282 0.00765437 -0.000524199 0.00300581 0.00706669 -0.000423885 0.00320405 
0.0065005 -0.000643748 0.00337216 0.00669136 -0.000652614 0.003309 0.00665237 -0.000700507 0.00360715 
0.0061944 -0.000649483 0.00373661 0.00661118 -0.000650728 0.00397566 0.00592504 -0.000681913 0.00417374 
0.00609261 -0.000675338 0.00423861 0.00543157 -0.000691856 0.00446669 0.00509685 -0.000632356 0.00482701 
0.00486705 -0.000611153 0.00528301 0.00491946 -0.000633113 0.00532384 0.00452534 -0.00066965 0.00571438 
0.00470639 -0.000661673 0.00579783 0.00477348 -0.000581336 0.005808 0.00460148 -0.000572718 0.00703377 
0.00429237 -0.000308826 0.00778776 0.00723328 0.00733853 4.60771e-05 -0.00332905 -0.00314688 -0.000368625 
0.00935512 0.0171024 0.00146631 0.00160824 0.00240155 0.00729772 4.62609e-05 0.00308195 0.00638793 
-0.000658097 0.00323864 0.00585785 -0.00045542 0.00318376 0.00628887 -0.0004573 0.00278367 0.00701732 
-0.000348619 0.00253067 0.00684501 -0.000627058 0.00283299 0.00698013 -0.000630896 0.00251506 0.00707005 
-0.000677548 0.00597876 0.00752092 -0.000710023 0.0115776 0.00905078 0.00204466 0.000185881 0.0103347 
0.00214171 0.000191019 -0.000494277 -0.00707612 0.00105632 -0.000775632 0.00115181 -0.00513595 -0.00286108 
-0.00789944 -0.00174604 -0.00723977 -0.00688127 -7.66516e-05 -0.00656618 -0.00712516 -0.000200136 -0.00664665 
-0.00253191 0.000516845 -0.00684033 -0.0020837 0.000578433 -0.00643056 -0.00242527 0.000665234 -0.0062884 
-0.00240984 0.000687966 -0.00590541 -0.00270475 0.00072917 -0.00644057 -0.00267261 0.000957968 -0.0107305 
-0.00198908 0.00100349 -0.000372653 -0.0100765 2.51872e-06 -0.00310136 -0.00292044 -0.000874265 -0.00697803 
-0.00355513 -0.000946561 0.000104586 0.000702183 0.000768925 -1.64604e-06 -4.88688e-06 1.13184e-06 2.38243e-07 
0.00299044 -0.000170646 0.000346287 -5.71737e-06 0.000991558 -0.000241311 2.69952e-06 -2.32739e-05 -0.000217832 
-0.000505423 0.000851088 -0.000582224 0.000112612 0.000792892 -0.00024119 0.00107417 0.00209561 0.00112733 
-0.00123175 2.16567e-06 0.000137297 -6.67513e-06 0.0017943 4.52757e-07 2.87224e-06 4.41798e-07 6.08182e-07 
4.12338e-06 -4.50995e-07 -2.33225e-06 3.11191e-06 -2.18637e-06 -1.79511e-06 -5.82152e-06 -1.27409e-06 -1.07877e-06 
-2.71565e-06 -1.98825e-06 -4.27563e-07 -2.82903e-06 -2.24142e-06 -2.2099e-06 -1.40614e-06 -1.20591e-07 -2.62768e-06 
-9.08639e-07 -2.34292e-07 -3.49437e-06 1.21267e-06 -8.68556e-07 -4.00249e-06 1.2202e-06 -1.21444e-06 -4.72062e-06 
1.13729e-06 -1.28388e-06 -4.31495e-06 -6.41138e-07 -1.3441e-06 -3.63909e-06 -1.21005e-06 -1.01738e-06 -2.78175e-06 
-1.8436e-06 -6.51388e-07 -3.22613e-06 -2.04028e-06 -9.57785e-07 1.78129e-06 -3.52923e-06 5.7345e-08 9.37352e-08 
3.7557e-06 -3.02111e-08 -1.7708e-07 3.38718e-06 -5.43774e-08 1.61447e-06 4.00932e-06 2.76197e-06 1.43562e-06 
5.99861e-06 1.64383e-06 1.14849e-06 3.57644e-06 0.000112524 -0.000335168 -3.68765e-05 -0.000273993 7.51339e-05 
-9.55723e-05 -2.48223e-05 -1.68993e-05 9.87497e-05 0.000142877 -9.18609e-06 8.14052e-05 0.000110315 -2.06075e-05 
7.79427e-05 0.000102198 -3.22422e-05 4.86454e-05 9.51854e-05 5.99574e-06 2.13745e-05 5.95462e-05 3.9616e-05 
1.72406e-05 5.24203e-05 4.86521e-05 1.91418e-05 3.11106e-05 3.35706e-05 1.5688e-05 3.88321e-05 2.43557e-06 
6.30775e-06 2.34207e-05 6.62779e-06 8.53946e-06 1.76004e-05 1.39278e-05 8.91413e-06 9.82733e-06 9.85744e-06 
9.60654e-06 4.51212e-06 6.89809e-06 1.08002e-05 6.36314e-06 3.96463e-06 2.14428e-05 3.4309e-05 1.85106e-06 
6.60842e-05 3.06234e-05 3.20364e-05 2.72921e-05 6.09842e-05 2.57604e-05 2.3933e-05 2.90357e-05 3.94452e-05 
0.000113967 7.49953e-05 7.23776e-05 5.3217e-05 4.45869e-05 5.86059e-05 -3.49855e-05 -4.58964e-05 -4.11598e-05 
-2.815e-05 -2.05514e-05 5.83555e-05 9.60983e-06 -8.91692e-05 -5.17796e-05 -8.29957e-05 -7.1404e-05 -1.77276e-05 
-5.22755e-05 -4.19007e-05 3.92387e-06 -3.22574e-05 -4.53269e-05 -7.11372e-06 -2.63342e-05 -8.96019e-06 -6.62865e-06 
-6.0066e-07 -3.28041e-06 -6.95663e-06 1.85754e-06 4.0093e-06 -3.58016e-06 3.87237e-06 6.04702e-06 6.49757e-06 
3.62591e-06 7.30833e-06 7.20107e-06 4.17023e-06 6.20977e-06 5.27533e-06 4.68397e-06 7.90674e-06 4.10163e-06 
8.84423e-06 1.19353e-05 3.40809e-06 1.15885e-05 1.17306e-05 3.2971e-06 8.73258e-06 6.60412e-06 2.52499e-06 
4.82124e-06 3.74333e-06 1.81636e-06 1.7984e-06 2.39012e-07 2.12605e-06 5.56642e-06 2.96086e-06 1.87612e-06 
6.3875e-06 1.30149e-06 1.48603e-06 8.28799e-07 -9.7355e-07 -7.7628e-07 -3.86101e-07 0.000391038 -9.87604e-05 
-8.06902e-05 -0.000187568 0.00046054 0.0004637 -0.000534369 -0.000296276 1.64548e-07 -3.90448e-06 1.55179e-06 
-3.7658e-06 4.77229e-07 2.94615e-06 -4.38851e-06 1.1687e-06 3.94289e-06 -5.85478e-06 5.85869e-07 6.33475e-06 
9.65422e-06 1.51113e-06 1.44711e-05 8.78668e-06 6.36514e-06 1.10235e-05 4.90412e-06 5.98528e-06 9.37679e-06 
4.94626e-06 6.31618e-06 1.02193e-05 3.88521e-06 8.12037e-06 9.35826e-06 6.7439e-07 9.32125e-06 8.80888e-06 
-3.5911e-06 1.09543e-05 1.37819e-06 5.25485e-07 1.55101e-05 -1.93958e-05 3.35686e-06 -6.87649e-06 2.39139e-05 
4.25601e-05 -2.56164e-05 2.28306e-05 7.04261e-06 1.56931e-05 2.52479e-05 2.67652e-05 2.88066e-05 -3.84001e-05 
-8.7128e-06 2.36115e-05 8.74238e-05 -7.24842e-05 9.07855e-05 2.41523e-05 6.35071e-05 -0.000152701 -2.76475e-05 
3.12592e-05 -2.78364e-05 8.40185e-05 9.42072e-05 4.50948e-05 -3.37384e-05 8.22094e-05 8.24836e-05 -1.28697e-05 
-1.80566e-05 7.59768e-05 6.2691e-05 5.91396e-05 1.40709e-05 6.46577e-05 4.62662e-05 1.86142e-05 2.18657e-05 
-1.32651e-05 7.76227e-06 -4.81883e-05 -1.29586e-05 4.00988e-06 -4.09043e-05 -2.18509e-05 -1.03108e-05 -2.94086e-05 
-1.86876e-05 -5.7777e-06 -2.86351e-05 -1.84692e-05 -9.67404e-06 -4.64878e-05 -1.632e-05 -2.9275e-05 -3.24573e-05 
-2.11883e-05 8.2177e-06 -5.65285e-05 -1.4292e-05 2.39512e-05 -4.63353e-05 -5.93775e-05 3.70305e-05 8.28219e-05 
-1.71635e-05 2.98868e-05 0.000194418 6.07288e-05 6.83069e-05 -3.39423e-05 1.91784e-05 4.57462e-06 3.26507e-05 
7.76163e-07 -3.00254e-05 0.000104766 3.33792e-06 0.00146168 0.00152863 1.32071e-05 0.000834817 0.00147992 
0.000654548 0.000108092 0.000228861 2.68256e-06 -1.30725e-05 1.7503e-05 -3.697e-05 1.88022e-05 0.000123771 
3.32238e-05 1.9105e-05 9.90488e-05 -5.57209e-05 4.5813e-05 9.84218e-05 -2.54294e-05 2.88652e-06 0.000127696 
-9.80097e-05 9.4226e-06 0.000104706 -1.30378e-06 4.29255e-06 0.00011345 -9.27441e-06 -2.54557e-05 0.000117965 
-8.61629e-06 -3.29672e-05 7.9066e-05 -1.13382e-05 -2.67242e-05 8.5058e-05 1.15082e-05 -6.3942e-06 8.33938e-05 
9.71982e-06 -1.35419e-05 5.42004e-05 5.91238e-05 -1.86286e-05 4.58678e-05 0.000127265 -5.3473e-05 6.98145e-05 
0.000124856 -3.56979e-05 4.70769e-05 0.000153303 -3.32723e-05 7.46381e-05 0.000185853 3.61969e-05 0.000264417 
0.000127903 2.62461e-05 0.000225487 0.00015293 -0.000205584 -3.99455e-05 -0.00016737 5.81944e-05 -3.2913e-05 
7.44616e-05 5.51524e-05 7.86602e-06 5.92292e-05 4.2251e-05 4.05211e-05 -6.60061e-05 -2.89045e-05 -6.6326e-05 
-2.59867e-05 -0.000197778 -6.87386e-06 -0.000113475 -3.32414e-05 -3.18925e-05 0.000290614 -0.0002105 7.26293e-06 
0.00111762 0.000276931 9.90133e-05 0.000262194 0.000937993 -0.000128663 -7.43328e-05 -0.000382673 0.000445578 
0.000493053 7.58726e-05 0.000190542 0.000825374 -0.000170667 -0.000541719 0.000106978 0.000211284 0.000270709 
4.90365e-08 1.49042e-05 0.000102853 8.77258e-05 4.75754e-05 0.000192451 -1.33078e-05 0.000120817 -8.73855e-06 
3.28685e-06 9.25959e-05 -1.52694e-05 -4.43675e-06 0.000183356 -4.59571e-06 -0.000142382 0.000157062 -3.88589e-05 
-0.000493724 7.68335e-05 0.000232014 -7.24863e-06 1.0768e-05 -2.69761e-06 -0.000405427 0.000740068 8.11597e-05 
4.53039e-05 -8.71358e-07 -2.89094e-06 -4.25733e-07 -7.20461e-05 0.0010047 3.14296e-05 1.56885e-05 -0.000463091 
-0.000194329 -1.47075e-06 3.96029e-05 -1.69363e-06 -3.82057e-07 0.00011628 0.000163053 0.0002479 -0.000372009 
0.000236467 0.000925406 -1.65923e-07 -9.46216e-07 -2.89577e-06 2.97446e-05 -0.000321261 -6.65981e-05 -7.41454e-05 
3.27287e-05 3.18359e-05 6.74864e-05 -2.75512e-06 -8.40858e-05 0.000978888 0.000392319 -0.000695549 3.34323e-05 
6.2468e-05 1.69114e-05 -2.51294e-05 0.000253231 0.000503728 9.5288e-06 -6.35129e-06 -0.00042474 -2.07889e-05 
0.000253075 -0.000263235 0.000112157 0.000211572 0.000140964 -1.26714e-07 -0.000483221 -0.000100874 -3.04723e-05 
1.64257e-06 -4.04734e-07 -2.42325e-06 -1.11038e-06 -6.03718e-06 1.10367e-06 1.82451e-07 -5.41079e-06 -1.32658e-06 
5.62213e-07 -2.33513e-06 -1.15631e-06 4.51538e-07 -1.17374e-06 -1.4606e-06 -8.66167e-07 -7.36428e-07 3.10563e-07 
-1.57491e-06 -3.04389e-08 -1.87255e-07 -1.44408e-06 -1.01568e-06 -6.14941e-07 -2.90569e-06 1.27409e-06 -3.48383e-07 
-3.18879e-06 3.78195e-07 1.58875e-07 -2.63238e-06 -7.78129e-07 2.44288e-08 -2.56653e-06 -1.128e-06 3.9951e-07 
-1.74771e-06 -1.93236e-06 6.60468e-07 -3.08321e-06 -2.67773e-06 -5.024e-07 -1.64982e-07 -3.70323e-06 -2.64279e-09 
-1.09424e-06 3.73171e-06 6.18719e-07 -1.51882e-06 3.43772e-06 7.53971e-07 1.1345e-06 4.45747e-06 1.33857e-06 
-4.2332e-07 3.9548e-06 -5.25033e-05 1.80382e-05 -4.18875e-05 -1.29401e-07 1.15872e-05 -0.000205624 -0.000131078 
-0.000104504 8.23341e-05 5.12715e-05 8.94612e-05 -2.52935e-06 -1.6524e-05 3.8152e-06 4.48972e-05 1.73821e-05 
-5.73137e-06 4.73628e-05 3.61033e-05 -3.56307e-06 3.53521e-05 3.58238e-05 7.62695e-06 3.45675e-05 1.83123e-05 
-1.42205e-05 1.10108e-05 4.62022e-06 9.91844e-06 2.07442e-05 1.17227e-05 4.98647e-06 1.13718e-07 1.92566e-05 
4.96246e-06 -2.95023e-06 1.61647e-05 6.10701e-06 -9.78109e-06 1.13904e-05 6.3566e-06 -2.25758e-05 8.43728e-06 
5.09231e-06 -7.98232e-06 -1.3929e-06 1.64226e-05 6.57505e-05 -1.53366e-05 0.000113737 6.85559e-05 -2.68313e-05 
8.16633e-05 0.000186825 0.000215689 5.92127e-05 0.000177076 -9.85634e-05 0.00020564 -0.000380594 -0.000206473 
-4.20149e-05 -6.09566e-05 -8.90851e-06 -2.70635e-05 -1.00332e-05 2.00556e-07 -9.74323e-06 -1.99896e-05 -1.1238e-05 
-1.81214e-05 -1.08111e-05 -4.18221e-06 -4.14782e-06 4.70766e-06 1.42591e-06 4.18909e-06 -1.24098e-06 3.53786e-06 
5.29173e-06 -1.25505e-06 4.71397e-06 6.5553e-06 1.4129e-06 5.08916e-06 7.17596e-06 3.22998e-06 5.5149e-06 
7.26682e-06 3.41911e-06 5.59117e-06 7.48458e-06 3.2469e-06 5.21767e-06 6.93134e-06 3.04749e-06 3.99629e-06 
5.44212e-06 1.71828e-06 2.41782e-06 2.39252e-06 2.41379e-06 2.93671e-06 3.58765e-07 3.09126e-06 3.45611e-06 
2.01831e-07 7.34317e-07 -7.50952e-05 -8.57803e-05 -0.000124522 1.87517e-05 4.0337e-05 -3.49097e-05 -1.59123e-05 
1.35779e-05 2.92675e-05 4.9712e-06 5.61336e-07 6.61641e-06 -6.0044e-06 -2.77498e-06 6.16202e-06 4.88272e-06 
-8.08995e-07 9.71474e-06 5.35554e-06 6.20117e-06 8.63673e-06 4.98673e-06 6.16686e-06 8.15431e-06 3.75385e-06 
3.01384e-06 9.74778e-06 4.72896e-06 1.70966e-06 7.55528e-06 4.29799e-06 4.15967e-06 4.32016e-06 3.5256e-06 
4.36689e-06 -2.34737e-07 -6.51697e-07 3.34417e-06 -9.37132e-06 -1.33964e-05 1.0134e-05 -4.28886e-05 -7.82409e-06 
1.94436e-06 7.13823e-06 5.96674e-05 -6.96226e-05 -0.000127348 1.32381e-05 -6.28185e-05 -0.00021006 0.000139098 
2.89425e-05 0.000146506 -2.32955e-05 0.000138232 9.82936e-05 5.00095e-05 -1.72108e-05 4.58316e-05 7.70002e-05 
8.10818e-05 5.3676e-05 2.34674e-05 7.36684e-05 2.64071e-05 3.26694e-05 2.97139e-05 2.87102e-05 2.08984e-05 
-1.89499e-06 7.3808e-06 -5.68452e-06 2.14389e-06 -1.77423e-05 -4.78946e-06 1.05417e-05 -3.29216e-05 -1.1295e-05 
-5.14304e-06 -3.17479e-05 2.59645e-06 2.26567e-06 -2.01458e-05 -2.47136e-06 -1.54952e-05 -2.28146e-05 -1.00261e-05 
1.22892e-05 -3.77666e-05 -2.52218e-05 3.10157e-05 2.53764e-05 -5.23043e-05 1.71481e-05 1.59313e-05 -0.000109882 
-3.9495e-05 -0.000176381 0.000152163 -2.09706e-05 0.000113269 -0.000107441 1.13698e-05 -0.000126416 -1.37069e-05 
5.37135e-05 4.72587e-05 1.7221e-05 -5.94216e-05 2.61316e-05 2.79885e-05 -5.46737e-05 3.29967e-05 -5.35631e-05 
6.93785e-07 4.68149e-05 -1.74337e-05 -1.11283e-05 7.26485e-05 1.63396e-05 4.53045e-05 3.60977e-05 -3.49909e-06 
-2.14646e-05 3.98665e-06 3.02843e-05 -9.33724e-06 2.46833e-07 1.6144e-05 -2.5345e-05 -2.45879e-05 3.51563e-05 
-3.62723e-05 -1.34002e-05 9.5381e-06 -4.2654e-05 -1.0919e-05 4.47152e-07 -3.6252e-05 -2.81307e-06 3.8222e-06 
-1.9161e-05 -2.01957e-05 -1.38087e-06 -2.32129e-05 -2.52859e-05 1.14626e-05 -2.91094e-05 -3.18925e-05 2.5372e-05 
-3.81383e-06 -5.09627e-05 -3.55663e-06 -4.83797e-06 -5.15411e-05 6.41925e-06 -1.36373e-06 -4.69894e-05 3.03316e-06 
-2.68241e-05 1.17629e-05 -4.60239e-06 8.29452e-05 -9.35413e-05 5.29203e-05 -4.55826e-05 2.04483e-05 -5.71803e-05 
-0.000151323 6.71862e-05 -0.000219595 -5.76009e-05 1.74027e-06 -1.67877e-05 9.71718e-06 -9.4596e-05 -4.90833e-05 
0.000109594 -7.93996e-05 1.45103e-06 7.45014e-05 -1.84287e-06 1.24669e-05 -0.000211267 5.51665e-05 3.12129e-06 
-2.07579e-06 -3.97616e-07 -9.09598e-05 2.24187e-06 4.45304e-05 1.50671e-05 -2.54413e-05 -3.21079e-05 -2.83645e-05 
3.53658e-05 3.20671e-05 3.47448e-05 1.31823e-06 4.77557e-05 6.11947e-05 1.37214e-05 -6.06862e-05 -3.55326e-05 
3.40177e-06 -2.44981e-05 -0.000125582 1.55362e-06 4.05952e-07 -1.42433e-06 -5.87197e-05 -1.43365e-05 -1.47835e-05 
-1.10071e-05 -1.16547e-05 8.67986e-05 2.35018e-05 7.75265e-05 8.35908e-05 1.40662e-06 1.23125e-07 -6.15554e-06 
5.18742e-05 -1.70474e-05 -3.83031e-05 -0.000153393 0.000223728 -6.88507e-05 2.04044e-05 -0.000121009 -5.44546e-05 
-3.79009e-05 1.69581e-05 -7.36959e-05 -7.27732e-05 -6.39548e-05 2.39924e-06 2.65403e-05 1.21937e-06 -1.61629e-05 
-2.17915e-05 2.46994e-05 2.55444e-05 -3.3351e-06 3.24655e-05 6.66024e-05 -0.000102711 4.80566e-05 6.21335e-05 
1.16701e-06 0.000111165 5.60783e-05 0.000101409 -9.44908e-05 6.04363e-05 4.76294e-05 -3.80029e-05 -3.50004e-06 
0.000241569 -7.23383e-05 3.63876e-05 -1.52501e-06 -1.12658e-06 -3.12515e-05 3.22388e-05 -1.24903e-06 -7.57771e-07 
7.16604e-07 -3.17877e-06 -6.1117e-06 -9.47365e-07 1.31101e-06 -6.93029e-06 -2.68409e-07 9.0615e-07 1.0224e-06 
-1.93848e-07 -1.57789e-07 7.43465e-07 2.50965e-07 1.57081e-06 6.61809e-07 -3.26254e-07 -1.28054e-06 1.78514e-06 
6.50771e-07 -1.69986e-06 2.24282e-06 6.61756e-07 -2.28195e-06 8.93825e-07 1.09064e-06 -1.19131e-06 -8.75863e-07 
1.44259e-06 -1.14587e-06 -1.50576e-06 1.61025e-06 -9.90845e-07 -2.13308e-06 1.19561e-06 -1.22071e-06 -3.42034e-06 
2.86884e-07 -2.28491e-07 -4.04608e-06 1.43137e-07 -2.21485e-06 4.24285e-06 6.05517e-07 -1.34303e-06 5.3013e-06 
1.20764e-07 -0.000182594 -5.95423e-05 3.04896e-06 -0.000120179 2.70225e-05 5.70551e-05 2.1274e-05 3.77533e-05 
4.80338e-06 -1.21268e-05 1.93676e-05 -1.32066e-05 2.7465e-05 3.69101e-05 -2.92342e-06 -3.7182e-05 6.74906e-06 
7.53874e-06 -1.92043e-05 3.72043e-06 1.74102e-05 1.40845e-05 7.76482e-06 6.77007e-06 9.63577e-06 -1.47592e-05 
6.01106e-07 -2.02478e-06 -1.60515e-05 2.52628e-06 1.36062e-07 -1.59592e-05 2.54533e-06 -1.91866e-05 -7.93021e-05 
-6.07721e-07 -7.09736e-05 -7.54901e-05 1.99016e-05 -6.34949e-06 3.20454e-05 2.5056e-06 3.13232e-06 1.08336e-05 
2.95e-05 -5.97318e-06 -2.34999e-06 1.54759e-06 8.20307e-06 1.31604e-05 -1.8241e-05 9.0129e-06 1.23954e-05 
-7.01349e-06 5.57768e-06 5.51009e-06 -1.30922e-06 5.96865e-06 9.87667e-06 3.80429e-06 6.39121e-06 8.91876e-06 
3.80581e-06 5.40766e-06 8.18723e-06 2.1338e-06 5.13291e-06 7.43173e-06 2.37368e-06 4.09053e-06 5.39597e-06 
2.60351e-06 1.77649e-06 3.35209e-06 7.04385e-07 -1.40724e-06 -3.02049e-06 -1.98716e-07 -4.64006e-06 -4.78345e-06 
-8.04332e-06 1.79435e-05 -3.28026e-05 1.95069e-06 6.50369e-06 3.34294e-06 8.67969e-06 5.83179e-06 9.82962e-07 
7.7438e-06 7.15536e-06 2.02624e-07 6.35371e-06 7.02041e-06 2.60918e-06 3.89516e-06 5.63501e-06 2.58469e-07 
6.47622e-06 4.6348e-06 -9.0958e-07 3.19575e-06 6.06979e-06 3.38503e-06 7.64153e-06 6.07731e-06 -3.46653e-07 
-7.9876e-06 -1.46463e-05 2.98174e-06 -1.10061e-05 3.68331e-05 2.17991e-06 -2.10369e-05 -1.85853e-05 -5.23649e-05 
6.53629e-06 -6.28782e-05 1.01448e-05 -2.01361e-05 -4.81326e-06 7.59644e-06 -3.61079e-06 -5.42009e-06 1.38948e-05 
1.24946e-05 -2.24117e-06 2.38509e-06 -9.87256e-06 -1.11876e-06 3.99138e-06 -2.89431e-06 -1.37572e-05 -1.49174e-06 
-9.93887e-06 2.62955e-06 3.05596e-05 1.00504e-05 3.72101e-06 -8.93883e-06 -1.21532e-05 -8.5807e-06 -2.2066e-06 
-2.06087e-05 -5.32733e-05 1.04961e-06 -8.24536e-05 -7.0515e-05 1.66646e-05 5.15465e-05 -6.69349e-05 4.3505e-05 
4.55362e-05 -3.90741e-05 6.36428e-05 2.16034e-05 -8.61326e-06 4.34404e-05 3.28001e-05 -9.98157e-06 -2.89993e-06 
1.68561e-05 4.70432e-05 -3.7955e-06 5.89923e-06 -2.04963e-05 -1.14817e-05 -3.4102e-05 4.28597e-06 -1.17113e-05 
3.54101e-07 -6.93798e-06 -2.87008e-05 -6.52162e-06 1.00522e-05 -1.64856e-05 2.98513e-05 2.52036e-07 2.40273e-06 
6.32141e-06 3.95793e-06 -2.63616e-05 -7.65625e-06 2.04889e-05 1.8704e-05 -3.65732e-05 2.66399e-06 6.61724e-07 
-3.87886e-05 -1.19431e-06 3.17989e-06 -3.0604e-05 8.44123e-06 -2.44972e-05 1.15976e-05 1.21318e-05 3.80729e-06 
2.50089e-05 -1.48288e-05 6.31374e-07 -2.98282e-05 6.73643e-06 4.47009e-06 -3.84847e-07 5.01982e-05 -7.05494e-05 
8.35437e-05 -4.31406e-05 -9.49243e-06 3.5083e-05 5.47066e-05 -1.16544e-05 4.05147e-05 7.03808e-05 -2.80466e-05 
-3.21091e-05 1.70755e-05 4.63199e-05 3.52318e-05 4.38094e-05 -1.87517e-06 -1.33542e-05 4.08006e-06 -1.73221e-06 
1.60347e-05 -3.17086e-05 -3.38402e-08 -1.39995e-06 -8.59813e-06 3.27184e-05 -4.24839e-06 -2.41292e-05 2.95547e-05 
2.15308e-05 -8.26547e-05 -8.88407e-05 -1.58454e-05 6.65907e-07 -2.23997e-06 2.95799e-05 -4.34953e-06 7.71738e-05 
1.20805e-05 7.76634e-06 6.79924e-05 2.53518e-05 3.28148e-05 -1.63124e-06 3.1837e-05 1.45661e-05 4.1768e-05 
2.86277e-05 -4.58138e-05 4.09432e-06 -2.50533e-05 1.90915e-05 -1.66507e-05 3.13421e-07 1.59345e-05 3.21653e-06 
-1.48739e-06 -1.68364e-06 -3.99592e-05 2.68218e-05 -2.54165e-05 5.47058e-05 2.70564e-05 2.63551e-05 -1.37182e-05 
-2.99464e-05 4.23595e-06 0.00277319 0.002326 0.000110226 4.96301e-06 2.82769e-05 -1.2599e-05 -3.2258e-05 
-6.4131e-06 -1.12018e-05 -6.59683e-05 -7.28277e-08 9.03743e-05 -5.30383e-06 -6.89006e-06 -1.23369e-05 -1.8928e-05 
3.45653e-06 -1.59156e-06 -4.2402e-07 6.58253e-06 -3.41776e-05 -1.07496e-06 -7.70649e-08 -9.52757e-06 -4.69245e-06 
-3.02316e-05 3.00504e-05 2.4064e-05 1.72286e-06 -3.79263e-06 4.91397e-07 9.87329e-07 2.26266e-06 5.68398e-07 
-2.47825e-06 1.37047e-06 0.00211124 0.0021802 1.08407e-06 1.47796e-06 -5.80782e-07 1.04249e-06 1.39385e-06 
9.08462e-07 3.13002e-06 1.6031e-07 -1.47059e-06 2.80168e-06 1.92635e-07 2.56311e-06 1.93755e-06 6.3548e-07 
-2.16055e-06 1.34266e-06 8.35351e-07 -4.34546e-06 2.48401e-06 1.9482e-07 3.65752e-06 4.50535e-07 -7.25115e-07 
-6.30809e-06 5.16399e-07 1.54528e-05 5.7963e-05 -3.08947e-05 -1.38108e-05 1.50995e-05 1.12496e-05 -1.21535e-05 
1.30533e-05 -8.49432e-06 -3.17653e-05 7.95603e-06 7.39797e-07 -5.443e-06 -1.79266e-05 1.84717e-05 -1.65816e-05 
-1.3206e-05 1.75969e-05 2.68128e-06 -3.07609e-06 -8.07084e-06 7.89373e-07 -3.89614e-06 -9.11984e-06 -1.35237e-05 
6.58055e-06 -1.26555e-05 -1.76696e-05 1.2793e-05 9.78764e-06 1.57957e-05 8.03695e-05 1.22894e-05 3.49375e-06 
4.62289e-05 -4.91375e-07 9.5759e-06 -1.1582e-05 1.09354e-06 -3.99439e-06 5.11765e-06 -4.45062e-06 -7.36889e-06 
4.23186e-06 0.00150021 0.000968674 6.76118e-06 8.50914e-06 2.38154e-06 9.02496e-06 1.06569e-05 -1.1614e-06 
5.45092e-06 7.73864e-06 4.47435e-06 3.5422e-06 5.27768e-06 3.91761e-06 1.91826e-06 1.57202e-06 3.1489e-06 
1.38602e-05 3.70688e-06 9.55102e-06 -3.58483e-05 1.78263e-05 -1.86091e-05 1.4212e-05 -1.89921e-05 3.84278e-07 
-3.72917e-06 -9.48362e-07 -5.98497e-06 3.81311e-06 1.27475e-07 4.46362e-06 6.91869e-06 -1.91301e-07 5.56458e-06 
8.93096e-06 -1.60534e-07 6.35039e-06 7.09396e-06 -3.95786e-07 -2.94276e-07 -5.69336e-06 4.08257e-07 -5.16812e-06 
-0.00074719 -0.00209958 4.1996e-06 -4.47803e-06 -6.72525e-06 5.05767e-06 -2.04675e-05 -1.04818e-05 -1.35594e-06 
3.7834e-06 2.11213e-06 8.58019e-06 -5.50841e-06 7.13228e-06 1.1058e-05 6.70557e-08 3.20679e-05 -2.53758e-05 
-4.38649e-05 -4.91318e-06 -7.03328e-06 9.15574e-07 2.15399e-05 5.62232e-06 2.4402e-05 4.01948e-05 -9.90279e-06 
2.21385e-05 1.85544e-06 -1.66493e-05 -2.00286e-07 1.19819e-05 -7.13812e-06 -4.04285e-05 -1.25413e-05 -1.24945e-05 
6.36243e-05 3.28353e-06 2.29346e-05 -1.00008e-05 -1.72512e-05 1.69126e-05 -6.31682e-06 3.73036e-06 1.72111e-06 
1.12362e-05 3.31566e-05 -4.28939e-05 -5.37975e-06 2.39639e-05 -0.00229875 -0.00223787 -3.28842e-05 -7.24053e-05 
2.55058e-05 -4.12938e-05 -0.00250528 -0.00180747 4.55344e-05 -8.06719e-06 1.62487e-05 5.15589e-05 -3.55448e-05 
-2.06839e-05 2.21436e-06 -2.78229e-05 5.1364e-06 1.27873e-05 -1.63793e-05 1.93551e-05 -2.69501e-06 6.82803e-06 
2.44154e-05 -1.47903e-05 -5.29332e-06 7.32171e-06 7.01534e-07 -0.0026441 -0.00255615 2.07069e-06 -1.97718e-06 
8.67856e-06 2.19866e-07 2.01032e-06 5.98996e-06 1.16806e-06 -9.46075e-05 -2.11694e-05 -1.32718e-05 -2.42212e-05 
9.75316e-06 1.3152e-05 2.33652e-05 -1.67839e-05 1.04494e-05 4.90899e-06 -5.56163e-07 -5.30274e-07 9.04905e-05 
-6.2357e-05 -8.6009e-06 3.84503e-05 1.20766e-05 -1.06321e-05 -2.19982e-05 -1.06807e-06 2.79218e-06 3.69369e-06 
4.46557e-06 3.16837e-06 3.67573e-06 -2.19206e-05 1.86639e-05 1.89476e-05 4.48539e-06 -9.57415e-07 -1.30456e-05 
-2.05053e-05 -3.35295e-06 -1.14902e-05 -4.90457e-06 9.26039e-07 -4.5434e-06 5.11121e-05 1.54524e-05 5.76888e-05 
2.84779e-06 3.4527e-06 3.25982e-06 -1.25082e-05 1.64942e-05 1.45744e-05 1.45715e-05 2.70831e-05 2.92865e-05 
6.88416e-06 1.06568e-05 4.7922e-05 -4.19543e-06 1.60864e-05 -3.35828e-06 6.8983e-06 -3.78063e-05 -0.00228307 
-0.00267575 -5.09169e-07 5.88908e-06 -0.000802241 -0.00172534 -6.23719e-07 1.32973e-06 -4.80109e-07 -4.75818e-06 
1.04876e-06 -1.85712e-06 1.97052e-06 7.728e-07 -2.93317e-06 1.39197e-06 1.81622e-06 4.07352e-06 2.58466e-06 
2.43562e-06 3.44023e-06 1.51264e-06 2.5763e-06 3.26813e-06 -3.10566e-06 -3.75933e-06 1.2354e-06 -1.10636e-05 
3.57677e-06 -1.27662e-05 7.61647e-06 -3.99147e-05 -8.20202e-06 5.89387e-06 5.3238e-06 2.19421e-05 -8.25348e-06 
4.11238e-05 8.07277e-06 7.60534e-06 -1.51513e-05 -6.38844e-06 1.90163e-05 -6.42899e-06 8.36819e-06 3.0013e-06 
-1.86337e-05 3.43159e-05 2.34424e-05 2.89061e-06 -2.38232e-06 8.90966e-06 -1.51766e-05 -9.0347e-06 -2.49865e-05 
7.72548e-06 1.68942e-05 -1.54407e-06 -0.0115406 -0.0138963 -0.00083288 -0.016094 4.51773e-06 1.29934e-05 
7.55824e-06 4.47294e-06 -4.52406e-06 6.89455e-06 3.13805e-05 5.20557e-05 8.71096e-06 2.83399e-05 -1.6923e-06 
3.41273e-06 4.8426e-06 4.35526e-06 -3.7653e-06 1.20743e-05 9.77588e-06 8.65807e-06 6.07443e-06 -1.67888e-06 
6.56376e-06 -6.45051e-06 -1.30368e-05 3.0877e-05 5.03255e-05 -6.61953e-07 3.56929e-06 -9.06492e-07 5.97253e-06 
-2.86895e-05 1.27798e-05 2.91391e-05 -8.5784e-06 6.9027e-05 6.7953e-06 -5.49867e-07 -1.39378e-05 1.34429e-05 
-6.61429e-06 -1.60044e-05 -5.51981e-05 -1.17489e-05 2.70019e-05 -1.31549e-05 4.57737e-05 -9.60399e-07 -1.4556e-05 
4.26191e-06 3.46315e-06 -2.91041e-05 -3.20936e-05 -2.18516e-06 -1.2033e-05 -7.53338e-06 1.34023e-05 1.80482e-05 
1.7683e-05 7.07076e-06 -1.64143e-05 -1.35731e-05 1.63232e-05 -6.55985e-06 8.04277e-06 -1.85561e-05 -3.87744e-05 
-3.78549e-06 9.43327e-06 -1.42567e-05 8.06374e-06 -6.82412e-07 6.22366e-06 3.80281e-06 -4.45576e-06 -3.61727e-06 
1.06119e-05 3.41649e-06 -1.32235e-05 -3.90602e-05 -6.14373e-05 -1.55856e-05 -1.71815e-06 -8.42159e-06 5.86959e-06 
4.88751e-07 1.02112e-05 -2.7696e-05 1.02075e-05 1.01582e-05 4.85461e-07 9.705e-07 1.42107e-05 3.45767e-06 
-2.85552e-05 -8.58208e-05 1.20186e-06 6.93899e-06 1.18934e-06 5.30857e-06 2.83226e-06 -2.0487e-05 1.29727e-05 
9.64543e-07 -5.54926e-06 8.94263e-06 7.80091e-06 -1.81707e-06 4.53164e-07 2.79551e-06 3.88316e-05 -7.80252e-06 
7.1798e-06 1.8993e-05 1.11177e-05 7.38063e-06 8.93409e-06 -2.50199e-05 3.17745e-06 2.22593e-05 5.40385e-05 
4.67771e-06 1.60984e-05 -9.36434e-06 -2.41137e-05 5.11421e-06 -7.27176e-06 2.48722e-05 1.67152e-05 1.1265e-05 
2.22711e-05 3.04475e-05 -2.25833e-06 -1.84564e-05 1.17232e-05 4.604e-05 1.10772e-05 -5.85602e-06 -7.62386e-06 
2.3298e-06 1.29474e-06 -4.38528e-05 -6.94717e-07 -2.58255e-06 2.32691e-06 2.84265e-06 1.94153e-05 1.81238e-05 
3.41143e-05 -6.50002e-07 -7.15742e-06 -5.34948e-06 -3.43017e-06 7.83889e-06 -1.9458e-05 3.92445e-06 -1.57956e-06 
2.99649e-05 -1.3736e-05 -6.3333e-06 2.40835e-05 -8.60195e-06 3.05388e-05 1.22941e-06 1.21712e-06 -4.05169e-06 
-1.96706e-06 1.89283e-06 1.3252e-06 -2.62318e-06 5.01669e-07 -6.07306e-06 5.56386e-06 3.1263e-06 2.52639e-07 
5.79497e-07 3.21245e-06 -1.87177e-05 -1.38924e-05 -1.27478e-05 3.10135e-06 -1.4958e-05 -1.09688e-05 7.82256e-06 
4.87629e-06 -1.26279e-05 -3.55009e-05 -8.93703e-06 1.27561e-05 -4.03511e-05 -7.39974e-06 9.23001e-06 4.4554e-05 
-1.75046e-05 1.20503e-05 2.5399e-05 -2.32493e-05 1.54373e-07 7.40243e-07 -2.99113e-05 7.98777e-06 4.91305e-05 
-4.41735e-05 -2.05525e-06 -3.57785e-06 -2.99353e-06 2.21071e-06 2.92674e-05 3.88512e-05 1.7531e-05 3.83591e-06 
3.50498e-06 -7.29307e-07 -1.26584e-06 5.48698e-06 -7.17901e-06 -5.48199e-06 -5.13767e-06 2.68285e-05 -8.10291e-06 
6.45993e-06 2.65419e-05 1.88264e-05 -1.37148e-06 9.48614e-06 -5.23649e-06 2.14665e-05 1.19619e-05 4.56673e-07 
1.16667e-05 6.10594e-05 3.07778e-05 -4.30465e-06 2.84579e-05 4.00726e-05 -1.92275e-05 -2.83008e-05 1.59556e-05 
-2.2298e-06 -3.95332e-06 8.65661e-05 1.76622e-06 1.55171e-06 -1.15198e-05 -8.90899e-07 -1.02096e-05 6.91854e-07 
5.52145e-06 5.63272e-06 -1.77432e-05 5.23525e-06 4.30216e-05 4.07339e-05 3.18979e-05 1.54342e-05 -3.26016e-06 
-0.0191199 2.35454e-06 9.44045e-06 7.07001e-06 8.4988e-06 5.57436e-06 -5.99265e-06 0.00311695 -3.27023e-06 
1.12073e-05 3.39083e-07 1.22637e-06 -6.65277e-06 1.32914e-05 -1.06902e-06 2.98029e-05 -8.70045e-06 7.88907e-07 
-9.67777e-06 1.45713e-05 2.00006e-05 8.85603e-06 0.0011868 -0.00207305 3.29522e-06 1.05303e-05 1.77956e-05 
3.97224e-05 1.94446e-06 1.76861e-06 -1.70945e-05 -0.00181238 -0.00217751 -4.38177e-06 -5.04078e-07 8.10087e-06 
6.26678e-06 7.0341e-06 5.31309e-06 2.19642e-06 1.72661e-06 -9.18719e-07 -2.87708e-07 -9.32766e-07 -3.21261e-06 
-2.3731e-06 -1.94034e-06 -6.62485e-06 -3.01233e-06 -1.87996e-06 -6.1662e-06 -2.71528e-06 -2.05597e-06 -6.29833e-06 
-1.86481e-06 -2.25877e-06 -4.75962e-06 -1.12864e-06 -1.91719e-06 -1.14921e-06 -1.07393e-07 -9.90953e-07 -1.93377e-06 
-5.88732e-06 -4.69207e-06 4.44641e-06 2.08136e-07 1.71986e-06 9.20109e-09 3.04623e-07 -1.43878e-06 2.21727e-06 
-2.45098e-07 -2.23283e-06 3.06395e-06 -3.00673e-06 -2.08297e-06 1.75478e-06 -3.97211e-06 -6.68835e-06 6.60255e-07 
-3.41381e-06 6.5837e-07 -1.74244e-06 -2.45391e-06 -6.07004e-06 -1.509e-06 -1.95689e-06 -9.7551e-07 -3.0405e-06 
1.6779e-06 -3.27533e-06 -4.08608e-06 1.97121e-06 2.48691e-06 4.93558e-06 3.22044e-06 2.30485e-06 3.72902e-06 
2.59085e-06 1.98547e-06 4.5984e-06 -1.09292e-07 2.25368e-06 7.7366e-07 6.33627e-06 5.81035e-06 3.20991e-06 
1.37806e-07 2.37217e-06 6.76453e-06 -5.48762e-07 6.16639e-07 -4.13604e-07 -9.68359e-06 0.0311356 -0.00277574 
-0.0215091 0.00011048 0.00136775 -0.00626377 5.98394e-05 0.000260021 -0.000544326 0.000101951 0.00015777 
-0.000279224 9.68456e-05 0.000109479 -0.00014091 6.24954e-05 6.8474e-05 -7.50675e-05 4.78745e-05 4.1842e-05 
-3.85958e-05 3.31807e-05 3.17682e-05 -2.34579e-05 3.03328e-05 2.58801e-05 -1.16732e-05 2.55901e-05 6.89713e-06 
-2.61139e-07 2.22657e-05 2.00103e-05 -2.02484e-05 1.73519e-05 2.09095e-05 -1.49814e-06 1.55344e-05 1.51526e-05 
1.00372e-05 1.96055e-05 2.22441e-05 6.3033e-06 2.37592e-05 2.99069e-05 1.03067e-05 2.44385e-05 3.25088e-05 
1.74057e-05 3.23584e-05 2.95084e-05 2.29942e-05 5.86923e-05 3.45213e-05 -1.5164e-06 7.75928e-05 6.97477e-05 
-2.8398e-05 4.88779e-05 5.75347e-05 -2.14517e-07 4.18279e-05 1.94153e-05 2.66416e-05 -2.01837e-06 -1.48008e-05 
4.18007e-05 -3.95111e-05 -3.85246e-05 4.43988e-05 -6.28218e-05 -4.93907e-05 2.39065e-05 -7.26543e-05 -6.76976e-05 
3.94291e-06 -6.12978e-05 -5.62756e-05 -1.87501e-05 -2.35633e-05 -3.50827e-05 -1.268e-05 -2.74609e-05 -1.89667e-05 
-8.02356e-06 -1.65392e-05 -7.76046e-06 -1.30753e-05 -2.85577e-06 2.26783e-06 -1.97871e-05 2.32347e-06 4.10457e-06 
-1.57388e-05 2.19203e-06 4.17617e-06 -9.74091e-06 4.17508e-06 4.68816e-06 -3.85961e-06 3.23672e-07 -8.54324e-07 
3.85657e-06 -1.07528e-06 -2.90205e-06 3.14389e-06 3.29623e-06 -1.96326e-06 3.23542e-07 5.52531e-06 2.15135e-06 
-1.65937e-06 1.31884e-06 -5.35929e-08 1.90953e-06 -2.65803e-07 -4.0402e-06 1.09636e-06 -1.85516e-06 -5.60795e-06 
5.32253e-07 -2.81871e-06 -7.51403e-06 1.89688e-06 -3.92684e-06 -8.00863e-06 1.00203e-06 -3.99529e-06 -6.20313e-06 
2.93514e-06 0.0387173 -7.57431e-06 -3.49735e-06 4.22165e-06 -2.00709e-06 -3.57596e-06 1.51851e-07 -3.62826e-07 
1.53998e-06 3.0005e-06 1.01016e-06 4.30714e-06 4.15624e-06 2.62903e-06 6.19473e-06 5.15081e-06 4.41297e-06 
9.23868e-06 5.93196e-06 4.69485e-06 1.07672e-05 5.85194e-06 5.22743e-06 1.19844e-05 5.4424e-06 2.34352e-06 
1.32112e-05 2.77895e-06 4.26046e-06 7.98942e-06 1.84965e-06 4.29062e-06 8.7256e-06 1.07301e-06 5.64839e-08 
1.63234e-05 1.14106e-06 1.00985e-05 1.29685e-05 -4.7378e-07 1.96117e-05 2.00629e-05 1.2704e-06 2.4632e-05 
1.81175e-05 -1.64615e-05 8.38065e-06 -2.96848e-05 -2.62223e-05 -5.67254e-05 -5.93313e-05 -9.80268e-08 -7.56012e-05 
-6.51029e-05 3.69848e-05 -7.97225e-05 -5.15418e-05 3.91485e-05 -4.16377e-05 -3.10111e-05 3.70881e-05 -2.0394e-05 
5.38429e-05 7.31759e-05 3.74453e-05 0.000140767 4.08348e-05 9.12613e-05 9.46012e-05 -4.15603e-05 0.000156039 
2.88688e-05 3.10785e-05 0.000166108 7.68338e-05 4.12332e-05 7.5703e-05 7.96331e-05 5.68153e-06 6.02701e-05 
-3.58707e-05 1.21772e-05 5.90301e-05 2.17293e-05 2.59961e-05 8.91821e-06 5.29137e-05 2.50831e-05 3.37615e-05 
4.66026e-05 9.44469e-06 2.1834e-05 3.65807e-05 -1.91887e-05 2.42648e-05 2.56494e-05 -1.75933e-05 2.7855e-05 
3.88711e-05 -6.19263e-06 1.90707e-05 3.3147e-05 -1.0267e-05 1.37222e-05 3.53014e-05 -2.31059e-05 1.58799e-05 
-8.56066e-06 -3.24591e-05 4.34021e-05 1.52624e-05 -2.30403e-05 5.46391e-05 0.000134068 6.2105e-05 6.01858e-05 
6.28633e-05 3.27512e-05 4.92309e-05 -3.61423e-05 -4.73977e-05 6.13177e-05 -4.97232e-05 -7.27488e-05 0.000140408 
-0.000129523 -9.38871e-05 0.00154132 1.71548e-06 -0.000140191 -0.0144388 0.00076239 -0.000813304 0.0127132 
0.0290086 0.0169634 0.0208933 0.0282664 -0.0264676 0.018398 0.0214382 -0.0225395 0.0144121 
0.0218372 -0.0220717 0.0307867 0.0343782 -0.0158133 0.0304529 0.0362837 -0.00988458 0.0293672 
0.0345041 -0.0098843 0.0291027 0.0338586 -0.0113295 0.0285703 0.0318756 -0.0113359 0.0276922 
0.0306186 -0.0119022 0.0277853 0.0312502 -0.0125345 0.0297677 0.032255 -0.0120149 0.029883 
0.0324909 -0.0121647 0.0307879 0.0335756 -0.0123352 0.0306283 0.0328082 -0.0117945 0.0312237 
0.0327868 -0.0116684 0.030783 0.0312681 -0.0117525 0.0309733 0.030966 -0.0123976 0.0317684 
0.0309806 -0.0123825 0.0329201 0.0323311 -0.0128145 0.0330979 0.0318543 -0.0123793 0.0332824 
0.0318358 -0.0124203 0.0340847 0.0315795 -0.012543 0.0367522 0.0315685 -0.0128803 0.0436562 
0.0356915 -0.0138251 0.0474771 0.0447264 -0.0141236 -0.00652479 0.0162492 0.0144268 0.0241047 
0.0269858 -0.0156762 0.0245038 0.0261829 -0.00999118 0.0227507 0.025688 -0.00925595 0.0224743 
0.0262418 -0.0115654 0.0252996 0.0275965 -0.011414 0.0251744 0.028659 -0.0104272 0.0218774 
0.0248076 -0.0106569 0.0210038 0.0261785 -0.0104584 0.0223974 0.0268111 -0.0104054 0.0218702 
0.0262502 -0.0106322 0.0208643 0.0206678 -0.0110833 0.0097314 0.0183872 -0.0110946 0.0137639 
0.00517111 -0.0181805 0.0162984 -0.0136819 -0.0196658 -0.0245924 -0.0250661 -0.023297 0.0114065 
-0.0279486 -0.0306437 0.00943934 -0.0336847 -0.0237193 0.00945118 -0.0268261 -0.0230682 0.0095756 
-0.0260191 -0.0249467 0.00868557 -0.0270895 -0.0211041 0.00898896 -0.0260341 -0.0227078 0.010153 
-0.0259406 -0.0216072 0.0099557 -0.0265629 -0.0224148 0.00980074 -0.02596 -0.0221337 0.00940548 
-0.0256616 -0.0217669 0.00958958 -0.0225755 -0.0180141 0.0107692 -0.023855 -0.0212308 0.0112002 
-0.0163831 0.0208073 1.20837e-05 -0.00324455 -0.0205763 0.00920822 -4.87365e-06 -6.22372e-06 3.79496e-06 
0.0124715 -0.0150131 0.0283976 -0.0084056 -0.00987201 0.0199797 0.0014421 -0.000732251 0.00787988 
-0.0208763 0.00195692 7.54851e-06 -1.03444e-07 2.21163e-07 -1.98824e-06 3.57731e-06 -3.7104e-08 -2.26913e-07 
-1.59294e-06 -5.92205e-07 -8.27792e-07 -2.15886e-06 -3.70975e-06 -3.08467e-06 -1.84877e-06 -4.30246e-06 -1.38931e-06 
-3.08898e-06 -6.10818e-06 -4.2978e-07 -9.73956e-07 -6.07375e-06 -1.12183e-06 -3.28165e-06 -2.2047e-06 -3.46077e-06 
-5.31872e-06 -2.42675e-06 -5.74848e-06 -4.20504e-07 1.65986e-06 -5.68619e-06 -8.18992e-07 1.84721e-06 -5.20311e-06 
-1.27375e-06 8.37108e-08 -5.36237e-06 -1.17263e-06 -1.42868e-07 -3.7313e-06 -1.6744e-06 -8.66818e-07 -4.34881e-06 
-7.19937e-07 -1.35886e-06 -2.0288e-06 -1.9834e-06 -1.62189e-06 1.03949e-06 -2.46838e-06 -3.08566e-06 -4.81419e-07 
-2.72353e-06 2.93216e-06 -5.27277e-08 -1.5249e-06 2.89434e-06 1.11348e-06 -4.40413e-07 2.86861e-06 1.17287e-06 
2.88272e-06 2.67422e-06 6.19288e-07 1.22031e-06 5.38287e-06 3.31873e-06 4.46274e-06 1.41058e-06 1.26304e-06 
-1.52632e-06 -9.78085e-07 1.76314e-06 -5.54291e-05 -1.37146e-06 -1.65786e-06 0.0103917 0.0113928 0.000118593 
0.000164827 -0.000108658 0.000354561 -0.0036802 -0.00888455 0.000228166 1.19867e-05 2.50105e-07 -0.000104688 
3.97693e-05 -1.12673e-05 -0.00010521 2.46883e-05 -1.31753e-05 -8.06031e-05 2.09427e-05 3.23154e-06 -4.33164e-05 
1.23897e-05 -1.41536e-05 -5.34297e-06 4.29984e-05 -7.0924e-06 -7.34186e-06 1.89994e-05 4.00501e-06 -1.78575e-05 
1.84863e-06 7.17031e-06 -2.76697e-05 1.32959e-05 -2.40505e-06 1.25839e-05 1.04141e-05 4.10848e-06 1.11002e-05 
7.74524e-06 3.44314e-06 1.12101e-05 7.44953e-06 5.10685e-06 1.28481e-05 1.46503e-05 1.21229e-05 2.14243e-05 
3.06622e-05 2.25349e-05 3.46468e-05 1.04407e-06 -2.44018e-05 4.02789e-06 1.92974e-05 -2.02239e-05 -5.37176e-05 
2.92454e-06 7.19289e-06 3.55415e-05 -3.50035e-05 -8.42857e-05 3.47564e-05 -8.89227e-06 -2.12984e-05 4.19068e-05 
-3.05265e-05 4.83729e-06 8.08367e-05 -3.80797e-06 5.41835e-05 -5.28285e-05 1.38073e-05 2.22289e-05 2.19388e-05 
9.21778e-06 4.14647e-05 -3.37622e-05 2.23518e-05 -2.53785e-05 -7.09817e-06 1.50611e-05 2.11897e-05 -1.89577e-05 
3.33607e-07 1.01367e-05 -3.57225e-06 -5.34978e-07 1.16379e-06 -2.7353e-06 4.0733e-06 -4.45739e-07 -6.33928e-06 
8.06435e-07 -4.28277e-06 -1.62298e-06 8.864e-06 -3.49261e-06 1.32451e-06 9.42396e-06 3.08957e-06 2.73377e-06 
4.77483e-06 4.6477e-06 3.24146e-06 -1.94341e-06 -4.36084e-06 1.31661e-06 -2.0917e-06 -7.02851e-06 -6.71723e-07 
3.08988e-06 1.11594e-06 -8.25757e-07 4.6346e-06 4.95982e-06 5.36215e-07 4.42549e-06 6.30308e-06 1.81566e-06 
3.21787e-06 7.14412e-06 1.69289e-06 1.47245e-06 4.38647e-06 3.49236e-06 0.000158159 0.00411192 0.000322313 
-0.0026153 -8.82148e-07 -2.59342e-06 9.84641e-07 1.58322e-06 -2.74884e-06 6.24944e-07 1.94763e-06 -3.79066e-06 
1.82032e-06 2.60537e-06 -4.34018e-06 2.25175e-06 2.89186e-06 -4.77305e-06 3.48319e-06 2.27003e-06 -8.38231e-06 
3.34296e-06 -2.24133e-07 -7.42766e-06 -7.08004e-08 -1.12975e-06 2.91579e-06 7.99186e-06 1.13979e-06 3.56569e-06 
1.12702e-05 4.15708e-06 1.25839e-06 1.36848e-05 4.63208e-06 -2.54575e-06 1.52699e-05 4.0635e-06 -6.94314e-07 
1.48788e-05 1.69179e-06 1.45264e-05 1.2356e-05 -1.07467e-05 7.1868e-06 -2.14726e-05 -9.83744e-06 3.01322e-05 
-2.69284e-05 -1.85988e-05 6.23502e-05 2.14346e-05 -7.80817e-06 7.32805e-05 4.95983e-05 2.06584e-05 5.66717e-05 
6.86709e-05 4.20127e-05 3.40866e-05 5.83746e-05 5.4769e-05 1.69557e-05 9.45788e-05 2.0307e-05 4.0898e-05 
4.87269e-05 -6.213e-05 0.000104519 -4.64273e-06 -2.80056e-05 0.000121621 3.81967e-05 8.35354e-05 5.44583e-05 
-2.52575e-05 4.04649e-05 1.93968e-05 -2.94315e-05 -1.14175e-05 -4.03485e-05 -6.91302e-05 -2.46961e-05 -2.74566e-05 
-7.09722e-05 -3.0154e-05 1.54674e-05 1.22088e-05 -9.15218e-06 -2.09463e-06 -2.06422e-05 -5.36616e-06 -1.42126e-05 
-4.25795e-05 -1.47507e-05 -8.33823e-06 -2.10046e-05 -1.03113e-06 -8.68168e-06 1.35513e-05 -2.38007e-05 -9.09975e-06 
-3.30221e-05 -3.16462e-05 -1.56371e-06 -3.68915e-05 4.77672e-06 2.00665e-05 -6.9872e-05 9.86721e-06 1.41271e-05 
4.27482e-05 2.56512e-05 -2.00262e-06 7.65369e-05 2.02354e-05 -6.93174e-05 -0.000114371 -3.55659e-05 -6.68732e-05 
-0.00023556 -0.000102142 -2.87771e-05 -0.000341556 -0.000211333 0.000309876 -0.000455698 -0.000559012 -0.00170435 
-0.00152974 -0.0013726 -0.0071381 -0.00197387 -0.000908137 -0.00416604 -0.00411688 -0.00327337 -0.00445143 
-0.00088733 -0.00537154 -0.00294817 -0.00345026 -0.000750327 -0.00206278 -0.0030775 0.000775551 -0.00221439 
-0.00789624 0.00082318 -0.00283197 -0.00747218 0.000652337 -0.00313869 -0.00697604 0.000677796 -0.00321388 
-0.00644163 0.000691736 -0.00297491 -0.00641891 0.000639925 -0.0033811 -0.00655466 0.00067043 -0.00361682 
-0.00612313 0.000694946 -0.00387123 -0.00652571 0.000625788 -0.0041879 -0.00597987 0.000704503 -0.00422631 
-0.00615076 0.000735886 -0.00447108 -0.00544835 0.000739366 -0.00469682 -0.00503859 0.000731304 -0.0051903 
-0.00483344 0.000764023 -0.00525619 -0.00488343 0.00069706 -0.00571973 -0.00453231 0.000779575 -0.00570241 
-0.00464493 0.000710167 -0.00570787 -0.00448303 0.000712039 -0.00711625 -0.00426626 0.00045246 -0.00779983 
-0.00392243 0.000661459 -0.000130249 7.04683e-05 -0.00297204 -0.00539968 0.000585953 -0.00121224 0.001356 
-0.00235672 -0.0027275 0.000453241 -0.00169977 -0.00238635 0.000756143 -0.00230197 -0.0062613 0.000766815 
-0.00307024 -0.00576843 0.000566935 -0.00319803 -0.00613574 0.000583913 -0.00297065 -0.0070653 0.000536415 
-0.00299506 -0.00704219 0.000563524 -0.00283666 -0.00704511 0.000275066 -0.00290136 -0.00696716 0.000285783 
-0.00227803 -0.00792658 0.000296567 -0.00287285 -0.000916863 0.000236979 -0.00304819 -0.00310285 0.000521677 
-0.000415169 0.00195238 -0.000696862 -0.000832904 0.0016139 0.0108172 0.0101855 0.00257259 0.00888263 
0.00536856 0.00194853 0.00603994 0.00213808 3.92754e-07 0.00236836 0.00158124 -0.000840036 0.00194496 
0.00179174 -0.00108701 0.00649957 0.00282245 -0.000620672 0.00686655 0.00233493 -0.000276906 0.00686378 
0.00269239 -0.000260006 0.00648924 0.00271111 -0.000276176 0.00649689 0.00303056 -0.000339963 0.00602801 
0.00333814 -0.000385228 0.00670307 0.00213396 -0.000931552 0.000301785 0.000180533 2.73793e-06 3.88332e-06 
-1.04684e-06 -5.76034e-06 -2.68832e-06 2.7626e-06 8.4177e-07 -0.00168766 0.000795497 9.9331e-05 0.00129808 
9.08254e-07 0.000616064 0.000465915 -0.00111993 -0.000213682 -0.000643961 -0.000322387 0.000675855 -0.00163717 
-0.000189057 -0.00153796 0.000443665 -0.0041105 0.000749288 -0.000243405 -0.000177191 -0.000141697 -0.000441065 
-0.000310879 -0.00128393 4.12732e-05 0.000458885 -2.42703e-06 -1.82745e-06 1.47273e-07 1.0405e-06 -8.19867e-07 
-3.15212e-06 -5.03755e-06 9.09918e-07 -1.73434e-06 -6.36976e-06 -3.1612e-07 -2.99567e-06 -2.78842e-06 -2.17427e-06 
-3.13686e-06 -1.75065e-06 -3.19381e-06 -2.74755e-07 9.90638e-07 -3.64005e-06 -1.00039e-07 6.00177e-07 -3.90435e-06 
-8.84287e-07 1.0897e-07 -3.7764e-06 -5.73742e-07 -7.18554e-07 -2.73622e-06 -2.34301e-07 -1.20581e-06 -2.63303e-06 
-2.31294e-07 -1.37185e-06 -1.14777e-06 -8.10247e-07 -1.91188e-06 7.61743e-07 -5.27313e-07 -3.19907e-06 -5.48039e-07 
-1.20921e-06 3.21218e-06 -1.6638e-06 -1.24773e-06 2.83094e-06 -1.07697e-06 -7.65789e-07 2.0702e-06 -8.29456e-07 
2.15463e-06 1.6441e-06 -9.85964e-07 -5.62523e-07 1.71056e-06 -2.53339e-07 8.17997e-08 1.36963e-06 6.81521e-07 
-0.000488365 -2.4973e-06 -0.000210408 -0.000423406 2.50038e-05 -9.60439e-06 -0.00017287 -0.000613268 -0.000129846 
1.38923e-05 8.04973e-05 -4.60776e-05 0.000298545 -0.000234047 0.00139881 3.09603e-05 -6.11021e-06 4.54822e-05 
-1.4275e-05 1.54633e-05 4.8982e-05 -6.10491e-06 1.85953e-05 4.87772e-05 4.81443e-06 -5.90609e-06 -2.8393e-06 
1.55168e-05 -9.44907e-06 9.40197e-06 -1.22956e-05 3.2547e-05 1.05062e-05 -2.88712e-06 1.00722e-05 1.24956e-05 
1.62434e-06 -3.77175e-07 1.40665e-05 5.33879e-06 -4.72662e-06 1.5875e-05 3.65232e-06 -6.37636e-06 1.66306e-05 
7.4463e-08 1.62049e-06 4.8894e-05 1.13769e-05 3.84122e-05 -8.953e-06 -2.08314e-05 4.83117e-07 2.59191e-05 
6.23188e-06 8.49359e-05 2.96992e-05 9.87685e-05 -6.6726e-05 1.60386e-05 -2.15723e-05 -5.51244e-05 -1.32729e-07 
-4.46566e-05 -1.71186e-05 -8.68248e-06 -2.94775e-05 -3.32776e-05 -9.57085e-06 -2.85081e-05 -3.30492e-06 1.37774e-06 
-3.91235e-06 1.98539e-06 3.67306e-06 -2.40977e-06 -3.0861e-07 6.61502e-06 -4.64345e-06 4.49619e-06 6.72086e-06 
-2.38788e-06 5.28807e-06 7.29769e-06 8.39488e-07 4.01754e-06 7.50157e-06 2.86664e-06 4.27885e-06 6.75904e-06 
4.99708e-06 3.79608e-06 6.01508e-06 5.30204e-06 3.04443e-06 4.55847e-06 4.85301e-06 2.20367e-06 4.51615e-06 
3.57748e-06 1.548e-06 2.8997e-06 3.5461e-06 1.14012e-06 2.59447e-06 6.90043e-06 2.41391e-06 3.45075e-06 
5.69964e-06 1.35898e-06 -0.000211314 -0.000329009 0.000685414 0.000495276 -0.00017699 -3.8213e-06 1.14224e-06 
1.55176e-06 -5.03026e-06 1.50205e-06 1.70498e-07 -5.47865e-06 2.37533e-06 6.89907e-08 -6.03174e-06 4.20917e-06 
-9.04593e-07 4.40465e-06 7.12628e-06 3.07677e-06 3.63798e-06 7.82175e-06 3.47843e-06 3.26838e-06 9.74608e-06 
3.15695e-06 1.82597e-06 1.15607e-05 5.84792e-06 -1.53132e-06 9.64321e-06 5.86498e-06 -8.62038e-06 7.68126e-06 
4.61754e-06 -1.20508e-05 7.64915e-07 3.38426e-06 8.31796e-07 -1.22461e-06 2.37678e-06 2.46782e-05 7.63935e-06 
-1.53687e-05 1.48004e-05 -5.20167e-06 -1.8746e-05 1.98812e-05 1.27764e-05 3.58179e-06 3.66396e-05 4.40063e-05 
4.00715e-05 2.19727e-05 2.49726e-05 5.96841e-06 -1.09568e-05 7.07307e-05 9.23368e-05 5.06339e-05 1.31631e-05 
-0.000102399 2.48061e-05 1.4369e-05 0.000121194 8.26108e-05 7.20329e-05 4.54168e-06 7.19733e-05 -6.88869e-05 
6.55251e-05 -6.81077e-05 -4.70812e-05 -1.67322e-05 -9.43523e-06 -4.01431e-06 -4.02282e-05 7.9932e-06 1.51703e-05 
-2.31529e-05 1.6201e-05 1.86384e-05 -4.43945e-06 -1.69606e-05 -8.76154e-06 -8.50993e-06 -1.5403e-05 -4.55654e-05 
-8.165e-06 1.34335e-06 -3.36717e-05 -7.49394e-06 -8.14356e-06 -2.69892e-05 -8.99807e-06 -3.02361e-06 -4.21474e-05 
-5.80786e-06 -1.43122e-05 -5.62036e-05 -4.32372e-06 -8.95283e-06 -5.1682e-05 2.41281e-05 -3.60346e-05 -8.67955e-05 
1.2661e-06 -4.05123e-05 -7.30747e-06 -2.80173e-05 0.00010258 4.33834e-05 2.4796e-05 -1.0227e-05 -0.000134537 
-5.47241e-05 -3.73009e-06 -0.000255376 -4.4503e-05 -0.000267422 -0.000249249 -0.000202207 -0.000827252 0.000528951 
-0.00017488 -0.000274708 -0.000424855 6.46398e-05 -0.000106487 -6.74933e-05 3.84524e-05 0.000170133 -0.00029864 
0.000478856 -0.000165059 -0.000131928 0.000314559 -2.20542e-06 8.72482e-07 4.01095e-06 -4.9098e-06 4.72841e-05 
-5.10575e-05 4.31342e-05 4.00667e-05 0.000188026 7.00661e-05 -6.1198e-05 0.00023458 4.25441e-05 -6.69954e-05 
0.000106196 5.38043e-05 -8.27159e-05 3.74092e-05 3.85624e-05 -9.35977e-05 8.41085e-05 2.7849e-05 -7.3998e-05 
-4.50724e-06 3.39855e-05 -0.000102723 -1.26804e-05 2.79667e-05 -6.05141e-05 -6.3203e-06 1.71978e-05 -9.02647e-05 
1.44796e-06 1.70397e-05 -6.38668e-05 -2.90555e-07 1.85717e-05 -4.98246e-05 -3.41175e-06 2.31384e-05 5.72875e-07 
-4.02878e-05 1.65952e-05 -4.56175e-05 -9.51407e-05 2.02649e-05 -3.50527e-06 -9.06189e-05 4.27956e-05 -3.81391e-05 
-9.72848e-05 5.96637e-05 -0.00010273 -8.2925e-05 0.000103667 -0.000116501 -0.000103395 0.000139196 -0.0001663 
1.09412e-05 9.05357e-06 3.56774e-05 3.75666e-05 1.87256e-05 -2.5133e-05 -1.1371e-05 -0.000141215 3.39723e-05 
1.55284e-05 -1.21389e-05 -2.96419e-05 5.96346e-05 -1.0729e-05 -4.7025e-05 3.34551e-05 6.0517e-05 -6.49803e-05 
0.000130131 4.17749e-05 -5.16866e-05 8.00712e-06 8.03919e-06 -0.000113175 -0.000109844 1.11243e-05 -7.60787e-05 
-4.19253e-05 -4.3863e-05 -0.000206958 -6.15284e-05 -8.18437e-05 -0.000355499 -9.23458e-05 -0.000129707 -2.604e-06 
7.76088e-07 1.85962e-07 0.000973541 0.00025796 0.000205489 -1.63736e-05 -2.05998e-06 -6.00316e-05 -7.10277e-05 
-6.11894e-05 -6.8485e-05 -8.17138e-05 -0.000101523 2.54976e-06 2.89997e-05 -5.6455e-05 9.74505e-05 4.52988e-05 
3.10834e-05 6.06116e-05 0.000107138 6.6936e-05 -2.47057e-05 0.000132821 2.50347e-05 -0.000106007 0.00016653 
4.31521e-05 9.31053e-06 0.000186121 -7.02144e-06 -0.000100766 0.000223396 -7.33066e-05 -0.000126435 0.00012764 
7.3498e-05 -0.000254614 3.74593e-05 0.00105439 0.00105266 0.000117431 9.85664e-05 -1.79328e-07 -0.000576412 
-7.23812e-07 3.1497e-06 -6.65824e-09 3.27728e-07 2.122e-05 -1.61136e-05 -0.000144834 -4.57615e-05 -7.89312e-05 
0.000170286 -3.58774e-06 -2.95157e-05 0.000128089 3.6418e-05 4.31201e-05 -2.73901e-05 3.69771e-07 -3.22421e-07 
-9.54843e-05 4.86026e-05 -0.000432899 -0.000237373 0.000106259 1.34233e-05 2.56894e-07 -8.55964e-05 -0.000350485 
0.000129772 -0.000128091 0.000203193 0.000207144 2.81165e-06 0.000155004 -0.000126342 -0.000249488 0.000466362 
0.000106622 -7.00381e-07 0.000109729 0.000159599 -3.19143e-06 -7.62262e-05 -0.000373373 -0.000117398 0.000225022 
0.0001683 -8.42458e-05 -0.000584478 -0.000488504 -0.000155192 3.57198e-07 -9.33524e-06 -3.54557e-07 -3.11532e-06 
2.77127e-07 -2.39605e-06 5.1968e-07 -1.28464e-06 1.41443e-07 -2.35679e-06 -1.32194e-06 -1.36127e-06 -2.78479e-06 
-4.00953e-07 3.14683e-07 -2.51809e-06 -1.12946e-07 -1.42724e-07 -2.38451e-06 5.26743e-07 -6.57192e-07 -1.98794e-06 
3.34402e-07 -6.17379e-07 -1.3716e-06 4.44875e-07 -1.49784e-06 -8.70401e-07 3.864e-07 -2.21748e-06 -1.83677e-07 
2.37399e-07 -3.4211e-06 -1.54036e-06 -1.04355e-06 3.05494e-06 -3.17723e-06 -1.16683e-06 2.79266e-06 -2.96875e-06 
-1.26613e-06 2.83078e-06 -1.76915e-06 -1.23878e-06 2.13415e-06 -1.44536e-06 -1.23709e-06 -9.53122e-05 -6.71923e-07 
-5.14095e-05 1.43394e-05 1.7072e-05 -0.000104894 3.84228e-05 4.72324e-05 -1.07362e-05 2.75965e-05 6.70834e-05 
5.59838e-05 -0.000143024 0.000694708 4.23838e-05 -3.10858e-05 2.77657e-05 -1.36455e-05 -2.78662e-05 2.9369e-05 
3.44061e-06 -1.21369e-05 -9.66432e-06 -0.00164455 -0.00192825 6.20605e-06 -3.12274e-06 -1.20654e-05 5.77461e-06 
-5.99273e-06 -6.31796e-06 1.06722e-05 -1.54578e-06 -5.28323e-06 2.8856e-05 4.1732e-06 -1.49939e-05 4.48117e-05 
-1.46779e-08 -2.63365e-05 1.4552e-05 -3.95017e-05 -3.334e-05 -3.65802e-05 -1.2088e-05 -1.94422e-05 1.63647e-05 
-0.000174551 9.49325e-05 3.05398e-05 -0.000158423 1.63271e-06 -2.30208e-05 1.54152e-06 -6.01106e-06 -2.38013e-05 
2.26508e-06 -1.82546e-06 -4.44613e-06 2.31434e-06 7.55047e-07 4.3007e-06 4.90008e-06 2.79845e-06 4.57123e-06 
7.71655e-06 3.80912e-06 4.84711e-06 8.37647e-06 5.96314e-06 5.45511e-06 6.90878e-06 6.30631e-06 4.88799e-06 
5.72235e-06 5.07915e-06 3.27668e-06 4.84663e-06 3.95933e-06 1.97081e-06 1.04901e-06 1.71957e-06 -3.01636e-07 
1.85416e-06 3.94085e-06 -1.81836e-08 -7.93679e-07 2.01502e-06 -9.08378e-07 -3.73669e-05 -0.000159042 2.01653e-05 
-1.15225e-05 8.8507e-05 7.61387e-05 -4.77067e-05 0.000309561 -4.49409e-06 1.03237e-06 -4.01198e-06 7.25153e-06 
-1.64704e-07 3.33977e-06 8.59491e-06 1.54165e-08 3.45672e-06 8.85702e-06 3.63755e-06 3.10442e-06 6.49344e-06 
4.06365e-06 5.85391e-06 4.99125e-06 3.00609e-06 3.32499e-06 4.2371e-06 5.16446e-06 2.51843e-07 3.38197e-06 
6.82136e-06 -5.26216e-06 -8.90901e-07 5.6102e-06 -1.81736e-05 -1.18638e-05 5.66406e-07 -3.60366e-06 -2.15413e-05 
3.40288e-06 -2.67774e-05 -4.28154e-05 -1.25093e-05 3.61841e-05 2.7599e-05 -2.88025e-06 6.0293e-05 3.45444e-05 
-0.000194451 9.60326e-05 0.000152788 5.31714e-06 9.29748e-05 -1.02452e-05 2.40148e-07 -6.39148e-05 2.22479e-05 
5.81096e-08 -2.94573e-05 2.86358e-05 2.13674e-05 -6.80856e-06 6.79708e-06 2.31609e-05 -5.26224e-07 -2.30438e-08 
-1.05115e-05 -6.76051e-06 -6.30734e-06 -2.23345e-05 -1.0286e-05 -6.56716e-06 -3.23556e-05 -1.92978e-05 -1.95334e-05 
-5.36907e-05 -1.55878e-05 -2.98953e-05 -4.47622e-05 4.10595e-06 -1.32853e-05 -5.70111e-05 7.57354e-06 3.38813e-06 
6.84318e-06 6.15023e-06 -0.000178514 2.32749e-05 -2.88887e-05 2.26959e-05 -8.82008e-05 6.62341e-06 0.000106058 
-2.75702e-05 -0.000106186 0.000133001 -0.000106829 -0.000196532 -6.63317e-05 -5.62486e-05 2.43939e-05 -2.66266e-05 
0.000158302 4.56996e-06 -4.65637e-06 5.36506e-05 3.95383e-05 3.91704e-05 3.24542e-05 2.90919e-05 4.63554e-05 
2.00113e-05 5.30989e-06 8.2131e-06 -9.48271e-06 -8.57321e-06 1.53512e-07 -1.11373e-05 -1.43829e-05 -7.16315e-06 
-7.70844e-06 5.63716e-06 1.25416e-05 1.37186e-05 -1.95672e-05 1.67853e-05 9.82462e-06 -2.42511e-06 1.90178e-05 
1.66649e-05 -6.94865e-07 3.21418e-05 2.44145e-05 3.79489e-06 -2.09499e-05 -2.76368e-05 3.92721e-06 -1.49278e-05 
8.25711e-06 3.39457e-06 -3.06757e-06 1.8444e-05 -2.55766e-07 -1.0266e-05 9.97944e-05 -5.61942e-06 3.93916e-05 
0.000118653 8.56589e-05 -5.49285e-05 8.78482e-06 -7.08192e-05 -3.94261e-06 2.08516e-06 -2.21375e-06 -9.00615e-07 
1.4723e-05 1.12843e-05 4.38744e-05 3.19983e-05 -5.97763e-05 -1.68994e-05 2.75758e-05 -3.21267e-05 -2.28277e-06 
8.21855e-05 5.23873e-05 -1.68601e-05 2.59111e-05 -2.53501e-05 3.98425e-06 -4.41851e-05 3.64522e-07 4.12147e-05 
-6.98791e-05 -9.14654e-06 -3.95752e-05 -8.41824e-05 -3.45361e-05 -8.17297e-05 -0.000144254 -3.19741e-05 -5.07858e-05 
-2.94741e-06 1.4465e-06 -4.40464e-09 2.08113e-07 -2.87491e-06 -4.96315e-06 4.01935e-05 7.82082e-06 4.3801e-05 
1.19888e-05 -7.10423e-06 -3.13045e-05 1.54416e-05 1.29884e-05 -4.86458e-05 1.80901e-05 -2.10013e-05 5.82804e-06 
4.66418e-05 5.85923e-05 2.23348e-05 3.98315e-05 7.39704e-05 1.41565e-05 3.80504e-05 5.5623e-05 4.0812e-05 
6.33707e-05 -4.21623e-06 2.3588e-05 -5.2932e-05 3.04637e-05 -2.26971e-05 2.84457e-05 7.73957e-06 -5.18467e-06 
5.53378e-06 -4.17749e-06 2.14053e-06 -2.19539e-06 -2.77413e-05 -2.26159e-05 1.89008e-05 -0.00012868 -9.88706e-05 
6.99605e-05 3.81894e-05 2.07675e-05 5.66093e-06 0.000127052 2.61935e-05 1.81087e-06 -0.000129803 8.46456e-06 
2.25916e-05 0.000161588 2.68011e-05 4.59173e-05 0.000143224 0.00013202 9.58052e-07 -2.01411e-06 -5.68405e-07 
-6.48054e-05 -5.66027e-06 -0.000116757 4.18263e-05 0.000348057 -0.000104671 -5.47825e-05 -1.91972e-07 2.94435e-05 
0.00023353 0.000158998 -4.06846e-06 -3.10845e-06 7.13779e-05 -2.1379e-05 1.75158e-05 -2.48088e-05 -2.03931e-05 
-4.0614e-05 4.16604e-05 7.01146e-07 -3.90017e-05 -1.44207e-05 -1.73346e-05 2.14108e-05 3.81564e-05 -5.60327e-06 
-1.0478e-06 -1.20047e-06 -1.49159e-05 2.95305e-05 7.67632e-06 -2.84599e-05 4.07867e-06 0.00019658 9.44734e-05 
-1.77891e-05 -8.69575e-05 -1.84676e-05 -8.94207e-05 0.000116416 -0.000113139 -4.72694e-05 9.34113e-05 -1.95246e-05 
4.25875e-05 2.73346e-05 -7.13394e-07 -1.89731e-06 -2.18531e-06 8.01217e-07 -9.43722e-07 6.95322e-07 -2.26356e-06 
-1.02793e-06 1.26949e-06 -5.20987e-07 -1.06645e-06 1.01542e-06 -2.26327e-06 -7.74188e-07 8.67344e-07 -2.03529e-06 
-3.77185e-07 1.51293e-06 -2.43119e-06 -9.09846e-08 1.13161e-06 -3.56445e-06 -3.14824e-06 -1.92354e-06 4.3739e-06 
-2.8434e-06 -6.90485e-07 5.17864e-06 -2.5479e-06 -7.25721e-05 3.02339e-05 1.37676e-05 -2.5389e-06 -2.9558e-05 
2.98368e-05 1.03629e-05 1.52218e-05 -0.00200588 -0.00191425 6.94561e-06 9.02782e-06 -1.24306e-05 1.30058e-05 
8.1522e-06 -8.55482e-06 2.44224e-05 -1.18251e-05 -1.58482e-08 1.11688e-05 1.67138e-05 -1.39436e-06 -5.19985e-07 
4.49755e-08 -2.03525e-06 1.17592e-07 -1.72432e-06 -1.12277e-06 -5.99895e-07 -2.17321e-05 -2.88528e-06 7.08163e-06 
7.86157e-06 2.62291e-06 4.18635e-06 1.0762e-05 5.6603e-06 8.20263e-06 8.50565e-06 7.70521e-06 3.75826e-06 
6.25495e-06 5.94137e-06 6.30794e-06 5.62602e-06 4.65303e-06 3.11499e-06 3.21656e-06 3.09001e-06 5.29944e-07 
-2.43686e-06 9.0111e-07 -7.8953e-07 -3.9131e-06 -5.43693e-05 -5.85218e-05 4.63933e-05 -3.56359e-05 4.8993e-06 
7.96696e-06 9.10218e-06 1.13145e-06 -7.82618e-07 -6.42035e-07 9.54908e-06 -2.14916e-06 -8.19729e-06 -2.09089e-06 
5.74517e-06 8.80721e-06 3.44782e-06 6.50496e-06 6.60509e-06 4.85918e-06 6.41916e-06 6.37881e-06 5.55184e-06 
5.94052e-06 2.36011e-06 6.71875e-06 5.16163e-06 -1.01616e-05 7.66826e-06 1.11592e-05 3.66305e-06 -1.84198e-06 
-3.75647e-05 -6.10806e-06 1.0766e-05 4.02729e-05 -4.53319e-05 -1.67101e-05 -6.2872e-06 4.50287e-05 1.60829e-07 
-2.38969e-05 8.8839e-06 -5.47586e-05 1.19194e-05 -2.9484e-06 -5.64832e-06 2.29583e-06 -7.78365e-06 -6.71946e-06 
-1.84991e-05 -4.41603e-06 -8.60548e-06 -2.65419e-05 -1.75638e-05 1.34417e-05 -1.17723e-05 1.77207e-05 -2.56072e-05 
-2.42391e-05 -1.74701e-05 -1.33785e-05 -2.03579e-05 -1.39035e-05 -3.2758e-05 -4.68041e-05 -1.48526e-06 2.7022e-05 
-5.12774e-05 6.93818e-06 4.35083e-05 2.96672e-05 1.72617e-06 2.02749e-05 3.31546e-05 -8.23169e-06 7.17234e-05 
0.000101219 -1.02511e-05 -8.07302e-06 -2.51919e-05 6.56321e-06 7.48843e-06 1.44715e-05 -7.45274e-06 1.60842e-05 
3.12574e-05 -1.42045e-05 2.41185e-05 -2.28941e-05 -2.79825e-05 -3.05033e-05 -2.82935e-05 6.5875e-06 1.33344e-05 
1.51164e-05 -4.49143e-05 4.63387e-06 -1.93717e-05 -2.73649e-06 2.83247e-06 -6.56776e-06 -8.8162e-06 1.34326e-05 
5.51581e-06 4.36222e-05 -1.07299e-05 -4.64557e-05 1.22749e-05 -1.01747e-05 -5.13835e-06 6.20776e-06 -1.41055e-05 
8.28577e-06 -2.54152e-05 -5.25563e-05 8.75256e-06 -2.75009e-05 1.25041e-05 -3.37014e-05 4.33249e-05 2.19639e-06 
-2.89393e-06 2.53231e-06 7.14342e-06 2.99938e-05 3.8082e-06 9.34099e-06 -4.83372e-05 2.46298e-06 -9.82012e-05 
1.02539e-05 2.81687e-05 -2.18018e-05 1.85485e-05 -3.95063e-06 2.11326e-05 -4.04848e-05 -9.22334e-06 3.60348e-05 
6.58731e-06 -1.14195e-05 -4.28441e-06 9.05311e-07 -1.91669e-05 6.49208e-06 -0.00261226 -0.00243245 -4.42932e-05 
-1.12758e-05 -5.87481e-05 -4.74663e-05 8.51248e-06 -1.59383e-05 -2.18204e-05 -5.12972e-05 -1.59142e-05 9.88992e-05 
-1.05956e-07 0.000110476 5.33108e-05 -6.47941e-06 1.85614e-06 -7.40827e-06 -2.61207e-05 2.70809e-05 1.79814e-05 
-1.20482e-05 -2.75198e-05 3.83539e-05 2.18969e-05 6.30874e-05 -0.00250775 -0.00175716 2.59582e-05 4.87972e-05 
-5.60085e-07 2.9142e-05 3.65743e-05 3.74596e-05 5.7216e-05 2.12162e-05 4.32974e-05 -1.72091e-05 2.74789e-06 
4.27061e-05 3.2031e-05 -6.3959e-07 -2.71415e-05 2.93147e-05 -2.25894e-05 -5.29256e-05 -2.45778e-05 3.94378e-05 
2.32212e-05 6.33099e-07 -2.91035e-06 3.70272e-05 -5.20331e-06 -2.08759e-07 4.17271e-05 9.8106e-05 4.18157e-06 
-1.23313e-05 -3.16421e-05 -2.87824e-05 -3.52931e-05 3.01141e-05 -9.06823e-06 -0.00194461 -0.00106105 -3.54585e-05 
3.02746e-05 2.95748e-05 -7.24283e-06 -7.22101e-06 2.00435e-05 4.15616e-05 7.3323e-06 -3.90445e-06 -4.03772e-05 
-5.18342e-07 1.41869e-06 1.2312e-06 -2.37456e-05 -2.04227e-05 3.03391e-05 -2.89364e-05 5.30489e-05 -9.36216e-08 
-4.58368e-06 -2.31605e-05 -5.05496e-06 8.75888e-06 8.23062e-06 6.79616e-06 3.59502e-05 1.72463e-05 -6.59994e-06 
1.86647e-06 -1.8357e-05 -3.0293e-05 2.57541e-05 -1.03716e-06 -3.25596e-07 -3.59092e-06 2.60244e-05 -2.00911e-05 
0.00120117 0.000908203 -3.77963e-05 -1.1158e-05 1.16452e-06 1.79445e-06 -1.12756e-06 9.49165e-07 -3.92772e-06 
-2.02589e-07 -1.50657e-06 3.67651e-06 -1.01389e-07 8.90884e-07 -5.3536e-06 3.28553e-08 2.82562e-05 -1.98125e-05 
3.1304e-06 1.64878e-05 -9.43358e-06 -3.01715e-05 -1.04716e-05 -1.19987e-06 2.1219e-07 4.29154e-06 9.086e-06 
-7.03526e-07 -5.83825e-05 -5.25638e-05 -1.76012e-06 2.71554e-07 1.32547e-05 7.06557e-06 -8.42482e-07 -2.47522e-06 
2.43255e-06 8.11626e-06 6.58787e-06 5.528e-06 9.16675e-06 6.055e-06 5.26468e-06 5.76719e-06 3.67211e-06 
2.52651e-06 3.16152e-06 1.3646e-06 5.58594e-06 6.49884e-06 2.35253e-06 5.5183e-06 5.54268e-06 3.62643e-06 
-3.51189e-06 2.08326e-07 4.68194e-05 2.39024e-06 -4.01477e-06 9.59607e-09 7.05845e-06 6.75088e-06 7.55798e-06 
4.24887e-06 5.04155e-06 7.13557e-06 6.6485e-06 1.42902e-05 8.25463e-08 1.25081e-05 3.52579e-07 4.2859e-06 
3.77052e-06 -8.75843e-06 -2.45271e-05 -8.27541e-06 1.97158e-06 -2.62504e-05 -5.20015e-05 1.3687e-05 8.41578e-06 
2.66997e-06 -3.53262e-06 2.47643e-06 -1.60645e-06 -1.04771e-06 -8.37842e-06 9.08483e-06 6.36646e-06 -2.60583e-05 
-1.24507e-05 -8.36343e-06 -4.54018e-06 0.00250477 0.00172996 -4.52689e-05 -4.34573e-06 1.42458e-05 -1.24412e-05 
5.89129e-06 1.22527e-05 1.33125e-05 2.11661e-06 1.63973e-05 1.82382e-05 2.58233e-07 -3.29758e-06 -4.88566e-05 
4.97274e-05 -2.19807e-06 -6.08661e-06 8.99778e-06 -4.3442e-06 1.88783e-05 2.43112e-05 -2.58838e-05 -6.62117e-05 
1.35973e-05 3.52354e-05 3.11033e-05 7.88268e-05 -3.47647e-05 3.60419e-05 -2.19973e-05 -3.30018e-05 -6.34006e-05 
3.82304e-05 -3.97357e-06 -1.25847e-05 -2.36756e-05 1.69397e-05 3.74952e-05 3.17645e-06 7.2074e-06 -1.0096e-05 
-2.63956e-05 4.77831e-07 -7.04547e-06 4.14964e-06 -5.52392e-07 5.89791e-08 -2.45827e-06 7.2369e-06 -7.48583e-06 
-5.02145e-06 -1.99493e-06 -3.18119e-05 -9.0413e-07 1.09089e-05 -1.01237e-06 -7.54342e-06 0.00235854 0.0027443 
6.39924e-06 -4.23804e-07 8.63148e-06 8.14775e-06 1.1754e-05 -6.86813e-08 -0.00736069 -0.00808651 -0.0105172 
-0.0132806 -3.88743e-06 -6.92659e-06 9.17251e-06 3.31976e-06 -2.68358e-05 2.05368e-05 -5.25333e-05 4.41422e-05 
2.03356e-05 2.34102e-05 -1.75456e-05 5.31864e-06 3.86879e-05 2.97478e-05 4.54273e-05 0.00127474 -6.68117e-06 
2.00122e-05 4.64451e-06 2.10262e-05 3.23592e-05 -1.0536e-05 3.04406e-05 7.39941e-06 -1.24271e-05 1.35584e-05 
-3.28904e-05 2.18032e-05 7.86331e-05 1.08748e-06 1.60248e-07 2.73978e-06 3.2989e-05 7.06866e-06 4.80793e-05 
3.99931e-05 -3.11868e-06 -1.82739e-06 3.48774e-06 3.27314e-06 6.80732e-09 3.89079e-07 -4.46642e-06 -1.64489e-06 
2.52801e-06 2.15119e-05 1.23748e-06 1.35483e-05 -2.13184e-05 -1.28112e-05 -4.30425e-06 7.37959e-06 -1.74292e-05 
1.5717e-06 3.01536e-06 1.18366e-05 1.36507e-05 1.35022e-05 -2.01067e-06 -7.69965e-06 6.64497e-05 4.10108e-05 
2.58831e-05 1.44646e-07 -6.80486e-06 -7.39015e-07 9.94806e-07 -4.08883e-06 -2.24195e-05 9.98618e-06 6.04009e-07 
2.31329e-05 1.23448e-05 -5.36223e-05 1.43616e-05 -1.24267e-05 -9.19811e-06 1.44279e-05 1.57072e-05 1.1044e-06 
-1.91397e-05 -1.31376e-05 -1.13212e-06 1.40456e-05 2.23162e-05 -1.88062e-05 -3.84775e-05 -4.89404e-06 -2.45499e-05 
7.41739e-06 -1.79556e-05 -2.01176e-05 7.66282e-06 4.09882e-05 2.83535e-06 2.92177e-05 2.10305e-05 -1.10096e-05 
1.12229e-05 2.46817e-05 5.15276e-05 -4.54539e-06 7.78703e-07 -2.263e-06 -1.01621e-06 -1.11313e-06 -5.94262e-06 
4.79602e-05 -3.62879e-06 -1.13254e-05 1.01645e-05 -3.4688e-06 -4.00968e-07 -6.35879e-05 -9.4396e-06 2.30101e-05 
3.32742e-06 1.75584e-05 5.08207e-06 4.21972e-06 -5.11625e-06 5.71692e-06 1.17268e-05 1.74034e-05 1.20546e-06 
7.1894e-06 5.84742e-07 7.07169e-06 6.57497e-06 -7.98001e-06 8.43733e-06 6.57884e-06 1.17424e-06 -4.43603e-06 
5.90286e-06 6.35515e-06 -1.29619e-06 -1.75841e-05 -4.50967e-05 7.56405e-07 3.2097e-05 -2.23727e-05 -4.03032e-06 
5.36891e-06 -3.1672e-05 9.05112e-06 1.38488e-05 -4.4965e-06 1.18166e-05 1.39067e-05 -5.36891e-06 2.52906e-05 
1.86856e-05 3.49035e-05 -4.33226e-05 2.29199e-05 7.45689e-06 -2.06835e-05 1.42302e-05 3.07299e-05 3.51185e-06 
-1.45123e-05 -1.87637e-05 -9.32217e-06 3.14661e-05 -9.3214e-06 1.07872e-05 5.66845e-05 -5.65896e-05 -4.18125e-05 
1.62913e-05 -2.02267e-05 2.23887e-05 -4.44896e-06 6.30194e-06 1.76267e-06 -3.94152e-06 1.04085e-06 7.23436e-06 
1.55902e-05 1.00801e-05 2.56825e-06 -4.3019e-06 5.76104e-07 3.14503e-06 8.44617e-06 3.64609e-07 -1.42198e-06 
4.81738e-06 -9.09183e-06 -5.8438e-06 -6.67719e-06 4.92089e-06 -2.96117e-05 -0.00988712 -1.27954e-05 -2.41497e-06 
2.9781e-05 -5.3619e-06 -7.22864e-06 6.61854e-06 -2.188e-05 -2.61449e-05 -1.46516e-05 5.81168e-06 -3.35021e-05 
5.9974e-06 -6.49982e-06 7.05188e-06 -9.65994e-07 -6.20827e-06 -1.72852e-06 -1.33532e-06 2.60648e-05 4.60381e-05 
3.24125e-05 1.44467e-05 2.17541e-05 -1.69235e-06 3.68317e-05 -6.10126e-06 5.18774e-06 5.33279e-05 1.26585e-05 
-6.37191e-06 3.69656e-06 6.30771e-07 1.71263e-06 9.62305e-05 -6.55367e-05 -1.29551e-05 -7.15883e-06 -2.33977e-05 
-1.20149e-06 -3.32768e-05 -8.26434e-06 -2.1541e-05 -3.05119e-06 -1.86696e-05 -2.73609e-06 -1.89765e-06 -6.22535e-06 
-1.05299e-05 -5.6522e-06 7.64028e-06 2.26714e-05 2.93409e-05 -2.93149e-07 2.78101e-05 2.42918e-06 1.91461e-06 
-5.89765e-06 -1.26942e-05 4.75131e-05 3.58559e-05 3.61585e-05 3.31134e-05 -1.17486e-05 3.17749e-06 -2.28629e-05 
-1.06806e-05 5.63543e-05 -3.57029e-06 7.76028e-06 -8.91597e-07 -2.28485e-05 -4.03352e-06 2.41459e-05 -1.47304e-05 
-4.50785e-05 -0.01089 2.33537e-05 3.16615e-05 1.61509e-06 7.78763e-06 -1.04494e-05 1.82251e-07 -8.13454e-05 
-7.89287e-05 3.03354e-06 8.04686e-06 3.58571e-05 3.0575e-05 3.66592e-05 -2.2254e-05 -4.93996e-08 2.28731e-05 
7.34095e-06 -3.47408e-06 3.69452e-06 6.59428e-06 9.84351e-07 -0.00166565 -0.000163612 -0.0011926 2.16657e-05 
-4.69563e-06 4.39432e-07 -4.25436e-05 2.01744e-05 3.73797e-05 -0.000576821 -4.75832e-05 1.23993e-05 -2.73684e-05 
-6.27492e-05 -1.23068e-06 -8.401e-06 -7.12457e-06 4.78809e-06 1.05464e-05 -9.13545e-06 2.61889e-06 1.86771e-06 
-4.55448e-06 -7.41773e-06 1.24646e-05 4.20466e-06 5.5553e-06 7.78521e-06 4.65452e-06 5.82092e-06 1.36113e-06 
3.37486e-06 -1.06572e-06 1.21434e-06 4.43646e-06 4.66971e-05 0.000386701 0.00048908 1.55938e-05 4.30457e-06 
-3.57415e-06 -3.88383e-05 -3.56729e-05 -1.22643e-05 8.02898e-06 3.20384e-06 -9.33449e-06 8.89631e-06 1.12176e-05 
-3.18164e-06 5.22652e-05 -4.14117e-05 2.21371e-05 1.98103e-06 3.93748e-06 -6.53818e-06 -4.15575e-05 3.7535e-06 
-2.98366e-06 -2.85035e-05 4.66203e-05 -1.16393e-05 3.78228e-05 6.31257e-05 -2.22065e-06 1.40817e-05 8.59433e-06 
-9.01804e-06 1.51863e-05 -1.88305e-06 8.02166e-06 -1.30317e-05 -7.62543e-06 -1.46667e-06 -1.98989e-06 9.40118e-06 
4.77702e-06 -5.31508e-07 3.29128e-07 2.24025e-06 -1.10698e-05 -2.4339e-05 1.1726e-05 9.34959e-06 4.09161e-05 
1.99219e-06 6.03924e-06 -4.74418e-06 -9.46617e-06 6.96535e-05 3.75992e-05 3.99631e-05 7.35948e-05 -3.86282e-06 
0.000691096 -3.25945e-05 3.25381e-05 -1.50704e-05 1.35066e-05 -1.02911e-05 -1.29642e-05 -1.22711e-07 5.28509e-05 
9.65992e-06 2.40388e-05 1.19485e-05 0.00503661 -0.00332787 1.3884e-05 2.40424e-06 -1.35532e-05 2.74157e-05 
-3.1729e-07 3.65005e-06 4.61205e-06 0.000215235 -0.000254577 -2.37949e-05 1.37655e-05 2.21478e-05 6.39494e-07 
1.35742e-05 -1.95366e-05 -1.17202e-06 2.53536e-06 1.49656e-05 7.60259e-06 0.000348203 -0.000281959 -1.30776e-05 
-3.26521e-05 -2.66408e-05 2.48089e-05 0.000438597 -7.43676e-05 1.07093e-05 0.000502938 0.000298654 4.63598e-06 
0.00148445 0.000514113 -3.67063e-06 -0.0407923 -8.3384e-06 6.38817e-06 4.40077e-06 4.32518e-06 3.40299e-06 
2.67805e-06 2.22135e-07 1.66375e-06 1.2962e-07 4.40257e-09 -1.23391e-06 -4.94e-07 -1.31252e-06 -9.20943e-07 
-1.90363e-06 -2.61186e-06 -3.1733e-06 -4.53531e-06 -7.88594e-06 -9.54877e-06 -1.13108e-05 -1.20648e-05 -1.39729e-05 
-1.91715e-05 -1.54615e-05 -2.22701e-05 -3.50179e-05 -2.84646e-05 -2.10149e-05 -9.57401e-06 9.39268e-06 -2.07887e-05 
9.99864e-06 3.29561e-05 3.79075e-05 2.23109e-05 1.79445e-05 -7.86741e-06 -4.21985e-05 -0.000103575 -0.000109674 
-4.83274e-05 -8.88118e-05 -7.29558e-05 -7.54556e-05 -3.776e-05 -7.577e-05 -6.98107e-05 -2.11271e-05 1.62509e-05 
1.70817e-05 6.63133e-05 5.63944e-05 3.36392e-05 2.16761e-05 -2.32815e-05 -4.96836e-06 -1.90732e-05 -1.46088e-05 
-1.89984e-05 -1.24319e-05 -1.41479e-05 -3.5987e-06 -8.36578e-06 -1.0253e-06 -9.38403e-06 -1.51803e-06 1.21133e-05 
2.65493e-05 4.08933e-05 -2.0214e-05 -2.76536e-05 -4.48511e-05 -6.34e-05 0.000102521 0.00010722 0.000181375 
0.000156359 0.000308275 0.000240591 0.000685004 0.000448917 0.00137293 0.00174889 -0.0105928 -2.07837e-05 
-1.18843e-05 5.12261e-05 0.0381338 -0.0596795 -9.21076e-06 -1.16597e-05 -0.0216888 0.00630135 -0.0027758 
-0.000769526 -5.25917e-05 -0.000324835 -0.000129776 -0.000235237 -0.000120413 -0.00017087 -8.70405e-05 -0.00010798 
-6.05091e-05 -8.81651e-05 -5.74398e-05 -7.09953e-05 -4.66365e-05 -6.19574e-05 -3.52534e-05 -3.10999e-05 -2.37137e-05 
-3.4906e-05 -2.60433e-05 -3.7126e-05 -2.25855e-05 -2.74709e-05 -1.88957e-05 -2.43938e-05 -1.51232e-05 -1.83107e-05 
-8.98219e-06 -9.29656e-06 2.16021e-06 8.51597e-06 1.53677e-05 1.67729e-05 1.94e-05 2.28075e-05 3.02731e-05 
2.94992e-05 2.02582e-05 4.4189e-05 3.14799e-05 6.22755e-05 3.0681e-05 4.88952e-05 2.01701e-05 2.72139e-05 
4.06998e-06 -6.51306e-06 -1.19542e-05 -2.28174e-05 -2.69524e-05 -4.50281e-05 -3.75645e-05 -4.66743e-05 -3.48442e-05 
-4.53544e-05 -3.85397e-05 -4.50234e-05 -3.66772e-05 -3.91857e-05 -2.97992e-05 -3.19743e-05 -2.5757e-05 -2.91871e-05 
-2.43057e-05 -2.16596e-05 -1.82003e-05 -1.58463e-05 -1.49801e-05 -1.24566e-05 -1.34592e-05 -1.11469e-05 -1.05344e-05 
-8.17407e-06 -6.81033e-06 -4.14679e-06 -5.06574e-06 -1.82477e-06 -2.57258e-06 1.69746e-06 4.49807e-07 3.23222e-06 
1.85336e-06 2.13554e-06 3.24478e-06 -2.63494e-06 -9.35006e-07 4.19219e-07 3.88249e-07 1.02825e-06 -2.02052e-06 
-5.04424e-06 4.42434e-07 -2.59924e-08 -1.00466e-06 1.33008e-06 -8.6688e-07 2.83697e-06 4.95956e-08 3.20234e-06 
3.98398e-07 3.56283e-06 3.34945e-08 3.42727e-06 -3.91608e-08 3.34523e-06 1.66272e-06 8.95368e-07 -2.5965e-06 
2.93929e-09 3.07369e-06 1.19756e-06 -7.40896e-07 1.40064e-07 6.79473e-07 -2.91632e-08 1.42365e-06 7.24839e-07 
5.1121e-07 2.88281e-07 3.80257e-06 3.20562e-06 2.1818e-06 1.00312e-06 4.50608e-07 -3.27049e-06 1.2277e-07 
-2.04292e-06 -3.31807e-06 -1.20041e-06 -2.95149e-06 -5.49043e-07 -3.11449e-06 -9.40419e-07 -2.33561e-06 -2.47956e-06 
-4.26434e-06 3.21906e-06 -1.938e-06 1.3393e-06 7.26369e-06 0.00210734 -0.00147243 0.00123567 0.000700688 
0.000410564 0.000145071 0.00101787 0.000151303 0.00154919 -1.21456e-05 0.000336947 0.000204137 0.000933656 
0.00029211 -0.000111419 -0.000632782 -0.000262745 -0.000665101 0.000157604 -0.000315422 0.000275209 0.000367208 
0.000174065 -0.000119424 3.57725e-05 -0.00147737 0.00116179 0.000393453 -0.0011562 -0.000436079 -0.00035955 
-0.00215868 3.26235e-05 0.00178952 0.000165308 -0.00295838 -0.00258705 2.51186e-06 -8.03389e-07 -2.92737e-06 
4.0031e-09 -0.00395178 0.00479556 0.00444687 -0.00363754 -0.00434121 -0.00347856 0.00339722 0.00342194 
0.00373929 0.00348656 0.00278243 0.00380323 0.00356348 0.00211928 0.0024773 0.00350331 -0.00350952 
0.000142803 0.000114915 0.000116923 -0.00199029 0.00423389 -0.00387949 0.00259247 -1.49879e-06 0.00394468 
0.00391693 0.00339685 0.00398205 3.67538e-05 -2.20108e-05 2.46472e-06 -0.00420582 -0.00440336 -0.00346733 
-0.00331563 0.00199092 2.58147e-06 2.26458e-06 -0.00212978 0.00260246 0.00292859 0.000179227 0.00400679 
-0.00243645 0.00299813 0.0224361 -0.000238189 -0.000367906 0.00540087 8.39954e-06 -3.91987e-05 -0.00531685 
1.62856e-05 6.64851e-06 -1.06331e-05 1.35172e-05 -3.74013e-05 -2.61904e-05 1.4559e-05 -2.01492e-05 -0.000642305 
-0.00489477 0.00509731 -0.000143948 0.000244293 -1.08392e-06 1.30368e-06 1.10729e-06 -2.10454e-06 -3.54458e-05 
1.07059e-05 1.73096e-05 -2.51615e-06 4.58138e-05 -1.36092e-05 1.39927e-05 -1.10252e-06 2.0827e-06 2.3643e-06 
-1.11208e-06 -8.29548e-07 2.02583e-06 3.95339e-06 2.19523e-06 -1.5854e-06 4.99075e-07 3.45599e-06 -3.5737e-06 
-5.76554e-07 -4.92261e-06 3.08679e-06 -2.08848e-06 1.93485e-06 2.39179e-06 3.22497e-05 -5.41871e-05 0.000258578 
-6.23163e-05 4.46947e-06 -1.47349e-06 2.63279e-06 3.65053e-06 1.71759e-06 3.80738e-06 -5.05766e-07 -7.25665e-07 
-5.4135e-07 1.90817e-05 -1.21799e-05 2.39056e-05 -3.76009e-06 -5.95588e-06 -3.97326e-06 -6.30148e-06 8.196e-06 
1.63803e-05 -1.16729e-06 -1.77909e-05 -4.29963e-06 4.06963e-06 -1.1318e-06 -1.0801e-06 1.77545e-06 -2.2455e-05 
-1.24476e-05 -2.42208e-06 9.77262e-07 -1.0754e-06 -6.84509e-07 0.0304538 7.63468e-07 -1.94456e-06 -5.08256e-07 
2.08749e-06 -1.65148e-07 -1.53607e-07 3.18812e-05 -2.6919e-05 -6.41101e-05 2.31256e-06 1.06105e-06 2.99811e-06 
2.98294e-07 -3.27575e-06 -1.3584e-05 7.68065e-06 -3.29062e-05 1.94363e-06 2.29718e-06 4.01706e-07 1.97198e-07 
1.18793e-06 7.69957e-05 1.57646e-05 -7.84598e-06 2.88553e-05 -2.11532e-05 -0.000362915 -9.17224e-05 7.75627e-05 
0.000203663 2.66797e-05 5.45835e-05 2.47914e-06 2.80395e-06 -1.52269e-06 6.0513e-05 0.000317747 -0.00115645 
1.22953e-06 7.52516e-07 -1.90629e-06 4.40392e-06 1.97379e-06 -7.05889e-05 -1.28075e-05 -1.95968e-05 2.0776e-06 
4.90126e-06 -6.79839e-07 1.91076e-06 3.62251e-06 6.46796e-07 2.27669e-06 -7.00683e-07 7.69232e-08 -5.19225e-06 
7.60086e-06 -3.20497e-05 -6.34555e-06 -3.03483e-05 4.0643e-06 -6.07846e-06 -2.6656e-05 -3.16711e-05 2.41812e-07 
8.63224e-05 -3.6818e-05 3.57541e-05 -2.21743e-05 -2.51252e-06 -1.78911e-05 -3.31594e-05 -6.67726e-06 1.4357e-05 
1.84997e-06 3.18788e-06 2.1403e-06 1.44233e-06 -1.90654e-05 -3.77272e-06 -1.05094e-05 -5.72241e-06 4.49653e-06 
5.87533e-06 7.19482e-06 8.54321e-05 8.37916e-05 -0.000125679 -2.37454e-07 2.28858e-06 0.00685731 0.00456834 
-0.015085 -3.59684e-06 -3.18586e-06 -1.69029e-06 -0.02329 0.00114628 6.61885e-05 0.000548568 -3.45372e-06 
-1.30359e-06 -7.25411e-06 -3.31504e-06 2.41356e-06 1.46434e-06 5.77943e-07 1.63034e-05 -1.285e-05 -1.37575e-06 
-8.34651e-06 -2.3868e-09 -3.62236e-06 1.8716e-07 -0.0228395 -0.000241001 0.0225662 8.66629e-07 2.77688e-06 
-4.72692e-06 4.90519e-08 1.48281e-06 9.36833e-05 -2.37295e-05 9.18267e-05 -9.88269e-06 6.01327e-07 -2.20721e-07 
-3.08001e-07 9.55417e-07 0.000506498 -0.00561671 0.000330118 -5.66813e-05 -0.000303037 -2.57399e-05 -5.54616e-06 
-5.05947e-06 -7.11637e-06 0.000104604 -9.67613e-05 -7.02072e-05 -9.61418e-05 -5.00686e-05 -2.12835e-07 -0.000116079 
-1.37577e-05 1.91019e-05 4.70648e-06 -5.2929e-06 1.17975e-05 -1.79144e-05 -5.39367e-06 -1.08538e-05 1.55826e-05 
-2.74314e-06 1.38493e-05 -1.02983e-05 1.01991e-05 1.1834e-05 -4.06299e-05 2.4197e-05 -8.33785e-06 9.0301e-06 
-4.90134e-06 1.13297e-05 -0.0318236 -9.37407e-06 -7.6723e-06 2.54255e-05 1.79512e-05 -1.97351e-06 2.34012e-06 
9.33632e-07 -2.96886e-06 4.99653e-07 -1.9468e-06 -1.16904e-05 2.27889e-07 1.02421e-05 -5.59317e-05 4.25645e-05 
-5.80966e-06 -1.85492e-06 8.11785e-05 -0.00883013 -0.00335344 -0.0037681 -0.000406686 -0.005029 -6.16863e-06 
-7.56729e-06 -5.34356e-06 4.79232e-06 -2.8e-06 1.99107e-06 -3.03306e-05 -1.13269e-05 -3.38785e-05 3.18443e-06 
-1.08146e-06 4.72183e-06 2.34754e-05 6.84498e-06 1.85393e-05 5.19745e-06 -6.67803e-06 2.76174e-06 -2.19081e-05 
-4.82589e-05 0.00576696 -5.21879e-05 -3.02419e-05 -6.01885e-05 -2.62166e-05 -2.00439e-06 1.92561e-07 -9.59272e-07 
1.53263e-06 -2.21689e-07 2.34965e-05 -2.52118e-05 -1.33798e-05 1.30738e-05 -5.17581e-06 -1.6202e-05 2.7713e-05 
-1.48002e-05 -2.13066e-05 1.89895e-05 -5.25163e-05 -1.33552e-05 5.46332e-06 -4.15705e-05 -6.05786e-07 -4.94767e-06 
2.86833e-05 1.03294e-06 -5.91463e-05 4.7614e-05 -4.60684e-06 -1.33719e-05 5.0602e-07 -2.49626e-06 3.19706e-07 
-5.74786e-07 3.13624e-06 1.85136e-06 0.0190001 -0.00168072 -0.0152733 0.000641077 -0.000373672 -0.00215826 
3.20546e-06 -7.28633e-05 -0.0001347 -3.91963e-06 -3.97688e-06 -3.23968e-06 -5.96586e-06 -2.51907e-06 -2.75501e-05 
-1.54904e-05 9.44812e-06 -1.64545e-05 1.60938e-05 -1.18689e-05 4.67006e-06 0.000232825 -2.93687e-05 -0.000107933 
0.000469307 3.20731e-05 2.34305e-05 1.89159e-05 1.28318e-06 -1.40151e-06 -3.10616e-06 -1.85993e-06 -9.454e-05 
-4.26128e-05 3.02568e-05 3.51342e-06 1.22973e-06 5.29716e-07 -2.94849e-06 5.95899e-07 7.0129e-06 -2.06879e-05 
1.66129e-05 4.12818e-05 9.20921e-08 1.34736e-06 -4.06191e-06 -2.90766e-05 1.94681e-05 2.97381e-05 -8.23681e-05 
-6.97701e-05 5.48361e-05 0.0239723 -0.0110286 -0.00894297 -3.19777e-05 -7.72226e-06 -1.67373e-05 -1.92706e-07 
2.88569e-07 8.12025e-07 0.0318999 0.0334187 -0.000578848 -0.000118171 -0.000383059 -0.0305125 0.000410892 
-3.38375e-05 -6.55044e-06 -2.62973e-05 6.08447e-05 -4.45439e-05 0.000724487 0.0292266 0.000652367 6.35523e-06 
-2.76493e-06 2.30607e-05 2.42951e-05 -1.7277e-07 -4.3961e-07 2.0021e-07 -0.00043607 -0.00021224 0.000132778 
-0.000100347 2.33785e-05 3.26114e-05 3.45579e-06 -2.58365e-05 -0.00085786 0.00139182 -3.29355e-06 5.81658e-07 
1.57754e-05 -4.59795e-07 3.65712e-07 -5.04991e-07 0.000639122 -0.000262362 -0.0231775 5.5016e-05 3.57651e-06 
5.14245e-05 -3.51893e-05 0.0239872 2.10291e-06 -0.000478022 2.00834e-06 0.00519062 0.000107139 3.19531e-05 
3.89208e-07 2.3176e-05 -2.93595e-05 1.33835e-07 -7.58459e-07 -3.29666e-06 -4.77271e-06 -9.22187e-07 9.39288e-07 
2.66305e-05 -2.80987e-06 0.00013363 -0.000194444 0.0238331 -3.77396e-07 1.17945e-06 -8.00893e-07 1.10871e-05 
1.46378e-05 1.46252e-05 2.67959e-05 2.46471e-05 0.000139189 7.22205e-05 0.00504938 0.000162764 0.000222781 
-7.08496e-05 0.000102972 7.78984e-05 4.42211e-05 6.78589e-05 1.7948e-05 -5.41941e-06 0.00113436 0.022159 
-4.3865e-05 0.0234816 0.000446835 -0.0222868 -0.00464174 -9.98682e-06 -5.75864e-06 -3.60393e-05 -2.30847e-06 
-0.000288845 0.00023061 -0.000194323 -0.000128448 6.70187e-05 0.00015804 -0.000507591 0.000423766 0.000331277 
2.63036e-05 -5.44997e-05 -8.88433e-06 -3.79923e-05 -1.2246e-05 6.16466e-06 -5.42858e-06 -1.84294e-05 9.13186e-06 
-2.20423e-06 -4.49895e-05 3.40292e-05 -1.14623e-05 -4.33744e-06 -5.4865e-06 -7.45407e-06 2.11883e-05 1.4055e-05 
6.57759e-06 9.38018e-07 5.15093e-07 -9.68473e-07 1.12538e-06 -5.76473e-06 -2.97459e-06 -3.44983e-06 -5.51919e-05 
-2.59417e-07 -8.89289e-06 -1.12113e-05 -2.41521e-06 -1.43624e-06 -5.43191e-07 -2.40457e-06 -1.21783e-06 2.3052e-06 
1.17644e-06 8.65057e-07 -6.01085e-06 -6.66718e-07 -3.45083e-07 -1.58596e-06 -0.000184183 -0.000915577 -0.000102378 
2.38848e-06 6.08139e-05 7.64343e-05 -2.51233e-05 0.00591508 0.000718856 0.000190476 3.05799e-06 -2.67028e-06 
-1.10837e-06 -5.20462e-07 -7.45999e-06 -9.87037e-06 -1.24984e-06 -8.75097e-06 -1.81092e-06 -1.77588e-06 -2.19374e-06 
1.68126e-05 -0.000223914 -1.24264e-06 -4.3396e-06 -9.66207e-06 -5.11771e-06 -1.96052e-07 1.33025e-06 2.40806e-06 
-7.28254e-07 -1.1904e-06 -3.70749e-07 1.47912e-05 -1.77505e-05 -8.67633e-06 -3.20545e-06 -1.23313e-06 -3.09061e-06 
-2.06881e-06 -2.83818e-06 8.40299e-06 9.91149e-07 -2.03397e-06 -1.8889e-05 -4.23839e-05 -4.50574e-05 -0.000100625 
-6.45024e-05 3.52873e-05 0.000122086 1.31605e-06 1.98811e-05 -9.02831e-06 0.000106268 0.000176483 0.00031481 
2.02116e-05 2.10697e-05 -6.15426e-05 3.425e-06 1.18284e-06 1.55579e-06 -2.98794e-05 3.3535e-06 -9.31822e-06 
1.25244e-06 -1.82607e-06 0.0302364 0.00025167 -0.0302948 5.65193e-06 -3.27694e-06 8.64924e-06 -9.02782e-06 
1.7261e-06 -9.39691e-07 -5.87999e-06 6.15663e-06 7.29606e-06 1.64206e-05 -2.55792e-06 -1.83835e-06 -4.92867e-08 
5.33088e-06 -6.98006e-06 -4.05877e-06 -8.84313e-06 5.39153e-06 1.95673e-05 -6.26036e-06 2.00091e-06 2.40732e-05 
1.41199e-05 -4.37684e-05 1.1641e-06 1.00016e-05 6.19882e-06 -1.25285e-06 -1.57076e-05 -5.03278e-05 -1.72478e-05 
2.19647e-06 -1.22497e-05 -4.1313e-08 -1.30638e-06 1.63741e-06 1.53495e-06 -1.58275e-08 1.46861e-06 -3.90021e-06 
-4.10564e-06 -5.21898e-06 4.09608e-06 -1.14379e-05 3.64369e-05 3.34119e-05 9.81508e-06 -4.02223e-05 0.00015489 
3.45558e-06 -9.36589e-06 -1.30451e-05 2.78383e-06 9.1339e-06 0.00256565 -4.00068e-06 -8.00611e-06 -1.22214e-06 
-1.10805e-06 1.18426e-06 -5.83489e-07 -2.09886e-06 1.65879e-06 -3.82797e-08 0.025004 0.0228804 -7.05479e-07 
-4.79037e-05 1.0552e-08 -3.05553e-05 -4.10791e-06 1.6896e-06 -7.75138e-06 -1.31273e-06 -4.92312e-07 9.67835e-07 
-1.77134e-07 -3.78971e-05 2.29991e-07 -2.3687e-06 -8.95453e-06 -3.33838e-05 4.84812e-07 -0.0300642 3.82878e-05 
2.01789e-05 1.56906e-05 1.54207e-05 4.48257e-06 -1.19142e-05 1.38135e-06 -2.14823e-06 -1.38068e-06 -4.90215e-06 
-6.20978e-06 3.77187e-05 1.65191e-06 1.75725e-06 -3.13494e-06 -9.10609e-06 -1.07587e-05 4.53867e-06 1.07469e-06 
4.67323e-07 -4.03285e-06 -4.16e-05 1.65453e-06 1.54471e-06 -1.15279e-06 2.80611e-06 1.51431e-06 -2.72603e-06 
-2.16675e-06 -3.00299e-06 0.00621565 -1.05466e-05 0.000240463 7.96165e-06 6.1006e-06 6.92902e-06 4.24156e-06 
-2.29305e-06 -6.00069e-07 5.41011e-06 3.11487e-06 3.66628e-06 -1.13409e-05 -7.12505e-06 1.06704e-05 2.7238e-05 
3.19477e-05 -1.65146e-05 -1.68624e-06 2.37975e-06 1.33888e-06 1.26743e-06 -0.0261462 -6.55598e-06 -1.02233e-05 
2.88403e-05 4.2726e-06 2.87476e-07 -4.77317e-06 7.20325e-06 1.9636e-06 -9.57655e-06 -2.10251e-06 2.17869e-07 
1.94643e-05 3.22497e-05 -5.16816e-05 -2.82942e-05 -2.46863e-05 -3.1814e-05 -1.78609e-05 -1.4926e-06 1.28769e-06 
3.34176e-07 0.00387949 -0.00084454 -0.000329207 4.28897e-05 3.05201e-05 -2.93881e-05 2.99761e-05 0.00024864 
-0.0132391 -0.00460562 2.21161e-05 -2.59156e-05 -2.93814e-05 3.09844e-05 -1.68753e-05 -2.83738e-05 -4.60396e-05 
-2.76661e-05 2.38465e-06 -6.4156e-06 -2.01949e-06 -4.07222e-05 -4.85771e-05 -2.99968e-05 -2.11238e-05 -8.08404e-07 
-0.00979966 -0.00218198 -0.00368846 4.23247e-06 -2.22113e-06 -1.0901e-07 -2.17844e-06 -6.48278e-05 -6.0204e-05 
-2.16608e-05 9.31355e-05 -4.29849e-05 4.90614e-06 -9.64156e-06 5.96896e-06 -2.94813e-05 1.89396e-05 -7.89827e-07 
1.22623e-06 7.92155e-06 -4.57191e-05 -1.59662e-05 -1.00438e-05 -4.22796e-06 3.92315e-06 2.72216e-05 4.85664e-05 
-6.35449e-05 -3.40142e-05 3.56085e-06 -6.67797e-05 -0.0226866 0.0230789 0.00159759 3.06807e-07 -7.66966e-07 
-3.56916e-06 -2.55916e-06 -1.38967e-07 4.11883e-07 -4.20262e-07 -0.0320134 -6.99241e-06 -1.01452e-05 -6.38873e-06 
-3.00118e-05 -3.47276e-06 2.81156e-05 3.35277e-05 -1.98511e-05 1.18412e-06 -1.62433e-05 -1.35844e-05 5.70389e-07 
6.84821e-05 -2.30467e-06 0.000644166 -0.000576815 -0.000494347 -4.30129e-05 4.92533e-05 -2.54509e-05 -4.92962e-05 
0.000491525 -3.25582e-05 5.37606e-08 7.06721e-06 2.94874e-05 1.21766e-05 -0.0249839 -0.000306151 -0.00155979 
-8.078e-05 9.44461e-06 -5.88798e-05 3.92172e-05 -2.97563e-06 -2.09318e-06 6.264e-06 4.40539e-06 0.000520331 
0.000710086 -9.95029e-06 -2.6367e-06 5.93204e-05 2.62263e-05 -2.79376e-06 -9.11101e-07 -2.61673e-05 1.34774e-05 
2.56829e-05 -1.22036e-06 1.14957e-06 1.94706e-06 0.0295877 -4.68322e-05 0.00594036 -0.000148316 -9.72023e-05 
7.17145e-05 -5.42516e-05 -4.06857e-05 8.33211e-05 -3.96875e-05 0.00615027 0.00049529 9.50383e-05 -0.00604537 
6.73673e-05 -1.42654e-05 4.39947e-05 -3.34238e-06 6.26259e-06 4.94253e-05 -2.36826e-05 0.000811612 -0.0242332 
0.00113781 2.34566e-06 1.51332e-06 -2.34298e-06 -2.1644e-06 -2.24278e-05 6.40453e-05 -3.76395e-06 -1.64263e-06 
-7.43966e-06 0.000122713 1.19127e-05 3.40842e-05 -8.1703e-07 -4.22922e-05 9.32742e-06 -6.90433e-06 -7.77935e-06 
-0.000178819 0.0224963 -0.000245361 -0.023211 9.16205e-05 -0.000355213 -0.000111994 -9.02603e-06 -2.02145e-06 
1.44306e-05 1.09734e-05 2.334e-05 4.06357e-06 3.82984e-05 -5.29636e-05 -1.0495e-05 0.00103898 0.000905678 
-3.08205e-05 -7.30999e-06 -2.72236e-05 2.63831e-05 1.70241e-06 0.00334925 -1.87895e-06 2.46226e-06 1.10402e-05 
-0.00010923 -5.04738e-05 -5.80158e-05 -2.08823e-05 -3.99714e-05 -1.91386e-05 0.0231388 0.000116397 -0.00124648 
0.00422028 -0.000240239 -1.6269e-06 -4.70718e-05 -4.6043e-06 -0.000563833 -0.000375495 -0.000139615 -5.79409e-05 
-0.000663742 0.00428917 6.72788e-05 6.50305e-06 -2.87789e-05 2.45987e-05 1.34693e-05 3.48175e-05 -4.57337e-06 
-0.0215724 0.00122338 0.0240382 0.000274537 2.68398e-05 0.00595765 9.85984e-08 4.6733e-06 -0.000115167 
3.21695e-05 -0.000157017 0.00136735 -0.00386409 -2.1143e-06 -1.84768e-07 3.10522e-06 2.7591e-06 4.42838e-06 
-2.11535e-07 -2.02334e-05 1.63868e-05 -6.21361e-07 4.18473e-06 -1.23104e-06 -1.40109e-06 -1.88331e-06 -0.000552006 
0.00487434 0.000215612 0.00105024 0.0239926 2.48534e-06 -1.12008e-05 1.34486e-06 3.84161e-07 -3.66781e-05 
6.86146e-05 -1.5804e-06 3.34579e-06 2.06038e-06 1.88473e-06 -7.77856e-07 3.87473e-06 -8.0586e-06 -2.53021e-06 
-7.69839e-06 1.25616e-06 1.74914e-06 1.30698e-06 2.08925e-06 4.15244e-06 4.26525e-06 4.19563e-05 4.06703e-05 
-8.61361e-06 2.44753e-05 -8.00805e-06 5.91976e-07 7.83885e-09 -3.74048e-07 4.78256e-07 8.23475e-07 4.06919e-05 
3.02643e-05 5.18054e-05 1.73159e-07 -1.45722e-06 -3.48711e-06 4.1685e-07 -1.56865e-06 -9.64469e-07 1.8716e-06 
7.76409e-07 1.43522e-06 2.89376e-06 -2.72386e-06 4.68061e-07 -9.46216e-06 -1.08792e-06 1.36029e-05 -9.63268e-07 
1.1173e-05 6.54067e-07 4.21792e-05 -7.93173e-05 -5.80439e-05 3.86522e-05 -4.80446e-06 -2.66324e-06 1.56083e-05 
-2.3892e-05 0.00227341 -0.00110034 0.000360871 -2.82601e-05 4.19107e-06 2.66874e-05 8.33207e-05 2.24573e-05 
1.73079e-05 1.82708e-05 1.71528e-06 1.75681e-05 5.55437e-06 -1.16499e-05 -7.91574e-06 -2.70783e-08 6.66728e-07 
2.03512e-06 -1.34801e-07 -2.38423e-06 8.28238e-07 -4.2044e-07 7.93742e-07 -8.92316e-06 -5.24587e-06 -6.19303e-07 
1.97988e-06 4.34434e-05 5.88677e-05 -4.63984e-05 -3.57412e-05 -4.69797e-05 0.0309331 3.48972e-05 3.47131e-05 
-7.31076e-06 -2.86717e-05 -1.02432e-05 0.000701745 -0.00513146 0.00075981 -2.41376e-05 2.66847e-05 -6.28819e-06 
-4.28491e-06 -5.04875e-06 2.54258e-05 -1.60799e-05 1.44546e-06 -1.15223e-05 3.07905e-06 -3.7837e-06 -6.70961e-07 
-7.01609e-06 1.39018e-05 2.82913e-07 2.65959e-06 2.35517e-06 3.07711e-06 8.4249e-07 1.17595e-06 -4.52682e-06 
-2.48531e-06 -2.59263e-07 3.46713e-07 5.90836e-07 -6.81055e-06 -3.80562e-06 1.91602e-08 2.97503e-05 -1.43959e-05 
3.41807e-07 -2.24899e-05 -0.0311122 0.0309274 0.000422089 1.4444e-06 -2.50922e-05 5.43133e-06 -5.40825e-06 
1.13004e-05 -5.04964e-06 -1.65563e-05 1.55497e-05 -9.69492e-07 2.76134e-06 3.998e-06 2.24392e-06 3.17105e-05 
4.79061e-06 1.48259e-05 0.0283479 2.1124e-05 8.06357e-05 -8.28608e-05 1.4231e-06 1.18423e-06 1.28837e-06 
-9.88747e-06 4.89295e-06 -6.17999e-06 4.67049e-05 -1.35918e-05 5.08967e-06 -0.0316594 0.0314675 0.000138737 
-1.29442e-06 -9.83181e-06 -4.93444e-06 7.4744e-06 -1.4693e-05 -0.000175169 -1.53797e-05 -0.000229629 0.0010108 
1.12782e-05 -1.3598e-05 -6.48086e-06 1.66314e-05 -1.41975e-05 -7.004e-07 -1.05772e-05 1.82149e-05 3.58593e-06 
3.42764e-06 9.42634e-07 -5.35317e-08 0.000398178 0.00211024 0.000847106 7.53786e-06 0.0314599 0.000871686 
4.2264e-06 -4.14341e-06 -1.61283e-06 -2.07943e-05 -2.43605e-05 -4.6931e-05 4.67136e-05 -3.59158e-06 -2.888e-05 
-1.44633e-05 -7.62658e-07 2.53554e-06 1.80338e-06 2.40146e-05 0.0434949 -0.0155359 -0.0182298 -1.36752e-05 
-4.81242e-06 5.48045e-05 3.10896e-05 2.06155e-05 -3.34403e-06 -2.30998e-05 9.19751e-06 -9.70097e-06 -4.91587e-05 
6.49134e-05 -7.88935e-07 -2.53312e-06 -8.09214e-07 2.1108e-06 -8.17194e-07 6.0312e-05 -0.00476973 5.73022e-05 
6.24719e-05 0.000183695 1.27814e-05 -2.12503e-06 2.04918e-05 1.6835e-05 1.54274e-05 2.17371e-07 1.82532e-05 
1.96022e-05 -0.015186 0.03828 9.96522e-06 -1.73543e-05 -5.29959e-06 -1.11724e-05 2.51169e-05 -0.00560174 
-7.81388e-05 4.01853e-05 -3.77817e-06 1.074e-06 -1.47009e-06 0.028663 0.022407 1.37848e-05 3.81382e-06 
-8.79215e-05 0.000127149 0.00101353 -0.00624897 -0.00687897 5.26841e-05 2.53479e-05 5.86702e-05 -8.64745e-06 
2.11825e-06 6.07637e-06 1.66712e-05 5.0188e-06 3.95926e-05 0.00127065 -0.00387814 0.000647201 -0.00400429 
0.0188468 0.0307831 -1.30415e-06 -2.35139e-06 -0.00010934 1.73311e-05 2.62638e-05 -3.08594e-05 4.6387e-06 
-4.09322e-06 8.04078e-07 -1.04655e-05 4.84004e-06 -9.64416e-05 -9.04802e-06 -4.99556e-06 -0.00558956 -6.42869e-06 
-1.73924e-05 -1.7785e-06 -4.0315e-06 -6.63163e-06 0.00013358 -6.73054e-07 1.47238e-06 1.32803e-06 -6.84539e-07 
-4.70018e-05 0.00590891 -1.11416e-05 0.000126951 6.03678e-06 -8.90241e-05 1.90873e-05 -7.03214e-05 1.80787e-05 
1.07616e-05 3.00599e-05 1.40202e-05 0.0004937 0.00014366 0.00484155 -3.42059e-06 -2.16794e-06 0.000988313 
0.000637031 -0.00502895 -8.4008e-07 -1.52684e-05 -2.54334e-05 1.36619e-05 1.79839e-05 -4.20191e-05 1.45418e-05 
4.54922e-05 -4.86426e-05 3.03605e-05 0.00508031 0.000182289 -7.98189e-07 -6.02342e-07 1.94184e-05 3.43503e-05 
-4.13713e-05 2.4182e-05 2.32826e-06 -5.35765e-07 1.99316e-05 -3.24818e-05 1.95219e-05 1.2868e-05 -3.44035e-05 
-9.00361e-06 2.19431e-05 1.01869e-05 6.52104e-07 -6.20216e-07 -0.000138987 6.77524e-05 4.49855e-06 -5.63305e-06 
-8.96739e-06 2.52742e-05 2.59919e-06 -4.3382e-06 -6.99817e-05 -6.68105e-05 5.9117e-05 2.24064e-05 -0.000151144 
-3.17847e-07 -2.35235e-06 -6.95955e-06 -3.48596e-05 -5.74139e-06 6.46246e-08 -6.6338e-07 -5.07036e-05 -4.43489e-05 
-2.72248e-05 -3.16643e-05 -8.23022e-06 -6.02868e-05 -1.28902e-06 3.35895e-06 -4.01087e-07 -1.77315e-07 -5.33149e-06 
-5.45321e-05 4.68759e-06 -2.71133e-05 3.43936e-06 1.66338e-05 1.969e-05 7.3131e-06 -2.72701e-06 -1.91265e-06 
-1.89871e-06 -3.35533e-06 2.24961e-06 -1.19241e-06 1.54888e-06 -1.59899e-07 8.37063e-05 -0.00011253 6.28583e-05 
7.4425e-05 -1.94109e-06 -1.3631e-06 2.47296e-06 1.76399e-06 -0.0287578 3.69407e-05 -0.000279309 0.0030992 
-6.06335e-06 0.00115859 -0.00603303 -5.83603e-05 -5.72342e-05 3.46056e-05 0.0224809 -0.00945802 0.0249921 
-0.000115757 -7.16789e-07 -1.00522e-06 2.32389e-06 -9.33167e-07 4.70079e-05 4.65958e-05 -0.0319755 -9.27015e-06 
-3.06623e-06 -5.14909e-06 -2.64855e-05 3.0027e-05 1.29511e-05 8.04609e-06 -2.80708e-05 2.22181e-06 1.12176e-05 
-2.00443e-05 8.99805e-05 4.37923e-07 4.71408e-08 1.18998e-06 1.94822e-05 4.056e-07 3.08396e-05 -0.000132884 
-0.000144796 2.35486e-06 3.32722e-06 3.5592e-06 9.87748e-05 2.12468e-05 2.65977e-05 0.0254756 5.95421e-06 
0.0372381 0.000267304 0.00532681 -0.00513402 9.31366e-05 -1.32436e-06 2.34576e-06 7.81284e-07 -1.28624e-05 
2.72519e-05 9.04322e-05 -0.000619627 -3.03271e-05 2.60218e-06 -1.31909e-05 -3.18297e-05 -1.10087e-05 -3.07636e-05 
-7.83399e-06 -4.28273e-06 2.50472e-06 -3.83961e-06 1.47464e-06 3.01019e-06 -1.76457e-06 0.000684288 0.00594141 
2.10757e-06 -5.57868e-06 2.22584e-05 -9.66454e-06 -1.18688e-05 2.04538e-05 -1.0385e-05 -5.41156e-05 -1.7693e-05 
3.92711e-05 -2.48383e-06 -7.74453e-06 5.60298e-06 -5.47593e-07 -2.22171e-06 9.16335e-06 2.5567e-06 4.30643e-06 
2.74506e-05 -1.59826e-06 -4.51064e-06 -7.46431e-06 -2.75239e-05 -2.13585e-05 1.93662e-05 -4.17288e-05 7.31034e-06 
-1.09752e-05 8.65974e-06 -1.46688e-05 -8.93846e-06 -2.26605e-05 -1.2511e-05 -1.07662e-05 -5.79047e-07 -3.68186e-06 
-2.99163e-05 -3.44757e-05 7.86324e-06 -1.27688e-06 1.3096e-05 2.60683e-05 -4.61877e-05 -1.34389e-05 9.03631e-05 
2.05904e-06 -1.07867e-06 3.29957e-06 -9.38504e-06 0.00559624 -7.18057e-05 0.000238132 -1.01473e-08 -5.96553e-07 
4.25807e-07 2.83731e-06 1.75333e-06 -8.21299e-08 5.09888e-06 2.3006e-06 6.98946e-06 7.15409e-05 -4.72139e-05 
-4.31304e-05 1.66388e-05 -0.000294153 0.00430285 -5.97333e-05 -2.92296e-06 8.71252e-06 8.09979e-06 -8.37569e-06 
1.06115e-05 -6.74958e-06 -2.2317e-05 0.000482857 4.88346e-05 1.03202e-05 4.07957e-05 -1.8048e-05 2.761e-05 
-0.000686761 -0.000486485 0.000164286 1.43203e-05 1.94699e-06 -2.00787e-06 -6.66495e-06 -6.60846e-06 -2.00236e-06 
1.48584e-05 -1.7132e-05 2.2064e-05 7.40435e-06 7.50151e-05 1.14228e-05 -8.7042e-06 1.44632e-05 1.08703e-05 
-0.0225454 -0.00119745 -0.000619503 2.99167e-06 9.20591e-07 0.0234795 -3.24303e-05 0.000848714 -2.36461e-05 
3.15706e-05 -1.97406e-05 -0.000398999 -8.5719e-06 1.30997e-05 1.71535e-05 -1.79604e-05 9.35844e-06 -1.53842e-05 
2.95415e-05 -0.000221766 3.1516e-05 1.92017e-06 1.61503e-05 3.99086e-05 8.84814e-06 -1.96351e-06 3.26133e-07 
-4.79655e-06 1.96507e-05 1.75988e-06 -6.0636e-08 -3.0884e-06 -7.87259e-07 4.04999e-05 2.05568e-05 6.09906e-06 
-1.44337e-05 -2.06229e-05 1.08534e-06 1.11186e-06 4.93412e-07 3.5689e-06 2.49581e-05 -1.45265e-06 -2.2886e-05 
2.94875e-06 1.29327e-05 -0.00539434 2.62102e-05 -1.00571e-05 8.23654e-06 -8.31725e-06 -5.45305e-05 1.02001e-05 
2.00454e-05 -2.13764e-06 -5.04279e-06 -0.000243185 -4.47226e-06 -2.00219e-06 -1.06715e-05 -3.10722e-05 -0.000223176 
0.000125568 6.81782e-07 -1.93117e-06 -2.21445e-05 -4.28051e-07 3.63873e-06 -4.85268e-07 0.0226918 9.31993e-06 
-9.50613e-06 4.52559e-05 -6.90371e-07 -3.76379e-06 -4.39265e-05 -3.3025e-05 -9.44893e-05 -3.64234e-05 3.56971e-06 
-1.27462e-05 6.24938e-06 1.53457e-05 -2.10694e-06 -8.57723e-07 1.7998e-06 -2.98934e-06 -7.43283e-06 4.19497e-05 
-1.33618e-05 -2.23225e-05 5.78615e-06 -2.4881e-05 -5.49754e-06 -1.21571e-05 -1.35349e-05 1.59888e-05 0.0246989 
0.000803311 -1.87715e-05 -7.7858e-06 -2.66742e-05 -6.05267e-05 -0.000118144 -5.07888e-06 -3.32728e-06 -5.14172e-05 
-7.5503e-05 -0.0284924 3.41648e-06 -1.27002e-06 -9.44351e-06 0.000161168 0.000160792 -0.00451428 -0.00462611 
0.000690494 -4.39022e-06 1.19988e-05 -1.20109e-05 -5.499e-06 -6.15188e-06 -4.09377e-06 5.68637e-05 -7.74032e-06 
-1.03181e-05 -5.96076e-06 2.89789e-07 5.46715e-06 2.87256e-06 -1.91969e-05 0.00593092 -2.03918e-05 -4.72648e-06 
-1.8479e-06 -1.17575e-05 2.57839e-05 -7.07361e-06 1.04341e-05 -5.48165e-06 1.7685e-05 -1.50707e-05 0.0103991 
-6.83989e-06 -5.68214e-06 -2.07593e-06 -0.00143855 -7.11716e-06 -3.26515e-06 -5.53794e-06 2.77527e-05 4.38491e-05 
-2.56711e-05 -1.18072e-06 -9.68991e-07 6.98137e-06 -2.50004e-06 2.60589e-05 -0.00569361 0.0261179 0.0236451 
-0.00642263 -0.000117397 -8.62793e-06 -1.89669e-05 2.80413e-06 1.6111e-05 -0.000146557 -0.000264612 0.00513323 
1.83566e-05 -0.0124152 -6.19642e-05 1.20232e-05 -2.85331e-06 -3.52125e-06 4.89202e-05 4.38906e-05 -5.22609e-05 
5.82809e-06 -2.61864e-05 -7.75122e-06 -2.23986e-05 -0.0213518 0.0246244 -0.00211615 -6.17318e-05 3.81641e-05 
-3.73854e-05 -2.90288e-06 -9.07902e-06 -4.38235e-06 0.000136884 4.47109e-05 0.0234493 -0.0233583 -1.0247e-05 
6.07365e-05 6.27218e-05 -2.77672e-06 -5.25756e-06 -8.98203e-06 -7.07974e-06 -8.59264e-06 6.34987e-07 -2.22347e-06 
-3.47582e-06 -5.22757e-06 3.54913e-06 2.69656e-06 1.71501e-06 2.69547e-06 3.95746e-05 6.60611e-05 2.02285e-05 
1.87686e-05 -1.32804e-05 1.40487e-05 8.34717e-06 4.367e-05 -1.0037e-05 7.28098e-06 -1.42194e-05 3.61986e-05 
-0.000113448 8.17807e-05 -8.36787e-06 -2.47482e-05 -1.6263e-05 4.17626e-06 1.64201e-05 -2.19355e-05 -9.00094e-06 
-6.22254e-06 8.86566e-06 -9.52095e-07 6.36763e-07 -5.04101e-06 -4.64943e-06 -2.00109e-05 5.41823e-06 -7.8959e-06 
-6.27007e-06 -1.46315e-06 -8.79939e-06 9.16713e-07 -3.01886e-06 0.000162253 0.00475985 9.50871e-05 -1.13583e-05 
1.1624e-05 2.12356e-05 -2.232e-05 1.17929e-06 -1.78297e-06 -4.3319e-07 -0.0049124 0.000382875 -0.00436313 
-2.72073e-05 -3.39864e-05 -2.30796e-05 -2.47866e-06 4.9492e-06 -0.0200057 -0.032339 -1.25075e-06 -1.91867e-06 
5.417e-07 2.26388e-06 -1.5803e-06 7.12261e-07 1.83334e-05 2.96927e-05 -4.25682e-06 -7.32934e-06 7.48744e-06 
-6.85458e-08 1.58356e-05 -4.80237e-06 -8.40269e-05 -0.000152374 8.18695e-05 -1.09861e-05 -2.52712e-06 -2.00783e-06 
-5.64498e-08 -1.81382e-05 -1.06966e-06 6.43321e-06 3.63647e-05 -1.35282e-05 -2.23424e-05 2.76492e-06 2.8868e-06 
-1.63757e-05 -6.63798e-06 1.90281e-06 -2.58901e-06 -2.19129e-06 -7.08305e-06 -8.24913e-06 2.76708e-06 -2.0365e-06 
3.4497e-06 2.92418e-06 5.36243e-07 8.7653e-07 -1.59632e-05 -5.43467e-07 1.01692e-05 1.9251e-05 5.31449e-06 
-1.64766e-06 1.44654e-05 -0.0224913 -2.77561e-05 -9.17544e-06 2.52669e-05 0.0236827 -0.0234081 -2.60035e-06 
5.77633e-05 -6.78577e-05 7.15378e-07 -5.4892e-06 2.72891e-05 1.73578e-06 5.88816e-05 -6.02524e-07 -5.45875e-05 
-2.60958e-05 -8.3411e-05 -0.000121657 8.06506e-06 -2.17389e-05 2.16681e-06 -2.61763e-06 4.48983e-06 0.0320186 
2.11161e-05 -4.27354e-08 -4.77125e-06 -5.00384e-05 -1.6763e-05 3.65515e-06 -7.28978e-06 7.99093e-06 -4.38431e-05 
-3.76105e-07 6.01457e-05 7.04323e-05 1.86187e-06 -4.75738e-07 -9.55683e-06 0.000127644 0.000121951 0.000126775 
-5.24654e-07 -2.09272e-05 9.43194e-06 1.46939e-05 8.67246e-06 1.18226e-06 2.22966e-07 -4.35537e-06 7.45698e-06 
4.50498e-05 5.09487e-05 -0.000198507 0.000105347 -3.1676e-06 -8.3151e-07 -1.17242e-06 -5.72349e-06 -1.25856e-05 
3.66764e-06 1.2431e-05 -8.23211e-06 2.90213e-05 0.000158841 4.03806e-05 0.000134146 -0.000124752 3.3525e-05 
-2.93001e-05 -6.02834e-08 -7.05772e-07 3.11112e-05 -4.39627e-05 -7.59125e-05 -9.40517e-05 0.000282019 -0.0060691 
2.77651e-06 -1.54543e-06 -5.99471e-07 2.9423e-07 -2.3444e-05 9.87796e-06 1.16684e-05 -2.63929e-06 -5.23949e-05 
-1.31506e-05 -5.44863e-05 -2.96036e-06 -1.29974e-05 -4.17687e-06 1.28466e-06 3.73064e-06 -1.54966e-05 -2.60493e-06 
-7.12666e-06 -8.02819e-06 -4.59155e-06 -7.54784e-06 5.33985e-05 -5.38827e-05 2.61853e-05 -0.00221856 7.61035e-05 
-4.6496e-05 -1.07889e-05 3.19219e-05 2.2415e-05 -5.40858e-05 1.53706e-05 -6.4981e-06 -2.9526e-06 2.3203e-05 
4.31123e-07 -7.05378e-06 -5.64461e-06 2.43806e-06 3.23817e-05 3.424e-05 3.64175e-06 1.56502e-05 2.23473e-06 
-8.4433e-06 3.2204e-07 -8.66009e-06 -6.50659e-06 -1.17977e-06 1.39633e-06 -3.67234e-09 1.53733e-06 2.70281e-06 
3.48221e-06 3.96373e-06 1.88397e-05 -1.08828e-05 1.2115e-06 1.40048e-07 -3.18208e-07 8.22713e-05 1.11632e-06 
1.83665e-05 -1.54798e-05 -8.38019e-06 -4.17042e-05 -8.3927e-06 3.67904e-05 3.38679e-05 5.04084e-05 1.22288e-05 
9.35592e-06 -3.23442e-05 -1.60502e-05 2.84081e-05 -1.37045e-05 2.92504e-05 2.39999e-05 3.81759e-05 -1.91451e-06 
-2.34896e-05 -2.10788e-05 -2.08328e-05 2.41952e-05 -1.45369e-05 1.09732e-05 2.48675e-05 -2.03854e-05 3.53884e-05 
1.25709e-05 5.27706e-06 -7.00996e-05 2.01472e-05 -4.62026e-06 1.97308e-05 2.44508e-05 6.4211e-05 -0.031828 
0.0316119 1.79733e-05 3.01678e-06 -2.14012e-06 1.86539e-05 -2.19317e-06 2.8594e-05 -6.94341e-06 -7.24747e-06 
-2.54188e-05 -1.14943e-06 -6.75e-06 4.98156e-06 -3.57545e-05 -2.12192e-06 -2.09129e-06 -1.58289e-06 -1.21828e-06 
-7.03071e-06 2.4717e-06 -2.12581e-06 -7.69726e-06 0.000428322 0.0299093 -0.0295801 -3.76331e-05 -3.46783e-05 
-4.62241e-05 -3.96851e-05 1.26293e-05 -1.02185e-05 -3.81237e-06 5.37538e-06 -4.29219e-06 -8.78373e-07 -9.02592e-06 
-4.11524e-05 1.32963e-06 1.50953e-07 4.37438e-05 -9.41898e-07 -1.77493e-06 3.4728e-05 -3.31803e-06 -1.99926e-05 
4.00021e-05 4.93529e-05 1.45299e-05 -2.93079e-05 2.55562e-05 -1.14217e-05 2.11076e-05 5.25637e-06 6.72222e-05 
4.72478e-06 1.36451e-06 -3.05649e-06 6.71992e-07 -3.03247e-06 -6.45198e-06 3.15622e-06 -5.40999e-08 -1.00352e-05 
-6.2324e-06 3.7267e-06 1.17018e-05 -2.33992e-06 1.34548e-05 7.32e-07 8.16616e-06 -4.78405e-06 2.58672e-05 
-3.12642e-06 -1.41024e-05 -1.69895e-05 2.60217e-05 -5.83342e-05 4.91791e-05 2.79514e-05 -2.88454e-05 5.86021e-05 
2.88137e-05 1.53511e-06 3.28331e-06 2.22053e-07 -2.86372e-06 -2.40949e-06 3.67677e-05 2.96477e-05 -5.69922e-05 
1.52738e-05 2.27258e-06 6.14053e-07 1.27155e-06 -1.47796e-06 -1.76573e-06 1.3442e-06 9.24936e-06 -0.000139419 
-4.01321e-06 -2.50524e-05 -2.20036e-05 2.93074e-06 -7.18005e-05 7.32908e-06 0.000553997 0.000159291 -3.99993e-06 
-8.24875e-06 4.91014e-06 -1.29349e-05 2.74106e-06 2.88739e-05 -8.55567e-07 2.28418e-06 7.94245e-07 -1.23811e-06 
3.19317e-05 -9.14511e-06 1.62756e-05 8.82623e-06 -1.09056e-05 9.14597e-06 -3.07303e-06 2.10706e-05 -2.42933e-05 
-1.31476e-05 -5.91929e-06 -8.13281e-05 3.05545e-06 9.74274e-07 -1.52706e-05 -3.07676e-05 2.26275e-06 -0.000641618 
7.87377e-06 3.4563e-07 -1.74444e-06 6.43235e-07 1.47204e-06 1.40878e-06 -1.04689e-05 8.981e-06 -6.98558e-07 
2.64077e-06 -4.16027e-06 -8.61052e-06 -1.24721e-05 3.02542e-05 3.7089e-05 -2.00707e-05 1.79899e-06 -1.45902e-06 
2.30318e-05 4.55579e-07 -7.84996e-06 2.09618e-05 -3.62588e-05 1.53561e-05 3.78869e-06 -9.71165e-06 1.42051e-05 
-2.0328e-06 2.17738e-06 1.30564e-05 2.34407e-05 0.0275887 0.0242857 0.000859184 -0.000127957 1.52313e-07 
-2.45925e-06 -1.75598e-05 3.56743e-06 -3.10411e-05 1.20895e-06 1.83141e-06 -3.65632e-05 1.8317e-05 -4.72651e-05 
-1.01772e-05 -4.3875e-05 1.12366e-06 -1.43629e-06 0.000368434 -0.000115248 -4.54932e-06 1.17004e-05 -5.45566e-06 
1.41596e-06 5.74252e-07 4.42878e-06 -2.04312e-06 -0.000165268 0.000170837 3.3877e-05 -7.97639e-05 -0.000126119 
-0.000212753 0.000158734 2.25118e-05 2.16644e-05 -6.46846e-06 -3.64468e-06 0.00607683 0.000417708 -0.0058076 
3.05364e-06 4.45078e-06 2.78206e-05 -2.55169e-05 8.36994e-05 1.11596e-05 -1.31931e-05 2.86701e-06 0.00194354 
-0.0060112 2.55489e-05 3.77996e-05 0.00613575 -2.41124e-06 -5.09014e-05 -4.01291e-05 1.75765e-05 -3.16923e-05 
-4.38468e-06 0.0010392 1.56906e-06 -2.00546e-06 2.10126e-06 -2.81516e-05 -1.52014e-05 -2.21259e-07 2.07199e-05 
3.29878e-06 2.97963e-05 -1.78357e-05 0.000327196 -0.00456766 0.000127927 0.00621202 1.72685e-05 -0.00290876 
0.0340719 3.46913e-06 1.60423e-05 -3.40197e-05 5.60252e-05 3.59499e-05 0.00117492 -0.000293038 -4.32577e-05 
2.21173e-06 0.000195394 0.000213246 -0.00455238 6.29982e-06 9.07186e-07 -0.000371994 -0.000406881 0.00536672 
0.0122697 0.000571747 -0.00530265 -3.33542e-05 3.41767e-05 3.4257e-06 -0.0289466 -5.46489e-05 3.57344e-05 
-1.19293e-05 -1.99645e-05 -2.35528e-05 9.87884e-07 -1.05022e-06 1.55097e-06 1.80982e-06 3.48027e-05 1.96188e-05 
0.00025578 0.0288236 0.00242815 1.07683e-06 1.04739e-06 -6.4818e-07 3.44451e-06 1.70948e-05 -0.00579364 
-5.65995e-05 4.11843e-05 6.30517e-05 -5.60388e-05 3.11238e-06 2.47807e-06 -2.82481e-05 1.72735e-06 -3.75025e-06 
3.7009e-05 -3.42544e-05 2.41117e-07 0.000376982 0.000279022 0.000103481 1.64443e-05 -4.92294e-05 6.40516e-07 
-3.36623e-06 -1.27574e-05 -1.51103e-05 -1.25069e-05 -2.23808e-05 -3.50985e-06 -2.29587e-05 -3.67986e-05 -1.66867e-05 
1.56469e-05 1.2723e-06 -5.06672e-07 9.98103e-06 6.44658e-05 -3.01059e-05 -3.69078e-05 2.52186e-05 4.10566e-06 
-1.56924e-05 1.9988e-05 5.54706e-06 -4.01283e-05 -9.4901e-06 1.33034e-05 1.83579e-05 1.37132e-05 -2.04997e-06 
-3.09562e-06 -3.2805e-05 -2.1738e-06 -2.84189e-05 1.63947e-07 -5.43664e-07 -1.69283e-07 -1.506e-05 3.14771e-05 
1.82894e-05 -0.000173105 -7.61199e-07 4.59458e-05 2.60479e-05 -2.78711e-06 1.00312e-05 -6.82079e-06 -1.05985e-05 
2.10746e-06 -6.24168e-06 6.23129e-07 1.57778e-06 -6.07259e-06 -4.68492e-06 -2.6905e-06 -7.97252e-06 1.85732e-06 
-5.89187e-06 -1.76733e-05 -5.7953e-07 -3.23379e-05 2.78053e-05 1.80415e-05 4.8738e-06 -4.07207e-06 -3.13634e-07 
2.86597e-07 -1.29449e-05 -9.19917e-06 -1.12561e-05 -0.00347742 -0.00511392 -0.000121746 0.00519371 -3.95456e-06 
1.76616e-06 -2.33321e-08 4.83571e-05 -8.89611e-06 -6.95741e-05 9.30832e-05 5.11552e-05 3.03893e-05 -1.43843e-05 
-0.0059138 -1.52756e-05 -1.46114e-05 -3.32301e-05 -1.0776e-05 -2.25635e-05 -3.34793e-06 -1.34725e-05 -1.44805e-06 
2.93123e-06 5.62225e-08 -1.76136e-05 -9.83185e-05 1.06066e-05 -1.11516e-07 -5.12152e-06 -4.64251e-05 -4.41071e-06 
-3.76112e-06 -9.05346e-06 -2.17796e-05 1.03542e-05 5.73319e-06 1.72101e-05 6.83606e-06 8.11092e-06 1.17317e-05 
2.07052e-05 -1.02805e-05 4.32893e-06 1.40061e-05 4.56939e-06 -6.27774e-05 -1.51482e-05 0.00018105 -0.000294035 
-1.79942e-05 1.979e-05 3.14911e-05 0.000108564 1.02143e-05 -1.07362e-05 3.51812e-05 -7.60063e-06 0.000814507 
6.76175e-05 0.00101117 -9.35463e-05 -2.40073e-07 7.04177e-06 -0.0059013 8.26101e-05 -4.34792e-05 -0.031656 
1.86955e-05 -3.13667e-05 1.7353e-06 2.99307e-06 9.0995e-05 5.43115e-05 -1.03512e-05 0.000412098 -8.38284e-06 
-6.88765e-07 -3.00701e-06 8.28103e-06 3.92919e-05 0.00550003 -9.07718e-05 -0.00492342 0.0241217 0.00015488 
3.05716e-05 -1.56986e-05 -1.60357e-05 6.77812e-05 -0.0227724 -5.56361e-06 -3.74994e-06 -6.41285e-06 -1.96418e-06 
-9.4156e-07 2.42907e-06 1.91213e-06 -8.6482e-05 8.52191e-07 1.07315e-06 3.798e-06 1.28074e-06 -5.69966e-09 
3.35326e-06 1.79512e-06 3.50205e-06 3.51362e-06 3.60208e-05 -6.35058e-07 -2.14052e-05 -2.53203e-05 -3.03804e-06 
-5.73507e-06 -3.80744e-05 1.58517e-05 -7.2546e-05 -1.37548e-05 2.8369e-06 -1.45382e-06 3.12286e-06 1.97978e-06 
-9.24147e-05 -3.94516e-07 4.8988e-06 -1.41622e-05 -1.00365e-06 -9.08804e-06 -1.36546e-05 1.75236e-05 -3.38361e-05 
-9.06809e-06 2.0174e-06 -1.14094e-05 0.000336378 -0.0019131 -2.4444e-05 -5.98737e-06 -4.12038e-06 -1.04172e-05 
-1.16141e-05 2.30173e-06 2.5091e-05 -1.1722e-05 0.00571765 -0.00062573 -2.34574e-05 1.85319e-06 2.03447e-05 
-6.53501e-06 -4.32078e-06 -2.82093e-05 -0.000151635 1.46493e-06 1.27869e-06 -1.38644e-06 3.00177e-06 5.02039e-06 
-6.90435e-06 -3.58759e-05 2.00741e-05 -2.89672e-05 -2.98633e-06 -3.14485e-06 -1.14179e-06 -5.09797e-07 -1.82554e-05 
-0.0237792 -0.0231204 1.32117e-06 -3.8577e-06 -1.54118e-05 -1.33376e-06 2.08416e-06 -2.9823e-06 -3.53763e-06 
1.77843e-06 1.51243e-06 3.17977e-06 -2.0407e-06 1.54263e-07 1.74035e-06 5.11397e-07 -1.67608e-06 -4.71646e-06 
1.17321e-05 2.71431e-05 -0.000145558 1.50486e-05 2.09335e-05 -2.18453e-05 -0.000166845 2.97958e-05 -2.48783e-05 
-2.33777e-05 6.86792e-07 -2.65248e-06 -8.71996e-06 2.8632e-06 1.67269e-05 -6.83845e-06 -8.25741e-07 6.38121e-06 
-1.92784e-06 -0.000103037 2.56297e-05 6.44277e-05 7.41316e-05 0.000209401 -1.12257e-06 -2.06389e-05 -9.00231e-06 
0.000204082 2.6387e-06 5.68762e-05 2.83481e-05 -1.05242e-07 -1.80798e-06 -0.00480144 5.44883e-05 3.04416e-06 
-0.000363216 -0.000448048 -9.21665e-06 -4.44309e-06 4.088e-05 -4.76008e-07 -5.24203e-05 -2.6153e-05 -0.0074471 
-0.0230686 -4.44206e-06 3.23393e-06 6.24434e-06 7.4065e-06 -4.28747e-05 -8.43454e-06 -8.88236e-06 4.16859e-05 
6.50095e-07 2.38948e-05 -9.11813e-07 -3.31384e-05 -3.90342e-06 -3.30427e-05 2.29238e-06 -3.48948e-05 -2.18717e-05 
-0.0121908 4.36411e-05 3.94644e-05 -1.9475e-05 2.0756e-07 2.74953e-06 1.80206e-05 -1.5604e-05 -6.11365e-06 
-2.1745e-05 1.73662e-06 -8.98916e-06 -6.92828e-06 -6.11758e-05 0.000429123 2.4295e-06 -6.1699e-06 1.04542e-05 
-1.72627e-06 4.72322e-07 -1.54632e-06 8.7645e-06 -6.18885e-06 -7.42249e-06 -2.19806e-05 1.82228e-05 -4.88839e-06 
1.87889e-07 -1.72483e-05 -5.50691e-06 0.000126956 -7.52611e-05 1.14055e-06 -1.37453e-05 -2.4248e-05 5.45018e-05 
8.27417e-06 -5.24389e-06 -2.46444e-05 -6.3227e-06 5.04535e-05 0.00140512 8.73345e-06 -6.50266e-06 -1.27044e-06 
1.17638e-07 2.49801e-06 6.15908e-07 2.01279e-06 -7.18268e-06 -5.93545e-06 -0.00516483 9.82497e-06 -1.79142e-05 
3.42888e-05 -1.64592e-06 -2.48056e-05 -3.4337e-06 1.45589e-05 -0.000106111 -5.95094e-05 -1.11371e-06 5.21019e-05 
0.000117678 2.05051e-05 -1.65772e-05 8.89073e-06 -3.74753e-05 8.58566e-06 3.11494e-06 2.19389e-06 1.8353e-06 
0.0286527 -1.22693e-06 -4.5163e-07 -2.95304e-06 -1.4366e-06 -3.87958e-07 -2.6415e-06 -1.74628e-05 1.60003e-06 
-3.06164e-06 3.30777e-07 1.51055e-05 -9.22642e-06 2.49426e-05 1.30416e-06 -2.28443e-06 -1.56835e-06 -5.27359e-06 
1.97779e-06 1.7121e-06 2.32464e-06 3.96768e-05 -4.33031e-05 2.89356e-05 -2.41006e-05 -5.20181e-06 0.000519047 
-0.00149833 0.000650324 1.07404e-06 0.000121958 -4.9683e-05 4.60205e-05 7.62771e-05 -2.00939e-06 4.095e-05 
-5.59069e-07 -3.30921e-05 -3.31447e-05 1.15481e-05 -2.26896e-05 1.38365e-05 -7.2965e-05 1.76426e-06 3.10045e-06 
6.98822e-07 -6.95419e-05 -5.33453e-05 5.13371e-07 3.93272e-07 -7.31659e-07 -6.09608e-06 1.35482e-06 -1.30311e-06 
-6.79493e-06 -3.81686e-05 0.000376996 1.0734e-06 1.06258e-06 4.63319e-07 -6.78841e-05 -1.10059e-06 1.10853e-06 
8.72069e-07 -2.39498e-06 1.59751e-06 4.64665e-07 -1.3085e-06 2.15849e-05 1.40849e-05 -5.6519e-06 2.04668e-06 
-5.24902e-06 7.34203e-07 2.88705e-05 1.15979e-05 -6.52268e-06 1.4569e-05 -1.09656e-07 5.18875e-06 1.18892e-05 
-2.78005e-05 4.58886e-06 1.8779e-05 -2.03769e-06 -2.24995e-05 -4.10744e-07 1.22824e-06 -3.37532e-06 -3.08765e-06 
-6.571e-06 -1.02877e-05 8.48895e-05 3.02654e-06 -1.88832e-05 -5.77975e-06 -5.44895e-05 -5.47276e-06 0.0314319 
-0.0311374 4.42075e-06 -2.08473e-06 -2.94403e-08 -6.48333e-07 2.92395e-06 -1.79869e-06 -1.61434e-05 -6.53892e-06 
-2.36598e-06 -4.10546e-08 6.16991e-05 -3.88815e-05 5.291e-05 -3.19946e-05 -1.57703e-05 0.00492453 -5.36831e-06 
-7.34499e-06 -1.37521e-05 7.12803e-06 -2.65294e-06 7.82762e-06 -3.83667e-05 -0.0273665 3.17431e-05 -5.24831e-06 
-1.12578e-05 -0.00476204 -0.00473436 5.30359e-06 5.40165e-05 1.36297e-05 3.99607e-05 1.3744e-06 2.25609e-07 
-1.68238e-06 -1.86701e-05 -5.95328e-05 1.31594e-05 1.84684e-05 3.06715e-05 -4.25433e-05 1.87365e-06 3.21982e-05 
0.00380924 -3.80172e-07 -2.66849e-06 7.99015e-07 -1.15703e-05 -4.73866e-06 -1.22382e-05 3.7366e-05 -2.04355e-05 
1.02372e-05 -2.47385e-06 6.95345e-07 -2.28589e-05 2.39547e-05 -5.55974e-05 1.65802e-06 -2.1261e-05 -1.90475e-05 
-8.60969e-06 -3.6539e-05 -4.57208e-06 -1.18258e-05 3.61755e-06 5.33154e-05 -1.66825e-05 -1.06044e-05 -1.93082e-05 
5.03008e-06 0.0059198 3.44285e-05 -6.53028e-07 -0.000105963 1.00445e-05 1.74449e-05 1.2097e-06 -2.28584e-06 
1.01829e-06 -7.35902e-08 -3.35078e-06 2.3168e-05 0.00102941 -3.2375e-06 -9.07807e-06 -4.83853e-06 -7.64806e-06 
1.9801e-06 3.86153e-05 1.03898e-06 1.05655e-05 1.7523e-05 1.2328e-05 1.36446e-05 5.82109e-05 -1.79764e-05 
2.34529e-05 -7.2043e-06 -2.11264e-05 1.69594e-05 1.73626e-05 -4.86477e-05 1.15319e-05 -3.81871e-05 1.50624e-06 
-8.60474e-06 9.43379e-06 -5.43417e-05 2.54368e-06 -2.16516e-08 1.09414e-05 3.00604e-05 9.10794e-07 1.83054e-06 
-7.17251e-06 3.30307e-06 2.16541e-06 5.89926e-06 -1.034e-05 -9.48273e-07 -8.61631e-06 2.71514e-05 -4.43533e-05 
-5.21802e-06 2.46616e-06 1.5463e-06 1.06753e-05 1.32543e-05 3.14495e-05 -0.00130785 1.00476e-06 -3.74564e-06 
-4.3663e-06 2.97231e-07 6.24599e-06 2.77168e-06 1.64986e-05 9.83037e-07 -8.09886e-06 -1.11042e-05 5.13869e-06 
0.000144872 -0.00521241 2.53621e-07 1.01575e-06 -1.18069e-06 -7.31892e-07 -7.11695e-06 3.6101e-06 -1.4225e-06 
3.80808e-05 2.73194e-05 2.73292e-06 -3.91883e-06 5.51353e-06 -7.31833e-05 -1.84005e-07 0.00450834 -3.18487e-05 
-2.454e-06 7.13758e-06 3.18725e-06 1.89045e-05 1.97534e-05 -2.07152e-05 -3.72649e-06 4.38343e-06 3.2145e-05 
-7.43479e-06 -9.42403e-05 6.75632e-05 4.55068e-05 -0.000108185 -0.000121959 5.28716e-05 1.71055e-06 -2.68917e-05 
9.60846e-06 -5.99127e-06 1.09774e-07 -1.07697e-05 -2.78396e-05 1.45661e-05 1.86698e-05 -8.50983e-05 0.000115077 
9.92264e-07 3.75069e-06 -1.87555e-05 2.00597e-05 1.56213e-07 -0.00482602 2.16117e-05 1.10272e-06 -4.62587e-06 
1.41719e-05 -4.75096e-06 -7.02535e-06 -4.67921e-06 4.92847e-06 -2.78655e-05 -0.000129356 -0.000168567 -0.00431624 
5.41536e-05 8.1696e-06 4.48207e-06 0.000452074 -0.0276867 -0.012816 2.28835e-06 0.00582238 -0.000134976 
-1.34944e-05 -1.37444e-05 -6.61911e-05 3.07394e-05 5.38806e-07 -6.82091e-06 -4.85121e-07 -6.25263e-06 -0.00106841 
-0.00074867 0.000681916 1.96222e-06 6.66945e-07 -1.80785e-06 -7.31689e-06 -6.13148e-05 -1.03507e-05 3.0385e-06 
-6.51202e-07 -3.95454e-05 3.97738e-06 -8.61209e-05 2.00246e-05 1.5069e-05 -1.32613e-05 4.76169e-06 2.14819e-05 
-3.58765e-05 -5.82536e-06 7.44402e-06 -1.22926e-05 -1.01249e-07 -7.73936e-06 -4.2633e-07 1.58492e-05 -6.56772e-07 
6.02529e-06 3.55543e-05 -3.84155e-05 -2.06746e-06 -1.04638e-06 -1.70459e-06 3.3863e-07 1.70837e-06 2.33816e-06 
-1.90888e-06 -0.00170581 -5.02973e-05 -1.7205e-06 -3.87472e-06 -2.97486e-06 2.37506e-06 -6.48092e-06 -1.09109e-06 
3.08203e-07 -2.22386e-06 -7.81342e-07 2.466e-06 -4.5877e-05 1.03103e-05 -2.45175e-05 -2.3525e-05 -0.000121264 
7.63926e-05 -3.30195e-05 -1.67366e-05 1.43804e-06 8.19647e-07 1.32486e-05 -2.11873e-06 -5.96202e-06 -5.49989e-06 
-6.29296e-06 2.06191e-05 -3.72726e-05 -0.000104043 -1.57306e-05 1.1479e-06 1.44765e-06 1.33115e-06 -3.76884e-06 
-5.07862e-06 -9.73332e-06 1.40727e-05 3.85883e-05 -1.09332e-06 -0.00518365 -7.23414e-06 0.00305541 6.82418e-06 
-1.07148e-05 -5.38112e-06 9.49956e-07 -0.000205561 -0.0303536 7.67149e-05 5.38768e-05 1.20805e-06 1.85573e-06 
-1.61611e-06 1.91646e-05 -2.29428e-06 -0.0251139 0.0248754 -5.63569e-06 9.63085e-09 -7.95611e-07 3.16327e-05 
1.35708e-06 -7.60806e-06 1.83371e-05 1.90776e-06 -6.49372e-06 2.17509e-05 -5.07179e-07 -5.10835e-06 2.05689e-06 
8.11179e-06 -2.84389e-06 -0.0310065 0.000124815 -5.73281e-06 -9.71517e-05 -5.71883e-07 4.37761e-05 2.78055e-05 
-1.29575e-07 -7.18099e-05 0.005972 -7.35931e-06 1.3525e-05 -1.77111e-05 2.22706e-05 -7.68175e-06 3.5226e-06 
-2.50786e-05 -6.53643e-05 -1.70219e-05 -4.34331e-05 -1.24597e-06 -2.61149e-06 1.14131e-05 1.91699e-05 -4.44125e-06 
1.0117e-05 1.84087e-05 -0.0358042 -9.49468e-05 5.70694e-05 0.0303028 0.0357114 -1.04781e-06 0.000107031 
-0.00040669 -3.20583e-06 3.23956e-05 1.02731e-06 -1.44865e-06 2.94242e-07 1.39532e-06 1.55741e-06 2.02437e-06 
-5.91008e-07 -1.5523e-05 -2.05604e-06 0.0014959 0.000374173 -0.00399921 -0.000114265 -8.02762e-05 -3.67344e-05 
0.000179755 5.7305e-05 9.91717e-06 -5.13725e-06 1.78043e-06 2.44212e-06 2.61999e-06 -0.00485024 -0.000383357 
0.000184097 -2.0266e-06 -1.10045e-06 -7.37478e-06 3.57104e-06 -8.42515e-07 1.92483e-06 -3.07721e-05 -0.0305039 
2.78457e-05 0.0304313 -6.6458e-08 3.05428e-06 0.00586421 -5.29426e-05 -4.8075e-06 9.43478e-06 1.12637e-05 
1.18756e-05 -3.74575e-05 5.46213e-06 3.36577e-05 1.79949e-05 1.42216e-05 -3.86737e-05 8.90846e-06 5.42284e-05 
4.68919e-06 3.27629e-05 4.68123e-07 -0.00036884 0.000135077 9.90653e-07 5.75375e-06 5.52283e-06 -0.00551861 
3.43692e-05 -3.04047e-05 2.30842e-05 -1.82185e-05 -5.32681e-05 -1.8091e-05 7.15001e-07 4.56162e-06 -2.04088e-05 
0.025392 3.81697e-06 3.73483e-06 0.02484 -0.00675787 -4.5835e-07 -1.49671e-06 -0.000148374 -1.84636e-05 
-0.013941 3.7254e-05 6.4239e-05 1.52641e-06 -1.7243e-06 -1.87082e-06 -0.00020591 0.000107131 0.00229608 
-2.13989e-05 -8.14673e-08 2.32423e-05 -2.58303e-05 -6.63873e-06 -1.94357e-05 7.42124e-08 1.02108e-05 1.88189e-06 
-1.67256e-06 2.01666e-06 4.17103e-08 -3.084e-06 -1.2071e-06 -2.93166e-06 -1.335e-06 2.63899e-06 1.90958e-06 
5.91044e-05 -2.25336e-05 2.93823e-06 1.15214e-05 4.21327e-06 -2.93099e-05 3.58232e-05 0.000115521 9.72656e-05 
-5.74216e-06 -1.65865e-05 -2.24989e-05 4.49571e-06 0.00201015 -2.50471e-06 -2.66514e-06 -2.8574e-06 -2.05365e-06 
-1.20596e-05 1.08301e-05 -2.99793e-05 2.52351e-06 2.23416e-05 -5.76297e-05 -3.78791e-05 -4.28677e-06 1.95276e-06 
-2.54452e-05 2.57852e-05 -3.66898e-07 -6.32983e-06 -3.21559e-06 6.49332e-07 -1.15609e-05 1.15168e-06 1.98313e-06 
1.9426e-06 -6.88214e-06 -1.70238e-06 -1.19223e-06 6.59913e-06 1.93136e-06 -2.32107e-06 -1.79758e-05 -2.36306e-07 
-2.03297e-06 4.42163e-07 2.42676e-06 4.063e-07 3.73039e-05 1.81491e-06 -3.33532e-05 -1.78764e-06 4.02812e-06 
-1.86418e-05 -1.21314e-05 3.29261e-06 -7.05566e-06 -8.37058e-06 -3.86671e-06 -1.67755e-07 -6.96214e-06 3.65698e-06 
-5.14949e-06 0.000254144 -7.45702e-07 -0.00481304 2.29986e-07 5.36195e-06 -0.0010925 -0.00573367 0.00618874 
-3.85719e-05 -6.74506e-05 9.38891e-05 0.000107351 -3.23863e-06 -0.0025729 -0.0106889 -0.00284034 6.03912e-05 
3.44883e-05 1.22206e-05 -8.83996e-06 6.13317e-05 -0.0230775 -8.75517e-07 -7.17732e-07 0.00021734 0.0226251 
0.00611548 8.47932e-07 -2.99008e-06 -9.52294e-06 -5.08467e-06 7.42138e-05 -5.79573e-05 -0.000105945 2.39661e-05 
6.98385e-06 2.27904e-05 -1.09498e-05 0.0301917 -5.98713e-06 -0.000480775 1.0584e-06 -9.91652e-06 -4.06746e-06 
2.49155e-05 8.93299e-06 1.55466e-05 7.63094e-05 -1.92701e-05 -8.39475e-06 -3.98465e-06 -1.43912e-06 2.52398e-06 
-2.13273e-06 -3.4872e-05 3.59981e-06 9.40264e-05 7.79849e-06 -0.000789082 -6.68216e-05 0.000158266 -2.68917e-05 
0.000170957 0.000151639 4.01091e-06 5.04547e-05 4.40927e-05 6.15996e-06 -3.88232e-06 3.6758e-06 -2.03377e-05 
8.62752e-06 0.000107687 -2.71471e-06 -4.69623e-06 -2.92585e-06 9.95383e-07 -5.00614e-06 1.47079e-06 -2.44286e-06 
5.44153e-06 0.00553558 -0.0046539 -0.000313346 2.79074e-05 -6.0848e-06 -1.96577e-05 1.63275e-05 -4.77056e-06 
-9.01418e-06 -1.49263e-06 7.14469e-07 9.89451e-06 -2.0079e-06 -3.89972e-06 -1.8604e-06 5.46774e-05 -2.00344e-05 
3.37672e-05 5.37602e-05 3.12424e-05 1.71147e-05 2.49597e-06 -1.88551e-06 -6.13619e-06 -0.00591574 6.36143e-06 
1.98449e-07 6.14568e-06 -1.06807e-05 -4.07154e-06 0.000312465 -1.09565e-05 2.44734e-06 5.77571e-07 -2.26838e-05 
-8.14331e-06 3.02569e-06 -3.16844e-05 1.12436e-06 -0.00510124 0.000371172 5.49355e-06 -6.79312e-05 2.82104e-05 
-3.45584e-05 -7.12577e-05 -2.05425e-05 -4.35119e-05 3.66948e-05 -0.000510254 3.50961e-06 -1.25044e-05 6.5939e-06 
6.22263e-05 9.12066e-07 7.12319e-06 -9.3469e-05 1.69391e-06 -1.53005e-06 1.85996e-06 -6.0814e-07 -4.58166e-06 
2.79784e-06 -0.00835248 1.60583e-06 -0.00231181 -0.00317431 -3.24901e-07 -5.74543e-05 -0.0149241 -2.26096e-06 
-3.2564e-06 1.86724e-06 0.000196595 0.000270874 -9.64424e-06 6.23676e-07 -0.0009509 -4.94262e-06 -5.26205e-06 
-1.05047e-07 -1.15449e-05 1.08618e-05 -8.08447e-05 3.31592e-05 4.70748e-05 -1.98936e-05 -9.84421e-05 -8.84367e-06 
4.80164e-06 -1.42011e-05 -2.94044e-05 -5.44819e-06 1.36385e-06 -2.79124e-06 -4.69076e-06 -3.60888e-05 5.08276e-06 
-0.000110887 -3.74255e-06 -8.11538e-05 6.76999e-05 -4.14544e-06 1.09978e-05 0.00476905 1.32727e-06 -5.62992e-06 
-5.83731e-06 2.8822e-05 -2.69381e-06 -7.96544e-05 4.43277e-06 -0.00469762 -9.64772e-07 -1.53613e-05 -1.42951e-05 
-2.57373e-06 -1.08584e-06 -4.14915e-06 -7.73784e-06 -2.58406e-05 1.94132e-05 2.77597e-06 8.36587e-06 -5.66203e-06 
6.82738e-06 1.18637e-05 -4.58665e-06 -7.35597e-06 -3.64255e-06 -7.65049e-06 -1.99829e-06 2.77608e-06 -6.66657e-06 
-7.02277e-06 4.82138e-06 6.34825e-06 -5.60943e-07 5.65105e-06 -1.1991e-06 -6.91322e-06 -1.94735e-05 1.47988e-06 
-2.4342e-06 9.43577e-06 -1.73955e-05 1.1203e-06 -1.77409e-06 -4.59391e-06 1.83325e-06 -3.6648e-06 -8.70404e-05 
-0.00583829 -0.030313 2.98383e-06 -5.26655e-05 -0.000120509 -3.72126e-05 -1.69387e-05 -1.00423e-05 2.12039e-06 
-1.40981e-06 -3.26407e-06 2.27885e-06 1.80103e-06 1.55395e-06 -1.38229e-06 6.66965e-06 2.16045e-05 1.21345e-05 
-1.96592e-06 -0.000412018 -2.67432e-06 2.337e-06 -0.0252111 -3.32882e-07 4.46428e-05 -1.4671e-06 0.0337292 
-0.0130526 0.0330429 -5.26057e-06 5.29005e-06 -5.36755e-07 -3.43779e-05 -4.29365e-06 1.07458e-05 -2.21068e-05 
4.43113e-05 -0.0134709 0.0372518 1.16959e-05 -2.05446e-05 5.32797e-05 -3.70405e-06 5.56912e-07 -1.96871e-06 
1.39695e-06 -0.013326 -0.000157537 0.00587048 -0.00604671 -7.27982e-06 -0.00654993 0.00814955 0.00710781 
7.88953e-07 -1.66685e-05 7.45773e-06 -4.14281e-07 1.7419e-06 3.57461e-05 -1.10044e-06 3.09412e-06 -4.5065e-06 
-2.60257e-07 5.84434e-05 5.95225e-05 5.72789e-06 -5.06911e-05 1.13698e-05 -2.22246e-05 3.45847e-05 2.68363e-06 
8.76986e-07 -0.000271164 -2.74248e-06 -2.35582e-06 1.51196e-06 2.50321e-07 -3.68532e-05 -0.00522559 -1.77215e-06 
-0.000159879 2.45701e-05 4.5873e-06 3.69626e-06 0.000150771 6.14988e-07 1.18797e-05 -3.59394e-06 2.49462e-05 
-1.29167e-06 4.96211e-05 -6.41722e-06 -3.33924e-06 -1.38863e-07 -5.25788e-05 5.63773e-05 -3.18535e-06 -0.00575061 
0.0315266 2.92911e-06 -2.74791e-05 5.93563e-05 -1.81449e-05 -0.000159244 4.05775e-06 -6.33049e-06 1.11658e-07 
8.74143e-06 -1.57376e-05 1.94637e-05 1.51835e-06 3.22188e-07 -1.01991e-06 -6.58074e-06 -0.000124804 6.9554e-07 
2.09099e-06 3.25081e-05 3.39365e-05 1.12927e-05 -1.65791e-06 -0.00418975 -0.00281405 
Strain%20zz%20component 1 12526 double
-0.156466 1.22864e-06 -0.0469311 1.28608e-06 -0.133372 -0.133341 -0.133359 -0.133344 -0.0465627 
-0.0457472 -0.0416874 -0.0423677 -0.0397739 -0.05365 -0.0286838 -0.0486756 -0.0886262 -0.0733181 
-0.0631829 -0.0778954 -0.0434223 -0.0344978 -0.0369101 -0.0362923 -0.0363736 -0.0371484 -0.0360395 
-0.0362086 -0.0360444 -0.0363278 -0.0365838 -0.0370579 -0.0372902 -0.036129 -0.0367872 -0.036369 
-0.0370319 -0.0364936 -0.0359658 -0.0360886 -0.0368394 -0.0414798 -0.0493947 -0.0369474 -0.000264237 
1.12667e-06 1.67368e-05 -0.0367986 -0.0343435 -0.0367877 -0.0365595 -0.0386123 -0.0404547 -0.0395735 
-0.0383586 -0.0385128 -0.0366286 -0.0370354 -0.0370622 -0.0385307 -0.0389537 -0.0390336 -0.0374483 
-0.0380559 -0.0382653 -0.0387426 -0.0391427 -0.0394691 -0.066774 -0.133371 -0.133327 -0.133139 
-0.132841 -0.132501 -0.132121 -0.131704 -0.131297 -0.130926 -0.130617 -0.130359 -0.130128 
-0.130014 -0.129968 -0.130011 -0.130135 -0.130352 -0.130607 -0.130954 -0.131385 -0.131785 
-0.13221 -0.132592 -0.132935 -0.133189 -0.133343 -0.133358 -0.254428 -0.136528 -0.126702 
-0.121038 -0.117985 -0.116399 -0.115681 -0.115551 -0.115694 -0.11609 -0.116592 -0.117183 
-0.117889 -0.118798 -0.1199 -0.121566 -0.123639 -0.126496 -0.129604 -0.133551 -0.136906 
-0.1395 -0.140533 -0.139738 -0.137607 -0.134766 -0.132003 -0.130086 -0.128733 -0.127956 
-0.127691 -0.127777 -0.128075 -0.128594 -0.12917 -0.129841 -0.130439 -0.131016 -0.131586 
-0.132064 -0.132506 -0.132876 -0.133176 -0.133338 -0.133351 -0.133373 -0.133331 -0.133178 
-0.132893 -0.132545 -0.132047 -0.131544 -0.130998 -0.130398 -0.12975 -0.129128 -0.128593 
-0.128083 -0.127787 -0.127708 -0.128004 -0.128855 -0.130259 -0.132555 -0.135359 -0.1379 
-0.139875 -0.140493 -0.139079 -0.13599 -0.132138 -0.128753 -0.12536 -0.123118 -0.121161 
-0.119812 -0.118634 -0.117785 -0.11709 -0.116469 -0.1159 -0.115577 -0.1155 -0.115632 
-0.116341 -0.118152 -0.121593 -0.126178 -0.136047 -0.18553 -0.0216099 -0.0365594 -0.0379254 
-0.0412693 -0.0357903 -0.033735 -0.0297773 -0.0229702 -0.0110552 -0.0115347 -0.0135087 -0.0144451 
-0.0191074 -0.0454418 -0.0534419 -0.0485513 -0.0369211 -0.0351953 -0.0185127 -0.0130815 -0.0108501 
-0.0103444 -0.00956906 -0.0133967 -0.0234722 -0.0166659 -0.13334 -0.133329 -0.133186 -0.132927 
-0.13259 -0.132218 -0.131795 -0.131396 -0.131019 -0.130632 -0.130333 -0.130155 -0.130027 
-0.12999 -0.130041 -0.130169 -0.130378 -0.130655 -0.130988 -0.131373 -0.131764 -0.132177 
-0.132552 -0.132904 -0.133163 -0.133333 -0.133389 -0.279799 -0.126164 -0.12657 -0.121187 
-0.11803 -0.116452 -0.115611 -0.115432 -0.115563 -0.115912 -0.116446 -0.117068 -0.117778 
-0.11863 -0.119688 -0.121051 -0.122852 -0.125086 -0.128155 -0.13176 -0.135497 -0.138575 
-0.140176 -0.140055 -0.138384 -0.135722 -0.132841 -0.130632 -0.129084 -0.12806 -0.127705 
-0.127717 -0.127993 -0.128405 -0.128985 -0.129569 -0.130245 -0.130906 -0.131461 -0.131992 
-0.132463 -0.132841 -0.133134 -0.133332 -0.13337 -0.133385 -0.133321 -0.133131 -0.132837 
-0.132456 -0.131961 -0.131448 -0.130919 -0.13031 -0.129676 -0.12914 -0.128495 -0.128072 
-0.127738 -0.127677 -0.127971 -0.128688 -0.130017 -0.132174 -0.134736 -0.13763 -0.1398 
-0.140401 -0.138896 -0.136376 -0.132496 -0.128817 -0.125763 -0.123153 -0.121096 -0.119725 
-0.11857 -0.117626 -0.116963 -0.116354 -0.115871 -0.115535 -0.115311 -0.115701 -0.116415 
-0.118008 -0.121405 -0.127102 -0.136914 -0.281431 -0.0391149 -0.00970874 -0.0122213 -0.011998 
-0.0104542 -0.0100667 -0.0110684 -0.0344135 -0.0348199 -0.0356339 -0.0380969 -0.0377941 -0.0338537 
-0.0203078 -0.00529199 0.00259935 -0.0123004 -0.0109151 -0.00978268 -0.0340672 -0.0343069 -0.0343819 
-0.0356433 -0.0371101 -0.0413252 -0.0378194 -0.133231 -0.133101 -0.132893 -0.132643 -0.13236 
-0.132062 -0.131737 -0.131452 -0.13118 -0.130942 -0.13077 -0.130638 -0.130569 -0.130569 
-0.130638 -0.130774 -0.130947 -0.131177 -0.131461 -0.131768 -0.132091 -0.132401 -0.132674 
-0.132915 -0.133092 -0.133207 -0.133285 -0.180521 -0.147517 -0.135414 -0.128822 -0.12527 
-0.122896 -0.12162 -0.121005 -0.120442 -0.1205 -0.120712 -0.121022 -0.121521 -0.12234 
-0.123455 -0.124793 -0.126392 -0.128413 -0.130613 -0.132665 -0.134548 -0.135547 -0.13582 
-0.135307 -0.134021 -0.132603 -0.131377 -0.130318 -0.129583 -0.129173 -0.129071 -0.129157 
-0.129361 -0.129732 -0.130146 -0.130631 -0.131097 -0.131499 -0.131904 -0.132272 -0.132597 
-0.132871 -0.133065 -0.133201 -0.133072 -0.13288 -0.132597 -0.132256 -0.131855 -0.131431 
-0.130993 -0.130518 -0.130066 -0.12964 -0.129303 -0.12906 -0.129003 -0.129161 -0.129656 
-0.130422 -0.131632 -0.133041 -0.134388 -0.135398 -0.135871 -0.135594 -0.134125 -0.13192 
-0.129702 -0.127487 -0.12558 -0.124018 -0.122811 -0.121954 -0.121201 -0.120649 -0.120271 
-0.120158 -0.120338 -0.120717 -0.121438 -0.122893 -0.125832 -0.129871 -0.136749 -0.148526 
-0.208322 -0.248101 -0.233684 -0.226311 -0.220373 -0.202687 -0.197953 -0.197154 -0.19685 
-0.196948 -0.197183 -0.197213 -0.197307 -0.198307 -0.198896 -0.198339 -0.19738 -0.196547 
-0.19668 -0.196932 -0.197319 -0.197403 -0.198067 -0.200643 -0.206998 -0.216586 -0.196412 
-0.185543 -0.183675 -0.181779 -0.178828 -0.178558 -0.177976 -0.179248 -0.180219 -0.180506 
-0.18101 -0.18075 -0.199124 -0.187163 -0.0699966 -0.145663 -0.153601 -0.155549 -0.180554 
-0.182197 -0.183343 -0.181164 -0.181121 -0.182075 -0.18142 -0.182466 -0.182618 -0.182759 
-0.169642 -0.0707184 -0.122069 -0.113513 -0.118269 -0.105367 -0.13555 -0.132906 -0.132708 
-0.132516 -0.132308 -0.132085 -0.131858 -0.131646 -0.131469 -0.131332 -0.131215 -0.131139 
-0.131123 -0.13114 -0.13123 -0.131328 -0.131462 -0.131657 -0.131876 -0.132103 -0.132325 
-0.132532 -0.132715 -0.132876 -0.133028 -0.149462 -0.172362 -0.149408 -0.14018 -0.134698 
-0.131172 -0.128422 -0.126547 -0.125449 -0.124875 -0.124538 -0.124406 -0.124702 -0.125031 
-0.125558 -0.126372 -0.127275 -0.128334 -0.129288 -0.130137 -0.130825 -0.131004 -0.131421 
-0.131947 -0.131921 -0.13185 -0.131588 -0.13115 -0.130791 -0.130513 -0.130353 -0.130276 
-0.130306 -0.130496 -0.130728 -0.131033 -0.131342 -0.131626 -0.131901 -0.132176 -0.132427 
-0.132653 -0.132842 -0.133024 -0.113909 -0.165223 -0.132877 -0.132662 -0.132413 -0.132133 
-0.131823 -0.131526 -0.131188 -0.130883 -0.130601 -0.130387 -0.130216 -0.130131 -0.130197 
-0.130446 -0.130843 -0.131321 -0.13177 -0.131903 -0.131943 -0.131849 -0.131945 -0.131405 
-0.130471 -0.129757 -0.128784 -0.127481 -0.126477 -0.12567 -0.125024 -0.124526 -0.124202 
-0.124097 -0.124227 -0.124654 -0.125393 -0.126697 -0.128428 -0.131795 -0.135861 -0.142358 
-0.153394 -0.168988 -0.169418 -0.165035 -0.162792 -0.163973 -0.164597 -0.164955 -0.165262 
-0.165511 -0.165855 -0.16586 -0.16591 -0.165918 -0.165862 -0.165653 -0.165464 -0.165084 
-0.164939 -0.164685 -0.164505 -0.164741 -0.165915 -0.148194 -0.114079 -0.145878 -0.150713 
-0.150661 -0.15074 -0.150885 -0.150991 -0.150968 -0.150973 -0.150528 -0.148681 -0.144384 
-0.133431 -0.112391 -0.134637 -0.109524 -0.143597 -0.150793 -0.150585 -0.150903 -0.15222 
-0.151992 -0.152069 -0.151678 -0.150702 -0.147742 -0.140006 -0.128961 -0.148832 -0.150681 
-0.123626 -0.133097 -0.119497 -0.124201 -0.128331 -0.120186 -0.148863 -0.132608 -0.132468 
-0.132339 -0.132202 -0.132081 -0.131947 -0.131831 -0.131755 -0.13169 -0.131677 -0.131706 
-0.131745 -0.131785 -0.131846 -0.131944 -0.132065 -0.132203 -0.132341 -0.132471 -0.132591 
-0.132724 -0.148665 -0.147777 -0.150033 -0.143846 -0.139074 -0.135777 -0.132682 -0.130687 
-0.129571 -0.128762 -0.128213 -0.128017 -0.12802 -0.128177 -0.128459 -0.128805 -0.129211 
-0.129352 -0.128905 -0.128636 -0.127313 -0.126306 -0.126797 -0.128782 -0.129721 -0.130823 
-0.131398 -0.131563 -0.131563 -0.131524 -0.131456 -0.131408 -0.131384 -0.131461 -0.131597 
-0.131754 -0.131904 -0.132053 -0.132208 -0.132364 -0.132526 -0.132654 -0.132784 -0.158114 
-0.132164 -0.143013 -0.13253 -0.132354 -0.132166 -0.131981 -0.131814 -0.131621 -0.131464 
-0.131357 -0.131274 -0.131253 -0.131293 -0.131396 -0.131533 -0.131598 -0.131278 -0.130585 
-0.129287 -0.128031 -0.127486 -0.12834 -0.12794 -0.128907 -0.129187 -0.128824 -0.128452 
-0.128291 -0.127983 -0.127699 -0.12756 -0.127671 -0.128061 -0.128862 -0.129909 -0.131192 
-0.133205 -0.136819 -0.140507 -0.145165 -0.151379 -0.160346 -0.123344 -0.160527 -0.160165 
-0.160535 -0.16119 -0.161812 -0.162416 -0.163025 -0.163468 -0.163745 -0.163899 -0.163888 
-0.163658 -0.163265 -0.16289 -0.162566 -0.162051 -0.161372 -0.160418 -0.159425 -0.158783 
-0.146281 -0.148928 -0.149141 -0.149326 -0.149194 -0.148288 -0.146408 -0.14292 -0.137068 
-0.136798 -0.121768 -0.135274 -0.131057 -0.124675 -0.150052 -0.151392 -0.15104 -0.150271 
-0.148687 -0.146072 -0.141706 -0.128508 -0.150797 -0.119836 -0.124556 -0.132708 -0.153573 
-0.126411 -0.132873 -0.128508 -0.138817 -0.146747 -0.143558 -0.121804 -0.126181 -0.148984 
-0.12926 -0.132476 -0.132446 -0.132416 -0.132382 -0.132333 -0.132276 -0.132227 -0.132239 
-0.132297 -0.132317 -0.132317 -0.132319 -0.132336 -0.132364 -0.132401 -0.132447 -0.13249 
-0.132532 -0.132596 -0.145828 -0.145223 -0.132297 -0.146937 -0.142584 -0.138952 -0.136235 
-0.134408 -0.133161 -0.132217 -0.131637 -0.131283 -0.13111 -0.130985 -0.130901 -0.130969 
-0.130814 -0.129233 -0.131329 -0.13211 -0.132508 -0.132736 -0.132718 -0.132609 -0.132444 
-0.132391 -0.132405 -0.132382 -0.132356 -0.132358 -0.132376 -0.132419 -0.132475 -0.132538 
-0.15336 -0.146309 -0.146176 -0.132416 -0.132352 -0.132304 -0.13227 -0.13225 -0.132258 
-0.132266 -0.132268 -0.132341 -0.132479 -0.132471 -0.132391 -0.131406 -0.129386 -0.129812 
-0.12992 -0.130633 -0.130819 -0.130698 -0.130663 -0.131011 -0.131619 -0.132638 -0.133842 
-0.135385 -0.137451 -0.139747 -0.146136 -0.147623 -0.149036 -0.139378 -0.144175 -0.153541 
-0.154574 -0.156055 -0.157196 -0.158242 -0.159087 -0.159771 -0.160434 -0.160765 -0.160841 
-0.16055 -0.160064 -0.159552 -0.159022 -0.158383 -0.157709 -0.156254 -0.154093 -0.146389 
-0.131517 -0.14642 -0.145741 -0.144315 -0.142269 -0.13464 -0.132492 -0.1492 -0.147182 
-0.144984 -0.14191 -0.137221 -0.152186 -0.138865 -0.148407 -0.14268 -0.143008 -0.135106 
-0.149386 -0.147688 -0.132801 -0.148387 -0.136271 -0.143629 -0.132664 -0.132753 -0.132817 
-0.13279 -0.132762 -0.132707 -0.132893 -0.132951 -0.132921 -0.132869 -0.132822 -0.132767 
-0.132695 -0.13263 -0.132583 -0.132527 -0.140069 -0.144848 -0.141557 -0.139149 -0.137445 
-0.136132 -0.135361 -0.134623 -0.134197 -0.133975 -0.133597 -0.132931 -0.133289 -0.133399 
-0.133973 -0.134203 -0.134103 -0.133826 -0.133358 -0.133385 -0.133203 -0.13296 -0.132786 
-0.132664 -0.132571 -0.132522 -0.132602 -0.143828 -0.132671 -0.132771 -0.132905 -0.133056 
-0.133216 -0.133346 -0.133254 -0.133642 -0.133762 -0.133502 -0.143692 -0.131955 -0.133562 
-0.133462 -0.133584 -0.134021 -0.134874 -0.135881 -0.137301 -0.138995 -0.141144 -0.143874 
-0.150208 -0.140584 -0.152179 -0.15379 -0.154893 -0.155704 -0.156576 -0.157768 -0.157253 
-0.157791 -0.15666 -0.156102 -0.155534 -0.154794 -0.154053 -0.153294 -0.142497 -0.141115 
-0.14566 -0.149488 -0.139113 -0.143006 -0.147555 -0.142183 -0.144525 -0.132586 -0.142246 
-0.146127 -0.137347 -0.147144 -0.14326 -0.141113 -0.143498 -0.145884 -0.133836 -0.139154 
-0.135121 -0.135662 -0.143434 -0.136561 -0.14958 -0.133227 -0.133253 -0.133374 -0.133669 
-0.133662 -0.133502 -0.133382 -0.133274 -0.133117 -0.13292 -0.132737 -0.146322 -0.140625 
-0.143569 -0.141438 -0.139994 -0.138907 -0.138004 -0.137145 -0.136804 -0.136701 -0.135828 
-0.135812 -0.13531 -0.1346 -0.134242 -0.1338 -0.133364 -0.133023 -0.132775 -0.139907 
-0.135142 -0.139875 -0.14124 -0.133141 -0.133398 -0.133689 -0.134045 -0.134416 -0.134655 
-0.135188 -0.141637 -0.136416 -0.136452 -0.137765 -0.138678 -0.140083 -0.141826 -0.144099 
-0.146982 -0.141102 -0.149007 -0.15057 -0.151735 -0.152832 -0.153852 -0.153696 -0.15285 
-0.152148 -0.151534 -0.150613 -0.142627 -0.147289 -0.133333 -0.139995 -0.140684 -0.133012 
-0.137557 -0.132902 -0.139517 -0.141183 -0.138616 -0.144496 -0.135908 -0.146253 -0.146397 
-0.143884 -0.134444 -0.134595 -0.134434 -0.134033 -0.133941 -0.133646 -0.133286 -0.136974 
-0.145162 -0.143055 -0.142395 -0.14129 -0.14018 -0.139187 -0.146145 -0.137358 -0.138758 
-0.136353 -0.135468 -0.134685 -0.145624 -0.134176 -0.134537 -0.135908 -0.137669 -0.136492 
-0.147526 -0.140901 -0.143265 -0.145461 -0.13967 -0.141274 -0.142033 -0.14405 -0.138364 
-0.147611 -0.148671 -0.150103 -0.149727 -0.138849 -0.133437 -0.133855 -0.145736 -0.145016 
-0.138186 -0.133868 -0.139435 -0.133682 -0.133965 -0.138525 -0.135248 -0.141529 -0.149399 
-0.14912 -0.14841 -0.145733 -0.143613 -0.135648 -0.135269 -0.136714 -0.144922 -0.134606 
-0.135783 -0.135639 -0.134918 -0.134311 -0.138689 -0.145606 -0.138904 -0.144253 -0.142894 
-0.134647 -0.146865 -0.136973 -0.144976 -0.135603 -0.147093 -0.137396 -0.136608 -0.146654 
-0.146722 -0.145049 -0.137036 -0.145837 -0.133237 -0.133105 -0.132924 -0.13269 -0.132397 
-0.132098 -0.131793 -0.131511 -0.131216 -0.13098 -0.130803 -0.130666 -0.130607 -0.130619 
-0.130689 -0.130815 -0.131001 -0.131231 -0.131506 -0.131795 -0.132093 -0.13239 -0.132652 
-0.132899 -0.133094 -0.133226 -0.133306 -0.206226 -0.149194 -0.138069 -0.13084 -0.126108 
-0.123359 -0.121878 -0.120966 -0.120782 -0.120536 -0.120696 -0.121212 -0.121825 -0.122585 
-0.123529 -0.124689 -0.126087 -0.127734 -0.129636 -0.131822 -0.133539 -0.134779 -0.135403 
-0.135093 -0.134214 -0.132945 -0.131619 -0.130561 -0.129827 -0.129345 -0.129138 -0.129172 
-0.129415 -0.129738 -0.130126 -0.130563 -0.131012 -0.131448 -0.131891 -0.132262 -0.132585 
-0.132859 -0.133072 -0.133203 -0.133069 -0.132836 -0.132544 -0.132205 -0.131793 -0.131371 
-0.130943 -0.130477 -0.130045 -0.129649 -0.129289 -0.129068 -0.129 -0.129133 -0.129593 
-0.13032 -0.131516 -0.132921 -0.134356 -0.135498 -0.135851 -0.13526 -0.134047 -0.132132 
-0.129968 -0.127641 -0.125685 -0.124108 -0.122879 -0.121924 -0.12109 -0.120643 -0.120312 
-0.120106 -0.120195 -0.120695 -0.121538 -0.123035 -0.124963 -0.128849 -0.135747 -0.148902 
-0.174932 -0.183423 -0.178032 -0.173805 -0.17277 -0.198594 -0.200302 -0.198755 -0.199945 
-0.200576 -0.199905 -0.200598 -0.199839 -0.199474 -0.199019 -0.199432 -0.199291 -0.199622 
-0.20001 -0.19933 -0.19854 -0.199398 -0.201079 -0.203496 -0.20711 -0.211662 -0.224918 
-0.151859 -0.178839 -0.180263 -0.178891 -0.179904 -0.179046 -0.180006 -0.178636 -0.178336 
-0.178686 -0.180125 -0.180935 -0.153568 -0.148981 -0.0835656 -0.182175 -0.202542 -0.201345 
-0.182155 -0.179559 -0.180385 -0.180946 -0.178902 -0.180321 -0.180222 -0.181575 -0.180846 
-0.180488 -0.169683 -0.0936752 -0.109801 -0.13323 -0.116278 -0.117786 -0.117706 -0.1329 
-0.133059 -0.132541 -0.132325 -0.132119 -0.131903 -0.131713 -0.131534 -0.131397 -0.131324 
-0.131254 -0.131203 -0.131237 -0.131307 -0.131409 -0.131555 -0.13173 -0.131916 -0.132118 
-0.132322 -0.132512 -0.132704 -0.13288 -0.133038 -0.143695 -0.132996 -0.146066 -0.153936 
-0.16901 -0.136543 -0.131696 -0.128848 -0.12726 -0.126299 -0.125604 -0.124828 -0.124724 
-0.125095 -0.125562 -0.126155 -0.126882 -0.127621 -0.128322 -0.128977 -0.129752 -0.13003 
-0.130367 -0.130812 -0.130985 -0.131403 -0.131458 -0.131358 -0.131242 -0.130948 -0.130646 
-0.13043 -0.130395 -0.130495 -0.130656 -0.13087 -0.131098 -0.131364 -0.131646 -0.131934 
-0.132199 -0.13245 -0.132673 -0.132866 -0.13246 -0.134585 -0.132827 -0.13262 -0.132371 
-0.132091 -0.131785 -0.131491 -0.131195 -0.130897 -0.130641 -0.130416 -0.130269 -0.130193 
-0.13025 -0.130454 -0.13078 -0.131205 -0.131705 -0.132215 -0.132291 -0.131887 -0.131754 
-0.131185 -0.130624 -0.129931 -0.128709 -0.127721 -0.126683 -0.125812 -0.125035 -0.124459 
-0.12411 -0.123999 -0.124111 -0.124659 -0.125451 -0.126701 -0.12867 -0.131306 -0.134662 
-0.140975 -0.15187 -0.167836 -0.134908 -0.164988 -0.16422 -0.164854 -0.165141 -0.164324 
-0.164796 -0.165144 -0.165436 -0.165614 -0.165802 -0.166038 -0.166049 -0.165925 -0.165768 
-0.165591 -0.165288 -0.165214 -0.16518 -0.165105 -0.164855 -0.164347 -0.163986 -0.165073 
-0.11767 -0.144934 -0.113546 -0.149511 -0.151209 -0.150913 -0.151205 -0.151198 -0.150675 
-0.150534 -0.150493 -0.150534 -0.149942 -0.149161 -0.144698 -0.13427 -0.11826 -0.151128 
-0.151836 -0.151982 -0.153438 -0.153229 -0.15188 -0.151659 -0.151411 -0.151089 -0.150558 
-0.148728 -0.143906 -0.110683 -0.13274 -0.126905 -0.127746 -0.121968 -0.125642 -0.118846 
-0.128762 -0.124967 -0.13223 -0.132484 -0.132093 -0.131989 -0.13193 -0.131881 -0.131843 
-0.131819 -0.131807 -0.13183 -0.131876 -0.131947 -0.132025 -0.132135 -0.132247 -0.132351 
-0.132466 -0.132589 -0.132712 -0.132847 -0.133267 -0.126562 -0.14022 -0.138715 -0.146918 
-0.138487 -0.133696 -0.132047 -0.130824 -0.129601 -0.128148 -0.128716 -0.128928 -0.129144 
-0.129387 -0.129705 -0.129951 -0.129835 -0.129149 -0.128217 -0.125251 -0.125892 -0.130147 
-0.13117 -0.131696 -0.131729 -0.131629 -0.131633 -0.131662 -0.131685 -0.131717 -0.131777 
-0.13187 -0.131992 -0.132129 -0.132269 -0.132411 -0.132557 -0.132711 -0.121438 -0.132312 
-0.13251 -0.132327 -0.132143 -0.13197 -0.131808 -0.131664 -0.131524 -0.131414 -0.131342 
-0.131326 -0.131338 -0.131411 -0.131478 -0.131427 -0.13123 -0.130885 -0.130313 -0.127872 
-0.127332 -0.127971 -0.127187 -0.128753 -0.129203 -0.129139 -0.128875 -0.128444 -0.128061 
-0.12773 -0.127498 -0.127458 -0.127719 -0.128526 -0.129685 -0.131265 -0.133465 -0.136502 
-0.140019 -0.143522 -0.151341 -0.133276 -0.158223 -0.159575 -0.133235 -0.124362 -0.138761 
-0.132343 -0.160676 -0.161661 -0.162369 -0.162752 -0.163045 -0.16333 -0.163578 -0.163823 
-0.1639 -0.163737 -0.163414 -0.16289 -0.162462 -0.161951 -0.161426 -0.160995 -0.159719 
-0.156301 -0.15552 -0.13606 -0.146473 -0.14794 -0.148713 -0.149122 -0.149473 -0.149243 
-0.148894 -0.148363 -0.147762 -0.14617 -0.132677 -0.146366 -0.148876 -0.150289 -0.15098 
-0.151071 -0.150784 -0.150439 -0.14993 -0.148964 -0.147103 -0.143867 -0.143475 -0.142787 
-0.132611 -0.130635 -0.129653 -0.126516 -0.126634 -0.129245 -0.129748 -0.138387 -0.127601 
-0.143084 -0.130533 -0.157647 -0.132426 -0.132443 -0.132449 -0.132426 -0.13241 -0.132397 
-0.132411 -0.132429 -0.132439 -0.132454 -0.132471 -0.132486 -0.132504 -0.132532 -0.132584 
-0.142737 -0.136164 -0.139569 -0.147968 -0.122784 -0.136568 -0.137653 -0.132788 -0.132449 
-0.13241 -0.13234 -0.132282 -0.132529 -0.132445 -0.149319 -0.132723 -0.133003 -0.132993 
-0.132872 -0.132737 -0.132621 -0.132536 -0.132486 -0.13247 -0.132475 -0.132493 -0.132522 
-0.132567 -0.132371 -0.134653 -0.132412 -0.132353 -0.132313 -0.132297 -0.132306 -0.132327 
-0.132366 -0.132445 -0.132515 -0.132553 -0.132611 -0.132335 -0.131535 -0.129865 -0.130506 
-0.1307 -0.130858 -0.130881 -0.13069 -0.130796 -0.131257 -0.131973 -0.133463 -0.135101 
-0.137288 -0.140642 -0.144311 -0.133034 -0.135153 -0.15201 -0.154935 -0.145056 -0.158576 
-0.159125 -0.159635 -0.160014 -0.160275 -0.160439 -0.160607 -0.160306 -0.159627 -0.15888 
-0.157926 -0.157184 -0.156473 -0.156139 -0.142219 -0.144239 -0.132403 -0.139116 -0.145265 
-0.145849 -0.146344 -0.146997 -0.146293 -0.145866 -0.145363 -0.144062 -0.132377 -0.157683 
-0.147024 -0.148247 -0.149276 -0.148904 -0.148576 -0.147959 -0.147081 -0.145828 -0.134904 
-0.132485 -0.132831 -0.128762 -0.156645 -0.140063 -0.135912 -0.132509 -0.130514 -0.143423 
-0.132471 -0.142387 -0.153223 -0.141951 -0.138975 -0.139059 -0.133056 -0.133003 -0.132978 
-0.132994 -0.132953 -0.132876 -0.132794 -0.132707 -0.132622 -0.132534 -0.148176 -0.147236 
-0.135746 -0.138704 -0.135521 -0.135254 -0.134899 -0.134253 -0.133084 -0.133095 -0.133933 
-0.133619 -0.133354 -0.133121 -0.132937 -0.132786 -0.132675 -0.132576 -0.134467 -0.13243 
-0.132784 -0.132668 -0.132581 -0.132929 -0.133115 -0.133316 -0.133545 -0.133754 -0.133839 
-0.133722 -0.152871 -0.132198 -0.133846 -0.133953 -0.133512 -0.134521 -0.134851 -0.136731 
-0.138309 -0.140319 -0.14317 -0.156411 -0.155533 -0.133415 -0.134233 -0.154882 -0.156788 
-0.156673 -0.156859 -0.157546 -0.156621 -0.155634 -0.154323 -0.153168 -0.152122 -0.151119 
-0.141165 -0.132944 -0.134575 -0.14219 -0.135937 -0.142834 -0.143355 -0.144027 -0.143529 
-0.143032 -0.142607 -0.139202 -0.144255 -0.14598 -0.147177 -0.147261 -0.146651 -0.14578 
-0.144957 -0.154113 -0.136714 -0.136386 -0.145323 -0.140958 -0.142495 -0.136797 -0.151694 
-0.132784 -0.143074 -0.132674 -0.14209 -0.14029 -0.142382 -0.135459 -0.132646 -0.134583 
-0.133453 -0.13327 -0.133031 -0.132803 -0.1402 -0.1384 -0.140488 -0.138798 -0.133864 
-0.134295 -0.133825 -0.134789 -0.133549 -0.13319 -0.132918 -0.133682 -0.135268 -0.133338 
-0.135256 -0.13406 -0.134511 -0.13494 -0.135238 -0.136654 -0.139313 -0.133914 -0.133792 
-0.136987 -0.136931 -0.138763 -0.140823 -0.142887 -0.145052 -0.152431 -0.1533 -0.148032 
-0.153812 -0.150751 -0.153725 -0.153266 -0.151524 -0.14983 -0.138801 -0.137871 -0.133714 
-0.133586 -0.135784 -0.139752 -0.140544 -0.141004 -0.141254 -0.140868 -0.139125 -0.145557 
-0.146262 -0.145885 -0.144956 -0.133655 -0.14715 -0.133592 -0.133257 -0.136987 -0.140243 
-0.142133 -0.139108 -0.151261 -0.13304 -0.136579 -0.153175 -0.143472 -0.142193 -0.143337 
-0.145152 -0.148081 -0.144254 -0.132927 -0.149657 -0.133835 -0.14479 -0.137609 -0.134677 
-0.148603 -0.135404 -0.133227 -0.133664 -0.135238 -0.133943 -0.134556 -0.139608 -0.142734 
-0.140996 -0.136423 -0.142748 -0.145467 -0.147295 -0.142808 -0.147421 -0.149778 -0.136627 
-0.134659 -0.134493 -0.135969 -0.134199 -0.136622 -0.134271 -0.138268 -0.13888 -0.139187 
-0.138219 -0.138704 -0.145669 -0.133441 -0.14528 -0.143731 -0.134612 -0.141529 -0.134721 
-0.139916 -0.141395 -0.138275 -0.143884 -0.145633 -0.138182 -0.150128 -0.149798 -0.150653 
-0.145784 -0.134446 -0.140277 -0.137769 -0.144987 -0.135316 -0.135471 -0.136581 -0.137069 
-0.134593 -0.147629 -0.146553 -0.135958 -0.136557 -0.145482 -0.145619 -0.135645 -0.135619 
-0.13573 -0.135184 -0.147534 -0.147557 -0.136424 -0.146117 -0.137229 0.0131906 0.0127988 
-0.133303 1.34299e-06 1.28608e-06 1.11428e-06 -0.0756045 -0.0732381 -0.0696027 -0.0646003 8.09634e-07 
7.86624e-07 7.89624e-07 7.98306e-07 8.14731e-07 8.23863e-07 8.19539e-07 8.07204e-07 8.11663e-07 7.98772e-07 
8.04399e-07 8.01056e-07 8.11641e-07 8.15411e-07 8.16424e-07 8.00271e-07 8.08182e-07 8.14211e-07 8.23707e-07 
8.40262e-07 8.61647e-07 8.57534e-07 1.28608e-06 -0.115181 8.92009e-07 8.49093e-07 8.40916e-07 8.07485e-07 
7.82442e-07 7.95504e-07 7.86409e-07 7.92493e-07 8.02542e-07 7.89452e-07 7.97203e-07 7.92108e-07 7.97815e-07 
8.01939e-07 8.04428e-07 8.0267e-07 7.89442e-07 7.99338e-07 7.92215e-07 7.99303e-07 7.97616e-07 7.96946e-07 
8.11417e-07 8.23924e-07 8.76995e-07 1.08421e-06 -0.133364 -0.13336 -0.133243 -0.132998 -0.132677 
-0.132315 -0.131914 -0.1315 -0.131108 -0.130767 -0.130484 -0.130234 -0.130068 -0.12998 
-0.129979 -0.130063 -0.130233 -0.130477 -0.130773 -0.131171 -0.131585 -0.131996 -0.132402 
-0.132769 -0.133064 -0.133272 -0.133358 -0.133364 -0.191142 -0.154599 -0.130739 -0.123325 
-0.11919 -0.11698 -0.115905 -0.11552 -0.115558 -0.115851 -0.11631 -0.116859 -0.117508 
-0.118311 -0.119302 -0.120667 -0.122522 -0.124976 -0.127971 -0.131545 -0.135296 -0.138365 
-0.140263 -0.140371 -0.138816 -0.136227 -0.133329 -0.130951 -0.129319 -0.128264 -0.127762 
-0.127687 -0.127894 -0.128313 -0.128871 -0.129501 -0.13014 -0.130729 -0.131304 -0.13183 
-0.132291 -0.132699 -0.133038 -0.13327 -0.133351 -0.133348 -0.133367 -0.133356 -0.133264 
-0.133044 -0.132728 -0.132304 -0.131801 -0.131277 -0.130702 -0.130076 -0.129424 -0.128858 
-0.128328 -0.127923 -0.127711 -0.127772 -0.128421 -0.129445 -0.131323 -0.133894 -0.136587 
-0.138946 -0.140455 -0.139848 -0.137648 -0.134133 -0.130465 -0.126977 -0.124219 -0.122112 
-0.120468 -0.119187 -0.118187 -0.11742 -0.116765 -0.116162 -0.115744 -0.115545 -0.115575 
-0.115867 -0.117155 -0.119617 -0.123618 -0.133281 -0.152793 -0.249232 -0.0260742 -0.0215829 
-0.0216828 -0.0198854 -0.0198207 -0.0177021 -0.0175144 -0.013399 0.00102389 0.00428803 0.00318081 
0.00103595 -0.0130936 -0.02937 -0.0214599 -0.046159 -0.046515 -0.0586161 -0.0202892 -0.0190324 
-0.0153585 0.00296034 0.00418755 0.00422012 0.0033116 0.0020843 -0.00124871 -0.0104159 -0.0266713 
-0.0301316 -0.133339 -0.133358 -0.133259 -0.133065 -0.132764 -0.132407 -0.132006 -0.131592 
-0.131202 -0.130818 -0.130468 -0.130245 -0.130074 -0.129997 -0.130004 -0.130094 -0.130272 
-0.130505 -0.13082 -0.131178 -0.131573 -0.131973 -0.132369 -0.132736 -0.133046 -0.133258 
-0.133362 -0.133364 -0.235879 -0.154317 -0.129585 -0.123287 -0.119201 -0.117005 -0.115891 
-0.115433 -0.115439 -0.1157 -0.116156 -0.116738 -0.117402 -0.118172 -0.119113 -0.120303 
-0.121864 -0.123861 -0.12651 -0.129892 -0.133676 -0.137201 -0.139631 -0.140382 -0.139414 
-0.137131 -0.134237 -0.131629 -0.129748 -0.128461 -0.127802 -0.127655 -0.127817 -0.128173 
-0.128682 -0.12927 -0.129906 -0.130581 -0.131191 -0.131734 -0.132237 -0.132664 -0.133 
-0.133245 -0.133367 -0.133346 -0.133364 -0.133368 -0.133235 -0.132993 -0.132656 -0.132217 
-0.131713 -0.131192 -0.130622 -0.129996 -0.129417 -0.128809 -0.128287 -0.127869 -0.127674 
-0.127804 -0.128284 -0.129314 -0.131028 -0.133423 -0.136177 -0.138761 -0.14022 -0.139969 
-0.13761 -0.134473 -0.130656 -0.127256 -0.124402 -0.122105 -0.120341 -0.119129 -0.118085 
-0.117288 -0.11666 -0.116118 -0.115679 -0.115388 -0.115519 -0.116078 -0.117095 -0.119485 
-0.123859 -0.131679 -0.149264 -0.225344 -0.0440846 -0.0119922 0.00164445 0.00315865 0.00421943 
0.00580608 0.00616118 -0.0155609 -0.0178895 -0.0186041 -0.0204922 -0.0220521 -0.0428504 -0.0478755 
-0.0287577 -0.0268106 -0.0144944 -0.000932698 0.0022241 0.00397176 0.00441594 -0.0125024 -0.017659 
-0.0187418 -0.0189929 -0.0203397 -0.0218601 -0.0245208 -0.0328091 -0.0245459 -0.133353 -0.133354 
-0.0413305 -0.0316962 -0.0365601 -0.0392711 1.22864e-06 -0.0492422 1.39939e-06 8.82553e-07 -8.96928e-05 
8.54833e-07 8.25969e-07 1.12667e-06 1.47659e-05 8.01514e-07 -0.00288443 -0.0341025 1.04604e-06 -0.0333322 
-0.00548893 -0.0316775 -0.00501566 -0.0294926 -0.00900891 -0.027135 -0.0133718 -0.0269463 -0.00987038 
-0.0277281 -0.0109498 -0.0254064 -0.012057 -0.0263524 -0.0105701 -0.0251872 -0.0111113 -0.0251779 
-0.0129295 -0.0223903 -0.0166699 -0.0199504 -0.0171915 -0.0190957 -0.0203986 -0.0177584 -0.0190826 
-0.0168454 -0.021107 -0.0156918 -0.0225453 -0.0134291 -0.0240985 -0.0108898 -0.028506 -0.00649401 
-0.0305829 -0.00922488 -0.0371286 -0.00696122 -0.133348 -0.1333 -0.133267 -0.133214 -0.133114 
-0.133166 -0.133013 -0.132864 -0.133006 -0.132741 -0.132572 -0.132773 -0.13243 -0.132241 
-0.132504 -0.132091 -0.131884 -0.132211 -0.131723 -0.131521 -0.131895 -0.131378 -0.131193 
-0.131589 -0.131055 -0.130904 -0.131308 -0.13078 -0.130655 -0.131061 -0.130567 -0.130451 
-0.130846 -0.130387 -0.130331 -0.130704 -0.130296 -0.130276 -0.130595 -0.130273 -0.130297 
-0.130558 -0.13033 -0.130393 -0.130592 -0.130461 -0.130563 -0.130694 -0.130658 -0.130781 
-0.130859 -0.130898 -0.131064 -0.131053 -0.131211 -0.131422 -0.131314 -0.131579 -0.131775 
-0.131615 -0.131938 -0.132148 -0.131931 -0.132303 -0.132492 -0.132252 -0.132629 -0.1328 
-0.132544 -0.132922 -0.133043 -0.132803 -0.133144 -0.133209 -0.133007 -0.133278 -0.133282 
-0.133153 -0.133321 -0.133327 -0.133332 -0.133242 -0.198156 -0.191558 -0.158563 -0.143433 
-0.137611 -0.15959 -0.131364 -0.128413 -0.140473 -0.12509 -0.123494 -0.131559 -0.121733 
-0.120887 -0.126692 -0.119706 -0.119317 -0.123831 -0.118694 -0.118609 -0.122094 -0.11831 
-0.118364 -0.121198 -0.118102 -0.118281 -0.12067 -0.118305 -0.118546 -0.12043 -0.118664 
-0.118956 -0.120559 -0.119122 -0.119471 -0.120836 -0.119727 -0.120177 -0.121246 -0.120595 
-0.121147 -0.121896 -0.121711 -0.122551 -0.12285 -0.123218 -0.124267 -0.12406 -0.125056 
-0.12649 -0.12553 -0.127479 -0.129034 -0.127345 -0.130102 -0.132075 -0.12946 -0.133066 
-0.134727 -0.131671 -0.135638 -0.136926 -0.133715 -0.137414 -0.13792 -0.135278 -0.138076 
-0.137685 -0.135943 -0.137458 -0.136406 -0.135753 -0.135798 -0.134387 -0.134747 -0.133713 
-0.132342 -0.133295 -0.131752 -0.130783 -0.131927 -0.130257 -0.129576 -0.130749 -0.129203 
-0.128809 -0.129862 -0.128599 -0.128459 -0.129305 -0.128407 -0.128445 -0.129066 -0.128483 
-0.128629 -0.129071 -0.128733 -0.128986 -0.129238 -0.129171 -0.129456 -0.129533 -0.129661 
-0.129995 -0.129933 -0.130234 -0.130533 -0.130389 -0.130765 -0.131053 -0.130867 -0.131253 
-0.131538 -0.131302 -0.13174 -0.13198 -0.13171 -0.132163 -0.132385 -0.132097 -0.132546 
-0.132732 -0.132446 -0.132866 -0.133017 -0.132746 -0.133115 -0.133195 -0.132983 -0.133265 
-0.133281 -0.133135 -0.0199217 -0.0174855 -0.133302 -0.133201 -0.133124 -0.0279806 -0.0154594 
-0.133024 -0.132882 -0.132984 -0.132739 -0.132566 -0.132749 -0.132394 -0.132147 -0.132437 
-0.131945 -0.131694 -0.132065 -0.131481 -0.13121 -0.13165 -0.130989 -0.130692 -0.131218 
-0.130452 -0.130133 -0.13076 -0.129907 -0.129607 -0.13029 -0.129377 -0.12912 -0.129855 
-0.128947 -0.128697 -0.129461 -0.128573 -0.128434 -0.129183 -0.12841 -0.128376 -0.12901 
-0.128466 -0.128585 -0.129048 -0.128889 -0.129249 -0.129389 -0.129676 -0.130357 -0.129992 
-0.130982 -0.132098 -0.130994 -0.132815 -0.134177 -0.132311 -0.134904 -0.136122 -0.133697 
-0.136717 -0.137647 -0.134897 -0.137837 -0.138101 -0.13584 -0.137976 -0.137312 -0.135873 
-0.136571 -0.135041 -0.134835 -0.133919 -0.132055 -0.133132 -0.130869 -0.129267 -0.130838 
-0.128099 -0.126465 -0.128599 -0.125489 -0.124386 -0.126491 -0.123572 -0.122582 -0.124816 
-0.122016 -0.121322 -0.123401 -0.120893 -0.120305 -0.122373 -0.119925 -0.119498 -0.121579 
-0.119225 -0.118873 -0.120923 -0.118671 -0.118375 -0.120426 -0.118317 -0.11802 -0.120224 
-0.118112 -0.117937 -0.120252 -0.118124 -0.118149 -0.120474 -0.11845 -0.118593 -0.12101 
-0.119217 -0.119737 -0.122084 -0.121202 -0.122108 -0.124255 -0.124203 -0.125906 -0.127737 
-0.129494 -0.131697 -0.133123 -0.138385 -0.143075 -0.14328 -0.161192 -0.188907 -0.168385 
-0.166662 -0.161291 -0.163859 -0.157307 -0.155732 -0.24056 -0.154232 -0.15051 -0.231965 
-0.146718 -0.147417 -0.223239 -0.143868 -0.143833 -0.181586 -0.145086 -0.145625 -0.183206 
-0.14479 -0.145101 -0.180844 -0.146465 -0.147001 -0.180221 -0.148397 -0.148658 -0.179566 
-0.147036 -0.147304 -0.180001 -0.148067 -0.147771 -0.179774 -0.147049 -0.146566 -0.180183 
-0.146839 -0.146635 -0.180837 -0.146854 -0.147136 -0.181514 -0.147195 -0.147748 -0.181637 
-0.147436 -0.148267 -0.180891 -0.146811 -0.147123 -0.179895 -0.148308 -0.147728 -0.179354 
-0.146654 -0.14648 -0.179798 -0.147226 -0.147231 -0.180196 -0.147397 -0.147603 -0.180465 
-0.148028 -0.148469 -0.18054 -0.150967 -0.151164 -0.181381 -0.153162 -0.152477 -0.185001 
-0.158437 -0.164667 -0.19167 -0.142329 -0.145413 -0.138558 -0.142743 -0.196438 -0.137682 
-0.139148 -0.166089 -0.137114 -0.137186 -0.164344 -0.136932 -0.138495 -0.162436 -0.136319 
-0.137204 -0.164037 -0.136129 -0.136485 -0.163788 -0.136095 -0.135626 -0.163673 -0.133548 
-0.133064 -0.165042 -0.13369 -0.132303 -0.165999 -0.135794 -0.133658 -0.16665 -0.138023 
-0.134264 -0.166039 -0.145343 -0.140953 -0.167181 -0.146877 -0.135913 -0.196692 -0.0342039 
-0.0573859 -0.146316 -0.144482 -0.1462 -0.148724 -0.150925 -0.141017 -0.148263 -0.1543 
-0.139769 -0.143661 -0.158469 -0.135702 -0.13626 -0.163801 -0.134092 -0.136448 -0.163826 
-0.1318 -0.133432 -0.166477 -0.131818 -0.132556 -0.167155 -0.133191 -0.134049 -0.166533 
-0.132854 -0.132885 -0.167226 -0.135842 -0.136003 -0.166855 -0.138292 -0.136096 -0.168235 
-0.140461 -0.140144 -0.167893 -0.142446 -0.130315 -0.159283 -0.0380762 -0.0603545 -0.133289 
-0.169624 -0.160184 -0.090673 -0.155891 -0.0931783 -0.088577 -0.155066 -0.102632 -0.0955597 
-0.123366 -0.0890857 -0.0796413 -0.144373 -0.0948492 -0.23642 -0.189252 -0.140734 -0.126892 
-0.133006 -0.132897 -0.132801 -0.132674 -0.132804 -0.132574 -0.132439 -0.132616 -0.132326 
-0.132185 -0.132414 -0.132072 -0.131912 -0.132195 -0.131799 -0.131661 -0.131968 -0.131546 
-0.13142 -0.13175 -0.131322 -0.131213 -0.131556 -0.131138 -0.131047 -0.1314 -0.130995 
-0.130926 -0.13127 -0.130893 -0.130852 -0.131177 -0.130851 -0.130842 -0.13113 -0.130861 
-0.130885 -0.13113 -0.130941 -0.130999 -0.131184 -0.131059 -0.131135 -0.131277 -0.131212 
-0.131316 -0.131393 -0.131425 -0.131556 -0.131557 -0.131677 -0.131819 -0.131768 -0.131936 
-0.132092 -0.13199 -0.132212 -0.132361 -0.132215 -0.132465 -0.132597 -0.132431 -0.132698 
-0.132808 -0.132625 -0.132899 -0.132979 -0.132797 -0.13306 -0.133118 -0.132951 -0.15358 
-0.153558 -0.182173 -0.186501 -0.16008 -0.133217 -0.148975 -0.142855 -0.138067 -0.134788 
-0.144041 -0.131949 -0.130171 -0.136993 -0.128359 -0.127164 -0.132623 -0.125751 -0.125114 
-0.129552 -0.124161 -0.123846 -0.127368 -0.123262 -0.122952 -0.125926 -0.122677 -0.122717 
-0.125175 -0.122546 -0.12265 -0.124622 -0.122575 -0.122734 -0.12443 -0.122855 -0.123125 
-0.12456 -0.123264 -0.123705 -0.124856 -0.123931 -0.124524 -0.125288 -0.124893 -0.125595 
-0.125957 -0.126015 -0.126831 -0.12683 -0.127378 -0.128406 -0.127814 -0.128841 -0.129988 
-0.128738 -0.130346 -0.131323 -0.129709 -0.131844 -0.132638 -0.130582 -0.132719 -0.133209 
-0.130968 -0.133412 -0.133513 -0.131381 -0.133802 -0.133542 -0.131778 -0.133608 -0.132926 
-0.132054 -0.132939 -0.132205 -0.131879 -0.13211 -0.131492 -0.131716 -0.131222 -0.130762 
-0.131322 -0.130584 -0.130207 -0.130931 -0.13007 -0.129871 -0.130594 -0.129781 -0.129736 
-0.130396 -0.129691 -0.129734 -0.130292 -0.129738 -0.129832 -0.13027 -0.129928 -0.130111 
-0.130408 -0.130231 -0.130431 -0.130616 -0.130596 -0.130835 -0.130884 -0.130986 -0.131223 
-0.131184 -0.13136 -0.131559 -0.131487 -0.131704 -0.131894 -0.131769 -0.132044 -0.132215 
-0.13204 -0.132355 -0.132503 -0.132306 -0.132631 -0.13275 -0.132542 -0.132861 -0.132949 
-0.132746 -0.133042 -0.133114 -0.132937 -0.110932 -0.0962466 -0.171058 -0.157983 -0.157246 
-0.132971 -0.132875 -0.132767 -0.132626 -0.132776 -0.132501 -0.13233 -0.132544 -0.13219 
-0.13199 -0.132279 -0.131835 -0.131624 -0.131984 -0.131477 -0.131258 -0.131679 -0.13109 
-0.130854 -0.131362 -0.130698 -0.130476 -0.131036 -0.130326 -0.130125 -0.130743 -0.130012 
-0.129843 -0.130494 -0.129759 -0.129642 -0.1303 -0.129602 -0.129562 -0.130174 -0.129604 
-0.129701 -0.13017 -0.129802 -0.130094 -0.130295 -0.130244 -0.130643 -0.13062 -0.130944 
-0.131475 -0.131077 -0.131797 -0.1324 -0.131512 -0.132603 -0.133119 -0.131802 -0.133252 
-0.133652 -0.131849 -0.133566 -0.133781 -0.132073 -0.133915 -0.133776 -0.132032 -0.133481 
-0.1328 -0.13161 -0.132299 -0.131178 -0.13091 -0.130829 -0.129758 -0.130146 -0.129252 
-0.128101 -0.129283 -0.127478 -0.126533 -0.128066 -0.126032 -0.125263 -0.12694 -0.124848 
-0.124268 -0.126059 -0.123944 -0.123483 -0.125339 -0.123245 -0.122883 -0.124758 -0.122699 
-0.122439 -0.124355 -0.122389 -0.122183 -0.124154 -0.122268 -0.122181 -0.12416 -0.122415 
-0.122496 -0.124366 -0.12288 -0.123115 -0.124945 -0.123694 -0.124041 -0.126018 -0.124953 
-0.125801 -0.12755 -0.12729 -0.128801 -0.129944 -0.130862 -0.132741 -0.133868 -0.136093 
-0.139302 -0.139042 -0.145224 -0.151322 -0.163402 -0.147439 -0.133128 -0.177792 -0.174684 
-0.17907 -0.173062 -0.176194 -0.172369 -0.169165 -0.171536 -0.168962 -0.166933 -0.168602 
-0.169278 -0.163443 -0.16822 -0.168824 -0.165218 -0.168163 -0.168443 -0.165394 -0.168068 
-0.168176 -0.165796 -0.168367 -0.168352 -0.166249 -0.168601 -0.168349 -0.166504 -0.168844 
-0.168836 -0.166787 -0.168973 -0.169313 -0.16701 -0.169336 -0.169566 -0.166961 -0.169409 
-0.169448 -0.167042 -0.169185 -0.168948 -0.166986 -0.168692 -0.16841 -0.166826 -0.168261 
-0.168285 -0.16663 -0.168214 -0.168175 -0.166317 -0.16832 -0.168352 -0.166031 -0.168284 
-0.168397 -0.165792 -0.168275 -0.168608 -0.165689 -0.168639 -0.169674 -0.165833 -0.170319 
-0.172626 -0.166599 -0.172937 -0.153937 -0.152384 -0.148978 -0.100004 -0.110398 -0.115463 
-0.154858 -0.146102 -0.139097 -0.147446 -0.153926 -0.153247 -0.149732 -0.153458 -0.154129 
-0.151695 -0.153312 -0.154038 -0.15163 -0.153566 -0.15393 -0.151643 -0.154365 -0.154854 
-0.151855 -0.154774 -0.155441 -0.151935 -0.154951 -0.155648 -0.152084 -0.154685 -0.155128 
-0.151926 -0.156583 -0.154284 -0.150998 -0.144656 -0.157633 -0.147633 -0.125039 -0.140856 
-0.136893 -0.109825 -0.0951469 -0.139313 -0.123774 -0.0966272 -0.10363 -0.148042 -0.142488 
-0.153943 -0.154489 -0.154133 -0.154488 -0.150154 -0.155762 -0.154648 -0.150712 -0.156805 
-0.155621 -0.153401 -0.156374 -0.155498 -0.153306 -0.156505 -0.155619 -0.153083 -0.156186 
-0.155196 -0.153015 -0.155949 -0.15484 -0.152429 -0.153154 -0.153376 -0.150806 -0.138 
-0.149831 -0.145945 -0.117582 -0.132468 -0.133062 -0.151928 -0.148616 -0.14676 -0.15589 
-0.152009 -0.150163 -0.151551 -0.117965 -0.117209 -0.13315 -0.13319 -0.133211 -0.133061 
-0.170469 -0.117878 -0.116205 -0.133084 -0.130946 -0.119246 -0.132964 -0.166745 -0.112596 
-0.138939 -0.128987 -0.117091 -0.131375 -0.122491 -0.123629 -0.11289 -0.113887 -0.13243 
-0.125904 -0.132994 -0.150195 -0.150322 -0.161135 -0.132658 -0.132566 -0.13249 -0.132394 
-0.132538 -0.132324 -0.132211 -0.132401 -0.132145 -0.132034 -0.132265 -0.13197 -0.131869 
-0.132143 -0.131793 -0.131716 -0.132009 -0.131647 -0.131587 -0.131888 -0.131545 -0.131482 
-0.131793 -0.131456 -0.131411 -0.131721 -0.131411 -0.131396 -0.131683 -0.13142 -0.13142 
-0.131691 -0.131449 -0.131484 -0.131723 -0.131516 -0.131553 -0.131763 -0.131595 -0.131651 
-0.131813 -0.131711 -0.131798 -0.131892 -0.131862 -0.131967 -0.132 -0.13204 -0.132148 
-0.132137 -0.132223 -0.132326 -0.132274 -0.132401 -0.132501 -0.132408 -0.132562 -0.132649 
-0.132532 -0.132722 -0.132798 -0.13266 -0.150082 -0.150237 -0.148876 -0.14984 -0.149624 
-0.148267 -0.149725 -0.1454 -0.142187 -0.139448 -0.146493 -0.137022 -0.135269 -0.141148 
-0.133599 -0.132201 -0.137297 -0.130614 -0.129616 -0.134068 -0.128611 -0.128098 -0.131716 
-0.127518 -0.12723 -0.130138 -0.126814 -0.126685 -0.129156 -0.126397 -0.126328 -0.128413 
-0.126211 -0.126381 -0.128119 -0.126348 -0.126547 -0.128014 -0.126586 -0.12689 -0.128093 
-0.126988 -0.127434 -0.128309 -0.127569 -0.12805 -0.128629 -0.128229 -0.128757 -0.129014 
-0.12885 -0.129338 -0.129302 -0.129047 -0.129398 -0.129057 -0.129473 -0.129598 -0.128837 
-0.129095 -0.128978 -0.12809 -0.128765 -0.128831 -0.126897 -0.129142 -0.129564 -0.126689 
-0.130246 -0.130304 -0.127705 -0.130843 -0.130838 -0.129407 -0.131287 -0.131255 -0.130113 
-0.131473 -0.131299 -0.131105 -0.131346 -0.131187 -0.131474 -0.13117 -0.131056 -0.131565 
-0.131026 -0.130946 -0.131545 -0.130904 -0.130859 -0.131476 -0.130841 -0.130856 -0.131441 
-0.13085 -0.130933 -0.131404 -0.130977 -0.131087 -0.131429 -0.131162 -0.131306 -0.131535 
-0.131393 -0.131543 -0.13168 -0.131626 -0.131759 -0.131833 -0.131842 -0.131971 -0.131982 
-0.132056 -0.132185 -0.132133 -0.132274 -0.13239 -0.132289 -0.132481 -0.132591 -0.132443 
-0.132654 -0.132749 -0.132588 -0.132816 -0.132898 -0.132846 -0.132721 -0.16206 -0.153606 
-0.153986 -0.162811 -0.133141 -0.128476 -0.146252 -0.143208 -0.132594 -0.13247 -0.132381 
-0.132242 -0.132443 -0.132147 -0.131994 -0.132262 -0.131901 -0.131753 -0.132076 -0.131667 
-0.131506 -0.131897 -0.131397 -0.131253 -0.131718 -0.131167 -0.131034 -0.131544 -0.130972 
-0.130872 -0.131412 -0.130827 -0.130745 -0.131318 -0.130733 -0.130691 -0.131267 -0.13071 
-0.13075 -0.131277 -0.130804 -0.13092 -0.131356 -0.131003 -0.131183 -0.131473 -0.131222 
-0.131451 -0.131532 -0.131327 -0.131538 -0.131417 -0.131245 -0.131184 -0.130934 -0.130795 
-0.130583 -0.129922 -0.129923 -0.129879 -0.128663 -0.129667 -0.129639 -0.127927 -0.130144 
-0.130013 -0.127809 -0.129592 -0.129181 -0.128072 -0.129689 -0.129315 -0.128334 -0.129399 
-0.128991 -0.129087 -0.128804 -0.128158 -0.129032 -0.127946 -0.12749 -0.128629 -0.127382 
-0.127002 -0.128372 -0.126842 -0.126505 -0.128115 -0.126359 -0.126108 -0.127829 -0.126045 
-0.125884 -0.127618 -0.125952 -0.125882 -0.127621 -0.126093 -0.126142 -0.127868 -0.126575 
-0.1268 -0.128355 -0.127338 -0.127692 -0.129266 -0.128349 -0.129018 -0.130447 -0.130001 
-0.130825 -0.132205 -0.132638 -0.134436 -0.134907 -0.136067 -0.138558 -0.138592 -0.140451 
-0.143942 -0.142698 -0.152569 -0.152462 -0.164982 -0.164975 -0.120417 -0.119623 -0.165264 
-0.163658 -0.160464 -0.163612 -0.163096 -0.160365 -0.163231 -0.162935 -0.160319 -0.163203 
-0.163558 -0.160899 -0.163684 -0.164011 -0.161554 -0.164223 -0.16448 -0.16221 -0.16467 
-0.164921 -0.162813 -0.165029 -0.165281 -0.163321 -0.165338 -0.165477 -0.163678 -0.165468 
-0.16558 -0.163894 -0.165486 -0.165561 -0.163959 -0.16538 -0.165368 -0.163857 -0.165092 
-0.165017 -0.163547 -0.164783 -0.164678 -0.163176 -0.164533 -0.164361 -0.16281 -0.164118 
-0.163994 -0.1624 -0.163675 -0.163522 -0.161822 -0.163077 -0.162982 -0.161032 -0.162464 
-0.162652 -0.160238 -0.162265 -0.162891 -0.158388 -0.159029 -0.149114 -0.148187 -0.147159 
-0.150264 -0.150379 -0.149006 -0.150557 -0.150527 -0.149068 -0.150777 -0.150749 -0.149327 
-0.150723 -0.150838 -0.149259 -0.150002 -0.150319 -0.148749 -0.148344 -0.149096 -0.147436 
-0.143856 -0.147082 -0.144943 -0.135985 -0.140989 -0.140003 -0.135698 -0.117095 -0.120293 
-0.132728 -0.138626 -0.12757 -0.131649 -0.124272 -0.11927 -0.151638 -0.151095 -0.15253 
-0.152505 -0.151391 -0.152212 -0.152236 -0.151252 -0.151543 -0.151671 -0.150798 -0.150225 
-0.150639 -0.149525 -0.147388 -0.148752 -0.14772 -0.141758 -0.145244 -0.144161 -0.124446 
-0.128211 -0.152256 -0.151919 -0.150433 -0.151099 -0.132745 -0.115304 -0.115034 -0.118728 
-0.124406 -0.132791 -0.132684 -0.13262 -0.153477 -0.161491 -0.15692 -0.148145 -0.127352 
-0.123104 -0.132695 -0.120755 -0.132875 -0.132952 -0.12628 -0.129902 -0.126689 -0.137686 
-0.135331 -0.142925 -0.132797 -0.132985 -0.132874 -0.13221 -0.147832 -0.144999 -0.149247 
-0.139936 -0.149145 -0.124962 -0.145032 -0.147354 -0.145215 -0.118286 -0.117323 -0.123375 
-0.139559 -0.133669 -0.132799 -0.123643 -0.123903 -0.127268 -0.138354 -0.122894 -0.149522 
-0.150623 -0.150193 -0.130907 -0.127029 -0.126522 -0.132792 -0.122306 -0.12549 -0.124452 
-0.132468 -0.132411 -0.132392 -0.132323 -0.132459 -0.132303 -0.132254 -0.13243 -0.132231 
-0.132172 -0.132402 -0.132137 -0.13209 -0.132353 -0.132051 -0.13202 -0.132303 -0.131994 
-0.131956 -0.132253 -0.131969 -0.131956 -0.13223 -0.13199 -0.131999 -0.132267 -0.132017 
-0.132028 -0.132306 -0.132038 -0.132048 -0.132315 -0.13206 -0.132079 -0.132316 -0.1321 
-0.132136 -0.132325 -0.132163 -0.132211 -0.132347 -0.132236 -0.132297 -0.132378 -0.132327 
-0.132387 -0.132428 -0.132418 -0.132473 -0.132472 -0.132503 -0.132557 -0.132514 -0.132597 
-0.132657 -0.132566 -0.147391 -0.147162 -0.146986 -0.146422 -0.145559 -0.154433 -0.130619 
-0.133675 -0.145545 -0.143095 -0.141034 -0.139144 -0.144605 -0.137375 -0.135808 -0.140657 
-0.134482 -0.133454 -0.137638 -0.132518 -0.132005 -0.135342 -0.131345 -0.130991 -0.13377 
-0.13047 -0.130251 -0.132662 -0.129929 -0.129848 -0.131931 -0.129638 -0.129674 -0.131461 
-0.129553 -0.129666 -0.131203 -0.129569 -0.129739 -0.131045 -0.129676 -0.129861 -0.130938 
-0.129896 -0.130096 -0.130927 -0.129995 -0.13004 -0.130921 -0.129334 -0.129004 -0.130112 
-0.127817 -0.127353 -0.126528 -0.12465 -0.123681 -0.123284 -0.123578 -0.126662 -0.127011 
-0.131137 -0.131341 -0.13178 -0.131824 -0.131659 -0.132047 -0.132021 -0.132336 -0.132134 
-0.132109 -0.132642 -0.132123 -0.132075 -0.13274 -0.132043 -0.13199 -0.132677 -0.131927 
-0.1319 -0.132536 -0.131889 -0.131915 -0.132426 -0.131936 -0.131992 -0.132405 -0.131992 
-0.132059 -0.132398 -0.132057 -0.132124 -0.132372 -0.132132 -0.1322 -0.13236 -0.132215 
-0.132287 -0.132369 -0.132316 -0.132387 -0.1324 -0.132423 -0.132502 -0.132442 -0.132538 
-0.132597 -0.132508 -0.153537 -0.157043 -0.149291 -0.147681 -0.147664 -0.147534 -0.147497 
-0.146035 -0.146379 -0.132385 -0.132293 -0.13226 -0.132167 -0.132385 -0.132141 -0.132062 
-0.132325 -0.132034 -0.131948 -0.132287 -0.131928 -0.131861 -0.132263 -0.131852 -0.131812 
-0.132253 -0.131803 -0.131773 -0.132258 -0.131761 -0.131763 -0.132273 -0.131785 -0.13182 
-0.132312 -0.13187 -0.131943 -0.132418 -0.131911 -0.132009 -0.132495 -0.131946 -0.132012 
-0.132456 -0.131539 -0.131294 -0.131928 -0.129533 -0.128611 -0.126965 -0.126298 -0.124942 
-0.126004 -0.126207 -0.126901 -0.127799 -0.129143 -0.129227 -0.127896 -0.129475 -0.129323 
-0.12951 -0.129385 -0.129205 -0.129872 -0.12953 -0.129476 -0.130258 -0.129548 -0.129423 
-0.130724 -0.129346 -0.129221 -0.130765 -0.129197 -0.129132 -0.130652 -0.129294 -0.129331 
-0.130832 -0.129656 -0.129871 -0.131264 -0.130386 -0.130784 -0.132118 -0.131406 -0.13192 
-0.133105 -0.132694 -0.1334 -0.134461 -0.134295 -0.135513 -0.136341 -0.136412 -0.138306 
-0.138536 -0.141504 -0.143499 -0.142801 -0.144194 -0.146534 -0.150498 -0.146829 -0.149897 
-0.150233 -0.141123 -0.138407 -0.146104 -0.14515 -0.144744 -0.157084 -0.15715 -0.156913 
-0.153531 -0.157377 -0.157527 -0.154042 -0.158342 -0.158554 -0.159207 -0.159529 -0.156621 
-0.159994 -0.160326 -0.157772 -0.160758 -0.161045 -0.158768 -0.161412 -0.161639 -0.15952 
-0.161982 -0.162102 -0.160112 -0.162297 -0.162336 -0.160612 -0.162392 -0.162362 -0.16081 
-0.162219 -0.162107 -0.16076 -0.161857 -0.161667 -0.160386 -0.161414 -0.161224 -0.159897 
-0.160948 -0.160829 -0.159378 -0.160496 -0.160273 -0.158711 -0.1599 -0.159591 -0.158047 
-0.158852 -0.158305 -0.156978 -0.157198 -0.156807 -0.155362 -0.147857 -0.147732 -0.146413 
-0.130012 -0.128642 -0.130471 -0.147789 -0.147781 -0.146402 -0.146863 -0.147488 -0.146165 
-0.14524 -0.146383 -0.14509 -0.14268 -0.144493 -0.143312 -0.133021 -0.135648 -0.132511 
-0.132424 -0.13245 -0.134103 -0.150198 -0.150315 -0.149151 -0.14787 -0.148746 -0.145521 
-0.146775 -0.14611 -0.141879 -0.144016 -0.143528 -0.136299 -0.139582 -0.139527 -0.15098 
-0.148159 -0.149441 -0.155602 -0.13257 -0.132503 -0.132717 -0.138388 -0.140993 -0.140483 
-0.136587 -0.149302 -0.149732 -0.148719 -0.14786 -0.129582 -0.132652 -0.132629 -0.132505 
-0.155356 -0.129927 -0.1313 -0.141011 -0.128959 -0.13075 -0.127502 -0.124965 -0.130052 
-0.147798 -0.14344 -0.144649 -0.143225 -0.143019 -0.141125 -0.137145 -0.135911 -0.133316 
-0.134703 -0.132952 -0.155799 -0.149319 -0.150319 -0.150138 -0.13023 -0.153096 -0.148902 
-0.148357 -0.132482 -0.130871 -0.132124 -0.144903 -0.149609 -0.149273 -0.148045 -0.148904 
-0.137403 -0.134531 -0.134581 -0.132563 -0.132541 -0.144984 -0.144891 -0.132557 -0.132544 
-0.132579 -0.132571 -0.132707 -0.132599 -0.132581 -0.13278 -0.132558 -0.132539 -0.1328 
-0.132516 -0.132499 -0.132775 -0.132466 -0.132478 -0.132731 -0.132564 -0.132593 -0.132802 
-0.132626 -0.132632 -0.132922 -0.132626 -0.132617 -0.132936 -0.132599 -0.132591 -0.132893 
-0.132578 -0.132576 -0.132843 -0.13256 -0.132561 -0.132792 -0.132539 -0.132544 -0.132727 
-0.13252 -0.132531 -0.132658 -0.132517 -0.132527 -0.132612 -0.132513 -0.132522 -0.13256 
-0.132515 -0.14185 -0.139671 -0.138186 -0.141344 -0.143766 -0.141965 -0.140284 -0.138836 
-0.143126 -0.137662 -0.136762 -0.140384 -0.135906 -0.13532 -0.138291 -0.134674 -0.134135 
-0.136756 -0.13385 -0.133478 -0.13576 -0.133167 -0.132935 -0.134977 -0.132755 -0.132658 
-0.134395 -0.132537 -0.132491 -0.134088 -0.132287 -0.132248 -0.133792 -0.131918 -0.131896 
-0.133269 -0.132175 -0.132026 -0.133164 -0.131557 -0.132772 -0.132874 -0.133266 -0.133305 
-0.133701 -0.133488 -0.133416 -0.134095 -0.133422 -0.133322 -0.134159 -0.133224 -0.133112 
-0.133979 -0.1329 -0.132856 -0.13359 -0.132894 -0.132882 -0.133382 -0.132807 -0.132782 
-0.1333 -0.132673 -0.132652 -0.133083 -0.132572 -0.132567 -0.132874 -0.132511 -0.132516 
-0.132726 -0.132473 -0.132493 -0.132619 -0.132477 -0.132496 -0.132548 -0.132506 -0.132483 
-0.132433 -0.144718 -0.14515 -0.132509 -0.132492 -0.132633 -0.132531 -0.132525 -0.13272 
-0.132579 -0.132583 -0.132836 -0.132651 -0.13267 -0.132979 -0.132734 -0.132754 -0.133134 
-0.13279 -0.132813 -0.133277 -0.13274 -0.132797 -0.133309 -0.132966 -0.13307 -0.133452 
-0.13309 -0.133102 -0.133724 -0.132952 -0.132945 -0.133683 -0.130961 -0.144988 -0.14504 
-0.143728 -0.130856 -0.131349 -0.132113 -0.132176 -0.132737 -0.132144 -0.132071 -0.133534 
-0.13214 -0.132129 -0.133515 -0.132344 -0.132528 -0.13378 -0.132976 -0.133273 -0.134398 
-0.133763 -0.134296 -0.135335 -0.13502 -0.135649 -0.136502 -0.136476 -0.137257 -0.138052 
-0.138345 -0.139379 -0.139897 -0.140684 -0.141897 -0.142311 -0.14492 -0.147073 -0.148443 
-0.141788 -0.140053 -0.154144 -0.154632 -0.15063 -0.155497 -0.155999 -0.152992 -0.156491 
-0.156926 -0.154343 -0.157348 -0.157686 -0.155439 -0.158136 -0.158493 -0.156264 -0.159101 
-0.159221 -0.15717 -0.159027 -0.159025 -0.157507 -0.159312 -0.159117 -0.157547 -0.158572 
-0.158307 -0.157289 -0.158005 -0.157763 -0.156431 -0.157484 -0.157285 -0.155959 -0.156875 
-0.156618 -0.155179 -0.15617 -0.155907 -0.154419 -0.155452 -0.154755 -0.153647 -0.143345 
-0.144112 -0.14318 -0.141672 -0.142756 -0.141816 -0.132512 -0.132477 -0.132762 -0.135248 
-0.147372 -0.146158 -0.144353 -0.146653 -0.148274 -0.146007 -0.147126 -0.138163 -0.140518 
-0.144442 -0.144028 -0.148322 -0.148341 -0.142061 -0.14356 -0.140652 -0.144752 -0.145858 
-0.143418 -0.150527 -0.132533 -0.132514 -0.132624 -0.152446 -0.153118 -0.143776 -0.14312 
-0.142652 -0.133188 -0.151824 -0.151209 -0.132526 -0.132498 -0.145337 -0.146597 -0.147277 
-0.143789 -0.152812 -0.138293 -0.136322 -0.138983 -0.132554 -0.148049 -0.147378 -0.147767 
-0.131971 -0.130546 -0.144662 -0.144488 -0.143157 -0.142689 -0.141849 -0.141692 -0.144855 
-0.144761 -0.143525 -0.143703 -0.14682 -0.145784 -0.13313 -0.132554 -0.134226 -0.133718 
-0.151387 -0.147122 -0.0251919 -0.0129795 -0.150376 -0.148259 -0.148319 -0.147437 -0.140718 
-0.14011 -0.139125 -0.133976 -0.134291 -0.13576 -0.132551 -0.134446 -0.136353 -0.137446 
-0.134281 -0.14453 -0.143218 -0.14473 -0.135849 -0.137621 -0.137794 -0.135138 -0.142024 
-0.151472 -0.149532 -0.147232 -0.13298 -0.133026 -0.13302 -0.13301 -0.133064 -0.133037 
-0.13331 -0.133139 -0.0238123 -0.0120425 -0.133275 -0.133311 -0.133521 -0.133308 -0.13329 
-0.133668 -0.133215 -0.133182 -0.133588 -0.133132 -0.133099 -0.133444 -0.133056 -0.133017 
-0.133325 -0.132953 -0.132901 -0.133191 -0.132816 -0.132769 -0.133024 -0.132687 -0.132653 
-0.132821 -0.132598 -0.145582 -0.143958 -0.147933 -0.141849 -0.141374 -0.142658 -0.141323 
-0.144889 -0.140281 -0.139443 -0.142499 -0.138704 -0.138031 -0.140713 -0.137562 -0.137091 
-0.139425 -0.136723 -0.136301 -0.138445 -0.13591 -0.135658 -0.137557 -0.13551 -0.135387 
-0.136972 -0.13532 -0.135165 -0.136762 -0.134612 -0.134559 -0.149755 -0.134898 -0.135021 
-0.135466 -0.135002 -0.134953 -0.134691 -0.134565 -0.135593 -0.134215 -0.133985 -0.134956 
-0.133966 -0.0230717 -0.013972 -0.133819 -0.133708 -0.134421 -0.133507 -0.133373 -0.134019 
-0.133163 -0.133072 -0.133581 -0.132904 -0.132843 -0.133192 -0.132718 -0.132671 -0.132899 
-0.139529 -0.140995 -0.134339 -0.134579 -0.135814 -0.140493 -0.141197 -0.142406 -0.142384 
-0.132907 -0.132956 -0.133086 -0.133159 -0.133261 -0.133294 -0.133383 -0.133539 -0.133548 
-0.13364 -0.133866 -0.133812 -0.133895 -0.134228 -0.133975 -0.133957 -0.134531 -0.134142 
-0.018197 -0.00941184 -0.134396 -0.134458 -0.134954 -0.134428 -0.142467 -0.141131 -0.130844 
-0.134931 -0.135002 -0.135002 -0.13527 -0.136427 -0.135919 -0.13634 -0.13709 -0.13682 
-0.137326 -0.138176 -0.138003 -0.138692 -0.139339 -0.139558 -0.140464 -0.14096 -0.141608 
-0.142727 -0.142859 -0.14412 -0.145562 -0.145422 -0.141812 -0.14247 -0.140534 -0.150444 
-0.151454 -0.152089 -0.152724 -0.149824 -0.153304 -0.153608 -0.151273 -0.154182 -0.154637 
-0.152466 -0.155136 -0.155824 -0.153404 -0.155529 -0.0194309 -0.0141187 -0.155484 -0.155676 
-0.153904 -0.155131 -0.0194798 -0.0152093 -0.154745 -0.154388 -0.1535 -0.154079 -0.153852 
-0.152521 -0.153474 -0.153195 -0.151888 -0.152637 -0.15239 -0.151065 -0.151762 -0.142344 
-0.142381 -0.143545 -0.141281 -0.14784 -0.146652 -0.0221858 -0.0164078 -0.132681 -0.132718 
-0.132677 -0.133076 -0.133064 -0.133293 -0.133279 -0.141322 -0.140074 -0.140566 -0.141804 
-0.14068 -0.141915 -0.146652 -0.136227 -0.14126 -0.132834 -0.132894 -0.132893 -0.138663 
-0.136916 -0.136346 -0.138816 -0.135812 -0.137836 -0.138321 -0.132577 -0.133119 -0.132748 
-0.132787 -0.133015 -0.132817 -0.140904 -0.140271 -0.140066 -0.142346 -0.142292 -0.141329 
-0.13987 -0.139245 -0.138917 -0.135235 -0.13436 -0.133549 -0.143625 -0.144481 -0.145287 
-0.134696 -0.136167 -0.134737 -0.146856 -0.146692 -0.14965 -0.147985 -0.150124 -0.146784 
-0.146906 -0.146391 -0.144868 -0.14365 -0.14838 -0.136582 -0.135465 -0.142818 -0.0277829 
-0.0139218 -0.133902 -0.134061 -0.0294919 -0.0147206 -0.134132 -0.134127 -0.134528 -0.134045 
-0.133955 -0.13453 -0.133771 -0.133702 -0.134233 -0.133665 -0.133603 -0.133989 -0.133468 
-0.133375 -0.1338 -0.133207 -0.133093 -0.133472 -0.148487 -0.136037 -0.13687 -0.138037 
-0.136057 -0.144397 -0.143282 -0.142256 -0.141558 -0.144091 -0.141235 -0.140719 -0.142656 
-0.140143 -0.139638 -0.141817 -0.139097 -0.138653 -0.140733 -0.138175 -0.137975 -0.13969 
-0.138353 -0.147624 -0.148237 -0.133015 -0.136564 -0.136316 -0.139586 -0.1381 -0.136735 
-0.135836 -0.135469 -0.136862 -0.0152317 -0.024531 -0.0386573 -0.0200928 -0.135059 -0.134849 
-0.135897 -0.134471 -0.134245 -0.135065 -0.14589 -0.146349 -0.146004 -0.145069 -0.133791 
-0.133943 -0.13411 -0.134297 -0.134355 -0.135158 -0.135302 -0.136199 -0.136771 -0.137076 
-0.135565 -0.135817 -0.136779 -0.149065 -0.146985 -0.145545 -0.142139 -0.141999 -0.14087 
-0.141164 -0.143561 -0.142378 -0.145899 -0.146416 -0.138074 -0.138711 -0.139541 -0.140053 
-0.140436 -0.140308 -0.141067 -0.141659 -0.142067 -0.142969 -0.143081 -0.143982 -0.145114 
-0.146507 -0.139075 -0.139721 -0.149086 -0.149557 -0.146902 -0.15005 -0.150661 -0.148193 
-0.151389 -0.151868 -0.149503 -0.15151 -0.151171 -0.145563 -0.144658 -0.140223 -0.139934 
-0.140009 -0.138624 -0.139547 -0.133219 -0.133332 -0.13323 -0.133556 -0.133621 -0.134141 
-0.145964 -0.145565 -0.145236 -0.144389 -0.144163 -0.145449 -0.132917 -0.137017 -0.136982 
-0.13366 -0.133547 -0.139211 -0.140297 -0.14027 -0.133417 -0.133542 -0.137795 -0.137905 
-0.149755 -0.151596 -0.133879 -0.133671 -0.134305 -0.133399 -0.133704 -0.139576 -0.139013 
-0.133916 -0.13777 -0.134644 -0.134848 -0.135572 -0.146377 -0.133099 -0.140343 -0.140719 
-0.142066 -0.145123 -0.138751 -0.138081 -0.141521 -0.140658 -0.1336 -0.151399 -0.150889 
-0.150692 -0.149483 -0.150162 -0.150001 -0.148788 -0.14943 -0.139181 -0.146094 -0.14595 
-0.145733 -0.139561 -0.137351 -0.137579 -0.14261 -0.143087 -0.14405 -0.14802 -0.138047 
-0.134888 -0.133217 -0.149872 -0.134913 -0.135281 -0.133914 -0.133471 -0.138885 -0.138448 
-0.138993 -0.137971 -0.137434 -0.135577 -0.135186 -0.146824 -0.138146 -0.134718 -0.133598 
-0.139647 -0.137531 -0.137755 -0.145741 -0.144494 -0.146308 -0.134291 -0.134235 -0.134655 
-0.133861 -0.135098 -0.135176 -0.135108 -0.135026 -0.13575 -0.134696 -0.134476 -0.135283 
-0.134137 -0.13396 -0.13977 -0.139657 -0.138687 -0.145386 -0.144354 -0.147024 -0.139236 
-0.13999 -0.139894 -0.144018 -0.143328 -0.142754 -0.14486 -0.142096 -0.141564 -0.143568 
-0.140807 -0.135098 -0.145928 -0.144913 -0.134248 -0.134564 -0.148527 -0.148216 -0.145942 
-0.144073 -0.134251 -0.13668 -0.136248 -0.136276 -0.144694 -0.145307 -0.144325 -0.134002 
-0.134247 -0.135004 -0.135715 -0.135122 -0.142318 -0.142223 -0.14821 -0.148355 -0.137116 
-0.138106 -0.143241 -0.14345 -0.137121 -0.13747 -0.136713 -0.145661 -0.135923 -0.136288 
-0.146791 -0.148025 -0.146729 -0.135921 -0.148147 -0.147895 -0.147321 -0.146932 -0.145729 
-0.137553 -0.147735 -0.14626 -0.13367 -0.13441 -0.134609 -0.142932 -0.137741 -0.136173 
-0.135782 -0.14698 -0.138396 -0.143962 -0.144304 -0.145031 -0.146025 -0.145849 -0.135995 
-0.0243593 -0.145364 -0.136581 -0.136499 -0.145519 -0.1447 -0.137838 -0.0244694 -0.138819 
-0.134782 -0.138147 -0.1373 -0.137969 -0.135134 -0.134621 -0.1458 -0.145756 -0.136396 
-0.135653 -0.13635 -0.136292 -0.14537 -0.0187104 -0.0353927 -0.135115 -0.145484 -0.146231 
-0.146503 -0.137044 -0.146142 -0.137823 -0.0225207 -0.0304711 -0.133343 -0.133279 -0.133288 
-0.133139 -0.133219 -0.133182 -0.132919 -0.133049 -0.133018 -0.132636 -0.1328 -0.132809 
-0.132305 -0.13249 -0.132551 -0.131946 -0.132156 -0.132251 -0.131595 -0.131792 -0.131945 
-0.131268 -0.131454 -0.131647 -0.130932 -0.131119 -0.131361 -0.130664 -0.130807 -0.131093 
-0.130479 -0.130573 -0.130887 -0.130353 -0.130415 -0.130729 -0.130304 -0.130324 -0.130629 
-0.130336 -0.130311 -0.130607 -0.130432 -0.130371 -0.130648 -0.130595 -0.1305 -0.130749 
-0.13083 -0.130696 -0.130904 -0.131106 -0.13095 -0.131114 -0.131436 -0.131256 -0.131368 
-0.131776 -0.131594 -0.131647 -0.132135 -0.13193 -0.131943 -0.132469 -0.132286 -0.132243 
-0.132774 -0.1326 -0.132526 -0.133026 -0.132898 -0.132779 -0.133215 -0.133128 -0.133001 
-0.133308 -0.133271 -0.133169 -0.133321 -0.133343 -0.133264 -0.133337 -0.203941 -0.152428 
-0.201245 -0.139113 -0.141609 -0.162414 -0.130207 -0.132815 -0.142359 -0.124728 -0.126297 
-0.133681 -0.121443 -0.122246 -0.12799 -0.11958 -0.119995 -0.124427 -0.118721 -0.1188 
-0.122415 -0.118309 -0.118243 -0.121277 -0.118376 -0.118183 -0.120748 -0.118518 -0.118266 
-0.120646 -0.1189 -0.118584 -0.120562 -0.119518 -0.119148 -0.120897 -0.12026 -0.119826 
-0.121499 -0.12118 -0.12064 -0.122181 -0.122347 -0.121652 -0.123024 -0.123845 -0.122932 
-0.124064 -0.125667 -0.124538 -0.12534 -0.128017 -0.126508 -0.126882 -0.130716 -0.128938 
-0.128603 -0.133599 -0.131768 -0.13069 -0.135962 -0.134478 -0.132777 -0.137341 -0.136556 
-0.13435 -0.13759 -0.137651 -0.135355 -0.136628 -0.137447 -0.135491 -0.134927 -0.136231 
-0.134795 -0.132913 -0.134327 -0.133606 -0.13119 -0.132286 -0.132231 -0.12988 -0.130658 
-0.131027 -0.129002 -0.129514 -0.130098 -0.128567 -0.128751 -0.129502 -0.128458 -0.128457 
-0.129176 -0.128605 -0.128469 -0.129104 -0.128924 -0.128718 -0.12925 -0.129372 -0.129088 
-0.129568 -0.129854 -0.129565 -0.129927 -0.130407 -0.130074 -0.130346 -0.130959 -0.13063 
-0.130785 -0.131452 -0.131175 -0.131232 -0.131939 -0.131674 -0.131672 -0.132358 -0.132125 
-0.132079 -0.132707 -0.132521 -0.132431 -0.13299 -0.132845 -0.132727 -0.133196 -0.133095 
-0.132968 -0.158082 -0.133257 -0.133299 -0.13326 -0.133097 -0.133191 -0.133148 -0.132834 
-0.132979 -0.132963 -0.132498 -0.132686 -0.132701 -0.132083 -0.132327 -0.132384 -0.13162 
-0.131875 -0.132008 -0.131145 -0.131407 -0.131588 -0.130629 -0.13093 -0.131162 -0.130083 
-0.130395 -0.130712 -0.129597 -0.129862 -0.130261 -0.129078 -0.129391 -0.129845 -0.128686 
-0.128896 -0.129465 -0.128419 -0.128577 -0.129169 -0.128345 -0.128391 -0.129018 -0.128567 
-0.128425 -0.129008 -0.129131 -0.128819 -0.129357 -0.130195 -0.129568 -0.129949 -0.131877 
-0.130814 -0.13084 -0.133847 -0.132591 -0.132146 -0.135963 -0.134587 -0.133638 -0.137665 
-0.136642 -0.134922 -0.138097 -0.137804 -0.135654 -0.137058 -0.137759 -0.135795 -0.135205 
-0.136443 -0.134717 -0.132281 -0.13415 -0.133063 -0.129392 -0.131173 -0.131078 -0.126692 
-0.128162 -0.128807 -0.124465 -0.12573 -0.126626 -0.122662 -0.123606 -0.124826 -0.121314 
-0.121992 -0.123477 -0.12026 -0.120844 -0.122348 -0.119366 -0.119848 -0.121475 -0.118814 
-0.119151 -0.120832 -0.118341 -0.118652 -0.12046 -0.118018 -0.118229 -0.120165 -0.117941 
-0.118015 -0.120125 -0.118049 -0.118094 -0.120424 -0.118577 -0.118425 -0.121068 -0.119809 
-0.119331 -0.122173 -0.121581 -0.120714 -0.123898 -0.125305 -0.123494 -0.126729 -0.131796 
-0.128722 -0.131952 -0.143081 -0.138423 -0.141356 -0.183092 -0.158931 -0.162877 -0.203782 
-0.168336 -0.176287 -0.164678 -0.163364 -0.181033 -0.160163 -0.158815 -0.175341 -0.152373 
-0.155058 -0.172196 -0.148102 -0.150633 -0.177295 -0.144911 -0.144298 -0.182119 -0.145566 
-0.144469 -0.18342 -0.145571 -0.145933 -0.183413 -0.147166 -0.147476 -0.183687 -0.148673 
-0.148156 -0.183496 -0.147701 -0.148032 -0.183891 -0.146787 -0.146223 -0.183976 -0.147346 
-0.147012 -0.183224 -0.146552 -0.145967 -0.18287 -0.146756 -0.14704 -0.182062 -0.146477 
-0.146394 -0.182342 -0.147316 -0.147301 -0.182214 -0.147116 -0.147672 -0.182944 -0.147906 
-0.14728 -0.182637 -0.146245 -0.146284 -0.182269 -0.146725 -0.147274 -0.181902 -0.147485 
-0.147527 -0.183317 -0.148309 -0.148938 -0.18509 -0.151989 -0.150533 -0.187684 -0.157966 
-0.154629 -0.189998 -0.163849 -0.155688 -0.193865 -0.232964 -0.134336 -0.142366 -0.145089 
-0.135516 -0.157822 -0.137303 -0.135188 -0.165628 -0.136138 -0.135002 -0.165609 -0.1357 
-0.134578 -0.165944 -0.133538 -0.132071 -0.164492 -0.133038 -0.132135 -0.164575 -0.134239 
-0.135068 -0.164799 -0.135673 -0.135379 -0.163872 -0.135983 -0.135712 -0.164303 -0.137675 
-0.138512 -0.165438 -0.138698 -0.142363 -0.167055 -0.139569 -0.148036 -0.157954 -0.150266 
-0.142906 -0.15175 -0.0602244 -0.0542267 -0.136937 -0.137962 -0.145072 -0.140158 -0.198059 
-0.138403 -0.137996 -0.201707 -0.134796 -0.134299 -0.20087 -0.13354 -0.134428 -0.166723 
-0.134078 -0.134554 -0.166171 -0.131751 -0.136629 -0.165119 -0.13406 -0.135388 -0.165425 
-0.136468 -0.136852 -0.164741 -0.135221 -0.136988 -0.165615 -0.137408 -0.138521 -0.166133 
-0.137944 -0.140523 -0.166345 -0.141612 -0.140252 -0.16527 -0.139566 -0.135512 -0.163632 
-0.0598068 -0.0619718 -0.133304 -0.0987779 -0.0868489 -0.13418 -0.133304 -0.133275 -0.133159 
-0.186549 -0.173396 -0.0927862 -0.134397 -0.131314 -0.105901 -0.097552 -0.105442 -0.136746 
-0.105624 -0.0983386 -0.133232 -0.132909 -0.133001 -0.13308 -0.133145 -0.133148 -0.132985 
-0.132472 -0.132615 -0.132215 -0.132355 -0.132434 -0.131956 -0.132103 -0.132224 -0.13171 
-0.131849 -0.132009 -0.131475 -0.13161 -0.131802 -0.131266 -0.131373 -0.13162 -0.131101 
-0.131187 -0.131464 -0.130991 -0.131067 -0.131357 -0.130927 -0.130965 -0.131286 -0.130909 
-0.130913 -0.131225 -0.13096 -0.130935 -0.131217 -0.131059 -0.131007 -0.131269 -0.131203 
-0.131121 -0.131355 -0.13139 -0.131288 -0.131479 -0.131616 -0.131488 -0.131639 -0.131852 
-0.131712 -0.131824 -0.132098 -0.131958 -0.132018 -0.13235 -0.132208 -0.132221 -0.13258 
-0.13245 -0.13242 -0.132794 -0.132679 -0.132611 -0.132986 -0.132889 -0.132794 -0.133133 
-0.133065 -0.132962 -0.137604 -0.141521 -0.13303 -0.1331 -0.147838 -0.158047 -0.146378 
-0.152684 -0.1487 -0.15912 -0.174387 -0.180238 -0.161598 -0.131545 -0.133929 -0.139561 
-0.127665 -0.129025 -0.133749 -0.125472 -0.126194 -0.130006 -0.124184 -0.124606 -0.127818 
-0.123595 -0.123707 -0.12674 -0.123076 -0.123202 -0.125923 -0.1228 -0.122711 -0.125218 
-0.12299 -0.122718 -0.124698 -0.123475 -0.123153 -0.124903 -0.124097 -0.123678 -0.125322 
-0.12487 -0.124352 -0.125849 -0.125808 -0.125185 -0.12651 -0.126865 -0.126132 -0.127238 
-0.128023 -0.127191 -0.127958 -0.129366 -0.128379 -0.128661 -0.130753 -0.129661 -0.129314 
-0.131602 -0.130992 -0.129951 -0.132495 -0.131885 -0.130296 -0.133012 -0.132676 -0.13071 
-0.132993 -0.133142 -0.131094 -0.132721 -0.133118 -0.131193 -0.132205 -0.132868 -0.131481 
-0.131517 -0.132168 -0.131347 -0.130939 -0.131398 -0.131253 -0.1304 -0.130786 -0.131091 
-0.130012 -0.130272 -0.130781 -0.129802 -0.12991 -0.130501 -0.129797 -0.129781 -0.130375 
-0.129967 -0.129854 -0.130439 -0.130191 -0.130042 -0.130573 -0.130492 -0.130301 -0.130767 
-0.130827 -0.130612 -0.130987 -0.13119 -0.130961 -0.131234 -0.131544 -0.131327 -0.131506 
-0.131901 -0.131695 -0.131794 -0.132221 -0.132046 -0.132068 -0.132517 -0.132356 -0.132328 
-0.132767 -0.132625 -0.132561 -0.132968 -0.132858 -0.132772 -0.122155 -0.140936 -0.12711 
-0.138544 -0.133064 -0.132826 -0.132945 -0.132918 -0.132577 -0.132726 -0.132731 -0.132283 
-0.132455 -0.132503 -0.131938 -0.132145 -0.132237 -0.131574 -0.131786 -0.131943 -0.131216 
-0.13143 -0.131642 -0.130834 -0.131067 -0.131345 -0.130471 -0.130678 -0.131045 -0.130143 
-0.130335 -0.13077 -0.129854 -0.130026 -0.130528 -0.129664 -0.129776 -0.130342 -0.129601 
-0.12963 -0.130231 -0.129711 -0.129633 -0.130212 -0.130009 -0.129826 -0.130364 -0.130525 
-0.130239 -0.130592 -0.131328 -0.130825 -0.130979 -0.132271 -0.131676 -0.131443 -0.133283 
-0.132634 -0.131924 -0.133872 -0.133397 -0.132211 -0.133847 -0.133754 -0.132026 -0.133463 
-0.133707 -0.131965 -0.132685 -0.133238 -0.131624 -0.13146 -0.132245 -0.130846 -0.129931 
-0.131065 -0.130281 -0.128207 -0.129382 -0.129385 -0.12671 -0.127715 -0.128208 -0.12541 
-0.126216 -0.127194 -0.124352 -0.124967 -0.126233 -0.123504 -0.123954 -0.125394 -0.122805 
-0.123183 -0.124737 -0.122388 -0.122598 -0.124286 -0.122175 -0.122324 -0.124002 -0.122156 
-0.122191 -0.124032 -0.122415 -0.122352 -0.124376 -0.123129 -0.122807 -0.125031 -0.124167 
-0.12368 -0.12597 -0.125937 -0.125144 -0.127669 -0.1281 -0.127186 -0.129876 -0.131739 
-0.129896 -0.132928 -0.138326 -0.135013 -0.137801 -0.150242 -0.144095 -0.146554 -0.170656 
-0.159143 -0.160245 -0.173599 -0.138537 -0.127954 -0.165888 -0.167287 -0.166367 -0.169129 
-0.164583 -0.1697 -0.166884 -0.167194 -0.1649 -0.168479 -0.16775 -0.164946 -0.168959 
-0.170205 -0.165144 -0.16956 -0.170207 -0.165773 -0.169535 -0.170124 -0.16615 -0.169365 
-0.170053 -0.166344 -0.169599 -0.170192 -0.166562 -0.169619 -0.170632 -0.166653 -0.169715 
-0.170419 -0.166948 -0.169604 -0.170296 -0.167067 -0.169584 -0.169752 -0.167136 -0.169446 
-0.169823 -0.166928 -0.169451 -0.169542 -0.166813 -0.169445 -0.169482 -0.166494 -0.169207 
-0.169382 -0.166265 -0.169094 -0.169288 -0.166197 -0.169414 -0.168914 -0.166189 -0.170012 
-0.169149 -0.165971 -0.170718 -0.169382 -0.16567 -0.172148 -0.169966 -0.165226 -0.174624 
-0.172056 -0.165431 -0.106354 -0.114872 -0.145871 -0.150508 -0.139549 -0.115897 -0.0976511 
-0.151434 -0.153564 -0.147546 -0.153506 -0.153959 -0.150545 -0.154185 -0.154623 -0.151742 
-0.154316 -0.154321 -0.151963 -0.154114 -0.154683 -0.152198 -0.154105 -0.154577 -0.15197 
-0.153527 -0.154298 -0.151587 -0.153351 -0.154489 -0.151497 -0.153559 -0.155134 -0.151397 
-0.153616 -0.155288 -0.151118 -0.152023 -0.151509 -0.149964 -0.150537 -0.144029 -0.139417 
-0.14746 -0.138587 -0.12764 -0.114586 -0.110125 -0.155426 -0.158639 -0.14871 -0.156839 
-0.157246 -0.15205 -0.15619 -0.155661 -0.152357 -0.155429 -0.154693 -0.153431 -0.154963 
-0.154763 -0.153395 -0.156004 -0.154315 -0.152861 -0.155111 -0.154516 -0.152751 -0.155616 
-0.154596 -0.152571 -0.155372 -0.154808 -0.152376 -0.155196 -0.154261 -0.152013 -0.153503 
-0.152789 -0.151157 -0.151307 -0.147538 -0.148077 -0.0991244 -0.107174 -0.132717 -0.132832 
-0.132819 -0.132643 -0.133212 -0.133015 -0.13312 -0.139311 -0.123013 -0.130363 -0.137857 
-0.132964 -0.120085 -0.130769 -0.11221 -0.122148 -0.118152 -0.124883 -0.11562 -0.166116 
-0.129719 -0.121611 -0.118758 -0.178346 -0.168502 -0.108995 -0.118158 -0.119051 -0.131484 
-0.12379 -0.122065 -0.12078 -0.127387 -0.132067 -0.132175 -0.132408 -0.132505 -0.131907 
-0.132001 -0.132159 -0.13177 -0.131849 -0.132039 -0.131674 -0.13173 -0.131956 -0.131603 
-0.131637 -0.131903 -0.131546 -0.131587 -0.131863 -0.131509 -0.131541 -0.131826 -0.13152 
-0.131512 -0.131811 -0.131566 -0.13154 -0.131816 -0.13164 -0.131599 -0.13185 -0.131748 
-0.131686 -0.131909 -0.131874 -0.131799 -0.131983 -0.13202 -0.13194 -0.132077 -0.132177 
-0.132083 -0.132193 -0.132329 -0.132236 -0.132301 -0.132484 -0.132396 -0.132411 -0.132645 
-0.132549 -0.13253 -0.132791 -0.13271 -0.132653 -0.132941 -0.132864 -0.132782 -0.132923 
-0.13391 -0.130934 -0.122257 -0.126842 -0.136099 -0.138503 -0.141929 -0.136338 -0.136158 
-0.141898 -0.145429 -0.14325 -0.159603 -0.135752 -0.142335 -0.130564 -0.131346 -0.129195 
-0.129679 -0.13283 -0.128226 -0.128527 -0.131445 -0.127212 -0.127584 -0.13018 -0.126454 
-0.126483 -0.128881 -0.126922 -0.126723 -0.128437 -0.127263 -0.127002 -0.128823 -0.127668 
-0.127341 -0.129032 -0.128154 -0.12776 -0.129261 -0.128676 -0.128285 -0.129538 -0.129129 
-0.128783 -0.12982 -0.129344 -0.129075 -0.129873 -0.12951 -0.129065 -0.129504 -0.128985 
-0.129001 -0.128551 -0.128049 -0.127903 -0.128892 -0.128343 -0.130858 -0.13077 -0.13125 
-0.131268 -0.13055 -0.131326 -0.131474 -0.131438 -0.131177 -0.131347 -0.131729 -0.131028 
-0.131137 -0.131699 -0.131017 -0.131046 -0.131635 -0.131068 -0.13104 -0.13165 -0.131161 
-0.131089 -0.131682 -0.131285 -0.131188 -0.131707 -0.131429 -0.131324 -0.131751 -0.131609 
-0.131486 -0.131827 -0.131811 -0.131679 -0.131935 -0.132026 -0.131888 -0.132064 -0.132226 
-0.132102 -0.132201 -0.132429 -0.132305 -0.132342 -0.132616 -0.132505 -0.132483 -0.132788 
-0.132694 -0.132637 -0.118018 -0.116402 -0.129609 -0.131773 -0.13557 -0.132438 -0.132565 
-0.132885 -0.132207 -0.132348 -0.13242 -0.131963 -0.132116 -0.132236 -0.13173 -0.131878 
-0.132057 -0.131502 -0.131643 -0.13189 -0.131282 -0.131419 -0.131737 -0.131084 -0.131202 
-0.131596 -0.130918 -0.131019 -0.13147 -0.130809 -0.13087 -0.131379 -0.130765 -0.130789 
-0.131337 -0.130798 -0.130759 -0.131335 -0.130947 -0.130829 -0.131379 -0.131136 -0.130974 
-0.131439 -0.131284 -0.131158 -0.131472 -0.131434 -0.131287 -0.131344 -0.131513 -0.131371 
-0.131016 -0.131327 -0.131387 -0.130538 -0.129855 -0.130218 -0.129108 -0.129496 -0.129507 
-0.127749 -0.129543 -0.129838 -0.127725 -0.129042 -0.129089 -0.127548 -0.129331 -0.129709 
-0.128029 -0.128992 -0.129575 -0.128963 -0.128491 -0.128918 -0.129167 -0.127806 -0.128307 
-0.12899 -0.127123 -0.12757 -0.128666 -0.126533 -0.126941 -0.128253 -0.126091 -0.126391 
-0.127891 -0.125836 -0.125972 -0.127585 -0.125765 -0.125765 -0.127462 -0.125917 -0.125849 
-0.127589 -0.126606 -0.126312 -0.128126 -0.127631 -0.127216 -0.129011 -0.129101 -0.128409 
-0.130327 -0.131318 -0.130021 -0.132293 -0.13403 -0.132557 -0.134899 -0.137272 -0.135738 
-0.138216 -0.142159 -0.139191 -0.141668 -0.151533 -0.145977 -0.147372 -0.158142 -0.130439 
-0.133883 -0.161643 -0.161473 -0.162517 -0.162053 -0.158919 -0.133674 -0.130011 -0.12523 
-0.119091 -0.137345 -0.141675 -0.136012 -0.132234 -0.13233 -0.132413 -0.132288 -0.16328 
-0.162987 -0.160178 -0.163967 -0.163799 -0.161231 -0.16429 -0.164476 -0.162012 -0.164593 
-0.164678 -0.162619 -0.164874 -0.164927 -0.162992 -0.16512 -0.165167 -0.163282 -0.165348 
-0.165379 -0.163491 -0.165519 -0.165583 -0.16374 -0.165523 -0.165644 -0.163904 -0.165377 
-0.165529 -0.163898 -0.165097 -0.165288 -0.163666 -0.164729 -0.164894 -0.163257 -0.16442 
-0.164506 -0.162786 -0.164143 -0.164154 -0.162271 -0.16383 -0.163831 -0.161752 -0.16355 
-0.163528 -0.161278 -0.162612 -0.162726 -0.160559 -0.160747 -0.161008 -0.158048 -0.160703 
-0.160238 -0.155958 -0.154891 -0.132561 -0.134002 -0.137952 -0.14792 -0.149 -0.149495 
-0.150034 -0.147292 -0.150128 -0.150458 -0.14841 -0.150564 -0.150721 -0.148988 -0.150731 
-0.150877 -0.149412 -0.150614 -0.15048 -0.14936 -0.150259 -0.150258 -0.149061 -0.149884 
-0.149756 -0.148645 -0.149679 -0.149027 -0.148121 -0.148651 -0.147401 -0.147053 -0.132646 
-0.132752 -0.132595 -0.148756 -0.149209 -0.150499 -0.150837 -0.148041 -0.151741 -0.151959 
-0.149592 -0.152247 -0.152249 -0.150639 -0.152217 -0.152057 -0.151034 -0.151978 -0.151667 
-0.150981 -0.151668 -0.151444 -0.150636 -0.151259 -0.151008 -0.150184 -0.150616 -0.150179 
-0.149647 -0.149335 -0.148322 -0.148253 -0.146797 -0.144488 -0.141233 -0.14581 -0.14939 
-0.144159 -0.146793 -0.14511 -0.144439 -0.147712 -0.144631 -0.14042 -0.1328 -0.157475 
-0.132835 -0.132546 -0.132579 -0.132671 -0.151296 -0.122272 -0.126446 -0.12847 -0.128999 
-0.131354 -0.129118 -0.134663 -0.126084 -0.128135 -0.128338 -0.127328 -0.128676 -0.128556 
-0.130259 -0.130349 -0.123029 -0.12163 -0.121807 -0.127587 -0.132763 -0.131311 -0.128019 
-0.131954 -0.137272 -0.13558 -0.141323 -0.141148 -0.125983 -0.124781 -0.126587 -0.121991 
-0.127219 -0.13273 -0.126711 -0.123028 -0.1254 -0.144743 -0.146367 -0.143843 -0.128656 
-0.131593 -0.129179 -0.161702 -0.160819 -0.12973 -0.154495 -0.158037 -0.132263 -0.132329 
-0.132172 -0.132184 -0.132155 -0.132161 -0.132442 -0.132123 -0.132132 -0.132434 -0.132108 
-0.132119 -0.132417 -0.132112 -0.132108 -0.132402 -0.132141 -0.132127 -0.132402 -0.132186 
-0.132161 -0.132417 -0.132229 -0.132202 -0.132431 -0.132291 -0.132249 -0.132443 -0.132353 
-0.132311 -0.132459 -0.132412 -0.132369 -0.132482 -0.132477 -0.13243 -0.132498 -0.132553 
-0.132501 -0.132521 -0.132644 -0.132587 -0.132561 -0.132694 -0.128983 -0.126757 -0.132659 
-0.139317 -0.141551 -0.137615 -0.134765 -0.136709 -0.137954 -0.141088 -0.144134 -0.147408 
-0.145191 -0.117073 -0.122277 -0.133725 -0.134305 -0.134876 -0.135651 -0.138424 -0.137127 
-0.130457 -0.131286 -0.130739 -0.0142682 -0.0285429 -0.130705 -0.130578 -0.132591 -0.130785 
-0.130659 -0.132429 -0.130864 -0.130736 -0.132379 -0.130978 -0.130833 -0.132311 -0.13121 
-0.131133 -0.132428 -0.13105 -0.131205 -0.132507 -0.126453 -0.15343 -0.150285 -0.14641 
-0.125866 -0.124415 -0.130901 -0.130366 -0.132162 -0.132217 -0.132291 -0.132332 -0.132863 
-0.132304 -0.132319 -0.133015 -0.132261 -0.132272 -0.132944 -0.132212 -0.132216 -0.132814 
-0.132189 -0.132171 -0.132682 -0.132195 -0.132159 -0.132582 -0.132233 -0.132179 -0.132515 
-0.132294 -0.132232 -0.132481 -0.132366 -0.132302 -0.132475 -0.132448 -0.132382 -0.132489 
-0.13254 -0.132472 -0.132507 -0.132637 -0.132561 -0.13259 -0.122127 -0.153872 -0.132 
-0.131829 -0.131538 -0.128165 -0.133536 -0.136308 -0.132277 -0.132371 -0.13216 -0.132251 
-0.132379 -0.132062 -0.132135 -0.132331 -0.131982 -0.132045 -0.132304 -0.131927 -0.131975 
-0.132302 -0.131883 -0.131921 -0.132314 -0.13186 -0.131884 -0.132342 -0.131892 -0.131878 
-0.132411 -0.131935 -0.131905 -0.13249 -0.13199 -0.131929 -0.132539 -0.132061 -0.131997 
-0.132601 -0.131898 -0.131914 -0.132505 -0.13133 -0.131463 -0.13193 -0.12434 -0.125354 
-0.125137 -0.128204 -0.127367 -0.129585 -0.129473 -0.129709 -0.129827 -0.130233 -0.129574 
-0.12979 -0.130637 -0.129452 -0.129656 -0.130789 -0.129297 -0.129469 -0.130874 -0.129103 
-0.129216 -0.130787 -0.129136 -0.129169 -0.130699 -0.129478 -0.129367 -0.13102 -0.1303 
-0.129855 -0.131607 -0.131624 -0.131063 -0.132661 -0.13324 -0.132466 -0.13417 -0.13551 
-0.134249 -0.136095 -0.13878 -0.13701 -0.138852 -0.14241 -0.140378 -0.142297 -0.144732 
-0.133207 -0.131472 -0.132793 -0.134344 -0.133521 -0.155771 -0.154931 -0.157828 -0.157162 
-0.153624 -0.145746 -0.146888 -0.160645 -0.160446 -0.161066 -0.160924 -0.158902 -0.161471 
-0.161335 -0.159473 -0.161808 -0.161697 -0.159922 -0.16205 -0.161964 -0.160156 -0.16219 
-0.162167 -0.160366 -0.162168 -0.16225 -0.160527 -0.161863 -0.16202 -0.160528 -0.161256 
-0.161515 -0.160048 -0.160653 -0.16086 -0.159358 -0.159998 -0.160201 -0.158424 -0.159376 
-0.159564 -0.157566 -0.158751 -0.158935 -0.156833 -0.158014 -0.158527 -0.156327 -0.151448 
-0.124547 -0.14278 -0.144415 -0.14523 -0.146146 -0.143283 -0.132176 -0.132195 -0.132418 
-0.138888 -0.141174 -0.140706 -0.146485 -0.147044 -0.144799 -0.1472 -0.147517 -0.145605 
-0.147719 -0.14792 -0.146238 -0.148242 -0.148091 -0.146686 -0.147801 -0.147526 -0.146639 
-0.147414 -0.147027 -0.146117 -0.146915 -0.146464 -0.145644 -0.145953 -0.145004 -0.144767 
-0.132547 -0.132632 -0.132185 -0.132231 -0.132405 -0.132389 -0.160049 -0.159578 -0.158169 
-0.147902 -0.148635 -0.146235 -0.149265 -0.149602 -0.147615 -0.150124 -0.150125 -0.148754 
-0.149999 -0.149854 -0.14913 -0.149599 -0.14953 -0.148726 -0.149139 -0.14889 -0.148294 
-0.148446 -0.148025 -0.147573 -0.147394 -0.146463 -0.146466 -0.132234 -0.132873 -0.135712 
-0.133802 -0.132406 -0.132499 -0.132531 -0.132226 -0.132304 -0.132766 -0.129078 -0.126677 
-0.12832 -0.159186 -0.158535 -0.155795 -0.136823 -0.15221 -0.132533 -0.139411 -0.138 
-0.142015 -0.129293 -0.134948 -0.134386 -0.124794 -0.136997 -0.132493 -0.132539 -0.132435 
-0.134378 -0.132808 -0.15085 -0.129826 -0.123032 -0.137048 -0.128359 -0.132542 -0.132699 
-0.140619 -0.132537 -0.132445 -0.132315 -0.130921 -0.129185 -0.128866 -0.130692 -0.13094 
-0.129448 -0.129968 -0.157198 -0.131017 -0.146557 -0.144713 -0.145243 -0.143693 -0.132447 
-0.13235 -0.132401 -0.144628 -0.143753 -0.142721 -0.154743 -0.156657 -0.15464 -0.150654 
-0.143034 -0.144094 -0.14249 -0.129884 -0.138802 -0.141081 -0.140624 -0.136787 -0.129672 
-0.139134 -0.140626 -0.132761 -0.132746 -0.1327 -0.132711 -0.132693 -0.132692 -0.132989 
-0.13271 -0.132708 -0.132985 -0.132693 -0.132699 -0.132971 -0.132662 -0.132666 -0.132911 
-0.132629 -0.132634 -0.132832 -0.132589 -0.132597 -0.132746 -0.132554 -0.132556 -0.132667 
-0.132526 -0.132523 -0.13258 -0.132511 -0.148098 -0.145387 -0.148035 -0.150704 -0.149429 
-0.146007 -0.134064 -0.134141 -0.0120671 -0.0276187 -0.133931 -0.133973 -0.135623 -0.133759 
-0.1338 -0.1354 -0.133666 -0.133586 -0.13509 -0.135007 -0.133739 -0.132747 -0.132757 
-0.133043 -0.132762 -0.132771 -0.133091 -0.132516 -0.133737 -0.133664 -0.133312 -0.133404 
-0.13311 -0.133186 -0.13377 -0.132937 -0.132989 -0.133487 -0.132798 -0.13283 -0.133239 
-0.132699 -0.132712 -0.133032 -0.132627 -0.132627 -0.132865 -0.132582 -0.132574 -0.132734 
-0.132548 -0.132535 -0.13263 -0.132542 -0.133607 -0.133446 -0.134885 -0.131558 -0.131438 
-0.132551 -0.132544 -0.132502 -0.132502 -0.132719 -0.132695 -0.132481 -0.132494 -0.132623 
-0.132627 -0.13261 -0.132852 -0.13273 -0.132707 -0.133021 -0.13285 -0.132819 -0.133213 
-0.133006 -0.132951 -0.133424 -0.133137 -0.133068 -0.133647 -0.133208 -0.133155 -0.133824 
-0.133148 -0.133128 -0.133796 -0.133306 -0.133362 -0.130947 -0.155269 -0.154775 -0.13124 
-0.131013 -0.131324 -0.132265 -0.132373 -0.132359 -0.132335 -0.132413 -0.133902 -0.132145 
-0.132105 -0.133725 -0.132907 -0.132667 -0.13402 -0.133431 -0.133091 -0.134617 -0.135125 
-0.13437 -0.135808 -0.136733 -0.135935 -0.137491 -0.138853 -0.137784 -0.139206 -0.141958 
-0.140305 -0.141639 -0.143916 -0.158163 -0.157978 -0.157515 -0.157243 -0.156115 -0.133517 
-0.151062 -0.132137 -0.132047 -0.132934 -0.13364 -0.133529 -0.133622 -0.134096 -0.156961 
-0.156724 -0.1552 -0.158464 -0.158397 -0.156727 -0.158527 -0.158513 -0.156707 -0.158699 
-0.158654 -0.156791 -0.158885 -0.159058 -0.15721 -0.158075 -0.158409 -0.157129 -0.157204 
-0.157561 -0.156227 -0.156155 -0.156571 -0.155005 -0.155218 -0.155492 -0.153754 -0.154349 
-0.154588 -0.152637 -0.153666 -0.15373 -0.151659 -0.141655 -0.142725 -0.140131 -0.132704 
-0.132674 -0.132993 -0.133751 -0.133811 -0.134427 -0.143139 -0.143761 -0.141693 -0.130256 
-0.134158 -0.134422 -0.137308 -0.135748 -0.135817 -0.143975 -0.144356 -0.142555 -0.144541 
-0.144782 -0.143225 -0.145119 -0.145512 -0.143815 -0.145155 -0.0102375 -0.02751 -0.144927 
-0.144631 -0.14387 -0.144461 -0.144117 -0.143371 -0.143957 -0.143326 -0.142834 -0.14107 
-0.139014 -0.137433 -0.140533 -0.132481 -0.132513 -0.144576 -0.145618 -0.146354 -0.147175 
-0.145165 -0.14765 -0.148207 -0.146617 -0.148097 -0.0106401 -0.0264827 -0.14801 -0.147926 
-0.147351 -0.147563 -0.147325 -0.146963 -0.146818 -0.146421 -0.146215 -0.146004 -0.145379 
-0.145454 -0.156372 -0.155832 -0.153504 -0.154582 -0.135995 -0.13795 -0.137823 -0.135587 
-0.134568 -0.133071 -0.132493 -0.136218 -0.134389 -0.134412 -0.142487 -0.144145 -0.14669 
-0.141791 -0.142522 -0.141462 -0.140139 -0.141083 -0.143794 -0.00994467 -0.0284235 -0.136946 
-0.1365 -0.135459 -0.141743 -0.154119 -0.153265 -0.149462 -0.134001 -0.132552 -0.152291 
-0.132865 -0.132593 -0.132575 -0.145179 -0.144421 -0.143254 -0.14402 -0.137926 -0.132548 
-0.132574 -0.142184 -0.143566 -0.143273 -0.137555 -0.138452 -0.139405 -0.139502 -0.140057 
-0.141339 -0.152068 -0.135271 -0.137089 -0.132517 -0.132536 -0.13266 -0.133664 -0.134543 
-0.00552597 -0.0258251 -0.138256 -0.133782 -0.133161 -0.13321 -0.133024 -0.133082 -0.133358 
-0.132862 -0.13292 -0.13316 -0.132705 -0.132763 -0.132915 -0.132608 -0.141132 -0.141523 
-0.136834 -0.136976 -0.140267 -0.138405 -0.141941 -0.132626 -0.132526 -0.137151 -0.13732 
-0.138586 -0.135654 -0.149766 -0.133476 -0.133478 -0.133818 -0.133964 -0.133464 -0.133437 
-0.133843 -0.134198 -0.134361 -0.134545 -0.133241 -0.133335 -0.132987 -0.133062 -0.133371 
-0.132796 -0.13285 -0.133056 -0.13341 -0.133302 -0.134594 -0.134739 -0.135018 -0.133138 
-0.133064 -0.133502 -0.134827 -0.134473 -0.135998 -0.132743 -0.132691 -0.133697 -0.133586 
-0.13387 -0.134034 -0.133911 -0.134286 -0.134352 -0.134244 -0.134723 -0.134513 -0.134479 
-0.135077 -0.134531 -0.135614 -0.135609 -0.139202 -0.140893 -0.137336 -0.133508 -0.133642 
-0.134092 -0.133396 -0.133439 -0.133827 -0.135777 -0.135262 -0.135438 -0.135389 -0.136819 
-0.136658 -0.137784 -0.137757 -0.0113746 -0.0281732 -0.139614 -0.138753 -0.139772 -0.141664 
-0.140649 -0.141866 -0.144117 -0.142716 -0.143973 -0.154349 -0.153946 -0.154942 -0.155026 
-0.149932 -0.147703 -0.14564 -0.150399 -0.155296 -0.155034 -0.153191 -0.153608 -0.153088 
-0.152755 -0.151712 -0.155152 -0.15562 -0.154426 -0.154935 -0.153563 -0.152935 -0.153561 
-0.152428 -0.151556 -0.152027 -0.150662 -0.138923 -0.139963 -0.136421 -0.13654 -0.138147 
-0.137152 -0.133397 -0.133323 -0.13377 -0.133266 -0.133293 -0.133516 -0.135002 -0.135149 
-0.135541 -0.14041 -0.140984 -0.139971 -0.139309 -0.135459 -0.136948 -0.0126051 -0.0306 
-0.141622 -0.141881 -0.140478 -0.142094 -0.142413 -0.140838 -0.0142566 -0.0182518 -0.021908 
-0.0191886 -0.142554 -0.142323 -0.141261 -0.142133 -0.141918 -0.141184 -0.141589 -0.141411 
-0.140592 -0.140518 -0.13925 -0.140025 -0.137899 -0.145681 -0.146363 -0.031011 -0.146663 
-0.146718 -0.145945 -0.146539 -0.146288 -0.146076 -0.145734 -0.145351 -0.145457 -0.144606 
-0.144184 -0.144286 -0.148224 -0.133322 -0.133317 -0.133621 -0.146275 -0.148991 -0.14966 
-0.144825 -0.133285 -0.1333 -0.133699 -0.133483 -0.133103 -0.13302 -0.139156 -0.132676 
-0.133932 -0.138034 -0.136972 -0.13608 -0.140611 -0.134398 -0.138934 -0.137389 -0.137523 
-0.133625 -0.132718 -0.133732 -0.136673 -0.137849 -0.1328 -0.14181 -0.150992 -0.153065 
-0.152624 -0.132914 -0.132861 -0.133179 -0.132913 -0.135293 -0.136057 -0.137903 -0.136225 
-0.154932 -0.153236 -0.154962 -0.135024 -0.140663 -0.138828 -0.140648 -0.140493 -0.137697 
-0.135649 -0.136772 -0.135185 -0.146437 -0.143249 -0.142157 -0.143193 -0.141086 -0.141918 
-0.142634 -0.142721 -0.143871 -0.144082 -0.155293 -0.153587 -0.150035 -0.150592 -0.149037 
-0.147677 -0.144171 -0.145103 -0.144999 -0.132784 -0.132797 -0.132922 -0.132864 -0.151849 
-0.151296 -0.150441 -0.143259 -0.148874 -0.133539 -0.133652 -0.144492 -0.145095 -0.137133 
-0.138207 -0.136721 -0.13423 -0.134275 -0.150442 -0.149625 -0.13484 -0.135114 -0.133075 
-0.133209 -0.133076 -0.13343 -0.133601 -0.133443 -0.134888 -0.134642 -0.133819 -0.133649 
-0.134321 -0.134119 -0.134907 -0.13946 -0.140839 -0.140915 -0.13811 -0.14177 -0.140783 
-0.138272 -0.140769 -0.139449 -0.139696 -0.14202 -0.135595 -0.135867 -0.135883 -0.142778 
-0.140812 -0.147428 -0.144206 -0.143193 -0.144098 -0.146168 -0.145064 -0.146412 -0.148352 
-0.14249 -0.143425 -0.14381 -0.148458 -0.149517 -0.150587 -0.15152 -0.148699 -0.151662 
-0.136106 -0.13683 -0.135937 -0.134283 -0.134485 -0.135011 -0.134033 -0.134143 -0.134599 
-0.135467 -0.135237 -0.135603 -0.133813 -0.133899 -0.134021 -0.135961 -0.136198 -0.137098 
-0.133916 -0.134101 -0.134463 -0.133975 -0.139385 -0.139585 -0.0117574 -0.139896 -0.140005 
-0.138625 -0.140181 -0.139985 -0.139066 -0.139536 -0.139187 -0.138752 -0.139837 -0.138961 
-0.137822 -0.139524 -0.145286 -0.145585 -0.133039 -0.13325 -0.133223 -0.145624 -0.145051 
-0.144343 -0.14358 -0.14452 -0.133362 -0.138643 -0.134222 -0.134161 -0.14237 -0.140153 
-0.140367 -0.134292 -0.13427 -0.134658 -0.147105 -0.148131 -0.139748 -0.141042 -0.141389 
-0.14006 -0.141642 -0.138435 -0.149347 -0.146494 -0.145144 -0.133394 -0.134232 -0.141191 
-0.139892 -0.140132 -0.135767 -0.144662 -0.142286 -0.139205 -0.139345 -0.13833 -0.133087 
-0.139485 -0.138617 -0.141529 -0.147515 -0.142648 -0.143793 -0.142679 -0.146399 -0.13655 
-0.143951 -0.144589 -0.141456 -0.138478 -0.133676 -0.139164 -0.138251 -0.138972 -0.143024 
-0.144664 -0.0230734 -0.150167 -0.151828 -0.133648 -0.136282 -0.134449 -0.134008 -0.15139 
-0.151502 -0.134071 -0.151522 -0.1497 -0.152268 -0.145682 -0.146048 -0.145679 -0.145776 
-0.14555 -0.134007 -0.134052 -0.134324 -0.137912 -0.0258092 -0.00013828 -0.00096339 -0.13803 
-0.138984 -0.151599 -0.150077 -0.142383 -0.15198 -5.77869e-05 0.000458414 -0.150183 -0.143905 
-0.144952 -0.13471 -0.134995 -0.135376 -0.135374 -0.135024 -0.145345 -0.133248 -0.137645 
-0.133895 -0.136015 -0.136511 -0.135914 -0.146454 -0.134468 -0.137641 -0.137972 -0.134577 
-0.134285 -0.134199 -0.135016 -0.148793 -0.148606 -0.00368401 -0.0019903 -0.137231 -0.136865 
-0.142629 -0.149067 -0.145675 -0.146123 -0.145781 -0.13533 -0.135261 -0.13629 -0.135887 
-0.135993 -0.147069 -0.145398 -0.137278 -0.137395 -0.133458 -0.144777 -0.145566 -0.135148 
-0.135181 -0.144132 -0.144109 -0.147123 -0.148166 -0.147636 -0.135029 -0.135044 -0.135661 
-0.134973 -0.135801 -0.146358 -0.146895 -0.137365 -0.137402 -0.135109 -0.135194 -0.135715 
-0.134751 -0.1344 -0.137059 -0.137444 -0.136281 -0.143836 -0.142696 -0.145483 -0.144608 
-0.134689 -0.13482 -0.13539 -0.134889 -0.145273 -0.146604 -0.148664 -0.14658 -0.137151 
-0.00647581 -0.148013 -0.14656 -0.14872 -0.13738 -0.137295 -0.136504 -0.148765 -0.14911 
-0.145989 -0.145646 -0.145913 -0.0141783 -0.00901934 -0.146328 -0.137731 -0.136856 -0.14663 
-0.141807 -0.135696 -0.135346 -0.00197948 -0.000623314 -0.13805 -0.138205 -0.137195 -0.146955 
-0.133697 -0.136409 -0.136445 -0.136387 -0.136015 -0.135792 -0.000956596 0.000468394 -0.135951 
-0.147698 -0.136349 -0.145865 0.00037287 0.00171476 -0.136528 0.000463469 0.00175175 -0.138213 
0.000736438 0.00911604 -0.133356 -0.2557 -0.133373 -0.133366 -0.133332 -0.133252 -0.13316 
-0.133016 -0.13287 -0.132694 -0.132506 -0.132254 -0.132008 -0.131754 -0.1315 -0.131225 
-0.130963 -0.13066 -0.130356 -0.130032 -0.129717 -0.129442 -0.129135 -0.12886 -0.128539 
-0.128287 -0.128079 -0.127922 -0.127716 -0.127662 -0.127815 -0.127979 -0.128313 -0.12878 
-0.129429 -0.130084 -0.131203 -0.132324 -0.13364 -0.135028 -0.136463 -0.137742 -0.138885 
-0.139838 -0.140201 -0.140575 -0.139756 -0.138957 -0.137744 -0.136239 -0.134249 -0.132341 
-0.130507 -0.128788 -0.127214 -0.125533 -0.124271 -0.12213 -0.121127 -0.120423 -0.119749 
-0.119174 -0.11859 -0.118172 -0.117693 -0.117353 -0.117019 -0.116714 -0.116407 -0.116124 
-0.115906 -0.115715 -0.115484 -0.115386 -0.115499 -0.115707 -0.115944 -0.116307 -0.117141 
-0.117963 -0.119726 -0.121225 -0.124315 -0.126139 -0.131442 -0.13855 -0.162922 -0.127743 
-0.123137 -0.115578 -0.201382 -0.209758 -0.133358 -0.133364 -0.218476 -0.161302 -0.133148 
-0.131373 -0.126111 -0.123663 -0.120797 -0.11937 -0.117821 -0.117131 -0.116305 -0.11595 
-0.115572 -0.115518 -0.115433 -0.115537 -0.115589 -0.11579 -0.115979 -0.11626 -0.116499 
-0.116822 -0.117106 -0.117473 -0.117813 -0.118249 -0.118687 -0.119227 -0.119759 -0.120449 
-0.121264 -0.122172 -0.123195 -0.124317 -0.125739 -0.127289 -0.128841 -0.130662 -0.13266 
-0.134553 -0.136264 -0.137815 -0.139156 -0.13995 -0.140496 -0.140406 -0.140017 -0.139135 
-0.138058 -0.136691 -0.135246 -0.13378 -0.132377 -0.131274 -0.130303 -0.129542 -0.128852 
-0.128356 -0.127961 -0.127803 -0.127663 -0.127685 -0.127721 -0.127871 -0.128016 -0.12823 
-0.128489 -0.128784 -0.129072 -0.129367 -0.129704 -0.130043 -0.130343 -0.130674 -0.130964 
-0.13124 -0.131527 -0.131791 -0.132033 -0.132265 -0.132491 -0.132676 -0.132866 -0.133008 
-0.133163 -0.133258 -0.133341 -0.133364 -0.133348 -0.133348 -0.133371 -0.133363 -0.133354 
-0.133327 -0.133262 -0.133168 -0.133036 -0.132888 -0.132718 -0.132548 -0.13236 -0.132171 
-0.131958 -0.131748 -0.131549 -0.131344 -0.131157 -0.130969 -0.13078 -0.130489 -0.130339 
-0.130227 -0.130143 -0.130082 -0.130013 -0.129995 -0.129971 -0.129998 -0.130018 -0.130086 
-0.130144 -0.130254 -0.130367 -0.130493 -0.130625 -0.130799 -0.130972 -0.131164 -0.131379 
-0.131577 -0.131774 -0.131981 -0.132196 -0.132381 -0.132575 -0.13275 -0.132925 -0.13305 
-0.133174 -0.133269 -0.133336 -0.133369 -0.130621 -0.0113946 -0.00547151 -0.00822227 -0.00834128 
-0.00250127 -0.00238423 -0.000827231 -0.000359862 0.000734912 0.000599323 0.000841933 0.000901028 0.00161415 
-0.000355972 0.00063429 -0.00105006 0.00407661 -0.00072933 0.000556635 -0.00109444 -0.000739997 -0.00133781 
-0.000183529 -0.0024101 -0.0105623 -0.0134676 -0.00881193 0.00224491 0.00102101 -0.00148619 -0.00522938 
-0.00356713 -0.00560924 -0.0111572 -0.00929547 0.00598361 0.00832197 -0.133347 -0.133302 -0.133331 
-0.133331 0.00705394 0.0075579 0.00674172 0.00453212 0.00552548 0.00636614 0.00818784 0.00512921 
0.00546719 -0.00698074 0.00797062 0.00856606 0.00724399 -0.00799491 0.0025548 0.000895897 0.00724863 
-0.132696 -0.125882 -0.129356 0.0065079 -0.00173036 -0.00207239 0.0079344 -0.133266 0.00365986 
0.00818951 0.00732035 -0.00134175 -0.125438 -0.127702 -0.127642 0.007846 0.0040866 0.00399153 
-0.00189087 0.00480165 -0.133292 -0.133298 -0.0030842 0.000839966 0.00465351 -0.137662 0.00276506 
-0.00392376 0.00184624 -0.134399 -0.1701 -0.180055 -0.154653 -0.150802 -0.168201 -0.154624 
-0.13224 -0.135497 -0.133404 -0.13123 -0.129024 -0.129872 -0.130168 -0.13097 -0.179518 
-0.15562 -0.154822 -0.169984 -0.177966 -0.133428 -0.133117 -0.133366 -0.130056 -0.128672 
-0.130134 -0.157759 -0.156022 -0.155593 -0.13122 -0.1336 -0.133008 -0.132529 -0.13242 
-0.1324 -0.131574 -0.131689 -0.131681 -0.131784 -0.132488 -0.13245 -0.132424 -0.131553 
-0.131016 -0.13153 -0.13237 -0.132156 -0.13239 -0.132189 -0.141684 -0.14688 -0.138877 
-0.144307 -0.131481 -0.131825 -0.1319 -0.13197 -0.132032 -0.134283 -0.133843 -0.13459 
-0.134131 -0.125832 -0.1222 -0.12297 -0.132538 -0.13229 -0.132541 -0.132283 -0.139315 
-0.139177 -0.140774 -0.140655 -0.132623 -0.132531 -0.132576 -0.147047 -0.145956 -0.149275 
-0.148365 -0.132111 -0.131953 -0.131997 -0.131831 -0.146767 -0.131575 -0.131414 -0.133031 
-0.132939 -0.133074 -0.132967 -0.131168 -0.127776 -0.128536 -0.132788 -0.13279 -0.132964 
-0.132975 -0.133116 -0.126861 -0.126795 -0.12531 -0.131227 -0.131485 -0.131784 -0.132053 
-0.131821 -0.139566 -0.13771 -0.139514 -0.137306 -0.144324 -0.136438 -0.146362 -0.140024 
-0.166752 -0.162567 -0.162316 -0.132698 -0.132844 -0.132773 -0.159197 -0.162245 -0.147938 
-0.131508 -0.13154 -0.134554 -0.13419 -0.13464 -0.150487 -0.15047 -0.149092 -0.133732 
-0.133729 -0.132455 -0.132588 -0.132379 -0.132523 -0.13234 -0.131511 -0.131342 -0.131648 
-0.130112 -0.128483 -0.13001 -0.134865 -0.118386 -0.118559 -0.121247 -0.121682 -0.165937 
-0.163784 -0.16391 -0.161414 -0.130035 -0.129335 -0.12967 -0.136784 -0.1348 -0.135272 
-0.132422 -0.132527 -0.131435 -0.131331 -0.132089 -0.132764 -0.131981 -0.132867 -0.132848 
-0.133538 -0.133581 -0.150905 -0.150263 -0.151842 -0.132258 -0.132227 -0.134788 -0.112844 
-0.0835862 -0.131941 -0.132093 -0.13193 -0.131814 -0.151385 -0.149518 -0.151657 -0.130913 
-0.13042 -0.131064 -0.130583 -0.132978 -0.132855 -0.13285 -0.138778 -0.137738 -0.13931 
-0.138179 -0.132521 -0.13257 -0.132604 -0.137236 -0.169223 -0.131839 -0.132254 -0.132232 
-0.132357 -0.132342 -0.147308 -0.147841 -0.130751 -0.129714 -0.130539 -0.132556 -0.132436 
-0.132556 -0.132446 -0.193701 -0.1702 -0.187272 -0.132346 -0.128657 -0.130458 -0.130471 
-0.130319 -0.130056 -0.149974 -0.150189 -0.148973 -0.149683 -0.147861 -0.147188 -0.148946 
-0.130642 -0.132287 -0.131943 -0.131479 -0.131978 -0.13149 -0.124403 -0.12553 -0.125612 
-0.131522 -0.13193 -0.131506 -0.131895 -0.132118 -0.130346 -0.131425 -0.144076 -0.14334 
-0.14171 -0.14084 -0.149318 -0.133869 -0.133625 -0.134733 -0.13442 -0.132645 -0.132377 
-0.132629 -0.132498 -0.132723 -0.132778 -0.13931 -0.14209 -0.137352 -0.140382 -0.14959 
-0.148327 -0.145215 -0.135375 -0.162627 -0.154173 -0.15335 -0.151565 -0.155059 -0.129595 
-0.130162 -0.130193 -0.131372 -0.131906 -0.131308 -0.129046 -0.128739 -0.128966 -0.131075 
-0.131019 -0.130796 -0.126573 -0.12758 -0.127553 -0.126672 -0.133128 -0.13397 -0.132052 
-0.164293 -0.169271 -0.166052 -0.132749 -0.132189 -0.134083 -0.132225 -0.132064 -0.132157 
-0.130876 -0.130556 -0.129741 -0.127762 -0.13337 -0.124422 -0.126382 -0.12682 -0.128651 
-0.123087 -0.123654 -0.126038 -0.126738 -0.121042 -0.121495 -0.124138 -0.13134 -0.130882 
-0.131213 -0.134713 -0.1382 -0.136535 -0.118123 -0.120708 -0.132059 -0.131549 -0.133212 
-0.132912 -0.133235 -0.132926 -0.100217 -0.114103 -0.137384 -0.118425 -0.124591 -0.121151 
-0.125023 -0.127541 -0.128542 -0.131801 -0.132321 -0.131815 -0.132315 -0.122715 -0.125249 
-0.122835 -0.130957 -0.130548 -0.148214 -0.149042 -0.148102 -0.120881 -0.122943 -0.120683 
-0.122163 -0.149969 -0.151665 -0.150368 -0.132688 -0.132588 -0.132708 -0.132619 -0.167093 
-0.165732 -0.165635 -0.163914 -0.132085 -0.132551 -0.132523 -0.132585 -0.128454 -0.142514 
-0.142731 -0.141137 -0.132518 -0.132378 -0.143999 -0.145331 -0.147344 -0.148909 -0.126648 
-0.124438 -0.126922 -0.151053 -0.159678 -0.161762 -0.124651 -0.12681 -0.124829 -0.132042 
-0.1321 -0.131901 -0.153013 -0.151405 -0.127848 -0.130379 -0.129566 -0.147382 -0.187546 
-0.165505 -0.166557 -0.164629 -0.131994 -0.131003 -0.194381 -0.145061 -0.185668 -0.15859 
-0.156316 -0.157783 -0.155511 -0.130678 -0.130873 -0.13096 -0.136895 -0.133036 -0.13593 
-0.132793 -0.157238 -0.157262 -0.15525 -0.155278 -0.135323 -0.140844 -0.121936 -0.122406 
-0.123501 -0.133341 -0.12138 -0.122841 -0.120453 -0.111463 -0.134796 -0.146729 -0.148 
-0.146012 -0.128394 -0.138188 -0.133254 -0.174171 -0.169684 -0.15426 -0.192879 -0.158965 
-0.16085 -0.160752 -0.162724 -0.13249 -0.132403 -0.132469 -0.132387 -0.131529 -0.132065 
-0.158452 -0.132849 -0.169053 -0.177616 -0.139052 -0.132858 -0.132824 -0.133069 -0.124171 
-0.124084 -0.122179 -0.127025 -0.123916 -0.128538 -0.125385 -0.155628 -0.168291 -0.178847 
-0.133932 -0.135722 -0.135186 -0.127352 -0.126178 -0.129806 -0.128966 -0.170504 -0.138828 
-0.178808 -0.134179 -0.168793 -0.136329 -0.15562 -0.132631 -0.135489 -0.133244 -0.133337 
-0.125597 -0.118804 -0.131092 -0.13276 -0.134123 -0.122702 -0.120237 -0.12286 -0.117831 
-0.128215 -0.129262 -0.127829 -0.143673 -0.144394 -0.14435 -0.118898 -0.162279 -0.162536 
-0.160536 -0.126215 -0.125796 -0.124939 -0.130842 -0.131306 -0.130779 -0.146277 -0.146022 
-0.146342 -0.132569 -0.132576 -0.132324 -0.13234 -0.132918 -0.132596 -0.132613 -0.134844 
-0.13056 -0.130459 -0.131069 -0.130989 -0.131564 -0.132558 -0.13253 -0.132558 -0.13161 
-0.131614 -0.131807 -0.131799 -0.132652 -0.132654 -0.132717 -0.151792 -0.153273 -0.152085 
-0.131272 -0.134077 -0.133798 -0.135423 -0.168801 -0.188366 -0.19076 -0.132524 -0.132495 
-0.132527 -0.132512 -0.129449 -0.130854 -0.129376 -0.130783 -0.13253 -0.132591 -0.132782 
-0.137197 -0.132151 -0.13279 -0.132664 -0.133459 -0.133669 -0.133248 -0.133456 -0.132875 
-0.13284 -0.132852 -0.132828 -0.13527 -0.137016 -0.137723 -0.132562 -0.132645 -0.132458 
-0.132527 -0.132397 -0.142499 -0.141457 -0.142682 -0.128484 -0.125856 -0.127926 -0.131215 
-0.130712 -0.130995 -0.130512 -0.131108 -0.131652 -0.131595 -0.136258 -0.184804 -0.195794 
-0.132939 -0.133105 -0.134084 -0.13063 -0.131171 -0.131012 -0.124912 -0.12656 -0.124737 
-0.132484 -0.132476 -0.146294 -0.192624 -0.149839 -0.129658 -0.129007 -0.130097 -0.131811 
-0.132121 -0.132119 -0.136231 -0.135089 -0.134676 -0.133481 -0.132528 -0.132507 -0.134395 
-0.134338 -0.13358 -0.131066 -0.130576 -0.134974 -0.135473 -0.134946 -0.132521 -0.129944 
-0.131085 -0.132146 -0.123199 -0.124496 -0.122842 -0.128015 -0.128663 -0.128325 -0.12705 
-0.127195 -0.128033 -0.131849 -0.132538 -0.132695 -0.13266 -0.132765 -0.132722 -0.132063 
-0.132134 -0.132307 -0.156755 -0.157179 -0.154904 -0.131629 -0.131549 -0.131891 -0.134956 
-0.137962 -0.133707 -0.133494 -0.133071 -0.132894 -0.0924664 -0.129382 -0.128762 -0.128895 
-0.132359 -0.132433 -0.132268 -0.132427 -0.132403 -0.132343 -0.151735 -0.147224 -0.131989 
-0.126638 -0.125518 -0.124921 -0.13231 -0.132411 -0.131738 -0.1319 -0.131698 -0.132352 
-0.132214 -0.128636 -0.129025 -0.129269 -0.148293 -0.149434 -0.147302 -0.149376 -0.160195 
-0.158159 -0.137559 -0.136714 -0.137243 -0.136397 -0.131989 -0.131855 -0.131783 -0.131637 
-0.140898 -0.142671 -0.131273 -0.131055 -0.130997 -0.130398 -0.129765 -0.130373 -0.132611 
-0.132661 -0.162931 -0.16485 -0.131549 -0.131804 -0.131522 -0.131789 -0.133293 -0.133217 
-0.1333 -0.133215 -0.169058 -0.165485 -0.165173 -0.132267 -0.132086 -0.130901 -0.130717 
-0.132955 -0.132853 -0.132975 -0.132866 -0.133652 -0.132156 -0.132172 -0.146607 -0.14705 
-0.147768 -0.148183 -0.13087 -0.131199 -0.130865 -0.131183 -0.13633 -0.135527 -0.134256 
-0.137361 -0.136179 -0.121142 -0.121551 -0.125036 -0.12534 -0.123928 -0.131765 -0.131782 
-0.146226 -0.146109 -0.144913 -0.144944 -0.132684 -0.132963 -0.132319 -0.13315 -0.133261 
-0.133244 -0.156539 -0.153156 -0.162506 -0.159313 -0.159911 -0.129497 -0.129501 -0.17927 
-0.187835 -0.183632 -0.134668 -0.130691 -0.130628 -0.128763 -0.131436 -0.131302 -0.131744 
-0.131495 -0.132911 -0.133441 -0.132849 -0.131985 -0.132747 -0.132334 -0.13115 -0.131347 
-0.153072 -0.138241 -0.145115 -0.11914 -0.132909 -0.133008 -0.133035 -0.130899 -0.130923 
-0.1413 -0.143027 -0.139951 -0.141838 -0.138282 -0.139335 -0.138141 -0.139188 -0.131786 
-0.131693 -0.133767 -0.14408 -0.142989 -0.13496 -0.134861 -0.133314 -0.167081 -0.165573 
-0.166355 -0.150949 -0.153128 -0.154734 -0.141403 -0.142859 -0.167977 -0.129097 -0.129464 
-0.129511 -0.133101 -0.133015 -0.133006 -0.132916 -0.148185 -0.129624 -0.130827 -0.132249 
-0.131708 -0.144624 -0.146788 -0.145034 -0.124295 -0.125733 -0.12487 -0.138917 -0.161406 
-0.163434 -0.161114 -0.167314 -0.158946 -0.158766 -0.139612 -0.144423 -0.13798 -0.142547 
-0.114939 -0.153878 -0.132432 -0.162632 -0.16454 -0.162291 -0.131178 -0.182939 -0.169297 
-0.125547 -0.120943 -0.124216 -0.158956 -0.132499 -0.163081 -0.163198 -0.161313 -0.193663 
-0.18891 -0.159175 -0.15913 -0.157348 -0.132725 -0.132887 -0.132174 -0.137627 -0.138487 
-0.138592 -0.132166 -0.132132 -0.131535 -0.145741 -0.166995 -0.168739 -0.165959 -0.141642 
-0.143794 -0.138162 -0.166116 -0.16457 -0.164618 -0.168607 -0.188848 -0.165464 -0.169364 
-0.138738 -0.139079 -0.137246 -0.13423 -0.161219 -0.129332 -0.128358 -0.182604 -0.140788 
-0.169815 -0.134052 -0.133671 -0.13394 -0.133535 -0.131537 -0.131268 -0.128694 -0.128902 
-0.129301 -0.191469 -0.15963 -0.157508 -0.159263 -0.151964 -0.128391 -0.130895 -0.130404 
-0.168192 -0.136717 -0.177072 -0.133048 -0.126598 -0.128552 -0.124885 -0.129916 -0.129257 
-0.150273 -0.151866 -0.149345 -0.156934 -0.159612 -0.160174 -0.149177 -0.166176 -0.166178 
-0.162716 -0.146328 -0.146454 -0.144195 -0.144522 -0.157035 -0.141123 -0.141753 -0.140317 
-0.15058 -0.150907 -0.14968 -0.149322 -0.150176 -0.148858 -0.13914 -0.151694 -0.153339 
-0.155992 -0.15161 -0.163737 -0.165485 -0.163565 -0.150999 -0.152217 -0.150918 -0.15069 
-0.15287 -0.156281 -0.152655 -0.149576 -0.148411 -0.150006 -0.150165 -0.151134 -0.151203 
-0.134828 -0.16695 -0.143297 -0.186806 -0.194113 -0.168625 -0.13295 -0.138607 -0.138085 
-0.140935 -0.140177 -0.14626 -0.146977 -0.132124 -0.133232 -0.133074 -0.132532 -0.132581 
-0.132629 -0.143142 -0.140678 -0.144534 -0.142283 -0.132747 -0.132761 -0.132683 -0.177042 
-0.155035 -0.16854 -0.169051 -0.131775 -0.12857 -0.12917 -0.133555 -0.133691 -0.129283 
-0.129627 -0.130911 -0.131191 -0.130881 -0.133807 -0.133765 -0.134121 -0.134065 -0.130723 
-0.131366 -0.132613 -0.132797 -0.132878 -0.132657 -0.132669 -0.132549 -0.155181 -0.153676 
-0.13965 -0.136935 -0.138436 -0.130902 -0.130614 -0.130651 -0.132037 -0.131769 -0.149129 
-0.150522 -0.150177 -0.132561 -0.132564 -0.1326 -0.132623 -0.13254 -0.132599 -0.132362 
-0.132608 -0.132359 -0.131833 -0.131667 -0.133792 -0.133277 -0.133585 -0.135203 -0.136249 
-0.135197 -0.132541 -0.146939 -0.131313 -0.133077 -0.128687 -0.120948 -0.122819 -0.122753 
-0.124563 -0.146186 -0.137562 -0.143381 -0.135546 -0.137462 -0.134436 -0.122056 -0.154574 
-0.152908 -0.138897 -0.136166 -0.138167 -0.132653 -0.133102 -0.132522 -0.132028 -0.132059 
-0.13175 -0.132478 -0.132465 -0.132272 -0.132322 -0.132158 -0.132862 -0.132947 -0.132641 
-0.132719 -0.131845 -0.13223 -0.131659 -0.166771 -0.165754 -0.146511 -0.166983 -0.165566 
-0.166336 -0.126874 -0.130021 -0.167981 -0.169349 -0.167883 -0.13113 -0.133476 -0.132202 
-0.148795 -0.148983 -0.148101 -0.126628 -0.145987 -0.145751 -0.132625 -0.132785 -0.132571 
-0.132726 -0.128752 -0.128846 -0.132233 -0.132214 -0.132323 -0.132039 -0.132334 -0.131352 
-0.131639 -0.131553 -0.131533 -0.131959 -0.132092 -0.132017 -0.13177 -0.152636 -0.149995 
-0.150133 -0.147388 -0.148814 -0.145351 -0.189181 -0.133897 -0.131663 -0.133164 -0.131724 
-0.146828 -0.147423 -0.147411 -0.130191 -0.131338 -0.131227 -0.131503 -0.132315 -0.15181 
-0.151561 -0.153262 -0.144655 -0.12953 -0.12749 -0.127686 -0.132644 -0.132606 -0.132519 
-0.134752 -0.133197 -0.139154 -0.140492 -0.140128 -0.141533 -0.148881 -0.145636 -0.189983 
-0.133688 -0.134051 -0.134275 -0.130939 -0.132223 -0.14873 -0.147741 -0.149202 -0.149946 
-0.124828 -0.124075 -0.125322 -0.135344 -0.136723 -0.135919 -0.135219 -0.13692 -0.136081 
-0.134393 -0.134451 -0.134136 -0.0956323 -0.11161 -0.109214 -0.133024 -0.14628 -0.189459 
-0.133115 -0.132503 -0.132507 -0.131762 -0.143865 -0.145218 -0.143365 -0.14473 -0.131269 
-0.131011 -0.131579 -0.131448 -0.131342 -0.117909 -0.169635 -0.192554 -0.195468 -0.136171 
-0.136319 -0.145816 -0.147255 -0.145606 -0.131853 -0.131862 -0.137986 -0.136459 -0.130133 
-0.131591 -0.132841 -0.132345 -0.132405 -0.132426 -0.132475 -0.152705 -0.155878 -0.151635 
-0.140919 -0.143125 -0.129243 -0.129191 -0.12757 -0.127494 -0.162307 -0.162359 -0.160612 
-0.160631 -0.18656 -0.163681 -0.138337 -0.13672 -0.135453 -0.137769 -0.136983 -0.169741 
-0.16633 -0.155139 -0.15671 -0.153837 -0.132524 -0.13975 -0.139744 -0.137604 -0.137792 
-0.143779 -0.148412 -0.14528 -0.173633 -0.179045 -0.145278 -0.146116 -0.144167 -0.132421 
-0.13217 -0.156939 -0.155245 -0.159156 -0.157227 -0.149974 -0.156353 -0.150817 -0.156099 
-0.173984 -0.16995 -0.133853 -0.134047 -0.135449 -0.137633 -0.140387 -0.141911 -0.125904 
-0.124038 -0.135434 -0.1348 -0.135705 -0.139523 -0.132458 -0.132434 -0.169804 -0.142839 
-0.143185 -0.133409 -0.133007 -0.133083 -0.13495 -0.132755 -0.132865 -0.131467 -0.131438 
-0.166351 -0.169077 -0.144255 -0.146269 -0.145202 -0.149612 -0.139617 -0.140987 -0.142222 
-0.144083 -0.123084 -0.123425 -0.119096 -0.151317 -0.15576 -0.133184 -0.132698 -0.176338 
-0.168739 -0.154442 -0.131896 -0.138227 -0.131076 -0.131863 -0.131487 -0.131828 -0.133734 
-0.13374 -0.135952 -0.143016 -0.154678 -0.17115 -0.134985 -0.133538 -0.148032 -0.147637 
-0.146654 -0.146351 -0.136844 -0.142573 -0.145261 -0.140567 -0.147489 -0.148348 -0.150312 
-0.157422 -0.159827 -0.157902 -0.160178 -0.131941 -0.126726 -0.128888 -0.128469 -0.132471 
-0.156109 -0.158031 -0.156548 -0.130672 -0.132103 -0.130807 -0.13481 -0.129272 -0.132393 
-0.132694 -0.132635 -0.163797 -0.165616 -0.130207 -0.130356 -0.12986 -0.134366 -0.134943 
-0.133384 -0.146723 -0.145551 -0.147128 -0.130462 -0.130789 -0.1304 -0.130716 -0.146392 
-0.145407 -0.159751 -0.157613 -0.158899 -0.159004 -0.160217 -0.160365 -0.132301 -0.132471 
-0.132796 -0.132307 -0.131759 -0.131469 -0.131457 -0.132922 -0.162115 -0.162392 -0.157591 
-0.157902 -0.132592 -0.132708 -0.132747 -0.132863 -0.145506 -0.136444 -0.168348 -0.173258 
-0.145157 -0.190733 -0.173659 -0.148811 -0.150963 -0.149074 -0.149665 -0.162109 -0.148025 
-0.202978 -0.130348 -0.132424 -0.132411 -0.132243 -0.150207 -0.1489 -0.153738 -0.13251 
-0.134681 -0.136358 -0.133144 -0.155611 -0.1406 -0.139297 -0.138779 -0.144037 -0.144062 
-0.143094 -0.154221 -0.131757 -0.143553 -0.124097 -0.12579 -0.129083 -0.130924 -0.129497 
-0.127896 -0.131623 -0.131818 -0.131763 -0.127293 -0.12859 -0.129277 -0.132955 -0.13423 
-0.163374 -0.173886 -0.15421 -0.154136 -0.152048 -0.13116 -0.130972 -0.131235 -0.150619 
-0.150631 -0.126522 -0.127479 -0.12414 -0.13224 -0.132747 -0.131738 -0.132614 -0.131589 
-0.132415 -0.132414 -0.131586 -0.132417 -0.132414 -0.132294 -0.132379 -0.186602 -0.168422 
-0.132667 -0.132511 -0.156346 -0.137696 -0.136932 -0.138502 -0.128408 -0.127457 -0.142194 
-0.141909 -0.130997 -0.131579 -0.132173 -0.132327 -0.132353 -0.134664 -0.134497 -0.138885 
-0.13976 -0.141037 -0.138672 -0.13363 -0.135432 -0.133789 -0.159009 -0.157149 -0.160454 
-0.158438 -0.132187 -0.131563 -0.132998 -0.127467 -0.127584 -0.126561 -0.143263 -0.141758 
-0.142562 -0.139922 -0.139742 -0.132967 -0.142583 -0.135215 -0.133874 -0.131927 -0.12958 
-0.13263 -0.132969 -0.132903 -0.133106 -0.16926 -0.165579 -0.163934 -0.13286 -0.132955 
-0.132878 -0.13304 -0.131167 -0.133244 -0.134872 -0.135428 -0.135139 -0.129474 -0.129773 
-0.149214 -0.154459 -0.133358 -0.142959 -0.13976 -0.126122 -0.133428 -0.13334 -0.134025 
-0.152487 -0.154372 -0.153925 -0.188995 -0.153078 -0.154885 -0.144231 -0.14282 -0.14387 
-0.16288 -0.16277 -0.15951 -0.164205 -0.132732 -0.132755 -0.128501 -0.129146 -0.128591 
-0.162372 -0.149298 -0.152739 -0.153069 -0.15486 -0.155288 -0.151332 -0.153635 -0.153944 
-0.131022 -0.168891 -0.184175 -0.132481 -0.135034 -0.131049 -0.131176 -0.197097 -0.144841 
-0.145123 -0.14382 -0.142291 -0.130044 -0.129659 -0.127899 -0.152802 -0.150365 -0.154742 
-0.152223 -0.130007 -0.133391 -0.132605 -0.136261 -0.135176 -0.124161 -0.125819 -0.136425 
-0.134876 -0.124644 -0.132625 -0.132976 -0.13288 -0.132972 -0.149923 -0.151049 -0.132013 
-0.130644 -0.122952 -0.13287 -0.132385 -0.13262 -0.137329 -0.138031 -0.136992 -0.145203 
-0.132505 -0.129937 -0.169628 -0.164909 -0.128179 -0.126857 -0.128025 -0.135672 -0.128268 
-0.122147 -0.120445 -0.120297 -0.13629 -0.133859 -0.133987 -0.134461 -0.125158 -0.122185 
-0.124507 -0.135722 -0.135773 -0.13641 -0.13377 -0.134156 -0.133616 -0.139033 -0.151552 
-0.153285 -0.151291 -0.13189 -0.133376 -0.154254 -0.157511 -0.156558 -0.15199 -0.150151 
-0.152484 -0.139364 -0.138288 -0.139979 -0.132328 -0.132401 -0.132467 -0.133264 -0.146682 
-0.144504 -0.145824 -0.142467 -0.143484 -0.128448 -0.129028 -0.129063 -0.128573 -0.133094 
-0.184532 -0.127585 -0.128231 -0.136772 -0.136659 -0.125654 -0.141327 -0.142314 -0.147352 
-0.148234 -0.204017 -0.133148 -0.131152 -0.133041 -0.151985 -0.151266 -0.151048 -0.145121 
-0.145457 -0.131735 -0.140574 -0.141681 -0.13235 -0.132293 -0.132764 -0.136907 -0.135848 
-0.135899 -0.135367 -0.132528 -0.132519 -0.132515 -0.128293 -0.169625 -0.122458 -0.123802 
-0.122039 -0.135928 -0.123876 -0.129112 -0.130661 -0.137918 -0.137413 -0.138506 -0.0512573 
-0.130234 -0.129731 -0.13011 -0.0970516 -0.131643 -0.131954 -0.131564 -0.14005 -0.140749 
-0.139022 -0.131592 -0.135554 -0.135812 -0.136562 -0.187083 -0.170113 -0.141855 -0.142327 
-0.15488 -0.147385 -0.151544 -0.153376 -0.149827 -0.151251 -0.152025 -0.150385 -0.154959 
-0.13452 -0.161286 -0.16685 -0.11989 -0.120304 -0.132673 -0.160744 -0.158614 -0.147192 
-0.128435 -0.129179 -0.130187 -0.130934 -0.140859 -0.138085 -0.178113 -0.135618 -0.13777 
-0.135463 -0.131286 -0.130731 -0.130759 -0.153059 -0.151601 -0.136916 -0.132107 -0.147039 
-0.145207 -0.146539 -0.132315 -0.132188 -0.13013 -0.130012 -0.129647 -0.132892 -0.132984 
-0.132162 -0.132239 -0.132319 -0.131074 -0.130911 -0.131196 -0.149036 -0.149022 -0.147626 
-0.122718 -0.141718 -0.140489 -0.141755 -0.140398 -0.138453 -0.137269 -0.136824 -0.136957 
-0.134989 -0.138025 -0.135604 -0.148246 -0.145611 -0.148142 -0.140749 -0.139585 -0.144926 
-0.145695 -0.144933 -0.130499 -0.130862 -0.130674 -0.131038 -0.129901 -0.129851 -0.13094 
-0.135194 -0.136848 -0.130798 -0.131161 -0.130682 -0.151562 -0.155855 -0.153136 -0.135975 
-0.137562 -0.126348 -0.128875 -0.133547 -0.133244 -0.133578 -0.154523 -0.148241 -0.155142 
-0.131354 -0.122323 -0.118854 -0.119294 -0.138102 -0.163043 -0.164774 -0.133162 -0.133484 
-0.133191 -0.13239 -0.132625 -0.13238 -0.134047 -0.132929 -0.136986 -0.138561 -0.133872 
-0.133558 -0.135653 -0.135253 -0.148976 -0.149833 -0.152771 -0.134358 -0.132131 -0.131145 
-0.130327 -0.130222 -0.13852 -0.140665 -0.139422 -0.127071 -0.128359 -0.131694 -0.132283 
-0.156201 -0.134123 -0.133948 -0.134308 -0.134261 -0.134748 -0.133369 -0.132998 -0.130949 
-0.133048 -0.133017 -0.132681 -0.132979 -0.131256 -0.131248 -0.130855 -0.138286 -0.136755 
-0.137002 -0.136049 -0.137204 -0.133323 -0.133447 -0.135537 -0.134951 -0.139671 -0.13242 
-0.13045 -0.129587 -0.130395 -0.144453 -0.144104 -0.159402 -0.159599 -0.148956 -0.150926 
-0.150181 -0.151969 -0.150671 -0.138087 -0.137173 -0.13258 -0.133807 -0.134064 -0.148088 
-0.146792 -0.133451 -0.133736 -0.132081 -0.133242 -0.133073 -0.132558 -0.133039 -0.151966 
-0.150688 -0.152044 -0.150959 -0.131635 -0.133551 -0.137848 -0.14068 -0.140831 -0.143104 
-0.138432 -0.139333 -0.14328 -0.154637 -0.15593 -0.156406 -0.131311 -0.13183 -0.155239 
-0.153493 -0.153582 -0.133044 -0.131718 -0.131833 -0.132062 -0.131976 -0.131878 -0.151199 
-0.135134 -0.13667 -0.129139 -0.153555 -0.141272 -0.141533 -0.143593 -0.144211 -0.138298 
-0.133699 -0.137794 -0.133239 -0.137994 -0.151342 -0.1368 -0.140653 -0.137533 -0.0455015 
-0.13256 -0.132589 -0.132537 -0.139628 -0.139269 -0.1383 -0.136325 -0.135631 -0.13109 
-0.131367 -0.131273 -0.135479 -0.135781 -0.135823 -0.135293 -0.134762 -0.140429 -0.131894 
-0.131493 -0.134268 -0.134512 -0.145751 -0.145369 -0.146623 -0.146102 -0.0872097 -0.141661 
-0.133907 -0.134203 -0.133403 -0.145757 -0.14573 -0.145615 -0.132278 -0.132285 -0.139217 
-0.133601 -0.130244 -0.133273 -0.138331 -0.139609 -0.139507 -0.134073 -0.134429 -0.134237 
-0.134622 -0.133772 -0.133551 -0.133445 -0.133297 -0.133485 -0.133095 -0.133156 -0.132101 
-0.132155 -0.140205 -0.141385 -0.120634 -0.118883 -0.132156 -0.132247 -0.128792 -0.129272 
-0.145092 -0.144751 -0.145717 -0.145307 -0.143831 -0.142651 -0.142837 -0.1429 -0.139625 
-0.140864 -0.129274 -0.145762 -0.147241 -0.143021 -0.144281 -0.129241 -0.142193 -0.132791 
-0.144122 -0.143218 -0.143206 -0.144157 -0.135152 -0.135217 -0.142014 -0.143796 -0.142414 
-0.141137 -0.141061 -0.134809 -0.127527 -0.132244 -0.143085 -0.141822 -0.190186 -0.147236 
-0.146326 -0.141988 -0.140785 -0.124049 -0.122297 -0.123199 -0.136482 -0.141295 -0.141272 
-0.140299 -0.133138 -0.133517 -0.144951 -0.145502 -0.128877 -0.132799 -0.132877 -0.1328 
-0.132153 -0.131827 -0.131901 -0.133767 -0.18651 -0.145946 -0.149687 -0.147767 -0.148299 
-0.138984 -0.125871 -0.127171 -0.127294 -0.133116 -0.133074 -0.133193 -0.13328 -0.128773 
-0.128932 -0.133374 -0.132989 -0.145615 -0.132243 -0.132353 -0.1313 -0.13262 -0.150216 
-0.149734 -0.149428 -0.145464 -0.145119 -0.145787 -0.145536 -0.12614 -0.146843 -0.147899 
-0.133562 -0.133795 -0.132322 -0.132213 -0.135013 -0.130375 -0.12977 -0.129827 -0.129134 
-0.132427 -0.132567 -0.133746 -0.133253 -0.131792 -0.155638 -0.15503 -0.15336 -0.122149 
-0.120224 -0.142375 -0.131622 -0.131473 -0.129925 -0.133774 -0.132449 -0.135893 -0.149648 
-0.148643 -0.130962 -0.13127 -0.132526 -0.132669 -0.132228 -0.145985 -0.126028 -0.12303 
-0.127396 -0.132361 -0.13266 -0.132355 -0.132651 -0.132092 -0.132076 -0.135805 -0.132843 
-0.131194 -0.137662 -0.136738 -0.13069 -0.129586 -0.129131 -0.179952 -0.1323 -0.131874 
-0.131948 -0.122401 -0.120859 -0.122648 -0.128761 -0.13218 -0.151517 -0.131375 -0.131474 
-0.130176 -0.156539 -0.156236 -0.13166 -0.135031 -0.135149 -0.1325 -0.131012 -0.132555 
-0.1314 -0.131043 -0.193996 -0.130661 -0.130624 -0.147799 -0.119991 -0.132463 -0.185125 
-0.138867 -0.138558 -0.133784 -0.132668 -0.132395 -0.13014 -0.130707 -0.150872 -0.12846 
-0.132575 -0.13247 -0.141939 -0.137724 -0.14005 -0.140432 -0.141548 -0.132592 -0.132505 
-0.130591 -0.132087 -0.132161 -0.12085 -0.15337 -0.151696 -0.152708 -0.14242 -0.166172 
-0.129274 -0.131246 -0.157061 -0.157457 -0.144836 -0.13981 -0.150813 -0.150932 -0.130731 
-0.131059 -0.130929 -0.131986 -0.131963 -0.132607 -0.134881 -0.129031 -0.132797 -0.131919 
-0.131551 -0.141367 -0.132997 -0.133232 -0.108929 -0.14026 -0.12257 -0.121946 -0.132122 
-0.132115 -0.131657 -0.131751 -0.131891 -0.128892 -0.136168 -0.135265 -0.120716 -0.145078 
-0.146329 -0.14284 -0.129003 -0.129439 -0.128744 -0.129276 -0.168186 -0.189504 -0.16985 
-0.137289 -0.131327 -0.133634 -0.133077 -0.131956 -0.162017 -0.128165 -0.114628 -0.112595 
-0.169092 -0.189333 -0.165735 -0.168437 -0.165962 -0.164322 -0.11861 -0.129955 -0.130218 
-0.129636 -0.101196 -0.133087 -0.132969 -0.132855 -0.136998 -0.13786 -0.159967 -0.128167 
-0.128684 -0.12942 -0.129186 -0.176535 -0.15578 -0.165067 -0.168346 -0.165453 -0.226289 
-0.191837 -0.132518 -0.125986 -0.135858 -0.133162 -0.135654 -0.0810525 -0.112224 -0.113116 
-0.132404 -0.100507 -0.179128 -0.155971 -0.135059 -0.1357 -0.123953 -0.122012 -0.0474651 
-0.0850276 -0.0929321 -0.169448 -0.129526 -0.130302 -0.13315 -0.146934 -0.145052 -0.142282 
-0.140998 -0.118318 -0.120938 -0.132961 -0.132901 -0.131772 -0.131493 -0.166327 -0.166513 
-0.204171 -0.143598 -0.185899 -0.133549 -0.133255 -0.133626 -0.126986 -0.166416 -0.169808 
-0.133689 -0.134784 -0.132714 -0.130996 -0.132556 -0.132434 -0.1404 -0.135234 -0.155697 
-0.153974 -0.153597 -0.152134 -0.165223 -0.159848 -0.156045 -0.147081 -0.148687 -0.148132 
-0.13294 -0.131635 -0.130202 -0.120863 -0.118275 -0.118302 -0.128059 -0.134962 -0.134152 
-0.159429 -0.132234 -0.132278 -0.143416 -0.143425 -0.144765 -0.144877 -0.123735 -0.123136 
-0.132345 -0.161787 -0.164098 -0.163771 -0.138264 -0.118025 -0.120159 -0.118014 -0.120123 
-0.124536 -0.124052 -0.13639 -0.123481 -0.12177 -0.122917 -0.129545 -0.129164 -0.131177 
-0.131466 -0.129871 -0.131682 -0.134017 -0.133183 -0.128696 -0.134275 -0.13493 -0.134698 
-0.131009 -0.129105 -0.129744 -0.132747 -0.131403 -0.131266 -0.131298 -0.130362 -0.129753 
-0.130325 -0.158421 -0.130556 -0.144961 -0.122505 -0.122394 -0.120268 -0.130928 -0.133045 
-0.133062 -0.120582 -0.118665 -0.120682 -0.156195 -0.154587 -0.169355 -0.154099 -0.144598 
-0.13267 -0.16211 -0.125379 -0.146199 -0.147171 -0.164162 -0.165886 -0.128313 -0.129643 
-0.169406 -0.120478 -0.120605 -0.132058 -0.131181 -0.120494 -0.118476 -0.118348 -0.130868 
-0.130592 -0.131471 -0.128618 -0.129859 -0.120098 -0.137847 -0.137772 -0.13602 -0.133871 
-0.133574 -0.119221 -0.137823 -0.125854 -0.124321 -0.126127 -0.125993 -0.148698 -0.150654 
-0.126382 -0.12461 -0.135966 -0.136977 -0.136503 -0.131748 -0.132114 -0.169222 -0.170816 
-0.1509 -0.151745 -0.150541 -0.15052 -0.13572 -0.13332 -0.135573 -0.132542 -0.114615 
-0.151139 -0.118933 -0.116694 -0.132901 -0.161555 -0.170108 -0.165259 -0.1513 -0.151263 
-0.132527 -0.142758 -0.132312 -0.132235 -0.127701 -0.129918 -0.130815 -0.103926 -0.145958 
-0.133634 -0.133334 -0.160473 -0.140312 -0.153071 -0.149581 -0.154737 -0.133323 -0.149485 
-0.142676 -0.135938 -0.136255 -0.143469 -0.14199 -0.13144 -0.130995 -0.131385 -0.133443 
-0.132109 -0.131744 -0.132701 -0.134652 -0.132822 -0.133025 -0.13193 -0.132759 -0.132792 
-0.132669 -0.132106 -0.13208 -0.134284 -0.128551 -0.132396 -0.138991 -0.12551 -0.130945 
-0.130942 -0.13172 -0.132848 -0.1316 -0.139657 -0.140231 -0.132213 -0.13229 -0.132444 
-0.126738 -0.131075 -0.131205 -0.130332 -0.129724 -0.130457 -0.129798 -0.14411 -0.133332 
-0.133906 -0.134247 -0.135279 -0.160473 -0.157025 -0.127219 -0.134433 -0.135822 -0.133571 
-0.131584 -0.130138 -0.130303 -0.129078 -0.143209 -0.124446 -0.140051 -0.130921 -0.127678 
-0.125114 -0.123256 -0.123414 -0.129479 -0.131753 -0.131942 -0.131696 -0.131899 -0.132184 
-0.129731 -0.128661 -0.129417 -0.12719 -0.132597 -0.132541 -0.132666 -0.132606 -0.126552 
-0.140992 -0.136446 -0.132497 -0.131208 -0.132654 -0.13205 -0.131759 -0.131884 -0.131844 
-0.130586 -0.131603 -0.13151 -0.132765 -0.132778 -0.132718 -0.133 -0.132782 -0.134676 
-0.143207 -0.123566 -0.151338 -0.146527 -0.148144 -0.149121 -0.132994 -0.136767 -0.137618 
-0.137406 -0.131343 -0.131239 -0.131686 -0.131954 -0.129855 -0.12238 -0.129456 -0.119418 
-0.123558 -0.148402 -0.151519 -0.127257 -0.130217 -0.132247 -0.130824 -0.130213 -0.130773 
-0.140777 -0.165037 -0.164849 -0.132542 -0.131112 -0.132783 -0.173603 -0.165387 -0.163686 
-0.147457 -0.146104 -0.163112 -0.161211 -0.157193 -0.148476 -0.147348 -0.147402 -0.155703 
-0.131804 -0.162609 -0.134234 -0.134693 -0.134629 -0.142023 -0.136442 -0.149856 -0.148457 
-0.134111 -0.143065 -0.132983 -0.12907 -0.128832 -0.129435 -0.129851 -0.129592 -0.130223 
-0.15223 -0.146561 -0.145449 -0.147219 -0.133255 -0.131352 -0.136542 -0.136406 -0.131373 
-0.130837 -0.132199 -0.129657 -0.130134 -0.139189 -0.190395 -0.131165 -0.136129 -0.1386 
-0.13324 -0.133132 -0.133143 -0.133521 -0.134051 -0.131367 -0.132573 -0.134422 -0.130906 
-0.137114 -0.131838 -0.131811 -0.126739 -0.124285 -0.134088 -0.134817 -0.13014 -0.147156 
-0.162849 -0.160573 -0.160492 -0.134698 -0.163136 -0.165573 -0.134206 -0.13316 -0.131495 
-0.130571 -0.130668 -0.134715 -0.134306 -0.130623 -0.130748 -0.169702 -0.162754 -0.145017 
-0.145887 -0.16388 -0.131534 -0.133058 -0.131208 -0.126768 -0.127571 -0.126205 -0.152136 
-0.143072 -0.138355 -0.128453 -0.130348 -0.130248 -0.13094 -0.131883 -0.131618 -0.131854 
-0.145224 -0.132804 -0.133215 -0.133204 -0.133216 -0.133133 -0.133091 -0.144564 -0.134412 
-0.134951 -0.163931 -0.160506 -0.158787 -0.14164 -0.162209 -0.158833 -0.1324 -0.130511 
-0.132058 -0.131879 -0.131993 -0.139696 -0.141436 -0.138714 -0.15101 -0.147836 -0.151093 
-0.158099 -0.149456 -0.158701 -0.15331 -0.151715 -0.152259 -0.152217 -0.132133 -0.132949 
-0.130748 -0.131334 -0.140088 -0.140684 -0.14186 -0.141365 -0.134225 -0.131241 -0.131405 
-0.132352 -0.14473 -0.144257 -0.133081 -0.13295 -0.133193 -0.129471 -0.132135 -0.132099 
-0.12913 -0.129204 -0.142619 -0.132907 -0.13291 -0.131574 -0.147077 -0.132968 -0.133153 
-0.133287 -0.13317 -0.133364 -0.130287 -0.130939 -0.136569 -0.136155 -0.132274 -0.13285 
-0.132789 -0.130583 -0.135339 -0.134835 -0.133108 -0.131425 -0.132955 -0.161048 -0.159388 
-0.165389 -0.163535 -0.163422 -0.131318 -0.142054 -0.143381 -0.160609 -0.162238 -0.162133 
-0.163839 -0.128552 -0.125735 -0.132492 -0.154541 -0.153081 -0.152318 -0.128439 -0.145921 
-0.149431 -0.132725 -0.133269 -0.133153 -0.132408 -0.152372 -0.149088 -0.149956 -0.153859 
-0.132914 -0.132474 -0.127885 -0.129703 -0.128172 -0.129889 -0.129435 -0.155007 -0.145288 
-0.146693 -0.144976 -0.146339 -0.128816 -0.129192 -0.14763 -0.144826 -0.146114 -0.12975 
-0.129845 -0.169959 -0.17099 -0.144809 -0.119719 -0.143472 -0.142171 -0.132934 -0.132906 
-0.133304 -0.141915 -0.145901 -0.146739 -0.14133 -0.141389 -0.143954 -0.144039 -0.139727 
-0.157105 -0.133236 -0.13352 -0.135265 -0.135241 -0.134883 -0.13517 -0.134113 -0.141501 
-0.139771 -0.140646 -0.141992 -0.141834 -0.146699 -0.146124 -0.146549 -0.145776 -0.13915 
-0.138776 -0.145326 -0.145176 -0.145799 -0.14554 -0.14406 -0.144509 -0.143386 -0.145952 
-0.145819 -0.169389 -0.147519 -0.132782 -0.129935 -0.144387 -0.146294 -0.133535 -0.132663 
-0.13295 -0.132662 -0.132514 -0.162024 -0.140013 -0.133339 -0.133497 -0.128449 -0.129081 
-0.131229 -0.139788 -0.132861 -0.126376 -0.124723 -0.157673 -0.145534 -0.144754 -0.145972 
-0.145166 -0.121115 -0.138906 -0.156941 -0.157083 -0.13917 -0.140948 -0.137458 -0.160222 
-0.156657 -0.158276 -0.155256 -0.132446 -0.132515 -0.13765 -0.138023 -0.132064 -0.132361 
-0.11841 -0.132342 -0.132458 -0.135918 -0.129077 -0.129611 -0.128995 -0.139244 -0.131921 
-0.147454 -0.132049 -0.132048 -0.139922 -0.139176 -0.137318 -0.144669 -0.132623 -0.132554 
-0.132437 -0.136225 -0.135192 -0.140095 -0.147493 -0.130348 -0.133494 -0.133636 -0.1341 
-0.130757 -0.15116 -0.130306 -0.132145 -0.132175 -0.13447 -0.134073 -0.134037 -0.133661 
-0.144683 -0.14605 -0.146335 -0.123437 -0.138998 -0.144901 -0.144509 -0.183839 -0.142519 
-0.132349 -0.129961 -0.14031 -0.14036 -0.141414 -0.145942 -0.145247 -0.14508 -0.144922 
-0.147529 -0.123619 -0.128026 -0.147979 -0.13835 -0.140259 -0.147904 -0.138934 -0.146735 
-0.135914 -0.136587 -0.136305 -0.137077 -0.142317 -0.143631 -0.143646 -0.155669 -0.152595 
-0.133151 -0.132523 -0.13307 -0.133757 -0.136483 -0.168829 -0.150981 -0.132642 -0.134282 
-0.134866 -0.132436 -0.130393 -0.13038 -0.129845 -0.136296 -0.146394 -0.151968 -0.155696 
-0.150866 -0.118615 -0.135246 -0.206023 -0.148449 -0.163287 -0.132366 -0.232267 -0.155917 
-0.155829 -0.150285 -0.145861 -0.148708 -0.148382 -0.161975 -0.16173 -0.128486 -0.106343 
-0.11599 -0.115119 -0.132199 -0.132287 -0.163384 -0.131587 -0.146109 -0.129549 -0.131986 
-0.13183 -0.129098 -0.128637 -0.127566 -0.147978 -0.121045 -0.144992 -0.131695 -0.131707 
-0.130523 -0.129958 -0.14889 -0.12923 -0.128477 -0.12918 -0.129364 -0.147569 -0.129865 
-0.148516 -0.143215 -0.148943 -0.133 -0.132489 -0.132419 -0.133122 -0.133067 -0.13272 
-0.13271 -0.115412 -0.12034 -0.132541 -0.119457 -0.132742 -0.132862 -0.132861 -0.13271 
-0.132772 -0.132677 -0.132726 -0.132597 -0.147656 -0.146125 -0.147397 -0.126003 -0.122909 
-0.124647 -0.124721 -0.129622 -0.132362 -0.132101 -0.147841 -0.130048 -0.129343 -0.132596 
-0.132651 -0.12161 -0.12552 -0.12536 -0.130191 -0.132082 -0.131404 -0.131183 -0.131184 
-0.130727 -0.129564 -0.126546 -0.132221 -0.131022 -0.154822 -0.130955 -0.15663 -0.136558 
-0.137131 -0.140122 -0.144305 -0.194006 -0.146744 -0.187459 -0.142935 -0.132354 -0.132359 
-0.13207 -0.149235 -0.131432 -0.13598 -0.132781 -0.135196 -0.132398 -0.132604 -0.145143 
-0.152708 -0.137485 -0.136713 -0.132579 -0.136564 -0.137575 -0.132576 -0.133747 -0.134491 
-0.133818 -0.132048 -0.147506 -0.159251 -0.131512 -0.155459 -0.151311 -0.143473 -0.142321 
-0.130295 -0.125772 -0.168192 -0.133684 -0.140138 -0.139204 -0.138408 -0.140436 -0.130808 
-0.165673 -0.146719 -0.146002 -0.12898 -0.133058 -0.133359 -0.133122 -0.118097 -0.131344 
-0.135824 -0.135559 -0.156205 -0.130278 -0.132426 -0.146265 -0.158795 -0.131342 -0.195509 
-0.208847 -0.149726 -0.148871 -0.133053 -0.12842 -0.131303 -0.132231 -0.131366 -0.131431 
-0.132734 -0.129618 -0.132993 -0.184978 -0.195932 -0.171507 -0.14631 -0.127304 -0.122236 
-0.152702 -0.153984 -0.135552 -0.13106 -0.13492 -0.132214 -0.132311 -0.150939 -0.128323 
-0.140408 -0.132785 -0.131473 -0.131231 -0.13715 -0.131197 -0.131003 -0.118718 -0.148064 
-0.193187 -0.145525 -0.132198 -0.132087 -0.169674 -0.142 -0.140788 -0.143632 -0.16511 
-0.146035 -0.131989 -0.127076 -0.142721 -0.146638 -0.146385 -0.147212 -0.127848 -0.143279 
-0.143329 -0.130865 -0.130322 -0.144293 -0.137977 -0.130921 -0.131394 -0.131955 -0.170254 
-0.12504 -0.130384 -0.144074 -0.129383 -0.147125 -0.141183 -0.133494 -0.133313 -0.144321 
-0.132379 -0.12289 -0.133324 -0.145144 -0.160284 -0.130785 -0.132094 -0.129614 -0.165772 
-0.180485 -0.142814 -0.142675 -0.133219 -0.133275 -0.133172 -0.134833 -0.132489 -0.139843 
-0.13277 -0.132493 -0.131691 -0.132741 -0.132408 -0.13348 -0.133854 -0.159911 -0.161901 
-0.130596 -0.130822 -0.132552 -0.130435 -0.12838 -0.1324 -0.131807 -0.131747 -0.131571 
-0.136301 -0.134775 -0.131087 -0.141098 -0.141003 -0.139822 -0.146378 -0.156781 -0.163468 
-0.119889 -0.121672 -0.150452 -0.131637 -0.156508 -0.121412 -0.133058 -0.134149 -0.135847 
-0.129992 -0.130183 -0.128178 -0.133271 -0.124538 -0.145484 -0.146028 -0.131621 -0.132086 
-0.139049 -0.140164 -0.132076 -0.131919 -0.132052 -0.134891 -0.135601 -0.130971 -0.132663 
-0.135228 -0.128853 -0.134648 -0.132934 -0.118258 -0.127792 -0.126656 -0.127192 -0.132039 
-0.132567 -0.133296 -0.133555 -0.135201 -0.150703 -0.131973 -0.125954 -0.120733 -0.134643 
-0.146669 -0.132102 -0.13376 -0.12857 -0.137825 -0.133301 -0.129387 -0.129844 -0.120516 
-0.130312 -0.121754 -0.129927 -0.171338 -0.132632 -0.132508 -0.160733 -0.169826 -0.168519 
-0.165167 -0.149388 -0.147873 -0.150159 -0.139476 -0.150987 -0.162188 -0.150105 -0.150271 
-0.130152 -0.129028 -0.134548 -0.151795 -0.137728 -0.134644 -0.13564 -0.168661 -0.132847 
-0.173058 -0.132817 -0.161767 -0.133883 -0.130482 -0.151933 -0.149057 -0.15032 -0.139968 
-0.141153 -0.126066 -0.128341 -0.146841 -0.132381 -0.128374 -0.13289 -0.15005 -0.129611 
-0.144939 -0.14087 -0.129682 -0.125618 -0.126369 -0.126482 -0.131566 -0.132129 -0.132511 
-0.132546 -0.132184 -0.13137 -0.130963 -0.127715 -0.111676 -0.148209 -0.162667 -0.156771 
-0.152745 -0.159247 -0.137798 -0.122553 -0.135914 -0.160737 -0.130743 -0.142222 -0.132622 
-0.133338 -0.146369 -0.133482 -0.132457 -0.13276 -0.131068 -0.129226 -0.135191 -0.1337 
-0.147226 0.0100214 -0.141753 -0.125138 -0.135369 -0.136666 -0.137431 -0.13745 -0.133811 
-0.138205 -0.136681 -0.134106 -0.134392 -0.129868 -0.132036 -0.130408 -0.137761 -0.139601 
-0.154984 -0.155175 -0.148821 -0.13626 -0.132525 -0.133171 -0.132748 -0.170018 -0.149311 
-0.133941 -0.148037 -0.136034 -0.134616 -0.121884 -0.158263 -0.134569 -0.132962 -0.148746 
-0.125418 -0.137155 -0.145931 -0.138563 -0.154582 -0.119348 -0.144748 -0.149314 -0.146401 
-0.147067 -0.147993 -0.14617 -0.145031 -0.148709 -0.143056 -0.136834 -0.136097 -0.132803 
-0.134747 -0.130477 -0.143284 -0.152121 -0.133315 -0.130271 -0.132033 -0.133139 -0.12759 
-0.131073 -0.0497559 -0.132349 -0.12656 -0.116001 -0.132257 -0.150561 -0.0962461 -0.131433 
-0.132482 -0.130417 -0.123517 -0.12443 -0.131379 -0.131173 -0.162834 -0.135089 -0.131715 
-0.13259 -0.145138 -0.160753 -0.153063 -0.156376 -0.144983 -0.144009 -0.129481 -0.13504 
-0.134916 -0.137012 -0.128369 -0.134182 -0.133328 -0.133407 -0.130563 -0.157796 -0.159878 
-0.150353 -0.15061 -0.148549 -0.16491 -0.132662 -0.142096 -0.155757 -0.134535 -0.141003 
-0.131349 -0.142368 -0.143871 -0.179965 -0.16619 -0.15595 -0.132087 -0.141734 -0.128451 
-0.129884 -0.133098 -0.138599 -0.146417 -0.146903 -0.152754 -0.131944 -0.156955 -0.13216 
-0.143456 -0.148344 -0.140996 -0.161434 -0.150352 -0.134237 -0.134447 -0.134689 -0.13527 
-0.153793 -0.137919 -0.143786 -0.136042 -0.137261 -0.125231 -0.128264 -0.142516 -0.131227 
-0.133034 -0.12383 -0.126394 -0.13292 -0.133281 -0.131176 -0.132712 -0.131975 -0.163314 
-0.169792 -0.148281 -0.135867 -0.126255 -0.149913 -0.133236 -0.131567 -0.131078 -0.131313 
-0.135554 -0.122638 -0.131926 -0.134548 -0.133293 -0.133194 -0.118198 -0.150051 -0.14861 
-0.1292 -0.13074 -0.132672 -0.130728 -0.138477 -0.133062 -0.167647 -0.13286 -0.158293 
-0.180734 -0.151627 -0.131441 -0.146334 -0.130654 -0.130571 -0.125575 -0.127587 -0.136051 
-0.126375 -0.181959 -0.157098 -0.14789 -0.137933 -0.165321 -0.158226 -0.133119 -0.132369 
-0.131858 -0.185078 -0.126806 -0.168719 -0.174536 -0.140727 -0.19959 -0.192895 -0.180705 
-0.132629 -0.136679 -0.14265 -0.130794 -0.131935 -0.150676 -0.131679 -0.13143 -0.132846 
-0.13207 -0.132993 -0.155149 -0.142215 -0.145957 -0.127674 -0.131586 -0.146518 -0.131976 
-0.132149 -0.162368 -0.138173 -0.135053 -0.131631 -0.129543 -0.136795 -0.15459 -0.132128 
-0.146798 -0.134274 -0.143727 -0.151295 -0.131993 -0.132922 -0.130338 -0.130122 -0.137966 
-0.134916 -0.143957 -0.130891 -0.130345 -0.132806 -0.147401 -0.152358 -0.137706 -0.1714 
-0.145974 -0.132617 -0.119218 -0.145123 -0.131366 -0.117067 -0.133501 -0.132509 -0.133768 
-0.129519 -0.13378 -0.142688 -0.132475 -0.132728 -0.133846 -0.134485 -0.12911 -0.13913 
-0.133 -0.144433 -0.151788 -0.136799 -0.133138 -0.00550384 -0.00610663 
Stress%20xx%20component 1 12526 double
0.514439 0.496212 0.464218 0.602943 2.90483e-05 4.79474e-06 1.74043e-05 9.6774e-06 -0.117345 
-0.104957 -0.0309468 -0.105403 -0.126142 -0.103935 -0.0390158 -0.102655 0.211217 0.201075 
0.19414 0.18142 0.188225 0.192524 0.191435 0.189708 0.188549 0.186696 0.18685 
0.187248 0.187569 0.18734 0.188487 0.188187 0.188238 0.18791 0.187016 0.187866 
0.189233 0.189599 0.191551 0.193755 0.199459 0.212644 0.213684 0.20648 0.223885 
0.218898 0.20162 0.193504 0.189508 0.189959 0.189981 0.188785 0.188891 0.190332 
0.189767 0.189201 0.189697 0.188491 0.188532 0.189452 0.189657 0.188623 0.190167 
0.189679 0.191572 0.194923 0.200907 0.207975 0.212433 9.22515e-05 -1.29783e-05 -0.000489382 
-0.00122419 -0.00207435 -0.00301949 -0.00405675 -0.00507235 -0.00599565 -0.0067835 -0.00742493 -0.00800497 
-0.0082765 -0.0083925 -0.00828298 -0.00797256 -0.00744439 -0.00679028 -0.00593897 -0.00486538 -0.00388422 
-0.00282526 -0.00186943 -0.00101189 -0.000367495 3.27014e-05 8.55591e-05 -0.0477156 -0.00257746 -0.0010306 
-0.000580452 -0.000339826 -0.000218381 -0.000155632 -9.63656e-05 -6.98937e-05 -5.29601e-05 -4.58047e-05 -4.74769e-05 
-5.64059e-05 -7.20459e-05 -9.32387e-05 -0.000116361 -0.000123399 -0.000109064 -5.31437e-05 4.55983e-05 0.00019286 
0.000288328 0.000294755 0.000224759 8.58852e-05 -3.58837e-05 -8.30889e-05 -0.000119808 -0.000104144 -8.66507e-05 
-6.29784e-05 -4.93685e-05 -2.99147e-05 -2.0358e-05 -1.12448e-05 -2.98513e-06 2.21507e-06 4.24877e-06 8.6411e-06 
1.16492e-05 1.52745e-05 1.86453e-05 1.84729e-05 1.23573e-05 5.18398e-06 5.85531e-06 2.34708e-05 1.19521e-05 
1.54672e-05 1.33067e-05 1.25326e-05 9.21396e-06 5.58928e-06 3.5449e-06 2.39465e-06 -1.15092e-05 -1.74906e-05 
-1.92178e-05 -4.38362e-05 -6.3969e-05 -9.96203e-05 -0.000102529 -8.9864e-05 -2.05307e-05 9.12663e-05 0.000165137 
0.000223834 0.000228706 9.86562e-05 2.53769e-05 -5.19072e-05 -5.66304e-05 -8.27771e-05 -8.87027e-05 -4.0874e-05 
-7.86129e-05 -5.76309e-05 -3.60454e-05 -4.16948e-05 -3.85512e-05 -5.51125e-05 -8.82519e-05 -8.97292e-05 -3.65215e-05 
-0.000298999 -0.000398042 -0.000809867 -0.00224013 -0.00330749 -0.0399913 -0.145604 -0.150064 -0.117074 
-0.0941396 -0.144612 -0.150392 -0.185695 -0.195436 -0.256026 -0.242579 -0.223668 -0.228146 
-0.147815 -0.135269 -0.112102 -0.0948702 -0.131575 -0.140489 -0.233297 -0.246438 -0.256167 
-0.247955 -0.244258 -0.215607 -0.188424 -0.157251 7.42426e-05 -6.70212e-07 -0.000388945 -0.00103045 
-0.00187148 -0.00279833 -0.00385326 -0.0048461 -0.005781 -0.00674107 -0.00747256 -0.00793583 -0.00824074 
-0.00833782 -0.00821285 -0.00789361 -0.00737493 -0.00668533 -0.00585813 -0.00489099 -0.0039098 -0.0028767 
-0.00194529 -0.00107254 -0.000427781 4.03021e-06 0.000119695 -0.162565 -0.00745394 -0.00178874 -0.000987828 
-0.000554996 -0.000299749 -0.000195654 -0.000129999 -7.97809e-05 -4.89101e-05 -4.04075e-05 -3.62593e-05 -3.19893e-05 
-4.17534e-05 -5.55688e-05 -8.2087e-05 -9.89128e-05 -0.000109037 -8.11683e-05 -1.72011e-05 8.9148e-05 0.000204659 
0.000285847 0.000303129 0.000172159 4.75558e-05 -5.59526e-05 -0.000126418 -0.000121353 -0.000117167 -8.66797e-05 
-5.88923e-05 -4.32612e-05 -2.61674e-05 -1.19935e-05 -3.21858e-06 1.74826e-06 5.76487e-06 1.1775e-05 1.4057e-05 
1.64471e-05 1.91438e-05 1.9324e-05 1.82343e-05 -1.89162e-06 -8.89919e-07 1.49552e-05 1.39541e-05 1.25986e-05 
8.94308e-06 9.37345e-06 7.10157e-06 2.88956e-06 -1.87059e-06 -1.63769e-05 -1.01895e-05 -2.76405e-05 -3.4812e-05 
-5.54449e-05 -7.28979e-05 -9.97856e-05 -2.78528e-05 -0.000112785 -8.81152e-05 -3.89278e-05 0.00014347 0.0001236 
0.000287401 0.000207967 0.000226962 8.23403e-05 -5.92574e-05 -9.08499e-05 -9.10968e-05 -6.15819e-05 -4.68228e-05 
-3.82504e-05 -3.31238e-05 -2.95845e-05 -4.72922e-05 -1.49299e-05 -3.51031e-05 -0.000148176 -0.00022471 -0.000209336 
-0.000328 -0.000576663 -0.00130879 -0.00294083 -0.0968514 -0.114852 -0.227243 -0.223426 -0.243192 
-0.255115 -0.260431 -0.263469 -0.152313 -0.14465 -0.135237 -0.118187 -0.147655 -0.115479 
-0.162112 -0.239658 -0.269513 -0.235876 -0.247428 -0.253842 -0.149669 -0.147293 -0.140711 
-0.130697 -0.117464 -0.135587 -0.108649 -0.000175847 -0.000506685 -0.00104761 -0.00167783 -0.0024102 
-0.00317738 -0.00400119 -0.00474234 -0.00543762 -0.0060218 -0.00647338 -0.00679974 -0.00697861 -0.00698324 
-0.00680889 -0.00645965 -0.00602182 -0.00542808 -0.00470461 -0.00392035 -0.00308468 -0.00229952 -0.00158871 
-0.000978237 -0.000534607 -0.000218661 -5.23661e-05 0.0292601 0.00703751 0.00323756 0.00174299 0.00108712 
0.000642823 0.000432057 0.000284504 0.000161954 0.000124767 0.000114342 0.000134501 0.000175182 0.000268395 
0.000392015 0.000497998 0.000538008 0.0004764 0.000153077 -0.00045833 -0.000987951 -0.00147442 -0.00141291 
-0.00081552 -0.000140867 0.000349361 0.000612442 0.00060984 0.000508868 0.000378481 0.000278238 0.000179462 
0.00010226 4.96676e-05 1.33703e-05 -9.56048e-06 -2.84078e-05 -4.21155e-05 -5.29399e-05 -6.19675e-05 -7.95943e-05 
-9.44546e-05 -0.000105338 -9.49242e-05 -6.88955e-05 -6.59351e-05 -6.07759e-05 -5.26435e-05 -4.40884e-05 -3.54351e-05 
-2.0767e-05 -1.37963e-06 2.60253e-05 5.51379e-05 0.000108607 0.0001652 0.000256136 0.000346307 0.000462315 
0.000527039 0.000487931 0.000235807 -0.000324682 -0.00106565 -0.00145651 -0.00126703 -0.000801568 -0.000195849 
0.000226184 0.000464143 0.000485085 0.000373653 0.000292107 0.000217801 0.000154234 0.000104855 9.88525e-05 
0.000121992 0.000201685 0.000296607 0.000461944 0.000662042 0.00118699 0.00183833 0.00327241 0.00690251 
0.021143 0.084325 0.0833008 0.0871444 0.0899451 0.0901982 0.0939445 0.0942271 0.0954273 
0.0968117 0.0965607 0.0970581 0.0977223 0.0977321 0.0973411 0.0974049 0.0971227 0.0964599 
0.096697 0.0958928 0.0951306 0.0944067 0.0927144 0.0913292 0.0885388 0.079317 -0.0281108 
0.0268036 0.035871 0.0382318 0.0403571 0.0406866 0.040403 0.0395111 0.0399953 0.0403529 
0.040115 0.0372786 0.0276508 -0.0231738 -0.127407 -0.00429651 0.0271114 0.04062 0.0391096 
0.038717 0.0385574 0.0415201 0.0415731 0.0413256 0.0403916 0.039311 0.036167 0.0228013 
-0.0314844 -0.125023 0.0115675 0.00120027 0.00158267 -0.0128751 0.0128186 -0.000828424 -0.00133232 
-0.00187646 -0.00248271 -0.00313417 -0.00377873 -0.00438201 -0.00488521 -0.0052726 -0.00559141 -0.00579583 
-0.00584536 -0.00579097 -0.00555364 -0.00527089 -0.00488888 -0.00434139 -0.00372904 -0.00308877 -0.00244199 
-0.0018381 -0.00130239 -0.00085312 -0.000471151 0.0361269 0.0545658 0.0191 0.0107853 0.00680917 
0.00456837 0.00289496 0.00184224 0.0012555 0.000902093 0.000719418 0.000652294 0.000770183 0.000986684 
0.0012953 0.00170446 0.00201849 0.00207237 0.00130167 -0.000459297 -0.00284489 -0.00561278 -0.00635892 
-0.00467356 -0.00194319 0.000565765 0.00186165 0.00220635 0.00210114 0.0017606 0.00133234 0.000904215 
0.000573934 0.000347956 0.000173765 3.97217e-05 -6.43107e-05 -0.000132575 -0.000183096 -0.00022619 -0.000277404 
-0.000340357 -0.000395192 -0.00040457 -0.0440737 0.0503631 -0.000265345 -0.000261874 -0.000243452 -0.000206309 
-0.000155779 -9.96738e-05 -2.67222e-05 7.5681e-05 0.000199382 0.000380712 0.000605323 0.000871214 0.00121111 
0.00165546 0.00201016 0.00202447 0.00137172 -0.000407681 -0.00309541 -0.00536093 -0.00547234 -0.00394246 
-0.00166232 0.000547251 0.00159238 0.00175482 0.00165057 0.00139479 0.00106131 0.000791599 0.00065152 
0.000622728 0.000720877 0.000962025 0.00138937 0.00205017 0.00300036 0.00498566 0.00761011 0.0126116 
0.0238983 0.0686158 0.0845333 0.0874717 0.0893709 0.0905996 0.0930118 0.0947274 0.0962428 
0.0969955 0.0977468 0.0983828 0.0981761 0.0983648 0.0975513 0.0969103 0.0960877 0.0949842 
0.0931902 0.0907926 0.0870143 0.0823899 0.0755005 0.0277107 -0.0390672 0.0151194 0.0400423 
0.0413775 0.0420328 0.0425811 0.042962 0.042417 0.040447 0.0357825 0.0275083 0.0130585 
0.0121312 -0.0417088 0.0116559 -0.0514786 0.0136254 0.0387038 0.0420918 0.0437027 0.0438806 
0.0432064 0.0413634 0.0383435 0.0324843 0.0227752 0.0122502 0.0102851 0.0236384 0.0328716 
-0.00102779 -0.000190986 -0.0148498 0.00261139 0.00889634 -0.00855301 0.0316537 -0.00135798 -0.00188127 
-0.00241623 -0.00295707 -0.0034415 -0.00391443 -0.00430004 -0.00456864 -0.00477982 -0.00485611 -0.00480606 
-0.00468318 -0.00451346 -0.00425755 -0.00389548 -0.00344321 -0.00293402 -0.00240366 -0.00187955 -0.00139367 
-0.000947166 0.0299341 0.0264447 0.0289628 0.0192901 0.0131113 0.00905416 0.00582762 0.00388714 
0.00284342 0.00213716 0.00176774 0.00175336 0.00199527 0.00248497 0.00315654 0.00383378 0.0043933 
0.00408021 0.00147235 -0.00286592 -0.00895196 -0.0149944 -0.0142308 -0.00696119 -0.0010528 0.0029189 
0.00427633 0.00439533 0.00384129 0.00304384 0.00227091 0.00155907 0.000976117 0.000556734 0.000234753 
-2.05069e-05 -0.000198545 -0.000330103 -0.000435959 -0.000526722 -0.000649977 -0.000789136 -0.000837907 0.0436799 
0.0123225 0.0146335 -0.000555529 -0.000492608 -0.000389286 -0.000265988 -0.000119077 7.7895e-05 0.000329866 
0.000675729 0.0010844 0.0016054 0.00227159 0.00306456 0.00390293 0.00442498 0.00355502 0.00171765 
-0.00357213 -0.0102586 -0.0131554 -0.00979159 -0.00579616 0.000533525 0.00295396 0.00353362 0.0035106 
0.00323417 0.00262807 0.00204192 0.00167751 0.00160803 0.00183328 0.00244369 0.00336946 0.00466179 
0.00663525 0.0100856 0.0150913 0.0210413 0.0334961 0.0583393 -0.0183812 0.0646375 0.0673709 
0.0704064 0.0738719 0.0768789 0.0793252 0.0813448 0.0829479 0.0839084 0.084405 0.0844186 
0.0837336 0.0824714 0.0812451 0.0803956 0.0783876 0.07515 0.0697558 0.0632415 0.055196 
0.0214924 0.0321837 0.0323564 0.0321486 0.0306052 0.0268563 0.0213439 0.0155607 0.0130884 
0.0133605 -0.0205951 0.0128113 0.0110249 -0.0112145 0.0295785 0.0329509 0.0313541 0.0286204 
0.0240563 0.0185082 0.0139533 0.00812234 0.032238 -0.0300826 -0.012084 -0.000578062 0.0342147 
-0.000422868 -0.000543287 0.00203652 0.0134588 0.0194513 0.0165531 -0.0257038 -0.00300483 0.0255002 
0.00510531 -0.0017909 -0.00225483 -0.00266474 -0.00305924 -0.00340566 -0.00369455 -0.00390752 -0.00397955 
-0.00393589 -0.00387204 -0.00376777 -0.00361199 -0.00337174 -0.00304621 -0.00266748 -0.00224067 -0.00179286 
-0.00136237 -0.000945169 0.0217215 0.0198735 0.0107712 0.0277882 0.0193823 0.013193 0.00893932 
0.00641874 0.00476379 0.00371372 0.00328165 0.00330572 0.00374833 0.00450287 0.00544367 0.00658318 
0.00751547 0.00587329 0.00668444 0.00708992 0.00635277 0.00535025 0.00412941 0.00297572 0.00197164 
0.00122005 0.00064839 0.000162775 -0.000208674 -0.000463177 -0.000647616 -0.00079981 -0.000905994 -0.00126449 
0.0406457 0.0232521 0.0228164 -0.000761265 -0.000565265 -0.000320066 -3.57778e-05 0.000356333 0.000852604 
0.00143932 0.00212519 0.00302912 0.00419977 0.00544882 0.00679001 0.00761369 0.00546727 0.00565688 
0.00550794 0.00571068 0.00483424 0.00381036 0.00313375 0.00302576 0.00341888 0.004423 0.00591477 
0.0080617 0.0110464 0.0147313 0.0261706 0.0284364 0.0238732 0.011856 0.0174056 0.0448868 
0.0492776 0.0549973 0.0591106 0.0625535 0.0652237 0.067415 0.0697404 0.070923 0.0712382 
0.0702286 0.068618 0.0671167 0.0657732 0.0638161 0.0615004 0.0556677 0.0475419 0.0233154 
0.0103774 0.0231231 0.0208915 0.0175763 0.0145721 0.0120537 -0.000874351 0.0245636 0.0193582 
0.0158374 0.0131213 0.0117222 0.0390863 0.0125951 0.0221382 0.0151699 0.0134545 0.0108661 
0.0254888 0.0209474 0.0104916 0.0224131 0.012352 0.015646 -0.00198981 -0.00228998 -0.00258496 
-0.00289816 -0.00313357 -0.00332293 -0.00316565 -0.00310402 -0.00305461 -0.00297105 -0.00280778 -0.00259527 
-0.00232713 -0.00201932 -0.0016421 -0.00124532 0.013137 0.0237303 0.0165837 0.0117666 0.00873902 
0.00660394 0.00549791 0.00495384 0.00507075 0.00576729 0.00678051 0.0076924 0.00954587 0.00876067 
0.00776388 0.0062754 0.00465946 0.00320741 0.00204291 0.00129519 0.000533321 -0.000106869 -0.000538756 
-0.000848956 -0.0011035 -0.00128747 -0.00105279 0.0163688 -0.000662461 -0.000292502 0.0001914 0.000809257 
0.00159832 0.00252155 0.00331234 0.00472329 0.00628219 0.00765669 0.0158691 0.00855909 0.00779753 
0.0058647 0.00490512 0.00466531 0.0052267 0.00648987 0.00872488 0.0117802 0.0160872 0.0218979 
0.0371992 0.0103047 0.0424931 0.0467655 0.0494978 0.051684 0.0541804 0.0585918 0.0564206 
0.0586985 0.0545946 0.0530113 0.0519879 0.0502892 0.0485103 0.0464785 0.0138029 0.0121227 
0.0165215 0.0350898 0.0102756 0.0145446 0.0180918 0.0115164 0.0134204 -0.00164698 0.0133991 
0.0155044 0.00948047 0.0173553 0.0148476 0.0122073 0.015347 0.0148693 0.00985665 0.0110149 
0.0102159 0.00932394 0.0117938 0.0107262 0.0351319 -0.00182766 -0.00248015 -0.00253401 -0.00230166 
-0.00228096 -0.00230935 -0.00222377 -0.00205977 -0.00185975 -0.00166604 -0.00148918 0.0259332 0.00990987 
0.0187574 0.0139308 0.0106775 0.00846439 0.00710196 0.00647802 0.00682005 0.00795243 0.00843832 
0.00640379 0.00431568 0.00248079 0.00115236 0.000172644 -0.000548007 -0.0010266 -0.00137272 0.00884531 
0.00854761 0.00902058 0.0100529 -0.000657067 -0.000152727 0.000555751 0.00147919 0.00268902 0.00419457 
0.0064158 0.00916835 0.00664955 0.00614553 0.00697305 0.0084094 0.0110944 0.0149686 0.0205164 
0.0281514 0.0102918 0.0323907 0.0352899 0.0375575 0.0398582 0.042856 0.042108 0.0398242 
0.0389543 0.0382407 0.0370223 0.0103027 0.0175429 -0.00211894 0.0118922 0.00928264 -0.00159914 
0.0107825 -0.0011112 0.00898871 0.00977953 0.00857545 0.0116704 0.00759771 0.0135838 0.0143434 
0.0104944 -0.00137857 -0.00128555 -0.00132423 -0.00156248 -0.00134869 -0.00125096 -0.00118103 0.00855507 
0.0201737 0.0150985 0.0124735 0.00987558 0.00831163 0.00774378 0.023414 0.00623874 0.00825793 
0.00379928 0.00190428 0.000587095 0.0129583 0.000116972 0.00104 0.00397434 0.00580829 0.00611206 
0.0272286 0.00929294 0.0105288 0.0121876 0.00785391 0.00984273 0.0124294 0.0172003 0.00554072 
0.0250411 0.025903 0.0289752 0.0273568 0.00545427 -0.00115002 -0.00178549 0.0120148 0.0116875 
0.00897903 -0.001275 0.00620488 -0.000626969 -0.000463126 0.00613759 0.00223015 0.00898503 0.0255888 
0.0273765 0.0274016 0.0120988 0.01024 0.000866009 0.000936697 0.00212241 0.0162296 -0.000283215 
0.000165747 0.000108039 -0.000382624 -0.000487734 0.00521162 0.0186036 0.005169 0.0136168 0.0103961 
-0.000779861 0.0180133 0.00305048 0.0113425 0.000166089 0.0177043 0.00256076 0.00328195 0.0154781 
0.0186838 0.0127005 0.00213572 0.0127721 -0.000155081 -0.000462175 -0.000942751 -0.00155882 -0.00230423 
-0.00306963 -0.00386359 -0.00458276 -0.00532979 -0.00594193 -0.00639603 -0.00673737 -0.00689055 -0.00686095 
-0.00668198 -0.00636073 -0.00588276 -0.00530146 -0.00459813 -0.0038578 -0.00309904 -0.00232571 -0.00165312 
-0.00101771 -0.000512865 -0.000179843 -2.9611e-05 0.020499 0.0065642 0.00408945 0.00242527 0.00130294 
0.000746659 0.000504537 0.000312241 0.000242857 0.000161521 0.00013972 0.000176287 0.000231487 0.000331651 
0.000463985 0.000604777 0.000705234 0.000651183 0.000374844 -0.000179757 -0.00104101 -0.00164454 -0.0016276 
-0.00117754 -0.000438964 0.000197676 0.00058201 0.00067247 0.000621591 0.000478214 0.000324187 0.000221292 
0.000156769 8.95666e-05 4.43627e-05 8.99237e-06 -1.63996e-05 -3.16743e-05 -4.73704e-05 -5.96881e-05 -7.86029e-05 
-9.09242e-05 -9.13888e-05 -9.26701e-05 -6.63899e-05 -6.35391e-05 -5.37761e-05 -4.73778e-05 -3.62276e-05 -2.92293e-05 
-1.68291e-05 -9.58117e-07 2.42585e-05 6.57447e-05 0.000104851 0.0001774 0.000268594 0.000350763 0.00046023 
0.00050404 0.000474766 0.000265371 -0.000233514 -0.000892049 -0.0014177 -0.00145682 -0.000975905 -0.000208248 
0.000260461 0.000409266 0.000451016 0.000415488 0.000301438 0.000228066 0.000147311 0.000117479 0.000113173 
0.000123127 0.000176567 0.000251887 0.000382089 0.000606447 0.000920093 0.00145331 0.00279088 0.00637509 
0.0249953 0.0785622 0.0873133 0.091732 0.0971655 0.0944319 0.09497 0.0958882 0.0959188 
0.0963219 0.0967824 0.0964264 0.0974726 0.0977471 0.0976019 0.0973975 0.0975315 0.0969416 
0.0963 0.0963831 0.0957577 0.0950172 0.093886 0.092052 0.0890827 0.0894592 0.0865058 
0.00244582 0.0276202 0.0384027 0.0412016 0.0403415 0.0410424 0.0406027 0.0404837 0.0397532 
0.0402396 0.0402049 0.0350194 0.0291534 -0.000715751 -0.108204 -0.0152285 0.0214069 0.0326558 
0.0401817 0.0418057 0.0421145 0.0408929 0.0408705 0.0407228 0.0405451 0.0394207 0.037339 
0.0249037 -0.00238873 -0.092941 -0.0133352 -7.26086e-05 0.00293337 0.00113962 -0.0037238 -0.000720276 
-0.000336919 -0.00182619 -0.00244997 -0.00304821 -0.00367222 -0.00422231 -0.00473615 -0.00513299 -0.00537166 
-0.00556344 -0.0056769 -0.00559104 -0.00539056 -0.00509543 -0.00468094 -0.00418772 -0.00364495 -0.0030544 
-0.00245072 -0.00188595 -0.00131906 -0.000821643 -0.000422401 0.0151365 -0.000261265 0.0143992 0.0280489 
0.0544326 0.00855178 0.004997 0.00324484 0.00230123 0.00166881 0.00119318 0.000856035 0.000781547 
0.000922077 0.00119781 0.00161034 0.00213844 0.00258523 0.00262809 0.00196624 0.000435121 -0.00239163 
-0.00547041 -0.00680675 -0.00616346 -0.00327159 -0.000466679 0.00167665 0.00264873 0.00247623 0.0019982 
0.00148577 0.00111165 0.000790067 0.000498918 0.000281017 0.000105785 -1.69284e-05 -0.000110855 -0.00019236 
-0.000248751 -0.000307299 -0.000369321 -0.000396348 0.0114166 0.0123662 -0.000269074 -0.000254717 -0.000218345 
-0.00018654 -0.000142598 -8.71515e-05 -1.16025e-05 9.49522e-05 0.000236123 0.000420635 0.000666866 0.000977025 
0.00132143 0.00167159 0.00191386 0.00184 0.00122505 -0.000124099 -0.00242834 -0.00496196 -0.00562036 
-0.00452044 -0.0018816 0.000343338 0.00142801 0.00194643 0.00181205 0.00144033 0.00108971 0.000805837 
0.000646103 0.000592387 0.000683503 0.00094789 0.00136113 0.00200485 0.00297851 0.00429205 0.00625736 
0.0101634 0.0208664 0.0473511 0.0128533 0.0777265 0.0601492 0.0833641 0.0881565 0.0920238 
0.0942324 0.0950128 0.0957443 0.0960176 0.0969427 0.0976349 0.0981805 0.0979554 0.097723 
0.0966517 0.0952227 0.0948625 0.0937783 0.092259 0.0892872 0.0829348 0.0749091 0.0658646 
-0.0224881 0.0155046 -0.0324838 0.0269729 0.0349545 0.0393652 0.0420934 0.0434242 0.0436789 
0.0426306 0.0413192 0.0391643 0.0344353 0.0257478 0.0151762 0.0140936 -0.0284324 0.0252101 
0.0331558 0.0385373 0.041152 0.0422245 0.0425845 0.0419449 0.0410246 0.0384647 0.0344342 
0.0255803 0.0146412 -0.0497726 -0.00122493 0.00657303 0.005598 -0.014713 0.00538739 -0.030613 
0.00873733 -0.00349939 -0.0028697 -0.00185705 -0.00337286 -0.00380626 -0.00410538 -0.00434477 -0.00451511 
-0.0046075 -0.00462231 -0.0045263 -0.00433212 -0.00405828 -0.00372813 -0.00330323 -0.00284631 -0.00239587 
-0.00190271 -0.00141124 -0.000948493 -0.000554163 0.0124646 -0.00219736 0.0147657 0.0138696 0.0248298 
0.0129652 0.00697157 0.00505638 0.00365487 0.00262091 0.00186089 0.00207692 0.00237765 0.00295026 
0.00370778 0.00464662 0.00548848 0.00532099 0.00265976 -0.000859266 -0.0162136 -0.0123018 0.00205943 
0.0049482 0.00528797 0.00436827 0.00344722 0.0026551 0.0019325 0.00130546 0.00076961 0.000382783 
7.85058e-05 -0.000150345 -0.000326802 -0.000470083 -0.000591557 -0.000716124 -0.000851513 -0.0244593 0.0122545 
-0.000525584 -0.000458617 -0.000362051 -0.000247211 -9.87845e-05 0.000110835 0.000394734 0.000725802 0.00117726 
0.00175971 0.00240317 0.00318296 0.00393139 0.00423093 0.00330661 0.00125525 -0.00227357 -0.00900224 
-0.0131561 -0.01078 -0.00776114 -0.000117633 0.00241061 0.00395679 0.00401116 0.00340808 0.00269784 
0.00207856 0.00168169 0.00154321 0.00167476 0.00221521 0.00314253 0.0045126 0.00668414 0.00992828 
0.0135447 0.0168793 0.0289262 0.0127269 0.0574158 0.0650104 0.0126975 -0.00875242 0.0136609 
-0.00238841 0.0711018 0.0752078 0.0782544 0.0798487 0.0808523 0.0817372 0.082545 0.0834646 
0.0838497 0.0833546 0.082333 0.0805479 0.0790513 0.0772028 0.0748921 0.0722764 0.0652324 
0.0506464 0.0416023 0.00971556 0.0214632 0.0261942 0.0296684 0.0319847 0.0335902 0.0330327 
0.0315123 0.0292248 0.0262177 0.0210031 -0.000563343 0.0198515 0.0245479 0.0288114 0.0316143 
0.0324823 0.0316742 0.0304317 0.0285213 0.0252032 0.0205031 0.0155378 0.0159732 0.0153701 
-0.0013968 0.00831162 0.00704508 -0.00878844 -0.0143966 -0.00308762 0.00681762 0.0136048 0.00106633 
0.0155909 0.00928684 0.0500299 -0.00260056 -0.00340954 -0.00357064 -0.0037027 -0.00375843 -0.00373662 
-0.00361042 -0.00341345 -0.00318077 -0.00287909 -0.00253195 -0.00216533 -0.00178056 -0.00135523 -0.000938563 
0.0196913 0.0124919 0.014342 0.0299981 -0.0216203 0.00861815 0.0109303 0.00406021 0.00387151 
0.00427066 0.00508456 0.00616977 0.00789826 0.00989325 0.0308587 0.00572438 0.00483435 0.00359582 
0.00249055 0.00155287 0.000855458 0.000321175 -9.62464e-05 -0.000418661 -0.000670644 -0.000897322 -0.00109862 
-0.00125616 0.00862654 0.0120542 -0.000713128 -0.000535645 -0.000311213 -4.96587e-06 0.000393715 0.000887334 
0.00152548 0.00236328 0.00336773 0.0044451 0.00577334 0.00707833 0.00661659 0.0058687 0.00651333 
0.00585946 0.00493829 0.00400204 0.00323956 0.00296917 0.00317969 0.00384967 0.00538285 0.00751095 
0.0107743 0.0160142 0.0222831 0.0101328 0.0123017 0.0404166 0.0508368 0.0159748 0.0635788 
0.0651057 0.0666161 0.0677145 0.06846 0.0690632 0.0698053 0.0689437 0.0666488 0.0641788 
0.0612614 0.0590215 0.0565172 0.0548136 0.0144481 0.0173934 -0.00324854 0.0127675 0.0197755 
0.0216441 0.0232666 0.0254922 0.0233237 0.0218631 0.0202857 0.0172 -0.00300774 0.0607618 
0.0189438 0.021741 0.0250133 0.0235149 0.022559 0.0211527 0.0195282 0.0171998 0.00610476 
-0.000854217 0.00732328 -0.000912595 0.0572179 0.0128158 0.0119856 -0.00171806 0.00373949 0.0143716 
-0.00214741 0.0135814 0.0449504 0.0140672 0.0124304 0.0110314 -0.00269326 -0.00301243 -0.00295753 
-0.00277947 -0.00260355 -0.0024075 -0.00214202 -0.00184429 -0.00155135 -0.00119627 0.0316348 0.0294895 
0.00576082 0.00868456 0.00621209 0.00713406 0.00836665 0.00906932 -0.00291602 -0.0028154 0.00255889 
0.0014923 0.00069445 4.98338e-05 -0.000436197 -0.000815539 -0.00116085 -0.0014754 0.00985699 0.00818857 
-0.000311835 -0.000686752 -0.000967062 0.000173158 0.000828051 0.00159372 0.00264729 0.00389907 0.00522246 
0.00656001 0.0445857 0.00956481 0.00614077 0.0051735 0.00448155 0.00495348 0.00549885 0.007646 
0.0103536 0.0142416 0.0202172 0.0535176 0.0508533 0.00742157 0.00391089 0.0497295 0.0543616 
0.0538124 0.0544333 0.0575336 0.0543184 0.0513272 0.0475947 0.0446679 0.0423064 0.0397164 
0.0122183 -0.00258875 0.00572746 0.0131451 0.00592427 0.0140078 0.0149949 0.0166644 0.0155051 
0.0145283 0.0140121 0.0124805 0.0128465 0.0147109 0.0173061 0.0172101 0.015984 0.0148849 
0.0143873 0.0478941 0.0104635 0.0106819 0.0249264 0.0116833 0.0185873 0.0100422 0.041526 
-0.00251085 0.0123893 -0.00186325 0.0115135 0.0120999 0.0170148 0.0102068 -0.00237491 0.00777328 
-0.00179632 -0.0015949 -0.00141249 -0.0012076 0.00889895 0.00798878 0.0112709 0.00752278 -0.00201161 
0.00114389 -0.00186188 0.00224476 -0.00039992 -0.00089075 -0.00134194 0.000448327 0.00363587 -0.000249562 
0.00754934 0.00131912 0.00250667 0.00395464 0.00567392 0.00806863 0.0106592 0.000276615 -0.00213454 
0.00643097 0.00701571 0.00828842 0.0122865 0.0171386 0.0228775 0.0388846 0.0405172 0.0309607 
0.0430909 0.0345473 0.0423445 0.0417531 0.0367981 0.0329502 0.00925446 0.00906515 -0.00164148 
-0.00196514 0.00550213 0.00915525 0.00877976 0.00934278 0.00993627 0.00949322 0.0105352 0.0122005 
0.0137087 0.0129496 0.0118818 -0.00211243 0.028411 -0.00230684 -0.00188513 0.00785477 0.00915778 
0.0112888 0.0079421 0.0377486 -0.000794356 0.00842888 0.0396875 0.0110095 0.00983852 0.0150096 
0.0207349 0.0294342 0.0110846 -0.00191943 0.0342498 -0.000969029 0.0114862 0.00686211 -0.00115267 
0.0260271 0.00167347 -0.00140756 -0.0010528 0.00200152 -0.00016098 0.000810849 0.00899725 0.0135761 
0.0097864 0.0033812 0.0115735 0.0199802 0.0265281 0.00992838 0.023979 0.02899 0.00562213 
0.000612896 -0.00130475 0.00364951 -0.00102217 0.00486631 -0.000408732 0.00422603 0.00508278 0.0059143 
0.00479692 0.00814061 0.0124025 -0.000883282 0.0116703 0.0103918 -0.000684811 0.00924605 -0.000942465 
0.00815227 0.00899519 0.00508756 0.0119878 0.0169662 0.00608376 0.0284254 0.0267965 0.0312346 
0.0121013 -0.00110241 0.00862249 0.00544298 0.013736 0.000616521 0.00119465 0.00232096 0.00205604 
-1.96445e-05 0.018807 0.0156665 0.000798681 0.00298456 0.0172335 0.0137141 9.07348e-05 0.00021743 
0.000155911 0.000127628 0.0203385 0.0207338 0.00174537 0.0134875 0.0024129 -0.37578 -0.373786 
-6.14857e-05 0.563002 0.599511 0.392408 0.217784 0.198961 0.190846 0.186191 0.265037 
0.263104 0.25905 0.258841 0.258477 0.258296 0.258762 0.259452 0.259485 0.26008 
0.260336 0.259968 0.259801 0.25964 0.259828 0.261273 0.261907 0.262544 0.263534 
0.268243 0.278273 0.286334 0.395826 0.339083 0.243379 0.216984 0.209062 0.228443 
0.261002 0.259668 0.263673 0.263067 0.262037 0.264156 0.263929 0.263504 0.263393 
0.262726 0.262578 0.263246 0.265024 0.262934 0.264491 0.264146 0.265133 0.269281 
0.273741 0.281291 0.297645 0.414456 5.87502e-05 7.9615e-05 -0.000195317 -0.000815184 -0.00162103 
-0.00252816 -0.00353016 -0.0045727 -0.0055506 -0.00640948 -0.0071345 -0.00777101 -0.00817286 -0.00838582 
-0.00838607 -0.00817233 -0.0077558 -0.00713221 -0.00639707 -0.00541714 -0.00439216 -0.00336029 -0.00233696 
-0.00141525 -0.000666164 -0.000136575 0.000104844 5.16327e-05 0.121554 -0.0054868 -0.00280353 -0.00137123 
-0.000783858 -0.000538212 -0.000338618 -0.000248388 -0.000182664 -0.000100109 -9.27711e-05 -8.39047e-05 -8.76275e-05 
-0.000101203 -0.000141514 -0.000171365 -0.000212714 -0.000215122 -0.000207437 -4.68116e-05 0.000212118 0.000437201 
0.000606064 0.000583571 0.000340121 4.39511e-05 -0.000136877 -0.000234425 -0.000239935 -0.000193327 -0.000146344 
-0.000118571 -8.3319e-05 -4.35787e-05 -2.72558e-05 -1.12848e-05 -1.5001e-06 7.24409e-06 1.21067e-05 1.8269e-05 
2.21853e-05 2.91958e-05 3.46667e-05 3.82095e-05 3.53967e-05 -2.77714e-05 2.00963e-05 2.93939e-05 1.90721e-05 
2.48875e-05 2.54325e-05 2.0165e-05 1.75057e-05 1.30339e-05 7.87096e-06 5.49474e-07 -8.61831e-06 -2.25827e-05 
-5.15674e-05 -6.24352e-05 -0.000111017 -0.000195479 -0.000322345 -0.000262397 -0.000189204 -2.42267e-05 0.000153587 
0.000448462 0.000591532 0.000343786 0.000400015 2.08925e-05 -1.08404e-05 -0.000142765 -0.000133204 -0.000132182 
-0.000113488 -0.000102632 -7.89101e-05 -5.85962e-05 -6.00499e-05 -0.000101018 -0.000213166 -0.000222597 -0.000234386 
-0.000383908 -0.000614602 -0.000993549 -0.00223149 -0.00394772 0.00411348 0.137069 -0.128691 -0.191208 
-0.136546 -0.160457 -0.180528 -0.185842 -0.18829 -0.201427 -0.302594 -0.290577 -0.271661 
-0.250336 -0.230668 -0.109334 -0.122771 -0.116267 -0.149238 -0.0735148 -0.163063 -0.17076 
-0.168204 -0.302761 -0.301309 -0.292617 -0.283833 -0.263314 -0.240072 -0.246085 -0.131634 
-0.091605 4.10231e-05 0.000116069 -0.000138424 -0.000663607 -0.0014248 -0.00232475 -0.00332758 -0.00436593 
-0.00534085 -0.00630033 -0.00716053 -0.00774908 -0.0081463 -0.00834274 -0.00832883 -0.00810792 -0.00768319 
-0.00708697 -0.00630783 -0.00540388 -0.00440637 -0.00338317 -0.00238649 -0.00146983 -0.000693051 -0.000146425 
0.000100861 4.56989e-05 0.0395859 -0.0151846 -0.00706208 -0.002674 -0.00137086 -0.000748405 -0.000415913 
-0.000285809 -0.000155954 -0.000124051 -9.38556e-05 -6.25349e-05 -6.93846e-05 -9.88742e-05 -0.000136559 -0.000185676 
-0.000252349 -0.000304288 -0.000276707 -0.000146087 9.34315e-05 0.000372415 0.000648045 0.000693949 0.000508218 
0.00019398 -7.15857e-05 -0.000256994 -0.000278342 -0.000251563 -0.000220293 -0.000149451 -9.92278e-05 -7.14025e-05 
-4.04927e-05 -2.09943e-05 -6.98529e-06 8.26511e-06 2.03369e-05 2.30292e-05 2.89913e-05 3.76363e-05 4.00681e-05 
3.57027e-05 2.12472e-05 -1.67584e-05 1.37478e-05 2.76684e-05 2.50531e-05 2.65376e-05 2.43417e-05 2.07276e-05 
1.80793e-05 1.69549e-05 9.85093e-06 -5.23127e-06 -1.92132e-05 -3.15941e-05 -5.97871e-05 -8.62666e-05 -0.000129472 
-0.000131124 -0.000165865 -0.000177897 -0.000153524 -9.26472e-05 0.000146674 0.000346198 0.000481733 0.000533037 
0.000381605 0.00015904 -9.89438e-05 -0.000152359 -0.000205847 -0.000195263 -0.000134802 -7.16213e-05 -5.08173e-05 
-5.42232e-05 -4.9306e-05 -6.05981e-05 -9.2713e-05 -0.000187344 -0.000295757 -0.000534471 -0.000458364 -0.000675249 
-0.0012675 -0.00358085 -0.0096537 0.0878872 -0.118305 -0.235936 -0.241521 -0.273603 -0.289294 
-0.299179 -0.302617 -0.203335 -0.18711 -0.176882 -0.163994 -0.143841 -0.152029 -0.137698 
-0.147482 -0.161034 -0.235634 -0.252804 -0.265813 -0.2847 -0.299126 -0.174749 -0.183704 
-0.179794 -0.169093 -0.15745 -0.13702 -0.2233 -0.137169 -0.148413 1.95691e-05 1.54564e-05 
-0.126953 -0.106189 -0.0844995 -0.12515 0.338734 0.334253 0.253808 0.235541 0.230292 
0.214821 0.211525 0.219716 0.209798 0.197717 0.216003 0.201443 0.211867 0.200162 
0.207797 0.202648 0.209279 0.201843 0.207174 0.201874 0.203564 0.202866 0.208175 
0.202088 0.206112 0.203807 0.204909 0.201938 0.206258 0.20329 0.20637 0.201679 
0.205898 0.203207 0.204748 0.204853 0.20599 0.203933 0.201912 0.20433 0.205145 
0.205276 0.204336 0.20533 0.204908 0.208173 0.208021 0.211258 0.208374 0.22049 
0.213186 0.22625 0.236596 0.244232 8.15058e-06 -6.95445e-05 -0.000138331 -0.000284738 -0.000521262 
-0.000307887 -0.000789781 -0.00115004 -0.00073884 -0.00146378 -0.00188526 -0.00134006 -0.00225215 -0.00271511 
-0.00203134 -0.00309786 -0.00360868 -0.00278614 -0.00401965 -0.00452231 -0.00359756 -0.00489319 -0.00534421 
-0.00439199 -0.0056957 -0.00609335 -0.00511659 -0.00638739 -0.00669885 -0.00575472 -0.00692738 -0.00721455 
-0.00629137 -0.00736728 -0.00749972 -0.00667302 -0.0075963 -0.00765085 -0.00692973 -0.00765544 -0.00759936 
-0.00702193 -0.00751383 -0.00735724 -0.00693744 -0.00718466 -0.00692794 -0.00667996 -0.00670046 -0.00637909 
-0.00627382 -0.00607966 -0.00566185 -0.00576103 -0.00530084 -0.00477565 -0.00509534 -0.00438707 -0.00390759 
-0.00432402 -0.00348701 -0.00296852 -0.00350148 -0.0025757 -0.00210442 -0.00268336 -0.00174802 -0.0013292 
-0.00192377 -0.00102443 -0.000707609 -0.00125603 -0.000470928 -0.000293392 -0.000718638 -0.000123437 -8.56386e-05 
-0.000334005 -6.46857e-06 -1.56958e-05 -8.68679e-06 -0.000113138 0.0659416 0.0281874 0.0112016 0.0044374 
0.00292452 0.0129264 0.00201131 0.00152719 0.00349869 0.00104403 0.000889132 0.00149142 0.000623685 
0.000567853 0.000713992 0.000362463 0.000357039 0.000389396 0.000236824 0.000263971 0.000246448 0.000164003 
0.000186899 0.00016324 9.6615e-05 9.3814e-05 9.61794e-05 5.8845e-05 9.9946e-05 2.98433e-05 5.6493e-05 
0.000100537 3.7305e-05 6.56925e-05 8.96003e-05 5.16063e-05 9.05008e-05 0.000115361 7.35326e-05 0.000131385 
0.000164957 0.000123284 0.000188645 0.000222335 0.000217926 0.000231685 0.000277945 0.00031572 0.000242501 
0.000285448 0.000381789 0.000206869 0.000262917 0.000362709 6.9767e-05 5.27182e-05 0.000221095 -0.000208669 
-0.00028001 -6.30835e-05 -0.00053877 -0.000606833 -0.000535693 -0.000751393 -0.000792132 -0.000785756 -0.000742989 
-0.000685982 -0.000916606 -0.000460241 -0.00035978 -0.00075231 -0.000111993 -4.06948e-05 -0.000333456 0.000170168 
0.000192882 5.0726e-05 0.000328446 0.000299172 0.000319506 0.000350967 0.000283612 0.000436623 0.000298506 
0.000234752 0.000395757 0.000220738 0.000179275 0.000304546 0.000159061 0.00013251 0.000216281 0.000104606 
9.10803e-05 0.000155726 6.31549e-05 4.76898e-05 9.49671e-05 2.84522e-05 2.49883e-05 4.65011e-05 6.39441e-06 
6.9487e-06 1.53927e-05 -1.06183e-05 -2.42522e-07 -2.68814e-06 -2.05933e-05 -8.61743e-06 -1.44658e-05 -2.68992e-05 
-1.84867e-05 -2.39056e-05 -3.40334e-05 -2.4664e-05 -3.22207e-05 -3.86179e-05 -3.08515e-05 -3.85536e-05 -4.8238e-05 
-3.95495e-05 -4.86277e-05 -5.54407e-05 -4.85625e-05 -6.19339e-05 -5.84016e-05 -5.5873e-05 -6.55809e-05 -4.78055e-05 
-4.16726e-05 -8.05494e-05 -0.171592 -0.181903 -3.27761e-05 -3.39343e-05 -2.98571e-05 -0.189868 -0.136128 
-3.98077e-05 -3.59275e-05 -3.97681e-05 -3.23012e-05 -3.55346e-05 -3.89539e-05 -2.6968e-05 -3.15797e-05 -3.32335e-05 
-2.03417e-05 -3.0484e-05 -2.82029e-05 -1.46724e-05 -2.70919e-05 -2.29909e-05 -7.91088e-06 -1.95232e-05 -1.50584e-05 
2.59512e-06 -8.39361e-06 -3.97124e-06 1.56331e-05 5.83237e-06 4.92405e-06 2.43154e-05 2.98874e-05 3.57145e-05 
5.52058e-05 5.00981e-05 5.83329e-05 9.39198e-05 9.90792e-05 9.68745e-05 0.000138557 0.000138179 0.000145917 
0.000206492 0.00020654 0.000215393 0.000258376 0.00025405 0.000213523 0.000313294 0.000288807 0.000245284 
0.00029471 0.000252611 0.000277023 0.000141862 0.000107952 0.000194628 -7.92373e-05 -0.000216811 -8.10376e-05 
-0.000483262 -0.00051976 -0.000548294 -0.000919346 -0.000699709 -0.000746335 -0.000844235 -0.000614087 -0.000991191 
-0.000476354 -0.000330474 -0.000803182 -0.000139281 -9.49133e-05 -0.000347184 6.31992e-05 0.000105403 3.82922e-05 
0.000340179 0.000167724 0.000228559 0.000337346 0.00019236 0.000352816 0.000203653 0.000144838 0.000293276 
0.000236263 0.000124859 0.000214182 0.000171088 8.70345e-05 0.000164207 0.000132101 6.29365e-05 9.10715e-05 
0.000105349 3.59567e-05 5.35315e-05 8.08901e-05 3.46489e-05 2.91144e-05 0.000102281 4.34944e-05 -6.31169e-06 
0.00018275 7.37007e-05 5.57846e-05 0.000145106 0.000182704 0.000140025 0.000267959 0.000202776 0.000247401 
0.000489928 0.000327724 0.000314666 0.000781959 0.000640641 0.000244591 0.00128585 0.00111775 0.000606581 
0.00232573 0.0023026 0.00127736 0.00222215 0.00562216 0.00319641 0.00710338 0.0202015 0.0085622 
0.0296502 0.145433 0.127197 0.128575 0.123494 0.0762449 0.12389 0.119355 0.0827902 
0.121861 0.126597 0.0892888 0.118241 0.11547 0.103634 0.113586 0.113145 0.107721 
0.114296 0.113903 0.106633 0.112242 0.112821 0.108364 0.11167 0.113016 0.109664 
0.114692 0.11469 0.108725 0.113019 0.113416 0.109821 0.11411 0.115087 0.110826 
0.114823 0.115052 0.109654 0.114523 0.114668 0.110418 0.113357 0.113119 0.110135 
0.112797 0.112724 0.110974 0.113582 0.113715 0.110004 0.112155 0.11301 0.11006 
0.113825 0.114088 0.108488 0.11296 0.113457 0.108498 0.112731 0.113151 0.107533 
0.113015 0.113606 0.106912 0.112275 0.114481 0.105709 0.11614 0.119964 0.103117 
0.118117 0.126814 0.0950336 0.0181954 0.0175661 0.053185 0.0451774 0.0181659 0.0571393 
0.0595355 0.0464421 0.0565371 0.0582393 0.0505592 0.0535207 0.0558163 0.0502484 0.0515755 
0.0544196 0.0491026 0.0495216 0.0514134 0.0500977 0.0516772 0.0478835 0.0500028 0.0548234 
0.0546104 0.0509637 0.0563757 0.0562513 0.050858 0.0570623 0.0560616 0.0513305 0.0611237 
0.0570901 0.0493718 0.0492226 0.0608215 0.0449979 0.0100494 0.0224972 0.0113497 -0.126578 
-0.135161 0.0263904 0.0219332 0.0446646 0.0437258 0.0159386 0.0492544 0.0532718 0.0363279 
0.0537978 0.066426 0.0385687 0.0546473 0.0581765 0.0508259 0.0540045 0.0554178 0.0523891 
0.0581359 0.0557513 0.053111 0.0572793 0.0568799 0.0522081 0.0564897 0.0551273 0.0516504 
0.0578123 0.0562267 0.0523021 0.0590641 0.0537922 0.0518053 0.0593306 0.0548517 0.0501171 
0.0548189 0.0473626 0.0444817 -0.0176687 0.0259882 0.0251584 -0.130933 -0.13469 -5.23013e-05 
0.0733424 -0.0065291 -0.00301303 0.0940156 -0.0595272 -0.0218275 -0.00941492 -0.0211811 -0.0573416 
-0.00625871 -0.0640709 -0.0356243 -0.0142149 -0.0480046 0.0452974 0.0520565 -0.00383397 0.0153795 
-0.000673441 -0.000955403 -0.00119739 -0.00152201 -0.00106597 -0.00178464 -0.00214534 -0.00159081 -0.00245276 
-0.00283009 -0.00216982 -0.00314807 -0.00356511 -0.00281367 -0.00387542 -0.00425343 -0.00346763 -0.00455195 
-0.00489352 -0.00409852 -0.0051428 -0.00543495 -0.00466442 -0.00563017 -0.00586156 -0.00512171 -0.00600917 
-0.00616867 -0.00547906 -0.00626693 -0.00636131 -0.00573984 -0.00638219 -0.00638846 -0.00587023 -0.00635734 
-0.00627391 -0.00586777 -0.00615295 -0.0059862 -0.00571976 -0.00584188 -0.00562213 -0.00545591 -0.00543221 
-0.00514435 -0.00511704 -0.0048672 -0.0045127 -0.00464331 -0.00420585 -0.00381911 -0.00405235 -0.00350246 
-0.00309042 -0.00341753 -0.00276489 -0.00237622 -0.00276165 -0.00208335 -0.00172492 -0.00213003 -0.00145649 
-0.00116105 -0.001554 -0.000930109 -0.000699796 -0.00104838 -0.000509445 -0.000361882 -0.000638914 0.039623 
0.0385617 0.0391805 0.0727304 0.0223177 -0.000151268 0.0155078 0.0102673 0.00811517 0.00595528 
0.0136818 0.00489428 0.00390071 0.0078912 0.00318962 0.00254793 0.00505822 0.00200693 0.00168409 
0.00327303 0.0012941 0.00110919 0.00211182 0.000877058 0.00073089 0.00133293 0.000564995 0.000554499 
0.000927539 0.000445743 0.000489258 0.000663685 0.000397385 0.00045278 0.000583097 0.000438638 0.000530108 
0.000617117 0.000560766 0.000708024 0.000779939 0.000747984 0.000949835 0.00103344 0.00101804 0.00121006 
0.00138783 0.00122934 0.0013679 0.0017437 0.00127764 0.00129479 0.00196822 0.000965437 0.000668554 
0.00160856 -1.81277e-05 -0.000701066 0.000350973 -0.00146945 -0.00228284 -0.00157111 -0.0031827 -0.00380964 
-0.00416137 -0.00411914 -0.00393318 -0.00562085 -0.00339121 -0.00256898 -0.0052764 -0.00163599 -0.000787249 
-0.00314991 5.18713e-06 0.00059658 -0.000702284 0.00110578 0.00129554 0.00119928 0.00147852 0.00142983 
0.00195237 0.00146236 0.00129225 0.00206541 0.00124159 0.0010375 0.00184517 0.000942148 0.000779626 
0.00148148 0.000660332 0.000528713 0.00107543 0.000421002 0.000327207 0.000691205 0.000248882 0.000188768 
0.000430167 0.000125179 8.46277e-05 0.000234812 3.01419e-05 1.19834e-05 9.70745e-05 -3.76854e-05 -4.62848e-05 
-1.43086e-05 -8.89673e-05 -8.62648e-05 -9.84665e-05 -0.000121554 -0.000120816 -0.000149073 -0.000148192 -0.000148917 
-0.000187673 -0.00017591 -0.000184762 -0.000228441 -0.00021342 -0.000227831 -0.00028695 -0.000252844 -0.000252971 
-0.000342737 -0.000262064 -0.000231552 -0.000393463 -0.0437615 -0.0641574 0.0453716 0.0255524 0.0308855 
-0.000166686 -0.000176057 -0.000168297 -0.000171306 -0.000249898 -0.000153751 -0.000160515 -0.00023823 -0.00013085 
-0.000136937 -0.000211398 -9.88042e-05 -0.000110113 -0.000169887 -6.31669e-05 -7.53247e-05 -0.000119343 -2.20956e-05 
-1.83049e-05 -6.44171e-05 3.79968e-05 5.05349e-05 2.63082e-05 0.000112882 0.000142132 0.000132824 0.000215466 
0.000266048 0.000265799 0.000353177 0.000434598 0.000451769 0.000516956 0.000621669 0.000676161 0.000727282 
0.000875907 0.000967731 0.000976002 0.00116548 0.00136098 0.00121203 0.00139676 0.00174839 0.00130412 
0.00128465 0.00185331 0.00104718 0.000713639 0.00154921 0.000153068 -0.000642149 0.000420184 -0.00145723 
-0.0024177 -0.00177107 -0.00321205 -0.00359787 -0.00377818 -0.00371284 -0.00335522 -0.00505003 -0.00293342 
-0.00219049 -0.00456929 -0.00142555 -0.000783926 -0.00269255 8.70951e-05 0.000434358 -0.000665626 0.000937745 
0.000987752 0.0010843 0.0012253 0.00106431 0.00159238 0.00122736 0.000975592 0.00165188 0.00101482 
0.000787053 0.00142556 0.000807775 0.000586466 0.00117599 0.000571582 0.000440462 0.000888007 0.000475502 
0.000359445 0.00064055 0.00044948 0.000360194 0.000535624 0.000483412 0.000463061 0.000570823 0.000588664 
0.000654003 0.000722682 0.000927072 0.000955419 0.00097054 0.00117287 0.0013019 0.00144851 0.00178475 
0.00213222 0.00222636 0.00279607 0.00363941 0.00360626 0.00424191 0.00549236 0.00559439 0.00646458 
0.00958116 0.00939822 0.0115663 0.0197134 0.035087 0.0164657 -0.000304996 0.0701694 0.0685368 
0.0773706 0.0821219 0.085227 0.0899305 0.0782152 0.0912396 0.0938287 0.0876811 0.0942714 
0.0943732 0.090571 0.0974512 0.0971148 0.0904822 0.0989234 0.0992941 0.0916356 0.100242 
0.100524 0.0939647 0.101362 0.100863 0.0955405 0.10206 0.102233 0.096577 0.10245 
0.102671 0.0973874 0.102877 0.102533 0.0980549 0.10299 0.102493 0.0981826 0.102582 
0.102446 0.098301 0.102511 0.102033 0.098053 0.102087 0.101781 0.0973903 0.101252 
0.101435 0.0966168 0.100112 0.100132 0.0956806 0.0992647 0.0990235 0.0942445 0.0971378 
0.0972234 0.0922981 0.0950594 0.0943448 0.0893239 0.0922177 0.0916632 0.0853213 0.0876096 
0.0865169 0.079982 0.0746417 0.033608 0.0285556 0.035211 -0.067524 -0.0400469 -0.0351649 
0.0239542 0.00107685 0.0121251 0.023937 0.0437282 0.0439166 0.0399522 0.0446134 0.0440233 
0.041427 0.0449648 0.0446504 0.0418935 0.0451586 0.0453402 0.0425361 0.0455705 0.0454453 
0.0427256 0.0458281 0.0451249 0.0426543 0.0439923 0.0437056 0.0413682 0.0399385 0.0413583 
0.0382898 0.0252516 0.0344403 0.0324741 0.00192633 0.0205962 0.0224736 0.012541 -0.00551738 
0.0113128 -0.0393878 -0.0611755 0.00491857 0.0170739 -0.0741146 -0.0513371 0.018953 0.0058002 
0.0440873 0.0429063 0.0439253 0.0441547 0.0417399 0.0455711 0.0446333 0.0446461 0.0463663 
0.0465032 0.0439732 0.0464052 0.046726 0.0433049 0.0452802 0.0455639 0.0420394 0.0431145 
0.0438031 0.0401126 0.0371517 0.0395145 0.0362114 0.0247608 0.0321627 0.0294081 0.00454628 
0.0228092 0.018127 0.00935392 -0.00157846 -0.000468713 0.0312467 0.022242 0.0187859 0.0354819 
0.0379189 0.0304356 0.0367621 -0.0216997 -0.00211339 -0.000214785 -0.00012354 -5.71622e-05 -0.000327763 
0.0613523 -0.0127189 -0.03541 -0.00013763 0.00935342 0.00281758 -0.000602546 0.0652189 -0.0413011 
0.0128285 0.00841473 -0.0236428 0.00961322 0.00309087 -0.000330738 -0.0335721 -0.0101425 0.0105794 
0.00349967 -0.000219866 0.0365125 0.0360895 0.0433364 -0.00134976 -0.00161941 -0.00189168 -0.00218304 
-0.00162109 -0.00245348 -0.00277321 -0.00215134 -0.00303844 -0.00336054 -0.00269609 -0.00359942 -0.00389955 
-0.00321118 -0.0041371 -0.00438251 -0.0036982 -0.00457782 -0.00477124 -0.00413416 -0.00490888 -0.0050661 
-0.00446912 -0.00516299 -0.00526757 -0.00471298 -0.00530316 -0.00532828 -0.00485659 -0.00530077 -0.00527488 
-0.00487245 -0.00521152 -0.00509492 -0.00478653 -0.00500778 -0.0048738 -0.00463774 -0.00474081 -0.00455567 
-0.00442015 -0.00437115 -0.00410548 -0.0041044 -0.00387791 -0.00357857 -0.00368925 -0.00332299 -0.00301212 
-0.00319868 -0.0027422 -0.0024293 -0.00267324 -0.0021621 -0.00186413 -0.00213766 -0.00162357 -0.00135606 
-0.00162992 -0.00113169 -0.000901357 -0.00116228 0.0351183 0.0346014 0.0312087 0.0323962 0.0302397 
0.0287531 0.0255143 0.0193616 0.0160034 0.0126294 0.0231712 0.0106224 0.00864048 0.0155632 
0.00736805 0.00585109 0.0106302 0.00470989 0.00373281 0.00712266 0.00305371 0.00255399 0.00460159 
0.0021938 0.00186948 0.0031301 0.00158113 0.00146951 0.00232984 0.00129514 0.00124801 0.0018208 
0.00121363 0.00132473 0.00165264 0.00136215 0.00156775 0.00177715 0.00169226 0.00199247 0.0021659 
0.00215867 0.00255038 0.00276241 0.00269178 0.00304875 0.00346173 0.00312439 0.00331936 0.00409805 
0.00303024 0.00266098 0.00425766 0.00157186 0.000227298 0.00267703 -0.00140968 -0.00331689 -0.000556829 
-0.0054927 -0.00794377 -0.00592664 -0.010086 -0.010809 -0.0119993 -0.0105097 -0.00885737 -0.0142841 
-0.00641009 -0.00399905 -0.0112115 -0.00187788 0.000179929 -0.00330967 0.00159405 0.00253712 0.000800834 
0.00309416 0.00325941 0.00361266 0.00338922 0.00321965 0.00433229 0.00306814 0.00273661 0.00410028 
0.00251163 0.00213868 0.00344849 0.00188013 0.00153664 0.00264868 0.00128621 0.00103174 0.00189922 
0.000817241 0.00063728 0.00124418 0.000473693 0.000345285 0.000750085 0.000214131 0.000120828 0.000384538 
1.14875e-05 -5.17289e-05 0.000100757 -0.000129874 -0.000171544 -0.000111643 -0.000233979 -0.000261649 -0.000263193 
-0.000316516 -0.000336828 -0.000378094 -0.000382296 -0.000408904 -0.000471169 -0.000465477 -0.000505133 -0.000578994 
-0.000568025 -0.000601173 -0.000705766 -0.000617437 -0.000631017 -0.000824562 -0.000799184 0.0461282 0.0304228 
0.0360221 0.0597294 0.0113767 0.00812485 0.0189984 0.0141145 -0.000408372 -0.00040712 -0.00036828 
-0.00035603 -0.000519414 -0.000298334 -0.000279431 -0.000437862 -0.000208675 -0.000193202 -0.000323362 -0.000109789 
-6.99746e-05 -0.000196119 1.91807e-05 8.24482e-05 -1.33712e-05 0.00019255 0.00027967 0.000201574 0.000419991 
0.000557818 0.000488514 0.00071398 0.000890499 0.000859172 0.0010798 0.00130479 0.0013134 0.00153399 
0.0018422 0.00189459 0.00210518 0.00245011 0.00261114 0.00274404 0.00305712 0.0034424 0.00317333 
0.00327928 0.00411572 0.00286587 0.00246372 0.00394065 0.0017188 0.000352435 0.00271219 -0.00147071 
-0.00396188 -0.00117911 -0.00647777 -0.00831957 -0.00686013 -0.00929487 -0.00900928 -0.0111794 -0.00813251 
-0.00651398 -0.0121144 -0.00534597 -0.00329786 -0.00759502 -0.000896135 0.000567912 -0.0029016 0.00169801 
0.00224312 0.00188178 0.00263116 0.00259104 0.00327722 0.00273821 0.00253916 0.00346128 0.00259152 
0.00224826 0.00327449 0.00211959 0.00178868 0.00288756 0.00162261 0.00138635 0.00231043 0.00130807 
0.00117384 0.00180911 0.00118372 0.00115261 0.00157167 0.0012401 0.00134329 0.00161537 0.00161455 
0.00185025 0.00195053 0.0022192 0.00258068 0.00267389 0.00310786 0.00357387 0.00371144 0.00425746 
0.00511698 0.0052604 0.00661677 0.00819073 0.00787577 0.00968369 0.0120816 0.0120393 0.0136441 
0.018316 0.0173696 0.0381018 0.0380782 0.0616168 0.0699875 -0.0195551 -0.0270396 0.0727663 
0.0747764 0.0620694 0.0765461 0.0774042 0.0664322 0.0794913 0.0802275 0.069188 0.0816458 
0.0832911 0.0725624 0.0846204 0.0856501 0.0756665 0.086725 0.0876619 0.0782969 0.0884995 
0.0890729 0.0804752 0.0895342 0.0903207 0.0822515 0.0904886 0.0910235 0.083485 0.0910629 
0.0911317 0.0842244 0.0909828 0.0912612 0.08449 0.0908164 0.0905003 0.0841755 0.0898309 
0.0895838 0.0832012 0.0888773 0.0886066 0.0819921 0.0880127 0.0876313 0.0809329 0.0864166 
0.0856058 0.0794992 0.0839486 0.0827217 0.0769445 0.0800184 0.0779755 0.0727448 0.0749986 
0.0724154 0.0672006 0.0684628 0.0647501 0.050587 0.0602068 0.0281247 0.0230478 0.0247916 
0.0370733 0.0368877 0.0321958 0.0371664 0.0373595 0.0325418 0.0366222 0.0372872 0.032621 
0.0348352 0.0359054 0.0318077 0.0303042 0.0330435 0.0294124 0.0228301 0.0276791 0.0250045 
0.0133748 0.0221336 0.0190749 0.0136506 0.0120315 0.0133242 0.013385 -0.0313044 -0.0173932 
0.0129027 0.0124206 0.00587163 0.00965404 -0.00776622 -0.0211831 0.0352759 0.0331782 0.0375931 
0.0378466 0.0334998 0.0359267 0.036604 0.0325426 0.0327152 0.0343844 0.030612 0.0272816 
0.0305519 0.0269259 0.0196132 0.0251051 0.021937 0.0125941 0.0187825 0.0162526 0.000749552 
0.00783829 0.0373092 0.0365979 0.0313367 0.0332065 -0.00109132 -0.0389967 -0.0420374 -0.0233989 
-0.0100007 -0.000418177 -0.000427893 -0.000561875 0.030823 0.0487138 0.0459924 0.0218309 0.00260683 
-0.00409894 -0.00109652 -0.0251884 -0.000703064 -0.000504952 0.0013578 0.00696308 -0.00526687 0.0136164 
0.0129357 0.0129384 -0.000733935 -0.000359534 -0.000413111 0.0109079 0.0206764 0.0172057 0.0257113 
0.0135394 0.0266483 -0.00927151 0.0194719 0.0223783 0.0148427 -0.0368374 -0.0343736 -0.0181419 
0.0137979 0.0124389 0.0120504 -0.0124971 -0.00444841 0.00256055 0.0126809 -0.0207193 0.028207 
0.0318379 0.0287034 0.00857393 0.0048493 -0.00336003 -0.000556173 -0.023107 -0.0167814 -0.0189474 
-0.00184206 -0.00208869 -0.0023386 -0.00259819 -0.00202979 -0.0028112 -0.00303598 -0.00246766 -0.0032422 
-0.00347291 -0.00287508 -0.00365154 -0.00383629 -0.00324885 -0.00398711 -0.0041152 -0.00357247 -0.00422307 
-0.00432732 -0.00382418 -0.00436377 -0.00440016 -0.00397746 -0.00437789 -0.00434938 -0.00399239 -0.00431818 
-0.004259 -0.00393725 -0.00420327 -0.00412364 -0.00385329 -0.00404049 -0.00392255 -0.00371933 -0.00379486 
-0.00362543 -0.00351668 -0.00345188 -0.00324096 -0.00322865 -0.00304039 -0.0028013 -0.00286992 -0.00257742 
-0.00232827 -0.0024604 -0.00209165 -0.00184439 -0.00201915 -0.00161745 -0.00138393 -0.00157636 -0.00116813 
-0.000948891 -0.0011499 0.0264506 0.0254784 0.02464 0.0227707 0.0213119 0.041319 0.0097733 
0.0115229 0.0244122 0.0201419 0.0168771 0.0139355 0.0232423 0.0115376 0.00925413 0.0160411 
0.00770636 0.00627989 0.0107958 0.00535213 0.00457488 0.00743101 0.00394442 0.0034265 0.00539903 
0.00299847 0.00276598 0.00407953 0.0025836 0.00253384 0.00335358 0.00253614 0.00270011 0.0031933 
0.00285008 0.00318434 0.00345483 0.00343785 0.00392005 0.00409602 0.00421785 0.00474141 0.0049798 
0.00510674 0.00562141 0.00606657 0.00581687 0.00587941 0.00717493 0.00499425 0.00348639 0.00697256 
-0.000177781 -0.0031159 -0.00705014 -0.0138978 -0.0191349 -0.0224473 -0.0212926 -0.0091126 -0.00488709 
0.00492136 0.00548531 0.00577484 0.00566005 0.00691873 0.00549061 0.00498956 0.00678743 0.00466888 
0.004109 0.00590384 0.00364911 0.00314113 0.0047802 0.00267579 0.00220957 0.00358464 0.00179786 
0.00142995 0.00248433 0.00112274 0.000857681 0.00159818 0.000619418 0.000418147 0.000934898 0.000208918 
5.35452e-05 0.000401249 -0.000110846 -0.000213234 -2.9661e-05 -0.000330137 -0.00040217 -0.000341535 -0.000488771 
-0.000546252 -0.000560247 -0.000617117 -0.00066654 -0.00072579 -0.000715213 -0.000782206 -0.000856477 -0.000951612 
-0.0010346 -0.0010732 0.0379886 0.049411 0.0301191 0.0275738 0.0275159 0.027258 0.026986 
0.0226396 0.0234711 -0.000626725 -0.000571007 -0.000478649 -0.000418115 -0.000670902 -0.000294241 -0.000218159 
-0.0004473 -8.72707e-05 2.89608e-05 -0.000171335 0.000200122 0.000359656 0.000162199 0.000569038 0.000789186 
0.00059694 0.00103504 0.00129587 0.00113686 0.00157122 0.0019151 0.00177948 0.00226787 0.00271512 
0.00257752 0.00316891 0.00372829 0.00362287 0.00416881 0.00478169 0.00484749 0.00526909 0.0056955 
0.00616543 0.00593139 0.00525194 0.00737481 0.00204764 -0.00160003 -0.00702588 -0.0128163 -0.0177374 
-0.0140443 -0.010543 -0.00437808 -8.98151e-05 0.00306252 0.0039723 0.00357165 0.00442794 0.00454437 
0.00591347 0.00465176 0.00448492 0.00564325 0.00475118 0.00441476 0.00554272 0.00416838 0.00369135 
0.00523539 0.0032895 0.00289778 0.00430166 0.00264974 0.00242643 0.00343043 0.00236696 0.00236049 
0.00302458 0.00250592 0.00274017 0.00310314 0.00308584 0.00357896 0.00378025 0.00415835 0.00486164 
0.00494524 0.00570906 0.00665661 0.00670979 0.00781017 0.00928868 0.00915869 0.0103883 0.0128595 
0.0124155 0.0181154 0.021146 0.0201361 0.0217692 0.0255558 0.0342976 0.0269472 0.0272693 
0.0281903 0.0132991 0.0127645 0.0218957 0.0190587 0.0191206 0.0521848 0.0543009 0.0555643 
0.0432716 0.0581075 0.0597107 0.0475034 0.0624969 0.0641118 0.06626 0.0677439 0.0574522 
0.0695711 0.0707908 0.061262 0.0721578 0.0731478 0.0642124 0.0742484 0.0750842 0.0665858 
0.076212 0.0767179 0.0687624 0.0773081 0.0775605 0.0705496 0.0777162 0.0777384 0.0712412 
0.0772293 0.076865 0.0709707 0.0760656 0.0754275 0.0696414 0.0746685 0.0740699 0.0681302 
0.0733614 0.0729792 0.066757 0.0719019 0.0709532 0.0650983 0.0696978 0.0681456 0.0630171 
0.0651452 0.0623506 0.0590344 0.058203 0.0549787 0.052149 0.0274839 0.0276196 0.0236339 
0.0100876 0.00540285 0.00759975 0.0265189 0.0273323 0.0235823 0.0234181 0.0255393 0.0225358 
0.0189466 0.0223035 0.0196041 0.0148296 0.01842 0.0162693 0.0120551 0.0121447 -0.000714021 
-0.000683734 -0.000821681 0.011696 0.0284426 0.0288752 0.0246947 0.0213698 0.023856 0.0169034 
0.0199113 0.0178378 0.01348 0.0160515 0.0144577 0.0124058 0.0127907 0.0121391 0.0350784 
0.0286201 0.0328896 0.0466673 -0.0013129 -0.00156443 -0.000767125 0.0133143 0.0141081 0.0133813 
0.012194 0.0249779 0.0265507 0.0234293 0.0211009 0.00113995 -0.000757801 -0.00107557 -0.00152596 
0.0528764 0.00495058 0.00910943 0.0145791 0.006976 0.00868454 0.00153835 -0.0150369 0.00419567 
0.0230416 0.0165319 0.018636 0.0156774 0.0140526 0.0125862 0.0113752 0.0121128 0.0106599 
0.0113397 0.0100734 0.0505752 0.0253835 0.0292589 0.0286594 0.0062577 0.0439455 0.025135 
0.0230122 0.0114544 0.00807089 0.00849373 0.0165776 0.027156 0.0257635 0.022003 0.0242934 
0.0121159 0.0128704 0.0116414 -0.000752454 -0.000912437 0.0192081 0.0192872 -0.0021256 -0.00231399 
-0.00247869 -0.00265995 -0.00214608 -0.00281905 -0.00298056 -0.00244519 -0.00315043 -0.00328415 -0.00274789 
-0.00340927 -0.00350667 -0.00302847 -0.00361105 -0.0036343 -0.0032413 -0.00356883 -0.0035356 -0.00326183 
-0.00350894 -0.00347496 -0.00315756 -0.0034465 -0.00340149 -0.0030994 -0.00335287 -0.00328391 -0.00303662 
-0.00319337 -0.00308658 -0.00290683 -0.00296733 -0.00282357 -0.00271403 -0.00267104 -0.00250292 -0.00247127 
-0.00233031 -0.00213655 -0.00218033 -0.00193054 -0.00172651 -0.00183156 -0.00151064 -0.0013126 -0.001441 
-0.00111365 0.0148946 0.0136855 0.0125113 0.0139873 0.0219135 0.0182404 0.01525 0.0124913 
0.0200122 0.0105702 0.00895069 0.014009 0.00777436 0.00666228 0.0101206 0.00586196 0.0051453 
0.00751627 0.00469816 0.00439612 0.00598113 0.00416182 0.00414724 0.00515241 0.00419078 0.00443987 
0.0049656 0.00473772 0.00517781 0.00540118 0.00559255 0.00616702 0.00627897 0.00649068 0.00712708 
0.00723305 0.00797762 0.00867846 0.00874626 0.00882941 0.00798289 0.00743091 0.00715537 0.00644902 
0.00830593 0.00584903 0.00511005 0.00714056 0.00440975 0.00374816 0.00555175 0.00310407 0.00254761 
0.00398083 0.00201483 0.00159367 0.00262439 0.00127524 0.000942341 0.00168215 0.000600655 0.000327034 
0.000918641 3.5085e-05 -0.000169663 0.000204865 -0.000368589 -0.000506795 -0.000334641 -0.000651219 -0.000752203 
-0.000705833 -0.000869089 -0.000953398 -0.000988105 -0.00103209 -0.00109302 -0.00120743 -0.000910285 -0.000796763 
0.00872899 0.018379 0.0196688 -0.000605146 -0.00048589 -0.000861856 -0.000310522 -0.000155864 -0.000483653 
6.59605e-05 0.000287683 -5.86083e-05 0.0005601 0.000851412 0.000499898 0.0011932 0.00154626 0.00120903 
0.0019435 0.00235538 0.00206748 0.00267163 0.00319702 0.00293026 0.00381542 0.00449583 0.00403715 
0.00515186 0.00593196 0.00557057 0.00643208 0.00724827 0.00705691 0.004802 0.0192792 0.0193827 
0.0162293 0.0069669 0.00712353 0.00681669 0.00622676 0.00811493 0.005395 0.00478179 0.00680124 
0.00437903 0.00403738 0.00537258 0.00388255 0.00389121 0.00471559 0.00409791 0.00443307 0.00486476 
0.00488746 0.00561727 0.00573119 0.00648284 0.00754001 0.00743105 0.00871521 0.0102133 0.0100349 
0.0118884 0.0140424 0.0136128 0.0162911 0.0187139 0.0185375 0.0236543 0.029337 0.0323489 
0.0118534 0.0111894 0.048426 0.0504719 0.0366949 0.0526551 0.0543641 0.0450402 0.0558099 
0.0571833 0.0484837 0.0582918 0.059407 0.0510019 0.0605976 0.061856 0.0532561 0.0640293 
0.0645927 0.0565677 0.0635481 0.0637098 0.05771 0.0648495 0.0642959 0.0577566 0.0623085 
0.061437 0.0568296 0.0606177 0.0599047 0.0540884 0.0593871 0.0587907 0.0529027 0.0578251 
0.05691 0.0514818 0.0559184 0.0548641 0.049757 0.053734 0.0507699 0.0478129 0.0154699 
0.0173482 0.0151878 0.0132601 0.0149863 0.013038 -0.00105995 -0.000995638 0.0104585 0.0105687 
0.0210479 0.0176812 0.0150409 0.0187955 0.0321988 0.0269293 0.0292567 0.0111809 0.0116876 
0.0179763 0.0169618 0.0207677 0.0211607 0.0123204 0.0136761 0.0108429 0.0145055 0.0162788 
0.0125334 0.0372251 -0.00172815 -0.00194237 -0.00182307 0.0429274 0.045743 0.0165898 0.015156 
0.0143268 0.0096716 0.0408782 0.0403566 -0.00129172 -0.00153075 0.014635 0.0171153 0.0187062 
0.0164217 0.0449946 0.010557 0.0102277 0.00994411 -0.00116002 0.020408 0.018182 0.0194313 
0.00986848 0.00728751 0.0185927 0.0180538 0.0150008 0.0148998 0.0135733 0.0130302 0.0191082 
0.018861 0.0154526 0.0158848 0.0177908 0.0157788 0.00830217 0.00898076 0.0109342 0.00881173 
0.041157 0.0185137 -0.214528 -0.147376 0.0377119 0.0208963 0.0214014 0.0182189 0.012807 
0.0115468 0.0119554 0.0104338 0.00954485 0.0111066 -0.00147174 0.00942313 0.0105297 0.00979595 
0.008521 0.0141554 0.0126334 0.0134839 0.0116729 0.0114763 0.0108249 0.0104152 0.0110873 
0.040967 0.0351745 0.0292915 -0.00207129 -0.00219376 -0.00269321 -0.00279999 -0.00284124 -0.00292771 
-0.00250834 -0.00284141 -0.228032 -0.157806 -0.00273997 -0.00269769 -0.00242494 -0.002689 -0.00267041 
-0.00229429 -0.00267415 -0.00264138 -0.00229784 -0.00258631 -0.00252049 -0.0022744 -0.00242326 -0.00233616 
-0.00214494 -0.00221486 -0.00210603 -0.00196164 -0.00198287 -0.0018543 -0.00176685 -0.00174542 -0.00157371 
-0.00158439 -0.00133438 0.0250995 0.0210794 0.0304657 0.0121435 0.011478 0.0179552 0.0151277 
0.0222049 0.013077 0.0112464 0.0163239 0.00991475 0.0085854 0.0122017 0.00761971 0.00694381 
0.00949309 0.0063808 0.00601291 0.00774438 0.00576098 0.00577181 0.00674195 0.00594798 0.00631031 
0.00662308 0.00681668 0.00740896 0.00738419 0.00802392 0.0089308 0.0349803 0.0081673 0.00722331 
0.00944571 0.00633148 0.00545493 0.00448375 0.00374366 0.00538591 0.00285306 0.00229147 0.00339355 
0.00184784 -0.237063 -0.16937 0.00123616 0.00082437 0.00181312 0.000364643 2.1829e-05 0.000653876 
-0.000317619 -0.000547426 -0.000207102 -0.000773607 -0.000939744 -0.00080967 -0.00110153 -0.00124251 -0.00121679 
0.00957472 0.0100945 0.00820952 0.00933389 0.00949729 0.0105209 0.0114283 0.0128143 0.0126994 
-0.000666997 -0.000469707 -0.000227689 2.58852e-05 -0.000414253 0.000358886 0.000692077 0.000194746 0.00112037 
0.00155722 0.00101602 0.00210441 0.00263123 0.00209377 0.00331048 0.00377439 0.00346184 0.00447508 
-0.231209 -0.235258 0.00551429 0.00638914 0.00533587 0.00732675 0.0103006 0.00968393 0.0069924 
0.00625844 0.00581061 0.00546699 0.00543879 0.00635542 0.00579379 0.00619738 0.00649582 0.00678443 
0.00759856 0.00760376 0.00868795 0.0100782 0.00966112 0.0116561 0.0136263 0.0129046 0.0159349 
0.0186829 0.01749 0.0217558 0.0254122 0.0239775 0.0120295 0.0133746 0.00976904 0.0370463 
0.0393332 0.0407367 0.0421673 0.0342988 0.0433446 0.0443884 0.0368507 0.0455136 0.0468913 
0.039081 0.0483333 0.0505538 0.0417402 0.0494586 -0.238889 -0.16201 0.049188 0.0502347 
0.0429665 0.0482373 -0.236061 -0.157434 0.0470687 0.0461474 0.0414797 0.0456999 0.0452917 
0.0397829 0.0448576 0.0440979 0.0389529 0.0433781 0.042713 0.0379097 0.0416015 0.0129183 
0.0108831 0.0117281 0.00964846 0.0198196 0.0166474 -0.22725 -0.151536 -0.00152238 -0.00167345 
-0.00126124 -0.00235859 -0.00250172 -0.00229847 -0.00197261 0.0135659 0.0125712 0.0121129 0.0117583 
0.00976471 0.0118644 0.0167253 0.00866172 0.0104224 -0.00181104 -0.00192982 -0.00148848 0.0117672 
0.0118616 0.0104966 0.0112054 0.0075072 0.00902718 0.00842881 -0.0013671 -0.00171392 -0.00109366 
-0.000887471 -0.000895745 -0.00130575 0.0111801 0.0104842 0.00958639 0.0125836 0.0123903 0.0101894 
0.0103349 0.008849 0.00983494 0.00755918 0.00931695 0.00972407 0.0111497 0.0123754 0.0134571 
0.0067198 0.00715831 0.00770915 0.0155569 0.0153057 0.0350157 0.0306854 0.0362708 0.0156551 
0.0159526 0.0142201 0.0125279 0.0110575 0.0321877 0.00846648 0.00877112 0.0101371 -0.146564 
-0.199318 -0.00197099 -0.00183622 -0.121538 -0.224957 -0.00180221 -0.00178987 -0.00130815 -0.00180104 
-0.00183593 -0.00128964 -0.00193395 -0.00190758 -0.00144598 -0.0017833 -0.00172138 -0.00145023 -0.00165012 
-0.00157415 -0.00129672 -0.00151005 -0.00144019 -0.00121519 0.0312979 0.00859931 0.00975012 0.00968761 
0.00738951 0.0196255 0.0170249 0.0146271 0.0128059 0.0175735 0.0117419 0.0104401 0.0136132 
0.00930258 0.00843798 0.0111081 0.0077539 0.00738467 0.00907659 0.00712725 0.00726861 0.0079814 
0.00784058 0.0276154 0.0289835 -0.00130091 0.00633086 0.00523915 0.0091338 0.00887609 0.00948876 
0.00407624 0.00313289 0.00498504 -0.146929 -0.158245 -0.107766 -0.145361 0.00221373 0.00151695 
0.00284663 0.000867681 0.000377677 0.00122559 0.0140453 0.0150152 0.0138171 0.012511 -2.35293e-05 
0.000348184 0.000790342 0.00125649 0.000577715 0.00329875 0.00411513 0.00507597 0.00485993 0.00600296 
0.00511047 0.00629229 0.00737579 0.0319993 0.0268519 0.0228876 0.0121728 0.0118772 0.00954228 
0.00980877 0.0102192 0.00956189 0.0133027 0.0147721 0.00706969 0.00740926 0.00843229 0.0092744 
0.00881992 0.0102767 0.0118873 0.0109032 0.0140334 0.0163465 0.014824 0.0189924 0.0223114 
0.0260663 0.00718813 0.00781467 0.0298392 0.0308751 0.0246047 0.0313712 0.0325874 0.0259259 
0.033914 0.0354287 0.0280061 0.0343534 0.0332451 0.0131907 0.0117332 0.00878602 0.00776221 
0.00759692 0.00565223 0.00818904 -0.00139844 -0.00147784 -0.00108864 -0.00213707 -0.0021544 -0.00157638 
0.012628 0.0117554 0.0117763 0.0108154 0.011507 0.0121007 -0.00137588 0.00869023 0.00759405 
-0.00120167 -0.00157325 0.00597238 0.00801827 0.00789356 -0.000640315 -0.000383501 0.0076047 0.0100519 
0.0276396 0.0338173 -0.000136478 -0.000502054 3.34421e-05 -0.000837913 -0.000834729 0.00801948 0.00754706 
-0.000272288 0.00858228 0.001848 0.00248016 0.00311464 0.0236988 -0.00114699 0.00845815 0.00883714 
0.00950975 0.0201292 0.0073474 0.00580639 0.00927488 0.00836619 -0.00169373 0.0335477 0.0332698 
0.032965 0.0278629 0.0328438 0.0326368 0.0276874 0.0324565 0.00794372 0.0131931 0.0127948 
0.0120596 0.00764008 0.00792899 0.00744233 0.00984945 0.0101976 0.0108293 0.0275594 0.00716266 
0.00161807 -0.000910591 0.0271682 0.00103195 0.00159785 -0.000852389 -0.000922448 0.00907417 0.00759611 
0.01031 0.00626209 0.00490528 0.00141455 0.000755075 0.0237864 0.00716843 0.000503149 -0.00195353 
0.0105505 0.00377195 0.00367824 0.0209077 0.0168426 0.0203718 -0.000367691 -0.000795367 0.000153722 
-0.00151653 -0.000639276 -0.000589028 -0.00059075 -0.000629026 0.000201421 -0.000845719 -0.00099043 -0.000105207 
-0.000914187 -0.000896113 0.0071111 0.00713453 0.00582905 0.019415 0.0170277 0.022911 0.00581756 
0.00736845 0.00715042 0.015419 0.0131702 0.0116427 0.0159362 0.0102131 0.00938788 0.0119933 
0.00855844 0.000244353 0.0144082 0.0137596 -0.00128669 -0.00105357 0.0234581 0.0219469 0.0175908 
0.0128466 -0.00105846 0.00348853 0.00245235 0.00190723 0.01133 0.012023 0.0111142 -0.000557001 
-0.000174874 -0.000646578 0.000206319 -0.000328871 0.0103826 0.00958764 0.0214568 0.0223506 0.00243586 
0.00401165 0.0101489 0.0145849 0.00452101 0.0043902 0.0027917 0.0124147 0.00274643 0.0036649 
0.0168516 0.0205117 0.020807 0.00207147 0.0227078 0.022854 0.0228029 0.0185741 0.0133672 
0.00728898 0.0216421 0.0189678 -0.000929968 -0.000895523 -0.00041634 0.0125862 0.00457038 0.00110256 
0.000792278 0.0169113 0.00436607 0.0117535 0.0113236 0.011858 0.0150149 0.0154628 0.00151558 
-0.186366 0.0119267 0.00133322 0.00127708 0.015968 0.0132686 0.00409475 -0.156853 0.0053466 
0.000181515 0.00385252 0.00245837 0.00357939 9.19758e-06 -0.000513284 0.012378 0.0124254 0.00113294 
0.000530317 0.00149139 0.00108833 0.0118895 -0.130236 -0.113917 0.000276063 0.0130476 0.0140302 
0.0151555 0.00268708 0.013592 0.00359009 -0.176224 -0.126104 1.78887e-05 -0.000110994 -4.37778e-05 
-0.000464599 -0.000261377 -0.000266711 -0.00101334 -0.000706497 -0.000669114 -0.00173223 -0.00132328 -0.00121707 
-0.00256073 -0.00210708 -0.00190823 -0.00346046 -0.00294623 -0.00267743 -0.00435046 -0.00385987 -0.00346354 
-0.00516787 -0.0047099 -0.00423914 -0.00601078 -0.00554459 -0.00498557 -0.00666926 -0.00631685 -0.00568164 
-0.00714124 -0.00690196 -0.00620903 -0.0074551 -0.00730827 -0.00662396 -0.00758238 -0.0075352 -0.00687386 
-0.00750528 -0.00756643 -0.0069356 -0.00725662 -0.00741575 -0.00682998 -0.00684553 -0.00709498 -0.00657098 
-0.00626196 -0.00660425 -0.00617131 -0.00556958 -0.00597082 -0.00562838 -0.00473957 -0.00521227 -0.00497666 
-0.00388437 -0.00435909 -0.00424758 -0.00299185 -0.00349764 -0.00348384 -0.00214687 -0.00260524 -0.00270756 
-0.0013846 -0.00181118 -0.00197397 -0.000750384 -0.00106843 -0.0013026 -0.000284898 -0.000501646 -0.000729372 
-4.75792e-05 -0.000119207 -0.00031699 -1.47143e-05 2.47492e-05 -8.09093e-05 -1.38848e-05 -0.012963 0.0106946 
0.021382 0.00401759 0.00603648 0.00789846 0.00231248 0.00278223 0.0026193 0.0013289 0.00147176 
0.00174247 0.000783011 0.000842597 0.000958812 0.000469183 0.000486479 0.000467397 0.000320523 0.000294667 
0.000281713 0.000214409 0.000181469 0.000162805 0.000178189 0.000123211 8.09811e-05 0.000121305 8.76773e-05 
6.15171e-05 0.000109464 5.76641e-05 3.74105e-05 0.000134035 6.60838e-05 8.05749e-05 0.000168832 9.88179e-05 
0.000117843 0.000227981 0.000143551 0.000172194 0.000302982 0.000204999 0.000261608 0.000381534 0.000269205 
0.000364867 0.000425874 0.000319605 0.000440237 0.000365252 0.00029718 0.000479695 0.000190844 0.000178286 
0.000310426 -0.000163895 -0.000100187 4.96165e-05 -0.00056704 -0.00048002 -0.000447755 -0.000865885 -0.000795309 
-0.000962958 -0.000832608 -0.000867662 -0.0010967 -0.000590747 -0.000666583 -0.000930966 -0.000203358 -0.000294536 
-0.000513704 0.000113886 6.90662e-05 -8.54246e-05 0.000284873 0.000310071 0.000262941 0.000322228 0.000394551 
0.00048024 0.00029739 0.000353664 0.000467105 0.0002375 0.000279942 0.000396676 0.000167063 0.00019776 
0.00027453 0.000116441 0.000132493 0.00017296 8.27064e-05 8.56575e-05 0.000117284 5.13927e-05 5.014e-05 
8.46851e-05 2.98554e-05 2.15672e-05 3.91351e-05 9.12438e-06 1.14645e-06 1.34737e-05 -4.05966e-06 -1.26297e-05 
-9.5158e-06 -1.21585e-05 -2.40735e-05 -1.59459e-05 -2.21341e-05 -3.13787e-05 -1.98492e-05 -3.1821e-05 -3.81966e-05 
-2.78884e-05 -4.28983e-05 -4.6614e-05 -3.86694e-05 -4.82812e-05 -5.3297e-05 -5.21738e-05 -4.91884e-05 -5.45315e-05 
-6.22917e-05 0.0977236 -3.83709e-05 -4.51234e-05 -4.29599e-05 -3.08206e-05 -4.02095e-05 -6.02051e-05 -3.27897e-05 
-3.54976e-05 -3.9661e-05 -3.15694e-05 -3.03599e-05 -3.42859e-05 -2.79411e-05 -2.49676e-05 -2.89165e-05 -2.52877e-05 
-1.68087e-05 -2.35172e-05 -2.31315e-05 -1.20881e-05 -1.82088e-05 -1.5352e-05 -5.05068e-06 -1.21707e-05 -6.77077e-06 
5.89726e-06 -6.85299e-06 8.33341e-06 1.86482e-05 1.35876e-05 3.34392e-05 4.77589e-05 2.84628e-05 5.50639e-05 
5.73999e-05 5.7303e-05 0.000101553 0.000121412 7.4129e-05 0.000153321 0.000169398 0.000127058 0.000182096 
0.000208884 0.000171759 0.000245082 0.000210391 0.000273029 0.000294169 0.000301727 0.000290975 0.000246943 
0.000272643 0.000318619 0.000117698 0.000177593 0.000218362 -0.000126991 -6.14428e-05 -2.21799e-05 -0.000447375 
-0.000388363 -0.000451572 -0.000719313 -0.000803156 -0.000828833 -0.000764996 -0.000861467 -0.000918702 -0.000310919 
-0.000579221 -0.000851486 -0.000137333 -0.000223373 -0.000586496 7.7271e-05 0.000102673 8.47999e-05 0.000145721 
0.0002444 0.000301739 0.000149143 0.000312768 0.000291078 0.000145521 0.000260389 0.000294476 0.000126858 
0.000235106 0.000235138 8.03967e-05 0.000162525 0.000189735 5.15481e-05 0.000109111 0.00012942 4.12659e-05 
0.000102822 6.93046e-05 3.73876e-05 8.48754e-05 4.8253e-05 3.78351e-05 8.64761e-05 3.28285e-05 6.30399e-05 
0.000106038 7.76879e-05 0.000115244 0.0001835 9.8231e-05 0.000143623 0.000266834 8.4604e-05 0.000365976 
0.000284881 0.000253711 0.000475015 0.000576816 0.000437862 0.0008518 0.000820236 0.000615145 0.00173728 
0.00143937 0.00121368 0.00313331 0.00285683 0.00302585 0.0220568 0.012939 0.0101809 0.0698268 
0.101384 0.108602 0.106201 0.11694 0.0797245 0.106139 0.113148 0.0894701 0.0969374 
0.111284 0.0967109 0.113779 0.121773 0.106834 0.117354 0.119367 0.107333 0.11519 
0.118194 0.105727 0.115509 0.116002 0.108145 0.114509 0.115197 0.107299 0.111796 
0.113627 0.107181 0.113633 0.113086 0.109775 0.114562 0.115297 0.108682 0.113502 
0.114198 0.109807 0.11443 0.115025 0.109959 0.114458 0.114825 0.110007 0.115164 
0.115983 0.108992 0.114198 0.115141 0.108369 0.11464 0.113816 0.109096 0.113129 
0.113456 0.1071 0.115011 0.113862 0.108424 0.115211 0.113683 0.106875 0.115571 
0.114011 0.105659 0.117543 0.114898 0.104445 0.117553 0.115567 0.100377 0.123033 
0.116341 0.100141 0.128308 0.125085 0.096929 0.0621476 0.0241744 0.031382 0.0610323 
0.051405 0.0193742 0.0583303 0.0563236 0.0462882 0.0550483 0.0548084 0.0527642 0.0534604 
0.053218 0.0524197 0.053947 0.055682 0.0516678 0.054852 0.0571385 0.050604 0.0533923 
0.0524736 0.0499934 0.0513979 0.0536804 0.0495167 0.0520693 0.0559372 0.0495739 0.0536459 
0.0579286 0.0494797 0.0534846 0.0579855 0.0479036 0.0316204 0.042276 0.0437307 0.0377547 
0.0102798 0.0184675 -0.133751 -0.12429 0.0235765 0.0213441 0.0490199 0.0492351 0.0112489 
0.0583245 0.0575126 0.0304332 0.0514122 0.0567912 0.0367095 0.0601247 0.0551328 0.0493624 
0.0574191 0.0561383 0.0538769 0.0563617 0.0538161 0.0521757 0.0519865 0.0541691 0.0502568 
0.0522535 0.0550132 0.0499435 0.0542857 0.0569207 0.0494518 0.0547613 0.0592757 0.0500582 
0.0545627 0.0587147 0.0479966 0.0484182 0.0522887 0.0424547 0.0255899 0.026448 0.0220965 
-0.12307 -0.113106 -5.23375e-05 -0.0645306 -0.0345655 0.00333102 -3.62594e-05 -3.50444e-05 -5.28701e-05 
0.0631763 0.0479055 -0.00942095 -0.00588525 -0.00152142 -0.0247947 -0.0510941 -0.0524168 0.00166207 
-0.02276 -0.052086 -0.000127975 -0.000848012 -0.000611496 -0.000426197 -0.0002485 -0.000192173 -0.000507405 
-0.00207034 -0.00170472 -0.0027587 -0.00238307 -0.00212725 -0.00345622 -0.0030555 -0.00274625 -0.0041235 
-0.00375603 -0.00336691 -0.00475498 -0.00439152 -0.00396626 -0.00531344 -0.00501772 -0.00450995 -0.0057289 
-0.00550926 -0.00496693 -0.00602143 -0.00585316 -0.00528974 -0.0061941 -0.00611762 -0.00550988 -0.00623695 
-0.00624957 -0.00566564 -0.0061074 -0.00619507 -0.00568102 -0.00584805 -0.00600595 -0.00553598 -0.00546743 
-0.00569983 -0.00528397 -0.00497101 -0.00525612 -0.00492196 -0.00438155 -0.00472529 -0.00446355 -0.00374416 
-0.00410779 -0.00393661 -0.00308121 -0.00344995 -0.00335847 -0.00239346 -0.00277256 -0.00275472 -0.0017753 
-0.00211951 -0.00216348 -0.00118643 -0.00149812 -0.00158951 -0.000687069 -0.000939822 -0.00105252 -0.00031645 
-0.000491646 -0.00059921 0.00845631 0.0114873 -0.000170404 -0.000185239 0.00713517 0.0190829 0.014452 
0.0219959 0.0201076 0.0244721 0.0396432 0.0767287 0.0373429 0.0048088 0.00649262 0.0106509 
0.00291886 0.00374905 0.00607523 0.00195398 0.00235979 0.00366757 0.00137375 0.00157411 0.00239087 
0.00103276 0.00111188 0.00172045 0.000711273 0.000782967 0.00119665 0.000577528 0.000574095 0.000881959 
0.000559396 0.000464068 0.000698136 0.000645559 0.000520071 0.000754596 0.000857159 0.000685232 0.000984821 
0.00114619 0.000926532 0.00132934 0.00148614 0.0012493 0.00180205 0.00175041 0.00154645 0.00227969 
0.00173453 0.00164616 0.00249227 0.00119823 0.00138235 0.0021586 -7.55489e-05 0.000503849 0.00115702 
-0.0022184 -0.00112037 -0.000958657 -0.00394467 -0.00316059 -0.00389166 -0.00434823 -0.00436903 -0.0057235 
-0.00351412 -0.00412994 -0.00618833 -0.00172099 -0.0026873 -0.00464995 7.43151e-05 -0.000674655 -0.00175838 
0.00122272 0.000861945 0.000495117 0.00165287 0.00167016 0.00210557 0.00151996 0.00170448 0.00252847 
0.00120761 0.00145966 0.0022224 0.000884599 0.00110119 0.00167765 0.000648772 0.000794888 0.00123022 
0.000462392 0.000559417 0.000919541 0.000273975 0.000357268 0.000611597 0.000150137 0.000203238 0.000372112 
5.43265e-05 8.233e-05 0.000181779 -1.36732e-05 -3.72036e-06 4.08419e-05 -6.7715e-05 -7.15004e-05 -6.39003e-05 
-0.000123335 -0.000122121 -0.000144722 -0.000157621 -0.00015834 -0.000208107 -0.000200227 -0.000194345 -0.000261789 
-0.000234059 -0.000231102 -0.000325437 -0.000242006 -0.000247894 -0.000371425 0.0130744 -0.000549615 0.0101747 
0.00580886 -0.000234268 -0.000176527 -0.000173788 -0.000250298 -0.000164379 -0.000162668 -0.000246408 -0.00014538 
-0.000136367 -0.000221482 -0.000122541 -0.000115492 -0.000189666 -9.94748e-05 -8.33718e-05 -0.000154902 -6.31999e-05 
-5.01171e-05 -0.000110882 -9.664e-06 -8.18998e-06 -4.42027e-05 6.60214e-05 4.60054e-05 4.59729e-05 0.000170178 
0.000125191 0.000158186 0.000298721 0.000237299 0.000312097 0.000476779 0.000371399 0.000509921 0.000699572 
0.000555426 0.000770294 0.000910851 0.000798801 0.00106056 0.00116213 0.000987452 0.00137299 0.00129782 
0.00119363 0.0016423 0.0012062 0.00122052 0.00169867 0.000687377 0.000952813 0.00137189 -0.000316494 
0.000235983 0.000473151 -0.00195011 -0.00108532 -0.00120999 -0.00345938 -0.00281128 -0.00356085 -0.00361555 
-0.00374641 -0.00489948 -0.00244029 -0.00328504 -0.00480172 -0.000882054 -0.00186769 -0.00317869 0.000329956 
-8.10913e-05 -0.000839741 0.00091732 0.000856768 0.000873221 0.00113276 0.00130687 0.00159022 0.00103731 
0.00131405 0.00177897 0.000817736 0.00108356 0.00156075 0.000596713 0.000808041 0.00118776 0.000445709 
0.000590658 0.000883788 0.000361117 0.000466213 0.000621873 0.000336755 0.000416835 0.0005248 0.000394801 
0.000419916 0.000547094 0.000588177 0.000517025 0.000702744 0.000886513 0.000806289 0.000974134 0.0014028 
0.00122693 0.00142517 0.00204887 0.00191038 0.00203433 0.00285019 0.00242718 0.00298456 0.00435416 
0.0035016 0.0045565 0.00758316 0.00550087 0.00730323 0.0159137 0.0105622 0.0136068 0.0435062 
0.0217999 0.0297728 0.0673479 0.00698434 0.0101027 0.0868079 0.0859785 0.0764146 0.0760783 
0.0704686 0.0666057 0.0927859 0.0915375 0.0814617 0.0982453 0.0952923 0.0872353 0.0989626 
0.0979064 0.0899729 0.0997558 0.0994949 0.0930326 0.100201 0.0998728 0.0944338 0.100789 
0.100142 0.0953104 0.101147 0.10108 0.0958128 0.101946 0.10065 0.096413 0.102568 
0.101785 0.0971972 0.10255 0.102104 0.0978011 0.102467 0.102463 0.0979709 0.101953 
0.102111 0.0976979 0.101095 0.101937 0.0970615 0.100473 0.100698 0.0958764 0.100159 
0.099653 0.0950293 0.0993343 0.0993375 0.0943402 0.0982629 0.0982337 0.093215 0.0960179 
0.0961335 0.0909377 0.0914712 0.0931379 0.0865061 0.0858255 0.0877295 0.079215 0.0821112 
0.0813763 0.0712334 -0.0539778 -0.0130415 0.00970482 0.0214071 0.0130832 -0.0212516 -0.0578047 
0.0286329 0.0339691 0.0222076 0.0400011 0.040201 0.0330289 0.0439465 0.0441966 0.0388942 
0.0453798 0.0459298 0.0411537 0.0461692 0.0458906 0.0428722 0.0457907 0.0456143 0.0434521 
0.0455277 0.0447676 0.0430986 0.0440714 0.0445458 0.0420536 0.0428037 0.0421652 0.0405304 
0.0400022 0.0367364 0.0376802 0.03476 0.0290056 0.0312852 0.0238117 0.00847211 0.0135857 
0.020751 0.00920324 0.0126715 -0.0249646 -0.0498217 0.0237167 0.0275501 0.0218187 0.0344148 
0.0390791 0.0306805 0.0435498 0.0437429 0.0362458 0.0441793 0.0461174 0.0412817 0.0453647 
0.047177 0.0427406 0.0447529 0.0459061 0.0424652 0.0454534 0.0457621 0.0421541 0.0440461 
0.0448297 0.0414529 0.0433408 0.0431739 0.0398788 0.0393689 0.0393857 0.0370188 0.0340806 
0.0279621 0.0311935 0.0223432 0.00901187 0.021468 -0.0777752 -0.0432737 -0.00140355 -0.00110431 
-0.000950259 -0.0015051 -0.000151952 -0.000354841 -0.000236406 0.0135752 0.00505255 0.00955009 0.0115722 
-0.000361006 -0.00261005 0.00849355 -0.0384813 -0.0075759 -0.0150338 -0.00363461 -0.0343198 0.0569703 
0.0104189 0.00324098 -0.014737 0.0758274 0.0612176 -0.0524299 -0.0286709 -0.0270497 0.0110364 
0.00349727 -0.00355327 -0.0169353 0.00316753 -0.00326857 -0.00295363 -0.0021526 -0.00184649 -0.00378422 
-0.00351329 -0.00313283 -0.00425023 -0.00400645 -0.00360569 -0.00459164 -0.00440648 -0.00398519 -0.00483069 
-0.00471763 -0.00425291 -0.00501235 -0.00491967 -0.0044599 -0.00511446 -0.00505781 -0.00459722 -0.00507981 
-0.00512289 -0.00465202 -0.00493599 -0.00503228 -0.00461205 -0.00469421 -0.00483595 -0.00446473 -0.00435497 
-0.00455291 -0.00422542 -0.00395197 -0.00418402 -0.0039181 -0.00347365 -0.0037315 -0.00353569 -0.00295207 
-0.0032326 -0.00308818 -0.00243176 -0.0027177 -0.00262869 -0.00190148 -0.00217348 -0.00215122 -0.00137418 
-0.00165494 -0.00165247 -0.000897214 -0.00114413 -0.00117223 -0.000492825 -0.000701774 -0.000742623 -0.000403146 
0.0128728 0.0106461 -0.0100824 0.00100719 0.00957575 0.0125527 0.0146093 0.0145841 0.0132912 
0.016115 0.0211681 0.0191237 0.0446268 0.0133023 0.011629 0.00458586 0.00547425 0.00329982 
0.00391625 0.00570757 0.00241168 0.00285155 0.00410858 0.00175248 0.00203604 0.00297915 0.00137131 
0.00143424 0.0021387 0.00154399 0.00143417 0.00187481 0.00184589 0.00163047 0.0021478 0.00236068 
0.00202614 0.00261639 0.0030213 0.00258302 0.00331085 0.00372612 0.00329134 0.00419105 0.00414736 
0.00393895 0.00509931 0.00359237 0.00395222 0.00533008 0.00152324 0.00253129 0.00398209 -0.00207878 
3.79966e-05 0.00094465 -0.0117404 -0.010406 -0.00701667 -0.00970502 0.00219022 0.000492359 0.00380962 
0.00332303 0.0034742 0.00380004 0.00404087 0.00520492 0.00309035 0.0035143 0.00490187 0.00237489 
0.00282158 0.00391045 0.0018217 0.00215962 0.00306385 0.00130746 0.00158348 0.00229642 0.000859827 
0.00108737 0.001618 0.000498254 0.000661417 0.00103097 0.000223222 0.000346527 0.000570917 1.7481e-05 
9.94266e-05 0.000225861 -0.000139233 -8.16594e-05 -3.84899e-05 -0.000264294 -0.00022083 -0.000238491 -0.000363399 
-0.000335438 -0.000395722 -0.000455179 -0.000423581 -0.000525938 -0.000546143 -0.000508977 -0.00065256 -0.000618788 
-0.000606424 -0.00077934 -0.0306325 -0.0377338 0.00877212 0.0109906 0.0128965 -0.000377394 -0.00038902 
-0.00056478 -0.00032857 -0.000336016 -0.000487109 -0.000259768 -0.000270979 -0.000406879 -0.000173066 -0.000187826 
-0.000304565 -5.11402e-05 -9.71666e-05 -0.000165658 0.000114582 3.76915e-05 1.01481e-05 0.000336558 0.000228496 
0.000253215 0.000609051 0.000460857 0.000561729 0.000974603 0.000764704 0.000946964 0.00144062 0.00116336 
0.00145582 0.00195945 0.00162817 0.00206782 0.00257559 0.00217513 0.00277291 0.00304299 0.0027381 
0.00353136 0.00309864 0.00305805 0.00401195 0.00224256 0.00266391 0.00370501 0.000346435 0.00144435 
0.00222122 -0.00261143 -0.00081077 -0.000486346 -0.00745838 -0.00522562 -0.00526416 -0.00952053 -0.00902971 
-0.0106107 -0.00757314 -0.00869704 -0.0123003 -0.00415602 -0.00653981 -0.00941635 0.00017877 -0.00133533 
-0.00414323 0.00199198 0.0015055 0.00149888 0.00296672 0.00276243 0.00317903 0.00283818 0.00311809 
0.00393004 0.00232573 0.00274389 0.00364988 0.00179769 0.00220012 0.00301688 0.00139336 0.0016996 
0.00235435 0.00113566 0.00132828 0.00181117 0.00106221 0.00113429 0.00150154 0.00121844 0.00113662 
0.00149948 0.00168415 0.00146397 0.00181282 0.00239696 0.00206077 0.00247269 0.00351461 0.00297424 
0.00359023 0.00526801 0.00427379 0.00520599 0.00760588 0.00645706 0.00776488 0.0105154 0.0088096 
0.0109514 0.0142329 0.0112505 0.0143512 0.0261076 0.0182771 0.0224176 0.0386124 0.0102687 
0.012064 0.0697378 0.0667479 0.0762857 0.0736196 0.0618293 0.0122862 0.0100418 -0.00359203 
-0.0166331 0.0135003 0.0141627 0.0130653 -0.00271574 -0.00241786 -0.00212432 -0.0026277 0.0809895 
0.0789715 0.0686085 0.0841945 0.083085 0.073462 0.0860996 0.0858423 0.0769482 0.0873883 
0.0871805 0.0792265 0.0880805 0.0880632 0.0805216 0.0892124 0.0886003 0.0814683 0.0899715 
0.0893099 0.0823099 0.0907158 0.090157 0.083157 0.0907313 0.090666 0.0837729 0.0902843 
0.0903367 0.0837112 0.0891206 0.0897973 0.0829588 0.0876524 0.0883918 0.0815848 0.0867683 
0.0867752 0.0799907 0.0853459 0.0855884 0.0783464 0.0834149 0.083987 0.0763636 0.080488 
0.0817914 0.0739418 0.0728816 0.0768337 0.0693646 0.0617352 0.0662256 0.0587569 0.0527285 
0.0571003 0.0470765 0.0366832 0.00633641 0.00785758 0.0118385 0.0234588 0.0275227 0.0298932 
0.0326178 0.0243787 0.0339331 0.0356366 0.0285485 0.036528 0.0375514 0.031292 0.0380126 
0.0383129 0.0331127 0.0379253 0.0374058 0.0336583 0.0365347 0.036045 0.0325726 0.0347155 
0.0337201 0.0308376 0.0321763 0.029533 0.0283014 0.0272953 0.0224709 0.024042 -0.000417283 
-0.000415462 -0.000539505 0.0208447 0.0254034 0.0281831 0.0307127 0.0227671 0.0331383 0.0347755 
0.0271974 0.0358579 0.036764 0.0306659 0.0367971 0.0371817 0.0324704 0.0368014 0.0361488 
0.0324022 0.0359247 0.034977 0.0314568 0.0341674 0.0328699 0.0299041 0.0312568 0.0291162 
0.0274999 0.026903 0.0220976 0.0233985 0.0206937 0.0143729 0.014251 0.0183632 0.0269503 
0.0158023 0.020972 0.0188336 0.0135335 0.0197092 0.017986 0.0141894 -0.000800324 0.042821 
-0.00042256 -0.00162541 -0.00161574 -0.00132255 0.0326496 -0.0175434 -0.00645104 0.00332249 0.0081711 
0.00982641 0.00777177 0.00792562 -0.0116816 -0.00806276 -0.00521931 -0.00521756 -0.0104524 -0.0111887 
-0.0014916 -0.00354799 -0.0157542 -0.0225271 -0.0245781 -0.00738873 -0.000555552 0.0100639 0.00659906 
0.0102338 0.0139241 0.0132156 0.0145076 0.0144265 -0.0154114 -0.00610841 0.00161546 -0.0224665 
0.00203072 -0.00104177 -0.000942838 -0.0163386 -0.00781151 0.0182487 0.0206344 0.0151895 0.00738105 
0.0102689 0.00569252 0.0629998 0.0542182 -0.000211927 0.0392819 0.0543219 -0.00297407 -0.00273178 
-0.00385061 -0.00374406 -0.00401524 -0.00394147 -0.0035107 -0.00412869 -0.00409165 -0.00365762 -0.0041684 
-0.00416212 -0.00375406 -0.0041122 -0.00415787 -0.00377485 -0.00395618 -0.00404683 -0.00370039 -0.00372341 
-0.00385086 -0.00353494 -0.00344782 -0.00359772 -0.00331613 -0.00309236 -0.00328432 -0.00304419 -0.00269344 
-0.00290331 -0.00271603 -0.00228619 -0.00249245 -0.00235565 -0.00185171 -0.00207837 -0.00197648 -0.00139251 
-0.00162377 -0.00156912 -0.000948418 -0.00117412 -0.00114468 -0.000761705 0.00302521 -0.00175979 -0.00111495 
0.0143128 0.0177435 0.0130592 0.0126912 0.0105304 0.0124819 0.0166252 0.0218085 0.0279013 
0.0245009 -0.0328237 -0.0197987 0.00606241 0.00713499 0.00781884 0.00924546 0.0123145 0.00951056 
0.00298436 0.00343464 0.0029976 -0.196254 -0.140965 0.00313793 0.00300073 0.00387888 0.00364439 
0.00333152 0.00402564 0.00445031 0.00397603 0.00466602 0.00547039 0.00485219 0.00564943 0.0067668 
0.00614264 0.00708131 0.00763702 0.007611 0.00899189 -0.0133641 0.040038 0.0300691 0.0239922 
-0.0106734 -0.0159168 0.00659044 0.00466762 0.00447486 0.00508868 0.00364025 0.00421919 0.00531006 
0.00268579 0.00316775 0.00426459 0.00184532 0.00224366 0.00307306 0.00112382 0.00145327 0.00203145 
0.000592789 0.000828414 0.00120846 0.000180476 0.000361372 0.0005894 -0.000135166 -3.51875e-06 0.000109684 
-0.00037905 -0.000281675 -0.000262944 -0.000575079 -0.000497549 -0.000549421 -0.000748458 -0.000681359 -0.000784532 
-0.000912454 -0.000837985 -0.00099936 -0.00106216 -0.000981564 -0.00132512 -0.023208 0.0434415 0.00683217 
0.00684752 0.00881966 -0.00329471 0.0127448 0.0120786 -0.000538184 -0.00058784 -0.000392017 -0.000440089 
-0.000625203 -0.000199231 -0.000281127 -0.000417532 6.3773e-05 -6.16813e-05 -0.000156457 0.000407993 0.000233963 
0.000197887 0.000829376 0.00061894 0.000639532 0.00139315 0.00109212 0.00121251 0.00210888 0.00171748 
0.00195679 0.00294844 0.00249552 0.00288203 0.00390608 0.00333279 0.00394582 0.00493981 0.00438245 
0.00513196 0.00574275 0.00542086 0.00649837 0.00494973 0.00548116 0.00682665 -0.019096 -0.0150553 
-0.0183427 0.000214474 -0.0032954 0.00492056 0.00382514 0.00521237 0.00529484 0.00633646 0.00454255 
0.00505107 0.0062231 0.00372278 0.00427333 0.00537993 0.00296849 0.00343322 0.00447019 0.00243512 
0.00272916 0.00359216 0.00226765 0.00237319 0.00304163 0.00247085 0.00237884 0.00297024 0.00318381 
0.00275069 0.00337642 0.00445004 0.0037715 0.0044422 0.00626207 0.00526295 0.00626014 0.00907327 
0.00747849 0.00892696 0.0135523 0.0110651 0.0130735 0.0188033 0.0158929 0.0187355 0.0217775 
0.0112543 0.0086017 0.0106423 0.0130606 0.0102195 0.0522542 0.048314 0.0605843 0.0573874 
0.0462683 0.017439 0.0200828 0.0714896 0.0707799 0.0727977 0.0723446 0.0645965 0.07406 
0.0736204 0.0661417 0.0750372 0.0746261 0.0674635 0.0758522 0.0753738 0.0683403 0.0763662 
0.0761436 0.0689782 0.0764854 0.076657 0.0696188 0.0755242 0.0760515 0.0696055 0.0734722 
0.0743911 0.0680259 0.0713999 0.072212 0.0657456 0.0690529 0.0699459 0.0630395 0.066748 
0.0678735 0.0605261 0.0641777 0.0654316 0.0581769 0.0595347 0.063226 0.0561283 0.0370218 
-0.010845 0.015241 0.017917 0.0190673 0.0216136 0.0160362 -0.00365227 -0.00352059 -0.00334991 
0.013531 0.0142848 0.0134204 0.0226225 0.0245057 0.0189422 0.025344 0.0266481 0.0211205 
0.0273734 0.0282626 0.0229086 0.029356 0.0289229 0.024688 0.0281097 0.0271898 0.0246979 
0.0264901 0.0252383 0.0229864 0.0245236 0.0229084 0.0213765 0.0215769 0.0187786 0.019013 
-0.000733641 -0.000746912 -0.00339018 -0.00318545 -0.0028157 -0.00314698 0.0693222 0.067833 0.0624995 
0.0212982 0.0236724 0.0178411 0.0249372 0.026509 0.0206684 0.0279547 0.0284414 0.0235346 
0.0277654 0.0272513 0.024417 0.0268151 0.0261349 0.0233982 0.025567 0.0245471 0.0223351 
0.0236952 0.0220596 0.020774 0.0211218 0.0185015 0.0187746 0.004326 0.00510317 0.00718055 
0.00496488 -0.000655747 -0.000687592 -0.000900033 0.00569055 0.00635934 0.00667173 0.00219102 -0.00385105 
0.000777061 0.0659764 0.0638191 0.0545713 0.0127906 0.0396984 -0.00155009 0.0135057 0.0125133 
0.0143687 0.0045686 0.0126152 0.01125 -0.0153594 0.0126609 -0.00179623 -0.00148953 -0.00204054 
0.0112735 0.0113115 0.036367 0.00625928 -0.0218861 0.0123091 -0.00509449 -0.00117751 0.00816818 
0.0143542 0.0107084 -0.0007925 0.00841866 0.00702201 0.00310242 0.00377532 0.00237338 0.00376299 
-0.00207211 0.000541607 0.0594154 0.00856999 0.0259986 0.0159363 0.0175607 0.0147382 -0.00237894 
-0.00250099 -0.00226837 0.0168441 0.0149652 0.0141813 0.0476598 0.0551513 0.0500155 0.0373756 
0.0156014 0.0175376 0.0147656 0.007115 0.0129546 0.0138701 0.0129797 0.0119994 0.00114485 
0.0120078 0.0127562 -0.00311344 -0.00304428 -0.00336163 -0.00336987 -0.00327304 -0.00333464 -0.0030026 
-0.00309052 -0.00317961 -0.0028774 -0.00289094 -0.00299185 -0.00270088 -0.00264796 -0.00277677 -0.0025117 
-0.00234561 -0.00249459 -0.0022787 -0.00201316 -0.00217542 -0.00199646 -0.0016753 -0.00184578 -0.00169703 
-0.00128462 -0.00147717 -0.00137467 -0.0010997 0.0308723 0.0253145 0.0309943 0.0383547 0.0344952 
0.0266881 0.00501737 0.00488783 -0.217933 -0.148374 0.00564589 0.00526524 0.00596536 0.00667159 
0.00609133 0.00669106 0.00812174 0.00723593 0.0078194 0.0103831 0.00974715 -0.00332089 -0.00329731 
-0.00297519 -0.00324046 -0.00318171 -0.00287468 -0.00139835 0.00621211 0.00672494 0.00201986 0.00253993 
0.00115024 0.00153396 0.0020362 0.000491743 0.000781324 0.00110133 -3.36656e-05 0.000190215 0.00036992 
-0.000433166 -0.000261096 -0.000203951 -0.00074675 -0.000612708 -0.0006389 -0.00103221 -0.000910616 -0.000995771 
-0.0012904 -0.00117761 -0.00132292 -0.00160018 0.00852263 0.00917861 0.0112311 0.00694502 0.00743823 
-0.00015258 -0.000317777 -0.000488393 -0.000636036 -0.000503245 0.00848821 -0.000740857 -0.000840413 -0.000834047 
0.000289959 7.72862e-05 -7.82496e-05 0.00086958 0.000597207 0.000494242 0.0015828 0.0012168 0.00121975 
0.00253457 0.00204252 0.00213722 0.00366938 0.00307001 0.00330304 0.00489546 0.00422466 0.00461423 
0.00617628 0.00541414 0.00591121 0.00819801 0.00731453 0.00516737 0.0524135 0.0506507 0.00795823 
0.00789305 0.00980757 0.00902368 0.00504443 0.00559814 0.00421136 0.0046031 0.00566795 0.00372491 
0.00385894 0.00476928 0.00414674 0.00396791 0.00467005 0.00476194 0.00432517 0.00509728 0.00669124 
0.00568133 0.00651689 0.0091698 0.00777787 0.0089546 0.0128238 0.010764 0.0121134 0.0185554 
0.0152469 0.0170261 0.0224903 0.0604671 0.059892 0.0585532 0.0577387 0.0525921 0.0104467 
0.0397057 0.00611151 0.00672441 0.00781207 0.00680477 0.00314708 0.00377734 0.00326529 0.0571082 
0.0565088 0.0505075 0.061195 0.0608927 0.0543309 0.0612657 0.0609787 0.0543706 0.0619651 
0.061546 0.0543392 0.0630802 0.0634901 0.0561387 0.0603107 0.0615037 0.0561031 0.0574647 
0.0588298 0.0531672 0.0541714 0.0556794 0.049802 0.0515836 0.0526699 0.046575 0.0491873 
0.0503077 0.0438871 0.0472245 0.0478019 0.0414519 0.0132167 0.0147265 0.0116071 -0.00298089 
-0.00291393 -0.00265059 0.00457932 0.00532573 0.004851 0.0150649 0.0162959 0.0128347 0.00513501 
0.00486256 0.00505416 0.00716055 0.00634034 0.00576944 0.0166829 0.0176843 0.0138453 0.0181024 
0.019013 0.0148521 0.0197279 0.0209633 0.0161653 0.0199463 -0.226647 -0.157401 0.0193243 
0.0184707 0.0163774 0.0180232 0.017171 0.0153198 0.0169904 0.0154078 0.0144505 0.0141783 
0.0133619 0.0122026 0.0131547 -0.000949892 -0.0010251 0.0142069 0.0158025 0.0164962 0.0182196 
0.0140993 0.0192819 0.0210446 0.0163618 0.0203196 -0.234824 -0.159407 0.020123 0.0195481 
0.0177182 0.0190453 0.0182833 0.0169179 0.0178284 0.0170407 0.0157299 0.0167572 0.0155613 
0.0148549 0.0555154 0.0541326 0.0466758 0.0492822 0.0114829 0.0114607 0.0106722 0.0102528 
0.00681283 -0.0027606 -0.00193555 0.0118331 0.0103501 0.00926956 0.0194071 0.0228454 0.0279092 
0.0128362 0.0144598 0.0128766 0.0146777 0.0167753 0.021595 -0.232986 -0.16517 0.00758831 
0.0112092 0.00964145 0.013454 0.0489743 0.0457562 0.0359944 0.00778639 -0.00109304 0.0434691 
-0.00256353 -0.00286284 -0.00275901 0.0246953 0.0147885 0.0132797 0.0134499 0.0111865 -0.00222834 
-0.00200968 0.0123565 0.0137584 0.0123693 0.00899114 0.010624 0.0101812 0.01266 0.0143456 
0.0143119 0.0421123 0.0113903 0.0112214 -0.00267962 -0.00249014 -0.00211542 0.00758209 0.0089 
-0.285345 -0.152692 0.0116383 0.0099117 -0.00211293 -0.002191 -0.00188121 -0.00198996 -0.00169384 
-0.0016393 -0.00176579 -0.0015023 -0.00138957 -0.00151418 -0.0013108 -0.00124818 0.0108785 0.0113096 
0.00755204 0.00712589 0.0120917 0.0108676 0.0128335 -0.00167396 -0.00180215 0.00684521 0.00672795 
0.00771429 0.00957309 0.0360384 -0.00246095 -0.00241752 0.000915602 0.00131854 -0.00233134 -0.00228523 
-0.00192685 0.00186716 0.00240666 0.0016852 -0.000418982 -0.000165206 -0.000856879 -0.000656 -0.000672367 
-0.00125652 -0.00107279 -0.00113309 0.000645778 0.000310003 0.00306166 0.00378405 0.0029462 -3.11455e-05 
-0.000280156 9.05543e-05 0.00839689 0.00708728 0.00868692 -0.000937302 -0.00108888 0.00146743 0.00107052 
0.000875108 0.00259192 0.00203152 0.00191592 0.00394857 0.00326755 0.00325653 0.00547588 0.00470984 
0.00485046 0.00629813 0.0068183 0.00794206 0.0116306 0.0121958 0.0104051 0.000156587 0.000489883 
0.000701602 -0.00257253 -0.00252024 -0.00207048 0.00571021 0.0054909 0.0061349 0.00656766 0.00699877 
0.00655405 0.00720255 0.00797947 -0.227608 -0.148457 0.0115276 0.00987636 0.0101103 0.0159835 
0.0136176 0.0145925 0.0219217 0.0183713 0.0198377 0.0460315 0.0445775 0.0468838 0.0472514 
0.0363574 0.030539 0.025491 0.0375326 0.0484858 0.0480717 0.0412856 0.0420859 0.0425814 
0.0418438 0.0371583 0.0481977 0.0498111 0.0462767 0.0478924 0.0423725 0.0419418 0.0438867 
0.0395205 0.0385073 0.0399563 0.035311 0.0101302 0.010689 0.00874153 0.00805213 0.00854095 
0.00991087 -0.00215434 -0.00212901 -0.00173785 -0.00228984 -0.00236308 -0.00187966 0.00465988 0.00562169 
0.00457615 0.010582 0.0110297 0.00916259 0.00925467 0.00572023 0.00667014 -0.216569 -0.14049 
0.0112086 0.0117416 0.00910687 0.0119216 0.0128616 0.00927837 -0.18827 -0.180747 -0.172037 
-0.165152 0.0131041 0.0125306 0.00993125 0.0123557 0.0117926 0.0100055 0.0116479 0.0115305 
0.0095411 0.0123585 0.0116419 0.0110788 0.0102751 0.0132119 0.0145087 -0.154286 0.0153072 
0.0152075 0.0130781 0.0148936 0.0142134 0.0136159 0.0137238 0.0132116 0.0127704 0.0128064 
0.0126647 0.0117467 0.0319392 -0.00244613 -0.00253163 -0.00203684 0.0269947 0.0337352 0.0349643 
0.023229 -0.00262666 -0.00265418 -0.00222064 -0.00178145 -0.00222247 -0.0021987 0.0100677 -0.0015001 
0.00919391 0.00913976 0.00902428 0.00774278 0.0104678 0.00876655 0.00768805 0.00679823 0.00705702 
-0.00221092 -0.00245388 -7.64809e-05 0.00938315 0.00947562 -0.00160088 0.0118282 0.0361164 0.0435072 
0.0426544 -0.000547211 -0.000728313 -0.000536102 -0.0010172 0.00665516 0.00935521 0.00949031 0.00679964 
0.0465655 0.0403382 0.04689 0.00795434 0.0110853 0.00822891 0.00950774 0.0102264 0.00861016 
0.00900039 0.007733 0.00724451 0.0267114 0.0116955 0.0105489 0.0111725 0.011654 0.0138576 
0.0129761 0.0162183 0.0193202 0.017719 0.0481842 0.0414818 0.0355186 0.0366825 0.0317161 
0.0291847 0.011743 0.0127244 0.0119683 -0.00215203 -0.00190562 -0.00161879 -0.00219917 0.0408382 
0.0392849 0.0362799 0.0106062 0.0329755 -0.00130369 -0.00137583 0.0110196 0.0115793 0.007534 
0.00799271 0.0061843 -0.00165386 -0.00158538 0.0322924 0.0299289 0.00142139 0.00197946 -0.00138219 
-0.00113689 -0.00166516 -0.000969936 -0.000714442 -0.00125204 0.00227497 0.00166745 0.000149366 -0.000198532 
0.0010717 0.000635564 0.00139167 0.00979918 0.0102285 0.00951267 0.00872593 0.0130195 0.0107878 
0.00797704 0.0105082 0.00940952 0.00885436 0.0110521 0.00280594 0.00354263 0.0024891 0.0123944 
0.0102111 0.0284031 0.018919 0.016072 0.0167365 0.0250329 0.0215402 0.0229766 0.0301128 
0.00972404 0.0102062 0.0111158 0.0280512 0.0302714 0.0327204 0.0352729 0.0268441 0.0354674 
0.00668137 0.00677047 0.00567506 0.000446949 0.000887243 0.00112502 -0.00182255 -0.00171248 -0.00120354 
0.00382297 0.00306438 0.00281741 -0.00143386 -0.00149038 -0.000987324 0.00422095 0.00519688 0.00585614 
-0.000393653 -4.22508e-05 0.000100098 -0.000764316 0.00638385 0.00664021 -0.192164 0.00705281 0.00739987 
0.0048107 0.00780052 0.00761242 0.0056425 0.00703062 0.00687414 0.00544018 0.00993973 0.00938795 
0.00800642 0.00873076 0.0121935 0.0121737 -0.00109756 -0.000835818 -0.00116463 0.0121527 0.0115846 
0.0109198 0.0105512 0.0113357 -0.00123276 0.00790703 -0.00128364 -0.00119946 0.017743 0.00837605 
0.00876319 -0.00148199 -0.001425 -0.000796798 0.0233575 0.0270325 0.00851941 0.00889442 0.00909517 
0.00836294 0.00944987 0.00757113 0.0321128 0.0247886 0.0229366 -0.000563497 0.000301381 0.00933602 
0.00849355 0.0083307 0.00474006 0.0224376 0.0105233 0.00687844 0.00680947 0.00477743 -0.00191231 
0.00838571 0.00746806 0.0100175 0.026536 0.00998101 0.0108783 0.0104392 0.0226999 0.00413424 
0.014046 0.0164352 0.00905111 0.00734516 -0.000545024 0.007355 0.00569727 0.0075783 0.011779 
0.0143116 -0.184615 0.0292841 0.0351604 -0.000920517 0.00463807 -0.000514489 -0.00103446 0.0330642 
0.0334934 -0.0017164 0.0348649 0.0288964 0.0372059 0.0123038 0.0128731 0.0120972 0.0123549 
0.0121757 -0.00155158 -0.00160813 -0.00103688 0.00655604 -0.138705 -0.451275 -0.420442 0.00524444 
0.0071892 0.0337124 0.0280408 0.00994802 0.0357927 -0.452223 -0.469656 0.0290227 0.0116244 
0.0123536 -0.0010214 0.000639645 0.00116028 0.00161896 0.00101525 0.0191961 -0.00163396 0.0068242 
-0.000565156 0.00200619 0.00289771 0.00142519 0.0200275 -0.00118043 0.00308767 0.00353645 0.000398686 
-7.87296e-05 -0.000531563 0.00055172 0.0233915 0.0224225 -0.36629 -0.395843 0.00558288 0.00451828 
0.0097745 0.0308836 0.0134188 0.0137765 0.0152575 -8.81807e-05 2.57202e-06 0.00336925 0.00250243 
0.00208166 0.0217027 0.0184633 0.00464126 0.00548058 -0.00145526 0.0130088 0.0151359 -0.00054135 
-0.000464182 0.0155491 0.01429 0.0175551 0.0209515 0.0227253 -0.000479592 -0.000563121 0.000731831 
-4.53045e-05 0.000475885 0.014542 0.0161371 0.00419934 0.0036321 -0.000609223 -0.000516842 0.000177351 
5.57539e-05 -0.000529632 0.00238987 0.00323888 0.00156344 0.013027 0.0104645 0.0124887 0.0118008 
-0.000493508 -0.000498754 0.000210931 7.89793e-05 0.0152767 0.0189562 0.0245137 0.0169823 0.00417546 
-0.303231 0.0231934 0.019364 0.0241617 0.00384994 0.00321672 0.00239855 0.0239962 0.0260685 
0.0126699 0.0123763 0.0139334 -0.196555 -0.221604 0.0170686 0.00362874 0.00211828 0.0161548 
0.010129 0.000244841 0.000666806 -0.424977 -0.433352 0.003709 0.00411145 0.0023551 0.0178841 
-0.00131634 0.00125382 0.00123424 0.00105816 0.000977875 0.000902572 -0.452335 -0.459793 0.00147989 
0.0198698 0.00103421 0.0130534 -0.472545 -0.473946 0.00141372 -0.485199 -0.481713 0.00674478 
-0.491102 -0.497468 5.42589e-06 0.114571 -3.47736e-06 1.90071e-05 2.32317e-05 2.2513e-05 2.2212e-05 
2.46398e-05 2.36722e-05 2.34504e-05 1.94443e-05 1.87496e-05 1.78327e-05 1.70923e-05 1.46917e-05 1.42365e-05 
1.0227e-05 9.17541e-06 3.88329e-06 3.39073e-06 -4.89485e-06 -2.86191e-06 -1.05842e-05 -2.99042e-05 -3.29643e-05 
-2.71533e-05 -2.60631e-05 -8.98628e-05 -0.000116667 -0.00011277 -0.000206939 -9.94078e-05 -0.000141153 -3.94413e-05 
-0.000252093 -0.000185109 -0.000185189 -0.000114438 -9.12092e-05 2.08229e-05 6.35775e-05 0.000134273 0.000294408 
0.000158093 0.000612289 0.000478351 0.000575904 0.000160688 0.000207839 0.000209952 7.71595e-05 3.5749e-05 
-1.1075e-05 -8.28781e-05 -0.000188656 -0.000137747 -0.000179154 -9.62e-05 -4.53817e-05 -0.000161267 -9.497e-05 
-9.27762e-05 -7.29852e-05 -6.43725e-05 -5.30855e-05 -6.31931e-05 -4.77118e-05 -5.37482e-05 -5.47017e-05 -8.4849e-05 
-2.38078e-06 -4.16897e-05 -0.000107586 -0.000156005 -0.000127328 -1.38787e-05 -0.000248685 -0.000375144 -0.000526832 
-0.000595468 -0.000833881 -0.00116737 -0.0016455 -0.00262223 -0.00291078 -0.00364308 -0.0198773 -8.91096e-05 
-7.83026e-05 -1.49092e-05 -0.0514823 0.0401124 -6.01316e-07 7.83215e-06 -0.0401665 -0.0155795 -0.00896706 
-0.00305246 -0.00255359 -0.00158745 -0.00125184 -0.000922812 -0.000700754 -0.000559201 -0.00040909 -0.000334996 
-0.000266059 -0.000240584 -0.000176248 -0.000153598 -0.000127995 -0.000109434 -8.18029e-05 -7.48906e-05 -6.64917e-05 
-6.85682e-05 -7.11955e-05 -7.34032e-05 -8.04875e-05 -8.91944e-05 -0.000100126 -0.000118786 -0.000133188 -0.000154372 
-0.000169728 -0.000190209 -0.000195992 -0.000203119 -0.000182124 -0.000166301 -0.000126781 -6.62239e-05 1.87442e-05 
0.000121646 0.000229205 0.000350944 0.000413713 0.000521914 0.000485379 0.000524685 0.000427087 0.000340954 
0.000220142 9.52407e-05 1.03912e-05 -9.27589e-05 -0.000130432 -0.000208004 -0.000202391 -0.000220595 -0.0001863 
-0.000188812 -0.00016835 -0.000151333 -0.00012273 -0.00010926 -8.94149e-05 -7.68836e-05 -6.38749e-05 -4.9242e-05 
-3.8612e-05 -2.56838e-05 -2.17189e-05 -1.02083e-05 -6.53418e-06 1.66602e-06 2.82514e-06 8.44483e-06 8.63834e-06 
1.51605e-05 1.51565e-05 2.2019e-05 2.04203e-05 2.62958e-05 2.62936e-05 3.30594e-05 3.07638e-05 3.62892e-05 
3.03028e-05 3.61373e-05 2.3669e-05 4.93309e-06 4.626e-05 3.56304e-05 0.000108635 9.75145e-05 0.000106798 
-7.64002e-06 -0.000158515 -0.000418753 -0.000727999 -0.00111013 -0.00152997 -0.00196196 -0.00242527 -0.00290434 
-0.00343706 -0.00395775 -0.00446145 -0.00496633 -0.00544369 -0.00590113 -0.00639827 -0.00712896 -0.0074697 
-0.00777484 -0.00796988 -0.00816427 -0.00828401 -0.00836164 -0.00839038 -0.00835401 -0.00827204 -0.00813557 
-0.00795506 -0.00770914 -0.00740907 -0.00712594 -0.00675632 -0.00634429 -0.00589728 -0.00543543 -0.0048799 
-0.00438805 -0.0038965 -0.00337604 -0.00284531 -0.00236953 -0.00189674 -0.00144358 -0.00102389 -0.000672257 
-0.000398127 -0.000125957 1.5784e-05 0.000104261 -0.00677118 -0.150228 -0.246399 -0.254255 -0.353893 
-0.382464 -0.416457 -0.429516 -0.441241 -0.454141 -0.471402 -0.47339 -0.481833 -0.475376 
-0.460334 -0.49327 -0.493474 -0.468224 -0.477321 -0.461483 -0.455259 -0.427981 -0.423817 
-0.391803 -0.3621 -0.268868 -0.157292 -0.260121 -0.470949 -0.462719 -0.415626 -0.348736 
-0.377511 -0.229002 -0.257823 -0.186922 -0.534839 -0.53975 3.22477e-05 -4.39971e-05 1.30027e-05 
2.04006e-05 -0.511421 -0.50923 -0.495355 -0.454489 -0.475605 -0.494405 -0.538036 -0.477769 
-0.454185 -0.222254 -0.545305 -0.543577 -0.544471 -0.247744 -0.311582 -0.298829 -0.520233 
0.00178486 0.00117673 0.0016576 -0.419214 -0.395986 -0.363294 -0.545187 -0.000123587 -0.429291 
-0.531784 -0.520924 -0.392719 -0.0126681 -0.00881179 -0.00655312 -0.53092 -0.424984 -0.402594 
-0.348402 -0.405774 -6.16856e-05 -3.83192e-05 -0.303201 -0.411578 -0.418802 0.00293733 -0.40075 
-0.40107 -0.375411 0.0589059 0.0535371 0.0522843 0.0466425 0.0440551 0.0540239 0.0466228 
0.00544678 0.00926118 0.00690011 0.00461883 0.00361535 0.00585065 0.00597748 0.00727916 0.0515663 
0.0416423 0.0402564 0.0509294 0.0522147 -0.00201498 -0.00232284 -0.00192509 0.00370544 0.00276153 
0.003392 0.0613551 0.0546365 0.0535954 0.00394656 0.00560636 0.0048045 -0.00252203 -0.00263458 
-0.00283586 -0.00448164 -0.00416368 -0.00430144 -0.00401881 -0.000864959 -0.000810163 -0.000667533 0.000877341 
0.000730179 0.00113336 -0.00332542 -0.00360597 -0.00317044 -0.00341466 0.0115323 0.0159772 0.00790203 
0.0111656 -0.00466635 -0.00406714 -0.00381688 -0.00385926 -0.00364502 -0.00137945 -0.00182365 -0.00114952 
-0.00161452 0.00226806 0.000223928 0.000695199 -0.000310606 -0.000183521 -0.000131324 -2.14731e-05 0.008209 
0.00862065 0.008653 0.00920272 -0.00113131 -0.000997734 -0.00128516 0.0275134 0.0253756 0.0332866 
0.0315398 -0.00306913 -0.0034651 -0.00340062 -0.00379641 0.11291 -0.00438858 -0.00479593 -0.000164294 
-0.000254889 -6.17529e-05 -0.000176622 0.00521801 0.00237512 0.0029598 -0.00166819 -0.00196554 -0.00146676 
-0.00175355 -0.00150919 0.00181995 0.00166132 0.00114889 -0.00526702 -0.00465108 -0.00458783 -0.00411693 
-0.00445439 0.0129588 0.0125184 0.0135932 0.0127869 0.0120349 0.0032528 0.0169759 0.0102594 
0.0711173 0.0596912 0.0537189 -0.00233694 -0.00209916 -0.00239779 0.027565 0.014261 0.0061875 
-0.00506396 -0.00496268 -0.00127905 -0.00171334 -0.00120838 0.0370255 0.0364682 0.0318383 -0.00221471 
-0.00220368 -0.00211517 -0.00176499 -0.00235343 -0.00197761 -0.00243844 -9.10739e-05 -5.24995e-05 -0.000111479 
0.00288584 0.00222821 0.00305616 -4.4892e-05 0.000227752 0.000241253 0.00025777 0.000382081 0.0932478 
0.0838053 0.0832838 0.0751379 0.000523244 0.000323606 0.000513282 -0.000421096 -0.000562695 -0.000870388 
-0.00216196 -0.00185192 -0.00483875 -0.00505757 0.000377975 0.000241291 0.000992546 0.00390394 0.0044473 
0.00408463 0.00479576 0.0410984 0.034015 0.0394438 -0.00301029 -0.00322644 0.00263195 -0.00838706 
-0.0386492 -0.00348426 -0.00309 -0.00351302 0.0576842 0.0350811 0.0301128 0.038362 0.000132643 
0.000113936 7.33708e-05 5.86708e-05 -5.22463e-05 -0.000263135 -0.000174935 0.00711544 0.00565994 0.00861412 
0.00696243 -0.000539274 -0.000412485 -0.000557349 0.0557824 0.0541038 0.058449 -0.000206289 -0.000331527 
-0.000363518 -0.000474184 0.0246627 0.0261756 0.00152719 0.000559313 0.00272829 -0.00226703 -0.00259892 
-0.0020973 -0.00241749 0.112893 0.1029 0.113755 0.0119517 0.0086847 0.00868302 6.43271e-05 
0.000106927 2.77985e-05 0.0326186 0.0291695 0.0247425 0.0276329 0.0224273 0.0203298 0.0251083 
0.0034643 0.00411845 0.00422935 0.0035348 0.00477118 0.00390137 0.000223846 0.00023442 0.000431096 
0.00414407 0.00528312 0.00433696 0.0055922 -0.00212714 -0.00277023 -0.00118929 0.0176652 0.0172905 
0.0137567 0.0129888 0.113139 0.00827709 0.00713637 0.00882195 0.00750683 -0.00319046 -0.00351027 
-0.00309906 -0.000473489 -0.000494748 -0.000300564 0.013707 0.0180285 0.0109411 0.015626 0.0317844 
0.0269031 0.0219064 0.00593169 0.0491493 0.0381867 0.0418765 0.0353516 0.0415014 0.000520766 
0.000935618 0.000737477 0.00272699 0.00324787 0.00232912 0.00306036 0.00249551 0.00370289 -0.00579472 
-0.0059412 -0.0064111 0.000373656 0.00122186 0.000393282 0.000251189 -0.000379269 -0.000293797 -0.000165619 
0.0932141 0.100275 0.0935799 -0.00229916 -0.0016358 -0.000914728 -0.00288928 -0.00328179 -0.00299644 
-0.00622825 0.00378188 0.00319371 0.00258434 0.00660665 0.000715406 0.00147771 0.00184119 0.00228154 
0.00100607 0.00113988 0.00151561 0.00215384 0.000190376 0.000496918 0.00135502 0.00135162 0.0014645 
0.00244318 0.00791994 0.0127606 0.0104785 0.000179747 0.000295981 0.00162157 0.00144096 -0.0026179 
-0.00290775 -0.00267356 -0.00298226 -0.0068863 0.000553677 0.00239216 -0.018817 0.00167615 0.00123082 
0.00171772 0.00233564 0.00299799 0.00162088 0.00182805 0.0013509 0.00148195 0.000585761 0.0010935 
0.00063185 -0.00299377 -0.00177946 0.020681 0.0240218 0.0204805 -0.0229964 -0.02036 -0.0153738 
-0.0170113 0.0279929 0.0344546 0.0301266 -0.00147874 -0.00176078 -0.00131104 -0.00156477 0.0984494 
0.0910072 0.0907597 0.0841237 -0.00341183 -0.00126075 -0.00155908 -0.00131012 0.000210617 0.0124251 
0.0135134 0.012006 -0.00271201 -0.00303678 0.0224697 0.0251912 0.0299105 0.0336494 -0.00473535 
-0.00645393 0.000146397 0.074787 0.0285096 0.0365234 0.000743113 0.00154404 0.000793543 -0.00360458 
-0.00337215 -0.0038049 0.134847 0.127287 0.00721953 0.0109227 0.00903902 0.113256 0.113674 
0.0957998 0.0962395 0.08709 0.0109192 0.00974038 0.111385 0.112116 0.111674 0.0636475 
0.0560609 0.0605061 0.0534787 -0.00665232 -0.00625001 -0.00599046 0.013758 0.0118745 0.0129269 
0.0123937 0.0563805 0.0564772 0.0482074 0.0484925 0.0131013 0.0129502 0.000221911 0.000219753 
0.000635145 -4.51894e-06 0.000157704 0.000277815 0.00529736 -0.0310928 0.0609348 0.01979 0.0226892 
0.017982 0.0030037 0.0545137 -0.000105321 0.0542317 0.0547792 0.0457731 0.113167 0.0651414 
0.0725341 0.072254 0.0801883 -0.000479745 -0.000423338 -0.000617986 -0.000561764 0.00173501 0.00199275 
0.0634948 -5.93834e-05 0.0545363 0.0533929 0.0552742 -0.00260995 -0.00249778 -0.00223817 0.000739472 
0.000568874 0.000412906 0.00247238 0.000574583 0.00306332 0.00107862 0.0473618 0.0550852 0.0536543 
0.0113685 0.0121778 0.0111919 -0.00941417 -0.0136825 -0.007155 -0.00986133 0.0392563 0.0569473 
0.04556 0.0560191 0.0549539 0.0535692 0.0471082 0.00502543 0.00754936 0.00589118 -2.39705e-05 
0.00764934 -0.00762706 0.0105943 0.0115671 0.0122733 -0.0133107 -0.0237235 -0.00541645 -0.0218391 
0.00329215 0.00428516 0.00295797 0.0103158 0.0111108 0.0114269 8.06192e-05 0.0787522 0.079728 
0.0714074 0.000614891 0.000302803 0.00036479 0.000733943 0.00112929 0.000927113 0.0137082 0.0129257 
0.0141828 -0.00350643 -0.00344784 -0.00382533 -0.00373552 0.000184743 8.02162e-05 0.000311285 -0.000943206 
0.00185134 0.00158535 0.00264304 0.0022661 0.00322987 -0.00139336 -0.0013597 -0.00115176 -9.04893e-05 
-2.84749e-05 -0.000146575 -0.000105751 -0.000949789 -0.00116436 -0.000947123 0.0349857 0.0409939 0.0359789 
-0.00547689 0.0123737 0.0111801 0.0120808 0.102959 0.113438 0.11307 -0.00150196 -0.00178792 
-0.0013071 -0.00157537 0.00372483 0.00444211 0.00333236 0.00389838 -0.00164283 -0.00140012 -0.00135275 
-0.000526837 0.0105051 -0.00127517 -0.00161531 -0.000471431 -0.000120665 -0.000232383 0.000115837 -0.000560959 
-0.000786819 -0.00040048 -0.000612371 -0.00137539 -0.000798914 -0.000830697 -0.00162253 -0.0013652 -0.00209075 
-0.00195885 -0.00230606 0.00984422 0.00897731 0.00984222 0.00281033 0.00145858 0.00236382 0.00576237 
0.00427673 0.00388845 0.00258224 0.00289514 0.00410701 0.00363469 0.0124944 0.110799 0.109856 
0.00743337 0.00848335 0.00946337 0.00173058 0.00304677 0.00276948 0.000896937 0.00139951 0.000739758 
-0.00181021 -0.00186662 0.111806 0.112903 0.11355 0.000202533 0.000375383 0.000223571 2.92353e-05 
0.000118974 -4.82862e-05 0.00799331 0.00815342 0.00753951 0.00758987 -0.00122221 -0.00105368 0.0060133 
0.00519195 0.00549067 0.0005588 0.000428231 -8.91224e-05 0.000741302 0.000142926 -0.00149592 -0.00567562 
-0.00298711 -0.00270872 0.000588681 0.00082806 0.000468664 0.00144902 0.00194526 0.00240203 0.000544308 
0.000345308 0.000481713 0.00278115 -0.00163806 -0.00111574 -0.00136982 -0.00103325 -0.00127802 -0.000193327 
-0.000293457 -0.000316271 0.0566002 0.0579306 0.0497744 0.00479851 0.0047928 0.00610253 0.0125523 
0.0135098 0.004333 0.00358755 0.00399505 0.00337657 -0.0705065 0.000124542 8.62861e-05 5.53948e-05 
-3.2394e-05 -5.7322e-05 -5.98692e-05 -0.00205772 -0.0022943 -0.0024015 0.0743468 0.06228 -0.00354127 
0.00199561 0.00127147 0.00106136 -0.000511265 -0.000698614 -2.61243e-05 -4.87158e-05 -3.72632e-05 -0.000168511 
-0.000151526 0.000487813 0.00194487 0.000816238 0.0259772 0.0281535 0.0219351 0.113247 0.0703408 
0.0628056 0.0045461 0.00323857 0.00489082 0.00361364 -0.000263854 -0.000217284 -0.000156263 -0.000120948 
0.0126905 0.0139652 -2.40688e-05 -2.19993e-05 -1.45203e-05 0.000583548 0.000327488 0.0003416 -0.00137357 
-0.00110339 0.0809166 0.0878751 -0.0049344 -0.00455269 -0.0050238 -0.00460271 -5.47378e-05 -0.000135633 
-2.00774e-05 -8.60113e-05 0.0899673 0.0789608 0.0764837 0.00378915 0.00381293 0.0030188 0.00300134 
-0.000251085 -0.000246718 -7.54913e-05 -9.15873e-05 0.00599734 0.00544864 0.00490669 0.0173354 0.0182212 
0.0212026 0.0216568 -0.00632535 -0.00567562 -0.00634693 -0.00574887 0.0519685 0.00558965 0.00480959 
0.00669767 0.00602608 0.000147711 0.000158328 0.00110989 0.0011735 0.000760302 -0.00391313 -0.00388921 
0.0179432 0.0160826 0.0152541 0.0138292 0.000219768 0.00024594 0.000612314 -0.000142437 -3.69317e-05 
-8.2203e-05 0.0456933 0.0423224 0.0751681 0.0630395 0.0662999 0.00404806 0.00482258 0.042536 
0.0675521 0.0264621 0.00507241 -0.00554193 -0.00401613 -0.00759198 0.00218695 0.00275917 0.00133708 
0.00159556 0.00248336 0.00257794 0.0019915 0.00672907 0.00838471 0.00685322 0.00311074 0.0031015 
-0.000972465 0.0101234 0.0125432 6.46062e-05 -0.000990656 -0.000714989 -0.000726715 0.00379412 0.00565299 
0.00902696 0.0102535 0.00827753 0.00978195 0.00422391 0.00611179 0.00378957 0.00572343 -0.00400647 
-0.00426476 0.00459125 0.0119962 0.0111002 0.00541562 0.00564857 0.00468789 0.0982762 0.0906454 
0.0988413 0.0390674 0.0452173 0.0500578 0.0562723 0.0643994 0.0418746 0.00155477 0.000854856 
0.000801332 -0.000485776 -0.00068879 -0.000649477 -0.000892928 0.112655 0.00421386 0.00487109 0.000279811 
0.000987018 0.0165466 0.0197473 0.0173624 0.000838718 0.00141907 0.00097538 0.0137378 0.0745732 
0.0824377 0.0730797 0.0649828 0.0416575 0.0465254 0.0118185 0.0192517 0.0114005 0.0168103 
-0.0352439 0.0480192 -0.000507962 0.0796394 0.0871025 0.0784939 0.0583148 0.0530455 0.0538417 
0.00101429 0.000574794 0.000670215 0.065437 -0.000705536 0.0811466 0.0816005 0.0738571 0.10901 
0.110529 0.064156 0.0638421 0.0566433 0.00552984 0.0051437 0.00436011 0.00316361 0.00478348 
0.00471605 0.00334266 0.00286786 0.00244811 0.111309 0.0976261 0.10359 0.0975042 0.0126695 
0.0185779 0.0092784 0.095939 0.0873954 0.0871876 0.0996055 0.111337 0.0921709 0.0983584 
0.013238 0.0126074 0.0121612 -0.0016428 0.0736883 -0.00361399 -0.00308091 0.0519197 0.0556392 
0.0511949 -2.32529e-05 -0.000152576 0.00029834 0.000145796 -0.00529372 -0.00597686 5.11247e-05 5.26394e-05 
0.000121116 0.110744 0.0670001 0.0590314 0.0658212 0.0432201 0.00012677 0.000585751 0.000409369 
0.053723 0.0530158 0.0529995 0.0563692 0.00229315 0.00840325 0.00101606 -8.00236e-05 -0.000956125 
0.0351265 0.0406914 0.0332359 0.0562227 0.0645406 0.0677081 0.0247969 0.0877628 0.0852456 
0.0772767 0.0222162 0.0211934 0.017428 0.016913 0.0476171 0.0122056 0.0129984 0.0105189 
0.0310144 0.0318798 0.02687 0.0252434 0.028315 0.0240027 0.0537582 0.044014 0.0426682 
0.0464359 0.0335342 0.0835733 0.0903912 0.0830474 0.037461 0.0334415 0.0312273 0.0291197 
0.0402377 0.0439345 0.0381294 0.0261786 0.0225117 0.0280436 0.0284181 0.0329488 0.0329695 
0.0610564 0.0540633 0.0660654 0.112933 0.112104 0.10275 -0.000359454 0.0121446 0.0128082 
0.0136382 0.0136692 0.0157605 0.0169309 -2.3028e-05 -0.00160647 -0.00188698 -0.00188449 -0.00156107 
-0.00175704 0.0196138 0.0151167 0.021669 0.0175486 -0.000843293 -0.000596712 -0.000821428 0.0528435 
0.0459383 0.0541696 0.0534065 0.0602496 7.04669e-05 0.000106921 -0.00151552 -0.00157831 0.00351468 
0.00558227 -0.00622054 -0.00568857 -0.00630489 -0.00176789 -0.00165096 -0.001276 -0.00118923 0.00370257 
0.00450874 -0.00290337 -0.00255397 -0.00259401 -0.00217617 -0.00192722 -0.00228178 0.0489875 0.0463513 
0.0137706 0.00993096 0.0114722 -0.00624794 -0.0069041 -0.00677602 -0.00419905 -0.0046442 0.0250266 
0.0302856 0.0288078 -0.00141885 -0.00113517 -0.00160031 -0.00129306 -0.00171808 -0.00327305 -0.00354934 
-0.00334532 -0.00365189 -0.00442082 -1.85955e-05 0.000914005 0.000612874 0.000452157 0.00704698 0.00826892 
0.00810358 -0.00189518 0.021899 0.00464911 0.00560187 0.00349221 8.86601e-05 0.000474561 0.000469726 
0.000722856 0.00978375 0.0116985 0.0134594 0.00644747 0.00775015 0.00528293 0.000706916 0.0491832 
0.0427837 0.010462 0.00732936 0.00911102 0.00675279 0.0079907 0.00726332 -0.00428649 -0.00426054 
-0.00472863 -0.0020117 -0.00220398 -0.00297445 -0.00275791 -0.00315041 -0.000485646 -0.000277849 -0.000303867 
-0.000100042 0.00762758 0.00777119 0.00610151 0.0966726 0.0966447 0.112551 0.0984206 0.0906164 
0.0985906 0.00206053 0.00410577 0.082093 0.0970559 0.0845483 0.00235013 0.0098885 0.00889712 
0.023218 0.0239843 0.0202953 0.00113395 0.0128177 0.0120936 -0.000476678 -0.000683206 -0.000625148 
-0.000829962 0.00358011 0.00342438 -0.00272015 -0.00276642 -0.00244336 -0.00424434 -0.00383888 -4.15856e-05 
-9.81592e-05 -1.86751e-05 -8.44481e-05 -0.000166157 -0.000327749 -0.00026388 -0.000156279 0.0426173 0.0345075 
0.0362745 0.0289072 0.113418 0.111465 0.112711 -0.00114327 0.00481441 0.00544049 0.00439587 
0.0156288 0.0177389 0.018085 0.00415055 -0.00509865 -0.00539278 -0.00480993 -0.00246771 0.037855 
0.0377761 0.0432508 0.112622 -0.0092658 -0.0129487 -0.0111835 -0.000254076 -0.00016373 -0.000241633 
0.00600226 0.00501213 0.0108021 0.012553 0.0113347 0.0130693 0.113103 0.111526 0.112327 
0.00155045 0.0013975 0.00200235 -0.00041686 -0.000351516 0.0278273 0.0231449 0.0332049 0.0265306 
0.000379102 0.000422968 0.00102261 0.00987441 0.0104241 0.00922484 0.00806756 0.0093448 0.00803216 
6.14693e-05 -0.000252401 -0.000306704 -0.0692312 -0.009367 -0.0455985 0.00664793 0.11177 0.108983 
0.00464027 0.00429488 0.00380309 0.00403341 0.0150765 0.0181648 0.0153843 0.0185818 0.00197187 
0.00188324 -0.00446045 -0.00480505 -0.00502829 0.000112957 0.140879 0.101119 0.0974643 0.00652924 
0.00630658 0.0216504 0.0254163 0.0211791 0.00378028 0.00360745 0.00703981 0.00615243 0.00344382 
0.0048504 0.00280567 -0.00239957 -0.00215412 -0.00208416 -0.00185372 0.0385255 0.0446623 0.0405248 
0.0135498 0.0148684 0.0023259 0.00236025 0.00161564 0.0015645 0.077116 0.0772949 0.0701335 
0.0701479 0.0975376 0.145872 0.00722673 0.00631185 0.00721617 0.00950058 0.00817407 0.100698 
0.0950437 0.0484417 0.0544309 0.0431341 -0.00185655 0.0506945 0.027385 0.0074193 0.0071541 
0.015301 0.0222884 0.0146838 0.0803652 0.0823484 0.0192251 0.0216573 0.0173218 -0.000152391 
-0.000179073 0.0570894 0.0504227 0.0652861 0.0578462 0.0268279 0.0372535 0.0330529 0.0401876 
0.100025 0.151481 0.000229182 0.000648372 0.00749147 0.0113666 0.0140777 0.0168357 0.0011911 
0.000619866 0.00397237 0.00407542 0.00499619 0.0138553 0.000240672 3.14726e-05 0.101557 0.0136984 
0.0151104 0.000703809 0.000510722 0.000818839 0.00151538 0.00012614 0.000422802 -0.00519622 -0.00525285 
0.0982124 0.103923 0.0178454 0.0210151 0.0191058 0.0298594 0.0115795 0.0129082 0.0118733 
0.0148939 -0.0198786 -0.02161 -0.0306973 0.0373521 0.0434052 0.00120618 0.000868904 0.0533888 
0.0546364 0.0466483 -0.00368515 0.0076092 0.000309994 0.000312373 0.000575284 -0.0052427 -0.0037343 
-0.0036735 -0.00126825 0.0157678 0.0389054 0.0512339 0.00536247 0.00466181 0.0288381 0.0275973 
0.024416 0.0234154 0.00678354 0.0193868 0.0244633 0.0160371 0.0301195 0.0317889 0.0374234 
0.0599136 0.068803 0.0616096 0.0700805 -2.65024e-05 -0.0140275 -0.00250442 0.0002688 0.000486183 
0.0527832 0.0602912 0.0540062 -6.09988e-06 0.00905871 0.0076076 0.0134516 0.00887705 0.0110985 
-0.000569127 -0.000755807 0.0837063 0.0904344 8.37036e-06 1.43233e-05 1.15003e-05 -0.000283012 -0.000483416 
-0.00121331 0.0233283 0.0206082 0.0250305 -0.00718527 -0.00643248 -0.00734799 -0.00664287 0.0179007 
0.0163676 0.0671289 0.0589934 0.0631104 0.0634144 0.0687248 0.0692962 -0.0025735 -0.00213886 
0.00158901 0.00118643 -0.00471151 -0.00518361 -0.00522593 0.000717108 0.064188 0.0682437 0.0534972 
0.0568413 -0.00307741 -0.00209133 -0.00223092 -0.00189639 0.113833 -0.000623244 0.0529574 0.0495589 
0.0205158 0.107693 0.0865495 0.0337156 0.0393798 0.0339626 0.0788355 0.0455285 0.0662074 
0.104382 -0.00748102 -0.00278708 -0.00296014 -0.00317761 0.0285101 0.0248347 0.116 0.000748358 
0.0077632 0.0100022 0.00637824 0.0518341 0.0106942 0.00961823 0.00859096 0.010766 0.0114814 
0.0104604 0.0446325 -0.00471792 0.0105502 0.000589954 0.00112387 0.00738677 0.00888348 0.0064678 
0.00206001 -0.00430556 -0.00383884 -0.00393672 -0.0017217 0.00226126 0.00202402 0.0569241 0.000387192 
0.135732 0.0543823 0.0464179 0.0468857 0.0430571 -0.0055656 -0.00596015 -0.00536891 0.0377378 
0.0375369 -0.00369456 0.00352411 -0.00605727 -0.000395521 0.00782999 0.00661527 0.00692753 0.00582303 
-0.00043946 -0.000316549 -0.00458404 -0.000569172 -0.000736213 -0.00054517 -0.000643624 0.112962 0.102285 
-0.000673561 -0.00060425 0.0556214 0.00839018 0.00891899 0.00927178 0.00348145 0.00237775 0.00950448 
0.00951031 0.00203668 0.0028466 -0.000385138 -0.000433179 -0.000550288 0.000599707 0.000879644 0.0095688 
0.0101017 0.0118973 0.00838093 -0.00289098 -0.00105375 -0.00206845 0.0637259 0.0562234 0.0697006 
0.0616169 0.0083653 0.00690134 0.00793061 0.00261515 0.00263325 0.00170817 0.0154644 0.0127634 
0.0139504 0.007184 0.00700373 0.00591721 0.0146587 -0.000336553 4.00201e-05 -0.00538518 -0.00925943 
-0.00140417 -0.00118986 -0.000916613 -0.000958038 0.0984496 0.0911652 0.0913232 -0.000547211 -0.000482188 
-0.000689604 -0.00223021 -0.00577861 -0.00185408 0.00152149 0.00179273 0.00209032 -0.00567156 -0.00690285 
0.0327696 0.0496268 0.010707 0.00615662 0.0126531 0.00119042 0.00343223 0.00282889 0.00355547 
0.0420335 0.0485597 0.0473297 0.112905 0.0435091 0.0496403 0.0138194 0.0117664 0.0123954 
0.0713155 0.0738477 0.0610936 0.0855022 -7.06668e-05 -0.000225442 0.000122536 0.000177174 9.43606e-05 
0.0774618 0.0328189 0.0446433 0.0453215 0.0512823 0.0524815 0.0396804 0.0468096 0.047423 
0.0590003 0.0535152 0.0532155 -0.00096798 0.00110981 0.0580447 0.0074199 0.10722 0.0190976 
0.019804 0.0161841 0.0046638 0.00286997 0.00257245 0.00178891 0.0447777 0.0375404 0.0504567 
0.0430994 0.00904234 0.0111507 -0.00102962 0.00928112 0.00774081 0.000670196 0.00113219 0.00731801 
0.00687513 0.000953779 -0.00156583 -0.0015379 -0.00146187 -0.00125551 0.0276225 0.0323039 0.00661569 
0.00578539 0.000469667 -0.0027404 -0.00342617 -0.00314483 0.00251275 0.00389832 0.00234314 0.0167039 
-0.00162358 0.00425094 0.0999057 0.0946636 0.00293036 0.00212756 0.00267184 -0.000948467 0.00193556 
0.000385015 6.67112e-05 0.00011979 0.0135912 0.00211348 0.00268448 0.00259629 -0.0173797 -0.0229897 
-0.0193097 0.000146564 0.000197833 0.00107555 -0.00215817 -0.00169059 -0.00227163 0.0563419 0.0380267 
0.0435169 0.0361826 -0.00011976 0.00212476 0.0482059 0.0586669 0.0546828 0.0424016 0.0366896 
0.0434992 0.0112589 0.0100643 0.0105348 -0.0024327 -0.00215744 -0.00189186 0.00159654 0.0248953 
0.0201928 0.0217993 0.0147225 0.0173529 0.000108188 0.000165649 0.0001679 0.000179795 0.062947 
0.0470092 0.0018315 0.00169937 0.0112589 0.0121011 -0.00304913 0.0136909 0.016024 0.0199943 
0.0226763 0.00453469 -0.000486179 -0.00559529 -2.78362e-05 0.042046 0.0426223 0.0266864 0.014023 
0.0146521 0.000156151 0.0100352 0.0105494 0.0022309 0.00087485 0.00122062 0.0129492 0.00134441 
0.00193715 0.00107186 -0.00118472 -0.00119596 -0.00149523 0.00272091 0.104119 0.000311139 0.000748704 
0.000190767 0.00262633 0.000285599 0.00244859 0.0031769 0.00793784 0.00850977 0.00913601 -0.151661 
0.000151178 6.72407e-05 0.000223143 -0.0581474 9.4612e-05 0.000220615 0.000213144 0.00923146 0.00926923 
0.00780853 -0.00479625 0.00491672 0.00598818 0.00585661 0.114079 0.10347 0.0327637 0.0503601 
0.00181398 0.0246599 0.0345029 0.0412857 0.0285735 0.0342378 0.0399775 0.0389804 0.0446224 
0.00896734 0.0328695 0.0979466 9.27429e-05 0.000103597 0.000586989 0.0713173 0.0637307 0.0173892 
0.00188904 0.0024163 0.00283108 0.0032686 0.0516676 0.0405881 0.0221072 -0.00108929 -0.000813915 
-0.0012789 0.0016777 0.00136 0.00111504 0.0412761 0.0343265 0.053454 0.0584044 0.0246164 
0.0197698 0.0227372 -0.000260349 -0.000240062 0.0001508 0.000217464 6.10814e-05 -0.000940248 -0.00069429 
-0.000399253 -0.000452364 -0.000560669 -0.00572245 -0.00606252 -0.00538976 0.0323281 0.0318321 0.0271149 
0.000557562 0.0115118 0.00918962 0.0119119 0.00941978 0.00963677 0.00848938 0.00925038 0.0115264 
0.0115341 0.0129562 0.0125813 0.0211602 0.0234291 0.0293834 0.00912682 0.00690102 0.0124796 
0.0131937 0.0119784 -1.44717e-06 6.10908e-07 3.17644e-05 2.24649e-05 0.000509318 0.000243661 2.93463e-05 
0.00538418 0.006364 0.000230696 0.000415117 0.000307095 0.0428538 0.046522 0.0423402 0.0075293 
0.00799858 -0.0145471 -0.010565 -0.00213317 -0.00254589 -0.00220985 0.0303121 0.0229331 0.024462 
-0.000725483 0.000427001 0.000322492 0.000348596 0.00715812 0.102677 0.131014 -0.00241578 -0.00209327 
-0.00249399 -0.00327374 -0.0029947 -0.00341189 0.00859407 0.0087874 0.00656887 0.0075442 0.00462935 
0.00445464 0.00572165 0.00540542 0.0330025 0.0348456 0.0427419 0.000456203 -0.00298943 0.00688086 
0.00568109 0.00602856 0.00522214 0.00915871 0.00705277 0.00231695 0.00330454 -0.00415417 -0.00264954 
0.0552607 -0.000420294 -8.96411e-05 5.17302e-05 -0.000750087 -0.000182078 0.000995246 0.0010637 -1.58117e-05 
-0.000228493 -0.00302342 -0.00342165 -0.00305678 0.00339891 0.00323722 0.00225994 0.00859893 0.00700604 
0.0082343 0.00709775 0.062921 -0.00389778 -0.00301404 -0.00110266 0.0596719 0.0568978 0.00317619 
0.00608066 0.00498448 0.00645944 0.0179643 0.0169833 0.0667495 0.0679764 0.030917 0.0365772 
0.0353664 0.0429676 0.0432276 0.00559753 0.00434519 -0.00278692 -0.000398631 -0.000737678 0.112563 
0.0156819 -0.00142951 -0.00111251 -0.000220985 -0.000480344 0.0014511 0.00137675 0.00178228 0.0363508 
0.0308885 0.037066 0.0321039 -0.00427429 -0.00105543 0.00764826 0.0142881 0.0141147 0.0154471 
0.0057179 0.00745497 0.0161791 0.0471953 0.0523744 0.0538223 0.00200428 0.00235811 0.0480051 
0.0409981 0.0415761 0.0115232 0.00931539 0.00105507 -0.000312857 -0.000256024 -0.000214071 0.0323123 
0.00639841 0.00683994 0.000347539 0.0417185 0.0145275 0.0144692 0.0160975 0.0161466 0.0117389 
3.6553e-05 0.00822222 -0.00262552 0.00949522 0.032855 0.0134527 0.0140205 0.0129703 -0.13202 
-0.000743873 -0.000942087 -0.000909284 0.0074678 0.00727006 0.00518601 0.00108907 0.000147731 0.00247562 
0.00145466 0.00345212 0.000422622 0.000498105 0.000868615 0.00400328 0.00410841 0.0103732 0.000402813 
0.000362035 0.00114899 0.00170437 0.0135709 0.0122062 0.0155781 0.0137624 -0.105806 0.0145922 
0.00923973 0.00879495 0.00753832 0.0120324 0.0122963 0.0120133 0.000375537 0.00062143 0.0118078 
-0.00219114 0.000644958 -0.000731391 0.0109389 0.0124252 0.0114475 -0.00083809 -0.000354282 -0.000981522 
-0.000447224 -0.00115084 -0.00110105 -0.00143862 -0.00199929 -0.00205202 -0.00253685 -0.00258623 -0.00309327 
-0.00301059 0.00963634 0.0114285 9.42212e-05 6.64719e-05 -0.000374787 -0.000423646 -0.00513808 -0.00280164 
0.0131412 0.0118328 0.0139178 0.0125192 0.0129896 0.0119874 0.0112957 0.0142665 0.00905668 
0.0110094 0.0033215 0.0238543 0.0278066 0.0179507 0.0213046 0.00268072 0.0132389 0.00326017 
0.0172968 0.0153309 0.0159683 0.017322 -0.000581082 -0.000514954 0.0106816 0.0137949 0.0147718 
0.0137335 0.0131934 0.013027 0.00168725 -0.000474805 0.0146309 0.0116131 0.11148 0.112794 
0.11215 0.0169143 0.0143681 0.000402231 0.000229174 0.000302746 0.00145564 0.0101496 0.00999116 
0.00796427 -0.00234824 -0.0018867 0.0150169 0.0122249 0.000261238 -0.0010461 -0.000838857 -0.000892263 
0.00408879 -3.56459e-05 -2.67269e-05 0.00505113 0.113296 0.111763 0.11394 0.0194974 0.0220935 
0.0133147 0.00151943 0.00212141 0.00235065 -5.0821e-05 -8.88735e-05 -5.49155e-05 -3.45083e-05 0.00304 
0.0034787 -0.0026079 -0.00304002 0.0178764 -0.00269391 -0.00239294 0.00460556 -0.00177283 0.0288055 
0.0269822 0.0261141 0.0121218 0.0114848 0.0124362 0.0120967 0.00151558 0.0242979 0.0257113 
-0.00159202 -0.0014553 -0.00244582 -0.00276527 0.000624896 0.00138954 0.000848799 0.000997702 0.000297435 
-0.000657629 -0.000759081 0.00501809 0.00446187 0.00364518 0.0533537 0.0516334 0.046056 0.00045945 
9.5982e-05 0.0130106 0.00125241 0.00177599 0.00366343 0.00754118 0.0062072 0.00943006 0.0272334 
0.0238606 -0.00609741 -0.00546987 -0.000881756 -0.00100674 0.00447411 0.025204 0.0022381 0.00057813 
0.00274326 -0.00384068 -0.00342789 -0.00384523 -0.00345288 -0.00404287 -0.00413115 0.00687485 0.00233103 
-1.86004e-05 -0.00037956 -0.000353475 0.003504 0.00473713 0.00303374 0.0524741 0.00242257 -8.72372e-05 
-0.000173774 0.000390329 9.56744e-05 0.000444343 0.0012743 -0.000296173 0.0233202 -7.16526e-05 -3.6553e-05 
0.000285281 0.0559977 0.0551864 0.00440925 -0.000675586 -0.000399952 -0.00100193 0.00737532 0.00949569 
0.00355525 0.00228965 0.112884 -0.00675494 -0.00687898 0.0279576 0.000495965 -0.000385662 0.0456347 
0.00752991 0.007933 -0.00169836 -0.00193108 -0.000226803 0.00131108 0.00201113 0.0387131 0.00201466 
-5.07935e-05 -0.000158806 0.015509 0.0121082 0.0100762 0.00932777 0.0106396 -7.90223e-05 -0.000188212 
0.00422474 -4.50881e-05 -3.23234e-05 0.000130426 0.0416804 0.0354006 0.0395166 0.0119499 0.0960509 
0.000131521 -5.00415e-05 0.0589415 0.0605455 0.034676 0.0368187 0.0250343 0.0298915 -5.64108e-06 
-2.75578e-05 0.000560315 -0.000255455 0.000590188 -0.00287621 -6.93785e-05 0.00427513 0.000187111 0.000215269 
0.000464245 0.0114206 -0.00299703 -0.00271815 -0.0381667 0.0155766 0.000156632 0.000159471 -0.000297949 
-0.000193123 -0.000116265 -0.000164575 -0.000186364 0.00138179 0.00291372 0.00715568 0.000484484 0.0172054 
0.0188809 0.0147174 0.00205218 0.00143562 0.00149561 0.00103971 0.101925 0.112764 0.101412 
-0.000652349 -0.00417772 0.0101127 0.0110635 0.0102189 0.0778802 -0.0103618 -0.0110064 -0.0465084 
0.10004 0.111784 0.0940252 0.100985 0.0948987 0.0857462 0.000230821 0.00039696 0.00120652 
0.000518407 -0.0665213 -0.000728043 -0.000473414 -0.000734156 0.00875461 0.0101386 0.0692509 0.000142402 
0.000293365 0.000122283 0.000826095 0.0534891 0.0438765 0.0833967 0.0942852 0.0856159 0.00089023 
0.0531962 -0.00110569 0.00127098 0.00921239 0.00521519 0.012625 -0.115006 -0.0295159 -0.0359567 
-4.22454e-05 -0.0690254 0.0534424 0.0468932 -0.000614539 0.00017451 -0.00194153 -0.000428224 -0.128774 
-0.0197752 -0.0604059 0.098783 0.00473951 0.00644828 -7.39796e-05 0.113734 0.0243833 0.019016 
0.0167198 0.0002016 0.000232205 -0.000554932 -0.00077388 -0.00468853 -0.00511947 0.0975789 0.0971075 
0.107488 0.115099 0.108301 -0.00231104 -0.00267877 -0.00229482 0.0020403 0.098571 0.103598 
0.0102056 0.0100207 0.00647255 0.00522265 -0.00206948 -0.00243324 0.0102759 0.000547589 0.0514486 
0.0450457 0.0439591 0.0384597 0.0609565 0.0368241 0.0361232 0.0214847 0.0260226 0.023261 
0.00648908 0.00530105 0.00329303 0.000143896 0.000146503 0.000170797 0.00279865 0.00820516 0.00698082 
0.0672228 -0.00272103 -0.00266918 0.0154316 0.0154641 0.0187247 0.0190494 0.00109865 0.000806681 
0.00541322 0.0762279 0.0854334 0.0839912 0.0119841 7.88303e-05 5.56738e-05 9.56563e-05 0.00013783 
0.00098707 0.000791162 0.00877647 0.000438538 0.000226595 0.000285174 8.09621e-05 0.00415884 6.24908e-05 
0.0101433 0.00657965 -0.000104527 -0.000262371 -0.000611865 0.000262168 0.00253609 0.00305898 0.00236395 
-0.00597556 0.000211782 0.000587959 -0.000257249 2.20864e-05 0.000106751 0.00137809 0.0011818 0.000739019 
0.000997341 0.0630993 -0.00695131 0.0193243 0.000612782 0.000571872 0.000219856 0.00167874 -0.000367383 
-0.000234515 8.56578e-05 7.62181e-05 9.77578e-05 0.0434665 0.0458597 0.0543249 0.0440835 0.018309 
-0.000415848 0.0776001 0.00130818 0.0180091 0.0193286 0.0858919 0.09542 0.000267641 0.000431246 
0.100877 0.000130069 0.000207113 -0.00145978 -0.00110086 0.00010856 8.50186e-05 0.000108583 -0.00633525 
-0.00693125 -0.00516048 -0.00610683 -0.00282508 0.000118859 -0.000639127 0.0103873 0.00998726 0.000943227 
0.00114053 8.13912e-05 -0.000735942 0.00116397 0.000703743 0.00140608 0.00128116 0.0301173 0.0355322 
0.00134313 0.00067633 0.0045946 0.00554889 0.00435085 0.00722504 0.00478747 0.0585943 0.0512143 
0.0382146 0.0403624 0.036383 0.0367992 -0.00134045 -0.00419564 -0.00129313 -4.17231e-05 -0.0384746 
0.0435906 -0.0294079 -0.0359729 -0.00306715 0.0744873 0.0956456 0.0888802 0.0397415 0.114166 
0.00632169 0.0107302 -0.000141792 -4.44386e-05 -0.0121697 -0.00838106 0.00200798 -0.0650427 0.0130477 
-0.00230521 -0.00264997 0.0710442 0.0134588 0.0265155 0.0249837 0.0345001 0.0579751 0.0258413 
0.015002 0.00381497 0.00479564 0.0144649 0.0582785 0.000525196 0.000441858 0.000701325 0.00664358 
0.00605982 -0.0043096 -0.00144888 0.0128814 -0.00102078 -0.000744971 -0.00351153 -0.00141452 -0.00128947 
-0.00160845 -0.00305284 -0.003123 0.00763638 0.00156272 -0.00232226 0.00763245 0.00116931 0.00116214 
0.000921863 0.00812094 0.00969058 0.0086647 0.00817899 0.00891518 -0.00277174 -0.00260576 -0.00220264 
0.000964567 -0.00564781 -0.00536835 0.00142978 0.00094441 0.00168178 0.000993333 0.0147847 -0.00297787 
0.00800815 0.00755481 0.00883924 0.0148101 0.0134849 0.00208463 0.00697431 0.00817545 -0.00342588 
-0.0049209 0.00455169 0.00508885 0.00383294 0.00241372 0.0089542 0.00959881 -0.00603517 0.00272911 
0.000922893 0.000573175 0.000594385 0.00296177 -0.00427487 -0.00400072 -0.00446394 -0.00415677 0.00386074 
0.00493154 0.0037491 0.00469742 0.00176338 -0.000518364 -0.000686261 -0.000579837 -0.000746628 0.00145907 
0.0547872 0.0541533 -0.00187389 -4.01218e-05 -0.000107235 -0.00426705 -0.00474138 0.000603812 0.000823992 
-0.00694342 -0.00453586 -0.00478448 -0.000428459 -0.000564115 -0.00113394 -0.00212388 -0.00237874 0.0033379 
0.0124529 0.000879838 0.0198234 0.0224515 0.0257229 0.0296518 0.00265058 0.00269757 0.00404705 
0.0071344 0.000169073 0.000281145 0.000308017 -0.00500606 -0.0080446 0.000422629 0.00240842 9.07503e-05 
0.000204789 0.0296957 0.0384478 0.000995346 0.00376556 0.00455031 0.00215802 0.00126003 0.00188217 
0.0140353 0.0883281 0.0883319 0.00561169 0.00304183 0.00402296 0.0868931 0.0899635 0.0832121 
0.0216561 0.0197524 0.0815301 0.073689 0.0480735 0.0228174 0.0192767 0.0182874 0.0047549 
0.0040081 0.0723423 -0.00124316 -0.000836912 -0.000733254 0.0123201 0.0098526 0.027481 0.0220302 
0.00485487 0.0106925 -0.000720956 0.00160562 0.000162969 0.000541044 0.000414413 -0.00121231 -0.000650977 
-0.00125699 0.0209383 0.0166185 0.0204871 -0.000161464 0.00496943 0.00130931 0.00121542 0.00115587 
0.00126562 -0.00337373 2.53288e-05 2.82765e-05 0.0137372 0.112363 -0.00575691 0.00817 0.0110141 
-0.000152236 -0.000200147 -0.000264299 0.00481994 0.00549464 0.00368377 0.00545539 0.00660648 0.00139304 
0.00985757 0.00472802 -0.000109693 -0.0057088 -0.0106341 0.00338858 0.0100965 -0.00125881 0.0195506 
0.078526 0.0706979 0.0694403 0.0108508 0.0807117 0.0883675 0.00405729 0.000286356 -8.4693e-05 
-0.00691057 -0.00667433 0.0060662 0.00118356 0.000222058 0.000134285 0.0880856 0.0801381 0.0127252 
0.0158598 0.0839241 0.00707149 -0.00422925 -0.00641292 -0.00907452 -0.00576147 0.00162727 0.0293587 
0.0155284 0.0061088 0.00345105 0.000496729 0.000276621 0.000387598 -0.00420121 -0.0046973 -0.00434791 
0.114199 -0.00117222 -0.000195817 -0.000162564 -0.000274791 -0.000485334 -0.000522636 0.0181871 0.00519185 
0.00493922 0.0841628 0.0696829 0.0624032 0.0132748 0.0766701 0.0626613 -0.00216308 0.00028881 
-0.00329652 -0.00373106 -0.00341076 0.0102285 0.0124976 0.00835604 0.0327499 0.0284461 0.0177774 
0.0255829 0.00720682 0.0640967 0.0432078 0.0437107 0.0374732 0.037883 0.00590299 0.0087764 
0.00531563 0.00343631 0.00915917 0.009758 0.0122104 0.0114563 0.0115295 -0.00524308 -0.00481976 
-0.00253503 0.0165208 0.0152054 -0.00162845 -0.00200705 -0.00172692 5.64746e-05 -0.00374083 -0.00389655 
4.38406e-05 0.00266214 0.00332991 -0.00105684 -0.000985099 -0.00484289 0.0204526 -0.000954272 -0.00130289 
-0.00137903 2.35721e-05 -0.000200215 -0.00763295 -0.00614664 0.00194504 0.00115037 0.000170197 -0.00116006 
-0.000885626 -0.00698112 0.0105508 0.00531063 0.00430096 0.0033038 -0.000630284 0.0728972 0.0660883 
0.089568 0.0827812 0.0823302 0.000129469 0.0119568 0.0150754 0.0701359 0.0770042 0.0766896 
0.0839031 -0.0109552 -0.0157637 -0.00175643 0.0464833 0.0405517 0.0371318 0.00459033 0.111744 
0.113285 -0.00126444 -0.000136602 -0.000332483 -0.00213832 0.0415341 0.0301231 0.0319857 0.0449739 
-0.00103358 -0.000755295 0.00129848 0.00334439 -0.00195626 0.000364008 0.000419399 0.0464516 0.0203307 
0.024633 0.0193609 0.0233118 0.000257711 0.000180482 0.0272405 0.112997 0.0143841 0.000349871 
0.000275086 0.0970214 0.0980139 0.0190648 0.000411411 0.0153604 0.0121747 -0.00287253 -0.00280513 
0.000352221 0.018004 0.0147483 0.0165419 0.0109308 0.0100955 0.0121638 0.0115182 0.012069 
0.0469339 -0.000458131 -0.000424555 0.00149861 0.00211104 0.00152236 -0.000456861 -0.000917883 0.00907422 
0.0107698 0.00893365 0.00962143 0.0101181 0.0168212 0.0137122 0.0151772 0.0130407 0.00843734 
0.00784845 0.0132199 0.0121398 0.0135218 0.0121288 0.0128944 0.012484 0.0111772 0.0130819 
0.0124512 0.103453 0.0300114 -0.00108721 0.00677811 0.0199532 0.0239098 -0.00217871 -0.00332664 
-0.0030056 -0.00338152 0.00393803 0.076065 0.0128706 7.36539e-06 0.00138855 0.000184656 0.000267294 
-0.00561476 0.00802439 -0.000414285 0.00163977 0.000887122 0.0581887 0.0151481 0.0140051 0.0152576 
0.014267 0.000161328 0.00898287 0.0550875 0.0555517 0.0140667 0.016866 0.0111658 0.0688822 
0.0544926 0.0613173 0.0481829 -0.000746409 -0.000818707 0.00369585 -0.000767659 -0.00423286 -0.00384101 
6.26083e-05 -0.00254593 -0.00220221 0.00106551 0.000214459 0.000745994 0.000251124 0.0121996 -0.00386583 
0.0295375 0.000982335 0.00129465 0.0106624 0.00924517 0.0109468 0.00571874 -0.000212744 -0.000314826 
-0.000299504 0.00723685 0.0060578 0.0126985 0.0259883 -0.00748334 0.0017728 0.00229123 0.00196268 
0.00724057 0.0216993 -0.00758452 -0.00370109 -0.00354881 -0.00130439 -0.00179374 -0.00172744 -0.0021888 
0.0187059 0.0225217 0.0231877 0.000292357 0.00816734 0.0146488 0.018055 0.0274181 0.0108853 
-3.16522e-05 0.00114717 0.00845493 0.00845139 0.00961298 0.0127905 0.0120089 0.0116471 0.011648 
0.0267039 0.000796233 -0.0094615 0.020531 0.011888 0.0144083 0.0216937 0.00521305 0.0281387 
0.00262414 0.00314642 0.00349758 0.00213851 0.0126024 0.0158058 0.0157431 0.0420911 0.0319047 
0.00530228 0.00497761 0.00601998 0.00643135 -0.000453416 0.100688 0.033887 -0.00327845 0.00776282 
0.00898056 -0.000770198 0.00067186 0.000825978 0.000517166 0.00707284 0.0207499 0.0418415 0.0425515 
0.031003 6.57276e-05 0.00700673 0.105505 0.11433 0.0298372 -0.00368689 0.00130345 0.0488083 
0.0510387 0.036514 0.0176351 0.02983 0.0285553 0.0762304 0.0753606 -0.00975538 -0.0604446 
-0.0369183 -0.0388701 -0.000347185 -0.000384596 0.0824277 0.000660601 0.0218347 0.00265842 -0.00381071 
-0.00404299 0.00296714 0.00352256 -0.000234273 0.0264104 0.000171484 0.0188342 -0.00255525 -0.00119211 
-0.00279266 0.000283186 0.0328891 0.000385548 0.000192182 5.04534e-05 3.08446e-05 0.0191962 0.000375218 
0.0226969 0.0152428 0.0275409 -3.64282e-05 -0.00189072 -0.00215695 -0.000325297 -0.000306214 -5.0609e-05 
-3.5177e-05 -0.0316305 -0.0115961 -2.78886e-05 6.86305e-05 -0.000173743 -5.78883e-05 -4.7735e-05 -4.1331e-05 
-0.00134707 -0.00152418 -0.00166622 -0.00117367 0.027149 0.0224445 0.0260382 -0.0115354 -0.0173883 
-0.0168149 0.000556087 0.000277268 -0.00363387 -0.00395718 0.0198564 0.00116756 0.000296594 0.00177651 
0.00221381 -0.0168131 -0.000470007 -0.00677423 0.00106353 -0.00400459 -2.84362e-05 -1.77177e-05 -1.5293e-05 
-7.84528e-06 0.000617361 0.00181306 2.07991e-05 4.63694e-05 0.0448342 0.000263264 0.0422879 0.0114982 
0.010595 0.0116451 0.0110062 0.113086 0.113516 0.113579 0.0144179 -0.00377808 -0.00380196 
-0.00418856 0.032905 6.20531e-05 0.0516985 0.0570806 0.00561272 -0.00313071 -0.00274026 0.0243989 
0.0405708 0.00655649 0.00665391 -0.00259152 0.00587502 0.00708216 -0.00243505 0.00497321 0.00578603 
0.00578118 0.00358128 0.112954 0.0580457 -5.30528e-05 0.0454937 0.0356893 0.0210111 0.0192726 
-0.00761774 -0.0143207 0.102385 0.000502643 0.011377 0.0108715 0.00937875 0.0117022 -0.0063197 
0.0909081 0.0272317 0.0262387 0.00327214 -0.000512961 -0.00103464 0.00228458 0.000124226 0.000892628 
0.0037293 0.00299445 0.120042 0.00742775 0.0103112 0.112542 0.119245 -0.00508904 0.106366 
0.102449 0.0288266 0.0250542 -0.000273991 0.000145424 -0.0053974 -0.0027371 -0.00520055 -0.00502317 
-0.00105022 0.00571686 -4.84375e-05 0.110355 0.109384 0.096313 0.0199415 0.00116729 0.000851651 
0.0349207 0.0405765 0.00910581 0.000310628 0.0050717 -0.00291633 -0.00278386 0.0314051 0.00588099 
0.0141834 -0.00074479 -1.95745e-05 -2.09613e-05 0.00945788 4.56986e-06 -9.79057e-06 -0.0300664 0.113991 
0.113386 0.112262 -0.00280638 -0.00312274 0.10349 0.0176015 0.0161414 0.0211094 0.0891294 
0.0167984 0.00431304 0.00173584 0.0197621 0.0156362 0.0144517 0.0174143 0.00232895 0.0208658 
0.0101651 -0.000119421 -0.0075489 0.00313854 0.00301836 0.00246578 0.0031083 0.00377835 0.101853 
0.0010789 -0.000433652 0.0113164 0.00457003 0.0195253 0.0122708 -0.000769808 -0.00101026 0.010833 
0.0568054 0.000798113 -1.55709e-06 0.0665841 0.0535695 -0.00637483 -0.003099 0.00181968 0.0906061 
0.1038 0.012939 0.0137368 -0.00026717 -0.000120483 -0.000285993 0.0130508 0.0124918 0.00393857 
0.000205869 -0.000874111 9.70444e-05 -0.000350623 0.000393944 -1.98467e-06 7.35533e-05 0.0677436 0.0756493 
-3.66249e-06 -9.48446e-06 -0.000984794 -4.04492e-06 0.000148052 0.00270589 0.00199754 -0.00396347 -0.0044099 
0.0114276 0.0107425 -0.00568914 0.00994617 0.00996075 0.00738776 0.0156203 0.0431153 0.0812958 
0.000114328 0.00021438 0.0321616 -0.00399453 0.0127495 0.000131843 -0.00116439 -0.000254828 -0.000263621 
0.00270073 0.00272932 0.00180752 -0.00270183 0.00151403 0.0256665 0.0266153 0.000471092 0.00050972 
0.00574884 0.00786312 -0.00031228 -0.000188314 -0.000211854 0.00238321 0.00294884 -1.62187e-05 -0.00121582 
0.00607983 0.00377218 0.00176614 -0.000401956 8.05338e-05 0.00219873 0.00147708 0.00141936 -0.000139032 
-0.00163511 -0.000762895 -0.000759639 0.00321339 0.0378526 -0.000117857 0.00129997 0.000159724 0.00624736 
0.0152002 0.00530541 -0.000418702 0.00242404 -0.000872365 -5.04028e-05 2.16261e-05 3.15567e-05 9.40696e-05 
0.000484906 -0.0244844 3.92163e-05 0.0940778 -0.000872062 -0.000633451 0.035482 0.102268 0.097789 
0.0891678 0.0257121 0.0213422 0.0303525 0.00789549 0.034054 0.0373465 0.027821 0.0351129 
-0.00489726 -0.00472222 0.000931523 0.0357064 0.0548962 0.000172919 0.000172703 0.0551743 0.0582569 
0.0827774 -0.00114005 0.0766047 0.00289686 0.00053862 0.0339603 0.0314125 0.0354958 0.00729398 
0.00970194 -0.00646338 -0.00200976 0.113065 -0.00319072 0.0094185 -0.00270244 0.0314483 1.61028e-05 
0.0114919 0.00880776 0.00988092 0.00444412 0.00128792 0.00132643 0.00211975 0.00242292 -0.00108759 
-0.00138378 0.00364255 -0.00518209 -0.00596647 0.00207194 -0.0430676 0.0249211 0.0756732 0.0546549 
0.0228149 0.0543107 0.00623096 -0.0228844 0.0103474 0.0706452 0.00159956 0.00982695 0.00606741 
0.00665605 0.0213011 0.00604469 -0.000849554 -0.000370866 -0.00581813 0.00292695 0.00594981 0.0055164 
0.0175125 -0.38779 0.00833743 -0.0124465 0.00600632 0.00263039 0.0034292 0.00421334 -0.000767464 
0.00721497 0.00656926 0.000731587 0.00701857 5.36897e-06 -7.78924e-05 -7.03308e-06 0.0114826 0.012943 
0.0481284 0.0483677 0.0309626 0.00942376 -0.00163869 -0.000977119 0.00275644 0.103516 0.033067 
0.00134063 0.0287163 0.00696421 0.00644275 -0.0214408 0.060849 -0.00124856 -0.00304785 0.029897 
0.000494846 0.0057341 0.0250308 0.005185 0.0339257 -0.0208208 0.0235405 0.0253888 0.0168192 
0.0182596 0.0216419 0.0229415 0.0195013 0.0206568 0.0147105 0.00228016 0.00157938 -0.00382735 
-0.00108245 -0.00715001 0.0103331 0.0369265 -1.28042e-05 8.44857e-06 -3.64046e-05 -0.000471706 0.00204926 
-0.00565283 -0.152611 -0.00062972 0.0111831 0.00351208 -0.000481344 0.0420129 -0.0205616 -2.15776e-05 
-0.000911644 -0.00730428 -0.0189078 -0.01381 0.00217596 -4.01059e-05 0.0686608 -0.000280794 -1.73315e-05 
-0.00101 0.0140471 0.0720819 0.0408479 0.056424 0.0151411 0.0141361 -0.00189198 -0.000511507 
0.000444988 0.00704139 0.00195581 0.00431745 -0.00128556 0.00298799 0.00126169 0.0596543 0.0677734 
0.034288 0.0373309 0.0289653 0.0885281 -0.000362851 0.0142792 0.0457142 0.00342461 0.0094523 
0.00296813 0.0126578 0.0162933 0.0532645 0.0964949 0.0464444 0.000295231 0.0129225 0.00189054 
0.00263374 -0.00124056 0.00999626 0.0159602 0.0166931 0.0286573 -0.00348486 0.0585308 -0.000137682 
0.0187985 0.0237164 0.0145994 0.0744406 0.0319731 -0.00132987 -0.0012049 -0.000740624 -6.69638e-05 
0.042526 0.0104794 0.016491 0.00213789 0.00238507 0.00179425 0.00104373 0.0130435 -0.00562457 
-0.000443281 0.00117351 0.00163741 -0.00280631 -0.00183341 0.000202149 -0.000763846 5.85802e-05 0.0789702 
0.103098 0.113707 0.00589343 0.00147971 0.0326257 -0.00226266 0.000997242 0.000923722 -0.00536955 
0.00130777 0.00048686 -0.00352876 -0.000707693 -3.22472e-05 -3.3814e-05 0.00010068 0.0280649 0.0236427 
0.00266892 0.00914666 -0.00341182 -0.00661781 0.0536249 -0.000446022 0.0739346 -3.17552e-05 0.13718 
0.106128 0.114877 -7.26239e-05 0.0146363 0.00157827 -0.000630095 0.00122457 0.00182434 -0.00016833 
-0.0122918 0.101357 0.137355 0.0237957 0.0111932 0.0897704 0.0619262 -3.29534e-05 -0.000614187 
-0.00432307 0.101783 -0.00674328 0.101431 0.0755028 0.0134341 0.101769 0.0762889 0.0734943 
-0.00178041 0.0101098 0.0141364 2.96754e-05 -0.00403305 0.0349808 -0.00451015 -0.00503854 -0.00135842 
0.000735445 0.00577141 0.0517309 0.0125344 0.0220481 0.00157139 0.00549552 0.0184683 -0.00357673 
-0.00317153 0.0597577 0.00740697 -0.000126023 -0.00466054 0.0045141 0.00704722 0.0458682 -0.00383132 
0.0212577 0.00813657 0.0213452 0.0329181 0.0112516 -0.00297675 0.00559681 6.51844e-06 0.0035687 
0.000897629 0.0209481 8.73295e-05 0.00141697 -0.00176252 0.0262509 0.0354221 0.00810318 0.091939 
0.111935 -0.00177956 0.000267879 0.0191807 0.00380901 -0.0327809 0.00456804 0.00104568 -0.000787737 
0.00473365 0.00944764 0.0147939 -0.00197076 -0.00160865 -0.00183194 0.00689193 0.00841194 0.0076406 
-0.00210038 0.0223221 0.034861 0.00468258 -7.39205e-05 -0.363232 -0.407574 
Stress%20xy%20component 1 12526 double
-0.221841 -0.250342 0.225925 0.250573 -2.42023e-05 -9.53922e-06 1.35094e-05 1.21872e-05 -0.0377708 
-0.0385917 0.0515655 0.02986 -0.0504172 -0.00696786 0.0288798 0.0328258 -0.128977 -0.0890815 
-0.0733592 -0.0608492 -0.047262 -0.0404807 -0.0340911 -0.028922 -0.0239291 -0.0192186 -0.0135452 
-0.00782013 -0.00240598 0.00332002 0.00877987 0.0139496 0.0185922 0.0233327 0.028459 0.0343506 
0.0405949 0.0469588 0.0535745 0.0601124 0.0686186 0.0796441 0.126756 -0.117278 -0.084231 
-0.0729665 -0.063624 -0.058824 -0.0524099 -0.0445836 -0.0370427 -0.0296391 -0.0234989 -0.0178986 
-0.0117403 -0.00589983 -1.22967e-05 0.00577902 0.0123025 0.0188701 0.0255301 0.0320753 0.038962 
0.0462507 0.0542914 0.0634801 0.0748824 0.0877958 0.117126 2.72525e-05 6.14633e-07 -1.24103e-06 
-1.23694e-05 -1.79815e-05 -2.26008e-05 -2.60916e-05 -2.74134e-05 -2.89063e-05 -2.20198e-05 -5.10235e-06 -3.38498e-06 
6.92924e-06 1.21225e-05 1.64413e-05 1.86497e-05 1.52701e-05 2.3246e-05 1.04677e-05 1.56432e-05 1.98681e-05 
2.51263e-05 2.61182e-05 2.31082e-05 8.10803e-06 4.00358e-06 -2.8067e-05 0.0136954 -0.00105749 -0.000342402 
-0.000274318 -0.00027185 -0.000243232 -0.000215199 -0.00016024 -0.00013355 -0.000115445 -8.3203e-05 -5.63337e-05 
-3.06904e-05 -1.6533e-05 -6.41999e-06 -5.76226e-05 -0.000116121 -0.000219398 -0.000284874 -0.000356358 -0.000377678 
-0.000275145 -1.65839e-05 0.000164876 0.000274869 0.000308687 0.000236462 0.00017502 0.000103292 3.81549e-05 
-1.30477e-05 -3.51293e-05 -4.20711e-05 -5.65048e-05 -5.6338e-05 -5.40483e-05 -5.04973e-05 -4.79426e-05 -4.29377e-05 
-4.24924e-05 -4.1314e-05 -3.66473e-05 -2.27506e-05 -2.91864e-07 3.6654e-05 -3.0898e-05 1.07767e-05 1.08387e-05 
2.07214e-05 2.20475e-05 3.0536e-05 3.20163e-05 3.60805e-05 3.81183e-05 3.40079e-05 4.77947e-05 3.23561e-05 
3.22917e-05 1.50218e-06 -6.17656e-06 2.95641e-05 -3.76359e-05 5.63829e-06 -0.000140516 -0.00033119 -0.000393295 
-0.000277585 -0.000310817 9.82741e-05 0.000170561 0.000309377 0.000253609 0.000229112 0.000142699 3.68089e-05 
3.63113e-06 2.06113e-06 2.36016e-05 4.34657e-05 5.83193e-05 9.58467e-05 0.000129928 8.37743e-05 0.000152437 
0.00040752 0.000551556 0.000862381 0.00224271 0.00235351 -0.0144241 0.074026 0.0202545 0.0131922 
0.00836324 0.00614045 0.00259423 0.000534822 -0.00210747 -0.00336333 -0.00965943 -0.0159995 -0.0244852 
-0.0548357 0.0736827 0.0312472 0.023339 0.0158266 0.0116791 0.0114048 0.00359387 -0.00129477 
-0.00721206 -0.0135912 -0.0227035 -0.0444009 -0.0848836 1.62637e-05 1.50061e-06 -2.27678e-05 -2.03416e-05 
-2.06417e-05 -1.92964e-05 -1.75695e-05 -1.53442e-05 -1.22711e-05 -1.05328e-05 -2.24009e-05 -4.77098e-06 -1.74648e-05 
-9.66481e-06 -6.48614e-06 -4.3672e-06 1.37909e-05 8.55273e-06 2.4392e-05 2.46539e-05 2.5587e-05 2.00755e-05 
1.45518e-05 4.02893e-06 5.74427e-06 -7.0745e-06 -2.86912e-05 -0.0164251 -0.00992398 -0.00214859 -0.00103614 
-0.000611524 -0.000362626 -0.000261351 -0.000168972 -0.00015053 -0.00010223 -7.86231e-05 -6.84615e-05 -6.39806e-05 
-7.05662e-05 -9.4801e-05 -0.000130529 -0.000176719 -0.000220289 -0.00031345 -0.00037278 -0.000341064 -0.000166919 
5.00168e-05 0.000223139 0.000322972 0.000330478 0.000252573 0.000166907 9.19451e-05 -5.90737e-06 -1.83717e-05 
-2.58337e-05 -3.41328e-05 -2.5602e-05 -2.53733e-05 -2.20515e-05 -2.09848e-05 -1.5788e-05 -1.22838e-05 -8.52947e-06 
-2.91331e-06 2.78813e-06 9.16346e-06 2.63389e-05 3.98163e-05 -3.13647e-05 -1.74812e-05 -8.13124e-06 -2.31762e-06 
2.01019e-06 9.30367e-06 1.23551e-05 1.69234e-05 2.35702e-05 4.1722e-05 3.2098e-05 5.49106e-05 3.9431e-05 
7.48941e-05 7.72005e-05 -1.58543e-06 -6.66744e-05 -0.000200973 -0.000280311 -0.000280927 -0.000275024 -0.00017056 
0.000178195 0.000228126 0.000459134 0.000345105 0.000204151 0.000120843 0.000133948 6.94169e-05 0.000113656 
8.30875e-05 6.82778e-05 8.58936e-05 0.00011411 0.000102471 0.000160811 0.000311454 0.000311133 0.000195264 
0.000280194 0.000275204 0.000562895 0.0027459 -0.00131439 0.0635415 0.0300047 0.0146904 0.00936275 
0.00532689 0.000716906 -0.00227119 -0.00355316 -0.00588839 -0.0099256 -0.0139277 -0.0272085 -0.0774908 
0.0716019 0.0343825 0.0221076 0.0127113 0.00588407 -0.00281675 -0.00325406 -0.00706294 -0.0113907 
-0.0167654 -0.022054 -0.0285352 -0.0596436 -0.000127683 -0.000327341 -0.000522948 -0.000702808 -0.00082501 
-0.000858533 -0.000853183 -0.00080715 -0.000716296 -0.000595718 -0.000437122 -0.000280796 -0.000100543 8.27256e-05 
0.000259604 0.000438338 0.000571913 0.000684833 0.000765307 0.000819708 0.00083996 0.000801931 0.000687157 
0.000520655 0.000329788 0.000162957 2.61377e-05 0.0695223 0.0281578 0.0147334 0.00829366 0.00489053 
0.00257951 0.00114497 0.000228405 -0.000437066 -0.000861883 -0.00122101 -0.00155431 -0.00192325 -0.00248267 
-0.0033086 -0.00429686 -0.0054234 -0.00660558 -0.00730902 -0.00693618 -0.00504162 -0.00216926 0.00123192 
0.00388528 0.00513956 0.0049596 0.00406633 0.00278074 0.00155018 0.000553831 -0.000155168 -0.000683805 
-0.00100511 -0.00120991 -0.00128555 -0.00133661 -0.0013123 -0.00122111 -0.00109322 -0.00095012 -0.000815002 
-0.000618116 -0.000394934 -0.000165214 0.000347017 0.000536755 0.000738558 0.000916783 0.00106479 0.00119711 
0.00126168 0.00126458 0.00123037 0.00113267 0.000903705 0.000595311 9.20626e-05 -0.00066512 -0.00169623 
-0.0028262 -0.00411098 -0.00494173 -0.00502683 -0.00335708 -0.000310686 0.00306012 0.00547668 0.00688197 
0.00663443 0.00570348 0.00465355 0.00360576 0.00289149 0.0022262 0.00172815 0.00135162 0.00102911 
0.000663264 0.000203564 -0.000433615 -0.00145518 -0.0029448 -0.0057007 -0.00945763 -0.0161189 -0.031017 
-0.0769399 -0.098261 -0.0814406 -0.0699411 -0.0599878 -0.0480845 -0.0416518 -0.0342726 -0.0280398 
-0.0218666 -0.0159268 -0.0100684 -0.00421013 0.00103376 0.00688432 0.0116579 0.0171694 0.0227164 
0.0287506 0.034556 0.041786 0.048604 0.0563025 0.0658804 0.0779505 0.0900751 0.0119176 
0.032935 0.0252114 0.0175561 0.0110446 0.00690544 0.00298143 -0.00023294 -0.00350426 -0.00702535 
-0.0115412 -0.0186018 -0.0288502 -0.00179593 0.00365889 0.0172612 0.0324231 0.0242303 0.0159811 
0.00901427 0.00271606 -0.000887991 -0.00535691 -0.0105004 -0.0153977 -0.0213455 -0.0288805 -0.0371929 
-0.004211 0.0114238 0.00944667 -0.0292334 0.0271992 -0.038578 -0.000406924 -0.000766563 -0.00111193 
-0.00137183 -0.00152484 -0.00157075 -0.00149777 -0.00135097 -0.00115347 -0.00091056 -0.00062879 -0.000327244 
-5.06816e-06 0.000324318 0.000648768 0.000915701 0.00113876 0.0013349 0.00147343 0.00154137 0.00150711 
0.00137534 0.00114681 0.000856421 0.000543364 0.0127945 -0.0741463 0.0389096 0.0240856 0.0154228 
0.00991756 0.00570301 0.00283904 0.00107341 -0.00013968 -0.00113003 -0.00198953 -0.00273938 -0.003646 
-0.00472804 -0.00620315 -0.00787609 -0.00984153 -0.011583 -0.0118808 -0.0105851 -0.00691003 -0.0011446 
0.0044554 0.00774685 0.00833604 0.00705473 0.00518253 0.00326927 0.00157791 0.000230636 -0.000793532 
-0.00147615 -0.00192121 -0.00218511 -0.00232384 -0.00235397 -0.00224768 -0.00209073 -0.00185247 -0.00161025 
-0.00132526 -0.000979879 -0.000554759 0.0147102 0.0703552 0.000830239 0.0011994 0.00155616 0.00185052 
0.00206624 0.00218897 0.00224514 0.00220142 0.00203599 0.00174476 0.00123797 0.000489928 -0.000536699 
-0.00204164 -0.00376488 -0.005764 -0.00750199 -0.00834251 -0.00681315 -0.00225812 0.00316115 0.00826173 
0.0112615 0.0115469 0.0100818 0.00823277 0.00665352 0.005291 0.00410461 0.00312198 0.00229191 
0.00152912 0.000691132 -0.000330609 -0.00178907 -0.00381005 -0.00655823 -0.0113888 -0.0176189 -0.0277023 
-0.0459348 -0.0681729 -0.0606251 -0.0531026 -0.0457804 -0.039025 -0.0326846 -0.0262681 -0.0201293 
-0.0147932 -0.00889463 -0.00341942 0.00191923 0.00734911 0.0129149 0.0188461 0.0245629 0.0307576 
0.0371166 0.0441683 0.0512159 0.0586094 0.0673547 0.0135249 -0.0162397 0.00642352 0.00964959 
0.00631617 0.00311093 -0.000293082 -0.00372884 -0.00708259 -0.0102155 -0.0130682 -0.0130067 -0.00482094 
-0.000872669 0.0187242 0.00651189 -0.0192956 0.00948952 0.0134532 0.00895581 0.00422427 0.000215649 
-0.00408392 -0.00885396 -0.0129577 -0.0164199 -0.0161548 -0.00690184 -0.0106277 0.0168978 0.0178733 
-0.0170977 0.000375897 0.0270054 0.015226 0.0143083 -0.0263659 0.0035128 -0.00170393 -0.0020023 
-0.00212741 -0.00212954 -0.00199312 -0.00173373 -0.00140782 -0.00105377 -0.000660586 -0.000222007 0.000229102 
0.000692022 0.00107917 0.00143384 0.00173325 0.00195634 0.0020864 0.00211036 0.00200465 0.00176401 
0.00140439 0.00551219 0.00676534 0.0403745 0.0286274 0.0195898 0.013139 0.00780048 0.00430835 
0.00205954 0.000278772 -0.00121546 -0.00243477 -0.00356942 -0.00486655 -0.00642778 -0.00824437 -0.0105619 
-0.0131453 -0.0154136 -0.0150618 -0.0137311 -0.0067673 0.00338317 0.00910052 0.0109263 0.00942027 
0.00691582 0.00437346 0.00230446 0.000541142 -0.000749807 -0.00170751 -0.00235262 -0.0027775 -0.00302541 
-0.00310225 -0.00303674 -0.00287783 -0.00264159 -0.00233246 -0.00200825 -0.00165671 -0.00120219 0.05513 
0.0030467 0.00651642 0.00190493 0.0023236 0.00265592 0.00286602 0.00300307 0.00298172 0.00284635 
0.00254907 0.00205146 0.00132191 0.000243879 -0.00123496 -0.00322678 -0.0055112 -0.00786051 -0.0101337 
-0.0106707 -0.00631155 0.00213162 0.00904025 0.0147907 0.0155686 0.013459 0.010873 0.00880165 
0.00710964 0.00547882 0.00405305 0.00282293 0.00167635 0.000359971 -0.00134239 -0.00338428 -0.00608248 
-0.0098231 -0.01583 -0.022859 -0.0316246 0.00150197 -0.0552101 0.0149643 -0.0500567 -0.0439115 
-0.0382105 -0.032976 -0.027083 -0.0214051 -0.0162837 -0.011067 -0.00583058 -0.000648112 0.00438225 
0.009731 0.0148827 0.0202889 0.0259969 0.0316157 0.0374666 0.0432439 0.048204 0.0529369 
0.00624728 0.00121725 -0.00111934 -0.00348533 -0.00546546 -0.00670139 -0.00588174 -0.00227028 0.00122751 
0.00517421 -0.0177542 -0.00595893 -0.005679 0.0146936 0.00809852 -0.00189704 -0.00530721 -0.00816027 
-0.00973386 -0.00927051 -0.00604602 -0.0150665 0.00517702 -0.000457814 -0.0132845 0.00141698 -0.0465866 
0.0196608 0.000952032 -0.0123219 -0.000784381 0.00951036 0.0032386 -0.00129375 -0.0197229 0.010118 
0.0110108 -0.0025676 -0.00265982 -0.00258118 -0.00231765 -0.00194936 -0.00151311 -0.00105933 -0.00054808 
-1.69064e-06 0.000571067 0.00111836 0.00156913 0.00198025 0.00231939 0.00253497 0.00262785 0.00257508 
0.00235174 0.00195523 0.00220666 0.00268218 -0.00963974 0.0296957 0.0210623 0.0140786 0.00878878 
0.00529006 0.00269185 0.000588422 -0.00110485 -0.00250927 -0.00389883 -0.00537654 -0.00704643 -0.00900594 
-0.0113851 -0.0153489 0.0074395 0.00459026 0.00226135 0.000368048 -0.00102679 -0.00202232 -0.00270947 
-0.00322265 -0.00354818 -0.00367491 -0.00363173 -0.00347994 -0.0032429 -0.00293401 -0.00254531 -0.00229063 
-0.0431571 3.5347e-05 0.00120376 0.00295199 0.00327561 0.00348404 0.00356316 0.00351081 0.00329396 
0.00289641 0.00230008 0.00144885 0.000324542 -0.00135944 -0.00345619 -0.00696121 0.014828 0.0122036 
0.0100695 0.00803488 0.00614069 0.00448601 0.00298531 0.00147687 -0.000141132 -0.00227612 -0.00478153 
-0.00799513 -0.0122085 -0.0172295 -0.0269092 -0.0328119 -0.00213183 0.00383889 0.00225015 -0.0388107 
-0.0349451 -0.0310061 -0.0264733 -0.0216819 -0.0168912 -0.012381 -0.00767908 -0.00300899 0.00152761 
0.00639998 0.0110839 0.0157416 0.0206498 0.0256935 0.0306097 0.0352343 0.0379675 -0.0011997 
0.0111993 -0.00239587 -0.00293516 -0.00220443 -0.000451566 -0.00026099 0.00247566 0.000208309 -0.00551411 
-0.00543576 -0.00447746 -0.00462582 0.0403629 0.00163067 -0.00425155 0.00100703 0.00442101 0.00593042 
0.00250194 0.00593266 0.00331872 0.00416903 -0.00104937 -9.81457e-05 -0.00307676 -0.00289429 -0.0025084 
-0.00200105 -0.00146396 -0.000936027 -0.000406698 0.000297198 0.000991269 0.00157405 0.00210226 0.00253085 
0.00285187 0.00301171 0.00304225 0.00290312 -0.00103358 0.0197383 0.0134247 0.00875254 0.00549869 
0.00284023 0.000822285 -0.000881335 -0.00231178 -0.00363394 -0.00505885 -0.00671268 -0.00762964 0.0016165 
-0.000330593 -0.00174916 -0.00266913 -0.00325802 -0.00351526 -0.00385702 -0.0039936 -0.00397166 -0.00383915 
-0.00362828 -0.00330597 -0.00286316 0.00337854 -0.000813143 0.00369568 0.00385922 0.00391525 0.00384118 
0.00360447 0.00319127 0.00255433 0.00199703 0.000947698 -0.000653666 -0.000396068 0.00930538 0.00590517 
0.00424936 0.00279472 0.00113697 -0.000645965 -0.00280658 -0.0056372 -0.00907821 -0.0136291 -0.0197251 
-0.0267442 0.00252163 -0.0239057 -0.0203259 -0.0161948 -0.0122277 -0.0081788 -0.00467034 -0.00068064 
0.00336565 0.00708063 0.0112933 0.0155515 0.0198959 0.0240473 0.0281478 0.000105834 0.00110301 
0.00536477 0.0281576 -0.00313898 0.000285263 -0.00013004 -0.00282414 -0.00291346 -0.00308261 -0.000166125 
-0.00259662 0.00354411 -0.00174624 0.000205731 -0.00104196 0.000106953 0.00263286 -0.00112166 0.00217275 
-0.000813612 -0.00473108 0.00235557 0.00188881 0.0224567 -0.00304503 -0.00181847 -0.00112524 -0.00027835 
0.000649088 0.00145369 0.00210289 0.00263978 0.00308204 0.00332198 0.00335195 0.0165405 -0.00142459 
0.0115709 0.00795863 0.00506667 0.0027857 0.000887569 -0.000659671 -0.0019761 -0.00311356 -0.00230451 
-0.00314524 -0.0036227 -0.00389761 -0.00402901 -0.00400909 -0.00390616 -0.00372624 -0.00346531 -0.00166376 
0.00156483 0.002059 0.000534418 0.00386283 0.0039872 0.00403222 0.00396962 0.00376172 0.0033132 
0.00267441 0.000679281 0.00211732 0.000908055 -0.000822447 -0.00290582 -0.00560404 -0.00889243 -0.0134212 
-0.0195162 0.00106682 -0.0174791 -0.0142765 -0.0109765 -0.007424 -0.00317371 0.00220919 0.00672885 
0.0105986 0.0145193 0.018568 -0.0012681 0.00151764 -0.00247472 -0.00160454 -0.00113031 -0.00338203 
-0.00224909 0.00363884 -0.00229177 5.86946e-05 0.0027743 -0.00106277 0.00345887 0.00020332 -0.000453686 
0.000496918 -0.00104356 0.000169745 0.00128087 0.00200859 0.002679 0.00323468 0.00356766 0.00282637 
0.00933538 0.00665728 0.00444144 0.00236791 0.000719841 -0.000660271 -0.0117092 -0.00335425 0.00185131 
-0.00361085 -0.00370155 -0.00371243 -0.000852974 0.00380903 0.00390429 0.00371115 0.00318121 0.00338372 
0.0133308 -0.000531085 -0.00144463 0.00062703 -5.8378e-05 -0.0024612 -0.00467513 -0.00771099 0.00248559 
-0.00904029 -0.00644006 -0.0039509 0.00334785 0.00152608 -0.00353411 -0.00199248 -0.000128696 -0.000769845 
-0.00284707 -0.00295045 0.000541339 0.00372008 -0.00364814 -0.00260581 0.00384315 -0.0001404 -0.000421416 
0.00663371 0.0098811 -2.23659e-05 0.000251914 -0.00280137 0.0033765 0.00228875 -0.00488037 -0.00310965 
-0.00021438 0.00117641 0.00238086 0.00327093 -0.00160558 0.0061983 -0.000446251 0.00337866 0.00146089 
-0.00226865 -0.00292875 -0.00280105 0.000193354 -0.00155448 0.00149429 0.000624822 0.00331696 -0.000600306 
0.003702 0.00156228 -0.00131369 0.000465949 -9.79665e-05 -0.000341887 -0.000543288 -0.000693485 -0.000783891 
-0.000846625 -0.000858457 -0.000836422 -0.000724467 -0.000591094 -0.000439672 -0.000258639 -6.78631e-05 0.000113404 
0.000298326 0.00046555 0.000619323 0.000744784 0.000836396 0.000882474 0.000880991 0.000855893 0.000737974 
0.000561045 0.000348352 0.000131009 -1.21981e-05 0.0817678 0.0319136 0.0186687 0.0107792 0.00591444 
0.003205 0.00156532 0.000446675 -0.000195036 -0.000740364 -0.00111204 -0.0014941 -0.00196877 -0.00256998 
-0.00335419 -0.00436448 -0.00553562 -0.00674428 -0.00759244 -0.00764574 -0.00628852 -0.00343913 7.24406e-05 
0.00330048 0.00501753 0.00538517 0.00471944 0.00340156 0.00209978 0.000897198 5.02448e-05 -0.000514439 
-0.00092013 -0.00118291 -0.00132734 -0.00139737 -0.00133032 -0.00125853 -0.0011572 -0.00101988 -0.000874586 
-0.00064932 -0.000388682 0.000172109 0.000347952 0.000567148 0.000744426 0.000914174 0.00103052 0.00116038 
0.00121949 0.00122813 0.00123377 0.00112215 0.00089328 0.000522379 -1.45722e-05 -0.000745107 -0.00167921 
-0.00270127 -0.00384759 -0.00462286 -0.00470681 -0.00336093 -0.000680736 0.00274784 0.00558691 0.0068733 
0.00652344 0.00567214 0.00468015 0.00368377 0.00277307 0.00216413 0.00164259 0.0013387 0.00102925 
0.000686848 0.000247583 -0.000438035 -0.00141071 -0.00281531 -0.00470245 -0.00799331 -0.014165 -0.028098 
-0.0630912 -0.0938195 -0.0819467 -0.0702649 -0.0596508 -0.0523501 -0.0472122 -0.0397993 -0.0336539 
-0.0271445 -0.0205698 -0.0147822 -0.00925012 -0.00331685 0.00166696 0.00722705 0.0129125 0.0191942 
0.0253881 0.0317101 0.0382576 0.0457043 0.0535078 0.0623805 0.0723346 0.0864393 0.102808 
0.00966766 0.0253243 0.0190642 0.0123055 0.00725104 0.00317941 -0.000734231 -0.00337062 -0.00768416 
-0.0117163 -0.0168477 -0.0225406 -0.0269919 -0.00985058 -0.00926692 0.00725695 0.0334479 0.0276668 
0.021803 0.015304 0.00990932 0.00604378 0.000642919 -0.00470447 -0.00965156 -0.0160695 -0.0234207 
-0.03177 -0.0105004 -0.00308112 0.0393883 -0.000141625 0.0213736 -0.0136233 -0.0297563 -0.000869247 
-0.00047778 -0.00132492 -0.00148124 -0.00155274 -0.00150667 -0.00139731 -0.00119538 -0.000944578 -0.000656892 
-0.000324701 2.41493e-05 0.000368397 0.000698513 0.00098376 0.0012344 0.00143422 0.00155634 0.00161332 
0.00155598 0.00141333 0.00118801 0.000875393 0.000520013 0.0300837 0.000595395 0.0103495 0.0476609 
0.0720938 0.0183833 0.0109512 0.00652622 0.00373585 0.00172411 0.000236574 -0.000909467 -0.001759 
-0.00260118 -0.00357789 -0.00474468 -0.00620045 -0.00795268 -0.0098165 -0.0114977 -0.0126649 -0.0123413 
-0.00871885 -0.00302739 0.00295188 0.00713952 0.008601 0.0080606 0.00616685 0.00402481 0.00209395 
0.000561494 -0.000509043 -0.00133639 -0.00191804 -0.0022563 -0.00240553 -0.00243028 -0.00235653 -0.00223093 
-0.00196865 -0.00169079 -0.0013515 -0.000938931 0.00808566 -0.000781269 0.000927583 0.00126078 0.00155086 
0.00183163 0.00205981 0.00218325 0.00225534 0.00223306 0.00207391 0.00174848 0.00123151 0.000423644 
-0.000637461 -0.00206465 -0.00372013 -0.00556182 -0.00702477 -0.00761433 -0.00656367 -0.00316371 0.00242276 
0.00808792 0.0114333 0.011541 0.010296 0.00881238 0.0069897 0.00540311 0.00411031 0.00307554 
0.00227692 0.00152643 0.000765519 -0.000319606 -0.00172736 -0.00373945 -0.00680912 -0.0106614 -0.015844 
-0.0250598 -0.0427834 -0.0717513 0.000672548 -0.0605494 -0.0656441 -0.0528551 -0.0454043 -0.0386633 
-0.0320783 -0.0265407 -0.0209424 -0.0152306 -0.00978301 -0.0045692 0.00083097 0.00588787 0.0112445 
0.0164119 0.0216511 0.0273225 0.033395 0.0395143 0.0461299 0.0529089 0.0590415 0.065574 
0.020443 0.005897 -0.0215063 0.0128293 0.0121448 0.00949536 0.00614009 0.00316188 0.000235254 
-0.00295155 -0.00620634 -0.00945486 -0.0123687 -0.0127409 -0.00446356 -0.00650905 -0.0192483 0.0172258 
0.0161831 0.0123469 0.00884392 0.00447651 -2.30323e-05 -0.00462155 -0.00932978 -0.0134974 -0.0172197 
-0.0179886 -0.0104622 0.0112891 -0.001143 0.010872 0.0183879 0.0230142 -0.012409 0.00125731 
-0.0151937 -0.0217656 -0.00211075 -0.00196161 -0.00198331 -0.00175568 -0.00147463 -0.00110659 -0.000672102 
-0.000226401 0.000268852 0.000731462 0.0011648 0.00152862 0.00182087 0.0020509 0.00218376 0.00218674 
0.00206392 0.00181984 0.00146331 0.00102859 -0.00897194 0.0137523 0.0216639 -0.00509154 0.0335995 
0.00558938 0.00910644 0.00546274 0.00280467 0.000709349 -0.00090303 -0.00195711 -0.00315194 -0.0045093 
-0.00597619 -0.00776719 -0.00997855 -0.0126356 -0.0147246 -0.0167373 -0.00891814 0.00944197 0.0103391 
0.00769638 0.00503392 0.00285586 0.000986369 -0.000487019 -0.00160246 -0.00234464 -0.00283334 -0.00308687 
-0.00318325 -0.00314692 -0.00300385 -0.00276893 -0.00243566 -0.0020237 -0.00150104 -0.00662977 0.00958828 
0.00193103 0.002342 0.00266631 0.00287459 0.00300362 0.00302608 0.00288179 0.00258041 0.00205912 
0.00127323 0.000207323 -0.00127106 -0.00328701 -0.00554528 -0.00781618 -0.00939592 -0.00949573 -0.00842482 
-0.000200022 0.00772555 0.0155281 0.0157501 0.0134459 0.0116391 0.00936612 0.00730445 0.00558892 
0.00413451 0.00287874 0.00177096 0.000560852 -0.000958905 -0.00303908 -0.00590584 -0.0100288 -0.0157512 
-0.0224368 -0.0291686 -0.0433662 0.00185128 -0.0482437 -0.043948 -0.00207236 -0.0151882 -0.00103038 
-0.00211717 -0.0387519 -0.0332824 -0.0276996 -0.0225343 -0.0172122 -0.0121809 -0.00725549 -0.00227295 
0.00276643 0.00766632 0.0127055 0.0176705 0.0224223 0.0276651 0.0332055 0.0386752 0.0437546 
0.0454712 0.0490949 0.0140176 0.0057694 0.00626671 0.00519234 0.00323208 0.000936894 -0.00145617 
-0.00344307 -0.00522221 -0.00652875 -0.00571029 0.00150103 0.00917448 0.00932879 0.00772386 0.00510714 
0.00179643 -0.00174262 -0.00506028 -0.00793612 -0.0100065 -0.0100636 -0.00738116 0.0023534 0.00706587 
-0.00167386 0.00780369 -0.0153286 -0.0158664 0.000592785 0.0105109 -0.00941424 0.00131968 0.0188574 
-0.00178096 0.0133305 -0.052175 -0.00253354 -0.001633 -0.00112553 -0.000579135 2.33516e-05 0.000611488 
0.00117017 0.00167342 0.00208085 0.0024144 0.00262888 0.00271206 0.00265389 0.00243 0.00203061 
0.0216916 -0.00574167 0.0151633 0.0317116 0.0100049 0.00666784 0.0102236 0.000393357 -0.00154026 
-0.00296454 -0.00441651 -0.00589828 -0.0075736 -0.00964985 -0.0371492 0.000851352 -0.000798643 -0.00196139 
-0.00272945 -0.00326092 -0.00355399 -0.00368484 -0.00368022 -0.00355974 -0.00334595 -0.00304031 -0.00264116 
-0.00214331 0.00440657 0.00694679 0.00297103 0.0032816 0.0034808 0.00357871 0.00353537 0.00333958 
0.00295781 0.0023414 0.00143796 0.000279076 -0.00136658 -0.00355378 -0.00669461 0.0142319 0.0106836 
0.00813041 0.00614363 0.00454682 0.00314263 0.00178401 0.000301069 -0.00150665 -0.00403069 -0.00721901 
-0.011697 -0.0183398 -0.0261804 -0.00313334 -0.000132682 -0.0364802 -0.0352249 0.00509064 -0.022287 
-0.0176799 -0.0132658 -0.0088752 -0.00426557 0.000207169 0.0046642 0.00918366 0.0135479 0.0175551 
0.0217437 0.0262248 0.0306964 0.0353371 0.000235838 0.00198835 -0.0020171 -0.00166741 0.00239296 
0.00191142 0.00095697 -0.000188107 -0.00119561 -0.00203565 -0.00258145 -0.00196231 -0.00231236 -0.026983 
0.00490149 0.00381114 0.00238156 7.30923e-05 -0.00220181 -0.00413379 -0.00553505 -0.00604605 0.00331743 
0.0025353 0.00220883 -0.0117385 -0.0314235 -0.00424167 0.00092992 -0.00253006 -0.00953325 -0.00512078 
-0.00263792 0.00452139 0.0358451 8.59526e-05 0.00431645 -0.00225081 -0.00169861 0.00035805 0.00104437 
0.00165551 0.00219117 0.00262613 0.00295899 0.00313179 0.00313469 0.00294971 0.0277449 -0.0259804 
-0.000979457 0.00337711 -0.00233419 -0.00356451 -0.00482404 2.33278e-05 -0.000346854 -0.00105418 -0.00358196 
-0.00384193 -0.00396015 -0.00396267 -0.00386146 -0.00366837 -0.00338274 -0.0030029 0.000156831 0.00803776 
0.00384777 0.00366119 0.00337339 0.00392102 0.00386413 0.00367883 0.00330641 0.00272865 0.00190615 
0.000694106 -0.0242909 0.00982296 0.00410962 0.00270559 0.00163772 1.29389e-05 -0.00164434 -0.00421779 
-0.00738288 -0.0115958 -0.0176514 -0.00960565 -0.0131735 0.00582342 -0.00313453 -0.016821 -0.00564596 
-0.00170031 0.00235302 0.00616733 0.00947818 0.013067 0.0160623 0.0193399 0.023295 0.027307 
-0.00113036 -0.00221874 -0.00242315 -0.000367095 0.000577201 2.48963e-05 0.000147287 -2.85409e-05 -0.000240446 
-0.00021127 -5.27074e-05 0.00181471 0.00236703 0.00192865 0.00114832 -0.000568396 -0.00176084 -0.00263263 
-0.00351841 -0.0209418 -0.00198336 -0.0046673 0.0210878 0.0013077 0.0152366 0.00231436 -0.027689 
-0.0025705 -0.00308715 -0.00308061 0.00264202 0.00689079 0.0114271 0.00534875 -0.00276579 -0.00120954 
0.0027403 0.00320161 0.0034658 0.00352341 -0.00169392 -0.00170053 -0.00308055 -0.000363978 -0.000778701 
-0.0039773 -0.00170099 -0.00390431 -0.00386384 -0.00373079 -0.00348301 0.00402738 -0.00374261 0.0039612 
0.00220076 0.00399624 0.00385286 0.00357531 0.00307716 -0.00289546 0.00314325 -0.00396321 4.50389e-05 
0.000352983 0.00198392 -0.00265187 -0.00633352 -0.0103024 -0.0150802 -0.00909332 -0.00289925 -0.0215192 
-0.00642604 -0.0116669 0.00498651 0.00875117 0.0109519 0.0133344 -0.00265503 -0.00290423 -0.00253809 
0.00215537 -0.00339077 -0.00219694 -0.00106404 -0.000293418 0.000281834 0.000918444 0.00239203 0.00029454 
1.76697e-05 -0.000536208 -0.000870301 0.00148715 0.0190165 0.000777088 -0.00285936 0.00309445 0.00177072 
0.00318831 0.00123519 -0.0159424 0.00379086 0.00347401 0.000668388 -0.00141364 0.000967883 0.00612139 
0.0103042 0.015827 0.000511144 -0.00309026 -0.0183943 0.00330164 -0.000841282 -0.00323775 -0.000184747 
-0.00707846 -0.00361945 -0.0033726 -0.00337636 0.00381057 0.00380486 0.00385041 0.00187577 -0.00517162 
-0.00175885 -0.00348112 -0.00296856 -0.00837349 -0.0129405 -0.000895387 0.0083099 0.0062099 0.00352395 
-0.0036885 0.000875784 0.00372007 0.00269402 -0.00353846 -0.00337092 -0.0012637 1.08178e-05 0.00101849 
0.00221194 0.00283301 -0.000383792 0.00367382 0.000187693 0.000434596 -0.00242421 0.00102099 -0.00137965 
0.000349379 -0.000409713 -0.0023108 0.00208998 0.00451506 -0.00288397 0.00222021 -0.00140995 -0.0049454 
-8.95215e-05 0.00189664 -0.00126968 0.00306845 -0.0024503 -0.0030077 0.00331762 -0.0027283 -0.000376133 
0.00334543 0.000650098 -0.00137758 -0.00185979 0.00322112 -0.00504851 0.00155456 -0.000691181 0.00158588 
0.000466745 0.00257347 0.00300639 -0.00363768 0.00238245 0.000148639 0.00112545 0.00165858 0.00561416 
3.96913e-05 -0.248646 0.247701 -0.19388 -0.101019 -0.0804222 -0.0674206 -0.0546834 -0.042404 
-0.0352888 -0.0305091 -0.0255007 -0.021134 -0.0159269 -0.00975021 -0.00454243 0.00118833 0.00707828 
0.0123443 0.0169099 0.0211097 0.0259507 0.0312603 0.0375072 0.0433966 0.0495109 0.0556519 
0.0625393 0.0728013 0.0868514 0.180605 -0.173153 -0.0903464 -0.0793403 -0.0681064 -0.0609927 
-0.0577056 -0.0495226 -0.0417379 -0.0344865 -0.0267264 -0.0209928 -0.0155069 -0.00903841 -0.00364851 
0.00211378 0.00814959 0.0155035 0.0219988 0.0287901 0.035437 0.0425641 0.0505036 0.0591787 
0.0697875 0.0821376 0.0998219 0.171222 2.097e-05 1.74721e-05 -6.79825e-06 -9.56916e-06 -1.82915e-05 
-2.37489e-05 -2.75808e-05 -3.00777e-05 -3.04665e-05 -2.62995e-05 -1.10036e-05 -8.42444e-06 1.67995e-06 9.27812e-06 
1.39083e-05 1.82574e-05 1.56272e-05 2.00355e-05 1.96873e-05 1.57262e-05 1.97283e-05 2.50059e-05 2.82604e-05 
2.68658e-05 1.65285e-05 -1.44956e-06 -1.47273e-05 -2.61586e-05 0.116467 0.00448832 -0.00114216 -0.000450524 
-0.000333299 -0.000315813 -0.000270944 -0.000211175 -0.000155487 -0.00014619 -0.000108643 -7.39597e-05 -4.81106e-05 
-2.79581e-05 -1.38633e-05 -4.05588e-05 -9.67803e-05 -0.000201553 -0.000292244 -0.000388173 -0.000423079 -0.000375782 
-0.000155845 0.000111219 0.000278497 0.000350362 0.000324756 0.000228617 0.00015027 7.68808e-05 1.2201e-05 
-2.99226e-05 -4.03485e-05 -5.6662e-05 -6.10404e-05 -6.07442e-05 -5.69663e-05 -5.30676e-05 -4.88324e-05 -4.51107e-05 
-4.36776e-05 -4.05498e-05 -3.1072e-05 -1.2202e-05 2.44596e-05 1.93443e-05 -2.59798e-05 -4.95473e-06 1.38527e-06 
1.69648e-05 2.28147e-05 2.96206e-05 3.39177e-05 3.74461e-05 4.1521e-05 4.15501e-05 4.72127e-05 3.88996e-05 
4.44803e-05 2.20472e-05 6.36655e-06 1.01327e-05 1.65371e-05 1.22914e-05 -6.49803e-05 -0.000264269 -0.00039127 
-0.00040207 -0.000411346 -0.000118237 0.000166133 0.000265517 0.000294777 0.000303899 0.000194944 8.89305e-05 
3.96235e-05 1.91163e-05 2.75656e-05 4.43551e-05 6.81475e-05 0.000110365 0.000129671 0.000133555 0.000160999 
0.000331527 0.000556038 0.000806333 0.00170954 0.0028597 0.00149914 -0.103142 0.0710113 0.0358826 
0.0144042 0.00971527 0.00820202 0.00573891 0.00202726 -0.00581357 -0.00613208 -0.00698695 -0.0112749 
-0.0217578 -0.0227922 -0.0986863 0.00444269 0.079314 0.0544451 0.0248663 0.0238486 0.0138923 
0.0106712 0.00227208 0.00122698 -0.00508626 -0.0106014 -0.018312 -0.0230151 -0.0801043 -0.0943086 
0.00112057 1.21216e-05 7.00212e-06 -9.64271e-06 -2.57162e-05 -2.40547e-05 -2.28946e-05 -2.22821e-05 -1.96521e-05 
-1.66788e-05 -1.24917e-05 -2.19735e-05 -1.20675e-05 -1.49234e-05 -1.41503e-05 -7.64119e-06 -4.77604e-06 6.614e-06 
9.91155e-06 1.67822e-05 2.53913e-05 2.64226e-05 2.57593e-05 1.97495e-05 1.18022e-05 3.80426e-06 -3.30697e-06 
-1.3524e-05 -2.27509e-05 0.117514 -0.0210641 -0.00563041 -0.00181258 -0.000925792 -0.000547449 -0.00036776 
-0.000248471 -0.000185174 -0.000140053 -0.000110035 -8.40787e-05 -6.99e-05 -7.13238e-05 -8.54332e-05 -0.000119292 
-0.000159559 -0.000216431 -0.000298421 -0.000401235 -0.000432437 -0.000315355 -7.86913e-05 0.000160491 0.000321099 
0.000393157 0.000347366 0.000242635 0.000138894 4.34129e-05 -1.51924e-05 -2.77777e-05 -3.84233e-05 -3.65137e-05 
-3.2149e-05 -2.97734e-05 -2.88304e-05 -2.43177e-05 -1.75415e-05 -1.5365e-05 -9.68957e-06 -3.4941e-06 2.76574e-06 
1.53341e-05 3.61956e-05 2.35446e-05 -2.24518e-05 -2.27896e-05 -1.2904e-05 -4.03767e-06 1.84082e-06 9.23955e-06 
1.35437e-05 1.60442e-05 2.30302e-05 3.46358e-05 3.39344e-05 5.59136e-05 4.81189e-05 7.4944e-05 8.44238e-05 
5.9606e-05 -2.02334e-05 -0.000141302 -0.000246745 -0.000306663 -0.000326478 -0.000295733 -1.16054e-05 0.000254358 
0.0003276 0.000440782 0.000305436 0.000181913 0.000149667 0.000134385 0.000110976 0.000101724 8.37375e-05 
8.57226e-05 0.000103459 0.000116646 0.000127262 0.000252862 0.000321808 0.000284523 0.000303009 0.000418677 
0.000614103 0.00264505 0.0019247 -0.125261 0.0726813 0.057203 0.0188618 0.0114131 0.00619438 
0.00362298 -0.00314616 0.00750103 -0.00530098 -0.00869188 -0.013368 -0.0196317 -0.0588128 -0.0743993 
0.0270038 0.0640808 0.0394062 0.0229343 0.0166458 0.00994028 -0.000614886 0.00158266 -0.00615089 
-0.00984595 -0.0144486 -0.0194787 -0.0253845 -0.0380002 -0.0727123 -0.002661 -1.52642e-05 9.04817e-06 
-0.0332045 0.0288776 0.0435506 -0.0143077 -0.189917 0.179411 -0.120886 -0.0922519 -0.0869796 
-0.079351 -0.0684531 -0.0734828 -0.0625983 -0.0557638 -0.0518511 -0.0500027 -0.0464571 -0.0431339 
-0.0395207 -0.0365194 -0.0333008 -0.0301512 -0.0271813 -0.0241559 -0.0213437 -0.0186918 -0.0157011 
-0.0127889 -0.0099233 -0.00697218 -0.00413986 -0.00135 0.00158014 0.00442717 0.00720589 0.00994393 
0.0128312 0.0157072 0.0184944 0.021272 0.0241977 0.0271544 0.0301902 0.0332558 0.0365323 
0.0399262 0.0433546 0.046786 0.0505163 0.0542069 0.0581855 0.0622733 0.0671254 0.0721761 
0.0782405 0.0843742 0.0917778 0.115056 2.34914e-05 -4.71479e-05 -7.47733e-05 -0.000156085 -0.000172673 
-0.000229723 -0.000258729 -0.000272261 -0.000432582 -0.000357907 -0.000365895 -0.000617001 -0.000421932 -0.0004275 
-0.000767347 -0.00044015 -0.000443241 -0.000846628 -0.000439741 -0.000438234 -0.000863685 -0.000418177 -0.00041486 
-0.000836122 -0.000373174 -0.000366896 -0.000765621 -0.000313762 -0.000299182 -0.000655416 -0.00023012 -0.000216459 
-0.000519685 -0.000151222 -0.000137773 -0.000359238 -5.4462e-05 -4.29286e-05 -0.000190319 3.95002e-05 5.03939e-05 
-7.81018e-06 0.000130974 0.000140862 0.000172637 0.000221073 0.000231559 0.000349474 0.000289822 0.000297932 
0.000507555 0.000349853 0.000353202 0.000631609 0.000388185 0.000397544 0.000729121 0.00041792 0.00042251 
0.000797335 0.000429132 0.000431368 0.000836404 0.000412876 0.000410374 0.00082662 0.000356913 0.000350093 
0.000750993 0.000271545 0.000258227 0.0006076 0.000172657 0.000153082 0.000426444 8.28233e-05 5.21464e-05 
0.000245793 -9.19613e-06 -7.76413e-06 -9.33702e-06 8.96223e-05 0.0864013 0.0412488 0.0310782 0.013619 
0.0129055 0.0458225 0.00722951 0.00677222 0.0206897 0.00403232 0.00374952 0.0111997 0.00230002 
0.00212329 0.00643999 0.00117182 0.00105194 0.00360797 0.000459323 0.000401467 0.00178123 1.72451e-05 
-2.32404e-05 0.00063571 -0.000281262 -0.000305899 -0.000135156 -0.000493493 -0.000506464 -0.000678191 -0.000656193 
-0.000668971 -0.00105786 -0.000808468 -0.000812478 -0.00139567 -0.000976912 -0.000988776 -0.00174576 -0.0012505 
-0.00127021 -0.00220325 -0.00165486 -0.00172394 -0.00289115 -0.00216703 -0.00224473 -0.0038063 -0.00275426 
-0.00286077 -0.00487341 -0.00338791 -0.00347924 -0.00606019 -0.00379281 -0.00385244 -0.00706208 -0.00365435 
-0.00361682 -0.00725797 -0.0027236 -0.0025419 -0.00610496 -0.0012858 -0.000944779 -0.00371519 0.000549513 
0.000840198 -0.000442449 0.00198213 0.00215006 0.00269533 0.00270137 0.00273415 0.00468695 0.00264951 
0.00256693 0.00518341 0.00218752 0.00209032 0.00458246 0.00149378 0.00139066 0.00343576 0.000839433 
0.00074549 0.00216286 0.000303216 0.000232684 0.00103414 -8.12038e-05 -0.000125504 0.000180651 -0.000356139 
-0.00038138 -0.000440932 -0.000519476 -0.000540976 -0.000858346 -0.000630052 -0.000637014 -0.00112206 -0.000668847 
-0.000669783 -0.00125885 -0.000693865 -0.000692103 -0.00132103 -0.000681271 -0.000677872 -0.00133356 -0.000635756 
-0.000628915 -0.00127404 -0.000568374 -0.000563361 -0.00116219 -0.000495316 -0.000489473 -0.0010262 -0.000428048 
-0.00041837 -0.000887826 -0.000328889 -0.000310679 -0.00072231 -0.000207933 -0.000184119 -0.000508969 -8.6577e-05 
-5.54028e-05 -0.0002774 -0.0344208 -0.0271492 3.20864e-05 0.000167967 0.000179248 -0.0192556 -0.0176703 
0.000265336 0.000280741 0.00044077 0.000371906 0.00038195 0.000641621 0.00046324 0.000475971 0.00083239 
0.000542175 0.000549596 0.000997507 0.000612804 0.000619024 0.00113724 0.000648888 0.000652156 0.00123653 
0.000652527 0.000650856 0.00127136 0.000636163 0.000640129 0.00125869 0.000598691 0.000580379 0.00118805 
0.000483768 0.00046199 0.0010327 0.000334556 0.000294485 0.000757413 6.87338e-05 3.28691e-05 0.000354513 
-0.000296772 -0.000354277 -0.000279053 -0.000806242 -0.000931337 -0.00117265 -0.00141073 -0.00149294 -0.00224724 
-0.00203963 -0.0021906 -0.00347995 -0.00253218 -0.0026586 -0.00457965 -0.00273089 -0.00269352 -0.00507579 
-0.00200639 -0.00171097 -0.00429744 -0.000363224 -0.00010331 -0.00196055 0.00134902 0.00174637 0.00138043 
0.00270986 0.00292595 0.0043191 0.00354384 0.00364441 0.00635758 0.00352109 0.00343305 0.00684621 
0.00303191 0.00292056 0.00623504 0.00245557 0.00237033 0.0052095 0.00193886 0.00181973 0.00413232 
0.00150466 0.00143303 0.0032289 0.00114679 0.00111578 0.00253562 0.000891545 0.00087744 0.00197369 
0.000711994 0.000700931 0.00153943 0.00055638 0.000538223 0.00120708 0.00038994 0.000369853 0.000863623 
0.000184787 0.000154013 0.000462712 -9.68371e-05 -0.00018773 -8.30795e-05 -0.000612215 -0.000684051 -0.000902798 
-0.0013023 -0.00141568 -0.00213693 -0.00255476 -0.00275435 -0.00417053 -0.00442863 -0.00464038 -0.00739877 
-0.00773417 -0.00773349 -0.0124441 -0.0141826 -0.0166051 -0.0229659 -0.032713 -0.0482553 -0.0494047 
-0.0680456 -0.100129 -0.0909095 -0.0829672 -0.0788254 -0.0865937 -0.0714061 -0.0668002 -0.0758916 
-0.0634899 -0.0579188 -0.0655469 -0.0555262 -0.0452509 -0.052465 -0.0487089 -0.0381922 -0.0446259 
-0.041185 -0.0309915 -0.0370569 -0.0349232 -0.0243446 -0.0308388 -0.0285232 -0.0178882 -0.0248328 
-0.0222476 -0.0120559 -0.0183576 -0.0163027 -0.00596233 -0.0126417 -0.0105911 -0.000210066 -0.00676658 
-0.00508149 0.00529737 -0.00117082 0.000559146 0.0109691 0.00428095 0.00560535 0.016386 0.00943154 
0.011296 0.0220448 0.0145417 0.0172658 0.0279553 0.0200203 0.0233408 0.0343455 0.0255461 
0.0295193 0.0405346 0.0318174 0.0363172 0.0475727 0.0380717 0.0430943 0.0548182 0.0449246 
0.0506643 0.0626436 0.0522393 0.0597652 0.0727461 0.0605126 0.0713908 0.0856295 0.07121 
0.0846563 0.0993977 0.0828347 0.0338747 0.0311051 0.0281297 0.0447057 0.0256482 0.0169693 
0.0271349 0.0290696 0.0106636 0.0188149 0.0209922 0.00520573 0.0127724 0.0144103 0.00153216 
0.0091094 0.00925592 -0.00201153 0.00595853 0.00516886 -0.00513469 0.00290796 0.00175541 -0.00810195 
-0.00174114 -0.00137939 -0.0119704 -0.00449201 -0.00451338 -0.016772 -0.0084944 -0.00842644 -0.0246478 
-0.0154865 -0.0145977 -0.038897 -0.0272632 -0.0217332 -0.0334591 -0.0346643 -0.0237336 -0.00817429 
0.00500201 0.0439522 0.0404789 0.0341008 0.0440649 0.0283603 0.0202876 0.0289379 0.0291674 
0.013379 0.0176817 0.0215834 0.00692201 0.0147768 0.0123485 0.000915775 0.00934938 0.00659308 
-0.00233248 0.0047399 0.000616469 -0.00643253 0.00105392 -0.00405177 -0.0117557 -0.00393367 -0.00853388 
-0.0168424 -0.00851639 -0.013926 -0.023694 -0.0145072 -0.0189631 -0.0320136 -0.0218731 -0.0257408 
-0.0489457 -0.0324738 -0.0334397 -0.0320407 -0.0326114 -0.029448 -0.00503927 0.00212156 -3.35326e-05 
0.0973471 -0.00246787 0.0114576 -0.10375 -0.0358632 -0.0169543 -0.000155059 0.0252208 0.0391956 
0.0080497 -0.0380457 -0.032801 -0.0108707 0.0318334 -0.096869 0.0887604 0.00587003 0.0044368 
-0.000543246 -0.000651326 -0.00081229 -0.00091048 -0.000941944 -0.00103646 -0.00110279 -0.00124682 -0.0011776 
-0.00119596 -0.00145304 -0.00121804 -0.00121382 -0.00155764 -0.00117915 -0.00115351 -0.00154258 -0.00108604 
-0.00103444 -0.0014289 -0.000944139 -0.000866798 -0.00125604 -0.000758714 -0.000668399 -0.00103486 -0.000543646 
-0.000442694 -0.000772101 -0.000308331 -0.000201298 -0.000480239 -5.85783e-05 5.18627e-05 -0.000168236 0.000198796 
0.000304219 0.000159174 0.000450248 0.000553004 0.000486574 0.000671888 0.00075453 0.000784605 0.000855807 
0.000920796 0.00102922 0.00100839 0.00105824 0.00124158 0.00112075 0.00115318 0.00140887 0.00118335 
0.00119705 0.0015129 0.00117728 0.00115645 0.00153033 0.00109354 0.00103259 0.00145018 0.000925078 
0.000833798 0.00126548 0.000698619 0.000586966 0.00100378 0.000443879 0.000347789 0.000699298 0.0149959 
0.0140657 -0.075036 -0.0860066 -0.0516011 -0.000141521 0.0345924 0.0266051 0.0198452 0.0159435 
0.0309532 0.0120945 0.010008 0.0194428 0.00753458 0.00607365 0.0124923 0.0042207 0.00330553 
0.00764904 0.00207344 0.00150347 0.00417933 0.000701054 0.000252896 0.0019038 -0.000247924 -0.000537646 
0.000449131 -0.000979193 -0.00121625 -0.000677697 -0.00159203 -0.00181247 -0.00157812 -0.00213939 -0.00238912 
-0.00236426 -0.00277601 -0.0031209 -0.00319249 -0.00359194 -0.00408013 -0.00418146 -0.0047403 -0.00533397 
-0.00545699 -0.00608333 -0.00675022 -0.00703685 -0.00762038 -0.00829716 -0.0088607 -0.00906715 -0.00948278 
-0.0108137 -0.00956522 -0.00941341 -0.0118947 -0.00879565 -0.00777102 -0.011338 -0.00608418 -0.00442662 
-0.00898437 -0.00179445 0.000173699 -0.00411622 0.00266732 0.00421359 0.00179118 0.00576323 0.0064603 
0.00633735 0.00674993 0.0066339 0.00827182 0.00607051 0.00556655 0.00779987 0.00469403 0.00396793 
0.00614037 0.00309369 0.00240352 0.00422625 0.00161684 0.00105351 0.00240927 0.00042853 2.62531e-05 
0.000878576 -0.000444255 -0.000747905 -0.000305597 -0.00106325 -0.00125683 -0.00115662 -0.00145382 -0.0015836 
-0.00170953 -0.00169587 -0.00175172 -0.00206615 -0.00180908 -0.00183652 -0.00226445 -0.00185109 -0.00183732 
-0.00235148 -0.00178625 -0.00174102 -0.00230847 -0.00166598 -0.00159929 -0.00217195 -0.00148379 -0.00140606 
-0.00197471 -0.00129337 -0.00121237 -0.00173399 -0.00108432 -0.000969816 -0.00147131 -0.000812538 -0.000685472 
-0.00115537 -0.000489065 -0.000351598 -0.000764797 0.0290755 0.0107719 0.0728079 0.0499994 0.0534462 
0.000584633 0.000692439 0.000865174 0.000977712 0.00101806 0.00114666 0.00124616 0.00138315 0.00138439 
0.00146748 0.0017103 0.00156715 0.00163847 0.00196651 0.00169442 0.00173165 0.00213543 0.00175505 
0.00175825 0.00222559 0.00173901 0.00171685 0.00223319 0.00164377 0.00157685 0.00212842 0.00145114 
0.00131505 0.00190503 0.00108702 0.000886637 0.00150717 0.000551502 0.000249423 0.000883796 -0.000212072 
-0.000657712 -6.05779e-06 -0.00133489 -0.00193848 -0.00127269 -0.00271106 -0.00335551 -0.00290463 -0.00425759 
-0.00499205 -0.0047743 -0.00579367 -0.00627556 -0.00666723 -0.0066833 -0.00669296 -0.00800634 -0.00598473 
-0.00501223 -0.0077221 -0.0029274 -0.00119396 -0.00477679 0.00128052 0.00322335 0.000468092 0.00543859 
0.00700711 0.00579461 0.0083524 0.00910464 0.00994561 0.00921309 0.00910561 0.011615 0.00838363 
0.00790072 0.0108765 0.00702091 0.00644074 0.00920752 0.00570842 0.00511951 0.00745635 0.00449198 
0.00404891 0.0059652 0.0035198 0.0031407 0.00468817 0.00270698 0.00240064 0.00360267 0.00203961 
0.00181325 0.00270012 0.00147277 0.00126829 0.00192057 0.000895532 0.000653813 0.00113037 0.000200812 
-0.000125896 0.000212233 -0.000778002 -0.00119971 -0.00100769 -0.00205389 -0.00269515 -0.00275513 -0.00388829 
-0.00488388 -0.00511731 -0.00691682 -0.00869689 -0.00885084 -0.0113853 -0.0137101 -0.0144243 -0.018244 
-0.0223909 -0.0224635 -0.0306984 -0.0398591 -0.0590179 -0.0363282 -0.000329994 -0.0787943 0.0779603 
-0.0759087 -0.0688467 -0.0656357 -0.0602288 -0.064525 -0.0547506 -0.0553957 -0.0562213 -0.0474953 
-0.0487882 -0.0488681 -0.0386233 -0.041885 -0.0423986 -0.0316971 -0.0355555 -0.0356928 -0.0246508 
-0.0292337 -0.0294535 -0.0179827 -0.0232107 -0.0232513 -0.0128353 -0.0176957 -0.0174006 -0.00685961 
-0.0115993 -0.0118343 -0.00097934 -0.00634672 -0.00618122 0.00432748 -0.00064453 -0.00064017 0.0100527 
0.00448894 0.00462615 0.0155573 0.0104951 0.0101847 0.0216891 0.0165634 0.0158303 0.0274133 
0.022466 0.0217074 0.0340205 0.028749 0.0275843 0.0399369 0.0356955 0.0339806 0.0473264 
0.0427445 0.0406392 0.0546036 0.0506316 0.0477345 0.0625943 0.059497 0.0549772 0.0723804 
0.0703211 0.062924 0.0808811 0.0190648 0.0172458 0.0133456 -0.0100812 -0.0268987 0.000771567 
0.0180295 0.00784384 0.00263881 0.010405 0.0123425 0.0083848 0.0111165 0.00916183 0.00421101 
0.00812018 0.00562128 0.000807021 0.00471765 0.00184445 -0.00305491 0.00140371 -0.0019965 -0.00666948 
-0.0018533 -0.00534465 -0.00996067 -0.00530197 -0.00917138 -0.0133557 -0.00843229 -0.0138757 -0.0172745 
-0.0115617 -0.0173032 -0.01962 -0.0129352 -0.00521748 -0.0187592 -0.00974874 -0.00993549 -0.000316171 
-0.00171678 0.0252602 0.016238 0.00813471 0.0130977 -0.00803025 -0.0347449 0.0214178 0.0119081 
0.0163924 0.0136417 0.0108541 0.00941319 0.0112913 0.00622118 0.0038779 0.00657673 0.00218306 
-0.00170211 0.00215637 -0.00237017 -0.00615242 -0.00222247 -0.00748423 -0.0110794 -0.0066437 -0.0125188 
-0.0156022 -0.0111268 -0.018056 -0.020671 -0.0150298 -0.0208641 -0.0244079 -0.0168868 -0.00375866 
-0.0241055 -0.0126985 -0.0188145 -0.00884541 -0.000450252 0.0222537 0.023921 0.0137666 0.0211154 
0.0197122 0.0173949 0.0153794 -0.0207479 -0.0194597 0.000267288 0.000190921 0.00018164 0.000462668 
-0.0714477 0.0300869 0.0225876 0.000367833 0.00547585 0.0179673 -0.000664576 0.0693753 0.000256988 
0.00699341 -0.00761926 0.0212564 0.0103753 0.0193245 0.0207854 -0.0262698 -0.0318735 -0.00765573 
-0.0172085 0.000602935 0.00344763 0.00516335 -0.0579549 -0.00141085 -0.00154033 -0.00168834 -0.0017637 
-0.00185809 -0.00182615 -0.00184832 -0.00207296 -0.00185187 -0.00181296 -0.00214022 -0.00175015 -0.00167337 
-0.00206887 -0.00154865 -0.00144146 -0.00187081 -0.00128644 -0.00115578 -0.001574 -0.00098976 -0.000836033 
-0.00123393 -0.000652762 -0.000487724 -0.00085988 -0.000284268 -0.00010676 -0.000443976 0.000103415 0.000284689 
1.9464e-06 0.000501068 0.00067763 0.000461131 0.000859549 0.00100539 0.000887434 0.00117157 0.00129234 
0.00126008 0.00143414 0.00154115 0.00158761 0.00164474 0.00172152 0.00185084 0.00177933 0.00181844 
0.00202765 0.00182653 0.00181215 0.00210587 0.00175804 0.00169102 0.00206507 0.00157153 0.00145548 
0.00189301 0.00127964 0.00112867 0.00158804 0.00610897 0.00802193 0.00451321 0.00860443 0.00967946 
0.00619772 0.0402319 0.03231 0.026662 0.0219619 0.0341712 0.0177133 0.0147175 0.0238465 
0.0117174 0.0093517 0.0162254 0.00687555 0.00523781 0.0103164 0.00366426 0.00264057 0.00599094 
0.0016464 0.000886147 0.00313357 0.000100947 -0.000461687 0.00113584 -0.00114906 -0.00164368 -0.000510806 
-0.00219193 -0.0026324 -0.0018345 -0.00314638 -0.00366912 -0.00300256 -0.00426515 -0.0048703 -0.00421278 
-0.00559903 -0.00639562 -0.00563467 -0.00725409 -0.00814496 -0.00732022 -0.00925882 -0.0103058 -0.00938879 
-0.0115413 -0.0124741 -0.0118405 -0.0134895 -0.0137866 -0.0144317 -0.0134628 -0.0128306 -0.0153902 
-0.0120805 -0.0102766 -0.0145344 -0.00692328 -0.00374613 -0.0106626 0.000868433 0.0039218 -0.00154972 
0.00670333 0.00843927 0.00650334 0.00934777 0.00966543 0.0102729 0.00892917 0.00823783 0.0103769 
0.00703662 0.00606886 0.00817214 0.00483712 0.00385443 0.00563435 0.00283185 0.00195202 0.00331238 
0.00109196 0.00039806 0.00139181 -0.000234166 -0.000771972 -0.000127174 -0.00123187 -0.00159555 -0.00124757 
-0.00190003 -0.00214768 -0.00204824 -0.0023456 -0.00249375 -0.00257928 -0.00260626 -0.00268729 -0.0029136 
-0.00271948 -0.00273674 -0.00307441 -0.00269995 -0.00265071 -0.00307612 -0.0025682 -0.0024907 -0.00296195 
-0.0023716 -0.00225205 -0.00276354 -0.00209821 -0.00196996 -0.0024901 -0.00181816 -0.00166293 -0.00217493 
-0.00149967 -0.00131482 -0.00183774 -0.00109557 -0.0008711 -0.000985369 -0.00143203 0.0617326 0.0472215 
0.047461 0.0617352 0.0015526 0.00832809 0.0115815 0.00774872 0.00155353 0.00173592 0.00194167 
0.00209311 0.00212038 0.0022548 0.00236672 0.00249843 0.00246752 0.00253178 0.00276997 0.00259981 
0.00262874 0.00294359 0.00262042 0.00259349 0.00300098 0.00253139 0.00244034 0.00292443 0.002304 
0.00214088 0.00271197 0.00190564 0.00163311 0.002315 0.00128574 0.000885451 0.00170492 0.000367646 
-0.00019146 0.000804896 -0.000907272 -0.00168092 -0.000470409 -0.0026572 -0.00354406 -0.00220991 -0.00465788 
-0.00571478 -0.00437307 -0.0067971 -0.00767127 -0.00674998 -0.0088501 -0.00928283 -0.00898799 -0.00941411 
-0.00865824 -0.010516 -0.00661043 -0.00414752 -0.008994 -0.000226902 0.00263173 -0.00212031 0.00595989 
0.00872257 0.00571091 0.0114102 0.0129977 0.0120316 0.013531 0.0135657 0.015623 0.0125501 
0.0118163 0.0145007 0.0105099 0.00960792 0.0121715 0.00858961 0.007764 0.00984313 0.00695536 
0.00621466 0.0079455 0.00544397 0.00480696 0.00627243 0.00411951 0.00358065 0.0047575 0.00299996 
0.00253712 0.00343727 0.00202127 0.00157223 0.00225574 0.000993206 0.000496854 0.00103588 -0.000295132 
-0.00088795 -0.000427148 -0.00184562 -0.00263288 -0.00229909 -0.00390515 -0.00503408 -0.00466283 -0.00677146 
-0.00837307 -0.00790378 -0.01116 -0.0138306 -0.0126412 -0.0169698 -0.0205621 -0.0192338 -0.024588 
-0.0300724 -0.0271321 0.000490614 0.00282874 -0.0610424 -0.0583704 0.0216422 0.0139755 -0.0548659 
-0.051245 -0.0527373 -0.0480831 -0.044683 -0.0469293 -0.0417496 -0.0383189 -0.0410782 -0.0357836 
-0.0325866 -0.0356442 -0.0296712 -0.0263908 -0.0300389 -0.0236943 -0.020575 -0.0242612 -0.0181109 
-0.0152328 -0.0188505 -0.0128159 -0.00977033 -0.0136876 -0.0073062 -0.00440118 -0.00846084 -0.00193601 
0.000885362 -0.00324528 0.00321187 0.0061146 0.00185815 0.00864458 0.0115351 0.00705158 0.0139417 
0.016985 0.012303 0.0195249 0.0225523 0.0175822 0.0252227 0.0283773 0.0231326 0.031083 
0.0344159 0.0288122 0.0372223 0.0407976 0.0345579 0.0436918 0.0472086 0.0404157 0.0497194 
0.0533602 0.045875 0.0558793 0.0598636 0.0543587 0.050736 0.00984893 0.00934232 0.0066318 
0.000621256 0.00234452 0.00238061 -0.00217844 -0.000522352 5.51889e-05 -0.00493543 -0.0032596 -0.00233457 
-0.00745569 -0.00584133 -0.00449248 -0.00936868 -0.00809226 -0.00612651 -0.00881224 -0.00897456 -0.0064532 
-0.00319783 -0.00786864 -0.00447748 2.60109e-05 -0.0011925 0.00648337 0.00583917 -0.018247 -0.0230774 
-0.00813477 -0.00621622 -0.0107953 -0.00406207 0.0160988 0.0158823 0.00854417 0.0103219 -0.00350306 
-0.00117953 -0.000150566 -0.00740545 -0.00512172 -0.0036052 -0.0108848 -0.0087863 -0.00677077 -0.0132595 
-0.0117279 -0.009057 -0.012798 -0.0131803 -0.00976514 -0.00700792 -0.0113538 -0.00782956 -0.0202363 
-0.0131959 0.00480584 0.00687142 0.0066829 0.0034171 -0.00116124 0.00817148 -0.00821404 -0.0146915 
-0.0162423 0.00112321 0.00131403 0.0016655 -0.0466342 -0.0574127 -0.0510327 -0.0369721 0.0179558 
0.0223245 -0.00145229 -0.0100108 0.000911334 0.000742204 -0.0140583 -0.00911363 -0.0134326 -7.81064e-05 
0.000188887 0.00236564 0.00118091 0.000660688 0.000894141 -0.00993692 0.0128869 0.00819074 0.013201 
0.00545109 -0.0388263 0.0183628 0.00494565 0.00863519 0.00430309 0.00595147 -0.00794791 -0.00844738 
-0.000443449 -0.00142322 0.00903195 -0.01951 -0.02262 -0.0177978 -0.00563161 0.00882945 0.00915836 
0.0113741 0.0132624 0.00714439 0.0122955 0.0136575 0.00118495 0.00763187 0.00806053 0.000856287 
-0.0022862 -0.00234698 -0.00239597 -0.00239362 -0.00262653 -0.0023601 -0.00228525 -0.00263104 -0.00215877 
-0.00202452 -0.0024569 -0.00184462 -0.00167633 -0.00214073 -0.00146544 -0.00128058 -0.00173487 -0.00106148 
-0.000856546 -0.0012881 -0.00061086 -0.000380357 -0.000806735 -0.000119221 0.000119382 -0.000278036 0.000394008 
0.000637946 0.000284764 0.000900957 0.00110298 0.000847502 0.00132039 0.00150699 0.00134704 0.00170499 
0.00186163 0.00177968 0.0020255 0.00214176 0.00215681 0.00224528 0.00231532 0.0024344 0.00235731 
0.00237316 0.00258867 0.00234311 0.00229302 0.00261059 0.00217906 0.00206073 0.00247177 0.00186183 
0.00168203 0.00216 0.00290435 0.00378244 0.00416859 0.00457153 0.00248326 0.0471343 -0.0121396 
-0.00801252 0.0294223 0.0247195 0.0205554 0.0170878 0.0251884 0.0137093 0.0108816 0.0174218 
0.0084304 0.00649084 0.0113161 0.00487347 0.00362134 0.00697524 0.00241646 0.00142631 0.003943 
0.00045824 -0.000342373 0.00159714 -0.00112978 -0.00181599 -0.00027309 -0.00246849 -0.00308912 -0.00180555 
-0.00374414 -0.00443192 -0.00320222 -0.00514191 -0.00595052 -0.00462751 -0.00677236 -0.00769377 -0.00619228 
-0.00868159 -0.00981748 -0.00799808 -0.0111066 -0.0123444 -0.0101802 -0.0142176 -0.0155647 -0.0131898 
-0.0172689 -0.0174474 -0.0170718 -0.0154507 -0.0118392 -0.00424473 0.00191878 0.0115055 0.0123705 
0.00845948 0.00726034 0.00577137 0.00452912 0.00602175 0.00332377 0.00231774 0.00339752 0.00135747 
0.000487868 0.00128699 -0.000229887 -0.000864054 -0.000350945 -0.00137757 -0.00185717 -0.00154508 -0.00220512 
-0.00253267 -0.00238145 -0.00278658 -0.00300399 -0.00297997 -0.00316653 -0.00329502 -0.00339796 -0.00335552 
-0.00339913 -0.00362245 -0.00337186 -0.00334477 -0.00366182 -0.0032633 -0.00318919 -0.00356107 -0.0030647 
-0.00295066 -0.00336551 -0.0027914 -0.00263818 -0.00309183 -0.00244541 -0.00227744 -0.00274351 -0.00216214 
-0.00197567 -0.00242114 -0.0449396 -0.0490683 -0.0375347 -0.000493649 0.000570057 0.0012354 0.00228675 
0.00172499 0.000629854 0.00264147 0.00280573 0.00296853 0.00307503 0.0031204 0.00317876 0.00324338 
0.00339077 0.00328701 0.00327538 0.00352942 0.00325189 0.00318139 0.00354621 0.00307238 0.00292209 
0.00341233 0.00272214 0.00247139 0.0031106 0.0021746 0.00180449 0.00261598 0.00138275 0.000841345 
0.00189063 0.000268711 -0.000465637 0.000905723 -0.00132825 -0.00231666 -0.000489523 -0.00339016 -0.00447266 
-0.0023859 -0.00626373 -0.00763718 -0.00504938 -0.0111572 -0.0117815 -0.0117834 -0.00966099 -0.00433793 
0.0117676 0.0152459 0.0175576 0.0175221 0.0151611 0.0142667 0.0169252 0.012814 0.0115821 
0.013488 0.0104572 0.00943824 0.0110991 0.00849039 0.00760291 0.00906657 0.00665212 0.00584411 
0.00706029 0.0050044 0.00427772 0.00529737 0.00352676 0.00289316 0.00373313 0.00218154 0.00156325 
0.00223984 0.000802089 6.23461e-05 0.000700134 -0.000916901 -0.00183158 -0.00117594 -0.00302913 -0.00412066 
-0.0034539 -0.00566297 -0.0071149 -0.00629729 -0.0090745 -0.0111507 -0.00999344 -0.0134092 -0.0166382 
-0.0146367 -0.0215914 -0.0252753 -0.0218789 -0.0281006 -0.0324716 -0.0378225 -0.0297728 -0.00359699 
-0.00204966 0.00500152 0.00464285 0.00455071 0.00405372 0.00253559 -0.0468911 -0.0445099 -0.0415258 
-0.0410507 -0.0393857 -0.0367282 -0.0368488 -0.034581 -0.0320946 -0.0296773 -0.0268636 -0.0287882 
-0.0243627 -0.0216055 -0.0241062 -0.0191438 -0.0166409 -0.0193035 -0.0143433 -0.0117766 -0.0146482 
-0.00936301 -0.00678141 -0.010044 -0.00441144 -0.0018584 -0.00535141 0.000455795 0.00293805 -0.000745802 
0.00539597 0.00803656 0.0039537 0.0104192 0.0129576 0.00875193 0.0153242 0.0179921 0.0134149 
0.0205045 0.0233043 0.0182254 0.0259287 0.0286463 0.0231907 0.0312016 0.0340203 0.0281747 
0.0364697 0.0391609 0.0329752 0.0407939 0.0430459 0.03677 -0.00228504 -0.00119911 -0.000600052 
0.0126242 0.0157055 0.0132933 -0.00387253 -0.00299243 -0.0017884 -0.00468589 -0.00427372 -0.0027145 
-0.00387803 -0.00454805 -0.00265073 -0.00130635 -0.00330697 -0.00144733 -0.00278884 0.000461874 0.00219326 
0.00240002 0.00272009 0.00819321 -0.000738037 0.000828263 -0.000966373 -0.00750619 -0.00691343 -0.00727104 
-0.00763563 -0.00556468 -0.00532159 -0.00683236 -0.00502069 -0.00540088 -0.005121 -0.00432319 0.0406327 
0.0347155 0.0348807 0.0465665 -0.00200167 -0.00214849 0.00141387 0.00128795 -0.000171556 0.000588165 
0.00102337 -0.00611543 -0.00480868 -0.00322849 -0.00492268 0.0113674 0.00168889 -0.00168269 -0.00243753 
-0.0330815 -0.0096524 -0.0065174 0.00120277 -0.0153813 -0.0123917 -0.0176251 0.00918467 0.010286 
0.0100796 0.0017222 0.00368672 0.0020304 0.00549445 0.00405056 0.00468609 0.00568911 0.00847022 
-0.00679247 -0.00357673 0.0446649 0.00135924 0.00208619 0.0038398 0.00891735 0.0393053 0.00711131 
0.00792325 0.00325358 0.00704799 0.00556227 0.00684782 0.00476 0.00603182 0.00509408 0.00339894 
-0.00105573 0.000736236 0.00088838 0.00193179 0.00221977 -0.000575091 -9.25874e-05 -0.00286887 -0.00282531 
-0.00274006 -0.00260459 -0.00299581 -0.00241549 -0.00222809 -0.00271227 -0.0019772 -0.0017541 -0.00226134 
-0.00149173 -0.00125909 -0.00173565 -0.00100151 -0.000740383 -0.00120045 -0.000483164 -0.000199673 -0.000675404 
0.000143692 0.000439134 -5.77977e-05 0.000776924 0.00105823 0.000646825 0.00134334 0.00157414 0.0012873 
0.00183317 0.00204364 0.00184374 0.0022539 0.00242846 0.00232332 0.002585 0.0026946 0.00270063 
0.00277174 0.00282199 0.00293942 0.0028335 0.00281134 0.00303429 0.0027377 0.0026318 0.00298215 
0.00241485 0.000905799 -0.000707929 -0.00137355 -3.11979e-05 0.0204694 0.0169917 0.0138506 0.011091 
0.0164478 0.00884442 0.00700567 0.0110208 0.00544093 0.0040645 0.00708338 0.00281274 0.00167955 
0.00411825 0.000751039 -0.000167443 0.00178958 -0.000986472 -0.00171745 -4.85959e-05 -0.00241656 -0.00313057 
-0.00160231 -0.00378147 -0.00452631 -0.00296632 -0.00524953 -0.00607291 -0.00432848 -0.00691087 -0.00786115 
-0.00588016 -0.00840712 -0.00942285 -0.00715353 -0.0107338 0.00309143 0.00198483 0.000958618 5.5485e-05 
0.000643859 -0.000706132 -0.00135128 -0.00108484 -0.00186441 -0.00232114 -0.00223399 -0.00264816 -0.00297425 
-0.00297399 -0.00310725 -0.00336377 -0.00338356 -0.00354718 -0.00370386 -0.00369898 -0.00377561 -0.00384134 
-0.00393592 -0.00382478 -0.00381093 -0.00399132 -0.00373683 -0.00366989 -0.00391104 -0.00355688 -0.00344859 
-0.00373781 -0.00327879 -0.00313299 -0.00347142 -0.00290421 -0.0027159 -0.00308804 0.00317629 0.00333304 
0.0041265 -0.00181524 -0.00163739 0.00349048 0.00359112 0.00354881 0.0036752 0.00371304 0.003784 
0.00374197 0.00371554 0.00389479 0.00367681 0.00357284 0.00388672 0.00344774 0.00325941 0.00373477 
0.00303956 0.00274937 0.00341391 0.00241851 0.00199812 0.00288708 0.00169906 0.00117069 0.00227886 
0.000602901 -0.000197407 0.00149262 -0.00103525 -0.00205362 0.000175682 -0.00872475 -0.00129454 -0.000833123 
-0.000265774 0.00981988 0.00864637 0.00702005 0.00609598 0.00757996 0.00518016 0.00437858 0.00508176 
0.0036435 0.00290019 0.00352708 0.00208702 0.00128916 0.00197455 0.000427793 -0.000418969 0.00027534 
-0.00145349 -0.00258566 -0.00167891 -0.00394677 -0.00525579 -0.00414432 -0.00690445 -0.00857254 -0.007275 
-0.0107817 -0.0130107 -0.0112282 -0.0159301 -0.0185964 -0.0165189 -0.0230695 -0.0233624 -0.027162 
0.00342959 0.0032366 -0.0273952 -0.0252935 -0.0359256 -0.0233261 -0.0210537 -0.022161 -0.0188382 
-0.0165695 -0.0182682 -0.0145092 -0.0123438 -0.0142409 -0.0102302 -0.00799042 -0.0102303 -0.00617202 
-0.00388013 -0.00643869 -0.00180767 0.000364101 -0.00266575 0.00246537 0.00487428 0.00131542 0.00676884 
0.00903379 0.00519726 0.0112516 0.0134887 0.00921815 0.0157158 0.0180828 0.0134491 0.0203934 
0.0227709 0.0177502 0.0249719 0.0272999 0.0220035 0.0294862 0.0316232 0.0261315 -0.000957123 
-0.0014275 -0.000363342 0.000385464 -0.000558393 0.000559484 0.00269836 0.00292857 -0.00853503 -0.00613604 
0.00777836 0.00730675 0.00495457 0.00568386 0.0291426 0.02475 0.0238478 -0.00397135 -0.00375045 
0.00126751 0.00136877 -0.00107545 -5.30965e-05 -0.00369177 -0.00410208 -0.00293041 -0.00413116 -0.00421897 
-0.00288169 0.0339639 -0.00282572 -0.00286975 -0.00309564 -0.0307763 -0.0289712 0.0012596 0.000912116 
0.000103668 0.00239954 0.0329091 -0.0253673 -0.00257337 -0.00271275 -0.00281392 -0.00396382 -0.00346107 
-0.000611785 0.0317994 0.00370246 0.00470081 0.00293586 0.00314275 -0.00199957 -0.000963456 -0.0029089 
0.0100371 0.012083 0.000770029 0.00111726 0.000268052 0.0006087 -0.000132867 -0.000534903 0.000124893 
0.000624922 0.000175328 4.89818e-06 0.00418029 0.0040064 -0.00240417 -0.00390095 -0.000747964 -0.000895155 
0.0283206 0.00349917 -0.012993 -0.01171 -0.0313286 0.000993734 0.0020164 0.000726463 0.000916508 
0.00162929 0.0018429 0.00110678 0.000387325 -0.000864322 -0.00298868 -0.0061573 -0.00471488 -0.00383511 
-0.00575122 0.00380912 0.00343747 0.00250287 0.000895775 0.0017795 0.00213708 0.000552453 0.00239556 
0.0253347 0.0252626 0.0211477 -0.00297138 -0.00277594 -0.00191158 -0.00164301 -0.00130198 -0.00103218 
-0.00147917 -0.000761403 -0.00808858 -0.00648452 -0.00034613 1.37933e-05 -0.000712102 0.000472554 0.000825221 
0.000184272 0.00121967 0.00151568 0.0010557 0.00183626 0.00210353 0.00178583 0.00236939 0.00258541 
0.00237973 0.00280455 0.00297017 0.00286893 0.00308447 0.00316908 0.00321179 0.00317917 0.0031982 
0.00334303 0.00320988 0.0181855 0.0150049 0.019408 -0.000572356 -0.000873509 0.0125625 0.0101629 
0.0139557 0.00841905 0.00675763 0.00971294 0.00533205 0.00396243 0.00647219 0.00285782 0.00178242 
0.00389066 0.000886535 -1.21522e-05 0.00180797 -0.000757172 -0.00149261 9.66959e-05 -0.00214194 -0.00280211 
-0.00133145 -0.00338875 -0.00405893 -0.00255538 -0.00494997 -0.000520473 -0.0327543 -0.00141463 -0.00199211 
-0.00158126 -0.00249499 -0.00288343 -0.00316116 -0.00343295 -0.00340569 -0.00359205 -0.00372265 -0.00377981 
-0.00386107 -0.00267403 -0.00531112 -0.00395304 -0.00401092 -0.0039757 -0.00400538 -0.00400335 -0.00402676 
-0.003942 -0.00388812 -0.00396381 -0.00378582 -0.0036918 -0.00381963 -0.00354886 -0.00340163 -0.00359822 
-0.00241384 -0.00224917 0.000501544 0.000343853 0.00170598 0.00160852 0.00106645 0.000140969 0.000188723 
0.00378311 0.00386076 0.00392641 0.00395354 0.00393271 0.00397563 0.00394009 0.00401762 0.00390549 
0.00379703 0.00400871 0.00367798 0.00349702 0.00387638 0.0032313 0.00294115 0.00355094 0.00268765 
0.00118715 -0.000558081 0.00231798 0.00186308 0.00302334 0.00121577 0.00158212 0.00161992 0.010894 
0.00318088 0.00244631 0.00187335 0.00102655 0.00153508 0.000151021 -0.000752004 2.51957e-05 -0.00178898 
-0.00289724 -0.00183654 -0.00420966 -0.00565817 -0.00421257 -0.00726831 -0.00904624 -0.00719687 -0.0112767 
-0.0136064 -0.011054 -0.0165788 -0.0197216 -0.0163418 0.000600615 0.000154217 0.00156976 -0.0205845 
-0.0189993 -0.0171835 -0.0152723 -0.0159508 -0.0135142 -0.0116553 -0.0126493 -0.00974111 -0.00786444 
-0.009252 -0.00560165 -0.0039274 -0.00531035 -0.00206848 0.00150647 0.00322028 0.00087767 0.00276466 
-0.000473577 0.00451683 0.00435704 0.00690095 0.00695889 0.0089107 0.00446565 0.011025 0.013062 
0.00868726 0.0151326 0.0171587 0.0125912 0.0193107 0.0212814 0.0165602 0.0233568 0.000298451 
-0.00206194 -0.00209301 -0.00142896 0.00274388 0.00211273 0.00817591 0.0106584 -0.00327555 -0.00327016 
0.00337236 -0.00249213 -0.00223842 -0.00214472 -0.00277047 -0.000370219 -0.00129932 -0.00127751 -0.000501919 
-0.00124991 -0.000428105 -0.00220546 -0.00391323 0.000780961 -0.00323203 -0.00313725 -0.003443 -0.00175586 
-0.0016116 -0.00173458 -0.00205274 -0.00274182 -0.00312616 -0.00235301 -0.00319414 -0.00322732 0.00351176 
0.00366987 0.00376064 0.00350259 -0.00124027 -0.00172967 -0.00184529 2.27701e-05 4.49607e-05 0.000287904 
0.00194824 0.00241491 0.0024687 0.00214715 0.00597831 0.00766278 -0.00114378 -0.00193561 -0.00185785 
0.00386304 0.00278753 0.00462829 7.64481e-05 0.000761155 -0.0218036 -0.0185542 0.0205335 -0.0010499 
-0.000322089 -0.000156871 0.00156667 0.00141257 -0.0229852 0.00353423 0.00468008 0.000554728 0.0111765 
0.0146028 -0.0010872 -0.000657884 0.020431 0.0264884 -5.65865e-05 0.000410972 -0.000434486 0.000962492 
0.00136828 0.000742973 0.00172877 0.00205522 0.00165277 0.00239019 0.00266108 0.00234822 0.00293393 
0.00315964 0.00296885 0.00332178 0.00345135 0.00341091 0.017617 0.00228825 0.00235193 0.00250735 
0.00273527 0.0104966 0.00869013 0.00733684 0.00588959 0.00796818 0.00478869 0.0036426 0.00549918 
0.00261467 0.00163405 0.0033386 0.000822963 2.43513e-05 0.00155141 -0.000650045 -0.00134163 4.02292e-05 
-0.00178195 -0.014482 -0.0130444 -0.00355439 -0.00328965 -0.00349655 0.0021914 0.00270144 -0.00228162 
-0.00363099 -0.00377583 -0.0035032 -0.0609933 -0.0980287 0.038871 0.0582417 -0.00382514 -0.00386727 
-0.00367658 -0.00386018 -0.00385872 -0.0037094 -0.00165727 -0.00134364 -0.000655216 -0.000957312 0.00390579 
0.00393041 0.00396798 0.00393381 0.00387068 0.00374127 0.00355627 0.00356148 0.00344296 0.00330321 
0.00335058 0.00306218 0.00312302 0.015886 0.0149497 0.0124682 -0.000175331 -0.000203859 -0.000805533 
-0.000215933 -0.00035101 -0.000390336 0.000436191 0.00109773 0.00039223 -0.000400584 -0.00163314 -0.00273663 
-0.00121797 -0.00377425 -0.00519734 -0.00350657 -0.00669061 -0.00837069 -0.00619862 -0.0103497 -0.0126273 
-0.0154694 0.00228312 0.00178296 -0.0115867 -0.0100968 -0.0104491 -0.00862152 -0.00701059 -0.00776533 
-0.0055908 -0.00354608 -0.00525014 0.00282916 0.00494777 0.00148931 0.000570762 0.00125901 0.00137543 
0.00102289 0.00200527 -0.00121043 -0.00345653 -0.00328791 -0.00364762 -0.00190333 -0.00154909 -0.00153027 
0.000129971 0.000219869 -1.33534e-05 -0.000236697 -0.00115283 -0.000451104 0.00348091 -0.00271623 -0.00301351 
-0.00326617 -0.00299751 0.00104569 0.000558077 0.000279832 0.00379829 0.00385458 -0.00312526 -0.00250208 
-0.0021335 -0.00164741 -0.00382228 -0.00379328 -0.00368342 -0.00371598 -0.00359533 -0.00202015 -0.00246362 
0.00377287 0.00283681 0.00391546 0.00382257 0.00378759 0.0112815 0.00361214 -0.000371491 -0.000916619 
-0.000732603 -0.0096245 0.00261933 0.00283113 -0.000803981 0.000308892 -0.00271402 0.000755642 0.00678853 
0.00855988 0.00501119 0.0102983 0.0121299 0.00829707 0.013978 0.000886882 -0.000218791 8.45932e-05 
-6.74723e-05 -0.00186658 0.00262702 0.00199369 7.25527e-05 -0.000501659 -0.000441936 0.0116291 0.00101021 
0.00387487 0.00371783 0.00147888 0.00366111 0.00360761 -0.0032967 0.00364778 -0.00255805 -0.00281362 
-0.00230874 -0.00299469 -0.00313011 -0.00324849 -0.00327866 0.00964837 0.00300668 0.00358689 -0.00223395 
-0.00199258 0.0024272 0.00186778 -0.00837237 -0.0063133 -0.00690182 -0.00339676 -0.0030403 -0.00341419 
-0.00247222 -0.000631791 -3.09357e-05 0.000668425 0.001229 0.000493343 0.00182344 0.00219319 0.00180336 
0.00297514 0.00325034 -0.00103615 -0.00139669 -0.00207129 0.00772744 0.00646184 0.0079484 3.90734e-05 
-0.000170107 -0.000515747 0.00536798 0.00391054 0.00289118 0.00468519 0.00193171 0.00111845 0.00244295 
0.000279768 -0.00294839 -0.00176744 -0.00228988 -0.00212991 -0.00165041 -0.00340899 -0.0017872 -0.00398468 
-0.0030318 -0.00261759 -0.00321286 -0.00325196 -0.00281253 -0.00037887 -0.000349312 0.000239004 0.00350224 
0.0035327 -0.00130636 -0.000896445 -0.00191129 -0.00198376 0.000718264 0.000638849 0.00233913 0.0014893 
0.00108322 0.000843925 -0.00482882 0.00326842 0.00289787 0.0027989 -0.000413022 0.00358323 0.00352651 
-0.00178417 -0.000571181 -0.00578867 0.00336128 0.00360901 0.00511108 0.00647817 0.00262001 -0.000679272 
0.00308909 -0.00447544 0.00501251 0.00347733 0.00252319 0.00284257 -0.00361344 -0.00272576 0.00173012 
0.00233871 0.000461024 0.000582407 0.00152128 0.000965274 0.000790982 0.00161148 0.00256952 0.00285546 
0.0652031 8.77919e-05 0.000213321 0.00088928 0.00352926 0.00246173 -0.00220336 0.0275593 -0.00103642 
0.0033234 8.48185e-05 -0.000356623 -0.000839141 -0.00254109 -0.00270105 0.000195949 0.000190248 -0.000764501 
-0.00216844 -0.00207619 -0.00142473 0.000354876 -0.0683713 -0.0421046 0.00287248 0.0010498 -2.67678e-05 
0.000917583 -0.00204202 -0.000298979 -0.00150572 -0.0365593 -0.0263359 2.23469e-05 -5.65321e-05 -2.69186e-05 
-0.00019023 -0.000158947 -0.00022367 -0.000286647 -0.000276257 -0.000447068 -0.000358912 -0.000350582 -0.000623957 
-0.000402371 -0.000399498 -0.000744687 -0.000433204 -0.000433112 -0.000819583 -0.000438541 -0.00044167 -0.000858569 
-0.000425202 -0.00043203 -0.000853759 -0.000364695 -0.000374835 -0.000783586 -0.000299262 -0.00030596 -0.000661699 
-0.000213186 -0.000235354 -0.000517722 -0.000127912 -0.000135164 -0.000352409 -2.99587e-05 -4.55996e-05 -0.000166164 
6.32458e-05 5.08341e-05 2.06987e-05 0.000156791 0.00014499 0.000204667 0.000247203 0.000227079 0.000382405 
0.000322232 0.000314064 0.000542837 0.000391976 0.000376696 0.000683687 0.000436992 0.000429329 0.000793377 
0.000457872 0.000454891 0.000862351 0.000451231 0.000454841 0.000884984 0.000437742 0.000443347 0.000872442 
0.000371014 0.000382898 0.000803041 0.000280505 0.000291403 0.000652605 0.000161133 0.000187021 0.000455231 
3.79767e-05 6.81696e-05 0.000240918 -8.30113e-06 -2.15238e-05 4.77036e-05 -2.28461e-05 0.0641052 0.0313013 
0.0384786 0.0153832 0.0136411 0.0497886 0.00873712 0.00881396 0.0249461 0.0050054 0.0052177 
0.0143528 0.00275371 0.00285595 0.00810932 0.00144082 0.00154445 0.00443252 0.000670801 0.000728676 
0.00230123 0.000139108 0.000196588 0.000950015 -0.000174254 -0.000157642 8.06415e-05 -0.000411066 -0.000383438 
-0.000486933 -0.000596122 -0.000572776 -0.000952034 -0.000797848 -0.000776834 -0.00131658 -0.00103924 -0.00100612 
-0.0017302 -0.00135989 -0.00130753 -0.00226485 -0.00178729 -0.00171511 -0.00295332 -0.00232694 -0.00223224 
-0.00384849 -0.00295292 -0.00285015 -0.00494578 -0.00359243 -0.00345112 -0.0061492 -0.00405166 -0.00396969 
-0.00725497 -0.0040135 -0.00406543 -0.00778154 -0.0032207 -0.00342184 -0.0070896 -0.00164563 -0.00195729 
-0.00499561 0.000226405 -8.02965e-05 -0.00168934 0.00187256 0.00165909 0.00178379 0.00271686 0.00265395 
0.00431951 0.00283314 0.00290503 0.00535603 0.00244015 0.00255967 0.00515116 0.00174941 0.00185753 
0.0040739 0.00103995 0.00117032 0.00276005 0.00043954 0.000502064 0.00148198 9.09791e-06 5.00638e-05 
0.000455492 -0.000282751 -0.000250091 -0.000247725 -0.00048507 -0.000472266 -0.000736644 -0.000613135 -0.000600328 
-0.00106158 -0.000682234 -0.000677028 -0.00126331 -0.000716102 -0.000712293 -0.00136766 -0.000676328 -0.000680487 
-0.00137393 -0.000635974 -0.000642993 -0.00130186 -0.000584538 -0.000592971 -0.00121178 -0.000512163 -0.000522985 
-0.00109073 -0.000437517 -0.000449676 -0.00094998 -0.000320683 -0.000334413 -0.000763876 -0.000183176 -0.000203457 
-0.000517496 0.113127 8.55658e-05 6.11711e-05 6.42581e-05 0.000182262 0.000165864 0.000260463 0.0002931 
0.000279361 0.000459974 0.000382432 0.0003715 0.000660957 0.000471286 0.000459549 0.000834522 0.000527258 
0.00052004 0.000979337 0.000594193 0.000588409 0.00110181 0.000625096 0.000619678 0.00119643 0.000631534 
0.000625136 0.00123233 0.000631736 0.000638219 0.00123754 0.000579985 0.000586767 0.00118822 0.000449075 
0.000479612 0.00101744 0.000273186 0.000290778 0.000725064 -5.57053e-06 3.3492e-05 0.000273922 -0.00041712 
-0.000338443 -0.000348406 -0.000909283 -0.000812898 -0.00118243 -0.0014661 -0.00135234 -0.00219364 -0.00207926 
-0.00197812 -0.00330149 -0.00245073 -0.00242182 -0.00429685 -0.00246765 -0.00252369 -0.00478394 -0.00171911 
-0.00196469 -0.00418256 -0.000257966 -0.000644539 -0.00210131 0.00157719 0.00130487 0.00105161 0.00310458 
0.00281139 0.00427222 0.00359584 0.00360885 0.00633091 0.00336473 0.00345492 0.00682515 0.00288814 
0.00302906 0.00614249 0.0023906 0.00247182 0.00522294 0.00185098 0.00196463 0.00418836 0.00141994 
0.00144576 0.003233 0.00109839 0.00114886 0.00248063 0.000837801 0.000873652 0.00190429 0.00068916 
0.000703461 0.00149483 0.000553379 0.000561903 0.00119719 0.000380679 0.000395796 0.000870283 0.000197323 
0.000209847 0.000488324 -0.000117925 -9.29807e-05 -6.55271e-05 -0.000604914 -0.000499373 -0.000876619 -0.00134232 
-0.00114537 -0.00204045 -0.00226851 -0.00214638 -0.00372688 -0.0039608 -0.0036635 -0.0062259 -0.00705429 
-0.00665686 -0.0108424 -0.013633 -0.0126985 -0.0201419 -0.0310008 -0.0276298 -0.0429485 -0.0872126 
-0.0908861 -0.106517 -0.0774413 -0.086165 -0.0870908 -0.0656192 -0.0717397 -0.0756558 -0.0512488 
-0.0612691 -0.0652673 -0.0468311 -0.0527012 -0.0570988 -0.0393413 -0.0488865 -0.0496581 -0.0323769 
-0.0422164 -0.0444024 -0.0265791 -0.0365665 -0.0374656 -0.0204861 -0.0307491 -0.0309883 -0.0140108 
-0.0246073 -0.0242238 -0.0083557 -0.0187316 -0.017982 -0.00274063 -0.0131263 -0.0124926 0.00304091 
-0.0075171 -0.00677903 0.00823573 -0.002238 -0.00124919 0.0137351 0.00331905 0.00414679 0.0192152 
0.00885731 0.00981587 0.0250938 0.0147213 0.0160006 0.0308632 0.0202513 0.0222601 0.0373227 
0.026296 0.028437 0.0435518 0.0325211 0.035101 0.0507096 0.0395437 0.0420849 0.0581777 
0.0467766 0.0498033 0.0663633 0.0547733 0.0580843 0.0761812 0.0636991 0.0674261 0.0893024 
0.0748597 0.0787804 0.104867 0.0897536 0.0939873 0.099636 0.0282164 0.0362173 0.034458 
0.023253 0.0236264 0.0246312 0.0151589 0.0221731 0.0162106 0.00842493 0.0158646 0.0116914 
0.00351691 0.00952224 0.00787873 0.000151884 0.00493236 0.00411257 -0.00279128 0.000809234 0.00282843 
-0.005583 -0.00253069 -0.00224448 -0.00910918 -0.00621307 -0.00551972 -0.0131605 -0.0102762 -0.0100572 
-0.0183006 -0.0147304 -0.0160687 -0.0229686 -0.0209565 -0.0225126 -0.0397164 -0.0267827 -0.0374999 
-0.0293322 -0.0216573 -0.00581491 0.00118451 0.0306181 0.0385677 0.0437652 0.0324323 0.0280868 
0.0297547 0.0245274 0.0298265 0.0248725 0.0169377 0.024743 0.0165468 0.00988533 0.0199311 
0.0113933 0.00445055 0.01241 0.00821809 -0.000521985 0.00765352 0.00213353 -0.0055427 0.00385908 
-0.00269501 -0.0107057 -0.00129422 -0.00772512 -0.0157653 -0.00663867 -0.0134562 -0.0220073 -0.0122 
-0.0203442 -0.0301755 -0.0190653 -0.0309522 -0.0446911 -0.0276283 -0.0408167 -0.0319064 -0.02907 
-0.00887198 0.000649459 -1.36842e-05 0.0333485 0.0306896 0.0130421 -4.63036e-05 -6.48295e-05 -0.000260491 
-0.109347 -0.0837365 0.0197403 0.00337996 -0.0025688 -0.0147353 -0.0304528 0.0264659 -0.0109145 
-0.0281194 -0.0312267 -0.000121927 -0.00071725 -0.000598238 -0.000414385 -0.000286346 -0.000295526 -0.0006718 
-0.00105912 -0.00100834 -0.00116523 -0.00113631 -0.00140899 -0.00120583 -0.00120571 -0.0015219 -0.0011695 
-0.00118646 -0.00153864 -0.00105825 -0.00112218 -0.00145812 -0.000891343 -0.000967559 -0.0013006 -0.000688141 
-0.00077922 -0.00107255 -0.000454484 -0.000561007 -0.00080475 -0.000189449 -0.000306758 -0.00049362 7.49302e-05 
-3.40324e-05 -0.000151304 0.000340731 0.000228578 0.000195364 0.000590883 0.000488305 0.000533966 0.000808155 
0.000718807 0.000842647 0.000996866 0.000921647 0.00111146 0.00114563 0.00108959 0.00133696 0.00122575 
0.00119842 0.0015002 0.00125384 0.00125047 0.00159044 0.0012056 0.00122246 0.00159073 0.00107222 
0.00113504 0.00148955 0.000868932 0.000967767 0.00130852 0.000605305 0.000721748 0.00103436 0.000318858 
0.000441232 0.00069908 0.020221 0.0250203 0.000474816 0.000377161 0.0101322 0.0234527 0.0331023 
0.0412243 0.0384159 0.0514474 0.0743538 0.080073 0.0600046 0.0119783 0.0148837 0.0237626 
0.00697898 0.00858887 0.0143931 0.00398356 0.00499078 0.00860448 0.00198634 0.00269538 0.00502051 
0.000692581 0.00111479 0.0026757 -0.000337558 5.10579e-05 0.00093581 -0.00103111 -0.000796833 -0.000367272 
-0.00166565 -0.00143146 -0.00136048 -0.00235047 -0.00204028 -0.00217864 -0.00314923 -0.0027763 -0.00308649 
-0.00414128 -0.00367079 -0.00415232 -0.00541113 -0.00481018 -0.00545947 -0.00689657 -0.00621139 -0.0070673 
-0.0084197 -0.00771371 -0.00888858 -0.00958453 -0.00909791 -0.0107012 -0.010195 -0.0101545 -0.0122447 
-0.0092748 -0.0100235 -0.0126471 -0.00591394 -0.0075192 -0.0107641 -0.00135833 -0.00333611 -0.00595593 
0.00324442 0.00142179 8.14708e-05 0.00609396 0.00515221 0.00525334 0.0069605 0.00680089 0.00811345 
0.00638006 0.00678423 0.00845022 0.00479962 0.00553249 0.00714326 0.00303912 0.00375718 0.00508136 
0.00146658 0.00212747 0.00303566 0.000287059 0.000749929 0.00130067 -0.000527526 -0.000215793 -6.42648e-08 
-0.00114227 -0.000910926 -0.000943238 -0.00157146 -0.00141188 -0.00164643 -0.0018099 -0.00172129 -0.00209933 
-0.00191226 -0.00187067 -0.0023407 -0.0018855 -0.00191652 -0.00242516 -0.00181066 -0.00184892 -0.00239969 
-0.00170019 -0.00175668 -0.00229911 -0.0014948 -0.00157199 -0.00210372 -0.00127842 -0.00136478 -0.00183378 
-0.000992897 -0.00112161 -0.00152684 -0.000654614 -0.000802722 -0.00114835 0.0147966 0.00746693 0.00359576 
0.000467907 -0.000435031 0.000751748 0.000628541 0.000762326 0.00100939 0.00090792 0.00109827 0.00123614 
0.00114224 0.00141262 0.00143796 0.00136853 0.00169817 0.00161582 0.00154513 0.00195398 0.00170474 
0.00167054 0.00212985 0.00174736 0.00173816 0.0022258 0.00173593 0.00174181 0.00225363 0.00159819 
0.00166706 0.00216308 0.0013139 0.00145123 0.00192274 0.000866806 0.0010812 0.00150509 0.000184241 
0.000500649 0.000846528 -0.000713985 -0.000307657 -8.40898e-05 -0.00193777 -0.00135311 -0.00132908 -0.00331487 
-0.00268544 -0.00286018 -0.00481579 -0.0041556 -0.00463367 -0.00589793 -0.00546856 -0.0063362 -0.00617641 
-0.006166 -0.00741223 -0.00487545 -0.00573556 -0.00725396 -0.00173367 -0.00339848 -0.00502901 0.0027617 
0.000792005 -0.000425098 0.00694105 0.00536749 0.00538229 0.00924689 0.00845694 0.00991261 0.00906375 
0.00922687 0.011625 0.00794678 0.00843337 0.0109984 0.00674075 0.00731614 0.00956728 0.00533017 
0.00588302 0.0078881 0.00411145 0.00460306 0.00617493 0.00314551 0.00348891 0.00475785 0.00236715 
0.00267725 0.00359427 0.00180243 0.00199997 0.00267624 0.00126936 0.0014563 0.00190669 0.000724927 
0.000941423 0.00116238 -4.49487e-05 0.000284125 0.000258022 -0.00110263 -0.000627333 -0.000968086 -0.00267818 
-0.00199854 -0.00268445 -0.00496248 -0.00403265 -0.00516757 -0.00788531 -0.00663505 -0.00861912 -0.0122756 
-0.0100823 -0.0130627 -0.0202794 -0.016304 -0.0201299 -0.0366259 -0.0282346 -0.0332945 -0.0717447 
-0.0507824 -0.0568491 -0.084446 -0.00125096 -0.00284117 -0.0599579 -0.0656221 -0.0685912 -0.0742941 
-0.0632147 -0.0777802 -0.0522161 -0.0557865 -0.056583 -0.0467542 -0.045766 -0.0491116 -0.0407261 
-0.0373442 -0.0421953 -0.0348165 -0.0305924 -0.0355309 -0.0292962 -0.0245898 -0.0294221 -0.0239345 
-0.0187093 -0.0237916 -0.017906 -0.0129463 -0.018083 -0.0124451 -0.00730885 -0.0126941 -0.00707787 
-0.00206932 -0.00730459 -0.00168086 0.00379333 -0.00201657 0.00357573 0.00881701 0.00325924 0.00884565 
0.0142847 0.00844129 0.0140496 0.0193491 0.0138035 0.0196761 0.0247479 0.0190619 0.0251036 
0.0305499 0.0243961 0.0316544 0.0365039 0.0303417 0.0382157 0.0427666 0.0364142 0.0451801 
0.0496418 0.0428036 0.0526746 0.056534 0.0497266 0.0602764 0.0636797 0.0563146 0.0701822 
0.0712859 0.0628865 0.0152845 0.0251453 0.00769203 0.0186446 0.000988798 -0.0247204 -0.0209746 
0.0176309 0.0192376 0.00986473 0.0146522 0.0153018 0.0125297 0.00902213 0.0129161 0.0107143 
0.0041936 0.00910401 0.00794339 0.000736033 0.00590115 0.00472351 -0.00217508 0.00307949 0.00157955 
-0.00489618 -0.000537585 -0.00154252 -0.00852693 -0.00426629 -0.00477001 -0.0122247 -0.00840586 -0.00796954 
-0.0162616 -0.0130601 -0.011118 -0.0187918 -0.0183678 -0.0129064 -0.0159583 -0.0065539 -0.000734192 
-0.00932927 -0.00544549 -0.0150004 -0.0279021 -0.0163873 0.0241036 0.0218796 0.0146263 0.0207332 
0.0175522 0.0163916 0.0117256 0.0147306 0.0142876 0.00881779 0.00995474 0.0109035 0.00420195 
0.00604893 0.0068489 -0.0018112 0.00160468 0.00239562 -0.0068095 -0.00337253 -0.00219454 -0.0120504 
-0.00826299 -0.00676343 -0.0165957 -0.0135541 -0.0114597 -0.0217686 -0.0187709 -0.0153773 -0.0259275 
-0.0222966 -0.0179785 -0.0255061 -0.0102953 -0.0153358 0.00350754 0.02999 -0.000927751 -0.000838959 
-0.00101141 -0.00124127 0.000165048 0.000559 0.000344227 -0.00621919 0.0117863 0.00502794 0.00802897 
-0.000710022 0.0235161 0.0127997 -0.00573561 0.0174269 0.0294805 0.0212285 0.0196953 -0.0692093 
-0.00491525 -0.0143232 -0.0203358 0.0825868 0.0695431 -0.00011063 0.0101034 -0.00853536 -0.0113424 
-0.0194775 -0.0250873 -0.0220633 -0.0183857 -0.00180706 -0.00183339 -0.00172436 -0.00164345 -0.00168609 
-0.00174582 -0.00205585 -0.00147192 -0.00158052 -0.00187511 -0.00120637 -0.00134164 -0.0016204 -0.000877332 
-0.00103465 -0.00129448 -0.000492864 -0.000673356 -0.000891842 -9.30714e-05 -0.000282368 -0.000451184 0.000325659 
0.000139027 2.03239e-05 0.00072196 0.000543386 0.000500662 0.00108042 0.000926062 0.000950382 0.00138787 
0.00125264 0.00134958 0.00163205 0.00152527 0.00167892 0.00181117 0.00174143 0.00194166 0.00190401 
0.00187129 0.00212437 0.00187558 0.00190072 0.00219205 0.00173945 0.00181062 0.00213322 0.00150205 
0.001618 0.001949 0.00116823 0.0013273 0.00164596 0.000773691 0.000954669 0.00124585 0.000807191 
-0.00827234 -0.0121895 0.0162997 0.0131833 0.0162267 0.0201796 -0.00675965 -0.00598147 -0.00640883 
0.0259343 0.0321188 0.0273039 0.0570922 0.00698146 0.00748261 0.0063425 0.00788525 0.00348977 
0.00467003 0.00720214 0.00144549 0.00231366 0.00407372 -0.000175162 0.000516725 0.00171856 -0.00135152 
-0.000894603 -0.000106133 -0.00233544 -0.00185204 -0.00144255 -0.00342659 -0.00288523 -0.00256294 -0.00469387 
-0.00406648 -0.00382847 -0.00615306 -0.00539694 -0.00523138 -0.00793569 -0.0070325 -0.00685278 -0.0100279 
-0.0090414 -0.00885007 -0.0122512 -0.0113087 -0.0113188 -0.0136132 -0.0130397 -0.013821 -0.0145613 
-0.0146816 -0.0158037 -0.00573158 -0.00878657 0.00815688 0.00590754 0.00916032 0.00949115 0.00697927 
0.00792701 0.00910985 0.00458122 0.00563924 0.00635264 0.00247612 0.00345357 0.00392457 0.000773132 
0.00155713 0.00189922 -0.000497044 5.03334e-05 0.000218364 -0.00147429 -0.00104566 -0.00107009 -0.00213859 
-0.00183522 -0.00198983 -0.00255383 -0.00237271 -0.00260471 -0.00275754 -0.00267148 -0.00297056 -0.00281636 
-0.00279706 -0.00314444 -0.0027598 -0.0027929 -0.00317267 -0.00262331 -0.00268625 -0.00308171 -0.00237525 
-0.00250571 -0.00289154 -0.00206598 -0.00220885 -0.00260718 -0.00168739 -0.00186584 -0.00223467 -0.0012204 
-0.00143743 -0.00177044 -0.0126152 -9.78615e-06 0.0141577 0.00916273 0.00677251 0.00174405 0.00159218 
-0.000906578 0.00208912 0.00194508 0.00214344 0.00236524 0.00224854 0.00251246 0.00253104 0.00246629 
0.00277879 0.00263199 0.00259803 0.0029451 0.00263129 0.00264987 0.00302312 0.00247624 0.00256559 
0.00296416 0.00215941 0.00233315 0.00274103 0.00163512 0.00191036 0.00233523 0.00083245 0.00125813 
0.00168423 -0.000220715 0.000316142 0.000756966 -0.00169149 -0.000944744 -0.000511671 -0.00354712 -0.00267466 
-0.00225521 -0.00563604 -0.00462496 -0.00439456 -0.00747295 -0.00668043 -0.00670554 -0.00853809 -0.00822142 
-0.00867374 -0.00798614 -0.00860931 -0.00959332 -0.00550618 -0.00744316 -0.00908228 0.00128553 -0.00178715 
-0.00446271 0.00792592 0.00513381 0.0040086 0.0133106 0.0115944 0.0116584 0.0136724 0.013556 
0.0157695 0.0118186 0.01241 0.01462 0.0102697 0.0110652 0.0126439 0.00820796 0.00913735 
0.010486 0.00636162 0.00717753 0.00832052 0.0048448 0.00552509 0.00642908 0.00360611 0.00416982 
0.00485124 0.00257844 0.00301898 0.00350398 0.00164608 0.0020593 0.00233286 0.00063945 0.00110128 
0.00118327 -0.000667243 -2.1345e-05 -0.00016571 -0.0024489 -0.00163144 -0.00193402 -0.00492283 -0.00378118 
-0.00437477 -0.00853084 -0.00675928 -0.00786514 -0.0133686 -0.0111557 -0.0127819 -0.019423 -0.0164126 
-0.0189134 -0.0273699 -0.0223836 -0.0256602 -0.0432623 -0.0340699 -0.0359971 -0.0551439 0.00604414 
0.00111351 -0.0508175 -0.054273 -0.0448618 -0.0482428 -0.0461394 -0.00133396 -0.00638615 -0.015069 
-0.0169271 -0.000888381 0.00143812 -0.000206684 -0.00183246 -0.00180069 -0.0020461 -0.00212175 -0.0391812 
-0.0421989 -0.0413782 -0.0331318 -0.0364996 -0.0359822 -0.0273532 -0.0304441 -0.0304778 -0.0218909 
-0.0249151 -0.0250976 -0.0163965 -0.019365 -0.0198624 -0.0112222 -0.0140612 -0.0146954 -0.00605109 
-0.00885318 -0.00971647 -0.000904611 -0.00367855 -0.00476925 0.00422781 0.0015107 0.000247703 0.00933507 
0.0065086 0.00521319 0.0145488 0.0117315 0.0101945 0.019686 0.0169068 0.015203 0.0249279 
0.0219264 0.0200549 0.0306173 0.0274897 0.0250284 0.0365282 0.0333221 0.0304424 0.0425633 
0.0391757 0.035927 0.0485114 0.0451044 0.0413159 0.052451 0.0497491 0.0447825 0.0575122 
0.0547748 0.047591 0.0487543 0.0102087 0.0125936 0.0176828 0.00897206 0.00909309 0.00909458 
0.00783089 0.00614358 0.00717073 0.00556661 0.005806 0.0045958 0.00297096 0.00425814 0.00190752 
0.000151858 0.00211856 -0.000922761 -0.00259722 -0.000259345 -0.00349512 -0.00510606 -0.00245267 -0.00603405 
-0.00758583 -0.00435873 -0.00845907 -0.0095762 -0.00593748 -0.00957662 -0.00897273 -0.00628901 0.00138204 
0.00121063 0.00172057 0.0125118 0.0127801 0.0126641 0.0112017 0.00942036 0.0103603 0.00839173 
0.00859851 0.00696694 0.00488594 0.00648151 0.00320928 0.0012359 0.00347025 -0.000652568 -0.00291615 
1.82593e-05 -0.00462034 -0.0068429 -0.00342306 -0.00828989 -0.0104314 -0.00654563 -0.0113988 -0.013186 
-0.00907626 -0.0133606 -0.0135207 -0.0102118 -0.0122233 -0.00873182 -0.00596177 -0.00902796 0.0396411 
0.00372415 0.00755584 0.00426974 0.0083439 0.0125112 0.00830538 0.00633479 -0.00118223 -0.0544774 
0.00098062 -0.00182088 -0.00150224 -0.00140748 0.0410814 0.014052 0.0118212 0.0112848 0.00884208 
-0.0122815 -0.0156492 0.0114354 -0.01271 -0.012132 -0.0139875 -0.0166726 0.00175015 -0.00128281 
0.00955003 0.00872646 -0.0118189 -0.0133704 -0.00450074 0.0101878 0.00126707 -0.00575868 -0.0106252 
0.00519162 0.000776716 8.87117e-06 -0.000898849 0.000407096 -0.00388411 0.0209923 0.0192973 0.00568601 
-0.018415 -0.00132816 -0.0129777 -0.0172496 -0.0191026 -0.00391721 -0.00721371 -0.00300682 0.0155615 
0.0117513 0.0161771 -0.056827 -0.0583544 0.0107036 -0.0480246 -0.0502489 -0.00225496 -0.00232259 
-0.00136697 -0.0015588 -0.000894381 -0.00112224 -0.00138299 -0.000397952 -0.000630016 -0.000854099 0.000150818 
-0.000107789 -0.000278779 0.00067574 0.000434854 0.000317714 0.00117214 0.000946322 0.000892611 0.00160491 
0.00141573 0.00142557 0.00195514 0.00180219 0.00188187 0.00223653 0.00211636 0.00225393 0.00241188 
0.00233992 0.00253009 0.00245318 0.00244794 0.00267894 0.0023623 0.00242034 0.00269118 0.00212719 
0.00224698 0.00255039 0.00174899 0.00192614 0.00223497 0.0014836 -0.0163098 -0.018972 -0.00159047 
0.0177914 0.0217441 -0.00540709 -0.00738117 0.0121216 0.0147137 0.0183324 0.0266852 0.0326721 
0.0265613 0.0104249 0.0165903 0.00469469 0.006177 0.00781129 0.0097407 0.0125652 0.00838531 
-0.000298728 0.000582447 -0.000829314 -0.02164 -0.0172127 -0.00237589 -0.00174517 -0.000611816 -0.00377647 
-0.00307022 -0.00226546 -0.00523563 -0.00448861 -0.00368941 -0.00686671 -0.00598439 -0.00514639 -0.00881034 
-0.00776517 -0.00671605 -0.0113981 -0.0100727 -0.00857123 0.00498572 -0.0445631 -0.0402251 -0.0333118 
-0.0117841 -0.00767894 0.007954 0.0094139 0.000935944 0.00186755 -0.000610878 0.00010371 1.25501e-05 
-0.00176491 -0.00122054 -0.00139972 -0.0025324 -0.00216199 -0.00235874 -0.00304964 -0.0028029 -0.00300836 
-0.00332661 -0.00319447 -0.00341862 -0.00344203 -0.00338721 -0.00362801 -0.00342197 -0.003434 -0.00368975 
-0.00329067 -0.00335745 -0.0036265 -0.00306642 -0.00317981 -0.00345812 -0.00274691 -0.00291003 -0.00319803 
-0.00233465 -0.00254624 -0.00284461 -0.00181971 -0.00208652 -0.00191206 0.00256394 -0.043036 0.00483494 
0.0060709 0.00598345 0.0121481 0.00810967 0.00632943 0.00281903 0.00265822 0.00307926 0.00297578 
0.00313259 0.00324268 0.00318275 0.00338512 0.00330185 0.00329762 0.00353679 0.00320916 0.00328752 
0.00356577 0.00295683 0.00311482 0.00344835 0.00250262 0.00276825 0.00316027 0.0017979 0.00219483 
0.00266409 0.000809537 0.001343 0.00190512 -0.000510755 0.00021594 0.000872424 -0.0023109 -0.00134707 
-0.000529033 -0.00460442 -0.00348306 -0.00242616 -0.0073576 -0.00610585 -0.00515562 -0.00291973 0.00881568 
0.00473208 0.0173907 0.0173917 0.0128685 0.014031 0.0100667 0.0111951 0.0124049 0.00776982 
0.00878156 0.00937585 0.00590608 0.006759 0.00712434 0.00435141 0.00509926 0.00533743 0.00300386 
0.00365846 0.00384449 0.00175612 0.00234856 0.00248058 0.000414005 0.00108403 0.00105908 -0.00129043 
-0.000434313 -0.000578675 -0.00359455 -0.00247698 -0.0027085 -0.00664073 -0.00510828 -0.00553541 -0.0109606 
-0.00875389 -0.0093494 -0.0172057 -0.0141283 -0.0148739 -0.024591 -0.0209654 -0.0221253 -0.0296418 
-0.00280808 -0.00610694 0.00353008 0.000809627 0.00226766 -0.0403968 -0.0422349 -0.037072 -0.0394553 
-0.0360143 0.00705323 0.00721213 -0.0224296 -0.0249673 -0.0174441 -0.0200588 -0.0199866 -0.0127209 
-0.0151988 -0.0154879 -0.00810402 -0.010505 -0.0110912 -0.00331218 -0.00574585 -0.00657147 0.00146529 
-0.00100356 -0.00203751 0.00617393 0.00374381 0.00242323 0.0109399 0.00845227 0.00692117 0.0156017 
0.0131665 0.011379 0.0199618 0.0176348 0.0155784 0.0246914 0.0221673 0.0196688 0.0297018 
0.0270673 0.0240147 0.0346604 0.0320711 0.0284985 0.0394033 0.0370421 0.0330504 0.039807 
0.0191137 0.00120004 0.00295839 0.00374735 0.00416846 0.0011787 -0.0017427 -0.00189113 -0.00183056 
-0.0013362 6.58808e-05 -0.000758161 0.00420649 0.00384518 0.00226768 0.00342964 0.00261614 0.00220916 
0.00204942 0.00101751 0.00147427 0.000365918 -0.000771936 0.000431313 -0.00138603 -0.00224791 -0.000728286 
-0.00282425 -0.00355275 -0.00163812 -0.00397673 -0.00444563 -0.00233771 -0.00428844 -0.00369761 -0.00235863 
0.00198105 0.0017666 -0.00202951 -0.00215101 -0.00242979 -0.00217174 -0.0274047 -0.0300718 -0.0246439 
0.00700218 0.00639875 0.00510533 0.00562767 0.00449965 0.00442344 0.00369603 0.00211239 0.00310881 
0.000872932 -0.000757856 0.00121738 -0.00203365 -0.00353278 -0.00108208 -0.00468091 -0.00592121 -0.00322359 
-0.00678199 -0.00764684 -0.0048954 -0.00803248 -0.00791532 -0.00585807 0.00197095 0.00313164 0.00492198 
0.00182629 0.00243824 0.0022344 0.0022876 0.00263077 0.00364079 0.00151067 -0.0111178 -0.0132386 
0.0116523 -0.0324159 -0.0350448 -0.0333838 -0.00058046 0.0385791 -0.00205363 -0.00486608 -0.00468161 
-0.00565385 -0.0153701 -0.000536896 -0.000970632 0.0133606 0.0010733 -0.00224902 -0.00234428 -0.00232291 
-0.00763182 -0.00933107 -0.0370218 -0.0138768 0.000780747 -0.00123758 -0.0105973 -0.00239954 0.00325541 
-5.97941e-06 0.00989409 0.00275957 -0.00499953 -0.0078131 0.0151341 0.0164242 -0.00951671 -0.00866388 
-0.0106992 -0.0104214 -0.0292252 -0.0124111 -0.0313827 -0.00565577 -0.00751983 -0.00629393 -0.00260001 
-0.00237256 -0.00238079 0.00693403 0.00489216 0.00568322 0.0404405 0.0400066 0.0356932 0.033838 
-0.000976973 -0.0026821 -0.00079897 0.0141148 0.00499072 0.00558448 0.00447554 0.00548658 -0.0107224 
-0.00189463 -0.00109419 -0.00140852 -0.00166543 0.000485862 0.000186037 0.00110853 0.000824373 0.000702164 
0.00166668 0.00140995 0.00135198 0.00213806 0.00192988 0.00192873 0.00252206 0.00235121 0.00241617 
0.00279624 0.00268496 0.00280156 0.00292584 0.00288006 0.00305621 0.00289741 0.00292275 0.00314177 
0.00269361 0.0028018 0.00305207 0.00248183 -0.0313843 0.0246548 0.0297252 0.0317923 -0.0309548 
-0.0263216 -0.00198277 -0.00124108 -0.0140899 -0.0117428 -0.0033804 -0.00265274 -0.00167741 -0.00472764 
-0.00401018 -0.00295601 -0.00618578 -0.00540877 -0.00417878 0.000380016 -0.00150733 -0.000159282 -0.000465771 
4.35752e-06 -0.000812808 -0.00109038 -0.000702391 -0.00258725 -0.000937525 -0.000144992 -0.00342031 -0.00316506 
-0.0037033 -0.00355852 -0.00371956 -0.00382931 -0.00375926 -0.00390831 -0.00382929 -0.00382452 -0.00396649 
-0.00371934 -0.00377172 -0.00391726 -0.00351611 -0.00361521 -0.00376926 -0.00322335 -0.00336785 -0.00352922 
-0.0028309 -0.00302677 -0.0031963 -0.00276749 0.00127781 0.00228407 6.21545e-05 0.00807496 0.00931392 
0.0037165 0.00367117 0.00357305 0.00347324 0.00376008 -0.00341461 0.00332566 0.00317394 0.00351915 
0.00373098 0.00375645 0.0038925 0.00360625 0.003703 0.00390161 0.00332536 0.00350889 0.00378004 
0.00282701 0.00312524 0.00350629 0.00208457 0.00251983 0.00302829 0.00110033 0.00165637 0.00233911 
-0.000347257 0.000479865 0.00132118 -0.00173427 -0.000766978 -0.00816417 -0.0257344 -0.0277862 0.0103922 
0.0120383 0.0114069 0.00888257 0.00435084 0.00514196 0.00292496 0.00364686 0.00341725 0.00170256 
0.00239672 0.00219021 0.000140669 0.000935441 0.000824847 -0.00162118 -0.000653349 -0.000768413 -0.00419053 
-0.0028481 -0.00293316 -0.00736418 -0.00571595 -0.00575827 -0.0117179 -0.00943581 -0.00938206 -0.0180874 
-0.0147055 -0.0144817 -0.0222817 -0.00926515 -0.0113968 -0.0132626 -0.0153765 -0.0114435 0.00848299 
-0.0307121 0.00602184 0.00700454 0.00692604 0.0049368 -0.00292528 -0.00256285 -0.00337405 -0.0173316 
-0.0195635 -0.0150023 -0.00502626 -0.00724878 -0.00763462 -0.00081174 -0.00295116 -0.00367162 0.0034781 
0.00133452 0.000312452 0.00765236 0.00541248 0.00424996 0.0114778 0.009365 0.00784148 0.0152624 
0.0133314 0.0112925 0.0188603 0.0168923 0.0146061 0.0227298 0.0206463 0.0177553 0.026955 
0.0248784 0.021363 0.0313489 0.0291402 0.0253584 -0.000483802 0.000409454 -0.00171786 -0.00192187 
-0.0021185 -0.0019632 -0.00217453 -0.00164 -0.00279937 0.000715551 0.00101399 -0.000712227 -0.00967419 
-0.000515933 0.000505944 0.00194602 0.00189447 -0.000244089 0.0010966 0.000999161 -0.000125543 0.000947371 
0.000588937 0.000110624 0.000372264 -0.000125276 0.000105925 -0.000503283 -0.00782645 -0.00703036 -0.000754193 
-0.00105761 -0.000150208 -0.00114943 -0.00129479 -0.000271298 -0.0013237 -0.00098024 -0.000145189 0.000208979 
0.00146416 0.00158276 0.00101354 0.00295962 0.00274669 0.00370842 0.00368068 0.00327133 0.00291503 
0.00218964 0.00235605 0.00173179 0.00157435 0.000699358 -0.00284018 -0.00234202 -0.000319097 -0.00129382 
0.000290397 -0.00204837 -0.00284901 -0.00119673 -0.00345006 -0.00400332 -0.00224102 -0.00449308 -0.00466807 
-0.00311383 -0.0216902 -0.0239002 -0.0226563 -0.018922 -0.00104577 -0.00190083 -0.00227304 -0.00106481 
-0.00183525 -0.00138259 -0.00259063 -0.00514285 -0.00693983 -0.00617409 0.0181095 0.0215165 0.0242803 
0.000654442 -0.00025917 0.000727321 0.0128015 0.0152408 0.018034 0.00162359 0.000712634 0.00342154 
0.00162569 0.00127921 -0.00461002 -0.0296367 -0.0313859 -0.0270149 0.000341315 0.00316297 -0.0260351 
-0.00240043 -0.00228865 -0.0024446 -0.0217099 -0.00449788 -0.00408989 -0.00330111 0.00207106 -0.00280569 
-0.00285905 0.00352905 0.00386998 0.00253681 0.00510039 0.00686904 0.00502362 0.00908959 0.0109709 
0.00906066 0.0313737 0.00608804 0.00480809 -0.00253466 -0.00265014 -0.00293321 0.00043665 -0.000556522 
0.00604459 0.00640495 -0.00440148 0.00745023 0.00268391 0.00246324 0.00308227 0.00291518 0.00298326 
0.00329953 0.00321273 0.00334527 0.00333068 0.00332684 0.00350346 0.00325419 -0.00111505 -0.000827541 
-0.00260938 -0.00200472 -0.00367645 -0.0037247 -0.00404871 -0.00305683 -0.00281892 -0.00133362 -0.000640724 
-0.00104404 -0.00479666 0.0276409 -0.000561185 -0.000915734 -0.00397484 -0.00391192 -0.00137453 -0.00169894 
-0.00124268 -0.00388033 -0.00375448 -0.00394599 -0.00387609 -0.00391437 -0.00370698 -0.00379168 -0.00379876 
-0.00344197 -0.00357549 -0.00360762 0.00395227 0.00397855 -0.00365247 -0.00344759 -0.00383372 0.00394368 
0.00390787 0.00400069 0.00118074 0.00145639 0.00222729 0.00359045 0.00345445 0.00384746 0.00393454 
0.00401779 0.00359876 0.00376814 0.00393456 0.00318071 0.00343715 0.00372564 0.00250948 0.00287977 
0.00333618 0.00201366 -0.002654 -0.00217236 0.00372849 0.00381972 0.00416244 -0.00397328 -0.00396751 
-0.00397374 0.000203655 -0.000151053 -0.00036209 0.000192785 0.000998729 0.0023382 0.00302297 -0.00215402 
-0.0013151 -0.00108945 -0.0034077 0.00822767 0.0113131 -0.0069257 -0.00525447 -0.00442781 -0.0110176 
-0.00886755 -0.00824803 -0.016425 -0.0133583 -0.012588 -0.00939674 -0.0110993 -0.00239701 -0.00424009 
-0.0246058 -0.023792 -0.019608 -0.0229883 -0.00603825 -0.00800245 -0.00777324 -0.00466044 -0.0125486 
-0.0142054 -0.0104675 0.00712607 0.00558618 0.0108712 0.00914544 0.00689091 0.0134376 0.0120697 
0.00984636 0.0162713 0.0147992 0.0122045 -0.00243941 -0.00192941 -0.00381017 -0.00324523 -0.00230208 
-0.00377781 -0.00211363 -0.00237912 -0.00213205 0.00217263 0.00190374 0.00245499 -0.0032484 -0.00292546 
-0.00357942 -0.00171624 -0.00130366 -0.001922 -0.00240328 0.00153053 0.00119823 0.0124126 0.0176579 
-0.000569295 -0.000416548 -0.00135158 -0.000136886 -0.000114442 -0.000667844 0.0289892 0.0335558 0.044871 
0.0696406 7.51143e-05 5.576e-05 1.75665e-05 0.000323011 0.000426145 0.000572205 0.00074858 0.000906213 
0.00130895 0.00129264 0.00207599 0.001879 0.00244862 0.00102511 0.000747967 -0.0880639 0.000556846 
-0.000213346 0.000166003 -0.000615052 -0.00105966 -0.000261901 -0.00136218 -0.001669 -0.000729885 -0.00204068 
-0.0024324 -0.0011859 0.0242067 0.00157029 0.0012643 0.00182404 0.0200816 0.0230176 0.0211884 
0.0171056 0.000909485 0.000564993 0.000416133 -0.00270152 -0.00252853 -0.0027176 -0.00294171 -0.00323553 
0.00673543 0.00274879 0.00270308 0.00270684 0.0015014 0.00564646 0.000411317 0.000146421 0.000923426 
0.00113289 -0.00267403 -0.00391398 -0.00242714 -0.00256986 -0.00328586 -0.00310086 -0.0137376 -0.0163752 
-0.0183451 0.00381825 0.00372968 0.00388283 0.00365982 0.00266343 0.00441809 0.00331312 -0.00315869 
-0.00039955 -0.00110551 0.00147321 0.00459678 0.002911 0.00220669 0.00223502 0.00335372 -0.00286593 
-0.00153459 0.00272805 0.00381979 -0.0181365 -0.00224686 0.00178117 0.00165127 0.00479164 0.00659398 
0.00456089 0.00863721 0.0109848 0.00806895 0.00374399 0.00280388 0.0194504 0.017687 0.0146595 
0.0174348 0.00136903 0.00126398 0.000406478 -0.00293639 -0.00309363 -0.00329233 -0.00282912 -0.019727 
-0.0212615 -0.0171942 0.000735203 -0.019986 0.00324892 0.00302256 -0.000234604 -0.000198976 -0.00304749 
-0.00297072 -0.00331812 -7.26152e-05 -0.000482076 -0.00812704 -0.00929055 -0.00381036 -0.003767 -0.00343542 
-0.00355578 -0.0032392 -0.00357421 -0.00362292 -0.00337221 0.00384748 0.00391855 0.00391676 0.00388731 
0.00392354 0.00394408 0.00383083 0.00250538 0.00225208 0.00141594 0.00264704 -0.00578195 -0.00394425 
0.00191047 -0.00241786 -0.00228205 -0.00169479 -0.00241108 -0.00371439 -0.00363572 -0.00356331 -0.00403928 
-0.0029026 -0.016802 -0.00943514 -0.0074659 -0.0067767 -0.0140658 -0.0116769 -0.0105873 -0.0155412 
5.33148e-06 -0.000147657 -0.000882223 0.0107275 0.00974201 0.00848447 0.00743662 0.00733635 0.00570107 
0.00306732 0.00332161 0.00334739 -0.00382134 -0.00382783 -0.00364813 0.000825832 0.000450666 0.00035395 
0.00367499 0.003797 0.00377729 0.00271407 0.0024275 0.00301205 -0.00362651 -0.00345727 -0.00340731 
-0.00365071 -0.0036842 -0.00353325 -0.00337114 -0.00121698 -0.00074326 0.0211891 -0.000166943 0.000197911 
-0.000623677 0.00062152 0.000987898 0.000510098 0.0015641 0.00206583 0.00163479 0.00207316 0.00260656 
0.0030096 0.00233275 -0.000636005 -0.000144359 0.00362574 0.00373898 0.00357241 -0.000202496 -0.000221055 
-0.000277891 -0.000442708 0.00033485 0.00343723 -0.00275328 -0.0020641 -0.0024774 0.0132681 0.000339371 
0.00117444 -0.00107598 -0.00153397 -0.00190407 -0.00785289 -0.0101331 0.00110841 0.000635758 -0.000265048 
-0.000426096 -0.0011337 0.00117356 -0.0145528 0.012932 0.0137131 0.00381514 0.00383079 -0.00105472 
-0.00104028 -0.0003539 0.00354336 0.0151281 -0.00159607 -0.00205816 -0.00169361 -0.00175271 -0.00298466 
-0.00189859 -0.000432175 -0.00215712 0.0118962 0.000795326 0.0012072 0.00154028 0.00938018 -0.00351497 
0.00390673 0.00541498 0.000280163 0.000345901 0.0037417 -0.00230621 -0.00259305 -0.00256851 0.00267308 
0.00326096 0.0657187 0.00428496 0.00354388 0.0034972 0.00363131 -0.00291049 -0.00295599 -0.000474737 
-0.00208351 0.00118391 -0.00695769 -0.00607908 -0.00566625 0.000110592 -7.35955e-05 -0.000281081 -0.000232138 
8.12337e-05 0.00202648 0.00169727 0.00230873 -0.00304317 0.00480959 -0.00197421 0.00843653 0.00264206 
0.00244408 0.00147261 0.000417701 -0.000888796 -0.00391787 0.00910071 -0.00552996 -0.00314969 -0.00175239 
-0.00158164 -0.000784509 -0.00335564 -0.00330476 0.00355988 0.00359886 0.00725556 -0.00313069 0.00317666 
0.00355069 -0.00318625 -0.00309969 -0.00286233 0.00630114 0.00139099 -0.000816879 -0.000156431 0.00359481 
0.00358581 0.00332664 0.00332383 0.00131622 -0.000272765 0.00513361 0.00726428 0.00332966 0.0034084 
-2.42145e-05 -0.0124092 -0.0011812 -0.000787188 -0.00193699 -0.00163679 -0.00213269 0.00347695 0.00353346 
0.00326964 -0.00616914 -0.00663394 -0.00318625 -0.00324198 -0.0031232 0.00184235 0.00287633 -0.000441945 
-0.00103771 -0.00512405 -0.00403584 -0.000403867 -0.00141886 0.0054396 0.00173305 0.00123242 -0.00245325 
-0.00271886 -0.00126972 -0.000577336 0.00034428 -0.00292938 -0.00255388 0.000665191 0.000135565 -0.000123807 
-0.00316698 0.00302002 -0.00157859 -0.00200628 -0.00228004 -0.00274343 -0.00186011 0.000805674 0.00107076 
0.00263495 0.00223564 0.00209576 0.00297471 -0.00366402 0.00380324 0.00451871 0.00231781 0.00316807 
-0.0233166 -0.00529128 -0.00438832 0.00263155 0.00272467 0.00229695 0.00279354 -0.00258848 -0.00436831 
1.22457e-05 0.000231406 0.000903162 -0.0125728 -0.000732322 -0.00317511 0.00165548 0.00177037 0.00118973 
0.00204394 0.00103812 0.0029358 -0.00606568 0.00618895 0.000553684 0.00108211 0.000371488 -0.00244437 
-0.00297786 0.00133958 0.00079735 4.60407e-05 0.0019691 0.00246233 -0.00753173 0.00575955 0.00285835 
0.00187707 -0.000535906 -6.58452e-05 -0.00666892 0.006789 -0.0011468 -0.00754878 0.00326219 0.00294655 
-0.00992592 -0.00743241 -1.09393e-05 -0.0991525 -2.77364e-05 -8.23378e-06 -5.62918e-06 -5.96192e-06 1.10956e-06 
4.11781e-06 7.66771e-06 6.66852e-06 1.0318e-05 1.33287e-05 1.81683e-05 1.6103e-05 2.00691e-05 1.89504e-05 
2.4057e-05 2.29446e-05 2.87772e-05 2.46634e-05 3.38904e-05 2.45922e-05 3.28307e-05 3.50195e-05 4.19743e-05 
3.63629e-05 2.93957e-05 3.17835e-05 3.96045e-05 3.9742e-05 5.0726e-05 1.8268e-05 2.72354e-05 -4.46841e-05 
-6.83564e-05 -8.4733e-05 -0.00010635 -0.000196054 -0.000183001 -0.000278206 -0.00023556 -0.000247096 -0.000259044 
-0.000176071 -0.000134061 -8.80187e-05 -1.2021e-05 0.000130291 0.000191118 0.000283022 0.000232928 0.000294889 
0.000190201 0.000178076 0.000184769 0.000172502 0.000142318 7.49698e-05 4.94373e-05 3.60073e-05 6.16063e-05 
5.06776e-05 4.28146e-05 4.75067e-05 4.47542e-05 4.70517e-05 6.43557e-05 6.0927e-05 8.45716e-05 9.87674e-05 
7.94732e-05 6.67708e-05 9.98603e-05 0.000180705 0.000173263 0.000172636 0.000178243 0.000292261 0.00032401 
0.000429294 0.000416887 0.000582172 0.00070258 0.00129859 0.00252538 0.00311423 0.00624316 3.93376e-05 
0.000117059 0.000113615 -0.00457869 0.106704 1.80996e-05 3.35235e-05 -0.00804258 -0.00575403 -0.0059758 
-0.00192896 -0.00128274 -0.000693478 -0.000641234 -0.000412501 -0.000417469 -0.000287393 -0.000290362 -0.000228181 
-0.000225405 -0.000163721 -0.00015289 -0.00013357 -0.000131848 -0.000101786 -0.000106664 -8.17093e-05 -7.66723e-05 
-6.32653e-05 -5.80847e-05 -4.69129e-05 -4.52265e-05 -3.7401e-05 -4.16688e-05 -3.90962e-05 -4.89028e-05 -5.16017e-05 
-8.95498e-05 -9.18155e-05 -0.000135566 -0.000142004 -0.000203498 -0.000231757 -0.000271875 -0.000295879 -0.000337319 
-0.000312608 -0.000330134 -0.000255322 -0.00019831 -0.000104168 2.37285e-05 9.90007e-05 0.000181698 0.000218669 
0.000277399 0.00027064 0.00029473 0.000251669 0.000225119 0.000171771 0.000154855 0.000112756 9.00143e-05 
3.8227e-05 1.47121e-05 5.65829e-06 -1.54211e-05 -1.96131e-05 -2.97287e-05 -3.12535e-05 -3.50878e-05 -3.00684e-05 
-3.94182e-05 -3.49977e-05 -3.82408e-05 -3.36417e-05 -3.60287e-05 -3.23555e-05 -3.35099e-05 -2.86264e-05 -2.99412e-05 
-2.50378e-05 -2.66119e-05 -2.17548e-05 -2.48311e-05 -2.0052e-05 -2.16514e-05 -1.7499e-05 -1.66015e-05 -1.27287e-05 
-6.83326e-06 1.7271e-06 1.10078e-05 2.01477e-05 1.23924e-05 -1.16868e-05 -2.10644e-05 1.88721e-05 7.49548e-06 
5.14356e-07 -1.014e-05 -1.26222e-05 -1.004e-05 -1.5868e-05 -1.49493e-05 -1.81344e-05 -1.62095e-05 -1.992e-05 
-1.76026e-05 -2.05379e-05 -1.80698e-05 -2.02e-05 -1.66572e-05 -2.0034e-05 -1.55586e-05 -8.69521e-06 -1.33254e-05 
-9.28788e-06 -2.55611e-06 -1.25909e-06 -4.97377e-06 -2.58991e-06 1.12971e-06 3.04681e-06 4.8237e-06 5.47926e-06 
6.15076e-06 4.1604e-06 1.28811e-05 1.40502e-05 1.4339e-05 7.9192e-06 1.24814e-05 1.08725e-05 1.56172e-05 
1.4605e-05 2.10502e-05 1.81176e-05 2.1515e-05 1.77959e-05 1.93958e-05 1.3549e-05 1.28394e-05 1.03071e-05 
5.85619e-06 -2.95313e-06 -4.33864e-07 2.3559e-07 -1.47076e-05 -0.0154901 0.00777246 0.0137051 -0.0252362 
0.00140734 -0.0087672 0.00502002 -0.00181777 -0.00909939 0.0033583 -0.00944727 0.00408167 -0.00379035 
0.0141182 0.00370368 0.0157298 0.00218181 0.00955429 -0.00320512 0.00649955 -0.00357923 0.00938449 
0.00189498 -0.00145117 -0.022197 0.00394638 0.0142962 -0.0145236 0.00418568 -0.000996323 0.00460313 
0.00921025 0.0175904 0.0312128 -0.0189843 -0.000721916 -0.00157827 4.89563e-06 1.23062e-05 4.05057e-06 
-1.47108e-05 0.00806002 -0.00895077 0.00235908 -0.000981299 0.00783552 -0.00199118 0.00445203 -0.0128725 
5.86599e-05 -0.012951 0.00402677 -0.00621204 0.00135426 -0.00256684 -0.00226031 0.0188799 -0.00237677 
-0.0118093 -0.0048539 -0.00878553 -0.0123319 -0.0125806 -0.0273336 -0.00526989 8.21973e-05 -0.0102814 
-0.00798818 0.00356716 0.0123831 0.0153326 0.0121933 0.0150005 0.00754505 0.00608087 0.0229651 
0.0412314 -0.0426776 3.45657e-05 6.50835e-06 0.0436078 0.0444884 -0.057704 0.012582 -0.0286488 
0.00941958 0.0359199 -0.012411 -0.0185219 -0.0155738 -0.000854338 -0.00180475 -0.0017826 -0.00271218 
-0.00793818 -0.0112365 -0.00996552 -0.00600573 -0.00504236 0.0131457 0.0114394 0.011237 -0.0220574 
-0.0185621 -0.0161027 -0.02119 -0.0178341 0.00240436 0.00241057 0.0026863 -0.00493087 -0.00467753 
-0.00420301 0.0259573 0.0229834 0.0251226 -0.00266641 -0.00439904 -0.00313173 -0.00266829 -0.00255427 
-0.00244574 -0.00109489 -0.00115833 -0.00137066 -0.00144754 0.00250319 0.00274189 0.00242387 -0.00259463 
-0.00213044 -0.00234373 -0.00198062 -0.00185487 -0.00216993 -0.00203117 -0.0264061 -0.0347059 -0.0210848 
-0.0289065 -0.000819804 -0.00156826 -0.00168992 -0.00174125 -0.00187657 -0.00168352 -0.00184431 -0.00120932 
-0.00137962 -0.00504763 -0.00216738 -0.0029218 0.00366955 0.00352004 0.00371431 0.00356467 0.00110687 
0.00186909 0.000528027 0.00128522 -0.00334224 -0.00317013 -0.00314739 -0.0162895 -0.0172279 -0.0179217 
-0.0190475 0.00157253 0.00120756 0.00154175 0.00117713 0.0132274 0.000419374 0.000394401 0.00048021 
0.000711871 0.000346628 0.000579394 0.00756772 0.00468548 0.00612217 -0.00327772 -0.00308529 -0.00343192 
-0.00323073 -0.00337432 -0.00420306 -0.00358117 -0.00359968 0.00038945 0.000795916 -0.000881538 -0.00108338 
-0.00107805 -0.00128845 -0.00144477 -0.000867204 -0.000918518 0.0287676 0.0166501 0.0344007 0.0231189 
0.0664106 0.059147 0.0606579 -0.0028265 -0.00298661 -0.00272992 0.0515875 0.0480613 0.0300364 
-0.000661922 -0.000848481 0.000528709 0.000104661 -7.21645e-06 -0.00356308 -0.00509088 -0.00344145 -0.000114589 
0.00034584 -0.00107553 -0.00100717 -0.000801667 -0.000742144 -0.00114948 0.00218296 0.00221032 0.00259031 
-0.00282776 -0.00335389 -0.00351247 0.00266691 -0.000569348 0.000467731 0.000808762 0.00136395 0.0383186 
0.0351787 0.0385575 0.0352985 0.00242798 0.00112645 0.0018149 0.00205825 0.0044479 0.00358743 
-0.00142682 -0.00134478 -0.00102997 -0.000763623 0.0048142 0.00515532 0.00653092 -0.00151028 -0.00090863 
-0.00229661 -0.0017648 0.00793656 0.00721955 0.00947957 -0.00225782 -0.00215093 -0.0108444 -0.0322797 
-0.0297247 0.000448612 0.000857483 0.000849192 -0.00968126 0.0122179 0.00929954 0.0110103 -0.00228846 
-0.00175237 -0.00235878 -0.00181974 0.000441251 0.00087878 0.000738041 0.00255987 0.00312182 0.0024302 
0.00299395 0.0019164 0.00157695 0.00170123 -0.01812 -0.0124756 -0.00616585 0.00169823 0.00209359 
0.00193344 0.00233121 0.0064476 0.00651697 -0.00970434 -0.0107583 -0.00974406 0.00281395 0.00257806 
0.00285726 0.00262577 -0.00972825 -0.00844419 -0.0067269 -0.00386532 -0.00861165 -0.00749827 0.00171246 
0.00163516 0.0012244 0.00800457 0.00788244 0.00688633 0.00892538 0.00956441 0.00734411 0.00971878 
-0.00168607 -0.00188971 -0.00133514 -0.0022057 -0.00232552 -0.00325356 0.00233592 0.00246697 0.0046572 
-0.00436264 -0.00338394 -0.00550842 -0.00449455 -0.00827464 -0.0114025 -0.00911552 0.00838143 0.00915373 
0.00685044 0.00741634 0.0542209 -0.000360245 3.05703e-05 0.000803466 0.00107557 0.0016237 0.00161882 
0.00188285 0.00358335 0.00376887 0.00384976 -0.0127638 -0.0155846 -0.0119481 -0.0149744 0.0368938 
0.0368305 0.0310712 -0.0170178 0.0262742 0.0219972 0.0201403 -0.0125611 -0.0140524 0.000524168 
0.000453156 0.000873159 -0.000479219 0.000250497 0.000225892 0.0121646 0.0105997 0.0112402 0.000683185 
0.000564682 0.000449801 0.00516384 0.00730657 0.005672 0.00285869 0.00619216 0.0034372 0.00684908 
-0.0355624 -0.0343511 -0.032587 0.00693749 0.00831862 0.0054886 0.00213097 0.00181534 0.00184697 
0.00051815 -0.00460339 -0.00321256 -0.00269742 -0.00707641 0.000194224 -9.25003e-05 -0.000915278 -0.00115009 
-0.00122304 -0.00206278 -0.00274933 -0.00379829 -0.000942224 -0.00146823 -0.00273138 0.00499607 0.00423919 
0.00565045 -0.0126134 -0.016593 -0.0136082 -0.000216637 -0.000462365 -0.00251951 -0.0020308 -0.00142043 
-0.00157947 -0.00108885 -0.00126003 0.00927783 0.017789 -0.001081 -0.0207353 -0.0148199 -0.0165626 
-0.00391238 -0.00513906 -0.0067258 0.00217305 0.00263889 0.00246919 0.00292169 -0.000464713 6.26011e-05 
-0.000107453 0.00992883 0.0112851 -0.000103899 0.000142431 0.00089701 0.0192261 0.0122731 0.0246437 
0.0190267 -0.00267574 -0.00341472 -0.00443991 0.000944126 0.00104832 0.00116528 0.00128315 0.00135185 
-0.000163921 0.00251154 0.00106352 -0.00198475 -0.00221478 -0.00207108 -0.00192169 -0.000276175 0.00353906 
0.00446133 0.00368893 -0.00253728 -0.00231175 0.0211411 0.024384 0.0245354 0.0280115 0.0176721 
0.0210868 0.0191403 0.044341 0.029467 0.0327781 -0.00101509 -0.00034916 -0.000509602 0.0018903 
0.00199978 0.00168847 -0.060742 -0.0557721 0.0163635 0.0120243 0.0139019 0.00605666 0.00950995 
-0.023542 -0.020619 -0.0214173 0.0106432 0.0122706 -0.0278195 -0.0253549 -0.0306824 -0.0347698 
-0.0311953 -0.0367758 -0.0330975 -0.00029269 -0.000513057 -0.000590034 -0.000404516 0.00182929 -0.000121215 
0.00262841 -0.00316066 -0.00517653 -0.00251316 -0.00437321 -4.65595e-05 0.00178559 0.00219356 0.0024863 
0.00313533 -1.22702e-05 0.0013745 0.0028206 0.015407 0.0267154 -0.0189397 -0.00971311 -0.00999984 
-0.00757029 -0.00377201 -0.00809928 8.55982e-05 0.00708788 0.00517556 0.00590213 0.0121908 0.0190856 
0.0189168 0.0215254 0.0213595 -0.00184846 -0.00200427 -0.0022197 -0.00237954 -0.00165124 -0.00215484 
0.0212021 0.00388997 -0.0142424 -0.0114107 -0.0142569 0.00236585 0.00257458 0.00262842 0.000711296 
0.00113691 0.000917161 -0.00668142 -0.00387038 -0.0083963 -0.00523457 -0.00075814 -0.00224933 -0.000178599 
0.00154757 -0.000526055 -0.000362633 0.0091321 0.00639182 0.00591752 0.0030408 -0.0336575 -0.0312621 
-0.0302948 0.00838084 0.0028938 -0.00366891 0.000847846 0.0040317 0.00597063 0.00544906 -1.69322e-05 
-0.0173996 -0.0272558 -0.0117992 -0.00940574 -0.00752304 -0.020504 -0.0182498 -0.0236132 -0.024246 
-0.00807748 -0.00798022 -0.00718566 0.000339203 0.000278094 0.00102245 -0.000651986 0.0268285 0.0241675 
0.0240692 -0.00545225 -0.00280594 -0.00282578 0.0018999 0.00204983 0.00162404 8.08295e-05 -5.37368e-05 
-0.000208176 -0.000755621 -0.00103082 -0.000823148 -0.00109061 0.00391124 0.00374434 0.00372246 0.00427809 
0.00182978 0.00105208 0.00131651 0.000555389 0.000761659 0.00208219 0.00238755 0.00219188 0.00162866 
0.00111004 0.00206045 0.00154204 0.00170661 0.00161404 0.00143214 0.00854288 0.00902089 0.00697594 
-0.000641193 -0.0013091 -0.0016722 0.000284762 0.0165626 0.0152073 0.0181111 0.0027723 0.00261035 
0.00266391 0.00250481 0.00587402 0.00530728 0.00505332 0.0045073 0.00191427 0.00178943 0.000340256 
0.00172357 -0.00433918 0.00062461 0.000711199 -0.00388069 -0.00392672 -0.00393324 -0.0039871 -0.000929851 
-0.00103307 -0.000958949 -0.0010704 -0.00278943 -0.00188657 -0.000998991 0.00159723 0.0014706 0.00110892 
0.000769358 0.000826941 -0.00075816 -0.000303024 0.000163288 0.00298996 0.00141252 0.00195918 0.0075607 
0.00898583 0.00850037 0.00985455 0.00218737 0.00257157 0.00162096 0.000478666 -0.0367475 -0.0342485 
-0.00207051 -0.00238134 -0.000546435 -0.00287449 -0.00355195 -0.00263666 -0.00265671 -0.00252478 -0.00225587 
-0.00226539 -0.00197747 -0.019943 -0.0211201 -0.0225283 -0.0039191 -0.00706772 -0.00743198 -0.00313668 
-0.0034249 -0.00340549 0.00347573 0.00463654 0.00458791 0.00586654 0.0029225 0.00272152 -0.00209522 
-0.00254066 -0.00125175 -0.00233781 -0.00191382 -0.00264352 -0.00290217 -0.00303803 -0.00241102 -0.00745719 
-0.00803176 -0.00664097 0.00267997 0.00307992 0.0023815 -0.00826995 -0.0106291 -0.00978846 -0.00602142 
-0.00345536 -0.00665984 0.0008176 -0.00183671 -0.00143904 -0.00139109 -0.00117327 -0.00112402 0.0032399 
0.00317716 0.00347682 0.0185713 0.0165541 0.0158088 0.00468744 0.00591651 0.00480821 -0.000228566 
0.00112365 0.00236773 0.00263246 0.00169821 0.00199245 -0.0330462 -0.000958997 -0.000477585 -0.000511613 
-0.000469086 -0.000911406 -0.000982288 -0.00232476 -0.00238044 -0.00211878 -0.0395586 -0.0259694 0.00175445 
-0.0061845 -0.00529505 -0.00473259 -0.00253591 -0.00267997 -0.000602061 -0.00112215 -0.00118426 -0.00131749 
-0.00142664 -0.0159933 -0.0150123 -0.0139451 0.00753094 0.00641217 0.00559026 -0.0292141 0.0266725 
0.023689 -0.00285031 -0.00313145 -0.00324772 -0.00353372 -0.00254746 -0.00261348 -0.00223432 -0.00229763 
0.00423391 0.00555818 -0.00128048 -0.00131948 -0.000656074 0.00307717 0.00139839 0.00180733 -0.0016869 
-0.00159754 0.0189634 0.0209061 0.000882742 0.000906209 0.000700494 0.000710568 -2.55991e-05 -0.000141909 
-4.70166e-05 -0.000155489 0.0635407 0.0588157 0.0628815 0.00153903 0.00232495 0.00162622 0.00237628 
-0.000670271 -0.000817887 -0.00050497 -0.000633852 0.00417693 0.00519156 0.00440263 -0.00396678 -0.00337643 
-0.00496273 -0.00420026 -0.00018898 -0.000325612 -4.54675e-05 -0.000163362 0.00136291 0.000748294 0.000567725 
-0.000242873 -0.000436187 0.00168148 0.00193039 0.00409607 0.00465957 0.00351615 0.000420306 0.000846426 
0.00409536 0.00255592 0.00389335 0.00244326 -0.00621809 -0.00474238 -0.0059839 0.000274213 9.28544e-05 
0.000104341 0.00934495 0.00667125 -0.0482547 -0.0461133 -0.0438726 0.0129364 0.0118558 -0.0730105 
-0.0877747 -0.0680357 -0.000314329 -0.00779952 -0.00970944 -0.0110875 -0.00764372 -0.00673465 -0.00720816 
-0.00637309 0.00276589 0.00324264 0.00306309 -0.00503959 -0.00338502 -0.00353435 -0.00463892 -0.00568368 
-0.00667458 -0.00232196 -0.00679432 0.00071949 0.000539664 0.000437699 0.000256591 -0.00863349 -0.00828179 
-0.000503374 -0.00117357 -0.000651371 -0.0014368 0.000830451 0.000773853 0.000310583 0.000283327 0.00144356 
0.00138085 0.00137957 -0.0019606 -0.00217608 -0.00165517 -0.00231658 -0.0026311 -0.00405893 -0.0026707 
-0.00128048 -0.0304807 -0.0312296 -0.0350674 0.023748 0.0414417 0.0283374 -0.0115271 -0.00947857 
-0.0121281 -0.000336063 -0.000436776 -0.000548332 -0.000656376 0.0461712 0.00674565 0.00613363 -0.00434539 
-0.00549569 0.00686794 0.00937966 0.00819986 0.00400891 0.00534229 0.00453299 -0.000786076 -0.0331214 
-0.0358729 -0.0357463 -0.0667249 -0.0562087 -0.0558882 -0.0232322 -0.0304045 -0.0202783 -0.0268871 
0.0216572 -0.0293554 0.00212574 -0.0219725 -0.0241277 -0.0247871 0.000710241 0.0042124 0.00749425 
0.00541764 0.00220692 0.00404282 -0.0322347 0.00220081 -0.0167547 -0.0142325 -0.0147497 0.0548636 
0.051027 0.0039948 0.00181168 0.00285552 0.000604879 -0.000236231 0.000699533 -0.00129113 -0.00144988 
-0.000843642 -0.000745106 -0.00126148 -0.000617345 -0.0137684 -0.00943147 -0.0108531 -0.0122582 0.0269846 
0.0293404 0.0211528 0.0259751 0.0235314 0.02667 0.040849 0.0436039 0.0417864 0.0446452 
0.00128952 0.00166018 0.0014078 -0.000310816 0.0380606 0.0129442 0.0154031 0.0182557 0.0141116 
0.0208762 0.00380437 0.00389095 0.00391963 0.00400497 0.00369001 0.000961478 0.000452471 0.000478931 
0.000889467 0.0470856 0.0146343 0.0143934 0.0166586 -0.000166474 9.28248e-05 0.00213563 0.00173842 
-0.00557186 -0.000567832 -0.00356702 -0.0059967 -0.0183664 -0.0151899 -0.0201559 -0.0122437 -0.0137918 
0.0158651 0.0189368 0.0171966 0.040891 0.0459589 0.0434897 0.00126921 -0.0490238 -0.0531398 
-0.044794 0.00885919 0.00720632 0.00766673 0.00619522 0.00352026 -0.00107536 -0.000568712 -0.00174724 
0.0066225 0.00511266 0.00467838 0.00243198 0.00374434 0.00331699 0.0127643 0.00209893 0.00432943 
0.00461569 0.0105078 0.0086916 0.0103032 0.0112209 0.0149525 0.0167995 0.01155 0.0131073 
0.0110365 0.0135881 0.0128998 -0.000915606 -0.00223011 -0.000718428 0.000914343 -0.000132371 0.00164569 
0.011907 0.0196507 0.0238996 -0.018099 -0.0152864 -0.0164863 -0.000727438 -0.00443533 -0.00509729 
-0.00522828 -0.0056322 0.0062201 0.00820231 0.000473915 -0.00321101 -0.00306748 -0.00285206 -0.00304039 
-0.00308382 -0.0144304 -0.0125767 -0.0142279 -0.0125774 -0.00134899 -0.00129072 -0.00157705 -0.00725371 
-0.00759295 -0.009413 0.0140191 0.0190876 0.00032777 0.000737036 0.00298215 0.00270449 0.0143355 
0.0145257 0.000317953 0.000345181 0.000208244 0.0020746 0.0024123 0.00235515 0.00268062 0.00355729 
0.00488298 -0.00225725 -0.00253806 -0.00236133 -0.00292294 -0.00307584 -0.00279938 0.0414414 0.0368841 
0.0118623 0.00949083 0.00951864 -0.000302268 -0.000177168 -0.00026745 -0.000861607 -0.000665632 -0.00597368 
-0.00664401 -0.00803906 0.00300164 0.00316037 0.00308387 0.00324879 0.00284405 -0.00154951 -0.00157037 
-0.00129112 -0.00132171 0.00111954 0.00052984 -0.00398874 -0.00397016 -0.00398329 -0.00232217 -0.00262134 
-0.00175574 0.00286988 0.035054 0.0104562 0.0131127 0.00819067 -0.00134807 -0.00175562 -0.00146427 
-0.0018637 -0.00827419 -0.0061522 -0.00865156 0.00310021 0.00314582 0.00158748 -0.00283295 0.0179443 
0.0153108 0.00621343 0.00437325 0.00481237 0.00224472 0.00192729 0.00334284 -0.000382168 -0.000118662 
-0.000223799 0.0026434 0.00266559 0.00228698 0.0023558 0.00207113 -0.00384572 -0.00390874 -0.00375601 
-0.00382253 0.00588115 0.00451456 0.00610659 -0.0151195 -0.0175832 0.0180759 0.00659573 0.00768823 
0.00929104 0.00329723 0.00574403 -0.0605906 -0.0600394 -0.056223 0.00865969 -0.00218618 -0.00498554 
-0.00216721 -0.0010025 -0.00111841 0.00639415 8.80243e-05 -5.50151e-05 -0.00369577 -0.00374607 -0.00358888 
-0.00364419 -0.0101671 -0.0114098 -0.0018336 -0.0015401 -0.00181706 -0.000612551 -0.000563254 -0.00238823 
-0.0027298 -0.00275979 -0.00174613 0.00194686 -0.00293531 -0.00301455 -0.00268977 0.0381591 0.035892 
0.0328939 0.0306871 0.0188946 0.0231524 0.0211156 0.00299835 -0.00488969 -0.00402379 -0.00413782 
2.33678e-05 -0.00034818 0.00053604 -0.00567265 -0.00094336 -0.00086745 -0.00117048 -0.00149911 0.0107436 
0.0127019 0.0132731 -0.0307028 -0.00130992 0.00100773 -0.00323792 0.00122898 0.00100491 0.00140669 
-0.00298037 -0.00330574 0.0022635 0.00113487 0.00173813 0.000578512 0.0320933 0.034532 0.0332745 
0.00382127 0.00397397 0.00390844 -0.00962976 -0.00725013 -0.00949106 -0.00903575 -0.0127788 -0.0129905 
0.00413613 0.00362462 0.00513571 0.000968431 0.00205515 0.00192464 0.00186169 0.00253352 0.00252865 
0.00356864 0.00330577 0.00353704 0.0355163 0.0321558 0.0297516 -0.00104364 0.0544746 0.0590879 
0.00114509 0.000299396 0.000901848 -0.0034294 -0.00504905 -0.00657233 -0.00643367 -0.00802866 -0.005624 
-0.00463881 0.00108703 0.00103333 0.000752268 0.000158539 -0.0931404 -0.0878524 -0.0937997 -0.00215245 
-0.00150179 0.00205711 0.00360779 0.00237396 -0.00272246 -0.00202075 -0.000502546 -0.000806527 -0.00895702 
-0.0110468 0.00243724 0.00214422 0.00208827 0.00237645 0.00231614 -0.0132295 -0.0135975 -0.0111798 
0.00531448 0.00683376 0.0017048 0.00231585 0.00170955 0.00226934 -0.00265333 -0.000340399 -0.00138924 
0.000863141 -0.08102 -0.0850378 0.000150165 0.000614903 -0.00490573 -0.00649285 -0.00491912 -0.0258133 
-0.0264614 -0.00728134 -0.0068994 -0.00477428 0.00139242 -0.0337357 -0.018053 -0.00183614 -0.00117305 
-0.00337345 -0.00984404 -0.00446693 -0.078785 -0.0847851 0.00389802 0.00428065 0.00212032 -0.0036503 
-0.00338525 -0.016983 -0.0146627 -0.0172875 -0.014953 0.0129796 0.0195559 0.0131762 0.0156427 
-0.107552 -0.108209 -0.00398189 -0.00399278 0.0168831 0.0188516 0.0234336 0.024987 0.00106084 
0.00151887 0.00364118 0.00344028 0.0034569 0.0206385 -0.00367366 -0.00367155 -0.019739 0.00525867 
0.00636619 0.00394507 0.00389034 0.00384368 0.00135543 -0.00382589 -0.00383588 -0.000277768 -9.14261e-05 
-0.00671165 -0.0052417 -0.0030365 -0.0057944 -0.00382628 -0.00958672 -0.00373425 -0.00437039 0.00379298 
0.00457155 0.0054603 0.000146903 0.000575854 -0.0150801 -0.0154779 0.00376167 0.003588 -0.000722998 
0.00124076 0.000455668 0.00151048 -0.00170968 0.00208621 0.00246998 0.00436318 9.16694e-05 0.000866283 
-0.00122814 -0.000498764 -0.0286632 -0.0207677 -0.0260957 0.00127766 0.00222477 0.000509924 0.00113983 
-8.25635e-05 0.000476675 -0.00165884 -0.0247552 -0.0265488 -0.0210164 0.0218712 0.0206959 0.0248368 
-0.0267112 -0.0270778 -0.0244159 -0.0246347 -0.000544156 0.00193204 -0.0111942 -0.0119617 -0.00361364 
-0.0109222 -0.0109338 -0.00889004 0.00062603 0.0095818 0.0123558 -0.000150318 -0.00622005 -0.00321767 
0.00145798 0.00172605 -0.00404842 -0.00539114 -0.000724692 -0.00133359 -0.000646063 -0.00480808 -0.00420411 
-0.00576772 -0.00461558 -0.00275916 -0.00413362 -0.000211791 -0.000435918 -0.00014919 -0.000354672 0.00517734 
0.00523149 -0.0128251 -0.0127892 -0.00674202 -0.00448154 -0.00828092 -0.00596605 0.000441738 0.000402323 
0.00327692 0.00313137 0.000248475 0.000305519 0.000120698 -0.00377272 0.0560356 0.0535986 0.0490719 
0.0468246 -0.00201032 0.00298999 0.00290065 0.00313547 -0.0434063 -0.00249987 0.0714541 0.0726151 
0.00980585 0.0687742 0.0686518 -0.0264616 -0.027183 -0.0240573 0.0303685 0.0296381 0.033749 
0.0746355 -0.000118855 0.00247857 0.00236297 0.00218328 -0.0129122 -0.00986901 0.0747543 -0.00354467 
0.0110293 0.0115397 0.00846261 0.0143005 0.00396941 0.00419722 0.00307031 0.000501914 0.00138534 
0.000715726 0.0428918 -0.000445761 -0.000558498 0.00188987 0.00161402 -0.0153319 -0.0124306 -0.0152614 
-0.017581 -0.000843025 -0.00118137 -0.000854163 -0.0180018 -0.0162719 -0.0130491 0.0079692 -0.00384181 
-0.0777688 0.00289871 0.00247566 0.0038977 0.00316729 0.000771365 0.000593476 0.000870224 -0.000660432 
-0.00226932 -0.0139173 -0.0124592 -0.0159887 -0.00323779 -0.00711552 -0.00732334 -0.00630682 -0.00646095 
-0.00351454 -0.00358907 -0.00127261 -0.00340727 0.00295806 0.00280892 0.00312093 -0.024505 -0.0221817 
0.00367642 0.00348671 0.0208278 0.00265138 0.00354164 0.00270671 -0.0092072 -0.00788821 -0.000129367 
0.000840278 -9.6544e-05 1.06808e-05 0.00306924 0.00338313 0.00327627 -0.0036953 -0.00383229 0.00254975 
0.00204058 0.00120915 0.00279878 -0.00331677 -0.0032955 -0.00481496 0.00629249 0.00661553 0.00779395 
0.00810607 0.00864379 0.00802242 0.00698908 0.00707349 0.00785653 0.00680779 -0.000874238 0.000666815 
4.11937e-05 -0.000367388 -0.000801771 -0.0047424 -0.000400222 0.00294024 -0.00257922 0.00278149 0.00236746 
-0.00322683 -0.0035932 -0.00369604 -0.00372329 -0.0413096 -0.0388571 -0.0421481 0.000989452 0.00073446 
0.000917742 -0.00267849 0.000175017 -0.0029509 -0.00383709 -0.00365525 -0.00379213 0.0112434 0.00851208 
-0.00130129 -0.0275563 0.00747791 0.00552897 0.00747551 0.00588213 -0.00262161 -0.00298057 -0.00319185 
-0.0180492 -0.0186172 -0.0206263 0.0301728 -0.0160795 -0.0164925 0.00369573 0.00250078 0.00235871 
-0.0550972 -0.0514136 -0.0491366 -0.0271455 -0.000732846 -0.000974681 -0.000262762 -0.000599684 -0.000360584 
0.00214087 -0.00248242 0.025681 0.0236783 0.0293859 0.0272797 0.0208898 0.0216469 0.0196181 
0.00589012 0.0128359 0.00988491 0.00294346 -0.0036611 0.00362997 0.0100252 0.0639744 0.000473146 
-6.62672e-07 4.45987e-05 0.0232082 -0.000569838 0.000293709 0.000449239 0.0318404 0.0277097 0.0316911 
0.027769 0.0108295 0.00871313 -0.00189748 -0.00976717 -0.00760087 0.00226989 0.00205473 0.00270787 
0.00379133 -0.000347816 -0.00121966 0.00338915 0.00340866 0.00354621 -0.00199543 -0.00182303 0.00693847 
0.0080716 -0.0020913 -0.0021081 -0.00179285 -0.00181183 0.000882413 0.00131402 0.00171878 -0.00496798 
0.00220407 -0.00675839 -0.0320764 -0.0295614 0.00630327 0.00546539 0.00552234 -0.00201515 -0.000295083 
0.00124015 0.0011758 0.00102308 0.000412696 0.00370592 0.0035328 0.00379842 0.00578769 0.0050132 
-0.000551742 -0.000457798 0.000127624 -0.00028722 -0.000530371 -0.00091127 -0.000949283 0.018236 -0.0134329 
-0.0138227 -0.0113273 -0.00161627 0.00345808 -0.0370193 -0.039475 -0.0414674 -0.0257921 -0.022761 
-0.0240797 0.00355777 0.00335133 0.00284046 0.00182997 0.00177745 0.00203058 0.00363415 -0.0123116 
-0.0110173 -0.00999264 -0.00705362 -0.00899165 0.000243465 0.000309243 0.000551734 -0.000402783 0.0280676 
0.0255323 0.00850185 0.0094206 -0.00476387 -0.00514948 -0.0205269 -0.00760198 -0.00957703 0.00540872 
0.00755493 -0.0690877 -0.00388421 -0.000757976 -0.00396242 0.00624605 0.00462122 0.0220631 0.0134268 
0.00984896 -0.0031001 0.00305993 0.00276049 0.00231512 0.00330934 0.00346185 -0.00559789 0.00289282 
0.00330515 0.00334054 -0.0024609 -0.00274791 -0.0026912 0.00979467 0.000202602 -0.0025179 -0.00312539 
-0.00221553 -0.00359107 -0.00223729 0.00290509 0.00306183 -0.00303784 -0.00286725 -0.00275002 0.00610511 
-0.00167401 -0.00119221 -0.00155198 0.0300611 0.00299703 0.00326476 0.00293695 -0.0025898 -0.00186102 
-0.00101819 0.00103634 -0.00350143 -0.00326766 -0.00336864 -0.0010303 -0.00279961 0.0321967 0.0338503 
0.0123345 -0.00642634 0.00412809 0.00588896 0.00478177 0.00649974 -0.00966803 -0.0111931 -0.0115322 
0.00568249 0.0267333 0.0120744 0.00091797 0.00106689 0.00368218 0.040956 0.0369446 0.00131873 
-0.000314819 0.000510744 -0.000184785 0.000675406 -0.0467611 -0.0398454 -0.0302853 0.00124142 0.00111869 
0.00285808 0.00129514 0.000851166 0.00127691 -0.0090948 -0.00876979 -0.00363181 -0.0137495 0.00397191 
0.00253448 0.00437208 -0.00176958 -0.0019053 0.00156904 0.00143862 0.00112075 0.000710687 0.000594498 
-0.00281905 -0.00270013 -0.00300124 -0.000653827 -0.000357904 -0.000717805 0.0022292 0.00337348 0.002131 
-0.000824213 -0.000582908 -0.0013787 -0.000673714 -0.00155289 -0.00304738 -0.00302531 -0.0037966 0.00503788 
0.00644528 0.00500945 0.00628823 0.00192225 -0.0133847 -0.0151239 -0.000773036 -0.00134443 0.00126823 
0.00121037 0.000590845 0.00124407 0.00175675 0.00171466 0.00222756 0.00900175 0.00653324 0.00670678 
-0.000918826 -5.39371e-05 -0.00221443 -0.00251131 -0.00208429 -0.00673659 -0.00549239 -0.00453982 -0.00334647 
-0.00240939 -0.00296041 -0.000458957 0.00180558 0.0015525 0.00146899 0.0188448 0.0106802 0.0189965 
0.00905807 0.00208044 0.000741659 0.00113206 0.000283563 0.107084 0.107709 0.00214391 0.00212675 
0.00187514 0.00202724 0.00208971 0.00182916 -0.00615863 -0.00760332 0.000746189 0.00106413 -0.000369411 
-0.00119367 0.0007098 -0.000189307 -0.0315593 -0.034696 -0.0376033 0.00382487 0.000426053 0.00911246 
0.00908044 0.0103808 -0.00191985 -0.00108484 -0.00173946 0.00624686 0.00718946 0.00114947 -0.00212213 
0.0352521 -0.00351248 -0.00379728 -0.00366646 0.00297692 0.00293598 -0.00390727 -0.00369801 0.000634672 
0.000487818 -2.59471e-05 0.000157444 0.00032762 0.00418023 0.00316576 0.0036336 -0.0211341 0.00322731 
0.00294416 0.00286923 -0.0270644 0.00197267 0.00380123 0.00227155 -0.020092 -0.0240302 0.0014384 
-0.00944433 -0.0102366 -0.010689 0.00114955 0.00127364 0.0345229 0.0318815 -0.0136633 -0.0151295 
-0.0168042 -0.00333905 -0.00497692 0.00275213 0.003196 -0.00244181 0.00375888 0.00327741 0.062282 
-0.000543433 0.00321433 0.00326276 -0.00791467 -0.0062608 -0.00355858 -0.00323564 -0.003376 -0.00477491 
-0.00518326 -0.00303763 -0.00351496 0.000825032 0.00345874 0.00192254 -0.000347572 1.27338e-05 -0.00201574 
-0.00244175 -0.00215003 0.00135694 0.00999877 0.0121813 0.0103995 0.000779969 0.00135381 0.000367949 
0.00142991 -0.00118285 0.00292615 0.00555288 0.00273415 0.00276491 0.00286719 0.00245645 6.78656e-05 
0.00310066 0.00204815 -0.000691339 -0.00303723 0.000891361 0.00213987 0.00284811 0.00453211 -0.00186967 
-0.00481906 0.00294243 0.00124457 0.00260069 -0.00153279 0.00633842 0.00725422 0.00543338 0.00529784 
0.0019647 0.00199071 0.0022511 0.0016764 0.00214986 0.00235905 -0.000995726 -0.00112237 -0.00861247 
-0.00839732 -0.00779764 -0.00229507 -0.00170037 -0.00232451 -0.00368021 -0.00335776 0.00166216 0.00319085 
0.00285727 -0.00399355 -0.00396391 -0.0010468 -0.000582184 -0.00101072 -0.000454278 0.00487304 0.000602025 
0.00092585 -3.55227e-05 0.00093447 -0.00012223 -0.000283217 5.12381e-05 0.00351623 0.00342839 0.00192152 
-0.00140794 0.00122833 -0.00380424 -0.00224595 -0.00151134 -0.00193118 -0.00315106 -0.00323109 -0.00268917 
-0.00277188 -0.00316609 -0.00345499 -0.00320301 -0.00266517 -0.00217245 -0.00202339 -0.00175647 -0.00155956 
-0.00183875 -0.00177788 -0.000933108 0.00134267 0.000667015 0.00265888 0.00249777 -0.01293 -0.0135741 
-0.00182991 -0.000972226 -0.00169044 -0.000877563 -0.00301048 -0.00296823 -0.00216684 0.000148793 -0.00224452 
-0.00133877 -0.0139307 0.0136662 0.0161881 0.0115265 0.0139409 -0.00217412 -0.000260022 -0.00198622 
-0.00151659 -0.000476319 -0.00117014 -0.00208045 0.000311694 -0.000206961 -0.00272036 -0.00390836 0.000625989 
-0.000351375 -0.000663998 0.000277301 0.00284034 0.00296814 0.000149612 -0.000406698 0.0400828 0.0388186 
0.0409301 0.0124403 0.0100811 -0.00379192 -0.00173037 -0.00220944 -0.00158823 0.00040153 0.000168993 
0.000419667 -0.00234261 -0.00250091 -0.00359427 0.000453706 0.000747533 0.00101208 0.000864442 0.00113656 
0.00295567 0.0010459 0.000529774 0.00274322 -0.0124126 -0.00806409 -0.0168227 0.00257709 0.00397776 
-0.0151633 -0.0047226 -0.00481007 -0.00556335 -0.000214599 -0.00039256 -0.00017614 -7.6338e-05 -0.00538247 
-0.00618507 -0.000312701 -0.000376077 0.00536155 0.000846787 0.00117403 0.00728296 0.000383126 0.00216308 
-0.00353134 -0.00469388 -0.000216421 0.000195643 -0.000263413 6.80189e-05 0.0059949 0.0101997 0.00907184 
-0.00289941 -0.00274047 0.00152742 0.00119266 -0.00336338 0.000394368 0.000124335 0.000600122 0.000295365 
-0.00329016 -0.00348378 -0.00198657 -0.000884528 -0.000846504 -0.023635 -0.0254129 -0.0223038 0.000674018 
0.000835794 -0.0049189 0.0058229 0.00752606 0.00816667 0.0122192 0.0097631 0.013593 -0.00908828 
-0.00693038 0.000463083 0.000671634 -0.00332053 -0.00349888 0.00366973 0.0304133 0.00474093 0.00290258 
0.00644298 -0.00028956 -0.000493491 1.10357e-05 -0.000187705 0.00114422 0.000919311 0.0173273 0.0127513 
0.00224491 -0.00165682 -0.00190559 0.00379978 -0.012837 -0.0123071 0.0160783 -0.00837617 -0.0031182 
-0.00308599 0.00178988 0.00148633 0.0020281 -0.00902056 -0.0033103 0.0432025 -0.00183864 -0.00123683 
-0.00996659 -0.0192012 -0.0213555 0.00355856 -0.000864152 -0.00147843 -0.00259068 0.00768028 0.00393215 
0.00527113 0.00456443 0.00697442 0.000278483 0.000187612 -0.00138067 0.00158293 0.00174222 -0.0243511 
-0.00259325 -0.00275598 -0.00226353 0.00306755 0.0015522 0.00187458 0.0026628 0.0228702 -0.00276246 
0.00074023 0.00114177 0.00963789 0.0143113 -0.0024715 -0.00172329 -0.00232887 -0.000843086 -0.00122954 
0.0105521 -0.00105299 -0.000534092 0.00118593 -0.00695248 -0.00613027 -0.00824852 -0.0037954 0.0230211 
-0.000803076 0.00172024 0.0306527 0.0283809 0.0317603 0.0383371 0.017027 0.016883 0.00123907 
0.00172694 0.00371382 0.00236386 -0.00756819 0.0023004 -0.00246982 -0.0109167 -0.00232889 -0.00220092 
-0.00395394 -0.00298236 -0.000729222 -0.000731663 -0.0291803 -0.0178111 0.00179842 0.00149134 0.00223882 
0.00183916 0.00212157 0.00252803 0.00293676 -0.00662484 -0.0152012 -0.0167659 -0.00213652 -0.00850904 
-0.0119631 -0.00674996 0.0116791 0.0123675 0.0101521 0.0108913 0.0280118 0.0270057 0.025006 
0.00166172 0.00812554 0.00787393 0.00904906 0.010337 0.0296085 0.00828667 0.0305675 0.0134475 
0.0375594 0.0362866 0.0352029 0.0340941 0.0321049 0.0325028 -0.000657221 -0.00218571 -0.00266427 
-0.00167595 0.00804249 0.00382494 0.00385013 0.00373984 0.00609217 0.00771071 0.0293576 0.00296225 
0.00610537 0.0033288 0.00842547 0.0116047 0.0111825 0.0555964 0.055317 0.0521498 0.0462097 
0.0845838 0.00244871 0.00058137 -0.0168365 -0.0135627 -0.00613183 -0.00134456 -0.0251486 -0.0185729 
0.000827569 -0.0143757 -0.00500373 -0.0039297 0.00102505 0.000824407 0.0216526 0.0225299 0.00527903 
-0.0189539 -0.0309893 -0.0381749 -0.0115404 -0.0119711 -0.000263604 -0.0363202 0.020407 0.0174862 
0.0179762 0.000197003 0.00034476 -0.000708016 -0.000817196 0.000481694 0.000523518 0.0146769 0.0175946 
-0.0475959 -0.043419 -0.0518652 0.00111536 0.000883673 0.000714552 -0.00701984 0.00387934 0.00244703 
0.00163186 -0.000330778 -0.0111994 -0.00842744 -0.00286294 -0.00260068 -0.00368302 0.00296183 -0.0127149 
-0.010594 -0.0121062 -0.0100703 0.0678098 0.0579681 0.0511329 -0.00580236 -0.00674967 -0.00495803 
-0.00548019 -0.00562458 0.00243905 2.0428e-05 -0.000146587 1.59358e-05 0.00880549 0.00902051 0.00711901 
-0.0299091 0.0018571 0.00213755 -0.000340888 -0.000497976 -0.00116505 -0.00144677 0.00105469 0.000417708 
0.00663643 -0.0303421 -0.0299028 -0.0327463 0.0120926 0.000186951 0.000435292 0.000352291 0.000660512 
-0.00405429 -0.00361647 0.0077158 -0.00331691 -0.00168157 -0.00288167 -0.00108724 -0.0151645 -0.00377432 
0.00557949 0.00931762 -0.00167728 -0.00355467 -0.00661772 0.000494652 -0.00372646 -0.00381659 -0.00389644 
-0.000541071 -0.000337411 -0.00065328 0.00106213 0.00261589 0.00260144 0.00170484 -0.00015278 -0.000301173 
-0.000649918 -0.0219813 -0.000230808 -0.00254881 -9.61549e-05 0.000217013 0.00019815 -0.000625567 -0.000517755 
-0.000449829 -0.000974174 -0.000575087 -0.00116302 0.0155028 0.00747227 0.00923636 0.00953006 0.0034001 
0.00135121 -0.0273887 -0.00176846 -0.00397757 -0.00326628 0.029163 0.0289497 -0.0034101 0.000859856 
0.0311086 -0.000555503 -0.00030292 -0.00750788 -0.00886835 -0.000799 -0.000474679 -0.000389339 6.13316e-05 
9.85682e-05 -0.000485148 -0.00968953 -0.0099424 -0.00100142 -0.000617952 -0.00387088 -0.00471391 0.00401067 
0.00390916 -0.00077048 0.000744207 0.00257268 0.00265971 0.0036174 0.00302431 0.0133612 0.0139199 
-0.000961383 -0.00143808 -0.00356803 -0.00344164 -0.00357196 -0.00828239 0.00159386 -0.0694432 -0.0718832 
-0.0210632 -0.0193934 0.00464327 0.00337096 0.00065396 -0.000463622 -0.00105124 -0.00046335 -0.0184202 
0.00140469 0.0113661 0.00305708 -0.000993511 -0.0123004 0.0519116 0.048614 0.0318533 0.0635705 
-0.00235993 0.00170662 0.00123618 0.000913943 0.00503991 0.00531187 -0.00372205 -0.0135045 0.000295009 
0.000251966 4.44225e-05 -0.02216 -0.00624109 -0.0235337 -0.0171477 -0.0229492 0.0124427 0.0130806 
-0.00114839 0.00370608 0.00360032 -0.00796653 -0.0325838 0.00271874 0.00231047 0.00255733 0.00501695 
0.00601416 -0.00145885 -0.000904201 0.00719364 -0.000950751 -0.000268896 -0.000434511 -0.000347366 -0.000604098 
-0.000696682 -0.000431966 -0.000849664 -0.00902915 0.00672806 0.002404 -0.000509951 0.000696007 -0.00152136 
-0.00183697 -0.00941272 -0.00853534 -0.0105596 0.000998406 0.00181091 0.00154824 -0.000420925 -0.000397001 
0.0192677 0.000357701 0.000710883 -0.00130447 -0.000709811 -0.00205152 -0.00134437 0.00486948 0.00534872 
-0.00578496 -0.00494844 -0.00480402 -0.0448464 -0.0273681 -0.00164325 -0.0043005 -0.00392752 0.00311192 
0.00565846 -0.00649897 -0.00739433 -0.00705568 0.00711359 0.0145402 0.00223272 0.00034308 -0.00630769 
-0.00311667 -0.00237511 -0.00278194 -0.0107495 0.00147769 0.00163215 0.0013367 0.00147808 -3.01355e-05 
0.00872893 0.00906567 0.00966716 0.000317545 -0.00167227 -0.00201276 -0.00150442 -0.00184052 -0.00306356 
0.00868651 -0.00825694 -0.00166297 -0.00746204 -0.00396601 0.000138892 2.35308e-06 0.00308195 0.0029302 
-8.34436e-05 0.00128465 0.0011827 0.00116726 0.0012208 0.00129659 0.00284777 0.00274551 0.00366342 
0.00329344 0.00378469 0.0394242 -0.00869036 -0.00809002 -0.0103812 0.00956361 -0.00276057 -0.00255832 
0.00167584 -0.00271034 -0.00263329 -0.00305014 -0.00270725 -0.0044779 0.00146289 0.00101294 -0.00081474 
0.00191617 -0.0348263 -0.0382952 -0.00687955 -0.0106443 -0.0129408 -0.000919356 -0.000592069 -0.00021316 
0.0059943 -0.0160155 -0.0184956 -0.00136398 0.000888981 0.000753228 -0.0750137 -0.00793734 -0.00655302 
0.0125245 0.011838 0.0162812 0.0166881 0.050945 0.00180875 0.00226868 0.00109277 -0.00819482 
-0.0279758 0.0506101 -0.00220561 -0.00181396 -0.0023436 0.00043468 0.00444949 0.000886162 0.000135711 
0.000633453 -0.00135594 -0.00379041 0.0143936 0.0156324 0.013502 0.0115121 0.0134609 0.0114514 
0.0108542 -0.00694413 -0.00575094 -0.00790174 0.000100348 -0.00733531 0.000545072 0.00113135 -0.00486749 
-0.00412395 0.00206451 -0.000689127 -0.00130234 0.0146201 0.0238838 9.26445e-06 -0.00610433 -0.00820305 
-0.000115726 -0.000314308 -0.000293629 0.00192689 0.0030237 0.00166919 -0.00526656 -0.00596581 -0.00109859 
-0.00822396 -0.00400741 0.00299681 -0.012439 -0.0141031 0.00328182 -0.00616065 -0.0120878 -0.00550956 
-0.0418565 -0.0384413 -0.0413334 -0.00677028 -0.038907 -0.0454664 0.00301535 -0.00397292 -0.00234988 
0.000233818 0.000286359 -0.00326002 0.00393847 0.0020472 0.00213242 -0.0691899 -0.0192891 -0.0015465 
-0.00276027 -0.00146625 -0.00677956 -0.00269481 -0.00208402 -0.0146276 -0.0154739 -0.00541271 0.043807 
0.00175008 -0.00274425 0.00800082 -0.00274793 -0.0015438 -0.00331541 -0.0014379 -0.00117065 -0.00125927 
-0.0369221 0.000845118 0.000152049 0.000178229 0.000153874 0.000175922 0.000338962 -0.00164699 0.00253227 
0.00318585 0.00356612 -0.00364042 -0.00242464 -0.00040322 -0.00510557 -0.000261501 -0.00174044 0.00191134 
-0.00180979 -0.00149983 -0.00153949 -0.00455437 -0.0055239 -0.00277512 0.00352509 0.0145696 -0.0377685 
-0.050864 -0.0294054 -0.0196711 -7.91066e-05 -0.00224529 -0.000780014 0.00098151 0.00362282 0.00295162 
0.00703812 0.00649937 0.00191678 0.0013927 0.000547149 0.000925499 -0.00764374 -0.000404952 -0.000432472 
0.00239951 -0.00717534 -0.00533543 0.00327818 0.00301565 0.0031383 0.00101431 -0.00170648 -0.00149543 
0.000567739 0.0134215 -0.021455 -0.000270742 -0.000532143 -0.00100334 -0.0353944 0.00371222 0.00351306 
0.00337855 0.00395002 0.00397158 3.16137e-05 -0.000437422 0.00233068 0.00192823 0.0035441 0.00357785 
0.00364642 8.93746e-06 0.00565926 -0.00113164 -0.00020857 7.12745e-05 0.000705241 -0.0170809 -0.0150737 
-0.0107151 -0.00915936 -0.0116313 -0.00881761 -0.000224004 0.000173189 0.0055271 0.00454565 0.0070235 
0.006027 -0.00470743 -0.0078119 -0.00254509 -0.00854186 -0.00516087 0.00298972 0.0165549 0.0285559 
0.0254494 -0.00342123 8.57253e-05 0.00025731 -0.00204736 0.0168795 0.0115739 0.010455 0.011871 
0.000295714 0.00331586 0.0126355 0.0106279 0.012 0.0106405 0.00121297 -0.00415005 -0.000213732 
-0.000734964 -0.000589 -0.00119906 -0.000792805 -0.000917255 -0.00225639 -0.0513435 -0.00131941 0.00107443 
0.0013027 -0.0457681 -0.0455853 0.00245172 -0.00145975 0.000142088 -9.38071e-05 0.00161304 0.00188296 
0.00397269 -0.0214801 0.0022527 0.00177186 0.00260416 0.00176854 -0.00217608 -0.00125911 0.00781406 
0.00873379 0.0039094 0.00383836 0.00358259 0.00381566 0.00385417 -0.00333196 -0.00563713 0.000449199 
-0.00310679 -0.00104575 -0.000833292 -0.00151919 -0.00214796 -0.000491438 -0.0010713 -0.000697456 -0.00168184 
-0.0012195 0.00157429 0.000809831 0.00101146 0.000335089 0.00277066 0.00181673 0.00175618 0.000302225 
0.000155622 0.011016 0.0287078 -0.00356222 0.0142617 0.0109599 0.011785 -0.00175705 0.00108158 
0.0010172 0.000796254 0.000518717 -0.00747188 -0.0010991 1.6317e-05 -0.0038418 3.80177e-05 -5.26413e-05 
0.000508774 0.000132566 0.000932218 0.00414613 0.00355466 0.00476122 -0.00310124 -0.00323434 -0.00264185 
-0.00279616 -0.0015161 -0.00227763 -0.00119485 0.000853603 0.0174283 0.0208257 0.0166587 0.0101312 
0.00828412 0.0102903 0.00227075 -0.00248598 -0.0022785 -0.00201895 5.71053e-05 0.00041478 0.000297889 
0.000524458 -0.00237769 -0.00264747 0.00243015 -0.000326873 -0.000249587 3.38629e-05 0.00410734 -0.00505033 
-0.0204708 -0.00302004 -0.00278067 -0.0018798 -0.00242427 0.00454849 0.0165529 -0.00110186 -0.00150569 
-0.00164625 -0.00298932 -0.00276614 -0.00816278 -0.0110041 0.000121726 -0.00368574 -0.00354464 -0.00384724 
-0.00802396 -0.0220854 -6.3085e-05 0.00174883 0.00190072 0.00108061 0.00075833 0.00138208 0.00106911 
0.000719146 0.00158581 0.00107946 0.00316204 0.00196564 0.00383667 0.000999208 0.0714017 0.00229342 
0.000452585 0.00120757 -0.000522629 0.00020602 0.00166683 3.57492e-05 -0.000456066 -3.16879e-05 -0.000835939 
0.00278177 -0.00369834 -0.00732212 -0.00101223 -0.0190623 -0.0226281 -0.00754344 -0.000225209 -0.02648 
0.00356418 0.0032597 0.00350823 -0.000853634 0.000177904 -0.000185729 -0.000319655 -0.0493415 -0.0449502 
0.000578026 -0.00050936 -0.00032166 0.000815724 0.00268531 -0.0558765 0.0083004 0.00136724 -0.000792949 
-0.000962978 -0.00313795 -0.0014036 -0.00106646 -0.000988021 -0.00351957 -0.0076292 -0.00645105 0.0151759 
-0.0118604 0.000556674 0.00242844 -0.0557293 -0.0579903 -0.0247725 0.00114308 -0.0389863 -0.0456571 
-0.0434303 -0.0320285 0.00711242 0.0053381 0.00601313 0.00945982 0.0118884 -0.00788264 0.0111162 
0.00828559 -0.00717543 -0.00229954 -0.00214833 0.0137851 -0.00279945 -0.00437771 0.00139336 0.00177314 
0.00158396 0.0152371 0.0165489 0.0175115 -0.00658458 -0.00129717 -0.00419733 0.00743731 0.00818379 
0.00898582 -0.00140459 0.0188938 0.000721377 0.000251633 -0.000614934 -0.000611439 -0.00287148 -0.00119588 
-0.00322566 0.000842002 0.00926244 0.000257959 0.00170331 0.00146075 0.000336469 0.000452115 0.000651206 
0.000361256 0.0193686 0.0188277 0.000384994 0.000820148 0.000873113 0.000551157 -0.000348983 -0.000398989 
0.00343353 0.00323892 0.0032335 0.00188573 -0.00297148 -0.00220632 -0.00375464 -0.0105367 -0.0102796 
-0.00631887 -0.00431191 -0.00131904 0.00137187 0.00136169 -0.00201258 -0.0019235 -0.00114907 -0.00298869 
-0.00271329 0.0167245 0.0144522 0.013929 -4.61143e-05 -0.00130536 0.00117665 0.0012072 0.000596984 
-0.000688999 0.000208254 0.00484254 0.00359303 0.0033708 -0.00993738 -0.00187692 0.0185843 -0.00138011 
-0.00213275 -0.00163226 -0.000348196 0.00127702 0.000370457 0.00442404 -0.00594335 0.000866905 0.000590835 
0.000655304 0.00107339 -0.00274985 -0.00248119 0.00238697 0.00181572 0.0022042 0.00246987 -0.018644 
0.00968066 -0.00329251 -0.00320021 0.00262757 0.00344812 0.00311679 0.00273675 0.00195028 0.00227024 
0.00144077 -0.00131264 0.0122837 -0.0513189 0.00262739 -0.0474687 -0.0401235 -0.0186552 -0.0190824 
-2.31361e-05 0.0108454 0.0220979 0.00402235 0.00595969 -0.00650436 -0.0049099 -0.00596828 0.000324189 
0.00494578 0.0177784 0.0194031 0.004118 0.000449949 0.00361626 -0.00311719 -0.000115158 0.00232491 
-0.00366577 -0.00375206 0.0880357 -0.0131018 -0.00962273 0.00289129 0.0860448 0.000945676 0.0813951 
0.0877678 -0.00576232 -0.00384309 0.00390803 -9.98743e-05 -0.000784488 -0.000833221 -0.000924363 0.00106012 
0.00351273 -0.0138165 -0.00029749 -0.0445928 -0.0406932 -0.0658658 -0.0140444 0.00710491 0.00297707 
0.044656 0.0444978 0.0152039 0.00245077 -0.00302841 -0.00211839 -0.00232884 0.0241897 0.0107529 
-0.00121804 0.00121495 -0.000610631 -0.000651758 -0.00250679 -0.00237228 -0.00188634 -0.00983839 -0.00510937 
-0.00378973 -0.00259268 -0.0011683 -0.00120498 0.0057303 0.0143318 0.0147907 0.0174156 -0.013281 
-0.00452966 0.00279711 0.00757746 0.0214083 0.00074346 -0.000220385 -4.08402e-06 0.00477941 -0.0224398 
-0.000145271 0.00911405 7.04841e-05 -0.0141781 -0.0128858 -0.00168681 -0.00124876 -0.000485498 -0.0142163 
-0.00103991 -0.00991995 -0.00112676 -0.00906641 0.00337861 -0.00384797 -0.00369327 -0.0036355 -0.000222383 
0.00464053 -0.000690835 2.62266e-05 0.024208 0.0218027 -0.000307039 0.00120906 0.00951733 0.0451613 
-0.0609398 -0.00393465 -0.00483087 -0.000149873 -7.40563e-05 -0.000234732 -0.00683488 -0.00908596 -0.00621035 
0.00253972 0.0031612 0.0084413 0.00678404 0.00674297 0.00524823 0.00281724 -0.0106251 -0.00988703 
-0.00136545 -0.00132929 -0.0021564 -0.000669796 -3.26388e-05 0.00190723 0.00177588 -0.00044147 -0.000428889 
0.00135393 -0.000144998 0.000649818 0.000706891 0.000990707 0.00125068 0.00155593 0.0518541 0.0413693 
-0.000992312 -0.00193883 -0.00779533 0.00581935 0.0280049 -0.00173727 0.00626138 0.00506727 0.00259478 
-0.00221536 -0.00152397 -0.00104374 0.000533722 0.00253047 -0.0228117 -0.0207393 -0.00293024 -0.00331165 
0.00128077 0.000763818 -0.0024323 -0.00215562 -0.00202497 0.00384566 0.00377623 0.00123827 0.00337199 
0.00287388 0.0100781 0.00391871 0.000767999 0.000394439 -0.00877471 -0.00670495 -0.00760604 -0.00150561 
-0.00152049 0.00376374 0.00369297 0.00377058 0.000531649 0.00145043 -0.00606529 -0.00128759 0.00428955 
0.000621219 0.00258388 -0.00375759 -0.00400527 -2.41002e-05 -3.22493e-05 0.000586055 0.00117477 -0.000130962 
0.00150033 -0.00387548 -0.00125998 -0.0521287 0.00352205 0.0034667 -0.0578403 0.0191717 0.0477394 
0.0155773 -0.0135395 -0.0129171 -0.0173145 0.00015517 -0.0187526 -0.0287614 -0.0165338 0.00607465 
0.00798817 0.0098021 0.00387314 -0.00693665 -0.0130608 -0.00340274 0.00138224 -0.00745372 -0.00123094 
0.0727245 -0.000820054 0.0324071 -0.00341777 -0.00169118 -0.016856 -0.00444646 -0.006098 4.05533e-05 
-0.000108332 -0.0179504 -0.0158388 0.00825753 -0.00686642 0.00435738 0.00214398 -0.0089562 0.000624441 
-0.000290433 0.00087246 0.00675048 0.0128811 -0.00206812 -0.00150358 -0.00118658 -0.00180218 -0.00294688 
-0.00293287 -0.000365169 0.000946796 -0.00501748 0.00408216 -0.00288764 -0.0372826 0.0473902 0.00467665 
-0.0442638 -0.0536436 -0.00309685 -0.00536367 -0.00142726 0.00310401 0.0003346 0.00123625 0.0015339 
0.000295903 0.00600608 -0.000465624 -0.00298314 -0.00116404 -0.000667637 0.00430391 0.0024058 0.00348545 
-0.0011305 0.0221437 0.00059589 0.0119766 -0.00223106 0.00274187 0.0022361 0.00286024 -0.0035031 
0.000602571 0.00146663 0.00396108 -0.00145207 0.000632758 0.00328185 0.000639414 0.0018399 -0.0103049 
0.00802325 0.00603039 0.00439287 -0.0020548 -0.00277807 0.00368045 -0.00238282 0.00783539 -0.000140065 
-0.00393384 -0.000591415 -0.00276405 -0.00359837 0.00878911 -0.0085395 -0.00061014 0.000674805 -0.00532554 
-0.00486267 0.00334135 -0.0294305 0.00184859 -0.0169913 -0.0155807 0.025497 0.00582118 0.00371648 
0.00330318 0.00488358 -0.0016488 -0.000851828 0.0144408 0.00824841 -0.00201246 -0.00275759 -0.0050007 
-0.00426609 0.00021362 0.000943591 0.0048696 2.25696e-05 0.00122485 0.00098674 -0.000175225 0.00113067 
-0.000377716 0.00648643 -0.00284607 -0.0049066 -0.0205053 -0.00311834 -0.0081033 0.0260212 0.000599502 
-0.00279266 0.000163262 -0.0128013 -0.0165579 0.00658405 -0.00183428 -0.0580515 -0.00198735 0.00299129 
0.0033724 0.00252879 -0.0194844 0.0077149 0.0329228 -0.00448099 -0.00428124 0.0106941 0.00154313 
0.00334842 0.00207855 -0.00219086 -0.00290401 -0.00344162 0.00293966 -0.00330557 0.0124161 0.0123177 
-0.00767162 0.00194215 -0.00607038 0.0183021 -0.0013355 -0.000172837 -0.0103591 -0.00350304 -0.000421122 
0.00749135 8.04704e-05 -7.15473e-05 -0.0101195 0.0203022 -0.00887742 -0.0033786 0.00565868 -0.00155301 
-0.000999234 -0.00355354 -0.00250044 -0.00218011 -0.00176568 -0.0450081 -0.00120851 -0.0289104 0.00137355 
-0.0118174 0.00471099 -0.00977217 0.0142233 0.00875694 0.00195229 0.00158589 0.00213236 0.00199366 
0.00357375 0.00229602 0.00111836 -0.00321968 0.000118753 0.00356507 0.00781993 9.06203e-06 -0.000489907 
0.000532473 0.00161542 0.0022989 -0.00184754 0.0029179 0.00253675 0.00143955 0.00329025 0.0447918 
0.0133304 -0.010949 0.00322613 0.00547245 -0.00841035 0.00538767 0.0081874 0.00908013 0.000807317 
-0.00320522 -0.00114575 -0.000857765 0.00252937 5.54325e-05 0.000160348 -0.000266226 0.00281655 0.00318004 
0.00361493 0.0051027 0.000458309 0.000366275 0.0047803 -0.000451563 -0.063854 0.000297277 -0.065856 
-0.0651743 0.0724167 0.00166754 0.000929602 0.00345777 0.00968365 -0.0041478 0.00344145 -0.00246617 
-0.0115569 -0.0701813 -0.0721434 0.00924042 -0.009822 0.0129355 0.0391578 0.000185935 0.00264541 
0.00130027 -0.0759427 0.0119794 -0.0281101 0.0774557 0.0007118 0.0962809 0.0871329 0.0821513 
0.00307605 -0.0158111 3.15172e-05 -0.00185221 -0.00160453 -0.0129044 -0.00130428 -0.00104814 -0.0034722 
-0.00318686 0.0137302 0.0367506 0.000281033 -0.00256368 0.00110639 -0.00608022 -0.00580983 -0.00174014 
-0.00205634 -0.0597743 0.00122252 0.00247426 0.00120276 0.00768572 -0.00231277 -0.00630291 0.00155046 
0.00806047 -0.0138071 0.0257235 -0.0103496 -0.0103175 0.00131176 -0.00836543 0.000623709 -0.000390699 
0.00361129 -0.0277757 0.00220991 0.00264931 0.00322486 -0.0343743 -0.0435134 -0.00356563 0.0597526 
0.0475088 -0.000362174 -0.00123969 0.00457432 -0.00667609 -0.0100074 -0.00191403 -0.00338985 0.00350511 
0.0107851 0.00710348 0.000477106 -0.00260443 -0.00326526 0.00174345 0.0015667 -0.0133147 -0.00239721 
-0.00288315 0.0159384 0.00222439 0.00344253 0.00026086 -0.026843 -0.00678173 
Stress%20xz%20component 1 12526 double
0.0276205 -4.04773e-08 -0.0250375 9.61681e-08 4.56188e-06 -6.75317e-07 -4.638e-06 2.64628e-06 0.00555452 
-0.0207465 -0.0150938 0.00680325 -0.00055596 0.00692169 0.00827569 0.013208 -0.000503045 0.00441308 
0.000618447 0.000239893 -0.00246619 -0.0020549 -0.00235322 -0.00156249 -0.00165117 -0.000962538 -0.000534494 
-0.00131714 -0.000954026 -0.00128029 -0.00181898 -0.00150532 -0.000597697 -0.000326889 -0.000301138 -4.61945e-05 
-2.56119e-05 0.000836888 0.00165954 0.00204693 0.00131734 0.00115931 0.00723276 0.00272504 -0.00313831 
-0.000384212 -0.000188872 -0.00452675 -0.00249643 -0.00170935 -0.00183596 -0.00159204 -0.00114584 -0.00136652 
-0.000996473 -0.00121378 -0.00166888 -0.0016914 -0.0010789 -0.000426188 -0.000289512 0.000211498 -8.75233e-05 
0.000553841 0.00143351 0.0022547 0.00320688 0.0038235 -0.0019853 -6.10135e-06 1.78736e-06 5.51378e-06 
6.62247e-06 8.14232e-06 8.20077e-06 8.77115e-06 7.17398e-06 5.78319e-06 6.88557e-06 5.17016e-06 3.48828e-06 
2.10134e-06 2.53089e-06 1.56616e-06 5.16372e-07 -1.76336e-06 -2.88967e-06 -2.0842e-06 -3.68351e-06 -5.5592e-06 
-6.5954e-06 -4.75831e-06 -3.70258e-06 -3.15318e-06 5.12825e-06 9.17786e-06 -0.00380362 -0.000687993 -0.000241808 
-0.000142718 -8.39493e-05 -5.49927e-05 -2.77928e-05 -2.18064e-05 -1.02554e-05 -1.2081e-05 -7.86111e-06 -5.29279e-06 
-8.0079e-06 -1.17194e-05 -1.4942e-05 -2.11116e-05 -2.71942e-05 -2.89549e-05 -1.847e-05 7.55388e-06 3.82274e-05 
6.07885e-05 7.48711e-05 5.81554e-05 2.97786e-05 -3.3229e-06 -2.22002e-05 -2.74443e-05 -3.02971e-05 -2.18834e-05 
-1.73609e-05 -1.36386e-05 -7.32167e-06 -5.05966e-06 -2.93805e-06 -1.21182e-06 2.46884e-07 9.80067e-07 1.30686e-06 
1.83918e-06 2.12771e-06 2.4431e-06 3.29506e-06 5.75599e-06 2.77465e-06 -1.29249e-06 -3.46297e-06 -3.0437e-06 
-2.55693e-06 -2.46636e-06 -1.5891e-06 -1.35919e-06 -3.85184e-07 4.31211e-07 1.5088e-06 5.08571e-06 3.70448e-06 
4.99786e-06 9.20755e-06 1.47235e-05 -8.60784e-07 -3.4122e-06 1.65334e-05 1.23831e-05 2.3551e-06 -1.16288e-05 
-2.34038e-05 -5.72772e-05 -2.76319e-05 -3.4085e-05 -4.72227e-07 2.24094e-05 2.58866e-05 1.35453e-05 4.94764e-07 
9.23466e-06 7.17694e-06 5.74245e-06 7.18904e-06 7.84789e-06 -6.69303e-06 4.08111e-06 2.02096e-05 -3.40902e-05 
5.60044e-05 5.68127e-05 9.94385e-05 0.000220844 0.00148816 0.00264722 -0.00406933 0.00530401 0.00123066 
-0.00170859 -0.000424924 0.000290416 0.000244719 -0.00890815 -0.00143014 0.000120259 -0.000171867 0.000653874 
0.00519645 0.00122031 -0.0020459 0.00171489 0.000261404 0.000754731 0.00850917 0.000862252 0.00100693 
0.00111703 0.000529939 -0.000388227 -0.00675141 0.00113299 6.55249e-06 3.16647e-06 1.07868e-06 -3.08012e-06 
-4.59428e-06 -4.00358e-06 -5.19079e-06 -5.53056e-06 -5.00266e-06 -1.80947e-06 -5.10092e-07 3.19591e-07 1.66464e-06 
2.7198e-06 4.47376e-06 5.69811e-06 3.22985e-06 7.00105e-06 1.17148e-06 1.56895e-06 6.15397e-06 7.95162e-06 
7.93244e-06 6.12916e-06 1.99092e-06 -8.94896e-07 -8.84688e-06 0.0195842 0.000700812 0.000310028 0.000144724 
8.19591e-05 4.77067e-05 3.15658e-05 2.09713e-05 9.23469e-06 6.78779e-06 9.11613e-06 5.75982e-06 4.51903e-06 
8.17264e-06 1.10812e-05 1.60361e-05 1.91251e-05 2.55545e-05 1.88728e-05 8.18261e-07 -1.56821e-05 -5.35146e-05 
-6.8134e-05 -5.868e-05 -3.36986e-05 -5.52471e-06 1.94718e-05 1.92951e-05 2.32131e-05 1.85795e-05 1.6661e-05 
1.08562e-05 7.02607e-06 4.48849e-06 1.68868e-06 1.45426e-06 2.33557e-07 -1.53864e-06 -1.75343e-06 -1.67025e-06 
-2.52713e-06 -2.91001e-06 -3.36843e-06 -4.12148e-06 4.07806e-07 -3.30012e-06 2.81524e-06 3.63828e-06 2.74656e-06 
2.63011e-06 1.77735e-06 1.21577e-06 9.07556e-07 -2.3825e-07 -7.78034e-07 -1.64203e-06 -2.99937e-06 -2.99082e-06 
-6.38446e-06 -1.66855e-05 -2.31791e-05 1.28081e-05 -1.73735e-05 -6.41704e-06 6.23143e-06 3.91771e-05 2.45428e-05 
5.36687e-05 2.02219e-05 2.40332e-05 -1.30332e-05 -4.60737e-05 -2.39481e-05 -1.39149e-06 6.47503e-07 -1.18973e-05 
-7.51662e-06 -6.00813e-06 -7.14726e-06 -1.06208e-05 1.22951e-05 1.53965e-05 -1.27131e-05 -6.01682e-06 -5.71223e-05 
-6.86555e-05 -0.000110304 -0.000251962 -0.000913399 -0.00622124 -0.00410628 0.00628632 0.00116836 -0.0010895 
0.000155674 -0.00197256 -0.00153554 -0.00319596 -0.000263559 -0.00046502 -0.0003864 6.94719e-05 -0.00214007 
-0.00259749 -0.00440764 0.000835365 0.00189857 0.000967593 0.00412466 8.11269e-05 0.000412742 -7.19083e-05 
-0.000352551 -0.00101807 -0.00693554 -0.000433744 -1.17994e-06 -1.77477e-06 -1.6944e-06 -2.23029e-07 -1.91441e-06 
-1.17064e-06 9.96506e-07 -1.13316e-06 -1.24585e-06 -8.32118e-07 -1.01563e-06 -1.02227e-06 -1.65197e-06 -1.07952e-06 
-4.96832e-07 -9.64519e-07 1.55301e-06 -2.41093e-07 6.96601e-07 9.9807e-07 1.54748e-06 -5.43546e-07 6.59357e-07 
8.50361e-07 -4.25497e-07 -1.23218e-06 -3.80757e-06 -0.00130495 -2.77638e-05 -2.88792e-05 -1.87069e-05 -1.31418e-05 
-7.69997e-06 -3.49344e-06 -4.79246e-06 -5.66766e-06 -1.79853e-06 -6.01509e-07 -2.12302e-06 1.3443e-06 2.83668e-06 
4.60995e-06 8.50022e-06 6.44098e-07 3.39116e-06 -6.54486e-06 -1.80369e-05 -3.12849e-06 -4.59645e-06 -6.61832e-07 
1.32911e-05 4.33107e-06 6.05537e-06 1.61061e-05 4.38825e-06 1.6489e-06 6.75938e-07 -3.14763e-07 -9.55077e-07 
-1.32379e-06 2.38612e-07 -1.06963e-06 -5.90355e-07 -5.57166e-07 -2.39867e-06 -2.13653e-06 -1.92592e-06 -1.80668e-06 
-1.79842e-06 4.96009e-07 1.08768e-06 -1.08131e-06 -7.33439e-07 -4.53382e-07 -6.54214e-07 5.10158e-08 3.63345e-07 
4.72178e-07 4.54643e-07 1.17173e-06 3.60306e-08 -7.52033e-07 -1.75938e-06 -2.90223e-06 1.70129e-06 1.05774e-05 
-6.11158e-06 -7.32071e-06 -1.10274e-05 -9.0194e-06 -1.16454e-05 -1.80844e-05 -2.19619e-05 -7.46054e-06 1.51954e-05 
-8.16651e-06 1.01969e-05 -1.86299e-06 -9.40918e-07 3.56147e-06 3.81195e-06 -2.53701e-06 1.76607e-06 -3.68889e-06 
-9.86548e-07 2.27865e-06 1.40647e-05 1.74461e-06 -9.0485e-08 -3.14694e-05 -1.01822e-05 1.35676e-05 0.000484726 
-0.00436809 -0.00105515 1.30516e-05 -0.00105038 0.00188335 0.000621554 0.000259089 -9.86077e-05 0.000173044 
-7.26654e-05 -7.28837e-05 0.000261564 -3.67876e-05 0.000195222 0.000536079 0.000509513 0.000213616 0.000159874 
3.22495e-05 0.000100695 0.000172124 -0.000141211 -0.000648056 -0.000943197 -0.000313398 0.00303244 0.000723418 
-0.00289097 -0.000193527 -0.000409063 -0.000504268 -0.000646371 -0.000305176 0.000523914 -2.18802e-05 -0.000358673 
-0.000182437 -0.000278974 0.000533584 0.00157606 -0.00531795 0.00232869 -0.000380068 -0.000247932 -0.000523724 
-1.60464e-05 0.000171926 -0.000288899 -0.000146689 0.000228296 9.01931e-05 0.000130812 -0.00033351 -0.000805589 
-0.00385115 0.00808393 -0.00344784 0.000417119 0.00293277 -0.00318454 -0.000855338 4.5324e-07 -3.29986e-07 
-2.10595e-07 2.33363e-07 -5.73318e-07 -3.36004e-07 3.51504e-07 3.84165e-07 7.44329e-07 -2.94936e-07 -5.68131e-07 
-2.99468e-07 -2.8784e-07 9.20066e-08 -1.99273e-07 3.27164e-07 8.6535e-08 8.85924e-07 9.68991e-07 6.91748e-07 
8.32531e-07 -7.75227e-07 -1.18556e-06 -6.50005e-07 -0.000406398 -0.000528835 -1.31217e-05 6.16642e-06 -1.35101e-05 
-6.79637e-08 -4.0346e-06 7.20741e-07 1.07907e-05 6.22913e-07 -8.26837e-07 8.51887e-07 1.15416e-06 4.83447e-07 
8.1803e-07 2.71072e-06 1.52094e-06 -6.99248e-06 -7.91806e-07 -2.41497e-05 -1.05269e-05 -2.73096e-05 1.23761e-05 
8.99125e-06 -4.70295e-06 1.31341e-05 6.56391e-06 -1.51305e-06 3.53142e-06 -1.15207e-07 -1.75232e-06 -5.55958e-07 
1.72103e-06 4.90851e-08 -1.09921e-06 -1.04909e-06 -1.06239e-06 -1.75854e-06 -1.03826e-06 -5.38826e-07 7.95455e-07 
-6.36967e-08 -1.72503e-07 -2.27055e-07 -0.000753758 -0.00025161 -3.37677e-07 -2.9738e-07 -1.71271e-07 -6.61432e-08 
1.95184e-07 -2.23547e-08 9.45808e-07 1.92093e-07 1.14714e-06 6.26006e-08 2.39816e-06 -4.25422e-07 -4.34431e-06 
-1.88167e-06 8.10402e-06 2.39974e-06 -1.01411e-05 -2.06303e-05 1.23325e-05 1.08226e-05 -1.01447e-05 -1.45342e-05 
1.9651e-05 8.34623e-06 -8.51554e-07 -9.1327e-06 -1.02987e-05 7.06162e-06 -2.1961e-06 2.73434e-06 1.16906e-06 
-1.23546e-06 4.55511e-06 2.34205e-06 -4.3572e-06 -2.99294e-06 -1.17794e-05 -3.04551e-05 1.70629e-05 -2.93418e-05 
0.00010318 -4.96261e-05 -0.000331982 -0.000385651 -8.77378e-05 1.51447e-05 -3.77437e-05 -3.13391e-05 -3.04946e-05 
-0.000118059 -5.05901e-05 -0.000113776 -6.27739e-05 -6.25364e-05 4.15243e-05 2.02958e-05 -5.14835e-05 -6.27179e-06 
-2.6536e-05 -1.85183e-05 9.71169e-05 0.000154624 0.000200912 -7.42716e-05 0.000293064 0.000601375 -0.000168074 
-1.3803e-05 0.000113863 0.00013686 0.000127212 7.73651e-05 8.63308e-05 2.66768e-05 -0.000854062 0.000189832 
0.00120875 0.000517201 0.000485125 0.000324917 0.000587353 -0.000144262 -0.00037995 -0.000431855 -3.59607e-05 
-0.000142889 -5.05657e-05 -0.000105683 -2.56601e-05 0.000132568 0.000475978 -0.000159049 -4.85626e-05 -0.000242611 
-0.000448092 1.96105e-07 0.000635639 -0.00011449 -0.000150363 -0.000101179 2.54978e-05 7.17666e-07 -1.27946e-07 
-1.43759e-06 -1.2335e-06 -1.41556e-06 4.20953e-07 4.39301e-07 3.47441e-07 3.86209e-07 -2.49909e-07 7.24033e-08 
1.60142e-07 4.14119e-07 4.01722e-07 5.73858e-07 2.33833e-07 4.76638e-08 2.94275e-07 7.46372e-07 1.74117e-06 
1.32388e-07 2.07699e-05 3.41004e-05 -1.55138e-05 7.01712e-07 -6.03936e-06 -3.94933e-06 1.26471e-05 4.75362e-06 
-4.57752e-06 -8.24543e-06 4.40984e-06 -2.57741e-06 -2.24402e-06 -3.29108e-06 -5.99851e-06 -6.88358e-06 -1.08552e-06 
-6.88584e-06 1.26274e-06 3.05701e-06 -4.14933e-05 1.03908e-05 1.9265e-05 -3.10946e-05 -3.40517e-05 -5.02501e-06 
-5.70353e-06 -6.40918e-06 -5.08032e-06 -4.08002e-06 -7.36073e-07 -6.58071e-07 -2.59605e-06 -1.67932e-06 -1.40817e-06 
-6.41375e-07 -7.48294e-07 -3.97576e-07 1.1096e-07 7.75741e-07 -2.11128e-07 5.1286e-08 -1.59959e-06 -2.40183e-05 
3.42213e-05 4.63578e-05 6.45125e-08 1.3368e-07 7.26217e-08 1.46678e-07 1.11717e-07 5.69922e-07 1.06323e-06 
8.4207e-07 1.74219e-06 2.68514e-06 4.36697e-06 -2.69373e-07 -3.10488e-06 -2.93467e-06 1.22615e-05 1.74909e-05 
-1.45169e-06 4.3395e-05 -3.77122e-05 9.85747e-06 3.93351e-05 8.86928e-06 -3.0429e-06 -1.00616e-05 1.59427e-06 
6.16927e-06 -3.59915e-06 -5.83472e-07 3.63777e-06 7.06577e-06 -7.56658e-07 6.0777e-06 -7.80027e-08 -1.4958e-05 
1.9966e-06 1.84776e-05 -4.10836e-06 4.43212e-05 -3.66677e-05 -0.000109951 -0.000108177 -2.34094e-05 1.63588e-06 
6.55238e-05 1.83066e-05 1.30383e-05 3.74974e-06 9.74926e-06 -1.77836e-05 -1.28753e-05 -8.71567e-06 5.96079e-07 
9.85558e-06 1.19361e-05 2.59696e-07 -6.54961e-06 -1.01917e-05 -1.14306e-05 5.15219e-06 -4.41752e-07 3.03692e-05 
4.07324e-05 4.53906e-05 3.37395e-05 8.33942e-05 4.6922e-05 3.84894e-05 -0.00010477 -8.52026e-05 0.000175603 
-4.499e-06 2.14372e-05 3.14697e-05 2.9828e-05 0.000172106 3.05524e-05 2.38309e-06 3.47409e-05 6.36598e-06 
2.1068e-05 9.3702e-05 0.000107446 -7.16406e-05 -3.1219e-05 -4.78289e-05 1.81006e-06 1.09986e-07 1.34882e-05 
8.49183e-05 2.07675e-07 -8.89785e-05 -0.000190576 5.47573e-05 5.65141e-05 0.000263438 -1.60831e-05 6.36057e-05 
4.89462e-06 9.97296e-07 -4.19937e-07 3.56303e-07 -5.09322e-07 4.73703e-07 4.96367e-07 -3.05833e-08 -2.19923e-08 
4.88631e-08 2.40708e-07 2.56885e-07 4.31864e-07 4.36825e-07 4.06971e-07 5.65035e-08 2.91327e-07 2.95959e-07 
2.24925e-07 -6.50859e-08 1.07487e-05 1.65508e-05 -5.89063e-06 1.81441e-05 -9.01855e-06 6.77553e-07 -1.81217e-06 
6.50939e-07 -1.09755e-05 6.33432e-06 3.90562e-06 -2.75381e-06 -3.91033e-06 -3.47724e-06 -6.80102e-06 -5.27411e-06 
-1.50937e-05 1.66035e-05 -1.59272e-05 -2.62623e-05 -5.35368e-06 -6.79652e-06 -2.00231e-06 -2.223e-06 -2.99721e-06 
-1.68225e-06 -1.50762e-06 -9.49699e-07 -4.98049e-07 -3.10541e-07 -2.68091e-07 8.57693e-07 -1.96879e-07 1.06023e-07 
4.95341e-06 2.08238e-05 1.03842e-05 -6.8427e-07 1.82105e-06 -6.9366e-08 3.71075e-07 1.26246e-06 1.19066e-06 
1.36874e-07 9.9857e-07 3.25117e-06 2.1683e-06 2.84813e-06 -1.68162e-06 1.00321e-05 7.01914e-06 -3.04549e-05 
1.50669e-05 -1.07731e-06 2.66765e-06 3.80888e-06 2.09319e-06 2.83985e-06 1.1151e-05 -1.48844e-06 3.80166e-06 
-2.63818e-06 2.1648e-05 4.63352e-05 -2.53875e-06 6.24658e-05 -1.57546e-05 1.22339e-05 1.75561e-05 -5.69748e-05 
3.87033e-05 2.21553e-05 9.5467e-06 -6.48539e-06 -8.95431e-07 3.28504e-06 -1.22538e-06 1.9621e-06 -8.38397e-07 
-3.58625e-06 1.28494e-07 1.14109e-06 2.88693e-06 1.52365e-06 5.24773e-06 -7.22535e-06 -3.42205e-06 1.68415e-05 
-1.59029e-05 1.29488e-05 -2.67379e-06 -3.69226e-05 -1.51844e-05 4.42813e-05 7.1527e-08 -2.95714e-05 7.14521e-06 
2.64959e-05 4.43961e-05 1.72552e-05 -1.81722e-05 2.60959e-05 5.75543e-06 -5.33104e-06 1.79568e-05 -1.17462e-05 
-2.6374e-05 -1.44569e-05 -3.83052e-06 -1.47242e-05 -3.94725e-05 3.04604e-06 -3.11427e-07 -9.52788e-07 -3.23561e-07 
8.64285e-07 -4.2035e-07 -3.1086e-07 -1.00139e-06 -2.93015e-09 4.09207e-07 9.84812e-07 6.43353e-07 4.8161e-07 
2.07582e-07 -4.99678e-07 3.13744e-07 3.71413e-07 -1.33674e-05 -1.54619e-05 -2.26472e-06 1.03661e-05 -1.72236e-05 
-2.89831e-06 4.06802e-07 -5.87699e-07 2.39397e-06 -3.30975e-07 3.86811e-06 1.07495e-05 -1.60295e-05 1.34784e-05 
-4.57468e-06 -6.62691e-06 -8.82065e-07 -3.0546e-07 6.85804e-07 -1.22376e-06 -9.12426e-07 -3.38473e-07 -3.50405e-07 
-9.91071e-08 4.80935e-08 -9.71304e-07 3.49288e-07 -1.27648e-05 -1.82079e-07 5.74084e-07 1.74248e-07 1.05429e-06 
1.06286e-06 -2.21184e-07 -1.16547e-06 2.59504e-06 5.4921e-06 -5.48534e-06 -2.42084e-06 -1.04073e-05 -9.6899e-06 
7.72378e-07 1.48638e-06 7.91231e-06 -4.20343e-06 3.9477e-06 7.18017e-06 8.17958e-06 1.61412e-05 1.72393e-06 
-4.79485e-06 8.5594e-08 3.77069e-06 1.20785e-05 2.25558e-07 5.88861e-06 1.43693e-05 -4.56306e-06 -5.49781e-07 
9.26487e-06 -8.35934e-06 3.91015e-06 5.5606e-06 -6.88028e-07 1.16325e-05 8.44442e-06 -9.12335e-06 -5.70859e-06 
8.76975e-08 4.45302e-06 3.80416e-06 7.84398e-06 -1.80196e-05 2.61894e-05 -5.80817e-06 -7.39575e-07 6.95972e-06 
9.68879e-06 -4.51712e-06 -4.08108e-06 1.18427e-05 -5.45665e-06 5.82282e-07 -3.69662e-06 7.03928e-06 3.41224e-06 
-1.66939e-05 2.88431e-06 4.68685e-06 1.49053e-05 1.09124e-05 -1.70288e-06 -1.43563e-06 2.63422e-07 4.9701e-07 
1.00473e-06 -1.75152e-07 9.13592e-07 2.4646e-07 -5.88654e-07 1.78038e-06 -1.77836e-07 -8.07776e-06 1.7418e-06 
6.215e-06 -4.58186e-06 -1.60129e-05 -9.85044e-06 -1.04312e-06 4.4473e-07 3.20702e-06 5.03329e-07 -6.61374e-06 
-8.07579e-06 -9.52003e-07 8.07359e-07 -5.96232e-07 3.96621e-07 7.28377e-07 -2.07973e-07 -1.20745e-06 2.60407e-06 
3.25244e-07 -4.18756e-07 -7.00327e-07 4.59348e-07 7.80816e-07 4.20042e-07 4.37933e-07 8.65404e-07 -8.06276e-07 
2.24312e-06 -1.41242e-05 4.88728e-06 -3.65561e-07 -3.68721e-06 1.01295e-05 -1.61318e-06 -1.54203e-05 -2.29722e-06 
4.27306e-06 -1.0896e-06 -4.95863e-06 7.27639e-06 2.99892e-07 1.60585e-06 -2.65466e-05 1.2973e-06 4.94744e-06 
1.69756e-05 3.055e-06 1.03784e-05 -1.80357e-06 -5.80573e-06 -6.41499e-07 1.56595e-06 7.79522e-07 -1.14499e-06 
-3.09622e-06 1.56827e-06 1.03024e-06 7.96884e-06 3.51848e-07 5.18909e-06 3.11565e-06 1.56413e-05 -3.97653e-06 
-1.66635e-05 -1.24639e-06 7.06036e-07 -1.23257e-06 -4.79387e-07 1.10707e-06 3.71271e-07 4.63222e-07 4.40546e-07 
-1.57636e-06 -7.20203e-06 4.16323e-06 1.30476e-05 -1.17438e-05 1.27671e-05 -2.03906e-05 -6.71599e-07 -2.44296e-06 
5.92689e-07 -2.14205e-06 7.66069e-07 -1.20043e-05 8.62423e-07 1.92735e-07 6.75821e-07 -2.96536e-06 -1.0729e-06 
-2.43901e-05 1.68699e-05 -2.33718e-05 1.56875e-05 1.67647e-05 -5.75349e-06 -2.45362e-06 8.79463e-06 -3.82297e-06 
-2.08734e-05 4.95108e-06 -6.23991e-06 -2.1053e-06 -4.8209e-06 1.65792e-07 2.72022e-06 -2.62582e-05 2.41871e-05 
-2.6501e-06 4.94109e-07 -8.03723e-07 3.06978e-07 -4.04101e-07 6.13517e-06 -6.48899e-07 1.14821e-05 2.38251e-05 
-2.7694e-05 5.36741e-06 -1.84389e-05 6.12275e-06 -2.56509e-07 -1.87851e-07 -4.48601e-08 -7.26137e-06 -2.34537e-06 
8.96994e-07 1.16757e-06 4.03257e-07 -4.43296e-06 4.05317e-06 9.40112e-06 3.40046e-06 5.26985e-06 1.58684e-06 
-8.3241e-07 -1.39882e-05 -2.72514e-06 4.46039e-06 6.93935e-07 1.05541e-05 2.4171e-06 6.15365e-07 -8.56366e-06 
1.73845e-05 9.23475e-06 8.76015e-06 -8.8472e-06 -6.06018e-07 5.15858e-09 -1.02711e-06 -9.48718e-08 1.20068e-06 
1.21395e-06 -1.27834e-06 4.59521e-07 1.44668e-06 1.29036e-07 4.8171e-07 1.41034e-06 7.38836e-07 1.89805e-08 
-8.94984e-07 1.21511e-07 -1.22407e-06 -3.74741e-07 3.64579e-07 -1.06481e-06 -1.36215e-06 -2.55159e-08 -5.18263e-07 
9.36348e-08 1.05801e-06 1.27909e-06 5.2848e-07 -0.00525421 0.000109486 -1.85757e-05 -3.13415e-06 1.30827e-06 
-3.58888e-07 -3.19652e-06 -7.26363e-06 -4.6462e-06 -1.31048e-06 -2.67079e-06 -4.52856e-06 -3.66622e-06 -5.34242e-06 
-7.18093e-06 -7.31758e-06 -3.76742e-06 -3.58523e-06 -3.60093e-06 6.44295e-06 3.79232e-06 2.21006e-05 3.71989e-06 
1.12452e-05 1.9173e-06 -5.95127e-06 -1.28424e-05 -1.64499e-06 -2.65339e-06 -7.31021e-07 -7.41176e-07 -1.26169e-06 
-1.36442e-06 -2.74588e-07 5.40224e-07 -4.71699e-07 -7.00228e-07 1.43026e-06 8.77272e-07 1.05263e-06 -3.40008e-08 
-2.70146e-07 -9.01844e-07 1.40491e-06 1.11124e-06 9.00871e-07 7.85814e-07 6.71618e-07 2.63911e-07 2.49893e-07 
2.48779e-07 5.67069e-07 1.27047e-07 -9.85542e-07 7.69283e-07 -2.9918e-07 2.82147e-06 1.30132e-06 1.70345e-06 
5.68261e-06 4.59736e-06 3.63744e-06 -8.3246e-07 1.18308e-05 2.75933e-06 1.31722e-05 1.43057e-05 4.07818e-07 
3.14542e-06 -6.31915e-06 6.17135e-07 -1.21179e-07 -4.22626e-06 5.87451e-06 5.49941e-06 -1.75847e-06 3.47724e-06 
1.04635e-06 -1.17314e-05 -5.59233e-06 7.67488e-06 -2.31988e-05 7.30254e-06 1.7703e-05 5.67749e-05 0.000204108 
-0.00215519 0.00469138 0.000505486 0.000526056 0.00115897 0.00159992 -0.000294133 -0.000710636 -0.000122606 
-0.000212188 -0.00050954 -0.000154439 -0.000420555 -0.000200509 0.000110366 0.000361496 7.25511e-05 -8.94768e-05 
0.000225058 -0.000174578 0.000269158 0.00026241 -5.92293e-05 -8.49915e-05 -0.000588774 -0.000301524 0.00592897 
0.00321969 -0.000949013 0.000235222 0.000460505 -0.000216766 -0.000554316 -0.000158336 2.14496e-05 -4.95658e-05 
-0.000381029 -0.000467202 0.000271506 0.000585689 -0.00247445 0.00266258 -0.001773 0.000448472 0.000212313 
-0.00156374 0.000405981 0.000241718 -0.000431742 0.000142505 0.000308742 0.000328317 0.000271624 0.000337031 
0.000134596 0.00327495 0.000546846 0.000405148 -4.53865e-06 0.000200472 -0.00327921 -0.000294453 1.10288e-06 
-1.25555e-06 -8.07891e-07 -1.02362e-06 1.15899e-07 9.08247e-08 -1.98617e-07 -2.98547e-07 -5.50619e-07 6.80645e-08 
3.97664e-07 4.74639e-07 3.15378e-07 1.4432e-07 4.21188e-08 1.20013e-07 -4.68314e-08 2.28102e-07 3.46937e-07 
-6.58834e-08 -2.81624e-07 3.27557e-07 -4.25786e-08 2.60222e-07 -3.47562e-05 1.36605e-06 -0.000215003 -0.000159182 
-0.00142462 -1.58966e-05 -5.17813e-06 -1.55934e-05 -1.37151e-05 -3.97693e-06 -5.96331e-06 -7.34613e-07 -3.63539e-06 
-1.26987e-06 -8.37766e-07 -8.61676e-07 -2.65116e-06 -4.78507e-06 -1.13366e-05 -1.02108e-05 -1.51557e-05 4.78185e-06 
2.95174e-05 2.72006e-05 3.88522e-05 7.04821e-06 5.44916e-06 -8.33384e-06 -3.69422e-06 -4.03934e-06 -3.13583e-06 
-1.24571e-06 -2.55061e-06 -3.43463e-07 -6.15377e-07 -6.50098e-07 -8.85537e-07 4.15478e-07 2.1284e-07 -7.33114e-07 
-5.05354e-07 -1.35477e-06 -7.33605e-07 -4.2879e-07 -0.000809932 -0.000358394 2.10072e-07 3.90167e-07 4.21965e-07 
4.92458e-07 9.09539e-08 7.63542e-07 -5.70647e-07 -4.55452e-07 -3.89549e-07 -8.85947e-07 -1.17584e-06 -2.10898e-06 
7.02798e-06 2.04415e-06 -1.18631e-05 -2.25425e-07 2.24748e-06 -2.34803e-06 6.99645e-06 -9.31481e-06 -1.00076e-05 
-6.01611e-06 -8.05582e-07 8.57664e-06 4.93762e-06 1.17001e-05 1.63602e-06 -1.14012e-05 -6.97468e-06 9.66682e-07 
-8.34958e-07 1.65151e-06 -3.78705e-06 -1.81048e-06 -3.14494e-06 -5.82394e-06 8.32396e-06 -2.25793e-05 5.54224e-06 
-3.90165e-05 -6.10145e-05 -0.000753977 0.00024672 0.000218062 -8.46196e-05 0.000358516 -4.256e-06 -0.000147442 
9.20301e-05 -4.91822e-06 5.37678e-05 5.86588e-05 5.10922e-05 7.29367e-05 -5.82347e-07 -8.84939e-06 -6.47237e-05 
-1.93029e-05 -1.5377e-06 5.38742e-05 -1.64685e-05 1.85739e-05 2.73666e-06 -5.32076e-05 -1.17455e-05 -8.46943e-05 
-0.000555029 0.000194845 0.00106868 -0.000180191 2.45903e-05 9.46168e-05 2.89168e-05 2.44725e-06 4.89676e-05 
9.41056e-05 1.27969e-05 3.73239e-05 0.000100465 0.000210073 -0.000314305 -0.00053444 3.12406e-05 -6.03129e-05 
0.000107508 -7.54604e-05 -1.82702e-05 -0.000194616 -0.00014597 -3.67572e-05 -2.91738e-05 -9.54437e-06 -4.14217e-05 
0.000101239 0.000159066 -0.000853192 -6.47204e-07 0.000180172 -0.000326425 -7.02436e-05 -0.000191438 1.71245e-05 
3.84651e-05 -0.000142943 1.01346e-06 -3.05265e-07 1.62244e-06 2.36426e-07 -4.39841e-07 -2.62707e-07 3.10755e-07 
2.62215e-07 3.03965e-07 1.15559e-07 1.11388e-07 1.24318e-07 1.54991e-07 6.95027e-07 2.71332e-07 2.94642e-07 
-1.76405e-07 -1.14717e-06 1.20294e-07 6.03042e-07 1.63815e-05 -8.6422e-05 -1.49025e-05 -2.49149e-05 -3.74217e-05 
-0.000203852 -1.38085e-05 -7.05907e-06 -5.98079e-06 -2.92117e-06 -3.36489e-06 -1.96002e-06 2.30191e-06 1.28532e-06 
1.36079e-06 1.43218e-06 5.45673e-07 -1.33888e-05 -1.27969e-05 -6.62703e-05 0.000113665 6.92442e-05 1.89835e-06 
1.28823e-05 -2.24526e-06 -4.97886e-06 -2.5967e-06 -3.91109e-07 -3.31106e-07 -6.84123e-07 -2.71443e-07 -1.04541e-07 
-4.72771e-07 -6.35225e-07 -7.11566e-07 -6.68012e-07 -1.8057e-06 -2.55472e-07 -4.92773e-07 -0.000137031 -6.78866e-05 
5.07208e-07 2.29269e-07 6.06984e-07 7.59993e-07 -1.33149e-07 -6.10842e-07 7.24675e-08 -5.31739e-07 -8.41598e-07 
-1.37065e-06 -2.04751e-06 -3.13149e-06 3.48774e-06 -3.04086e-06 -3.25626e-06 4.67124e-06 -2.17894e-05 -1.19261e-05 
-0.00011012 9.00121e-05 -7.96238e-05 -1.25163e-05 6.89774e-06 9.58889e-06 -2.50758e-08 2.91145e-06 -9.04527e-08 
-1.21362e-06 -6.43669e-06 -1.05472e-06 -2.24488e-06 -2.28313e-06 -7.95238e-07 7.189e-06 -3.50401e-05 -1.7449e-06 
1.59879e-05 -8.18121e-06 -5.56466e-05 3.14062e-05 3.79289e-05 5.05605e-05 6.13577e-05 0.000122199 1.36183e-05 
1.18116e-06 2.55047e-05 7.35229e-05 4.79471e-05 2.38663e-05 1.12354e-05 3.54927e-05 2.21631e-05 1.80236e-05 
2.03747e-05 2.0067e-05 1.18932e-05 7.36246e-06 1.96214e-05 1.94217e-05 1.01487e-05 8.60665e-06 -4.39958e-05 
3.35718e-05 -3.38705e-05 -1.8086e-05 -2.11973e-05 -2.0695e-05 -7.58196e-06 2.53681e-05 5.93496e-05 6.5805e-05 
4.0903e-05 1.39177e-05 3.49329e-07 -3.63817e-05 4.39745e-07 8.81067e-05 2.20527e-05 7.59361e-06 -5.27378e-05 
-4.73211e-05 -2.38419e-05 1.09347e-06 5.51662e-05 8.36363e-05 6.64737e-05 -3.32341e-06 3.78864e-05 9.78318e-06 
-6.23525e-07 -4.94173e-05 1.23128e-06 -4.05048e-05 2.29952e-05 9.42072e-05 -1.622e-05 2.83618e-05 3.39227e-06 
-0.00012259 9.89189e-06 5.20595e-05 -2.975e-07 -6.25114e-08 -7.90441e-09 2.9676e-07 6.72184e-07 1.95071e-07 
-4.80603e-07 1.71054e-08 1.07919e-07 4.01826e-08 1.29023e-06 5.06339e-07 -2.89784e-08 1.3598e-07 3.39497e-07 
-1.34234e-05 7.24782e-06 -1.19646e-05 -6.28449e-06 1.80851e-05 -1.24586e-05 -4.75834e-06 2.67473e-06 -4.9227e-06 
-1.85202e-06 1.48991e-06 -4.57811e-06 2.76273e-06 -8.32388e-06 -9.76165e-06 -5.11799e-07 -1.37268e-06 -4.60958e-06 
-3.59934e-06 -2.02803e-07 -3.32169e-08 -5.19826e-07 -8.88369e-07 -7.24736e-07 -6.0615e-07 -8.3335e-07 3.00226e-07 
-6.78774e-07 -6.77688e-06 -2.24731e-05 8.20646e-08 -4.47281e-07 7.74301e-07 2.54466e-07 -8.90828e-07 4.29016e-07 
5.21131e-07 -9.16822e-07 4.23543e-06 2.22177e-07 -1.9195e-06 3.53456e-05 2.63198e-05 4.08411e-05 1.79152e-05 
-5.61588e-06 1.58193e-06 -5.72633e-08 2.45989e-06 -2.74199e-06 5.54461e-08 7.65345e-06 1.70659e-07 -2.03814e-06 
-8.58706e-06 2.48825e-07 -1.3237e-05 -1.49279e-05 1.82229e-05 2.12286e-05 3.2899e-05 2.79736e-05 -5.71451e-06 
-5.89841e-06 -1.18169e-06 -5.33865e-06 3.24184e-06 -2.38956e-06 3.84986e-06 6.90316e-07 -9.78436e-07 -8.03988e-06 
1.21178e-06 -1.48244e-06 -1.07258e-06 -3.97903e-06 -3.73205e-06 -3.22448e-06 8.64742e-08 1.80082e-05 -2.17263e-06 
6.8245e-06 1.61959e-05 5.78257e-06 1.96881e-05 2.5041e-05 -2.162e-06 -2.51022e-05 3.39212e-07 5.2017e-06 
4.1499e-06 -1.55107e-05 -1.48531e-05 -1.06065e-05 -9.61854e-06 -6.5749e-06 2.43997e-05 4.87825e-06 1.0074e-06 
2.3592e-07 5.58816e-07 -5.35012e-05 1.93502e-05 1.61873e-07 1.54597e-05 -1.27101e-06 -1.68964e-05 -8.38115e-06 
-1.53517e-08 2.82199e-05 -5.26879e-05 -3.41627e-05 1.75453e-05 -4.07511e-06 2.9227e-07 -3.5259e-07 1.00036e-06 
2.78348e-07 -7.61286e-09 5.63988e-07 2.52902e-07 1.11284e-06 -7.69593e-09 3.21391e-07 -3.5917e-05 -5.10928e-06 
2.44188e-06 9.96816e-06 1.22354e-06 3.69734e-06 -1.0839e-06 1.02741e-05 -3.57717e-07 1.13649e-06 -2.23175e-06 
-1.83217e-06 -8.25643e-07 -1.47793e-06 -1.03684e-06 3.08049e-08 3.76384e-08 -1.51928e-07 -4.63679e-05 6.59783e-07 
2.24934e-07 -6.86686e-08 1.20256e-07 8.52054e-07 1.65453e-07 2.19546e-07 1.61131e-06 2.96577e-06 1.87627e-06 
1.25115e-05 1.41378e-05 -9.78168e-06 -3.83181e-06 3.68044e-07 -1.31018e-06 -6.58094e-06 -3.50219e-06 -2.59057e-06 
9.66669e-06 4.7539e-06 -6.68514e-06 -3.73472e-06 4.05636e-06 -8.97118e-07 -1.53347e-06 3.17468e-05 -2.18608e-06 
1.06733e-05 -1.03834e-05 1.40524e-05 1.32478e-05 -1.19207e-05 -8.49091e-07 -1.29274e-05 -3.61806e-06 -1.90696e-05 
2.96623e-06 -8.50821e-07 1.24434e-06 2.45026e-06 3.91469e-06 1.69125e-06 7.05867e-06 1.49598e-05 3.22333e-06 
6.34158e-06 1.37583e-05 -1.30779e-05 7.39985e-06 -3.43882e-06 -2.69185e-05 -1.05121e-05 -4.76202e-06 -6.5319e-06 
1.36124e-05 2.19239e-05 1.40302e-05 1.46384e-05 -8.98549e-07 -1.2879e-05 2.58847e-05 2.99981e-06 1.88886e-05 
1.15749e-06 1.02869e-05 -4.67564e-08 1.52143e-05 1.19845e-05 -1.33539e-05 -6.23112e-06 -6.10455e-08 -1.46393e-05 
3.359e-07 1.77085e-06 -3.48469e-08 9.94853e-07 4.98108e-07 3.95217e-06 3.0994e-06 6.8159e-07 9.45774e-08 
-2.47686e-06 -2.28879e-07 3.58365e-08 -1.59376e-06 -2.78843e-07 1.12276e-06 -2.71579e-07 -3.56763e-06 -5.81595e-07 
-3.41626e-06 1.48109e-06 3.63873e-08 -1.90795e-06 4.03834e-06 1.34093e-07 3.88987e-07 2.30196e-08 -4.05807e-07 
-6.69499e-06 4.53662e-07 6.26232e-06 2.56294e-06 8.7673e-06 2.11893e-05 -5.21598e-06 2.65519e-05 2.3258e-05 
-2.31556e-05 2.45449e-05 1.11239e-07 -1.94947e-05 -4.99423e-06 -2.96138e-08 -1.59346e-06 1.14833e-05 1.81835e-08 
-2.12866e-07 -3.37522e-06 -1.52028e-06 -9.33492e-06 1.33865e-06 5.88119e-06 7.04484e-06 -5.57701e-06 -8.37278e-06 
2.24087e-05 2.01849e-05 4.32604e-07 7.43531e-07 -1.89769e-06 1.16451e-06 1.40809e-06 -3.73945e-06 -8.65878e-06 
-9.61203e-06 -4.98738e-07 -2.90288e-05 -7.37122e-07 5.72608e-07 -1.02023e-06 4.73459e-06 -8.13447e-06 8.12298e-06 
-1.9454e-06 -7.69797e-06 -3.80585e-06 -3.93836e-07 -1.09912e-06 1.1527e-06 -3.41606e-06 1.45954e-06 7.69899e-07 
7.87556e-06 1.82088e-06 1.44131e-06 6.23095e-07 3.19877e-06 9.33764e-08 -2.97902e-06 6.11022e-06 -2.35828e-05 
5.08834e-06 6.98605e-06 2.45825e-05 2.1379e-05 2.31592e-05 2.26504e-05 7.72917e-06 7.18798e-06 -1.40585e-06 
1.88936e-06 1.48107e-07 6.61746e-07 3.17551e-06 -1.4272e-06 9.68401e-07 6.68881e-07 -2.45315e-07 1.3387e-05 
5.65031e-06 -1.86605e-06 3.09143e-05 5.99936e-07 5.13941e-06 -5.91344e-06 5.76218e-07 3.63387e-06 7.32535e-07 
5.32743e-06 -4.1359e-06 3.69086e-06 2.66271e-05 -8.97229e-06 -4.1247e-06 1.13595e-05 -2.76732e-05 3.39109e-06 
-8.3405e-06 3.2398e-06 -6.87528e-06 -4.95192e-06 -4.73837e-06 -1.47298e-06 -1.26473e-06 3.89033e-06 3.58333e-07 
1.41934e-06 -3.6346e-05 8.66385e-06 -3.12065e-06 2.67539e-06 -4.73342e-06 -2.40757e-05 9.4103e-06 -5.22284e-06 
-1.20613e-07 -3.15027e-08 -1.31127e-06 1.04908e-05 5.60477e-06 9.45026e-06 -4.10852e-06 0.00795278 0.00924589 
6.94118e-07 5.21768e-09 9.61681e-08 -8.61724e-08 0.00253915 -7.36065e-05 -0.000209479 0.000570113 1.01359e-08 
2.13357e-08 1.72848e-08 1.4789e-08 1.24491e-08 1.21885e-08 1.39246e-08 1.25906e-08 9.8682e-09 8.46204e-09 
8.69572e-09 7.01694e-09 4.56829e-09 3.86163e-10 1.30155e-10 -2.27472e-09 -4.14174e-09 -7.0648e-09 -1.17947e-08 
-1.47686e-08 -8.3548e-09 2.90888e-08 9.61681e-08 0.0165751 1.73581e-09 1.01818e-09 2.34862e-09 3.01259e-08 
1.51017e-08 1.27445e-08 1.3893e-08 1.11836e-08 6.5148e-09 5.50096e-09 2.35671e-09 4.09215e-09 4.79492e-09 
6.51779e-09 4.35514e-09 2.83875e-09 1.33054e-09 -1.2093e-09 -3.1156e-09 -1.09029e-09 -1.41726e-09 -1.46717e-09 
-4.59161e-09 -1.75749e-08 -3.06411e-08 -3.18053e-09 -9.72852e-06 -3.6042e-06 3.27816e-06 1.02964e-05 1.08963e-05 
1.21455e-05 1.23806e-05 1.13384e-05 9.37468e-06 7.80959e-06 9.20357e-06 5.58318e-06 5.33551e-06 5.06535e-06 
3.1906e-06 1.56317e-06 -2.39802e-06 -3.11345e-06 -5.97913e-06 -4.23789e-06 -8.45067e-06 -1.07498e-05 -9.39348e-06 
-6.73592e-06 -4.52422e-06 -1.30325e-06 1.14039e-05 9.2221e-06 -0.00781496 -0.000431957 -0.00118246 -0.00060604 
-0.000350811 -0.000215176 -0.000142852 -9.58732e-05 -7.17664e-05 -4.36079e-05 -4.22733e-05 -3.23284e-05 -2.93756e-05 
-3.50931e-05 -4.56638e-05 -5.99473e-05 -7.63121e-05 -7.52658e-05 -7.07575e-05 -2.08884e-05 4.39881e-05 0.000120108 
0.000188901 0.000197901 0.000128957 4.5906e-05 -1.86829e-05 -5.6274e-05 -6.90477e-05 -6.01091e-05 -5.1006e-05 
-4.01296e-05 -3.07866e-05 -1.8868e-05 -1.34871e-05 -5.90519e-06 -4.61413e-06 -2.71737e-06 1.78407e-07 5.63936e-07 
1.81571e-06 4.03808e-06 7.09594e-06 1.12214e-05 9.57959e-06 -6.47358e-06 -1.22162e-06 2.30594e-06 -8.34632e-06 
-6.25281e-06 -4.51584e-06 -2.21262e-06 -7.53926e-07 9.66025e-07 3.98582e-06 7.36349e-06 -3.39885e-07 1.55211e-05 
6.90784e-06 2.63119e-05 3.11463e-05 3.25568e-05 1.95716e-06 6.75077e-05 7.57506e-05 7.33142e-05 1.90731e-05 
1.3143e-05 -0.000104495 -0.000143815 -6.49873e-05 -9.51647e-05 -1.7268e-05 -6.59778e-06 1.01042e-05 1.02742e-05 
4.4118e-05 3.07659e-05 2.55806e-05 2.25557e-05 2.59024e-05 2.6559e-05 1.17883e-05 2.51307e-05 4.24059e-05 
-2.06799e-05 7.6267e-05 9.94727e-05 0.000128583 0.000154858 0.0141928 0.00464309 -0.00320907 -0.000336687 
0.00377162 -0.00172728 0.00462287 0.00105335 0.00061843 -0.0067643 0.00513883 0.0011807 -0.000686339 
0.00309931 -0.00749118 0.00106859 -0.0243271 0.00113902 0.00885989 -0.0034492 0.0012287 0.000795105 
-0.00354245 0.00269524 0.00517231 0.000992015 0.00382404 -0.00177872 0.010784 -0.00916979 0.00730174 
0.00157037 5.85891e-06 1.35838e-05 2.452e-07 -3.17375e-07 -5.32878e-06 -7.35134e-06 -8.02982e-06 -8.9401e-06 
-9.11705e-06 -7.78443e-06 -1.81869e-06 -2.59599e-06 5.50427e-08 4.05096e-06 5.91578e-06 8.98581e-06 4.86384e-06 
9.89453e-06 6.21125e-06 5.47519e-06 6.81874e-06 1.03059e-05 1.21789e-05 1.13834e-05 6.9856e-06 -1.0599e-06 
-1.00985e-05 -7.78617e-06 -0.0176382 0.0160216 0.000963735 0.000551485 0.000274968 0.000151828 9.38149e-05 
6.4436e-05 3.48907e-05 7.87066e-06 1.78864e-05 1.09981e-05 7.86311e-06 1.41697e-05 2.37036e-05 3.05764e-05 
4.80588e-05 5.57076e-05 6.95756e-05 2.26639e-05 -3.21044e-05 -0.000123418 -0.000182372 -0.000188442 -0.000127317 
-3.49136e-05 4.27235e-05 7.26349e-05 7.97212e-05 7.02029e-05 5.23095e-05 3.70002e-05 2.53114e-05 1.05404e-05 
7.0812e-06 1.70756e-06 8.04425e-07 -4.82691e-06 -8.33962e-06 -8.31956e-06 -9.78281e-06 -1.05284e-05 -1.08854e-05 
-1.02546e-05 -3.33153e-06 1.15837e-06 -2.582e-07 8.57714e-07 7.4462e-06 9.73436e-06 9.73794e-06 9.98486e-06 
8.89339e-06 8.20221e-06 7.6139e-06 7.53395e-06 -5.76445e-06 3.27442e-06 9.22568e-07 -7.23358e-06 -2.34439e-05 
-3.74091e-05 1.09861e-05 -2.39928e-05 1.54771e-06 4.11361e-05 5.42529e-05 5.50456e-05 0.000164477 7.47337e-05 
-1.18193e-06 -6.10688e-05 -7.72276e-05 -0.000101872 -8.36396e-05 3.23428e-06 -1.80117e-05 -1.22503e-05 -8.99188e-06 
-9.48552e-06 7.61187e-08 9.66545e-06 1.9511e-05 1.66517e-05 2.22784e-05 -5.92414e-05 -0.000227194 -0.000310304 
-0.000542566 -0.000120364 -0.000737229 0.00742395 0.0164038 -0.0110938 0.00150743 0.00122145 -0.0015521 
0.000117515 -0.00388588 0.00799248 -0.000266185 0.000828448 0.00121888 0.00654058 -0.0153609 0.0115625 
0.0167682 0.00225974 0.00535393 0.00595449 0.0019947 0.00201418 0.00754381 -0.0101432 0.00208198 
0.00071083 0.00090116 0.000225158 -0.00440839 -0.00615119 -0.0121584 -0.0243143 7.87888e-07 -1.21097e-06 
-0.000716836 0.0157562 0.00256309 0.00834112 -4.04773e-08 -0.016622 0.0130612 -4.00684e-09 -0.00106129 
-3.25683e-09 6.03192e-11 -7.20447e-05 -0.000157912 2.23462e-08 -0.0115438 0.00880207 -0.0114892 0.0091468 
-0.0112234 0.0109516 -0.0122484 0.0104751 -0.0122936 0.0108406 -0.0117111 0.0117689 -0.0121326 
0.0110422 -0.0122258 0.0117377 -0.0123142 0.0115954 -0.0129422 0.0111344 -0.0135662 0.011174 
-0.0131267 0.0116603 -0.0125273 0.0123046 -0.0128415 0.0118874 -0.0119613 0.0124694 -0.0124982 
0.0118835 -0.0122674 0.0126155 -0.0117351 0.0135705 -0.0112354 0.0132688 -0.00993864 0.0131601 
-0.0100384 0.0140155 -0.0120057 0.0178438 -3.63747e-06 -6.47353e-06 -4.95866e-06 2.09538e-06 -1.19565e-06 
-1.61072e-06 1.36983e-06 -1.41626e-07 -2.19532e-06 3.42705e-06 9.60873e-07 -1.43365e-07 2.85284e-06 1.11302e-06 
9.04408e-08 4.66944e-06 3.79655e-06 1.81548e-07 7.59494e-06 4.38223e-06 3.17273e-07 5.85757e-06 4.13238e-06 
-1.44537e-06 4.56211e-06 3.70023e-06 -3.46559e-06 -1.96399e-06 9.30825e-07 -4.34453e-08 -1.42317e-06 2.56687e-06 
-1.53632e-07 -5.37584e-06 -2.07868e-06 -1.61106e-06 -4.91103e-06 -2.71006e-06 6.5353e-07 -3.86316e-06 -3.05284e-06 
7.4015e-07 -3.79381e-06 -3.49795e-06 1.31093e-06 -3.40616e-06 1.5454e-07 1.05143e-06 -3.66349e-06 -3.52575e-06 
1.29474e-06 -3.15203e-06 1.03658e-06 2.41924e-06 1.1961e-06 2.52252e-06 2.14933e-06 -8.55355e-07 -1.09124e-06 
2.19037e-06 -4.47195e-06 -2.88343e-06 2.16551e-06 -6.91309e-06 -3.69899e-06 3.78526e-07 -5.05923e-06 -4.31137e-06 
1.12559e-06 -4.03154e-06 -5.87842e-06 2.02528e-06 -2.66456e-08 -4.62046e-06 4.01506e-07 1.13742e-06 2.23428e-06 
5.44082e-08 2.04031e-06 -4.98241e-07 -5.32648e-06 -3.30529e-06 0.0071528 -0.0014888 -0.00238815 -0.000120799 
-6.83521e-05 -0.000442013 -3.58634e-05 -5.3813e-05 -0.000183949 -2.83727e-05 -1.69627e-05 -0.000147639 -2.52689e-05 
-9.01737e-06 -9.67959e-05 -2.14178e-05 -4.90511e-06 -6.163e-05 -8.09531e-06 -4.15143e-06 -4.90039e-05 -1.21221e-05 
-1.28998e-06 -3.52636e-05 -1.79592e-05 -4.57695e-06 -3.48194e-05 -8.37024e-06 -2.10733e-06 -6.37829e-06 -3.69704e-06 
1.02265e-06 -1.95769e-05 -1.13374e-05 -2.34818e-06 -1.75879e-05 -1.18026e-05 -5.93608e-07 -3.75231e-06 -1.34082e-05 
-2.01353e-07 8.29024e-07 -1.28694e-05 1.04502e-06 6.28032e-06 -1.5819e-05 1.86623e-06 1.19514e-05 -2.24745e-05 
-3.72621e-06 1.46849e-05 -9.02152e-06 -3.1888e-06 1.86864e-05 -1.40119e-05 -1.65986e-06 -1.00504e-05 -2.27064e-05 
-2.92219e-06 -3.19441e-05 -1.62533e-05 -2.43189e-06 -6.27416e-05 -9.55758e-06 7.28456e-06 -3.33903e-05 7.72109e-06 
1.18347e-05 -3.50497e-06 1.95241e-05 1.60517e-05 1.68065e-05 1.77462e-05 3.17756e-06 2.05827e-05 2.02252e-05 
2.43516e-06 2.11594e-05 1.52333e-05 3.32158e-06 3.54352e-05 7.89169e-06 -1.02545e-06 3.57882e-05 2.92905e-06 
3.28896e-07 1.78619e-05 -5.25454e-07 -5.1323e-07 5.48671e-06 -3.00655e-06 -2.14627e-06 1.69638e-06 -3.72271e-06 
-7.37376e-07 -1.69889e-06 -5.57968e-06 -1.40799e-06 -5.90619e-06 -5.25632e-06 -8.29546e-07 -2.02421e-06 -5.0551e-06 
-1.96036e-07 -2.33256e-06 -2.74179e-06 -9.98072e-07 -2.86192e-06 -2.66066e-06 -1.33853e-06 -5.7085e-06 -3.78576e-06 
-1.48117e-06 -6.48807e-06 -2.83449e-06 -1.7505e-06 -6.62174e-06 -1.85948e-06 -1.60469e-06 -6.2779e-06 -9.20513e-07 
-1.35126e-06 -5.8623e-06 -3.39103e-07 -1.15971e-07 -6.00858e-06 1.06441e-06 3.45138e-06 -5.76747e-06 6.83917e-06 
3.25722e-06 1.19474e-06 0.00577446 0.000835037 -1.40329e-06 -4.85784e-06 -5.17107e-07 0.00559664 -0.00587042 
-4.82493e-07 2.89155e-07 8.74634e-07 3.335e-07 3.14317e-07 2.69065e-06 4.60285e-07 1.67246e-06 3.49888e-06 
1.5295e-06 1.7345e-06 4.96252e-06 1.89035e-06 2.51463e-06 5.77395e-06 2.25577e-06 3.38878e-06 6.15255e-06 
2.78249e-06 4.75273e-06 7.90462e-06 1.12365e-06 -7.63687e-07 5.27177e-06 3.40957e-06 5.92239e-06 4.80604e-06 
5.28486e-06 -2.52073e-06 4.86199e-06 -1.15597e-07 6.69633e-06 2.99854e-06 7.59335e-07 7.47952e-06 -2.3905e-06 
2.44465e-06 1.54729e-05 -3.47462e-06 2.61842e-05 3.09749e-05 7.23814e-06 5.66713e-06 1.64047e-05 2.15e-05 
2.39776e-05 1.94487e-05 8.86003e-06 2.20846e-05 2.64266e-05 1.45677e-05 2.3606e-06 -2.82722e-05 3.21133e-05 
-2.8888e-06 -6.77275e-05 2.31974e-05 2.47046e-05 -1.41537e-05 -2.27546e-05 -4.68979e-05 -1.42822e-05 -2.13669e-05 
1.76399e-05 -6.51114e-05 -4.15272e-05 -3.76397e-05 -2.52468e-05 -5.82056e-05 -3.20112e-05 9.95458e-06 -5.6493e-05 
-1.90073e-05 -6.13182e-06 -3.84827e-05 -1.33496e-05 -2.49748e-05 -4.32545e-05 2.11519e-05 -1.61574e-05 -1.19269e-05 
6.6257e-06 1.06116e-05 -3.27027e-06 7.15824e-06 1.31547e-05 7.87762e-06 3.27959e-06 6.36738e-06 4.1218e-06 
-8.1334e-08 5.9623e-06 6.53492e-06 7.27426e-06 9.59674e-06 1.29838e-05 7.90293e-06 4.90937e-06 7.76088e-06 
-8.14134e-06 2.17909e-05 -1.3558e-05 -7.92184e-06 3.70973e-05 -2.32135e-07 3.16831e-05 -2.16173e-05 1.65645e-05 
-3.68326e-05 -1.1491e-05 2.93109e-05 1.47861e-05 -3.68023e-05 -3.6648e-05 2.40226e-05 -4.47583e-05 -0.000100412 
4.97598e-05 -9.44617e-06 -9.33022e-05 0.000758898 0.0023716 -8.70801e-05 0.00169068 0.0122072 0.00107389 
-0.0120723 0.00816283 -0.00339261 -0.00116968 -0.000847723 -0.00148849 -0.000130209 -0.000667242 -0.000711155 
-0.00271593 -0.00571229 -0.000194776 -0.00374288 -0.00300688 0.00323578 -0.00261267 -0.0032682 0.0017842 
-0.00267375 -0.00267767 0.00135635 -0.00203469 -0.00222033 0.000798548 -0.00158292 -0.00192305 0.000645631 
-0.00131584 -0.00186269 0.000876566 -0.000841064 -0.00137134 0.000681545 -0.000911161 -0.00158579 0.000414874 
-0.00120992 -0.0015122 0.000806125 -0.00132609 -0.00127021 0.000700345 -0.00107762 -0.000866574 0.000661978 
-0.000695438 -0.000615262 0.000311294 -0.000166172 -0.000301896 0.000224922 0.000293359 0.000137236 -3.45144e-05 
0.000399895 0.000334032 -0.000113486 0.000402064 0.000457101 -8.2627e-05 0.000684817 0.000520997 -0.000103143 
0.00110636 0.000793195 -0.000242738 0.00214548 0.00138997 -0.000613862 0.00383629 0.00288203 -0.00101514 
0.00505577 -0.000100961 -0.000604807 -0.000643497 -0.0014397 0.000738187 0.000990232 -0.00100559 -0.00196844 
-0.00124166 0.00073868 -0.00205739 -0.00161586 0.00122194 -0.00145604 -0.00168035 0.000384162 -0.00145259 
-0.0018898 0.000848846 -0.00137818 -0.00151099 0.000448822 -0.00213169 -0.00110288 0.00059466 -0.00174447 
-0.002221 0.00110585 -0.0017943 -0.00313328 0.00107605 -0.00155976 -0.00309305 0.00087302 -0.001669 
-0.00267422 0.000953607 -0.00234384 -0.00608124 0.0016749 0.00442212 0.00110576 0.000167888 -0.00294325 
-0.00626509 -0.00104372 0.00626569 -0.00060626 -0.00184143 0.000932982 -0.00446881 -0.00140414 3.83366e-05 
-0.00287618 -0.0039573 0.00167849 -0.00166051 -0.0024262 0.000812711 -0.00300659 -0.00222752 0.00129161 
-0.00353394 -0.00170501 0.00155417 -0.00344596 -0.00229178 0.000852972 -0.00359283 -0.00235568 0.00149107 
-0.00322329 -0.00223511 0.00110695 -0.00293 -0.00220353 0.00103696 -0.00236135 -0.0021447 0.000824959 
-0.00224872 -0.0021458 0.000605468 0.00224842 0.00420001 -0.00123832 0.0040078 0.00701949 4.19774e-06 
-0.00462258 -0.00119638 -0.000985615 -0.00512199 -0.00057586 -0.000280993 0.00279442 0.00111037 -0.00479473 
0.00277087 -3.0893e-05 -0.00159416 -0.00165662 0.00459152 0.00245429 0.00095687 -0.00138851 -0.0027595 
-3.37939e-07 -3.84745e-06 -2.44367e-06 -3.14839e-06 -2.30344e-06 1.69067e-06 1.86733e-06 4.7601e-07 4.32869e-06 
1.82903e-06 1.89634e-06 2.63633e-06 -2.12891e-06 -5.50691e-07 2.29537e-06 -3.38801e-06 -9.505e-07 -5.19538e-06 
-2.90214e-06 -1.89193e-06 -4.30992e-06 -3.76261e-07 -5.62165e-07 -3.82291e-06 -1.47306e-06 -4.12104e-07 -6.56973e-06 
4.35731e-07 -9.53166e-07 -5.06694e-06 9.97351e-07 -2.37418e-06 -3.55792e-06 2.14638e-06 -1.70971e-06 -2.59562e-06 
2.78667e-06 -1.19365e-06 -9.39349e-07 2.90399e-06 -8.15323e-07 -1.45041e-06 4.38603e-06 4.03518e-07 1.96393e-06 
4.0142e-06 2.48542e-07 3.74355e-07 3.25939e-06 1.44036e-06 1.79456e-06 4.51008e-06 2.43223e-06 4.96172e-06 
5.51823e-06 4.06852e-06 4.12021e-06 2.42115e-06 3.03742e-06 -2.01326e-06 2.41612e-06 7.64462e-07 3.68475e-06 
9.7493e-07 1.56812e-06 2.2557e-06 -1.27559e-06 -3.29602e-07 2.55978e-06 1.11976e-06 -1.27301e-06 -0.000308729 
0.000367077 -0.00277219 -0.0022436 0.000851213 1.25795e-06 -0.000195865 -8.75105e-05 -2.97109e-05 -2.93596e-05 
-6.96446e-05 -2.57002e-05 -1.29738e-05 -5.85076e-05 -2.01621e-05 -1.16418e-05 -2.94138e-05 -1.10417e-05 -5.71068e-06 
-2.9851e-05 -2.01415e-05 -1.46406e-05 -2.8234e-05 -1.36634e-05 1.26583e-05 -6.00555e-06 1.27983e-05 -1.78201e-05 
2.11487e-06 -3.51882e-06 -1.4143e-06 -1.60498e-06 -1.0366e-05 2.46772e-06 -1.63197e-05 9.29927e-06 -7.79251e-06 
-1.00322e-06 1.10621e-05 -9.36392e-06 -3.24638e-06 1.24039e-05 -1.07971e-05 -3.03437e-06 1.34499e-05 -9.23902e-06 
1.81961e-07 1.47187e-05 -1.01174e-05 -1.85886e-06 3.2597e-06 -2.70152e-05 -7.20992e-06 -4.11774e-06 -2.79022e-06 
4.69303e-06 -3.83639e-05 9.31887e-06 -3.20923e-05 -2.98328e-05 -1.06177e-05 -1.00056e-05 -8.44793e-06 -4.82276e-06 
-6.03291e-05 -5.82488e-06 1.51292e-05 -6.17237e-05 1.40239e-05 3.26217e-05 1.09872e-05 1.2565e-05 1.16339e-05 
1.60238e-05 1.75765e-05 5.61309e-06 2.18625e-05 2.30305e-05 -4.5944e-06 3.63304e-05 1.21157e-05 -7.19384e-06 
1.4508e-05 7.40178e-06 -3.04005e-06 1.26912e-05 2.83789e-07 -2.27282e-06 1.00647e-05 -1.16297e-06 -3.9638e-06 
6.28963e-06 -3.34143e-06 -4.8926e-06 1.0537e-06 -3.75549e-06 3.31806e-06 -1.84842e-06 8.38629e-07 1.8781e-07 
4.61385e-07 6.58551e-07 -7.11253e-07 -2.79585e-06 -3.448e-07 -3.45358e-06 -3.28327e-06 -3.88938e-06 -1.88857e-06 
-4.38686e-06 -3.90304e-06 -2.65496e-06 -5.03289e-06 -3.01264e-06 -3.6577e-06 -4.08913e-06 -2.96086e-06 -2.89908e-06 
-3.43189e-06 -2.19747e-06 -3.29131e-07 -3.08378e-06 -2.43669e-06 3.47618e-07 1.44666e-06 -2.7571e-06 1.87974e-06 
1.06705e-06 2.45383e-06 1.1611e-06 -1.57922e-06 0.00209089 -0.00240577 -0.000792871 -0.00021515 0.000223236 
-2.19317e-06 -3.99285e-07 9.06705e-08 3.76784e-07 2.60413e-06 1.09876e-06 6.48574e-07 3.90851e-06 1.62839e-06 
1.63795e-06 5.1287e-06 2.604e-06 2.35539e-06 5.95025e-06 2.60792e-06 2.68558e-06 5.79812e-06 3.17701e-06 
3.96002e-06 6.16073e-06 4.07647e-06 -6.03846e-08 6.08273e-06 3.48623e-06 -1.84634e-07 5.12372e-06 3.47034e-06 
-6.1335e-06 5.5404e-06 -7.44881e-07 -3.06106e-06 5.80221e-06 -1.14347e-06 -8.57454e-06 5.37648e-06 -9.76422e-06 
-9.0685e-06 3.21077e-07 2.22742e-05 -1.2356e-05 4.44896e-06 2.65063e-05 2.09854e-05 -4.83822e-06 1.88678e-05 
1.74665e-05 1.26886e-05 4.56654e-06 -8.00512e-06 1.73703e-05 -7.93122e-07 -1.89603e-05 1.88446e-05 -2.64805e-07 
-4.16016e-06 3.41017e-05 3.05809e-05 -9.63843e-06 3.32155e-06 5.38425e-06 1.19976e-05 1.19673e-05 -3.44166e-06 
2.23147e-05 -3.24268e-05 2.20629e-05 -2.37559e-05 -5.51269e-05 -1.70779e-05 -2.69286e-05 -4.15916e-05 -3.04292e-05 
-8.10332e-06 -3.73773e-05 -2.3086e-05 -1.28177e-05 -3.15681e-05 -1.27531e-05 -2.65775e-05 -2.96471e-05 -4.17402e-06 
-1.87059e-06 -9.60313e-06 2.28288e-06 1.94668e-05 -1.54283e-05 -3.65557e-06 1.85316e-05 -4.74822e-06 1.15108e-05 
1.61564e-05 1.18452e-05 1.05611e-05 6.01593e-06 6.47979e-06 -1.036e-06 2.6351e-05 -5.38832e-06 -8.59397e-06 
1.15684e-05 -2.19644e-06 -2.92724e-05 -3.17044e-05 -2.78453e-06 1.72474e-05 -3.77886e-05 -1.9004e-05 -4.36209e-05 
-3.67723e-06 1.91647e-06 7.22855e-05 6.74127e-05 5.83616e-05 4.6499e-05 0.000156863 -4.2693e-05 9.81286e-05 
0.000253343 -2.38086e-05 0.000266503 0.000737332 0.000526105 -9.82668e-05 -1.97366e-06 0.000791998 0.00101195 
-0.000210809 1.61946e-06 -0.00121907 0.000724643 -8.09595e-05 0.000305735 0.0011828 -0.000671099 0.000863249 
0.00132786 -0.000378693 0.000373491 0.00114368 -0.0001705 0.000262258 0.000765173 -0.000203775 0.000321041 
0.000442198 -0.000155553 0.000198529 0.000488833 -0.000113434 0.000148688 0.000338582 -0.000208985 -1.54011e-06 
0.000424388 -0.000129934 2.33786e-05 0.000526207 -0.000119108 -3.96661e-05 0.000752085 -0.000161218 1.32289e-05 
0.000636068 -9.086e-05 3.85897e-06 0.000551708 -8.22562e-05 -4.35708e-06 0.000261929 -4.93948e-06 -9.28969e-05 
4.41912e-05 8.09884e-07 -0.000196457 7.46596e-05 2.32968e-05 -0.000361852 0.000225657 2.46979e-05 -0.000356983 
0.0001244 5.18083e-05 -0.000285845 4.4306e-05 9.2289e-05 -0.000413826 -0.000106664 0.000123905 -0.000617953 
-1.34132e-05 0.000216244 -0.00110848 -0.000174515 0.000694526 -0.000189499 -0.00176669 0.00215483 2.79232e-05 
-0.000359742 0.000704313 -0.000194583 0.000755338 -0.000305316 0.00016077 -0.000512581 2.55161e-05 0.000601642 
-0.00037468 -5.65203e-05 0.000783222 -8.74994e-05 0.000221934 0.000848904 -1.89406e-06 0.000175093 0.00118301 
-3.57739e-05 0.000140365 0.00105539 -0.000167907 4.97041e-05 0.00105309 -0.0001885 0.000271403 0.000972855 
-0.000179592 -0.000519298 0.000887506 -0.000353088 0.000367169 0.00092608 -0.00052236 0.00120365 0.00181384 
0.000445606 -0.00163336 0.0022218 0.000640308 0.00227493 0.00290048 -0.000869278 -0.000280335 0.00138686 
0.000786606 -0.000522366 0.000618139 2.07799e-05 -0.000407891 0.000622163 0.000294154 -0.000201675 0.00098543 
4.31904e-05 -0.000200212 0.000907019 0.000374622 -0.000353688 0.000979631 0.000235576 -0.000300043 0.000733959 
0.000409166 -0.000276475 0.000862484 0.000192929 -0.000199487 0.000748574 0.00046118 -0.000216277 -0.00202019 
0.000858957 -8.63502e-05 -0.000541819 -0.00265359 -2.97469e-06 5.46682e-05 0.000201374 7.84685e-05 0.000937874 
0.000524505 -0.000245467 -0.000352485 0.00061604 0.000413646 -1.23345e-06 1.99515e-06 -7.91604e-06 -1.15955e-06 
-0.000133013 0.00141984 0.000572513 -1.03585e-06 -0.000114489 -0.00193456 3.34954e-08 0.000210869 -0.000757428 
0.000849143 0.000210368 0.000769028 -0.000187466 0.000802309 -0.00023156 0.000800629 -0.000674681 0.000273641 
-0.000513016 7.86773e-07 -6.7123e-05 5.6278e-05 0.000334285 7.90126e-07 2.45899e-06 1.42952e-06 2.33042e-06 
1.55166e-06 1.13329e-06 -3.40071e-06 1.71581e-06 2.0822e-06 -3.18401e-06 -2.07518e-06 1.5473e-06 -6.13009e-07 
6.6038e-10 -2.27386e-06 -2.09578e-07 -2.18408e-06 -1.67139e-06 1.26771e-08 -5.28936e-07 -1.80319e-06 -6.99373e-07 
-3.00777e-07 -3.52505e-06 -4.65132e-07 -3.55277e-07 -3.39153e-06 -1.04904e-07 -7.79205e-07 -2.50789e-06 1.2044e-06 
-7.81471e-07 -2.2361e-06 1.35504e-06 -3.26029e-07 -9.59649e-07 2.12403e-06 5.01516e-07 -2.41177e-07 2.63629e-06 
9.81537e-07 4.57947e-07 3.31018e-06 1.20467e-06 1.54211e-06 4.04843e-06 2.71519e-06 2.30447e-06 3.15987e-06 
1.77539e-06 2.89929e-06 3.08842e-06 2.23643e-06 2.95258e-06 2.93127e-06 2.79772e-06 -7.04482e-07 7.33591e-07 
1.6691e-06 1.06332e-06 1.18566e-06 2.00962e-06 -0.000100085 -7.25916e-05 -2.5699e-05 -0.000186167 -2.76088e-06 
4.23662e-05 -5.16341e-05 1.96023e-05 -3.06372e-05 -1.44322e-05 -5.36196e-05 -3.0239e-05 -1.40098e-05 4.92895e-06 
-1.74704e-05 -1.54949e-05 -1.45981e-05 -1.47069e-05 3.46511e-05 -1.04447e-05 1.84393e-05 9.59049e-06 5.73616e-06 
1.30096e-05 1.08671e-05 -7.05894e-06 2.15255e-05 -1.68837e-05 -8.36431e-06 -1.23755e-05 7.84196e-06 1.06843e-06 
6.91794e-06 3.5088e-06 -1.60019e-07 1.44474e-05 1.42561e-06 -4.92825e-06 1.09614e-05 -7.54581e-07 -5.21778e-06 
8.1535e-06 2.71246e-06 -5.09563e-06 6.72106e-06 -2.40018e-06 -6.9709e-06 1.23564e-05 -5.56996e-06 -2.6758e-06 
1.98719e-05 -3.50028e-05 -9.70298e-06 -8.78343e-07 6.9929e-06 4.86536e-06 -2.94583e-05 2.06184e-05 6.61616e-05 
-1.70806e-05 5.57674e-05 -6.22313e-05 -5.00725e-05 8.46249e-05 -3.3309e-05 -1.18236e-05 -1.76557e-06 3.76788e-06 
2.63796e-05 -1.74364e-05 -4.81301e-05 7.83551e-06 -5.35861e-05 6.69613e-05 2.95424e-05 -2.91147e-05 -5.50869e-05 
2.79527e-06 -2.33011e-05 -4.49926e-06 -1.24259e-05 -4.74192e-06 -5.3482e-06 -1.01761e-05 -7.60599e-06 -2.84051e-06 
2.96234e-07 -6.62974e-06 7.81669e-06 -2.43481e-06 4.20773e-06 -4.95671e-06 -2.56546e-06 3.02542e-06 -1.20379e-07 
-2.65062e-06 4.65096e-06 -1.40221e-06 1.55062e-06 2.86785e-06 -3.43466e-06 8.96951e-07 2.28494e-06 -2.71479e-06 
1.46808e-06 -9.22126e-07 -2.64356e-06 -1.45485e-06 -1.69036e-06 -2.78992e-06 -1.46627e-06 -1.69727e-06 -2.73912e-06 
-7.2317e-07 -2.44175e-06 -2.35764e-06 -3.23651e-07 -1.14764e-06 -2.28623e-06 1.95693e-06 -1.54089e-06 2.41409e-06 
7.11808e-07 -1.88681e-06 2.7986e-06 -1.6454e-06 -1.15518e-06 -1.82996e-06 -6.50743e-07 2.07981e-05 -1.65699e-08 
3.8582e-06 -0.000388996 -7.5997e-05 -7.67941e-05 -1.34337e-05 0.000355765 7.44455e-07 5.48898e-07 1.4359e-06 
1.209e-06 4.67854e-06 2.01065e-06 2.00028e-06 5.40536e-06 2.34145e-06 2.41469e-06 5.28963e-06 2.28445e-06 
9.18327e-07 5.30134e-06 2.5264e-06 -9.55781e-07 4.72966e-06 8.25881e-07 -7.48727e-07 5.05186e-06 -6.97554e-07 
-2.40159e-06 4.44257e-06 -2.74488e-06 -2.41868e-06 5.29277e-06 -4.15128e-06 -3.2677e-06 6.13704e-06 -6.47665e-06 
1.54824e-07 6.30564e-06 -7.72074e-06 -9.98317e-06 5.3611e-06 -1.76746e-05 -1.97558e-05 -1.95488e-06 1.41242e-05 
-2.06433e-05 -5.15138e-06 1.38337e-05 -8.89683e-06 -4.06275e-05 2.24428e-05 -3.93163e-07 2.10621e-06 -4.32261e-05 
3.05892e-05 5.36912e-05 2.27214e-05 3.81998e-05 0.000119113 -4.7426e-06 -5.39871e-05 -3.28308e-05 -2.73742e-05 
1.88073e-05 7.83412e-05 1.06507e-05 2.66376e-05 -4.25224e-05 -2.12686e-05 -1.15603e-05 -7.84004e-05 -3.17429e-05 
3.71078e-06 -2.93941e-05 -3.5879e-06 -1.3781e-05 8.64452e-06 -1.79117e-06 -1.39895e-05 -1.40158e-05 -3.21632e-07 
-4.59361e-06 -7.19466e-06 -7.86606e-06 7.55911e-06 -1.36091e-05 -8.48222e-06 1.15554e-05 -4.16862e-06 -3.92553e-06 
1.14336e-05 -1.45728e-06 1.5921e-06 2.20398e-05 2.168e-06 7.7598e-06 2.25161e-05 -6.98709e-07 -1.24809e-05 
-1.35626e-05 1.25264e-06 -1.1436e-05 -1.615e-05 -1.23381e-05 -1.60675e-06 -3.83434e-05 -1.17865e-05 -8.63363e-06 
-2.43753e-05 -1.45064e-05 -5.09417e-05 -2.22689e-05 -6.01781e-05 3.8327e-05 -1.37047e-05 6.54038e-05 5.19544e-05 
0.000107057 6.37497e-06 2.28691e-05 -7.56562e-05 -0.000139727 -7.15378e-05 0.000146661 -0.000140433 3.49051e-06 
-3.67294e-05 -2.54245e-05 0.000183896 0.000186112 -2.09912e-05 0.000162606 1.5238e-05 1.69646e-05 -5.69153e-05 
-2.01546e-05 2.2832e-05 -8.95772e-05 -6.55933e-06 -2.1288e-06 -0.0001064 8.59696e-06 -7.28207e-06 -0.000104416 
-2.50447e-05 -1.10074e-05 -0.000131065 -4.20201e-06 -1.32807e-05 -0.00012067 7.47085e-06 -1.63287e-05 -0.000138849 
2.24491e-05 -1.03158e-05 -0.000128914 4.72061e-05 -7.45296e-06 -0.000115062 8.08433e-05 2.57639e-06 -7.94851e-05 
8.69195e-05 6.92168e-06 -8.0744e-05 5.93108e-05 6.05117e-06 -0.000105841 7.56754e-05 3.57424e-07 -0.000110279 
8.59961e-05 3.67383e-06 -0.000104623 0.000108103 -1.56561e-06 -8.06466e-05 0.000133771 3.07135e-05 -6.4485e-05 
0.000156245 -4.93263e-06 -0.000171482 0.000119714 -5.35747e-05 -0.000129753 6.02574e-06 0.000237241 2.7089e-05 
-2.37714e-05 7.93391e-05 1.14518e-06 -1.60775e-05 5.19731e-05 3.00634e-05 -3.59244e-05 7.43175e-05 6.856e-06 
-7.39978e-05 7.85901e-05 8.41031e-05 -0.000117954 8.79921e-05 7.8435e-05 -0.000412706 1.46551e-05 3.91292e-05 
2.60019e-05 -0.000293156 -0.000134323 0.000270015 -7.14201e-05 0.000190904 0.000214094 0.000402495 0.000246611 
3.91022e-05 1.47505e-05 -0.0002166 0.000471034 -4.54293e-05 0.00069747 -2.08644e-05 -0.000165105 -3.83953e-05 
-0.000148016 1.63994e-05 -3.84682e-05 -0.000164957 5.41423e-05 -3.2092e-05 -9.82795e-05 -3.63099e-05 7.44492e-05 
-9.07618e-05 9.98251e-07 0.000181517 -2.93892e-05 -1.61175e-05 1.70892e-06 0.000120157 5.93044e-06 1.60879e-06 
-0.000267446 4.23845e-05 -3.40227e-05 2.3992e-05 2.42305e-07 -1.53638e-06 0.000414139 0.000167912 -8.76316e-05 
-2.80033e-06 5.4207e-07 -2.23566e-07 3.11126e-06 5.85728e-05 0.000304999 8.04161e-05 1.46397e-05 -0.000111319 
0.000358189 1.51611e-07 -1.07488e-05 8.83613e-07 1.19755e-06 -0.000291617 5.41947e-05 0.000142039 -0.000191103 
4.46242e-05 2.4011e-05 2.32147e-07 7.12355e-07 -1.32564e-06 -8.18653e-05 2.51566e-05 -2.86245e-05 0.000132224 
4.17927e-05 -5.67927e-05 4.86571e-05 0.000124008 0.000195271 0.0002815 9.15176e-05 0.000685647 8.62973e-05 
-4.87564e-05 -6.93242e-05 -0.00016144 0.000224481 -0.000168521 -0.000119375 0.000119182 2.86776e-05 0.000107063 
-5.76701e-05 -0.00017747 2.97388e-05 -0.000296076 2.6495e-05 2.04668e-06 -0.000107051 -1.23135e-05 -6.97949e-05 
5.27486e-06 2.5916e-06 2.83319e-06 -3.0653e-06 2.1184e-07 3.11317e-06 1.44351e-06 -1.51242e-06 1.36414e-06 
-7.87295e-07 1.2967e-06 -1.56799e-06 7.64782e-08 -2.17185e-06 -7.88184e-07 -5.92159e-07 -3.5346e-07 -1.70068e-06 
-6.54316e-07 -3.48991e-07 -2.4723e-06 -8.83035e-07 -7.53771e-07 -1.90587e-06 -2.41288e-07 -1.74123e-07 -1.73657e-06 
8.76898e-07 -3.37428e-08 -6.87215e-07 1.46928e-06 7.13315e-07 2.4588e-07 2.15293e-06 9.11765e-07 6.0774e-07 
2.38855e-06 1.34845e-06 9.05083e-07 2.89667e-06 1.81474e-06 1.65978e-06 2.67269e-06 3.00619e-06 2.38933e-06 
2.86376e-06 2.2756e-06 2.73978e-06 3.5719e-06 2.47456e-06 3.20641e-06 4.57024e-06 2.44302e-06 3.18961e-06 
2.82313e-06 1.50488e-06 2.00737e-06 2.18738e-05 -1.25256e-05 4.9978e-05 2.10131e-05 1.53555e-05 -0.000100247 
5.78585e-05 1.38408e-05 7.32721e-06 -1.7471e-05 -9.57241e-05 1.73657e-05 1.08833e-05 4.35236e-05 -3.75695e-05 
1.13977e-05 3.78916e-05 3.8564e-06 3.01796e-05 2.01245e-05 -3.63014e-06 1.64932e-05 1.21225e-05 -2.99876e-06 
1.68801e-05 -1.67071e-07 2.38287e-05 1.38719e-05 1.59804e-05 4.22613e-06 1.0844e-05 5.98388e-06 -2.76903e-06 
5.32647e-06 2.57986e-06 -7.19077e-06 2.61873e-06 3.12538e-06 -3.65311e-06 -1.24608e-06 6.29061e-06 -4.08687e-06 
-5.53731e-07 7.32279e-06 -1.37147e-06 -5.73909e-06 -5.23578e-05 1.3482e-05 -1.6086e-07 -2.59289e-05 -5.57681e-05 
-4.84132e-05 0.000109845 -1.24343e-05 -1.44637e-05 0.000116653 0.000115075 5.73957e-05 0.0001011 0.000236339 
-1.64566e-06 -3.02102e-05 -2.69936e-05 -2.41513e-05 -2.81162e-05 -2.28158e-05 -7.55094e-07 -1.47762e-05 4.81734e-07 
-3.78001e-06 -9.34671e-06 -1.23889e-05 2.88398e-06 -3.69589e-07 -8.08471e-06 5.83354e-06 -1.0398e-06 -2.70299e-06 
3.95556e-06 -2.37991e-06 -1.49608e-06 3.16292e-06 -2.69238e-06 -6.84945e-07 2.47767e-06 -3.35144e-06 -1.09301e-07 
2.30846e-06 -2.67562e-06 6.73036e-07 9.41232e-07 -2.0079e-06 6.36366e-07 -7.91602e-07 -2.20756e-06 1.06667e-07 
-1.75237e-06 -2.23713e-06 1.06189e-06 -1.30571e-06 -1.70447e-06 1.95103e-06 -4.13705e-07 2.24587e-06 -1.29806e-07 
2.57838e-07 8.40024e-07 2.37915e-05 6.66233e-05 2.58202e-06 6.55156e-05 1.20191e-05 2.75443e-05 2.43226e-05 
-1.6186e-05 -7.37755e-06 2.18541e-06 1.55792e-06 2.47445e-06 3.1646e-06 2.7667e-06 2.48728e-06 -1.02619e-06 
6.74974e-06 -3.03876e-08 -2.78455e-07 3.85816e-06 -1.89804e-07 -8.0641e-07 4.90712e-06 -2.23017e-06 -2.36657e-07 
-3.99254e-06 -3.42615e-06 7.18965e-07 -3.44753e-06 -4.50234e-06 9.88906e-07 5.21898e-06 -5.45025e-06 4.72815e-06 
4.35097e-06 -7.04486e-06 7.5613e-06 4.67556e-06 -3.17362e-06 1.70934e-05 4.59995e-07 -5.0496e-06 -1.24362e-05 
1.43582e-05 2.23494e-05 6.73399e-05 2.22848e-06 -4.90605e-05 2.23124e-05 5.97965e-05 8.89634e-05 7.21897e-05 
-5.5697e-05 -0.000148808 8.41227e-05 5.78342e-05 5.45018e-05 3.87275e-06 -3.33955e-05 1.05515e-05 6.05121e-07 
9.17707e-06 1.7389e-05 7.38032e-06 -2.1858e-05 6.45908e-06 -8.69136e-06 -7.12358e-06 8.61197e-06 -1.71129e-05 
1.55594e-07 -2.55463e-06 -8.06731e-06 -2.31336e-06 -2.89789e-06 -4.47874e-06 -6.37901e-06 1.29015e-05 2.15895e-05 
-1.22359e-06 3.29258e-06 1.1605e-05 5.62916e-07 -6.24584e-06 1.60031e-06 1.10239e-05 7.55928e-07 9.65427e-07 
-1.13449e-05 -6.27214e-06 -2.11677e-05 -1.22808e-05 -4.71288e-05 2.61956e-06 -5.34711e-06 -7.21834e-05 7.18793e-05 
4.35004e-05 5.26845e-05 2.19102e-05 -3.76563e-05 -6.55733e-05 6.52924e-05 -5.685e-05 7.38657e-05 2.14526e-05 
-2.87078e-05 -3.74258e-06 1.57756e-05 1.82206e-05 6.26666e-05 2.84463e-05 3.86024e-06 -9.97374e-06 4.13125e-05 
-5.87293e-05 2.82491e-05 -3.86834e-05 -4.41531e-05 1.61136e-05 -3.40253e-05 6.74124e-06 -9.11243e-06 -9.53147e-07 
2.08067e-05 1.26069e-05 -3.98593e-06 1.40491e-05 6.57159e-06 -1.94659e-05 1.18503e-05 5.54831e-06 -2.46432e-05 
-1.09657e-05 4.47291e-07 -9.90041e-06 -1.29962e-05 -3.38306e-06 1.21523e-05 -1.36254e-05 -3.12237e-06 4.8744e-06 
3.66502e-06 -1.83357e-07 -8.44077e-07 7.05702e-06 -1.92751e-06 -1.45711e-06 9.15772e-06 -9.68908e-06 8.72469e-07 
7.48062e-06 2.49691e-06 -1.07929e-05 -1.63102e-05 -5.42237e-06 -2.81999e-05 -1.87945e-05 4.05e-07 -2.50518e-05 
-5.22141e-05 -1.14072e-05 -1.20867e-05 1.71934e-05 -1.39515e-05 2.00002e-05 3.61771e-05 4.43815e-05 1.64355e-06 
-2.28073e-05 -6.37095e-05 -1.4454e-05 -6.83491e-06 5.78271e-05 1.25258e-05 -6.72105e-05 1.5612e-05 9.17387e-06 
-0.000116617 -3.58779e-05 -9.70158e-06 -1.55317e-05 -6.66597e-05 -4.55055e-05 -2.61583e-05 0.000111472 1.59561e-06 
1.24637e-06 4.40498e-06 2.0298e-05 5.19992e-06 -4.29131e-05 -1.52944e-05 7.83976e-06 3.55975e-05 4.22229e-05 
4.36586e-05 1.39863e-05 2.23029e-05 8.4478e-05 7.45401e-06 3.14848e-06 0.00010404 3.76667e-05 -8.37534e-05 
-2.44426e-05 -2.55985e-05 2.08146e-05 1.8203e-06 1.56667e-06 6.25495e-07 6.0362e-05 -6.97744e-05 -3.2475e-05 
-1.72773e-05 7.12124e-06 -1.38951e-05 -1.75711e-05 -5.97878e-06 -0.000149483 7.84815e-07 4.75786e-07 1.79496e-06 
-1.34005e-05 -7.5891e-05 1.35929e-05 -6.09254e-06 -0.000119074 -0.000102018 4.21422e-06 6.67317e-05 -6.1209e-05 
0.000146775 4.77741e-05 2.31082e-05 2.25321e-05 8.09954e-05 2.0587e-05 -6.27047e-06 -6.82488e-06 -5.30193e-05 
0.000101509 -2.85358e-05 3.55715e-05 -2.32938e-05 6.79445e-06 -4.38501e-05 7.61032e-05 -8.22833e-05 3.58313e-05 
1.0188e-05 -7.39501e-05 -3.51652e-05 -6.82095e-05 6.13504e-06 9.89579e-07 -1.02679e-05 3.96233e-06 9.77639e-06 
-1.71211e-05 5.4238e-05 6.67593e-05 8.3857e-07 3.47407e-06 -1.25756e-05 2.62314e-05 2.19227e-06 -1.09079e-06 
-4.30684e-07 -2.98226e-07 4.07037e-07 5.19074e-07 -1.55435e-06 -6.76457e-07 -9.60316e-07 -4.48253e-07 -8.47508e-07 
-1.2658e-07 -2.05451e-07 -2.54998e-07 7.30116e-07 7.93938e-07 -1.88403e-07 5.55595e-07 -7.93208e-07 -1.3519e-06 
-7.96394e-08 3.69697e-07 -3.02991e-07 1.6199e-07 8.27112e-07 1.39824e-07 1.00488e-06 1.50862e-06 1.81881e-06 
1.13801e-06 1.96794e-06 1.74877e-06 1.38567e-06 2.18194e-06 1.89204e-06 1.09506e-06 2.26161e-06 2.30985e-06 
1.14423e-06 2.21208e-06 2.62598e-06 2.61476e-06 3.23331e-06 2.14376e-06 2.81088e-06 3.7182e-06 2.46056e-06 
1.62169e-06 4.42161e-05 -2.29584e-05 4.52651e-05 -9.58504e-06 -9.92015e-07 -1.5016e-05 -2.22236e-05 2.37689e-05 
1.4049e-05 2.02516e-05 1.08162e-05 -3.68055e-06 9.46125e-06 1.11011e-05 -1.18373e-05 -2.48164e-06 1.14295e-05 
3.128e-05 5.84964e-06 9.73773e-06 8.62416e-07 2.21122e-06 7.26777e-06 -2.51369e-06 -1.21741e-06 9.38957e-06 
-3.26655e-06 1.99699e-06 7.20545e-06 -2.54893e-06 2.7948e-06 8.98465e-06 -2.61321e-06 9.36417e-07 8.1932e-06 
9.4402e-06 1.40581e-06 6.38949e-05 -1.23593e-05 -5.38745e-05 -1.30127e-05 1.93155e-06 -2.77218e-05 -2.50067e-07 
-5.37749e-06 -2.11797e-05 -1.60226e-06 -3.0118e-07 -1.41229e-05 2.40267e-06 7.18623e-06 -6.19673e-06 8.57048e-07 
4.16113e-06 -2.39844e-06 3.4703e-06 -9.77412e-07 -1.51896e-06 2.57504e-06 -3.72969e-06 -7.39731e-07 2.13841e-06 
-3.44239e-06 7.51207e-07 2.18866e-06 -2.52263e-06 1.19765e-06 5.00972e-07 -1.69953e-06 1.00576e-06 -1.47318e-06 
-1.60531e-06 4.45554e-07 -3.02817e-06 -1.11104e-06 3.13863e-06 -2.76849e-06 4.53814e-07 2.41722e-06 -8.34761e-08 
-1.53195e-05 -3.30352e-05 1.33035e-05 9.32078e-07 -1.80372e-06 -5.27155e-06 -2.29747e-07 -1.38823e-06 -2.7496e-06 
-1.19075e-06 7.5008e-07 -3.61328e-06 -7.05851e-07 -7.60731e-07 -2.87005e-06 9.16416e-07 -1.19904e-06 -3.80234e-06 
-4.51338e-06 1.14335e-06 -4.62666e-06 -5.14747e-06 2.11168e-06 5.15142e-06 -1.55702e-06 1.29294e-05 -2.95941e-06 
4.25378e-06 3.13906e-06 -4.03343e-07 -4.30815e-06 3.81725e-05 1.51876e-05 5.90773e-05 -1.49118e-05 9.39564e-06 
-2.70409e-07 6.42804e-06 -1.31243e-05 -1.03767e-05 -1.02237e-05 -2.54915e-05 5.96786e-06 -1.19986e-05 1.31156e-06 
-1.4115e-06 -6.01899e-06 -5.08822e-06 1.16919e-05 1.43098e-05 -9.07664e-06 -2.61892e-06 -6.01704e-06 3.88263e-06 
2.50502e-05 1.5754e-05 -2.30734e-05 5.40919e-06 2.66507e-06 6.88645e-06 6.4097e-06 -5.91704e-06 3.84207e-06 
1.32553e-05 5.5382e-06 1.13454e-05 3.17093e-05 1.23044e-05 2.07834e-05 2.37364e-05 3.40704e-05 -5.67981e-05 
-6.64711e-06 1.60353e-05 1.37799e-05 -4.74277e-05 -4.23796e-05 3.55075e-06 -2.75031e-05 4.08609e-07 1.26123e-05 
2.94954e-05 1.60327e-05 2.30814e-05 2.03516e-05 -3.23422e-06 1.63114e-05 2.11965e-05 -2.16925e-05 -1.67346e-05 
1.06683e-05 6.63852e-06 -3.68928e-07 4.20478e-06 6.11049e-06 -1.08637e-05 3.6317e-06 1.97565e-05 7.17547e-06 
-5.26464e-06 -1.09042e-05 1.30107e-05 -3.11906e-06 -1.44931e-05 1.76507e-05 1.07048e-05 -3.36632e-06 5.06983e-07 
7.14168e-06 -2.53113e-05 -5.36363e-06 7.5675e-06 -1.95429e-05 -3.10982e-05 1.52353e-05 -1.15264e-05 -5.04497e-05 
-3.32937e-05 -3.59066e-06 -1.1765e-05 -2.97675e-05 -1.98316e-05 2.43277e-06 1.58527e-06 -2.58562e-05 2.53926e-05 
4.48886e-05 3.54009e-05 2.17132e-05 2.79251e-05 2.40028e-05 -1.16728e-05 -2.07726e-06 1.59533e-06 5.94862e-05 
7.0299e-06 3.0653e-05 -7.29628e-06 -4.01924e-05 2.92767e-05 3.36147e-05 2.66622e-05 -8.72205e-06 1.88676e-05 
1.05206e-05 -0.000104087 7.37904e-07 -2.5862e-06 -4.06965e-07 6.69157e-05 -1.7232e-05 1.70501e-05 2.83017e-05 
2.48272e-05 5.10861e-06 1.19571e-05 -9.17974e-06 7.85936e-07 -9.70826e-07 -3.39779e-06 3.18419e-05 -3.56294e-07 
-1.12565e-05 -3.17632e-05 2.83329e-05 -2.70919e-05 -1.12571e-06 5.04598e-06 -4.28125e-05 -1.43215e-05 1.6237e-05 
-9.64575e-06 1.03827e-05 2.54291e-05 3.50909e-05 -2.7564e-06 2.81433e-05 2.92467e-05 1.64952e-05 1.62402e-05 
1.84713e-05 -9.75836e-06 4.84534e-06 2.19724e-05 -2.24834e-05 4.28812e-05 -1.54163e-05 4.99194e-05 -4.05865e-06 
-1.92635e-05 2.24171e-05 0.0061687 -0.00725335 -1.45508e-05 1.75121e-05 9.99947e-06 -7.87724e-06 -2.78451e-05 
-2.07814e-05 8.76759e-06 1.20135e-05 -3.79759e-05 -1.72409e-05 -2.17116e-06 -1.33863e-05 6.87745e-06 1.7455e-05 
-4.5846e-07 -6.54198e-06 6.19388e-06 -6.99376e-06 -2.94762e-05 -1.03999e-06 -7.14255e-06 -1.41752e-06 1.05846e-06 
-2.19735e-05 -6.83548e-06 3.51372e-05 2.28771e-06 2.87504e-06 2.37583e-07 9.18236e-08 -5.32978e-07 -1.46254e-06 
1.41049e-06 -6.37481e-07 0.0071897 -0.00766931 6.63448e-07 -4.98944e-07 1.25407e-06 6.93964e-07 -1.19266e-06 
-7.70665e-07 1.48744e-06 3.1564e-07 -1.66195e-07 2.51772e-06 1.48081e-06 6.43585e-07 2.33269e-06 1.85408e-06 
2.11649e-06 2.22857e-06 1.39882e-06 2.08985e-06 2.71432e-06 2.14693e-06 2.37905e-06 -2.33416e-07 1.47544e-06 
2.04843e-06 3.00145e-06 -3.22393e-05 3.38541e-05 9.80008e-07 2.51857e-06 1.38537e-05 -1.47269e-05 -2.42884e-05 
1.83072e-05 -1.22129e-05 -2.57153e-05 -1.38796e-07 -2.15509e-05 -1.98977e-05 1.8717e-05 -1.23191e-05 -7.33248e-06 
-6.19809e-06 2.10451e-06 4.21442e-06 -8.70101e-06 1.0956e-06 -1.34982e-06 8.58911e-06 2.71485e-06 5.61727e-07 
1.08573e-06 6.08187e-07 -1.54102e-07 -6.7644e-06 -8.10555e-06 -1.55214e-05 2.91788e-05 -5.46881e-06 -2.07597e-06 
-7.06673e-06 -4.08189e-06 -8.01067e-06 2.12672e-06 -4.51924e-06 -1.15803e-05 1.27401e-06 1.87158e-06 -5.45996e-06 
1.25428e-06 0.00437444 -0.00974192 2.24483e-07 2.79335e-06 4.7151e-07 1.86137e-06 1.718e-06 4.04912e-06 
2.92676e-06 1.33317e-06 1.93691e-07 1.87991e-06 -2.75056e-07 -3.707e-08 8.14939e-07 -1.59157e-06 -1.39117e-06 
-1.2226e-05 1.24587e-05 4.90127e-06 -1.05238e-05 1.17282e-05 -1.42376e-05 -1.67771e-05 -2.59226e-06 -1.37468e-05 
-1.10326e-06 -2.14158e-06 -1.2535e-06 -1.78226e-06 -2.13935e-06 -1.12306e-06 -1.72755e-06 -3.01336e-06 2.3369e-07 
-1.27093e-06 -3.06824e-06 2.14066e-06 -1.97531e-06 -2.99455e-06 -5.61202e-07 2.00906e-06 -2.88301e-06 -6.09319e-06 
-0.00605533 -0.00633366 8.15058e-06 -1.17063e-06 1.69439e-06 8.53789e-06 -1.92943e-05 1.94375e-05 -2.08318e-05 
-2.69835e-06 -3.72126e-06 -6.02272e-06 5.97858e-06 9.7379e-06 -5.32835e-06 -9.05649e-06 -5.1879e-06 1.22389e-05 
1.02013e-05 -8.04759e-06 -2.51324e-05 1.62203e-05 -2.67022e-05 -3.26726e-05 7.93184e-08 -2.86859e-05 1.26579e-05 
-4.29578e-06 1.49528e-05 2.22018e-05 -2.06193e-05 2.02328e-05 -1.46175e-05 -2.50592e-05 1.3358e-06 2.82861e-05 
4.86351e-06 2.8369e-05 -5.09085e-05 7.87494e-06 -1.27805e-05 -1.2341e-06 1.68801e-05 8.05684e-06 -1.10932e-07 
-2.51044e-05 -1.14737e-05 6.27719e-06 -1.92494e-05 4.78191e-06 0.00553233 -0.0085599 -8.71024e-06 -1.11947e-05 
-2.02097e-05 3.6226e-06 0.0083006 -0.00865 1.42599e-05 -8.85038e-06 -1.30955e-05 6.69111e-06 8.18797e-08 
3.17147e-05 -2.05815e-06 2.88127e-06 -1.10566e-05 -1.42744e-05 -1.67429e-05 1.52126e-05 1.85199e-05 -3.39618e-05 
2.04109e-05 5.78333e-06 1.16873e-05 -2.62178e-05 -2.34964e-07 0.00718507 -0.00655338 1.46198e-07 -1.56094e-06 
2.46933e-06 4.5863e-07 -1.32791e-06 -1.95821e-06 4.20271e-07 -9.6132e-06 -1.29097e-05 1.90922e-05 2.77895e-05 
9.86411e-06 2.98367e-05 -6.31227e-06 -2.2101e-06 1.13766e-05 -2.38349e-07 4.68117e-07 7.15662e-07 1.52159e-05 
-3.28641e-05 -6.56268e-06 1.17982e-05 -9.6441e-06 2.68748e-06 1.16089e-05 -2.20772e-07 7.58961e-07 -1.61519e-06 
-1.40811e-06 -3.74106e-07 -1.27704e-06 2.1646e-05 1.49526e-05 8.08794e-06 -8.65616e-06 1.89977e-06 1.29795e-05 
-1.33855e-05 -1.08845e-05 -4.67756e-06 2.76001e-06 2.17245e-05 3.75843e-05 4.17764e-06 1.36903e-05 -1.45533e-05 
2.90468e-06 4.11005e-06 1.08042e-06 -2.73838e-05 -5.75794e-05 -3.51202e-06 -2.32345e-06 5.06171e-06 8.1225e-06 
-4.16709e-05 3.94371e-05 -1.66203e-05 -1.4167e-05 2.23311e-05 7.12165e-06 -9.11306e-06 -1.91853e-05 0.00678011 
-0.00309317 -1.52723e-06 -1.12419e-06 0.0091857 0.000843253 1.62876e-06 -4.85472e-07 -9.01274e-07 1.36635e-07 
2.04006e-07 -2.53835e-07 1.32923e-06 -4.5882e-07 -2.68361e-06 4.26481e-06 1.15567e-06 1.80778e-06 3.84662e-06 
2.53568e-07 1.48178e-06 1.50815e-06 9.96654e-07 8.26966e-07 4.1196e-05 -6.37011e-07 -3.44365e-06 -5.54723e-06 
5.64088e-06 1.6157e-06 -1.77796e-05 -1.05118e-05 -9.83244e-06 6.15716e-06 2.33075e-06 2.86223e-06 -1.71118e-05 
-2.03547e-06 1.76267e-05 -1.12566e-06 -6.79936e-06 -3.57167e-06 1.10615e-05 -4.09232e-06 -5.62341e-09 7.91252e-06 
1.08707e-06 -1.90993e-05 -2.10933e-05 1.94236e-06 3.94819e-07 2.16617e-06 1.12813e-05 3.57644e-06 -5.69483e-06 
1.04264e-05 -3.07089e-06 -3.64036e-06 0.00774879 0.00463651 0.00729749 -0.00929184 -6.63402e-07 2.5288e-06 
-7.55154e-07 1.87581e-06 2.67772e-06 -1.19921e-06 1.40194e-05 -2.49751e-05 -2.36306e-05 -1.94783e-06 -4.4169e-07 
-1.88838e-06 -1.21718e-06 -1.60575e-06 -9.36819e-07 1.94926e-06 -8.09106e-07 4.78815e-07 -1.69004e-06 -1.17769e-05 
5.69777e-06 -1.37745e-05 -5.41247e-06 -3.79048e-06 -1.78404e-05 -1.25129e-05 1.73552e-05 1.39442e-05 -6.19888e-06 
-8.77721e-06 -4.06432e-05 3.37159e-05 2.17417e-05 1.32873e-07 -1.60008e-05 1.12415e-05 -8.365e-06 -1.15426e-05 
6.16226e-06 -1.45544e-05 4.92619e-06 3.37948e-05 -4.47766e-05 5.7982e-06 -3.38665e-05 -4.035e-05 -5.39522e-06 
-3.85898e-05 -4.26648e-06 7.09743e-06 -1.38276e-05 7.90509e-06 -1.30537e-05 4.28636e-05 6.41667e-05 -4.69347e-05 
2.7233e-05 7.74916e-05 -7.44435e-06 -4.14265e-06 2.52563e-05 -2.29471e-05 -1.71907e-05 -2.4296e-05 -7.87778e-07 
-8.30685e-06 -1.20719e-05 -1.17022e-05 8.005e-07 1.2954e-06 2.01481e-06 1.37923e-06 1.56636e-06 2.53821e-06 
-2.76101e-05 -4.59324e-05 -1.26978e-05 2.65386e-05 5.8633e-05 -1.62159e-05 7.67894e-07 -2.10473e-05 -3.43991e-06 
2.26069e-06 -1.57739e-06 2.04103e-05 -4.86177e-06 7.05441e-06 -3.63862e-07 -1.9985e-06 -2.36296e-05 -3.0356e-06 
-1.06717e-05 2.20984e-05 4.36077e-06 1.81941e-06 2.17769e-06 3.89815e-06 6.0681e-08 1.15689e-05 -2.97547e-06 
-4.71103e-07 -1.35888e-05 4.11494e-07 -2.74307e-06 -3.54526e-06 -1.17524e-05 1.35843e-06 2.33813e-05 -1.87024e-05 
3.41787e-07 -1.82248e-05 -4.11683e-06 -3.21589e-06 -3.59056e-05 7.68896e-06 -2.1036e-06 3.64659e-05 4.46949e-05 
-1.63471e-05 1.41445e-05 -1.72132e-05 -1.5994e-05 -2.93673e-05 -2.4622e-05 1.27536e-05 -1.98417e-05 -1.98114e-05 
1.49484e-05 1.46919e-05 2.75473e-07 -3.10542e-06 2.41631e-05 4.62275e-06 -1.15339e-05 1.90262e-05 2.19339e-05 
-2.91684e-07 -5.24509e-07 -1.86851e-05 -6.3224e-06 -5.72551e-06 3.11759e-06 3.83479e-07 2.54188e-06 4.65657e-06 
1.36597e-05 -2.16709e-06 4.25929e-06 4.7178e-06 2.92507e-06 1.61796e-05 -6.93365e-06 2.08896e-06 3.1717e-06 
1.87777e-05 2.4808e-06 -1.37113e-05 -1.9494e-05 -7.82034e-06 8.15401e-06 8.68797e-07 1.94543e-06 2.97843e-06 
1.21145e-06 -4.04543e-07 -2.03736e-06 8.01357e-07 1.57404e-06 1.24666e-06 2.15509e-06 1.44422e-06 7.48012e-08 
2.28453e-07 -3.30903e-07 2.02917e-05 -1.91334e-06 1.63205e-05 1.19153e-06 4.72943e-06 2.88138e-06 -1.65048e-05 
2.04816e-05 2.42581e-05 -3.01456e-05 2.3638e-05 2.7808e-05 -2.57433e-08 2.9421e-06 2.51124e-05 1.66981e-05 
-2.1874e-05 -1.71553e-06 -4.24563e-05 5.20497e-06 2.33096e-06 2.92712e-06 -3.50102e-05 3.57817e-06 -4.73425e-05 
4.51566e-05 9.12121e-07 2.91051e-06 -6.8494e-06 -7.37895e-06 1.29133e-05 -5.50507e-06 3.21328e-05 -3.96914e-07 
-1.99282e-06 -5.55815e-06 5.56447e-06 -1.02411e-06 -4.8128e-05 -8.35187e-06 -7.84491e-06 3.2346e-05 -4.38979e-07 
4.15233e-06 -3.41798e-05 -7.90726e-05 -3.30738e-06 -9.11992e-06 -5.44489e-06 -4.09314e-06 -1.98215e-06 -1.87235e-06 
1.475e-05 1.39873e-05 -3.799e-05 -7.30136e-06 5.07721e-06 -4.45057e-05 4.21214e-05 3.25005e-05 8.27865e-06 
1.9808e-06 1.27805e-05 3.36467e-05 6.35817e-07 1.19661e-06 3.10019e-07 3.0375e-05 3.29895e-06 5.47023e-06 
3.53469e-06 -5.8593e-06 7.14998e-06 2.43542e-05 3.0552e-05 3.82778e-07 4.04278e-05 -3.81277e-05 3.62188e-06 
0.00361811 1.18888e-05 8.01554e-06 1.71854e-06 -3.93418e-07 -8.11529e-06 -8.35061e-06 0.00164518 -1.12814e-05 
1.17423e-06 -3.06593e-07 -1.414e-06 2.22346e-05 8.97101e-06 -4.77553e-07 5.04515e-06 -8.70422e-06 -4.37273e-06 
-2.82962e-06 8.02272e-06 7.7642e-06 2.44076e-05 0.00849111 0.00648036 4.38488e-06 7.14343e-06 2.53337e-05 
1.13952e-05 1.62953e-05 1.18368e-05 -3.20623e-06 -0.00948618 0.00508262 2.43309e-06 7.7353e-07 1.93347e-06 
-5.68495e-06 1.31733e-06 5.92361e-07 -4.44854e-06 -3.24784e-06 -2.09108e-06 -5.35789e-06 -3.0619e-06 5.09488e-09 
-4.15098e-06 -3.28127e-06 2.09512e-06 -3.98696e-06 -1.80663e-06 2.32833e-06 -5.42347e-06 -2.14629e-06 9.07757e-07 
-1.89126e-06 -7.86041e-07 -1.2118e-06 3.0235e-08 1.85897e-06 -9.75745e-08 -2.85037e-06 -2.96069e-06 7.84633e-08 
-8.93751e-09 -5.67086e-06 -5.05366e-07 -3.12837e-06 -3.20218e-06 -6.66711e-07 -4.30064e-06 -3.39005e-06 7.55714e-07 
-3.78442e-06 -2.82789e-06 2.63293e-07 -2.68453e-06 -2.14783e-06 -1.87353e-07 9.73905e-07 -1.68488e-06 -1.73463e-07 
-1.43689e-06 -5.24638e-07 -6.9791e-07 1.87486e-06 6.11076e-07 -1.32364e-07 2.73561e-06 1.54477e-06 4.37674e-07 
3.32413e-06 1.75099e-06 7.44799e-07 3.68263e-06 9.19182e-07 1.76353e-07 4.77757e-06 9.38585e-07 2.56651e-07 
1.21949e-06 2.24276e-07 -3.78185e-07 -7.33668e-07 -1.58015e-06 1.0033e-06 -1.22547e-06 1.3308e-06 1.02483e-06 
-1.47881e-06 -7.62427e-07 -2.22118e-06 -1.7903e-06 -3.6113e-06 3.46319e-06 -2.04067e-06 0.00323999 0.000157183 
0.00570245 0.000109816 0.000379163 -0.00119105 -3.62876e-05 -6.98695e-05 -0.00028851 -2.8949e-05 -2.99573e-05 
-0.000160418 -2.55911e-05 -2.34086e-05 -8.37254e-05 -2.24248e-05 -1.88405e-05 -4.18102e-05 -1.36831e-05 -1.55808e-05 
-2.5024e-05 -2.08673e-05 -1.23276e-05 -1.83712e-05 -4.10058e-06 -7.44895e-06 -1.95422e-05 -7.60944e-06 -1.01002e-05 
-8.02483e-06 -7.96329e-06 -6.39334e-06 -1.08373e-05 -1.82652e-06 -4.08992e-06 -1.28283e-05 2.29201e-06 -3.5458e-06 
-1.32168e-05 3.56141e-06 -2.85943e-06 -1.66873e-05 5.97129e-06 -2.35394e-06 -2.19417e-05 6.68056e-06 4.60123e-07 
-2.87765e-05 1.50509e-05 2.96942e-06 -2.9314e-05 -6.54659e-06 1.27612e-06 -1.49748e-05 -9.29102e-06 -1.26157e-06 
-2.87471e-05 5.08375e-06 6.28265e-07 -1.63292e-05 -1.5929e-05 -2.66256e-06 2.21971e-05 -2.24787e-06 -3.59927e-06 
2.8498e-05 -9.55293e-08 -5.46469e-06 4.14718e-05 1.19991e-05 1.19755e-06 4.89814e-05 1.15835e-05 4.3172e-06 
5.19752e-05 1.17492e-05 1.96537e-06 2.47165e-05 1.9051e-06 6.43181e-06 -4.2372e-06 5.33389e-06 2.76435e-06 
-7.60369e-06 2.89507e-06 2.69919e-06 -1.32788e-05 3.41045e-06 2.71341e-06 -1.64502e-05 2.07702e-07 3.16929e-07 
-1.3022e-05 -1.59853e-06 -1.66554e-06 -9.91034e-06 1.79368e-06 -1.23949e-06 -9.92471e-06 -5.31506e-08 -4.56961e-07 
-5.16401e-06 1.02163e-06 -8.08016e-07 -3.2499e-06 -1.14558e-06 -4.45349e-07 -1.39065e-06 -2.44585e-06 -1.42984e-06 
-4.33638e-06 -1.32863e-06 -1.91692e-06 -3.08965e-06 -1.40604e-06 -1.84445e-06 -1.0428e-06 -2.06512e-06 -1.54042e-06 
-1.60645e-06 -2.72446e-06 -2.28095e-06 -1.9307e-06 -2.54343e-06 -1.47041e-06 -1.20032e-06 -1.75502e-06 -4.60722e-07 
4.27995e-07 0.0070966 1.79308e-06 -2.97176e-06 -1.38107e-06 2.9408e-06 1.80336e-06 -5.46589e-07 2.00248e-06 
2.30869e-06 1.74325e-06 2.02413e-06 2.29047e-06 3.43037e-06 2.29732e-06 3.17002e-06 4.34412e-06 2.116e-06 
2.82253e-06 5.1241e-06 2.45063e-06 2.86315e-06 5.2414e-06 2.60469e-06 3.52632e-06 5.82899e-06 3.94994e-06 
3.62576e-06 7.5512e-06 -2.46622e-06 -8.85834e-07 5.44853e-06 2.06309e-06 3.69779e-06 3.72002e-06 -8.07902e-06 
-3.2876e-06 7.94794e-06 3.19828e-06 1.93924e-06 2.22565e-06 -1.124e-06 -3.17281e-06 5.78932e-06 -8.12431e-07 
-1.18189e-05 5.5905e-06 2.45188e-05 -3.77562e-06 7.72629e-07 3.39513e-06 2.1761e-05 1.31637e-05 1.29043e-05 
1.00309e-05 4.57581e-05 2.19077e-05 1.72859e-05 5.62473e-05 5.43383e-06 3.09005e-05 5.27522e-05 -1.75939e-05 
6.38896e-05 5.11258e-05 1.64408e-05 -1.91823e-06 4.5364e-05 -4.52381e-06 2.02379e-05 -4.85685e-06 5.26043e-05 
7.97973e-05 -2.35194e-06 -3.72118e-05 -1.92798e-05 -4.69024e-05 -1.1958e-05 -3.70531e-05 -8.7494e-05 -3.52162e-05 
-4.00839e-05 -4.53834e-05 -1.48231e-05 -2.25495e-05 -4.14869e-05 -1.58761e-05 -1.18704e-05 -2.49306e-05 1.26108e-06 
-7.68515e-06 -1.52024e-05 3.66004e-06 2.56853e-06 1.60012e-05 3.26845e-06 3.8653e-06 1.61082e-05 6.5874e-06 
3.71736e-06 1.32854e-05 4.15919e-06 3.45887e-06 1.22154e-05 1.29084e-05 4.84593e-06 2.67917e-05 5.308e-06 
1.5021e-06 -9.41986e-06 8.856e-06 1.42661e-05 -3.0473e-05 -2.90191e-05 2.90492e-06 2.86544e-05 -8.52118e-05 
5.65871e-06 -1.05488e-05 -7.22185e-05 -2.75525e-05 -2.09026e-05 -0.000104142 -9.02398e-06 -2.1832e-05 -0.000162162 
-7.98521e-06 -1.9318e-05 0.000378649 -0.000190955 2.83678e-05 -0.00105205 -0.00172909 -0.00152578 0.0115491 
0.00386276 -0.00858096 0.000288632 0.00526093 0.00125811 -8.97336e-05 0.00156919 7.73486e-05 0.00271035 
0.00120103 0.000704186 -0.0019666 0.00193802 -0.000439622 -0.00353091 -0.00311218 0.000941885 -0.00285675 
-0.00326804 0.00168385 -0.00244214 -0.00246386 0.000751022 -0.00227544 -0.00191847 0.00101022 -0.00230107 
-0.00135504 0.000803056 -0.00262686 -0.00140729 0.00057901 -0.00220885 -0.00174715 0.00103698 -0.00200663 
-0.00141346 0.000585419 -0.00153282 -0.00148345 0.000711205 -0.00157021 -0.00144626 0.000589917 -0.00102923 
-0.00122555 0.000810151 -0.00073348 -0.00042971 0.0002619 -0.000568486 0.000110941 0.000127517 -0.000342014 
0.000229446 6.98291e-05 0.000331827 0.000283427 0.000100849 0.000640139 0.000819645 -0.000187146 0.00104707 
0.00137831 -0.000343133 0.00130648 0.00198199 -0.000587226 0.000879275 0.00252697 -0.00124259 0.000459852 
0.00178871 -0.000636293 0.0104953 -0.00167249 0.0016167 0.00338606 0.0103635 -0.00340934 -0.00450008 
-0.0047848 0.00202968 -0.0016258 -0.0028608 0.000206212 -0.00124719 -0.00212748 0.000837539 -0.00104124 
-0.00158155 0.000768561 -0.000418794 -0.00228046 0.000179855 -0.00127369 -0.00314825 0.000750597 -0.000396342 
-0.00259112 0.00141253 -0.00198471 -0.00213515 0.00113243 -0.00212169 -0.00205601 0.000989246 -0.00221013 
-0.00226639 0.000924699 -0.00166077 0.00213956 0.00134796 0.00320867 0.00156967 -0.00079784 0.00147448 
-0.00799676 -0.000355596 0.00768082 0.00716389 -0.00520021 -0.00204212 -0.000651723 0.00165264 -0.000166814 
0.000322976 0.000672981 0.000427667 0.0015323 0.000687892 7.55853e-05 -0.00254474 -0.0019307 0.00106306 
-0.00331495 -0.00189934 0.000955735 -0.00438044 -0.00321531 0.000572858 -0.00206058 -0.00208695 0.00114166 
-0.00206706 -0.00234582 0.00120582 -0.00201876 -0.00220904 0.00140438 -0.00210791 -0.00235649 0.0010557 
-0.00234499 -0.00208385 0.00132075 -0.0023519 -0.00165355 0.000490464 0.00182838 0.00437811 0.00253466 
-0.00310539 -0.00432871 2.89101e-06 -0.000387815 -0.00272319 -0.00228938 -2.33799e-06 -4.00887e-06 1.16251e-06 
-0.00404759 0.0061756 0.00220221 0.00395132 -0.00356224 -0.00816682 0.00362262 0.00315666 0.00267095 
0.00538442 -0.00208395 -9.19667e-07 -2.69737e-06 1.95288e-06 -1.10502e-06 -3.67984e-06 1.1052e-07 -3.43525e-07 
3.50625e-06 2.15154e-07 4.28445e-06 3.87503e-06 1.06508e-06 -1.52358e-06 5.4879e-06 1.48701e-06 -2.22751e-06 
3.03179e-06 -1.01261e-06 -2.09911e-06 -1.9962e-06 -7.13137e-07 -9.0418e-07 -2.59771e-06 -1.38798e-06 -1.03026e-06 
-3.99588e-06 -9.596e-07 3.78003e-07 -5.6508e-06 -1.03863e-06 1.73516e-06 -2.5888e-06 -2.35061e-07 1.22898e-06 
-1.55764e-06 -7.68205e-08 1.69585e-06 -1.69325e-06 -2.79714e-07 2.18771e-06 -1.01316e-06 -9.54901e-08 2.24192e-06 
2.36231e-08 -1.35551e-07 1.71972e-06 8.53858e-07 6.95245e-08 3.24648e-06 1.39031e-06 7.36287e-07 3.56345e-06 
2.96487e-06 9.75422e-07 4.27032e-06 1.96102e-06 1.50574e-06 2.09814e-06 2.42293e-06 1.48459e-06 1.62661e-06 
-3.53525e-06 1.63493e-06 1.74466e-06 1.91033e-06 -4.44369e-08 1.17048e-06 3.05072e-06 1.28525e-06 1.56179e-06 
1.67304e-06 1.02071e-07 -0.0001005 6.86826e-05 1.1126e-06 2.17536e-07 -0.000226332 -0.000226478 -5.67114e-05 
5.70611e-05 -0.000181551 4.54746e-05 -0.00292566 0.000884585 -0.000724901 -3.35509e-05 3.78679e-07 -0.000230153 
-1.86801e-05 -1.38881e-05 -9.92677e-05 -2.30494e-05 -1.64297e-05 -5.63254e-05 -6.8921e-06 -4.78367e-06 -4.82996e-05 
-1.43618e-05 -6.09241e-06 -1.48447e-05 1.74663e-05 2.15084e-05 -7.5829e-06 -1.02352e-05 -8.44909e-06 -1.29803e-05 
-1.04052e-05 -4.83021e-06 -2.30338e-05 -1.97888e-06 1.50085e-05 -1.57038e-06 -3.40384e-06 1.62544e-05 -4.82649e-06 
-4.42429e-06 1.83536e-05 -6.57997e-06 -1.18545e-06 1.91009e-05 -1.00263e-05 6.2572e-06 2.69566e-05 -1.35411e-05 
3.46185e-05 2.98454e-05 -2.3085e-05 -8.51255e-06 -1.52029e-05 -2.30484e-05 4.6261e-06 -7.90736e-08 -2.41543e-05 
1.54499e-05 -1.25033e-05 2.60384e-05 7.56837e-07 -1.89244e-05 6.23889e-05 2.90844e-06 2.32809e-05 4.54608e-05 
-4.80312e-06 -1.17683e-05 4.41044e-05 1.62312e-05 6.00087e-06 -1.43823e-05 -4.82931e-06 4.3912e-06 5.45239e-05 
-1.68433e-07 2.13946e-06 -2.69327e-06 3.64223e-06 -5.9125e-06 -4.84252e-06 3.06629e-06 1.51356e-05 -5.97334e-07 
1.85008e-08 6.85313e-06 -5.88699e-06 -4.7133e-07 5.43606e-06 -1.26137e-05 1.82986e-06 3.21591e-06 -1.35116e-05 
-2.80995e-06 2.21013e-06 -5.31259e-06 2.04587e-06 5.66276e-06 -1.90417e-06 1.96962e-06 4.71809e-06 -2.83511e-06 
2.32644e-06 3.67175e-06 -2.90214e-06 -9.88847e-07 -1.72762e-06 -3.79557e-06 -6.6886e-07 -1.53567e-06 -1.79286e-06 
-1.28866e-06 7.12148e-08 -1.92015e-06 -1.71432e-06 -1.7594e-06 -2.96151e-06 -2.99508e-06 -3.89859e-06 -3.62837e-06 
-3.94298e-06 6.81032e-09 1.2315e-06 -5.07207e-06 -2.09277e-07 4.13983e-07 -0.0011497 -0.00293529 0.000353193 
0.000475605 -2.74657e-06 1.36211e-06 5.8987e-07 2.86412e-07 2.10305e-06 2.18e-06 1.4907e-06 2.49705e-06 
2.6097e-06 3.33751e-06 2.63265e-06 3.23163e-06 4.53096e-06 2.38771e-06 3.04888e-06 5.08259e-06 3.19699e-06 
3.19444e-06 5.59315e-06 3.44798e-06 2.82218e-06 4.25067e-06 -2.25643e-06 4.79608e-07 4.58939e-06 -4.78857e-06 
1.04802e-07 3.41397e-06 -5.62523e-06 -1.7771e-06 4.36885e-06 -9.98374e-06 -2.20936e-06 2.94261e-06 -1.30735e-05 
-7.23746e-06 1.18499e-06 1.00883e-05 7.75423e-06 2.36495e-06 1.51001e-05 3.11913e-06 -1.15193e-06 6.90232e-06 
8.07307e-06 -2.07273e-05 2.13035e-05 1.48206e-05 1.00026e-05 1.77081e-05 1.70566e-05 2.48994e-05 -4.68019e-06 
1.96385e-05 3.41789e-05 -1.71993e-05 -1.17216e-06 2.9079e-05 3.44574e-06 -4.12282e-05 3.04055e-05 -2.59017e-05 
9.66265e-06 2.71373e-05 3.71301e-05 4.91034e-05 -2.49822e-05 8.41587e-06 6.61073e-06 -1.76651e-05 -2.64561e-05 
-2.79862e-05 -8.55781e-05 -2.50892e-05 -2.1989e-05 -4.01759e-05 -1.24026e-05 -1.61528e-05 -1.50241e-05 -6.94447e-06 
-1.30347e-05 -5.23226e-06 -2.21356e-05 -7.92028e-06 -1.17174e-05 7.4908e-06 -5.20646e-06 -2.16729e-06 9.73508e-06 
9.41389e-06 -7.78249e-06 1.75426e-06 6.79981e-06 6.0948e-06 1.01379e-05 2.19812e-06 2.07927e-05 1.08284e-05 
8.88921e-06 -1.51521e-06 1.86627e-05 2.68577e-06 -2.68272e-05 -4.64229e-07 1.1111e-05 -2.0061e-05 -2.17237e-05 
-3.80943e-05 -4.95362e-05 4.21373e-05 3.1202e-05 1.40796e-05 3.11786e-05 -2.73359e-05 5.84623e-06 8.28165e-05 
1.06053e-05 -3.86541e-05 0.000113589 1.38265e-05 -6.61943e-05 0.000407837 0.000137713 -8.18744e-05 -0.00177865 
0.000753186 -0.000569107 0.00218266 -0.000540946 -0.000300213 0.00121064 3.22844e-05 0.000677987 -0.00019158 
6.86353e-05 0.00110846 0.00084162 0.000576226 0.00031264 -2.55172e-05 0.000634336 0.000124907 0.000340403 
0.000706422 -0.000170043 0.000269798 0.000896143 -0.000300138 5.26082e-05 0.00106382 -0.000206722 2.40741e-05 
0.00099403 -0.000160998 0.000109869 0.00086993 -4.40343e-05 0.000101708 0.00101021 -0.000173044 -3.58495e-06 
0.000848755 -0.000102009 5.98271e-05 0.000735151 -0.000100984 6.5025e-05 0.000606588 -7.82034e-05 -3.82086e-05 
0.000697948 -0.000125694 -0.000228787 0.000537813 -7.44043e-05 -0.0003904 0.000557071 -4.33524e-07 -0.000452492 
0.000542711 -5.23027e-05 -0.000420335 0.000383895 1.22106e-05 -0.000434812 0.000280057 5.09807e-06 -0.000701091 
0.000310954 5.53218e-05 -0.000884334 0.000201625 0.000149677 -0.00110036 6.76388e-05 -2.11562e-05 -0.000425327 
-8.41335e-05 -0.000141222 0.000500958 -0.000888822 0.00146717 -6.8656e-05 0.000241786 5.72891e-05 0.00303598 
-0.00055591 0.00036923 -0.000180612 -9.09752e-05 0.000808834 -9.18987e-05 0.000278389 0.000837687 2.8089e-05 
-9.41036e-05 0.000522493 -1.83812e-05 -8.33402e-05 0.000750734 -7.4179e-05 0.000118661 0.00103981 -0.000162681 
0.000332276 0.001006 -0.000193752 0.000217329 0.000871836 -0.000161964 0.000264596 0.000985621 -0.000116951 
0.000320976 0.00120942 -0.000127292 0.000621905 0.000208364 7.49756e-05 0.000776682 -0.00196317 -0.000277928 
6.17886e-05 0.000135175 9.53478e-05 -0.000784004 -0.00113346 0.000975094 -0.000539989 0.00022242 0.000804661 
-4.65141e-05 0.000164615 0.000903639 0.000720229 -7.13268e-05 0.000924723 0.00013279 -0.000141298 0.000340439 
-0.000293185 -9.70881e-05 0.000728655 0.000259111 -0.000181585 0.00101866 0.000245729 -0.000164462 0.00113269 
0.000448442 -0.000216474 0.00114696 0.000175538 -0.000227871 0.00126056 0.000221839 -0.000294274 0.00124671 
0.000146183 -0.000139217 0.00187552 0.00109632 9.22799e-05 -0.00100868 0.00114142 -3.64857e-06 -2.43938e-06 
-4.0484e-07 2.1704e-06 4.11962e-07 7.30244e-07 2.97822e-06 -0.000118013 0.000243888 9.3939e-06 -0.000243488 
-4.11192e-07 5.17807e-05 -0.000993129 -0.000105246 -0.000611029 0.000631312 -0.000412202 0.000265399 -0.000357248 
2.36181e-05 -0.00119168 0.000520305 -0.000446186 -0.000461062 0.00101517 0.000228109 8.80592e-05 -0.000133697 
-0.000149822 -0.000372588 -0.000104886 -0.00011837 -1.23765e-06 4.36518e-06 1.33309e-06 2.25886e-06 -1.30385e-07 
4.24002e-06 -1.94413e-07 -1.77246e-06 -1.73176e-06 9.1381e-07 -3.12764e-07 -2.69618e-06 -1.54851e-06 1.24615e-07 
-2.65453e-06 -9.26236e-07 -1.0028e-07 -4.05339e-06 -4.39701e-07 6.96992e-07 -3.87365e-06 4.39899e-08 1.3807e-06 
-2.34499e-06 3.3234e-07 1.78807e-06 -1.33056e-06 3.40733e-07 1.8479e-06 -4.70182e-07 4.22893e-07 2.04117e-06 
2.82278e-07 4.0902e-07 1.15982e-06 1.30838e-06 9.08121e-07 3.34846e-06 8.72012e-07 1.39837e-06 3.79388e-06 
1.79782e-06 1.33301e-06 3.394e-06 2.05653e-06 1.55081e-06 1.82808e-06 1.87741e-06 1.79545e-06 -1.50764e-07 
-3.65682e-06 1.80865e-06 4.95334e-07 8.50754e-07 7.02661e-07 -1.1337e-07 1.65529e-06 1.52563e-06 1.53986e-06 
5.51078e-05 8.16724e-05 -0.000465321 -3.0166e-05 -1.76466e-05 7.94863e-06 -4.18498e-05 -0.000122849 -0.000165989 
-7.16787e-05 2.43675e-07 -0.00014861 0.000334587 0.000113439 -7.84127e-05 -1.83715e-05 -1.4177e-05 8.57591e-06 
2.69843e-05 -2.25468e-06 8.03703e-07 2.09322e-05 -3.57344e-06 1.76199e-05 1.75496e-05 -1.45716e-05 -7.79011e-06 
2.51248e-06 -2.29291e-05 -1.22497e-06 1.10687e-05 -1.33068e-06 -1.56202e-06 1.28691e-05 2.69915e-06 -4.90229e-06 
1.14227e-05 -1.44148e-06 -5.79033e-06 1.07202e-05 -5.08465e-06 -1.16468e-05 8.7023e-06 -7.6572e-06 -1.02001e-05 
9.77753e-06 -1.26063e-05 4.9509e-05 1.12961e-05 -2.21015e-05 -5.57577e-05 -5.75435e-06 -3.49741e-05 -2.24611e-05 
-5.9769e-05 -3.08953e-05 7.88897e-06 -2.96341e-05 -4.71101e-05 2.2381e-05 -5.49946e-05 -2.67558e-06 -3.31707e-06 
6.36083e-06 4.29448e-05 -1.90918e-06 -2.23584e-06 7.22536e-07 6.13901e-06 -1.32117e-06 -3.61261e-06 2.59469e-06 
4.95126e-06 -2.0681e-06 1.36386e-07 5.30525e-06 -1.75561e-06 4.57557e-06 2.49914e-06 -2.84796e-06 1.21459e-06 
2.22096e-06 -2.08738e-06 7.43531e-07 1.47283e-06 -2.21524e-06 1.07581e-06 1.67088e-06 -2.0444e-06 1.63565e-06 
1.15922e-06 -2.39024e-06 1.02595e-07 1.27224e-06 -2.21995e-06 -8.43625e-07 -7.09796e-08 -2.41053e-06 -1.61225e-06 
-1.08237e-06 -2.77255e-06 -1.61673e-06 -3.28293e-06 -3.72125e-06 -2.117e-06 -2.08277e-07 7.15979e-07 -1.42597e-06 
-1.28148e-06 5.08415e-07 0.000486163 -0.000445138 -0.00014574 -0.00019872 -2.8849e-05 2.42043e-06 2.65249e-06 
4.78168e-07 2.94171e-06 2.69064e-06 3.67253e-06 2.62423e-06 3.25415e-06 5.17953e-06 3.64146e-06 3.00139e-06 
5.87403e-06 -1.34806e-06 8.54365e-07 4.33801e-06 -2.16867e-06 -3.68788e-07 3.74076e-06 -2.35977e-06 -8.2932e-07 
3.0245e-06 -3.48458e-06 -1.1967e-06 3.3004e-06 -4.92429e-06 -3.34452e-06 3.07876e-06 -6.02883e-06 -4.99845e-06 
2.21046e-06 -5.61513e-06 -6.83742e-06 -9.50598e-07 -4.54065e-06 -1.19406e-05 -4.07947e-06 -3.84629e-06 2.41069e-06 
-2.93307e-06 5.75126e-06 3.57387e-06 -1.25551e-05 3.7336e-06 -3.90518e-06 -2.52017e-05 3.9241e-07 -1.14264e-05 
2.23498e-05 7.18991e-07 -3.32603e-05 2.62243e-05 2.635e-06 -4.70519e-05 -3.46718e-05 -5.59515e-05 -8.79039e-06 
9.97012e-05 -4.41858e-06 3.38264e-05 -0.000127764 6.25876e-05 -7.70204e-05 -0.000187639 -3.84564e-05 -2.13828e-05 
3.88036e-05 2.57559e-06 7.44863e-06 9.40551e-06 6.20624e-07 3.33585e-05 2.50359e-05 -1.28185e-05 2.94106e-06 
-6.04708e-06 -1.73657e-05 8.01992e-07 -8.13117e-07 1.22068e-05 -1.82431e-05 -1.11021e-05 1.07483e-05 -1.22079e-05 
-5.46222e-06 6.4296e-06 4.28354e-06 -7.22244e-06 8.82907e-06 7.98917e-06 -2.13872e-06 1.29026e-05 5.58986e-08 
-1.06999e-05 -1.87084e-06 1.89342e-05 -1.27412e-05 -9.32369e-06 5.26563e-07 -1.93463e-05 1.40775e-05 -8.28569e-06 
-8.68234e-06 6.80928e-06 -6.06217e-05 -2.96054e-05 4.85273e-05 -5.37061e-05 -6.55749e-05 0.000135189 0.000101196 
6.05449e-05 5.2129e-05 0.00013147 -3.14364e-05 -6.23903e-05 0.000193175 7.00024e-05 0.000258926 -0.00011732 
0.000216279 8.14651e-05 1.23021e-05 2.1493e-05 0.000143564 7.35833e-05 -8.24473e-05 0.000135104 -6.92411e-05 
0.000525154 6.43998e-05 0.000163664 0.000110781 -1.89461e-06 2.47264e-06 2.90533e-06 8.99966e-07 -3.32588e-05 
8.72848e-05 -9.58771e-06 -8.36113e-05 1.94579e-05 -1.54002e-06 -0.00010099 7.53751e-05 6.35092e-05 -0.000113684 
3.86753e-05 4.2304e-06 -0.000127666 6.78868e-05 -6.37546e-06 -0.000113108 6.97643e-05 1.44182e-05 -9.64749e-05 
0.000101913 2.31061e-05 -0.000108479 0.000103525 1.33273e-05 -9.84566e-05 7.96643e-05 1.29211e-05 -0.000119553 
6.44361e-05 3.01622e-06 -0.000122255 5.43039e-05 9.61915e-06 -0.000103886 7.1551e-05 6.25554e-06 -6.79116e-05 
0.000118096 1.69348e-05 -7.53035e-05 0.000160915 -7.13512e-07 -6.23945e-05 0.000135647 -1.57384e-05 -9.59855e-05 
0.000136994 -3.33343e-05 -0.00018105 0.000113274 1.33787e-05 -9.42463e-06 1.92112e-05 8.16888e-05 -6.28492e-05 
0.000119684 -5.43132e-05 -0.000110671 6.44278e-06 7.98198e-07 -0.000112904 9.51767e-06 -2.28183e-05 -4.37236e-05 
-1.97062e-05 -2.63437e-05 -6.27042e-05 3.36806e-05 7.91218e-06 -7.05122e-05 6.34238e-05 6.76204e-06 -6.92228e-05 
0.000117262 8.36462e-06 -5.20049e-05 4.84806e-05 6.74766e-05 -8.14215e-06 3.52626e-05 2.68831e-05 -3.49051e-05 
1.59348e-05 2.40059e-05 -0.000107358 -1.37962e-06 -4.02009e-06 -0.000139115 -6.18606e-05 5.49938e-07 1.98216e-06 
1.8079e-06 2.93088e-06 0.000235855 0.000161737 7.22891e-05 2.19746e-05 -6.58296e-06 -3.92308e-05 5.07512e-06 
4.62819e-05 -3.11636e-05 -9.64057e-05 -1.20967e-05 -4.75551e-05 -0.000132157 -4.0345e-05 -6.88833e-05 -7.00689e-05 
-1.62606e-05 -3.08338e-05 -7.30059e-05 3.27677e-06 4.41071e-05 -2.66337e-05 -3.62764e-06 0.000100163 -1.21929e-06 
1.52477e-05 0.000141453 2.82328e-05 4.42559e-05 0.00011213 -5.96041e-05 0.000120191 7.36067e-05 6.78054e-05 
0.000249208 -3.24296e-05 -2.54166e-05 -1.18126e-05 -8.20936e-05 0.000130511 -1.10872e-05 1.2485e-06 0.000105661 
1.53082e-06 1.76454e-06 9.96125e-07 -2.76584e-07 -3.50776e-05 -1.02631e-05 -5.40907e-05 -6.30007e-05 -8.09465e-06 
-2.79835e-05 3.27622e-06 -3.68846e-05 -6.30569e-05 0.000149157 -1.90323e-05 -0.000134991 8.246e-05 1.52089e-05 
4.84251e-05 5.41571e-05 0.000206273 0.000268289 0.000254503 8.61784e-05 1.19772e-06 0.000133199 -0.000167778 
-0.000139821 -5.28278e-06 2.54748e-05 -0.000101196 -8.27722e-06 0.000230691 0.000285382 -7.03694e-05 0.000310492 
-2.76161e-05 -2.77104e-06 8.54795e-05 -0.000175309 -0.000204288 -2.38082e-05 -5.83214e-05 -0.000372042 1.2644e-05 
-6.66461e-05 -0.000107582 2.81864e-05 0.000110369 -2.31805e-05 -5.98295e-05 8.35675e-05 3.14533e-06 3.95356e-06 
5.44819e-07 -1.83799e-06 2.61917e-06 -6.81944e-07 -7.32832e-07 1.56431e-06 -7.0723e-07 -3.38883e-07 1.08525e-06 
-2.1108e-06 6.38354e-07 1.17638e-06 -1.23066e-06 1.02641e-06 1.53472e-06 -7.37926e-07 3.32039e-07 1.72219e-06 
1.49714e-07 7.19285e-07 1.79563e-06 8.39279e-07 1.16238e-06 1.55386e-06 1.31259e-06 1.41365e-06 3.03328e-06 
1.80783e-06 1.7086e-06 3.61622e-06 1.89145e-06 1.7378e-06 3.16399e-06 1.94488e-06 1.62643e-06 3.32559e-06 
2.08522e-06 1.7697e-06 2.5293e-06 2.04596e-06 2.19495e-06 1.95282e-06 -4.43882e-05 -2.3777e-05 2.43524e-06 
-7.34715e-05 1.50802e-05 -2.71366e-05 -1.99301e-06 -1.76108e-05 -9.56584e-06 -5.696e-06 -3.04888e-05 2.62227e-05 
-7.95008e-05 -0.000415855 0.000118787 -6.16642e-06 2.705e-06 1.64247e-05 2.69353e-05 -3.3972e-05 1.76555e-05 
5.3375e-06 2.76455e-06 1.93939e-05 -0.00488534 0.00668695 -2.84864e-06 2.13882e-06 -7.10514e-06 -3.17173e-06 
3.33077e-06 -7.32311e-06 -3.87185e-06 4.36863e-06 -1.68915e-06 -6.18969e-06 2.26885e-06 -6.41406e-06 -1.77547e-05 
-1.54507e-06 -2.43655e-06 2.08163e-06 -1.41028e-05 -1.79967e-05 6.84848e-05 -7.16222e-05 -4.81957e-05 9.9808e-05 
-3.78153e-05 5.8552e-05 -4.56457e-05 7.46312e-06 3.28557e-07 2.89992e-06 4.35387e-06 -8.26959e-06 1.3784e-05 
2.74671e-06 -5.16975e-06 -3.2004e-06 1.39066e-06 -1.55991e-06 -5.2166e-06 7.28682e-07 -7.14599e-07 -4.59122e-06 
1.82688e-06 1.07429e-06 -1.53593e-06 1.69051e-06 1.21747e-06 -2.57963e-06 8.59634e-07 5.8736e-07 -2.85565e-06 
-2.28338e-07 1.48023e-07 -2.24593e-06 -8.14858e-07 -2.75339e-07 -2.27978e-06 -2.519e-07 -1.70657e-06 -2.10437e-06 
-6.90846e-09 1.02565e-06 2.87941e-06 1.31875e-08 1.5491e-06 2.19133e-06 -0.000261695 -5.32033e-06 -1.13326e-05 
-6.97435e-06 -9.86561e-05 3.5332e-05 -3.49991e-05 -1.88446e-05 2.43657e-06 2.27893e-06 2.75736e-06 1.98842e-06 
3.66801e-06 -5.42068e-07 1.70167e-06 5.05505e-06 -1.66407e-06 2.07844e-07 3.70099e-06 -2.61548e-06 -3.73966e-07 
3.3638e-06 -3.24745e-08 -1.20531e-06 -5.84668e-06 -2.11142e-07 -2.97457e-06 -4.58696e-06 -1.17518e-06 -3.49798e-06 
3.97546e-06 7.24619e-07 -4.03548e-06 6.00255e-06 5.71708e-06 -7.42305e-06 1.70178e-06 -1.49344e-06 -9.70473e-06 
1.31457e-06 3.86628e-05 1.44728e-05 3.22757e-05 -1.18784e-05 7.23838e-06 3.06442e-05 -9.68195e-05 0.000187794 
-8.37756e-05 -1.66724e-05 0.000153183 9.0968e-06 1.90436e-05 -1.60066e-06 1.61062e-05 1.50321e-05 -1.27695e-05 
5.28021e-06 -4.9659e-07 -1.87166e-05 4.91587e-06 -2.99843e-06 -1.14576e-05 -4.3076e-06 -7.17909e-06 -4.93136e-06 
-3.32505e-06 -8.58864e-06 1.30823e-05 -1.0265e-05 9.23655e-07 2.01743e-05 6.92061e-06 -8.75169e-06 -1.03241e-05 
2.54201e-05 7.19365e-06 -2.23587e-06 -1.77082e-06 1.25969e-06 1.38375e-05 -3.81801e-07 2.46651e-06 2.40303e-06 
-5.63818e-05 -3.35662e-05 1.69148e-05 -9.11513e-05 -1.1412e-05 2.58875e-05 6.335e-05 -1.14832e-05 -7.18583e-05 
-8.30168e-07 2.79977e-05 1.65028e-05 5.54169e-05 8.55891e-05 0.000147131 4.59422e-05 5.99093e-06 8.49019e-05 
-2.88794e-07 8.45196e-05 4.24777e-05 1.56784e-05 2.23447e-05 1.33057e-05 7.96566e-06 -3.07409e-05 9.58468e-06 
8.03018e-06 -2.19466e-05 8.42691e-06 2.04984e-06 -5.69397e-06 3.95091e-06 -4.61864e-06 1.74508e-05 2.05296e-05 
-3.02781e-06 6.31074e-06 9.68039e-06 9.80569e-06 -9.71606e-07 7.36119e-06 9.82219e-06 -1.55297e-05 3.60804e-06 
5.6854e-06 -4.91075e-06 1.19501e-05 4.99552e-06 4.93013e-06 7.91541e-06 -6.03701e-06 -8.99062e-07 7.08886e-06 
8.24767e-06 -2.31767e-05 2.0895e-05 1.44181e-06 -2.77043e-05 -5.55788e-05 3.62681e-06 -4.34792e-05 -3.65954e-05 
-7.18351e-06 7.47852e-05 -1.9376e-05 5.51827e-05 -2.17452e-05 -1.1025e-05 -1.45285e-06 -1.76078e-06 -1.18021e-06 
9.45508e-05 2.35173e-05 1.23621e-05 2.24969e-05 -1.65724e-05 -2.92554e-06 1.47927e-05 9.55949e-06 1.72447e-05 
1.77505e-05 4.08521e-05 -8.87939e-07 9.45647e-06 3.89727e-05 -1.31354e-06 4.14015e-05 1.40607e-05 -9.989e-06 
3.33485e-05 -1.76525e-05 6.47812e-06 1.33528e-05 -4.4086e-05 1.43721e-05 -8.32554e-06 -0.000102774 -7.04237e-06 
2.27668e-06 2.0743e-06 -1.81808e-07 4.9781e-06 1.28081e-06 -2.29194e-08 -1.31037e-05 3.18721e-05 -1.3295e-05 
2.78248e-06 2.50104e-05 -6.40574e-06 1.63501e-05 1.37096e-05 -1.58265e-05 -2.1716e-05 -1.35698e-05 -2.04232e-05 
-5.40375e-05 -7.83211e-06 3.41655e-06 -6.2376e-05 4.13959e-06 -2.43136e-05 -4.38563e-05 4.3536e-05 -2.36762e-05 
5.25073e-05 4.73905e-05 -8.13103e-06 5.02932e-05 4.34467e-05 2.6755e-05 8.02922e-06 1.59398e-05 -2.2748e-05 
1.49987e-05 2.46547e-06 2.51984e-06 3.38855e-06 -2.78617e-06 -9.30051e-06 2.3315e-06 -0.000223096 0.000178353 
-0.000111888 -7.94306e-06 2.60073e-05 -2.87004e-06 5.40612e-05 -1.04892e-05 2.05921e-06 4.47297e-06 -2.627e-06 
-2.17619e-05 5.86627e-06 5.02262e-05 6.76522e-05 -0.000225925 -4.50316e-05 1.81027e-06 1.62918e-06 3.20722e-06 
7.38244e-06 6.52804e-05 8.08836e-06 -3.32941e-06 -0.00010481 -6.24862e-05 -0.0001658 1.08157e-06 4.09945e-06 
-6.99997e-05 -0.000108917 3.82054e-06 -6.36932e-05 1.0394e-05 0.000127166 -4.15615e-05 -3.87248e-05 -1.54571e-05 
-5.21706e-05 2.03518e-05 -7.31742e-06 -2.29425e-05 6.93005e-05 3.69748e-05 1.97306e-05 -9.52077e-06 -1.84398e-06 
-1.84231e-06 3.9139e-06 4.45019e-05 5.33071e-05 5.25487e-05 -2.02668e-05 -6.97316e-05 7.54877e-07 -5.58512e-05 
-2.46909e-05 -9.88525e-06 -0.000154035 1.43562e-05 -6.36988e-05 3.50598e-05 4.90527e-05 4.49416e-05 -3.95364e-05 
3.52597e-05 1.66622e-05 6.91473e-07 -5.71082e-07 9.93535e-07 -1.6891e-07 1.33385e-06 7.52288e-07 1.46776e-06 
1.54463e-06 -3.09602e-08 1.94896e-06 1.63115e-06 3.86844e-07 1.38533e-06 1.62663e-06 1.04677e-06 1.87359e-06 
1.44311e-06 1.00579e-06 2.37645e-06 2.07559e-06 1.81365e-06 1.60508e-06 2.67756e-06 2.05345e-06 2.03862e-06 
4.31843e-06 2.38463e-06 1.06492e-06 2.07256e-06 5.17492e-05 -7.08747e-05 -2.56114e-05 -3.3258e-05 6.17623e-05 
-3.17897e-05 1.49528e-06 -4.86034e-07 -0.00351442 0.00760862 1.44459e-06 7.69438e-07 3.65712e-06 1.35416e-07 
1.12262e-06 6.20143e-07 7.69047e-06 -7.98343e-06 5.60351e-06 -8.91785e-06 3.72468e-05 1.48931e-06 -1.60941e-06 
7.50075e-07 2.47265e-06 -7.01434e-07 -8.91197e-08 -9.10003e-07 -5.6057e-06 -1.09305e-05 2.68969e-06 -4.45526e-06 
-5.47261e-07 -2.93744e-06 -5.96231e-06 7.41233e-07 4.54958e-07 -2.02408e-06 1.43744e-06 1.24884e-06 -2.99933e-06 
7.2239e-07 3.60739e-07 -3.19167e-06 2.15336e-07 5.08349e-07 -1.82326e-06 -9.05592e-08 4.21642e-09 -7.39333e-07 
1.15476e-06 -2.66564e-07 5.76699e-07 9.79045e-07 -1.05887e-05 -7.24547e-06 2.0683e-05 4.95562e-06 9.05411e-06 
-1.3728e-06 -3.31898e-07 -9.70069e-07 -8.69817e-08 -3.79845e-06 -3.06872e-05 1.79171e-07 1.62117e-06 -3.82844e-06 
-7.39831e-07 4.81851e-07 -3.21183e-06 -7.53502e-07 -1.80906e-06 -3.66025e-06 1.29259e-06 2.4007e-07 -3.99173e-06 
4.42549e-06 1.14956e-06 -4.50551e-06 4.44003e-06 -6.04458e-06 8.92225e-06 4.68743e-06 -5.05144e-06 7.12769e-06 
-8.47796e-06 1.05897e-06 1.84521e-05 4.29864e-05 -5.18798e-07 7.32299e-05 -3.22793e-05 6.88866e-06 2.56011e-06 
-6.54448e-05 3.71164e-05 -1.78583e-05 -8.89839e-06 1.20192e-06 -3.48726e-06 -3.87338e-06 -2.8758e-06 1.15041e-05 
-4.91465e-06 -1.04379e-05 -6.06464e-06 1.83114e-05 4.93265e-06 2.13447e-06 -7.00954e-08 -1.57471e-05 -6.62384e-06 
3.44526e-05 -7.70757e-08 -8.18756e-06 -7.29746e-06 7.23933e-06 5.8779e-06 3.21651e-06 1.87667e-05 2.28814e-05 
1.25275e-05 1.73405e-05 -3.77869e-05 -6.99084e-06 5.74499e-06 1.54904e-05 5.11637e-06 -2.94597e-05 -1.03806e-05 
-6.68907e-05 -3.92398e-06 -2.29573e-05 -1.25443e-06 -6.09351e-06 5.0584e-06 -9.8405e-06 -2.61945e-06 2.59741e-05 
3.22925e-05 1.74401e-05 -2.08557e-07 -7.6433e-06 1.94611e-05 6.61348e-06 -1.94198e-06 9.03138e-06 2.74933e-05 
-1.61243e-05 4.77719e-06 1.97727e-05 2.20341e-05 -1.882e-05 2.97062e-07 1.11992e-05 1.60441e-05 -1.13783e-05 
-1.22951e-06 -7.40633e-07 5.38574e-06 -2.01623e-05 1.11344e-05 3.83785e-06 7.41569e-07 -1.23669e-05 1.03184e-05 
6.00593e-06 -9.1181e-06 3.23094e-05 -1.74322e-05 -3.60611e-05 5.84228e-05 4.96265e-06 1.06502e-05 -1.16733e-06 
-2.20794e-06 2.3427e-08 5.19088e-06 -2.19986e-05 -3.80906e-06 3.46961e-05 -3.8754e-06 -4.2639e-06 -2.986e-05 
1.06414e-05 4.91585e-06 1.04693e-05 -3.27056e-06 5.14583e-06 2.86738e-05 -5.33289e-06 1.24802e-05 1.13602e-05 
1.95559e-05 7.25228e-06 3.9326e-05 2.36715e-05 -1.85065e-06 1.89247e-05 -0.00302219 0.00623533 4.00054e-05 
4.0482e-06 1.27907e-05 3.06399e-05 -5.40144e-05 3.2327e-06 -2.44204e-05 -3.11316e-05 2.76756e-05 -3.9887e-05 
-4.50535e-05 -2.63499e-05 -3.79571e-05 2.12246e-06 2.74017e-06 -3.65593e-06 -3.96977e-06 9.96081e-07 -1.16636e-05 
-9.35372e-07 -2.796e-05 -4.90878e-05 -4.24109e-05 3.90389e-06 -0.00263622 0.00805341 -2.92102e-05 9.53954e-06 
4.09649e-06 -4.71675e-05 2.34035e-05 -2.57538e-05 -3.44097e-05 5.46866e-05 -3.53407e-05 4.26111e-05 -2.52164e-06 
-6.08078e-06 -1.12647e-05 2.72469e-05 3.43986e-06 2.37315e-05 -1.67193e-05 1.5328e-05 -2.45577e-05 -1.76448e-05 
-2.10521e-05 8.3819e-07 1.78754e-07 1.41965e-05 1.63228e-05 5.28577e-06 2.11851e-05 2.16275e-06 1.87616e-05 
-1.69857e-05 -9.13992e-06 -5.69107e-05 -1.93003e-05 7.97803e-06 -2.44599e-05 -0.00285318 0.00989946 -5.32012e-06 
2.293e-05 9.14431e-06 4.94823e-05 -4.68296e-05 4.308e-05 -7.4404e-05 -7.48711e-06 4.31984e-06 -1.75023e-05 
1.17346e-06 1.96884e-08 4.23079e-06 -6.37029e-06 -1.70672e-06 6.97906e-06 4.4312e-05 -2.40662e-05 -2.66512e-06 
2.21322e-06 -1.3399e-06 2.46166e-05 1.86112e-05 -2.60117e-05 1.1148e-05 2.78119e-05 1.10185e-06 -1.79329e-05 
7.72392e-06 -7.33435e-05 -4.22283e-05 -2.21835e-05 1.17231e-06 1.08571e-06 -8.20022e-07 -2.29633e-05 -2.79897e-05 
0.00583044 0.00921117 -1.37188e-05 6.03394e-05 2.02445e-06 1.01325e-06 2.5525e-06 1.19274e-06 2.7164e-06 
1.07796e-06 -6.79866e-08 1.31453e-06 -3.89593e-07 9.48099e-07 2.11035e-06 4.50373e-06 2.6753e-05 -4.62737e-06 
3.0539e-06 -3.25008e-07 3.36133e-05 2.08103e-05 -1.45994e-05 3.3338e-07 -1.94112e-06 1.07353e-06 2.81462e-06 
8.81545e-07 2.01932e-05 -6.1617e-05 1.64565e-06 -2.08293e-07 -1.92319e-06 3.90903e-06 1.40059e-06 -1.09021e-06 
2.47056e-07 -4.13306e-06 -9.35599e-06 5.01912e-06 1.79768e-06 5.76241e-07 1.80053e-06 1.23629e-06 -2.64678e-06 
1.02125e-06 1.23491e-06 -3.87723e-07 -1.86789e-06 -2.99982e-07 -3.33243e-06 -7.01861e-06 2.34486e-06 -2.54452e-06 
-1.23055e-06 -3.47589e-06 2.01051e-05 1.00121e-05 -1.08546e-05 1.72983e-06 -5.69896e-07 1.20064e-07 1.03351e-06 
-2.4471e-06 2.71156e-06 1.99824e-06 -3.96816e-06 1.31428e-05 4.18008e-06 -5.1815e-06 5.02465e-06 -1.54885e-07 
-1.2568e-06 -7.76103e-06 -3.33709e-06 -3.25102e-05 8.63244e-06 1.79289e-05 -1.12762e-05 -5.62082e-07 5.49741e-06 
4.81031e-06 4.65209e-07 -8.50392e-07 3.52989e-07 -2.97566e-06 6.48371e-06 -2.45617e-06 -3.71061e-06 1.22117e-05 
2.48937e-07 1.28071e-06 -1.39897e-05 -0.00309001 0.00678665 9.66342e-07 -2.31105e-05 -4.00587e-06 -8.59815e-06 
4.54146e-06 -1.9416e-05 -1.45128e-05 5.51089e-06 -6.52286e-06 6.93424e-06 8.11285e-06 2.76634e-05 -4.85123e-05 
-3.87626e-05 -6.28642e-06 3.50887e-05 -4.27799e-05 -2.70873e-05 -1.41686e-05 -1.55276e-05 3.62925e-05 2.90819e-05 
-3.61363e-05 -2.0275e-05 -1.20605e-05 -1.19511e-05 -1.87896e-05 2.24954e-05 -3.1747e-05 -1.55251e-05 -3.6531e-05 
2.15611e-05 -1.12132e-05 -3.06929e-05 8.54463e-07 1.3568e-05 9.015e-06 4.2461e-06 3.15135e-06 1.43102e-05 
1.98341e-06 1.37727e-06 -1.92575e-07 3.34535e-06 1.36816e-06 -1.62286e-07 2.1592e-06 -3.03089e-06 6.51855e-07 
-6.26416e-07 3.62186e-05 1.58807e-05 -1.18984e-05 4.15327e-06 -2.19309e-05 1.0285e-05 -0.00214466 0.00737133 
-3.91416e-06 7.28733e-06 -1.02132e-05 2.50816e-05 8.06534e-06 -2.28002e-05 0.00381371 -0.00684954 -0.00633379 
-0.00701463 -9.56145e-07 -1.77083e-06 4.91387e-06 -1.46457e-05 1.78331e-05 5.18589e-06 8.99975e-06 -1.72417e-05 
-1.33314e-05 -1.80242e-05 -4.12818e-05 -1.93659e-05 -1.79246e-05 -5.65603e-05 -4.47698e-06 -0.0220372 -2.52155e-05 
-4.14819e-05 -6.53554e-06 -3.31963e-05 2.05702e-05 5.6427e-05 2.71391e-06 2.99665e-05 2.93595e-05 5.7095e-06 
1.73651e-05 7.34174e-07 5.99872e-05 1.51877e-06 2.86494e-07 1.2561e-06 -4.3769e-05 5.70042e-05 1.94018e-05 
3.88985e-05 5.2146e-07 4.49479e-07 1.14587e-06 3.37419e-06 1.96707e-06 4.22015e-06 -2.19031e-06 -7.98184e-07 
-2.41702e-06 -1.05056e-05 -5.88652e-06 -3.52033e-06 -1.27668e-05 4.9562e-07 4.1227e-06 3.98745e-06 -1.17549e-05 
-2.37631e-07 1.78402e-06 -2.55971e-06 -8.90641e-06 -1.30087e-05 2.6612e-06 1.6239e-05 -3.96174e-05 -2.07768e-05 
2.44857e-05 -5.44331e-07 -2.2461e-06 -2.65964e-06 -9.76296e-07 5.09083e-06 6.66308e-06 -2.15836e-07 -2.91025e-06 
5.66408e-06 2.96413e-05 3.64392e-05 2.46975e-06 1.0136e-05 -2.45226e-06 1.02329e-06 -1.63944e-06 -1.7886e-05 
-1.20276e-06 -1.18868e-05 -4.7303e-06 3.3658e-05 7.13185e-06 1.4622e-05 1.28214e-05 -1.42165e-06 -5.23052e-06 
-1.09073e-05 -5.89897e-06 -1.41986e-05 1.1942e-05 2.12002e-06 -2.74724e-06 4.45558e-05 -3.70808e-05 -4.59501e-06 
-2.537e-05 -3.83368e-05 -6.49453e-06 1.89195e-05 1.07983e-06 8.43439e-07 1.08486e-07 1.63252e-06 -3.20596e-05 
-1.43683e-05 -1.17203e-05 -1.09711e-05 4.3758e-06 2.17259e-06 -1.41741e-07 8.9452e-06 -5.28734e-05 -9.30016e-07 
-1.76897e-05 -4.98346e-06 2.76144e-06 -1.062e-06 2.48884e-05 7.01135e-05 2.32237e-06 7.78569e-06 5.40301e-07 
1.00977e-06 -1.5879e-06 1.16698e-06 1.06106e-06 6.61846e-07 -2.37585e-06 -2.15016e-07 -2.00034e-06 -7.63722e-07 
-2.7719e-06 -2.34456e-06 -2.9513e-06 -4.19058e-06 1.28191e-05 1.23992e-06 7.52976e-06 -2.98521e-05 -5.07875e-06 
9.63557e-07 -3.40454e-06 1.85435e-06 4.62366e-06 5.70319e-06 -1.65464e-06 -1.12767e-05 5.77878e-06 2.77842e-05 
2.81737e-05 7.46407e-06 3.39338e-05 2.60868e-05 2.07076e-05 6.38812e-06 -4.43838e-05 -4.98268e-05 3.95329e-05 
4.80828e-06 -2.5008e-05 9.77283e-06 5.68094e-05 -3.57259e-05 4.95823e-06 -3.6487e-06 -8.60191e-06 5.91428e-06 
-3.58429e-06 -1.53553e-05 9.86354e-06 -1.01331e-06 1.9533e-06 6.90181e-06 -1.83388e-06 -1.83059e-07 -9.95503e-07 
3.98771e-06 1.90945e-06 -4.54607e-06 2.08803e-06 3.31029e-07 2.22623e-06 -4.00096e-06 -2.5958e-06 -7.60332e-06 
-9.82531e-09 -2.49183e-06 7.15367e-06 3.38624e-06 3.02673e-05 5.79661e-07 0.0014753 -5.25493e-06 6.57971e-06 
7.79949e-06 -1.62166e-06 8.27939e-06 2.18865e-05 1.72175e-05 -5.64424e-06 -3.73547e-06 -1.02004e-05 -2.46469e-05 
-6.03758e-06 1.57981e-05 6.37417e-06 -2.88062e-05 -7.80673e-07 1.8831e-07 -9.6298e-08 -6.99969e-06 2.05351e-05 
-1.66334e-05 1.37923e-05 2.51253e-05 8.15912e-07 6.26739e-06 8.39219e-07 -1.2351e-06 -3.32961e-05 -1.68868e-05 
1.20398e-05 -4.798e-07 4.38103e-07 -3.38231e-06 -6.46773e-05 3.13482e-05 -3.02939e-06 -2.37987e-05 4.9004e-05 
1.41933e-06 1.61487e-05 1.5006e-05 3.34919e-05 2.83673e-05 -1.07444e-05 2.18626e-08 -2.64073e-06 -5.66468e-06 
-7.96828e-06 1.63509e-06 -2.80248e-06 -9.33536e-06 -4.00188e-06 -3.57522e-06 1.98348e-05 -3.25475e-06 -8.82482e-07 
-1.76004e-05 -6.44005e-06 -3.18762e-05 -4.47688e-06 -7.31048e-07 1.28109e-05 3.42771e-05 -6.02736e-06 6.77484e-06 
-2.82113e-05 -5.42912e-06 6.58261e-07 5.18644e-06 -2.21908e-06 -1.96497e-06 -1.96726e-05 6.14629e-07 1.31719e-05 
-7.10707e-06 0.0090044 -8.17957e-06 7.7986e-06 1.6849e-06 -3.65717e-06 2.49811e-06 3.1401e-06 7.07633e-05 
-9.18026e-06 -1.26412e-06 -8.18665e-06 -1.67848e-05 -1.35498e-05 -1.1078e-05 -1.99047e-05 4.1064e-05 -2.34383e-05 
2.67485e-05 8.50111e-07 8.85459e-07 4.61044e-06 -5.55453e-06 -0.015385 -0.00197006 0.0031253 8.59836e-06 
-3.09399e-06 -1.61197e-05 -2.88286e-05 -6.47008e-06 3.04848e-05 0.00500419 -0.00211521 5.27464e-05 7.31569e-05 
-1.9201e-06 3.61541e-06 -6.87179e-07 4.33932e-06 -6.45423e-06 -6.05192e-06 1.1598e-05 -3.45035e-06 -2.26278e-06 
7.87222e-07 -2.67533e-06 4.45318e-06 7.28015e-06 -3.4457e-06 4.81835e-06 -1.44574e-06 1.63349e-05 2.33726e-06 
2.19633e-06 -7.42583e-07 5.55267e-06 4.54272e-05 1.96463e-05 0.00603872 0.00289957 8.609e-06 -3.26982e-06 
-2.46487e-05 5.56674e-05 4.3135e-05 2.83815e-06 2.77307e-07 -6.88198e-06 9.04176e-06 2.75078e-06 1.56001e-06 
-7.4376e-06 -3.09358e-05 -6.12772e-06 3.6629e-06 -6.35557e-06 -3.2904e-07 -2.96472e-05 -4.70094e-05 2.6783e-06 
-4.98096e-06 -1.22674e-05 -4.6653e-05 5.73732e-06 5.4064e-06 4.40725e-05 3.52317e-06 2.4675e-06 -7.13072e-06 
7.74533e-06 8.75989e-06 -1.27453e-05 5.08673e-06 1.87053e-05 1.96427e-06 1.32092e-06 -2.77371e-06 -2.92026e-07 
-1.92099e-06 2.7635e-06 -1.34979e-06 -1.18018e-05 4.07814e-06 2.63274e-05 -7.17593e-05 -2.31329e-05 2.67375e-05 
1.35361e-06 1.78645e-06 2.24202e-06 3.0762e-06 -3.76909e-05 4.74271e-05 -3.63632e-05 3.44922e-05 -6.57819e-07 
-8.6933e-05 1.5269e-05 1.12572e-05 1.49122e-05 -8.25203e-06 -4.2952e-06 -6.48803e-06 -4.04698e-05 1.56751e-05 
-1.8151e-05 3.54411e-06 3.16592e-05 -0.0416405 -0.00445444 -6.6581e-05 -5.43473e-07 1.66749e-05 1.91533e-06 
1.58267e-06 6.69127e-07 9.7105e-06 -4.89042e-05 0.00167522 -7.8256e-07 -4.84951e-06 -1.72721e-06 8.1275e-05 
-1.05605e-05 2.99793e-06 6.24967e-06 -3.2144e-06 8.87047e-06 5.80487e-06 -0.0011438 -0.000148824 3.75307e-06 
-4.39344e-05 2.71728e-06 4.0116e-05 0.000835593 0.00138411 -1.08183e-05 -0.000249305 0.00107086 -1.0501e-05 
0.00333466 0.00816538 2.36211e-06 0.00854518 -1.23909e-06 1.85434e-06 -1.79847e-07 -3.30503e-07 -7.82608e-07 
2.88195e-07 -1.6348e-06 -7.70144e-08 -2.1442e-06 -7.35086e-08 -3.14507e-06 -4.60914e-07 -3.29553e-06 -6.25207e-07 
-3.29595e-06 -9.7322e-07 -3.71835e-06 -1.28554e-06 -1.86639e-06 2.06081e-06 1.5172e-06 -9.37867e-07 -3.83021e-06 
-1.81556e-07 4.53535e-06 6.19414e-07 -5.20256e-08 1.78704e-06 -6.49601e-06 -2.76088e-05 -6.8913e-06 -2.33239e-05 
-1.54587e-05 -1.95478e-05 -7.65522e-06 -2.37245e-05 -6.46683e-06 -2.32702e-05 -9.51151e-06 -8.95808e-07 -1.97529e-05 
3.17008e-05 8.98355e-06 -7.51641e-06 -3.4475e-06 -2.96355e-05 9.45606e-06 2.23944e-05 1.17163e-05 2.38829e-05 
1.72663e-05 2.24053e-06 1.72642e-05 2.31088e-05 1.62255e-05 -1.49989e-05 1.7676e-05 6.4269e-07 -1.0924e-05 
-1.47226e-06 -1.03101e-05 -1.97901e-08 -7.98754e-06 1.52618e-06 -1.06395e-05 -1.26274e-06 -1.0727e-05 -1.44056e-05 
-5.87711e-06 -1.01895e-05 -3.57564e-06 -1.69574e-05 -1.19823e-05 -1.00675e-05 -1.51847e-06 1.6379e-05 5.12918e-06 
2.18007e-05 4.01704e-06 4.19974e-06 2.33511e-05 8.30334e-06 0.000187511 -0.000890727 -0.001064 1.36866e-07 
2.44164e-05 -2.4462e-06 -0.00432244 -0.00959569 -1.00887e-06 1.1786e-06 0.0224321 -0.00219956 -0.000912615 
0.000323552 -1.71325e-05 4.11886e-05 -1.25558e-05 2.50204e-06 4.63606e-06 -7.42516e-06 1.54918e-05 -1.0302e-05 
2.54878e-05 -7.79368e-06 1.79102e-05 -3.34479e-06 1.4388e-05 -3.30276e-06 1.16094e-05 -5.1905e-06 1.15205e-05 
-1.96192e-06 8.93509e-06 -2.52382e-06 6.17268e-06 -4.31807e-06 6.30406e-06 -6.85732e-06 7.89348e-06 -1.29972e-05 
1.29724e-05 -2.11395e-05 1.5171e-05 -3.11134e-05 2.43106e-05 -3.45575e-05 3.15019e-05 -3.01809e-05 3.68431e-05 
-1.97104e-05 3.84846e-05 -8.40631e-06 2.47338e-05 1.7298e-06 9.50694e-06 8.86634e-06 -2.57542e-06 8.86943e-06 
-1.6546e-05 1.63338e-05 -3.22884e-05 1.79499e-05 -3.11829e-05 1.36144e-05 -2.89467e-05 1.0896e-05 -2.3554e-05 
3.70399e-06 -1.43795e-05 2.14247e-06 -6.24215e-06 -3.29791e-07 -1.46817e-06 -7.68938e-07 1.04788e-06 -1.82523e-06 
2.99311e-06 -4.12951e-06 3.95163e-06 -4.42521e-06 4.90347e-06 -4.31382e-06 4.95166e-06 -2.00982e-06 4.24273e-06 
-1.14546e-06 3.82476e-06 -9.07054e-07 3.37609e-06 -2.48635e-07 2.5672e-06 -1.02858e-07 1.9187e-06 -1.18343e-07 
5.90156e-07 -9.60383e-07 8.34872e-07 -2.68893e-06 1.55548e-06 8.7564e-07 -4.47659e-07 2.58056e-06 9.30992e-07 
1.01447e-06 6.4312e-06 6.13252e-06 4.48046e-06 3.23869e-06 2.91705e-06 2.69864e-06 3.14678e-06 2.61233e-06 
1.32316e-06 1.6675e-06 8.52208e-07 5.41659e-07 -5.3654e-07 -6.86179e-07 -1.15604e-06 4.26287e-06 5.72127e-06 
5.48138e-06 1.89864e-06 4.51918e-06 4.83194e-06 6.53938e-06 4.9776e-06 6.63231e-06 5.14147e-06 7.05263e-06 
6.0149e-06 5.72997e-06 -8.46933e-07 3.24539e-06 4.65127e-06 3.78364e-06 -3.00993e-06 -3.22199e-06 -3.65194e-06 
-1.89814e-07 -1.1005e-08 1.48709e-06 1.1637e-06 2.40102e-06 2.18336e-06 3.34195e-06 2.92576e-06 2.19752e-06 
-1.53488e-06 1.93045e-06 3.03636e-06 7.30143e-07 4.30864e-06 0.00412759 -0.00501709 -9.28746e-05 -0.00866178 
0.00143893 0.000209526 0.00395676 -0.00182904 0.0016054 -0.00260967 0.00518261 -0.002516 0.00489836 
0.00352943 -0.000112408 0.000907973 -0.000318527 0.00160702 0.00217149 0.00156391 -0.000544381 0.00066667 
0.00318995 0.000556838 0.00329856 -0.0209502 0.00136508 -0.00427038 0.00345994 -0.00332048 -0.00425523 
0.000578548 -0.00567965 0.00407238 0.00442395 -0.000504614 0.000411009 -3.38555e-06 2.13998e-06 4.64156e-06 
1.40413e-06 0.00186745 -0.0013783 0.00450162 -0.00107287 0.000128877 0.00186918 0.00266204 -0.00201662 
0.000959579 -0.0203505 0.00300025 4.78948e-05 0.00820005 0.00983066 0.00587228 -0.00195154 0.0016071 
-1.83757e-05 5.4513e-05 1.15283e-05 0.0115836 0.00669318 0.00985478 0.000226571 2.24045e-06 0.00599493 
4.94373e-05 0.00246102 8.1772e-05 -0.000166706 -8.82275e-05 8.51247e-05 4.89512e-05 -0.00144833 -0.00871545 
0.00088787 0.00550959 -3.34665e-06 -2.0674e-06 0.00534206 -0.00302036 0.0132343 0.000107395 -0.00642236 
0.00696244 -0.00113866 -0.00247351 -0.00294363 0.00430819 0.000655691 -0.000528852 -0.00306431 0.000723708 
-1.24497e-05 9.87051e-06 4.01945e-05 2.93772e-05 1.91536e-05 1.01719e-06 -4.66481e-06 -2.00743e-05 0.00452362 
0.000388904 0.000814335 -0.00356036 0.00389118 -1.89053e-06 1.03012e-06 -4.08932e-06 -4.02895e-06 -3.66993e-07 
-4.28612e-06 2.87046e-05 1.37208e-05 -5.58283e-06 2.39901e-05 -2.58904e-06 5.72682e-06 1.34455e-07 -1.51808e-06 
-1.10436e-06 1.41848e-08 1.80456e-06 2.18956e-06 -1.45745e-07 -2.36126e-06 -1.46029e-06 -1.56236e-06 -2.08192e-06 
-3.25578e-06 -1.05151e-06 2.79167e-06 -7.57957e-07 1.13792e-07 8.49958e-07 -8.84981e-05 -0.000196613 8.03883e-06 
-8.34532e-05 4.99398e-07 -5.7706e-07 8.13399e-07 2.61057e-06 -1.1486e-07 2.9745e-06 -2.72052e-06 6.89458e-06 
-1.3453e-06 -2.34401e-05 -2.45411e-05 -1.12958e-05 -3.96565e-07 -1.34751e-06 1.87985e-06 -1.01004e-06 -3.50831e-06 
7.45605e-06 -3.28135e-05 -7.34746e-06 1.40519e-06 -1.33378e-06 7.3795e-07 -8.6764e-06 -2.35958e-06 1.29184e-05 
2.17914e-05 -2.37647e-06 -1.55736e-06 -1.48266e-06 -6.12771e-07 -0.00097189 -4.89538e-08 -1.75481e-07 -1.22256e-06 
5.30655e-07 -2.64035e-07 -4.47209e-07 -6.86597e-06 -6.49618e-06 7.44155e-07 -1.24866e-06 -2.71461e-07 -1.13279e-06 
-3.52185e-06 1.55718e-06 -2.57242e-06 -8.58106e-06 -3.10145e-06 -4.49689e-07 -1.63178e-06 8.95261e-07 -1.08213e-06 
1.42442e-06 -3.10553e-05 -4.05906e-05 -1.71259e-05 7.15733e-07 0.000143181 9.9065e-06 -7.75156e-05 -8.67096e-05 
-0.000443862 -0.000121014 -5.85606e-05 -3.25941e-06 1.59768e-06 -2.07121e-06 -0.000198875 -0.00130966 0.000159564 
3.72951e-07 2.94984e-06 -2.7226e-06 1.28834e-06 4.31817e-06 -2.77102e-05 -3.21588e-06 4.17822e-05 -1.51585e-06 
1.41438e-06 -2.04194e-06 -2.53079e-06 -1.3005e-06 9.1559e-07 -2.95426e-06 -2.27485e-06 -1.29942e-06 -1.35732e-06 
-2.34153e-06 -3.34352e-06 -4.18684e-06 -7.41148e-06 -6.13358e-06 1.9778e-05 -2.90373e-06 1.39609e-05 -0.000528687 
9.36924e-06 3.78401e-05 1.01406e-05 7.36981e-06 -7.13176e-06 -9.56876e-06 -1.34051e-05 1.51288e-05 -7.26267e-06 
-2.46844e-06 -2.3042e-06 2.02752e-06 1.60941e-07 1.1811e-05 -3.28125e-05 -1.04095e-05 -2.75723e-06 3.02666e-06 
-4.66255e-06 -1.44347e-05 -0.000471871 1.32293e-05 0.000197045 -2.21026e-06 -1.56285e-06 0.00101839 -0.00108701 
0.00116621 -1.76529e-06 -1.61011e-06 -1.11658e-06 -0.00244081 -7.55573e-05 1.3835e-05 -0.000202647 -1.12594e-06 
-2.08679e-06 1.19158e-06 -7.55781e-07 -2.89886e-08 -4.04449e-07 -1.71234e-06 -5.37205e-06 1.40617e-05 -3.60161e-06 
-8.60748e-06 -1.68015e-06 -1.04355e-06 -5.36843e-07 -0.00231497 -0.00285856 -0.00272388 -1.19831e-06 -2.30411e-06 
-1.68215e-06 -2.35364e-06 -1.84517e-05 -1.69601e-05 -2.44991e-06 3.19969e-05 -5.04678e-05 6.99932e-07 -2.79822e-06 
3.2773e-08 -1.58033e-06 0.00542296 0.000392614 -0.00516404 2.82263e-05 0.000114826 0.000221018 1.18097e-06 
-3.67092e-07 -3.89939e-07 1.44496e-05 -2.15032e-05 -1.29106e-05 3.07979e-05 6.5265e-06 1.82105e-05 1.95448e-05 
-5.79283e-06 -3.35543e-06 2.85176e-06 8.25172e-06 5.81242e-06 2.26214e-06 8.67276e-06 2.45939e-05 1.48842e-05 
1.60048e-05 -8.16905e-06 -1.11519e-06 -2.22125e-05 -1.08427e-05 3.39686e-05 -2.01524e-05 -1.64277e-05 -6.25829e-06 
5.61674e-06 1.86986e-05 0.00128691 -2.10755e-05 -3.68434e-06 2.46703e-06 1.24144e-05 1.52403e-06 -1.89816e-06 
3.56427e-07 9.59357e-07 9.2351e-07 3.47929e-06 -4.73789e-06 1.94048e-05 1.73488e-05 2.77344e-05 4.41044e-05 
7.87816e-06 -7.41796e-05 -5.03222e-05 -0.000150595 -0.000452305 0.000356322 0.000266368 0.000585263 -3.76055e-08 
1.4634e-06 3.8477e-06 1.00805e-05 -1.7794e-06 2.12082e-06 -2.36038e-05 -1.82003e-05 9.42894e-06 -5.43384e-07 
2.91087e-06 -1.65413e-06 1.50839e-05 3.20648e-05 3.25088e-05 1.84965e-05 4.72689e-06 2.24091e-05 4.07663e-05 
-0.000630726 0.000744179 0.000369605 3.55528e-06 -1.66668e-05 7.84118e-06 -2.79785e-06 -1.52373e-06 -4.82041e-07 
1.24275e-06 1.48156e-05 5.05445e-06 -6.51806e-06 -1.96204e-06 2.85936e-06 7.71508e-06 9.90895e-07 6.30023e-06 
-2.07042e-06 -1.37162e-05 1.34295e-05 2.0204e-05 -1.70003e-05 2.39172e-05 1.06366e-05 3.92623e-06 9.82674e-06 
-1.96105e-05 -2.22657e-05 3.09149e-05 -3.0373e-05 -9.60924e-06 5.61885e-06 -1.4982e-06 -2.79606e-06 -1.38793e-06 
1.96114e-06 -8.66987e-07 1.60142e-06 0.00231507 -0.0028447 -0.000413807 0.0001939 -0.000472826 -0.00120398 
-7.864e-06 1.40181e-06 1.98109e-05 -9.80552e-07 3.23754e-06 3.61207e-06 9.94489e-07 3.2129e-06 -1.25192e-05 
-1.725e-07 -2.89935e-05 2.17323e-05 -7.06374e-06 -2.75832e-05 1.47158e-05 0.000168607 5.95765e-05 7.26672e-05 
-0.000154154 8.83897e-07 1.86323e-05 -1.78044e-05 -1.7222e-07 -1.1207e-06 -1.56719e-06 7.85165e-07 0.000491764 
-2.87503e-05 -4.83968e-05 -9.4294e-06 -2.02642e-06 -3.47099e-06 -1.46939e-06 -2.12611e-07 -2.41211e-06 8.18249e-06 
-3.21329e-06 1.76244e-06 -5.91444e-07 -2.06748e-06 2.48019e-06 -2.79813e-05 2.84731e-05 2.03045e-05 0.000110983 
0.000227465 5.27394e-05 -0.000387685 0.00139422 -0.000111979 6.6636e-06 1.26848e-06 -1.93365e-06 -1.46324e-06 
-2.52589e-06 -5.59836e-07 -0.000761618 -0.000766337 6.06005e-06 -0.000178393 -2.65988e-05 -0.00146152 -0.00463365 
-0.000606721 0.000488301 -4.22782e-05 -2.07502e-05 2.70999e-05 0.0054971 -0.0020379 -0.00431937 6.63011e-05 
4.80595e-05 2.13269e-05 4.61276e-05 2.55415e-07 1.51348e-06 3.05283e-06 -0.000210641 3.46418e-05 -4.48397e-05 
-4.99609e-05 1.52705e-05 4.54773e-06 -1.57633e-05 -3.07529e-05 -0.000837926 -0.000213148 -4.80422e-07 -5.47421e-06 
-5.9614e-06 2.65122e-06 -1.36806e-06 2.46621e-07 -0.00144897 -0.000686049 -0.00249455 2.68532e-05 2.63031e-05 
2.41311e-05 2.38422e-05 -0.0016885 -1.48563e-06 0.00439402 -0.00478578 0.000387213 0.00591495 4.3868e-08 
-4.12192e-07 6.10994e-06 8.04734e-06 -2.11469e-07 4.28842e-07 -1.40624e-06 -2.17878e-07 -9.42039e-07 -6.05633e-06 
2.11183e-05 1.91048e-06 -0.00362958 0.00411098 -0.00171962 -1.76811e-06 -3.35879e-06 1.22399e-06 -9.75027e-06 
2.18869e-06 -1.9274e-06 -1.82317e-06 1.13727e-05 -2.98423e-05 -8.06837e-06 0.000593369 -0.00303649 0.00404355 
8.3372e-05 -0.000137525 -1.3545e-05 -6.2428e-05 6.45211e-05 1.08839e-05 4.26856e-05 -0.00382654 -0.00227717 
0.00414751 -0.00258954 -0.00342508 -0.00229063 0.000287551 3.13848e-06 -3.33109e-05 -5.41334e-06 1.17624e-06 
-3.62848e-05 -0.000821918 -0.000119832 8.07519e-05 -9.83515e-06 -7.38192e-05 -9.1891e-05 2.17071e-06 0.000140627 
-2.32505e-05 8.03883e-06 -5.62321e-06 -9.08804e-06 -9.42257e-06 1.39456e-05 9.21043e-06 1.20568e-05 2.61692e-05 
1.28521e-05 1.00652e-05 -3.31051e-06 9.39984e-06 3.28904e-07 1.07815e-07 2.25448e-06 5.83174e-05 1.5938e-05 
1.13718e-05 3.21452e-07 -1.15223e-06 2.28056e-07 1.48885e-06 4.23775e-06 6.6191e-09 1.97742e-06 -7.86757e-06 
-9.44559e-06 2.27077e-06 -5.31048e-06 4.11382e-06 -4.8038e-06 -1.23382e-06 -2.32653e-06 -1.6833e-06 -2.67999e-06 
-1.46428e-06 -2.47522e-06 -2.09102e-06 -7.95263e-07 2.03981e-07 -1.35468e-06 -3.45542e-05 -8.89172e-05 -2.68939e-05 
1.43846e-06 4.01534e-05 0.000102361 4.2497e-05 0.000255428 -0.00511943 0.00565631 -6.00765e-07 -2.91205e-06 
-9.22251e-07 -1.91751e-06 2.11092e-06 1.09685e-05 3.02283e-06 6.16386e-06 -1.10165e-06 -5.77677e-07 5.89848e-07 
5.29509e-06 -3.56018e-05 1.47907e-06 1.76986e-08 -6.25703e-07 8.10539e-07 -2.59704e-06 -2.16883e-06 -1.75267e-07 
-3.72715e-07 3.50935e-07 -2.84367e-07 1.69265e-05 2.40066e-05 -1.67047e-05 5.86211e-07 -4.1724e-07 1.74195e-06 
5.962e-07 6.23704e-07 1.18029e-05 1.75911e-05 -6.6015e-06 -2.65472e-06 5.95776e-07 -3.67321e-06 -5.67451e-06 
9.297e-05 1.96187e-06 -1.99144e-05 -3.60673e-06 -8.64586e-06 2.14651e-06 -3.51501e-05 -0.00454637 0.00520187 
1.86332e-05 -8.47227e-07 -3.39783e-06 9.64388e-06 1.38665e-05 2.23577e-06 -3.64923e-06 -9.86849e-06 -3.30571e-06 
-1.63835e-06 -2.74326e-06 -0.00140013 0.00546976 -0.00229798 7.9248e-07 -2.45502e-05 3.00683e-05 1.4866e-06 
-2.2276e-06 -3.03526e-06 -2.00949e-06 2.24646e-06 -7.87755e-07 -1.63882e-06 -2.30349e-06 -2.28617e-06 3.77794e-06 
9.73141e-06 -6.45829e-06 -4.03437e-06 3.17593e-08 3.24692e-06 -3.45382e-06 -2.9728e-06 -1.29006e-06 -1.75641e-05 
1.68772e-05 8.38479e-06 5.52744e-06 -5.71662e-06 -8.16975e-06 -1.17257e-05 -2.76932e-05 4.1278e-06 -2.20477e-05 
-4.71021e-06 3.30549e-05 3.84463e-06 -1.86276e-06 -9.79287e-07 -2.07715e-06 -1.8648e-06 1.89562e-06 1.35975e-06 
-1.71908e-06 -8.0519e-07 5.83554e-06 -3.22068e-06 1.94624e-05 -3.04581e-06 -7.26137e-06 -1.55705e-05 0.000228821 
0.000204522 5.04535e-07 -6.23132e-06 2.87535e-06 4.03304e-06 -0.00397439 -5.4578e-07 3.14222e-06 4.8536e-07 
1.17474e-06 -3.76244e-07 3.01812e-06 -2.8681e-06 -1.92557e-06 -1.93641e-06 -0.00080878 -0.0007153 -1.05978e-07 
2.47288e-06 -1.36661e-05 5.02528e-06 4.17119e-07 -3.27596e-07 2.27696e-06 3.19252e-06 3.41855e-07 -1.5757e-07 
1.31408e-06 -5.85446e-05 1.95541e-05 -1.73756e-05 2.85017e-05 -2.45443e-05 7.27832e-06 -0.0021918 9.35257e-06 
-9.60762e-06 -8.65139e-07 1.5528e-05 -6.03785e-07 -1.07317e-05 -7.57008e-07 -1.05566e-06 -3.60493e-07 2.17727e-06 
1.65922e-06 1.09127e-05 -2.65249e-07 3.5438e-06 1.42422e-06 -1.4826e-05 4.52856e-06 -1.11994e-05 -1.49149e-06 
-4.08093e-07 1.25295e-05 4.39091e-06 -1.32914e-07 -9.19543e-07 2.64823e-06 -5.63137e-07 2.25656e-06 -1.08929e-06 
4.9238e-07 -3.74437e-06 -0.00050827 -0.000417912 0.000797641 -7.77788e-06 3.13917e-06 -8.60208e-06 3.59017e-07 
6.90201e-07 -9.33882e-07 -7.49525e-07 1.39926e-06 5.73108e-07 4.46232e-07 9.77704e-07 1.58907e-05 -3.88824e-06 
-2.08257e-06 6.47715e-06 4.23681e-06 8.96524e-07 1.23336e-06 2.38016e-07 -0.00121861 8.24834e-06 3.66378e-06 
-2.95836e-06 -1.76984e-05 -6.23435e-06 -7.34048e-06 -1.26287e-05 1.19785e-05 -2.4821e-07 1.34342e-06 -2.39076e-06 
4.7177e-05 9.43528e-07 -1.97748e-05 -6.17724e-05 -9.74021e-06 -3.65143e-05 8.17641e-06 3.0181e-06 6.51375e-07 
1.61997e-08 0.000189025 -0.00022094 9.5863e-05 2.23711e-06 -4.29209e-05 -3.08528e-05 -2.2819e-05 -0.00176459 
0.00381141 -0.00184358 -3.56964e-06 2.33627e-05 9.17316e-06 1.17664e-05 9.12297e-06 -6.00455e-06 -2.57861e-05 
-1.15094e-05 1.95453e-06 1.02168e-06 3.16686e-07 -1.35598e-05 -3.01642e-05 1.58382e-05 -8.63072e-07 8.60881e-06 
-0.00106684 0.000442315 -0.000629132 -6.8275e-06 1.48967e-06 2.88284e-06 2.31215e-07 -1.06165e-05 6.67026e-05 
4.34009e-05 -2.74251e-05 1.57001e-05 -4.97262e-05 9.02878e-06 4.79947e-06 -1.31626e-08 6.3611e-09 -1.95896e-06 
-2.53763e-06 -6.3965e-07 3.10611e-05 -2.51308e-05 2.85335e-06 -3.73186e-06 5.95233e-06 0.000490407 -4.8975e-05 
-0.000710872 3.09858e-05 8.94841e-05 5.49417e-05 -0.00201889 -0.00239333 -0.00447071 1.75436e-05 1.31078e-05 
-1.98024e-05 -2.12185e-06 -3.63926e-07 1.68157e-06 5.43689e-07 0.000777496 -2.25314e-06 -2.09076e-06 -1.50793e-05 
-1.14208e-05 2.86239e-06 -2.72915e-05 -6.22723e-05 7.18841e-06 9.65868e-06 6.63345e-06 -0.000190602 4.56873e-05 
-6.48961e-05 8.4707e-05 -8.95514e-05 -0.000261022 -4.05423e-05 -3.74885e-05 -5.18703e-05 1.25012e-05 -1.57395e-05 
0.000375556 3.08085e-05 -9.13222e-07 3.81917e-06 -6.48432e-05 6.96275e-06 -0.00192333 0.00558187 -0.00351259 
1.94267e-05 3.45765e-05 -2.47158e-06 4.09625e-06 -1.84021e-06 4.63586e-06 1.65797e-05 9.7208e-06 -0.00588707 
0.00516718 9.83819e-06 -5.00269e-06 2.31178e-06 -5.56241e-06 -7.61502e-07 -3.06785e-06 3.78536e-06 -1.0232e-05 
1.79412e-05 -7.21549e-07 -9.24139e-06 -2.14956e-06 -0.00111261 0.000472724 0.000250335 -0.000650983 -7.22626e-05 
-7.48078e-05 1.20183e-05 -0.000563746 -4.7555e-06 2.86433e-05 -9.30656e-05 0.00551069 0.000601825 -2.64929e-05 
1.73349e-06 4.9167e-05 2.94615e-05 2.61251e-06 -6.36142e-06 5.54403e-05 4.20011e-05 0.00585118 -0.00198929 
-0.00371047 4.79329e-06 4.21174e-06 -1.431e-06 3.99907e-08 1.75738e-05 2.33362e-05 -2.38202e-06 -2.13845e-06 
1.17093e-06 -0.00548472 2.37593e-06 -1.15525e-06 3.72136e-06 0.000436791 -1.78005e-06 1.90187e-06 -5.12695e-07 
-0.00331885 -0.00204397 0.00430166 -0.0027998 -3.23409e-05 0.00012686 -4.40534e-05 6.54488e-06 -1.0856e-05 
2.1884e-05 -2.07568e-05 1.48704e-05 1.73849e-05 -3.42032e-05 -7.71805e-06 -3.5645e-05 1.28514e-06 0.000256969 
-5.35706e-05 -2.82149e-05 2.37958e-06 4.35608e-05 2.04001e-05 0.000485537 -2.59276e-05 -8.71548e-06 -3.47282e-06 
-3.32336e-05 -6.58651e-05 -3.88126e-05 -2.47952e-05 -6.85961e-05 -9.48675e-06 -0.00206333 -0.000734461 -0.000107723 
5.2406e-05 -8.21525e-05 1.85339e-05 -3.47285e-05 -5.34538e-07 -0.000669394 -5.67945e-05 -7.6423e-05 1.09864e-05 
-0.000303298 0.00069112 7.73481e-05 -2.25608e-05 -5.44156e-05 -1.21124e-05 -5.98549e-05 -4.2784e-05 -5.09273e-05 
-0.00273781 -0.00337417 -0.00202362 -0.0051548 0.00542259 0.000468252 5.00292e-07 -2.90446e-05 1.02288e-06 
4.80215e-05 0.000124614 0.000335832 0.00114387 -1.99994e-06 -2.21596e-08 -1.68922e-06 6.8138e-07 -1.68776e-06 
3.3984e-07 2.87874e-05 -6.99342e-06 3.00503e-05 -3.59483e-05 5.63503e-07 -6.02489e-07 -1.87377e-06 0.00418038 
0.00057048 -0.00384028 -0.00394391 -0.00176058 -3.16353e-06 5.30689e-07 2.24719e-06 1.73878e-06 8.71328e-06 
5.95273e-05 3.00551e-06 -2.75429e-07 5.77234e-07 9.88341e-07 2.2082e-06 -7.05372e-07 -1.43478e-06 -1.25808e-05 
-1.91179e-05 -2.65386e-09 -1.10201e-06 4.69326e-07 -1.94337e-07 -1.16016e-06 1.51224e-06 5.67528e-05 -1.44388e-05 
-8.3355e-06 -1.91705e-05 9.73771e-06 1.26592e-06 2.46989e-06 3.25747e-06 1.09918e-06 1.30627e-06 3.04397e-05 
2.78562e-05 -2.3081e-05 -2.20604e-06 3.50101e-07 -3.08168e-06 -6.94605e-07 -2.85613e-07 -1.77867e-06 2.55087e-06 
-1.59042e-06 1.79479e-06 -1.23047e-06 -2.33855e-06 -1.70297e-06 1.47888e-07 -2.96474e-06 -2.93312e-06 -4.94032e-06 
-4.82043e-06 4.40176e-08 0.000123162 7.03173e-06 3.87474e-06 -1.92936e-05 -2.46319e-06 -1.98971e-06 2.46457e-06 
-1.30393e-06 0.00103442 -0.000198561 0.000391265 1.03181e-05 -2.22198e-05 2.7813e-06 2.82243e-05 -8.09629e-06 
-4.9228e-06 -2.28484e-05 2.32193e-06 -5.42947e-06 1.26894e-05 1.0999e-05 -2.40248e-05 2.18851e-06 5.40194e-07 
6.48344e-08 -1.99607e-06 -2.70267e-06 -1.41522e-08 2.12836e-08 -1.68411e-06 4.00167e-07 -3.71829e-07 -2.73441e-06 
-1.78552e-06 -3.6296e-05 1.56493e-06 2.05833e-06 0.000397814 -0.000602474 -0.00060756 0.000496906 -3.55375e-05 
-0.000695662 -1.5394e-05 5.69839e-06 9.6435e-05 0.000920034 2.74222e-05 2.22489e-06 2.78467e-05 -6.9948e-05 
-5.48527e-06 -1.22948e-05 2.52089e-05 3.42955e-06 -2.38428e-05 -4.04008e-05 -1.67446e-06 3.21868e-07 -1.81697e-06 
1.30421e-06 -3.30224e-05 -4.49655e-06 1.28335e-06 -7.97685e-07 -1.27041e-06 -6.04218e-07 6.0969e-07 2.75272e-06 
-1.27321e-06 -1.48809e-06 5.69836e-07 -1.5337e-06 1.7329e-06 4.18566e-07 -1.41792e-06 -2.84568e-05 3.5622e-05 
-1.49527e-05 2.12325e-06 -0.00078888 -0.000233391 -0.0053394 -2.44445e-06 1.71347e-07 2.18344e-06 -7.3306e-07 
-3.66302e-05 1.43324e-05 -2.75225e-05 -5.87567e-06 -3.94217e-07 1.54159e-06 2.06929e-06 -2.32524e-06 3.95335e-05 
-3.02089e-06 1.37318e-05 -0.00248852 -7.04953e-05 -0.000140557 -2.20478e-05 -1.42671e-06 -1.97597e-06 -7.77475e-07 
1.48147e-07 -2.15166e-06 2.59808e-05 -1.52085e-05 9.45101e-06 -1.59513e-05 -7.63349e-05 0.00039587 -0.00558366 
-2.63982e-08 5.30639e-06 -1.27543e-06 -1.98428e-05 4.29614e-05 -0.000182253 -9.09359e-05 -0.00069799 -6.77448e-05 
1.49337e-05 9.39046e-06 6.9843e-06 2.79233e-05 3.67013e-05 -1.06818e-05 4.51419e-06 -1.10463e-05 7.72615e-06 
6.51768e-06 -7.44561e-06 -2.73657e-06 -0.00325708 0.00248048 0.000805407 -4.70421e-06 0.000705793 0.00463716 
8.39865e-06 -4.03505e-06 4.86904e-06 -5.16871e-06 -3.19028e-05 3.97328e-05 -2.43252e-05 5.99675e-05 -1.52002e-05 
-1.76722e-05 5.11115e-07 -7.35811e-07 -1.56415e-06 -1.46935e-05 0.00130723 -0.00195277 0.00157127 9.8617e-06 
-3.09214e-06 5.47267e-06 9.82946e-06 1.1752e-05 -6.06869e-06 -8.35408e-06 -8.01794e-06 1.05752e-05 -4.01521e-05 
-6.43614e-05 -3.9656e-06 -2.61045e-06 -1.86899e-06 -5.19058e-07 -1.09563e-06 0.000259319 0.000655571 -0.000595715 
4.6e-06 5.01986e-05 -2.08771e-06 -1.54284e-06 -5.24593e-06 5.99916e-06 2.7112e-06 -2.74509e-06 2.69794e-06 
-9.89418e-07 -7.70182e-05 0.00311276 -1.18637e-05 -5.85993e-06 -1.7251e-05 1.95019e-05 8.68556e-06 0.000491498 
0.00039805 -6.87426e-06 3.03348e-05 -3.25545e-05 1.05338e-06 0.00137003 -0.00254495 -2.75284e-06 9.26886e-06 
-4.92522e-05 -0.000107248 -0.000296753 0.000289933 0.00119482 7.24514e-06 -3.57538e-05 -8.76495e-06 1.13332e-06 
-2.05476e-06 1.78359e-05 -1.08171e-05 -1.42383e-05 1.69081e-05 -3.20944e-05 0.0004932 -0.000225231 0.000239254 
-0.00556215 -0.00546876 -1.07991e-06 -2.6451e-06 -2.74923e-05 -3.58263e-05 7.44393e-05 3.01072e-05 -3.11841e-06 
-6.28556e-06 -7.47354e-06 4.50675e-06 4.10181e-06 -2.41679e-05 9.42808e-07 -5.43547e-07 0.000422362 -2.03693e-05 
-5.41644e-07 9.35982e-07 8.39688e-07 4.22259e-06 -0.00106655 -3.62132e-06 -1.4601e-06 1.48106e-07 3.13867e-06 
-0.000607803 0.000285744 4.3351e-06 -6.30092e-05 -4.84615e-05 -4.4711e-05 6.38964e-06 5.99356e-05 1.50062e-05 
-3.25934e-05 -0.000144091 -4.04349e-05 -0.000181348 -0.000678629 0.000699637 -7.29828e-08 2.65871e-06 0.00476344 
-0.00411735 0.000523405 -2.44174e-06 -3.31701e-07 3.27023e-06 -1.4116e-05 -2.80746e-05 1.14829e-05 -3.74523e-05 
1.42329e-05 -3.08813e-05 -7.4944e-05 0.000668089 -0.00346412 3.74154e-06 -1.62263e-06 2.44086e-06 3.15541e-05 
1.30412e-05 8.36004e-06 1.82914e-05 2.82528e-06 -8.86567e-05 2.74724e-05 2.06625e-05 2.32945e-05 -2.17171e-05 
2.45291e-05 -6.99035e-06 6.57324e-07 1.81532e-05 1.1251e-06 1.40522e-05 -7.05501e-05 -3.11334e-05 -5.7764e-07 
-1.60823e-05 8.88124e-06 -2.76832e-06 -2.66361e-06 -2.50045e-05 1.27413e-05 0.00105666 0.000604002 -7.15771e-05 
-1.18155e-06 -1.16333e-06 -6.76825e-06 -2.67254e-05 3.8154e-07 -3.47973e-06 -4.39263e-08 -2.52038e-05 -1.23543e-06 
-7.99632e-06 -1.22583e-05 2.44778e-05 3.08153e-05 9.67915e-07 1.0578e-06 -5.02253e-07 3.23686e-06 3.0097e-05 
-2.65199e-05 -9.0067e-06 1.57875e-05 -1.96758e-05 -5.38766e-06 -9.05084e-07 1.21617e-05 -1.37429e-06 1.14077e-06 
1.63169e-06 -4.67978e-07 -3.2194e-07 3.00132e-06 3.48247e-07 -4.19097e-06 6.14657e-05 -0.000119469 -2.16471e-05 
7.2592e-05 -7.88121e-07 -1.77068e-06 -3.84925e-06 1.52747e-06 -0.00337394 -7.49346e-06 -0.00150852 -0.0015076 
-3.63972e-06 0.00366348 -0.000427572 -4.41755e-05 4.26037e-05 -3.33352e-06 -0.000832628 3.23502e-05 9.63777e-05 
-0.00592283 -5.4294e-07 -1.49706e-06 -3.18367e-06 1.24474e-06 2.69634e-05 1.68346e-05 0.00272769 5.16304e-07 
4.18246e-06 1.9582e-05 -1.14044e-05 7.10585e-06 2.70169e-05 1.04836e-05 3.79238e-06 5.82439e-07 8.99014e-06 
-1.48839e-05 -4.15585e-05 2.32243e-07 1.18183e-05 -9.12183e-06 -6.64636e-06 -8.52373e-05 -5.6178e-06 5.34028e-05 
-4.2356e-05 4.48382e-08 -1.69252e-06 -7.87425e-07 -1.43269e-05 1.63577e-05 -5.55607e-07 -0.00169969 -5.08744e-06 
0.000313087 0.00424783 0.000302442 0.000290471 0.000455376 1.28045e-06 8.07325e-07 -4.58996e-07 6.31938e-05 
-1.42583e-05 0.000100139 -0.000167373 -0.000437741 -1.46373e-06 1.04785e-05 -1.13e-05 2.40297e-06 -1.14547e-07 
1.27956e-06 3.60809e-09 1.67055e-06 6.33799e-07 -3.40654e-06 -2.2672e-06 -4.74733e-07 -0.00488339 0.000390993 
1.51857e-06 -3.29777e-07 -2.16628e-06 -2.64007e-06 7.97468e-06 1.00055e-05 -1.25858e-06 4.90082e-06 2.943e-05 
-1.89945e-05 -3.31835e-06 -1.94648e-06 -2.9346e-06 -2.20199e-06 -1.14631e-06 1.78316e-07 -1.54552e-06 -1.06716e-05 
-5.25625e-06 5.92361e-06 1.75381e-05 -2.79799e-05 1.71786e-08 -4.4907e-06 1.59627e-05 -9.67841e-07 -6.75969e-06 
2.53701e-06 -1.58306e-05 1.2799e-05 -1.3756e-05 1.46763e-06 -8.04867e-07 7.54476e-06 -8.97871e-06 -2.61295e-06 
2.65428e-05 -6.22982e-06 3.69402e-07 -6.34282e-07 -2.84712e-06 2.21735e-05 -2.76006e-05 -9.50837e-06 -1.18626e-05 
4.60243e-08 -1.71601e-07 -1.80593e-06 6.49783e-07 0.000853708 0.000273126 -0.000636242 -7.94347e-07 1.58544e-07 
2.22212e-07 1.06796e-06 -3.33536e-08 -3.11196e-06 -4.86783e-06 -6.30312e-06 5.93641e-06 -1.00841e-05 -6.52565e-06 
2.60536e-05 6.07575e-05 3.95275e-05 -0.00119229 -3.75768e-05 2.03532e-05 -9.04009e-06 -1.89159e-06 8.07044e-06 
7.99543e-07 2.36065e-05 2.45235e-05 0.0053822 -4.06795e-05 1.35219e-05 1.79514e-05 -8.08682e-06 4.37372e-05 
3.36408e-05 5.08187e-05 -4.12056e-05 -6.04918e-05 -6.60986e-07 5.74694e-07 -1.45057e-06 1.05048e-06 4.67331e-06 
9.25167e-06 6.35366e-05 -1.1893e-05 3.05392e-05 -6.22458e-06 2.2058e-05 -1.11461e-05 -1.07005e-05 2.05545e-05 
-0.00252886 -0.00358825 0.0060673 -1.38674e-06 6.11154e-07 -0.00237209 8.17202e-06 -0.00590422 1.60811e-05 
3.96185e-05 -6.13122e-06 -9.71327e-05 -5.68603e-07 -2.07255e-06 -1.07692e-05 1.46839e-05 -4.97272e-05 5.02872e-05 
1.06046e-05 -0.000458263 -7.05009e-06 -2.23954e-06 7.04781e-06 -1.41262e-05 -9.44164e-06 -1.19958e-06 1.1599e-06 
1.08242e-06 -3.17089e-06 -8.15386e-07 -2.9603e-06 -1.35567e-06 3.09646e-06 -3.7509e-05 -3.8151e-05 6.84954e-06 
-9.77844e-06 5.20005e-07 3.10017e-06 2.38813e-06 -5.89369e-07 -1.76548e-05 -8.33769e-06 1.13189e-05 6.39262e-06 
-5.97804e-07 3.40018e-06 0.000631533 -0.000624243 1.27231e-05 8.26102e-06 -2.5487e-06 1.65914e-06 -1.98754e-06 
-6.21451e-06 -6.54809e-06 -1.09802e-05 0.000128315 2.66401e-06 -2.09705e-06 6.33705e-06 8.354e-05 0.000132461 
4.99786e-05 1.25358e-05 -8.11413e-06 -3.04015e-06 2.3065e-06 -3.04177e-06 1.35655e-06 -0.00226664 -1.08398e-05 
6.55118e-06 -1.16945e-05 3.69669e-07 -2.51151e-06 3.16056e-05 4.24769e-05 5.27001e-05 2.00095e-05 -2.01434e-05 
3.54332e-05 3.27499e-05 9.11768e-07 -2.5843e-05 -1.05632e-06 -5.68885e-07 -2.40449e-06 3.902e-06 5.01435e-06 
-1.41087e-05 1.27367e-05 4.97422e-07 3.83666e-05 -1.72883e-06 1.45455e-06 -2.13805e-06 8.06217e-10 -0.00194336 
0.00495113 2.0927e-05 2.1575e-05 -1.51222e-05 3.93296e-05 -0.000146712 5.53778e-06 1.86542e-05 -1.87314e-05 
-2.45138e-05 -0.00679683 -1.1464e-06 9.75092e-07 5.20853e-07 0.000403546 -0.000471731 -0.000554415 0.000657824 
0.000415597 -8.1887e-07 -1.3926e-05 -8.6895e-06 -1.48497e-06 4.38326e-06 1.50457e-06 -4.80496e-05 3.70551e-06 
-2.36696e-07 -4.25286e-07 7.65347e-07 -2.06484e-06 -6.77384e-07 -1.64705e-06 0.000308267 -2.60449e-06 -8.87313e-06 
-1.33375e-06 4.26087e-06 1.73569e-06 2.76728e-07 6.43552e-06 -1.41437e-05 7.8898e-07 -7.08886e-06 0.000335892 
-2.82167e-07 3.24065e-06 -1.77609e-06 0.00408829 -1.93612e-06 -3.08052e-08 -5.87545e-07 -2.11354e-05 -2.49313e-05 
2.52244e-05 2.15233e-06 5.09159e-06 -1.56242e-05 3.15561e-06 -0.00492267 0.000306595 0.00474269 -0.00205619 
0.00212765 -5.52121e-07 1.71121e-05 -3.32401e-05 1.51597e-05 2.23641e-05 0.00033595 -0.000582339 0.000472637 
-5.76416e-06 0.000262968 0.000523797 -7.22709e-06 -3.90305e-06 5.48106e-07 1.64806e-05 1.42228e-05 -2.64059e-05 
-5.15308e-06 -1.9013e-05 -1.02674e-05 3.15854e-06 -0.00259852 0.00436454 0.00558884 3.25933e-06 1.48185e-05 
-3.19773e-06 1.04012e-06 2.07533e-06 1.44276e-06 0.00026863 -4.82221e-05 -0.00210639 -0.0026279 -2.56879e-05 
-7.87402e-06 1.21386e-05 5.92812e-07 2.47798e-06 5.27155e-08 -1.14909e-06 -3.12013e-06 6.72725e-07 -5.08291e-07 
1.11218e-06 2.11719e-06 -8.06905e-07 6.43351e-08 2.45832e-07 1.89832e-07 3.10309e-05 2.40351e-05 1.68314e-05 
-4.16221e-06 7.62246e-06 5.13924e-06 -9.69435e-06 -3.57465e-06 5.82566e-06 9.53909e-06 6.69925e-06 -2.72539e-05 
-5.51564e-05 3.35719e-05 6.17217e-05 -2.28161e-05 2.50288e-05 2.24915e-05 -1.14282e-06 7.3982e-06 9.86426e-06 
-1.03054e-05 1.2644e-05 -3.38832e-06 -3.43221e-06 -1.78181e-06 -2.46207e-06 3.39388e-05 2.46172e-05 2.73483e-05 
-1.05124e-05 2.37742e-06 4.67779e-07 -2.6393e-06 -1.47304e-06 -0.00072205 0.000690428 0.000191865 2.9251e-07 
3.82024e-06 2.82315e-05 2.58587e-05 -3.39069e-07 5.12002e-07 -9.00087e-07 -0.000285299 -9.1117e-05 0.000781113 
2.65872e-05 -4.11362e-06 3.19333e-07 2.55644e-05 4.74535e-06 0.00251436 -0.00747926 1.13917e-06 -2.55963e-06 
7.92989e-07 -2.57565e-06 1.44499e-06 -1.63306e-06 7.5025e-06 -1.37451e-05 8.346e-06 -1.70945e-05 -4.93428e-06 
6.13792e-06 -8.31008e-06 5.58089e-06 6.25618e-05 8.20954e-05 -7.11107e-05 -2.76811e-06 2.38049e-06 2.53237e-05 
1.92811e-05 1.20696e-05 2.53575e-05 -2.9943e-05 -1.37706e-06 1.21008e-06 8.52938e-06 -1.04307e-06 -1.01046e-06 
5.58219e-06 -4.66092e-06 -5.89395e-07 -1.31805e-06 2.23045e-06 -3.7046e-06 4.15692e-07 -1.05361e-07 -2.88143e-06 
9.88314e-07 -1.0244e-06 4.97894e-07 -1.15517e-06 2.03654e-06 -8.81998e-06 -1.27173e-05 -5.64884e-05 -1.15158e-05 
1.70876e-05 -4.62139e-06 -0.00267685 6.70498e-06 -2.13068e-05 4.18482e-06 -0.00195161 -0.00233933 9.40263e-07 
-1.82993e-05 1.91856e-05 4.34674e-06 -1.0614e-05 1.01782e-05 2.76225e-05 1.17741e-05 2.96552e-05 -8.85636e-06 
-8.08027e-06 0.000419807 -0.000563728 -1.86765e-05 -4.29741e-06 -1.86745e-08 -2.44226e-06 1.47066e-06 0.00110298 
-1.74018e-05 2.33491e-06 -2.93307e-06 -3.159e-05 5.94188e-06 -3.1705e-06 2.04914e-07 2.40007e-06 -3.98622e-05 
1.69687e-06 -0.000112335 -5.88776e-06 -1.2896e-06 -2.10625e-06 -8.57743e-06 8.64312e-06 -3.46257e-05 -0.000112511 
-7.55515e-06 2.89669e-06 -2.33209e-05 -3.48875e-06 7.97876e-06 9.6425e-06 6.68856e-06 -1.36571e-07 2.02387e-07 
-1.99459e-05 -4.36801e-05 -3.87566e-06 -9.21002e-05 -1.0748e-06 -1.44637e-06 -2.03375e-06 -2.21243e-06 2.60929e-05 
-1.31821e-07 -3.0676e-06 -3.95235e-06 -6.75677e-08 -6.13379e-05 -1.29254e-05 5.38634e-05 -3.04045e-05 1.17278e-06 
-1.71063e-05 7.50408e-06 -4.55236e-07 -7.67337e-06 -9.50521e-06 -1.22022e-05 0.000115636 -0.000256765 0.00176223 
-1.17433e-06 -1.82521e-06 -9.83846e-07 9.997e-07 -6.64935e-06 1.95014e-05 4.99122e-06 -4.96698e-07 -1.00074e-05 
-1.18014e-05 1.79791e-05 2.89883e-06 3.50957e-06 -1.9122e-05 -8.51626e-06 -3.4009e-07 -3.67157e-06 2.59425e-06 
-1.24455e-06 -7.24784e-06 -4.13978e-07 -8.81877e-07 4.0588e-05 -7.75384e-05 1.98438e-05 0.0042988 -2.3843e-05 
-1.79261e-05 -2.2277e-05 -4.66653e-06 3.16416e-05 -1.09884e-05 -1.69738e-05 1.45323e-06 4.80351e-07 -1.83887e-05 
1.75623e-06 1.44601e-06 1.73683e-07 -1.8332e-05 2.32994e-05 -1.12706e-05 5.89408e-06 -5.10688e-06 -8.88422e-07 
-3.43864e-06 7.35643e-07 1.09621e-07 -2.13624e-06 2.30928e-06 2.48468e-06 -2.82419e-06 -2.45225e-06 -6.42129e-07 
-1.158e-06 8.38795e-07 3.91964e-06 -5.25875e-06 -1.16776e-06 -2.21663e-06 -1.25183e-06 -4.0674e-05 -3.26123e-05 
3.93586e-06 -2.46106e-05 6.50333e-06 8.26415e-06 1.57522e-05 -1.98879e-06 5.2894e-06 -6.75096e-07 -1.04509e-05 
-1.20642e-05 -1.48183e-05 -2.52482e-06 -2.78462e-05 2.33674e-05 -8.58615e-06 6.39347e-06 -1.2867e-05 7.27387e-07 
-2.65427e-05 2.39584e-06 -3.42204e-06 -2.55386e-05 -1.44945e-07 -3.29153e-07 5.35247e-05 9.53971e-06 -3.95442e-06 
-2.71173e-05 -2.37392e-05 1.58602e-05 -2.84506e-06 -1.11488e-06 4.4589e-06 1.02998e-05 -0.00521258 0.00042738 
0.000287381 -3.37827e-05 -7.64795e-06 -6.87785e-06 6.97152e-07 8.60096e-06 8.65081e-07 1.70781e-05 4.3703e-06 
-8.72227e-07 -3.12064e-06 3.84782e-06 2.90557e-05 4.29437e-05 4.02871e-06 -8.6514e-07 -1.26727e-06 -7.43384e-07 
3.24584e-06 -2.74793e-06 -2.18376e-06 1.14611e-05 -0.00462597 -0.000914386 -0.00216539 -2.47171e-05 -2.34099e-05 
3.98909e-05 -1.01443e-06 -9.76118e-06 -3.30913e-06 3.87479e-07 -7.76012e-07 -7.84593e-07 -2.30078e-06 1.79493e-06 
2.7047e-06 3.99174e-07 -7.55219e-07 -1.65089e-05 1.16918e-06 -1.44336e-06 2.47484e-06 -2.19979e-06 -4.19525e-05 
1.32662e-05 -1.76805e-05 -2.55506e-06 -2.13635e-05 5.81048e-06 -4.50842e-06 4.59753e-06 2.77584e-05 2.1677e-05 
4.9929e-08 -7.75921e-06 -2.29297e-06 -1.58113e-06 -4.01376e-06 -5.27572e-06 6.79141e-06 -5.40642e-06 9.73809e-07 
1.41658e-06 -1.44272e-06 -1.78638e-05 9.54461e-06 -2.0833e-06 3.76198e-05 9.76544e-06 2.16627e-05 -9.50231e-06 
-8.23357e-06 -1.27672e-05 3.76063e-06 -1.81405e-05 -1.10762e-06 2.88049e-06 2.95839e-05 3.64441e-05 2.06826e-05 
1.81576e-05 5.55291e-08 -9.06339e-07 -8.02545e-07 8.08417e-07 5.00265e-06 -3.39334e-05 -1.23152e-05 2.18806e-05 
4.43641e-05 6.7329e-08 -3.6326e-07 5.94558e-08 1.72315e-06 1.9836e-06 -1.76849e-07 9.48934e-05 -1.16521e-05 
-2.59267e-06 -2.56466e-05 -4.46401e-06 7.35946e-06 1.24008e-05 -1.56016e-05 0.00427334 5.5477e-05 -3.89453e-07 
1.52974e-06 -5.44738e-06 -2.55313e-06 -1.99792e-07 -1.09837e-05 -2.18777e-06 -0.000157515 2.40594e-06 3.40222e-06 
1.42891e-05 2.58844e-05 -1.16256e-05 -7.93571e-06 1.34481e-06 -3.45005e-06 -1.48922e-06 -4.59399e-05 -2.2652e-05 
5.78808e-06 -1.13468e-06 0.00609662 8.48178e-07 1.49352e-06 4.92665e-05 -1.35387e-06 -1.99136e-06 0.0057676 
4.54979e-06 4.90252e-06 3.02759e-06 -3.24525e-06 -1.84651e-06 -1.0681e-05 1.45453e-06 -4.10994e-05 -1.65965e-06 
-1.6734e-06 -1.06027e-06 9.2506e-06 -1.93188e-05 -6.5446e-06 3.10302e-06 2.01687e-05 2.16998e-06 1.14273e-06 
6.51393e-05 6.76832e-07 2.27252e-06 -4.78951e-06 -2.19991e-05 7.52317e-07 -2.33603e-05 5.22253e-05 0.000524481 
-1.61234e-06 -2.53895e-06 2.88058e-05 -9.99468e-06 0.00207894 -0.0014337 1.93751e-05 -0.000228859 -1.93318e-06 
-2.50273e-06 1.23672e-05 -2.41141e-06 -1.15015e-05 4.70643e-07 -1.55899e-05 -0.000135715 -2.36062e-05 -2.10091e-05 
-2.73788e-05 2.15629e-05 -1.44183e-07 7.98743e-07 -0.000662002 6.50011e-05 1.75558e-06 1.26966e-06 -2.07715e-06 
-2.32903e-06 -1.95258e-06 -2.45915e-06 -1.65205e-06 5.04001e-05 2.76917e-05 -1.56308e-05 3.70446e-05 4.74359e-05 
6.36065e-05 -1.08552e-05 5.84586e-06 1.68935e-05 2.06648e-05 2.08583e-05 -8.3625e-05 -0.00535028 3.3701e-05 
3.97758e-06 4.77858e-06 7.77599e-06 -8.22075e-05 -1.21825e-05 1.95241e-05 7.85804e-05 0.00122657 -0.0013854 
-7.98622e-05 0.0055172 0.00055316 -0.000135951 -0.000569159 2.14245e-05 9.36276e-06 -5.11148e-06 -7.66981e-06 
-6.4714e-06 -0.0032396 2.86415e-06 7.64268e-07 2.07326e-06 -1.96751e-05 1.52982e-05 2.49856e-05 3.09733e-05 
8.61134e-06 2.17782e-05 2.33382e-05 0.00460858 0.000572106 0.00079468 -0.000253222 -0.000497322 -0.0140932 
-0.00333551 -9.83188e-07 -3.68024e-06 1.46618e-05 -5.10079e-05 1.58057e-05 -0.00101113 0.000420824 0.000348532 
-8.80786e-07 -0.00101416 0.00424847 0.00073367 1.51386e-06 7.40991e-06 8.64731e-05 0.000985989 0.00085098 
-0.00126417 0.00301843 0.000704986 -1.19332e-05 -5.45889e-05 -2.00417e-06 -0.00252276 -5.21452e-05 1e-05 
-1.37327e-06 -1.2259e-07 8.57453e-06 1.36201e-06 1.04906e-06 -4.36084e-07 8.58466e-08 -0.000583764 0.000550075 
0.00626528 -0.0025931 -0.00265627 1.04957e-07 -1.55708e-07 1.61944e-06 -2.25596e-06 -0.000659095 0.000265406 
-3.06643e-05 -5.2614e-05 -3.60607e-05 2.78314e-05 -1.05581e-06 -7.24494e-07 1.44261e-05 5.84845e-06 -1.26552e-05 
4.78572e-06 -2.13474e-06 -1.68183e-05 0.000526187 -9.63361e-05 9.63231e-05 1.0985e-06 -2.3713e-05 5.47652e-06 
-1.0437e-06 -3.13239e-06 -2.25788e-05 -4.6374e-06 1.05959e-05 1.61976e-05 -1.87241e-06 -1.86907e-05 -6.90378e-06 
3.23895e-05 -8.90016e-07 -1.61021e-06 -6.37514e-06 -1.9102e-05 1.32629e-05 2.96166e-05 2.52718e-07 6.17237e-06 
-1.89283e-05 2.59548e-05 -7.29963e-05 -4.019e-05 -1.33987e-05 -5.05476e-06 2.89231e-06 -1.20839e-05 -6.32861e-06 
-1.17117e-05 3.43661e-06 -1.69514e-05 -1.10113e-06 8.96597e-06 -2.21899e-06 -3.32161e-06 -1.09348e-05 5.70049e-06 
-5.87158e-05 9.74974e-05 -2.16145e-07 1.8988e-06 -2.728e-05 -3.6209e-06 3.48289e-06 6.51422e-06 -8.49768e-06 
3.43687e-07 -1.71021e-07 4.99225e-06 -3.74602e-07 -1.19119e-06 1.8606e-06 4.23008e-06 -6.03749e-07 -1.46537e-06 
-3.5099e-06 -4.58302e-06 2.29068e-08 -2.26486e-06 5.45414e-06 6.20243e-06 -1.05065e-05 8.69497e-07 -1.20066e-06 
7.17032e-07 -7.74698e-07 1.28196e-06 4.39427e-06 0.000516632 0.000340364 -0.00428092 0.000494262 -4.08252e-05 
-1.42461e-06 2.44278e-05 7.2431e-06 3.49873e-06 1.86313e-05 -2.79542e-06 0.000619154 1.34456e-05 -5.82052e-07 
-4.44401e-05 -7.14323e-06 -6.77699e-06 -4.19352e-06 -3.12869e-05 1.06562e-05 1.19901e-05 -7.99542e-07 3.83408e-06 
1.48803e-06 3.15197e-06 -3.02305e-06 -5.94884e-05 4.50525e-07 -2.24425e-05 5.74516e-06 2.10206e-05 1.36638e-06 
2.5089e-06 5.58981e-06 -2.21004e-05 -5.70697e-06 -1.19485e-05 1.31886e-06 -9.08661e-07 -3.82273e-05 1.56435e-05 
-5.16149e-07 -3.71511e-06 -1.87564e-06 -7.33745e-06 8.42863e-06 1.11766e-06 -4.40899e-06 -0.000378584 -0.000452741 
6.25797e-06 -1.61468e-05 -2.01416e-05 -3.29533e-06 -3.66834e-06 -4.02539e-05 3.10068e-06 1.08069e-06 0.000229836 
-0.000463272 -0.000450255 -0.000203806 1.38657e-06 5.52748e-06 -0.00010422 0.00068355 -7.34148e-06 0.0022905 
9.98717e-06 -8.57839e-06 -2.61527e-06 -2.60445e-06 7.01459e-05 3.50234e-05 -1.21638e-05 0.000921079 1.7428e-05 
8.71063e-07 1.2499e-06 1.22971e-05 1.43259e-05 0.000941534 0.00037057 0.000631095 -0.00182139 3.15945e-05 
-4.51646e-05 1.04493e-05 -6.74367e-06 -0.000125162 -0.00299147 2.3476e-07 -1.75643e-07 -1.15572e-06 -1.64857e-06 
8.61517e-07 1.23947e-06 1.04076e-06 -1.81873e-05 5.0729e-07 2.119e-07 -1.29645e-06 7.53279e-07 1.29331e-06 
1.59991e-06 2.04294e-06 -1.28003e-06 -2.73387e-05 6.50337e-05 -4.15676e-07 1.32639e-05 -5.68876e-06 -5.99613e-07 
-3.75442e-06 -2.50707e-05 -2.13548e-05 2.05631e-05 -7.18664e-07 1.93093e-05 -1.44506e-06 -1.90846e-06 1.97949e-06 
-8.47919e-05 -2.69345e-08 -2.56657e-06 1.11574e-05 5.88131e-06 -1.74812e-06 -3.98998e-07 1.97136e-05 3.64861e-06 
5.11702e-06 -8.03749e-07 -3.85471e-06 -0.00208099 -0.000733397 1.318e-05 7.43076e-06 -4.2527e-06 2.79419e-05 
-9.05467e-06 -4.8226e-06 -9.99554e-06 -3.97288e-07 0.00161035 0.00208277 1.44801e-06 1.15548e-06 -1.54543e-05 
1.63071e-06 -7.03502e-06 2.0355e-06 -9.15813e-05 1.87349e-07 -1.45839e-06 1.73422e-06 -1.91147e-06 -1.02041e-05 
-1.04851e-05 6.88763e-06 5.88869e-06 -1.21533e-05 -3.72218e-07 -1.74266e-06 4.0804e-07 5.74527e-07 -2.4377e-06 
-0.00154743 -0.00243679 -1.89922e-06 -2.1196e-05 1.55004e-05 2.62361e-06 -7.48895e-08 3.19488e-07 2.65083e-06 
1.82286e-06 -1.30732e-06 -2.04796e-06 -2.12935e-07 9.44257e-08 2.11631e-08 1.03e-06 -1.61063e-06 -4.91057e-06 
1.44155e-05 5.09125e-05 -0.000250902 -2.61612e-05 1.02615e-05 2.50863e-05 4.47551e-05 -8.84543e-06 3.05033e-06 
-7.17322e-06 -2.92137e-06 -3.44107e-06 9.3696e-07 -1.49067e-05 3.31674e-05 -8.27639e-06 1.55957e-06 -9.01068e-07 
3.08729e-07 0.000100347 -7.52085e-05 -2.34262e-05 -3.50564e-05 -5.69621e-06 1.79325e-06 3.818e-06 3.30218e-06 
-6.24797e-05 -6.2229e-05 -5.24052e-05 -5.70869e-06 4.3854e-07 6.97587e-07 -0.000521975 -4.87045e-05 8.95105e-06 
6.17869e-05 -2.65657e-05 -6.27152e-07 2.68093e-06 0.000125127 4.14228e-05 2.39324e-05 -8.04489e-05 -0.00444218 
0.00343892 3.11834e-05 3.33084e-07 -2.19644e-06 -3.39507e-06 3.04725e-06 -2.3369e-05 3.82544e-05 1.58142e-05 
7.42628e-06 -2.50066e-05 -2.11121e-06 4.02607e-05 2.56677e-07 2.03847e-05 4.01337e-05 4.52292e-05 3.22611e-05 
0.000695209 7.70985e-06 4.20217e-06 1.10729e-05 -2.21346e-06 2.94925e-05 3.49826e-06 3.09828e-06 9.79836e-06 
-1.4319e-05 2.45983e-07 2.29951e-06 3.4769e-06 -1.93131e-05 0.00568298 2.0412e-07 1.55514e-05 -4.15523e-06 
3.43519e-07 3.35361e-07 -1.2246e-06 7.9882e-06 -2.32919e-05 -2.13134e-06 2.8457e-05 9.16717e-06 -5.31562e-06 
-2.48042e-05 -7.87269e-06 -1.84108e-06 5.34432e-05 -5.73276e-06 1.54903e-06 -5.79587e-06 -1.94295e-05 -1.65104e-05 
5.88215e-05 4.76341e-05 -7.85489e-06 -7.52121e-06 -9.06517e-05 0.000164734 -7.70162e-07 1.99788e-07 -7.05548e-07 
6.45819e-07 4.43451e-07 1.11811e-05 -3.55777e-07 -9.41709e-07 -1.001e-06 0.000514159 -7.60824e-06 -1.9472e-05 
-3.35864e-05 1.04095e-05 5.35786e-05 3.95514e-05 1.59584e-05 3.79881e-05 -3.89783e-05 8.14627e-08 -0.000162037 
-1.90114e-05 3.22981e-06 2.04421e-05 -1.45253e-05 -1.61016e-05 -1.77746e-05 2.21374e-06 5.82442e-07 1.4085e-06 
-0.00277095 -8.24449e-07 -1.02943e-06 9.64884e-07 2.49464e-07 1.18474e-06 4.86564e-07 -1.01461e-05 -4.93024e-07 
-7.15755e-06 9.44741e-06 5.37403e-07 -8.66614e-06 -1.55847e-05 -9.85528e-06 -1.35002e-06 -1.80098e-06 -1.0716e-07 
2.07242e-06 -1.17833e-06 -9.18231e-07 -6.74015e-06 1.68083e-05 2.31813e-05 -4.97416e-05 -8.77275e-06 -1.06911e-05 
-0.000815426 0.000178865 -1.62951e-05 0.000222429 -0.0006515 -0.000113057 -0.000204139 1.57792e-06 3.0955e-05 
1.85933e-05 9.3432e-07 2.61631e-05 -1.16037e-05 2.38299e-05 -1.59556e-05 -1.47481e-05 -1.68721e-07 2.80407e-06 
-7.45776e-07 4.09068e-05 1.88167e-05 -2.30786e-06 1.56675e-06 -4.06445e-06 -1.58158e-06 6.36643e-07 -1.59907e-06 
-3.64855e-06 8.08719e-07 -6.04696e-05 -2.3704e-06 1.48499e-06 -3.47187e-07 -4.52694e-05 -5.89062e-07 2.44878e-06 
2.81951e-06 1.37041e-06 3.46718e-06 -1.22825e-06 4.23935e-06 3.28697e-06 1.1677e-06 -1.47006e-08 4.37648e-06 
1.38955e-06 1.5395e-06 1.99222e-06 -4.58952e-06 -3.21728e-06 -4.03574e-07 -1.8537e-06 4.23031e-06 -1.52028e-05 
-3.84568e-05 -4.32882e-06 1.18701e-05 5.67226e-06 1.47328e-05 -9.84448e-06 -1.46624e-05 1.16638e-06 6.22791e-06 
-7.35313e-07 3.56696e-07 5.58713e-05 -1.91283e-06 5.5197e-06 4.04762e-05 -7.31136e-05 3.55147e-05 2.08975e-06 
3.42995e-05 -1.93964e-06 6.11061e-07 1.16889e-06 -1.9784e-06 1.79397e-05 7.78794e-06 -2.09762e-05 -9.8366e-06 
-2.17266e-06 -7.70868e-08 -1.47015e-05 1.21859e-05 -4.46851e-05 -7.2625e-05 2.19988e-06 0.000648179 2.67089e-05 
2.51408e-05 1.95571e-05 1.75662e-05 -4.97272e-06 5.32365e-06 1.13283e-05 -0.00337046 -7.09493e-06 2.41861e-06 
1.46483e-06 0.000440081 0.00101313 1.88135e-06 5.02861e-06 -1.30195e-06 1.72479e-05 -1.13076e-06 -1.16096e-06 
1.74061e-06 2.08224e-05 1.66606e-05 8.16e-06 1.40896e-05 2.02871e-05 2.22654e-06 3.63892e-05 2.76311e-05 
0.000495441 -8.37577e-07 -1.17916e-06 -5.58394e-07 7.84429e-06 2.56838e-06 1.33381e-05 2.54989e-05 -2.99013e-06 
-4.97059e-06 -5.13934e-06 -4.36103e-06 1.87414e-05 4.66103e-05 8.39045e-06 1.44066e-05 -2.05377e-05 1.58979e-05 
-4.3821e-07 -2.3303e-05 -1.23361e-05 -2.89142e-05 1.45837e-05 1.83989e-05 3.51974e-05 5.85648e-06 -3.71097e-05 
5.21132e-06 0.000334662 8.74145e-06 -1.16354e-06 1.99161e-05 2.77297e-06 9.17529e-06 -4.68036e-07 1.06133e-06 
6.9967e-07 -1.56045e-08 -1.60163e-05 2.79288e-06 0.000116925 -1.34319e-06 -4.61774e-07 -2.15842e-06 3.06715e-07 
-4.58506e-07 4.95192e-06 -3.877e-07 -8.09382e-07 1.0376e-05 1.0099e-05 -3.23314e-07 -3.06782e-06 1.07474e-06 
-1.71774e-05 -5.22345e-06 1.53369e-05 -3.3915e-06 -1.15476e-05 -3.43028e-05 -6.61403e-07 -1.23696e-05 -2.23005e-07 
8.80915e-07 7.00443e-06 4.03569e-06 -6.60236e-07 -3.4183e-07 -2.335e-05 7.32136e-06 6.31913e-08 -4.01864e-07 
-7.7131e-06 1.78831e-06 -5.03289e-07 2.73089e-06 1.07469e-06 -2.24022e-06 3.13203e-06 -1.97521e-05 -1.7112e-05 
4.45514e-05 -1.17046e-06 -4.39489e-06 7.83047e-06 1.37706e-06 3.57503e-06 0.000429602 -8.27591e-07 -1.35066e-06 
6.87366e-07 1.63189e-05 2.76217e-07 -1.90227e-05 -1.44315e-05 -6.77012e-07 -1.30015e-06 3.53235e-06 -7.21409e-07 
5.17028e-05 0.00053123 -1.95844e-06 2.06665e-07 1.51157e-06 2.06307e-06 1.89083e-07 6.03731e-07 5.63535e-07 
2.35232e-05 3.68384e-06 -4.55114e-06 1.03932e-05 -5.24769e-06 -2.94892e-05 1.31447e-05 -0.00192907 -2.68798e-05 
-1.93045e-06 7.01511e-06 5.11572e-06 2.73099e-06 7.10778e-06 -2.97375e-05 -2.92094e-05 -4.10205e-06 2.36434e-05 
-9.21165e-06 2.73858e-05 3.54907e-05 1.88424e-05 1.08618e-05 -1.35473e-05 1.64292e-06 -2.31213e-05 6.16135e-05 
5.2368e-06 1.53055e-05 -4.29465e-06 -1.95406e-05 -4.09369e-06 -2.75618e-06 1.36221e-05 -9.11552e-06 -0.00010547 
-3.14468e-06 2.71783e-06 2.7747e-06 1.96634e-05 1.21093e-05 -0.000248697 1.97976e-05 -8.3866e-08 2.13874e-06 
-1.81155e-05 2.09715e-07 8.09778e-07 -2.17975e-06 -1.13446e-06 1.14544e-07 -7.05548e-05 0.000335783 0.000311409 
-2.69104e-05 -7.88778e-06 -4.92521e-06 0.00792735 -0.00301317 -0.0010817 -1.1682e-06 -0.0129216 2.88525e-05 
1.89237e-05 -1.39964e-06 1.02873e-05 -2.44022e-05 -1.03518e-05 4.3775e-06 4.30997e-06 -9.89457e-05 0.0012784 
0.000171343 -0.000397046 2.39409e-07 -2.029e-07 1.73394e-05 1.09879e-07 1.78872e-05 -2.56881e-06 -2.47732e-06 
1.30361e-06 -3.46242e-05 -6.89118e-05 -2.14872e-05 -4.3645e-06 1.07706e-06 -2.79811e-05 -2.12386e-06 -5.61731e-06 
5.19232e-05 -1.26301e-06 1.67893e-05 -3.77908e-06 4.74869e-06 2.23707e-06 6.91261e-07 2.67745e-05 1.22442e-06 
4.2584e-06 2.15233e-06 3.06594e-05 -4.66796e-07 -1.21383e-06 2.69075e-07 -5.18868e-07 -4.26633e-07 -3.35774e-07 
-1.18181e-06 0.000568625 -0.000451928 -1.45902e-06 -3.35437e-06 -2.76503e-07 -1.27676e-06 8.5974e-07 1.16789e-06 
-2.93508e-06 3.74022e-07 1.1328e-06 -1.44841e-06 3.6512e-05 2.36972e-05 -7.45729e-06 1.80144e-05 -0.000180584 
-0.00013574 3.75977e-06 -1.41716e-05 -1.30226e-06 -2.08772e-08 -6.85745e-06 3.60836e-06 -1.02328e-05 -1.98491e-06 
-1.2256e-06 -8.42999e-05 8.02851e-06 -3.48466e-06 4.79143e-06 2.60593e-08 -2.66357e-06 -1.74199e-06 -2.27683e-06 
1.58079e-06 -2.27819e-06 6.41318e-07 3.17195e-05 3.08646e-05 0.000551348 -2.01042e-05 0.000387881 -1.4503e-05 
-1.66641e-07 -1.14648e-05 -3.33594e-05 0.0056664 -0.00159847 -0.004629 -3.76902e-05 -9.54442e-07 -4.58198e-07 
2.44255e-06 4.64633e-05 -3.02307e-06 -0.00156483 -0.00189409 4.54806e-06 -1.69758e-06 1.23623e-06 -4.68059e-05 
-2.50893e-05 1.03619e-05 6.14171e-06 4.53103e-07 8.59146e-06 6.99805e-06 1.15422e-06 -3.00525e-06 4.58733e-06 
-1.90241e-06 -1.5209e-05 -0.00112675 3.6528e-05 1.07157e-06 0.000100751 -8.13167e-05 -3.19419e-05 7.46995e-07 
-1.06749e-06 7.20489e-05 0.000120449 4.9446e-06 -6.08408e-07 2.89043e-05 -1.17967e-05 3.00392e-05 -2.76282e-06 
-3.22488e-05 -3.91106e-05 -3.5053e-05 -6.81676e-06 5.4769e-07 -2.65012e-06 -4.97685e-06 4.13851e-06 1.7251e-06 
3.49168e-06 -5.76963e-06 0.00267541 1.13866e-05 -5.18032e-05 -0.00113758 0.00379424 1.62087e-06 0.00429424 
-0.00545183 -1.27426e-06 -1.44965e-05 3.1397e-06 4.27908e-06 1.25304e-06 -1.24137e-06 1.78923e-06 -1.27708e-06 
-8.8498e-07 -6.20645e-07 1.07665e-06 -0.00347698 0.00495368 -0.000528136 -0.000368337 -1.15359e-07 -6.45239e-08 
-0.00012577 -6.94441e-05 3.6373e-05 2.15071e-06 -1.72692e-06 -7.81911e-07 -1.44608e-06 5.43986e-05 1.25588e-05 
-2.72644e-05 -4.81546e-07 6.44195e-07 2.6547e-06 5.61772e-07 -8.8139e-07 2.07942e-06 0.000151759 -0.00180735 
0.00547832 -0.00114833 -2.44641e-06 -2.74423e-06 0.000407249 2.27393e-06 -1.16911e-05 1.78392e-05 -6.39121e-05 
1.65436e-05 -1.44465e-05 9.71493e-06 4.52608e-05 2.21934e-05 2.78108e-05 -3.94297e-05 8.52479e-06 -4.00612e-05 
-5.65474e-06 4.4178e-05 -1.49014e-06 0.000462029 0.000121296 -1.80399e-06 -2.12545e-06 1.3259e-06 0.000483769 
4.56773e-07 3.65936e-06 -1.83303e-05 -7.89688e-07 7.85765e-06 2.43021e-05 -2.10077e-06 -1.40777e-06 -4.34567e-06 
-0.00186364 1.11332e-05 4.74624e-06 -0.000464117 -0.00049219 -1.11071e-06 -1.37906e-06 6.46734e-06 -0.000554841 
0.00072136 -5.01527e-06 -1.29977e-05 8.29233e-07 2.98696e-07 1.32269e-06 1.47338e-05 -0.000661567 0.000970602 
1.70967e-07 6.26758e-07 -1.71887e-05 -1.36212e-05 -1.16165e-06 1.66306e-05 -1.42171e-05 -5.5732e-06 -4.67684e-06 
4.19393e-06 -2.10137e-06 -2.30309e-07 1.79972e-06 -6.06321e-07 3.66484e-06 3.47023e-06 1.26407e-06 2.72526e-07 
1.91096e-06 -1.95706e-05 -4.82947e-07 -4.34838e-06 2.12634e-05 -2.04081e-07 1.86664e-05 6.63945e-05 7.22425e-06 
6.30029e-06 -2.04256e-06 3.51162e-05 1.06065e-05 -0.00232545 -2.23736e-06 -1.93774e-05 -2.47043e-05 -6.33457e-06 
-2.81088e-06 -2.75286e-06 5.37789e-06 1.42926e-06 2.51667e-06 1.66708e-05 4.54791e-05 -9.02609e-07 -1.71618e-06 
2.07414e-05 -1.45885e-06 -1.07977e-06 2.16387e-06 1.66186e-06 -3.62614e-06 -2.47096e-06 -3.05065e-06 4.14146e-07 
9.65379e-06 9.80233e-06 4.16943e-06 -7.50052e-08 -9.82716e-06 -9.34174e-06 -1.55019e-05 3.73291e-06 -7.40846e-07 
-1.4323e-06 3.17825e-06 3.41625e-06 3.76505e-06 1.15921e-05 -2.58334e-06 9.89256e-06 6.39575e-06 1.70674e-06 
-4.15596e-06 -4.14421e-06 -3.38974e-07 8.10755e-07 1.47373e-05 -3.01967e-06 -3.33536e-06 -1.9349e-06 1.37381e-05 
1.93471e-06 -5.77072e-05 -2.32754e-06 0.000812041 3.01153e-07 8.8051e-07 -0.000873344 0.000166587 -0.000131924 
-3.0305e-05 2.30239e-05 6.51447e-05 -0.000555941 -5.387e-06 -0.000695185 0.000139871 0.000985201 -3.88203e-05 
-1.32221e-05 1.04605e-05 4.63188e-06 -9.53067e-05 -0.00205601 4.19227e-06 -9.87029e-06 -0.00252326 -0.0026697 
-0.000964059 8.98919e-07 9.02655e-06 -2.09483e-06 -2.0144e-06 0.000330897 3.54742e-05 -7.75959e-05 1.1892e-05 
6.97721e-06 5.82272e-05 -3.74869e-06 -0.00133686 2.39453e-05 -5.21809e-05 -2.66318e-06 2.9649e-05 2.26856e-07 
8.4608e-06 -2.25449e-05 3.63582e-05 0.000186074 3.29573e-07 -4.27392e-07 -3.80675e-06 -1.38548e-06 -7.38411e-07 
1.79012e-07 -7.11804e-07 -1.47342e-06 1.15064e-05 -2.93818e-06 -0.000603563 -1.19305e-05 4.23677e-06 -4.30695e-05 
-0.000150795 -5.56899e-05 -9.2454e-06 4.35353e-05 1.35535e-05 -1.54575e-06 3.05987e-06 3.12455e-05 -2.63601e-06 
-4.2398e-06 -4.9724e-06 -8.44783e-06 -2.40821e-07 -8.18212e-07 4.22395e-06 6.58854e-06 3.07426e-06 6.45403e-07 
1.23172e-06 0.0144882 0.000201615 0.000102186 -6.86814e-06 -7.58124e-06 -8.07565e-06 4.09911e-06 -1.63823e-07 
2.1229e-06 6.80227e-06 2.20784e-06 -2.91957e-06 -1.65062e-06 -9.99501e-07 -3.69417e-06 -1.96977e-05 1.69716e-05 
-1.43582e-06 -1.97384e-06 2.56602e-06 1.72272e-05 -6.6529e-07 -1.66034e-06 -2.16925e-06 0.000356012 2.76779e-05 
-4.79769e-07 2.92095e-05 -5.62319e-07 -3.33224e-07 0.000278358 2.47048e-06 -2.13364e-06 -8.75471e-07 1.30342e-05 
-1.02465e-05 -5.85646e-06 3.46212e-05 -4.87932e-06 0.000374512 0.000107799 6.23545e-06 -3.44807e-05 -4.24069e-06 
-6.92289e-06 -1.32184e-05 1.92094e-05 3.33235e-05 -6.00442e-05 9.7296e-05 2.42137e-05 5.13783e-06 -1.08686e-05 
8.13872e-06 6.61609e-07 -2.66329e-05 -0.000156961 -3.08598e-06 -2.4355e-06 -1.03232e-06 -4.65365e-08 -1.00211e-05 
3.18121e-06 -0.000640363 3.70195e-08 -0.000725462 -0.00197692 -1.41118e-06 -0.000594761 -0.00393499 -2.42013e-06 
-4.1288e-07 -2.12007e-06 -6.11395e-05 -3.98466e-05 3.67712e-06 3.54138e-07 -6.14751e-05 3.06795e-06 -1.39558e-06 
-1.02354e-06 -1.38131e-05 1.46467e-05 -1.8861e-05 7.40248e-06 7.31238e-07 1.56075e-05 3.56041e-05 6.78134e-08 
2.86728e-06 -2.40402e-06 -9.08759e-06 -3.07414e-06 1.47056e-08 4.0506e-06 1.84652e-06 7.60767e-07 -4.0646e-06 
-2.8862e-05 5.22689e-06 1.1421e-05 -1.17134e-06 3.30551e-08 -1.10225e-05 0.000807248 -4.57398e-06 5.78035e-06 
1.45347e-05 -7.09911e-06 1.90963e-05 0.00443564 -0.000557819 0.000515493 -3.64658e-06 -3.64068e-05 -9.47053e-06 
3.27702e-06 -9.51579e-07 6.70747e-06 5.72284e-06 -5.85165e-06 -4.4075e-05 2.06853e-06 3.37573e-05 -1.75613e-06 
6.59766e-07 -4.17816e-05 2.35178e-05 2.76966e-06 -4.15156e-05 -1.3782e-06 -4.8073e-06 6.23125e-06 -4.64162e-06 
3.36375e-05 1.14912e-05 -2.08469e-05 -1.01521e-05 1.67864e-05 3.40889e-05 1.12942e-05 -3.4412e-06 6.23246e-07 
-1.57188e-06 9.16893e-06 -9.32485e-06 2.76725e-06 -2.08982e-06 -4.93329e-08 -6.48209e-07 2.29379e-06 3.85798e-05 
0.000279114 -0.00207751 9.91046e-07 1.02833e-05 -0.000106543 1.47386e-05 1.25572e-05 5.09436e-05 -8.53565e-07 
5.23504e-06 1.34671e-05 -1.61342e-06 2.95306e-06 -2.33956e-06 1.43278e-06 4.93183e-07 -4.41503e-05 -1.18488e-05 
3.47618e-06 -8.65734e-05 1.84177e-06 -3.35669e-07 -0.00132698 2.71562e-07 -8.80724e-07 -1.01367e-06 -0.000553333 
0.000362415 0.00220224 -2.39155e-06 1.68358e-05 -1.20222e-05 -1.82063e-05 1.75249e-06 2.6226e-06 -1.19143e-05 
-4.29182e-05 -0.000399979 0.000352092 -6.48361e-05 2.25182e-05 -1.01583e-05 -4.19734e-05 5.37911e-07 -2.53584e-06 
-1.32127e-06 0.000146994 0.000111746 0.00060002 -8.62397e-05 2.6995e-06 0.0104066 0.00572597 -0.000358053 
-1.19677e-06 -6.0198e-06 7.9504e-06 -1.05267e-06 2.05192e-06 2.22228e-05 -1.40741e-06 1.25299e-06 8.66463e-07 
-3.8491e-06 -2.50864e-05 -1.0626e-05 -1.06588e-05 1.8934e-05 4.0577e-07 7.9644e-06 -7.9713e-06 -4.0488e-07 
-1.04515e-06 -8.35333e-05 5.86389e-06 -8.34634e-06 -7.92781e-08 7.15571e-07 2.4741e-05 0.000605415 1.73798e-06 
-3.14343e-05 -6.11279e-05 5.00592e-05 -2.33662e-05 0.00014509 8.30766e-08 -1.14841e-06 -2.22579e-06 1.11192e-05 
-3.19566e-06 3.24588e-07 -1.84888e-06 9.06447e-06 1.91466e-06 5.35499e-05 -7.26691e-05 2.47563e-06 -0.00026083 
0.000540161 -1.1821e-06 -7.83791e-06 -4.14242e-05 1.16893e-05 -6.08101e-05 -2.67818e-06 -7.30612e-07 4.13955e-06 
1.25999e-06 7.93095e-06 -2.52911e-05 9.97912e-09 -1.37402e-07 1.52882e-06 -6.57956e-06 -0.000283592 -6.22599e-06 
-5.5021e-08 2.7585e-05 -1.3769e-05 3.68506e-07 8.45825e-07 0.00564281 -0.00189954 
Stress%20yy%20component 1 12526 double
0.883418 0.744316 0.773057 0.904412 0.333362 0.33334 0.333347 0.33334 0.411521 
0.385774 0.435839 0.368827 0.449195 0.377309 0.456316 0.389409 0.419357 0.351926 
0.335076 0.329944 0.31703 0.313502 0.310377 0.308343 0.307184 0.305407 0.305785 
0.305961 0.306785 0.306597 0.3083 0.307519 0.307358 0.307006 0.305964 0.307228 
0.308865 0.309331 0.311694 0.314246 0.322842 0.341168 0.365465 0.363048 0.332627 
0.328093 0.302216 0.312019 0.309268 0.310347 0.311039 0.309971 0.309518 0.311885 
0.311199 0.309809 0.310721 0.308938 0.309561 0.310448 0.310875 0.309006 0.311127 
0.310498 0.313487 0.318916 0.327875 0.338101 0.39127 0.333345 0.333339 0.333347 
0.333339 0.333336 0.333332 0.333327 0.333324 0.33332 0.333321 0.333315 0.333323 
0.333313 0.333313 0.333312 0.333311 0.333327 0.333316 0.333329 0.333326 0.333332 
0.333337 0.33334 0.333344 0.333335 0.333345 0.33333 0.459327 0.345815 0.317417 
0.302877 0.295102 0.291091 0.289271 0.288905 0.28928 0.290243 0.291494 0.293 
0.294786 0.297074 0.299857 0.304043 0.309228 0.31631 0.324016 0.333778 0.342008 
0.348475 0.351117 0.34922 0.343996 0.336985 0.330114 0.325355 0.321941 0.31997 
0.319277 0.319478 0.320209 0.321499 0.322933 0.324599 0.326087 0.327528 0.328947 
0.330138 0.331241 0.332168 0.332925 0.333345 0.33339 0.333431 0.333314 0.332939 
0.332218 0.331348 0.330099 0.328843 0.32748 0.325975 0.324353 0.322825 0.321488 
0.320215 0.319503 0.319316 0.320074 0.322191 0.325643 0.331302 0.338136 0.34463 
0.349606 0.350982 0.347672 0.340198 0.33053 0.321865 0.313533 0.307849 0.302963 
0.299554 0.296612 0.29448 0.292721 0.291169 0.289775 0.288985 0.288769 0.289133 
0.29129 0.296078 0.305091 0.319492 0.354796 0.406401 0.409968 0.37921 0.375565 
0.360622 0.373126 0.37327 0.38251 0.315159 0.307131 0.302038 0.301428 0.293662 
0.359697 0.332924 0.375458 0.366278 0.377576 0.371942 0.347588 0.29182 0.30181 
0.301025 0.31255 0.304839 0.331027 0.192485 0.333311 0.333347 0.333349 0.333344 
0.333341 0.333335 0.33333 0.333326 0.333321 0.333317 0.333313 0.333312 0.333311 
0.333314 0.333312 0.333312 0.333314 0.333318 0.33332 0.333324 0.333328 0.333331 
0.333335 0.33334 0.333345 0.333353 0.333339 0.415833 0.34555 0.319712 0.304051 
0.295684 0.291487 0.289252 0.288718 0.289017 0.289883 0.29117 0.292725 0.294511 
0.296648 0.299318 0.302763 0.307284 0.312856 0.320479 0.329437 0.338688 0.346303 
0.350207 0.349876 0.345766 0.339219 0.332116 0.32669 0.322812 0.32026 0.319347 
0.319355 0.320033 0.321056 0.322489 0.323935 0.325618 0.327268 0.328649 0.329976 
0.33115 0.332093 0.332821 0.333315 0.333432 0.333454 0.333301 0.332822 0.332089 
0.331141 0.329906 0.328628 0.327312 0.325793 0.324238 0.322859 0.321292 0.320205 
0.319424 0.31927 0.319976 0.321759 0.325195 0.330638 0.337017 0.344049 0.349441 
0.350744 0.347203 0.340569 0.330946 0.321997 0.314399 0.307919 0.302778 0.29938 
0.296479 0.29412 0.292463 0.290989 0.289715 0.288874 0.288516 0.289321 0.291171 
0.295193 0.303782 0.318313 0.346789 0.455103 0.302534 0.317321 0.298924 0.298862 
0.300347 0.300896 0.3061 0.367594 0.372314 0.37076 0.377194 0.386243 0.223181 
0.375454 0.315446 0.318292 0.298926 0.301454 0.302231 0.366642 0.371827 0.373712 
0.377134 0.377436 0.375055 0.393229 0.333239 0.333254 0.333274 0.333284 0.333305 
0.333327 0.333345 0.333366 0.333382 0.333387 0.3334 0.333406 0.333406 0.333406 
0.333405 0.333397 0.333389 0.333373 0.333357 0.333344 0.333322 0.333303 0.33328 
0.333264 0.333259 0.333232 0.333263 0.411453 0.362412 0.335436 0.320411 0.312122 
0.306595 0.303646 0.302252 0.300974 0.301125 0.301685 0.302448 0.303645 0.305603 
0.30826 0.311505 0.315474 0.320558 0.326356 0.332181 0.337285 0.340312 0.340952 
0.339079 0.335175 0.331168 0.327787 0.325192 0.323458 0.322565 0.322407 0.322717 
0.323309 0.324288 0.325357 0.326587 0.327774 0.328796 0.32982 0.330746 0.331575 
0.332271 0.332771 0.3331 0.332736 0.332262 0.331551 0.330692 0.329677 0.328611 
0.327501 0.326295 0.325142 0.324063 0.323147 0.322512 0.322269 0.322574 0.323659 
0.325582 0.32867 0.332424 0.336261 0.33961 0.341097 0.340116 0.33606 0.329965 
0.324126 0.318268 0.313497 0.309666 0.30683 0.304677 0.302885 0.301519 0.300591 
0.300296 0.300628 0.301491 0.303121 0.306581 0.313299 0.32269 0.339033 0.366823 
0.429666 0.376804 0.355563 0.338805 0.32642 0.315837 0.315837 0.313272 0.313027 
0.313035 0.311735 0.312325 0.312187 0.312572 0.313088 0.313131 0.312883 0.311773 
0.312845 0.312867 0.314442 0.316 0.318624 0.325568 0.339422 0.363266 0.371273 
0.355871 0.339133 0.333831 0.333489 0.332941 0.332744 0.332605 0.334028 0.335141 
0.336862 0.341396 0.359796 0.37019 0.348362 0.348754 0.341315 0.331354 0.336886 
0.332682 0.332604 0.335456 0.335705 0.336116 0.336503 0.339941 0.344619 0.357378 
0.352042 0.342637 0.271902 0.274928 0.279121 0.26873 0.324812 0.333095 0.333107 
0.333171 0.333256 0.333348 0.333428 0.333496 0.333557 0.333598 0.333627 0.333638 
0.33365 0.333638 0.333628 0.333589 0.333543 0.333483 0.33342 0.333343 0.333254 
0.333166 0.333093 0.333047 0.333041 0.344375 0.37486 0.354328 0.339705 0.329957 
0.323398 0.318177 0.314558 0.31242 0.311236 0.310651 0.310388 0.310965 0.311575 
0.31258 0.314198 0.316141 0.318698 0.321908 0.325866 0.329863 0.33319 0.334979 
0.334481 0.33189 0.329008 0.327066 0.325664 0.324853 0.324517 0.324542 0.324786 
0.325201 0.325879 0.32664 0.327537 0.328427 0.329203 0.329934 0.330665 0.331349 
0.331977 0.332506 0.332965 0.32841 0.367092 0.33246 0.331918 0.331274 0.330537 
0.329713 0.328911 0.328009 0.327136 0.326301 0.325583 0.324933 0.324445 0.324276 
0.324462 0.32509 0.326269 0.328078 0.330193 0.332845 0.335037 0.335223 0.332501 
0.327958 0.323809 0.3202 0.316863 0.314505 0.312798 0.311481 0.310498 0.309856 
0.30965 0.309843 0.31071 0.312159 0.314622 0.318189 0.324408 0.332049 0.343412 
0.359677 0.350672 0.335225 0.330028 0.326916 0.324884 0.323022 0.322446 0.321731 
0.32175 0.32154 0.321328 0.321592 0.321337 0.321592 0.321613 0.321797 0.322155 
0.323413 0.3252 0.328539 0.334507 0.344588 0.349537 0.323038 0.348486 0.341586 
0.33939 0.338643 0.338294 0.339166 0.340796 0.34247 0.346112 0.348937 0.346927 
0.319064 0.322639 0.322886 0.324891 0.346034 0.344163 0.341938 0.341578 0.34228 
0.343188 0.34397 0.345985 0.348815 0.351073 0.342885 0.313138 0.349441 0.345767 
0.310278 0.332934 0.313179 0.308013 0.312207 0.308976 0.340672 0.332878 0.333053 
0.333258 0.333461 0.333641 0.333781 0.33388 0.333958 0.334005 0.334047 0.334071 
0.334044 0.333977 0.333874 0.333754 0.333604 0.333441 0.333256 0.333058 0.332877 
0.332755 0.341747 0.343361 0.345992 0.34022 0.334647 0.330338 0.325914 0.322773 
0.321066 0.319745 0.318779 0.318276 0.318045 0.317952 0.317987 0.318183 0.318671 
0.319269 0.320767 0.324437 0.327236 0.330848 0.331158 0.328946 0.325165 0.324177 
0.324236 0.32452 0.325052 0.325754 0.326373 0.326951 0.327479 0.328097 0.328759 
0.329405 0.329957 0.330462 0.330955 0.331436 0.331968 0.332426 0.332802 0.351496 
0.318357 0.343023 0.331878 0.331378 0.330805 0.330215 0.329654 0.328974 0.328331 
0.327715 0.327101 0.326526 0.32596 0.325429 0.324924 0.324473 0.324693 0.324655 
0.326764 0.330354 0.331954 0.330664 0.325686 0.321624 0.320015 0.318549 0.317591 
0.31749 0.317351 0.317232 0.317259 0.31756 0.318312 0.319713 0.32141 0.323337 
0.326365 0.331753 0.336314 0.342161 0.344919 0.343416 0.326469 0.337226 0.333463 
0.330955 0.329124 0.327765 0.32693 0.326355 0.32593 0.325683 0.325517 0.325448 
0.325595 0.325901 0.326153 0.326277 0.327009 0.328575 0.331577 0.33574 0.342204 
0.344679 0.340298 0.340487 0.341107 0.342354 0.343942 0.344882 0.342507 0.329901 
0.328699 0.324804 0.325485 0.31667 0.322733 0.345842 0.345417 0.346119 0.346992 
0.3477 0.346833 0.34054 0.313405 0.345117 0.330113 0.323332 0.332347 0.349916 
0.316787 0.332724 0.31947 0.333916 0.347438 0.343296 0.330507 0.31837 0.34695 
0.317944 0.332988 0.333371 0.333707 0.334014 0.334239 0.334386 0.334475 0.33458 
0.334677 0.334664 0.334559 0.33441 0.334212 0.333957 0.333669 0.333359 0.333018 
0.332693 0.332434 0.342875 0.343195 0.320026 0.339563 0.337028 0.334267 0.331614 
0.329629 0.328126 0.32684 0.325797 0.324887 0.324022 0.322956 0.321798 0.320848 
0.319455 0.317171 0.321563 0.323214 0.324913 0.32648 0.327667 0.328549 0.32914 
0.329758 0.330366 0.330792 0.331099 0.331356 0.331586 0.331847 0.3321 0.332609 
0.342823 0.342483 0.342583 0.331804 0.331461 0.331077 0.330713 0.330272 0.329789 
0.329224 0.328543 0.327825 0.327005 0.325725 0.324261 0.320966 0.317929 0.319005 
0.319285 0.320865 0.322204 0.322946 0.323532 0.32451 0.325676 0.32717 0.328684 
0.330404 0.332598 0.334703 0.338927 0.340781 0.348732 0.336533 0.343039 0.339206 
0.336989 0.335111 0.333917 0.333015 0.332468 0.331991 0.331328 0.330989 0.330856 
0.331124 0.33151 0.331739 0.331804 0.332141 0.332772 0.334906 0.337736 0.342688 
0.318344 0.342948 0.343459 0.343256 0.341165 0.324584 0.332105 0.348499 0.348586 
0.346625 0.341724 0.331133 0.341322 0.334535 0.348896 0.341603 0.344076 0.326907 
0.347948 0.348246 0.321537 0.348604 0.328286 0.34344 0.333647 0.334177 0.334623 
0.334876 0.33504 0.335091 0.3354 0.335481 0.33536 0.335143 0.334862 0.334513 
0.334064 0.333595 0.3331 0.332566 0.336899 0.338394 0.337384 0.336075 0.334882 
0.333757 0.332896 0.331625 0.330427 0.329176 0.327219 0.324632 0.323726 0.324722 
0.327204 0.329232 0.330596 0.331349 0.331347 0.332175 0.332475 0.332506 0.3325 
0.332508 0.332528 0.332585 0.332558 0.343202 0.332352 0.332223 0.332068 0.331834 
0.33144 0.330849 0.32982 0.329373 0.328119 0.3261 0.343352 0.321257 0.326128 
0.327793 0.329051 0.33042 0.331967 0.333242 0.334503 0.335664 0.336749 0.337772 
0.338442 0.341144 0.337996 0.337704 0.33772 0.337602 0.337229 0.335816 0.336755 
0.335786 0.337102 0.337192 0.336887 0.336692 0.336598 0.336737 0.342448 0.340691 
0.347639 0.338603 0.337506 0.342982 0.350676 0.343953 0.347865 0.333107 0.342217 
0.349849 0.333875 0.350493 0.343273 0.340612 0.343399 0.349804 0.324799 0.336844 
0.327625 0.329826 0.346779 0.330661 0.338833 0.334901 0.33561 0.335966 0.33648 
0.336441 0.33607 0.335679 0.335245 0.334653 0.333964 0.33333 0.339881 0.341658 
0.340172 0.33972 0.339293 0.338798 0.337895 0.336395 0.335198 0.3338 0.331162 
0.333108 0.333954 0.334022 0.334449 0.33433 0.333954 0.333581 0.333302 0.340911 
0.329349 0.34068 0.343027 0.333504 0.333643 0.333665 0.333631 0.333349 0.332444 
0.331562 0.344955 0.334359 0.334973 0.337434 0.338292 0.339063 0.339604 0.339699 
0.339269 0.342453 0.340193 0.341153 0.341799 0.342099 0.341786 0.342056 0.342273 
0.341507 0.340505 0.339507 0.346287 0.350646 0.335445 0.338066 0.342423 0.334127 
0.333119 0.333366 0.339819 0.343199 0.337959 0.349572 0.332168 0.351997 0.351638 
0.349281 0.337484 0.337769 0.337414 0.336644 0.336205 0.335368 0.334393 0.333882 
0.34272 0.342538 0.343503 0.343354 0.342127 0.340225 0.341898 0.337139 0.338645 
0.33709 0.336763 0.336131 0.351133 0.33532 0.335305 0.335783 0.338349 0.335135 
0.34161 0.342992 0.347654 0.351511 0.341282 0.343314 0.34265 0.342903 0.340395 
0.344019 0.345797 0.346295 0.346826 0.341642 0.334739 0.336418 0.352246 0.350882 
0.33647 0.335949 0.342374 0.334827 0.335377 0.340152 0.335882 0.344855 0.347952 
0.345415 0.34361 0.352197 0.34884 0.338263 0.337243 0.339649 0.346101 0.336783 
0.339288 0.338989 0.33767 0.336263 0.341499 0.345456 0.342117 0.346946 0.346829 
0.3374 0.349091 0.339385 0.351086 0.338831 0.350084 0.340944 0.338228 0.351135 
0.348188 0.349948 0.340433 0.351807 0.333232 0.333224 0.333251 0.333281 0.333302 
0.333322 0.333345 0.333363 0.333377 0.333393 0.3334 0.333404 0.333407 0.33341 
0.333407 0.333399 0.333392 0.33338 0.333363 0.333344 0.333325 0.333298 0.333278 
0.333258 0.333246 0.333247 0.3333 0.430054 0.36716 0.341251 0.324684 0.313988 
0.307653 0.304204 0.302129 0.301666 0.301206 0.301604 0.302834 0.30431 0.306116 
0.308331 0.311106 0.314491 0.318756 0.323713 0.32972 0.334877 0.338589 0.340104 
0.338834 0.335966 0.332172 0.328496 0.325756 0.32396 0.322894 0.322529 0.322717 
0.323374 0.324252 0.325264 0.326404 0.327546 0.328646 0.329767 0.330708 0.331538 
0.332232 0.33277 0.3331 0.332731 0.332151 0.331412 0.33056 0.329519 0.328454 
0.327376 0.326193 0.325084 0.324049 0.323114 0.322483 0.322244 0.322506 0.323539 
0.325295 0.328265 0.331951 0.336114 0.339627 0.340939 0.339651 0.336105 0.330515 
0.324605 0.318751 0.313797 0.309863 0.306866 0.304564 0.302564 0.301508 0.300653 
0.300061 0.300315 0.301509 0.303474 0.306989 0.311664 0.320837 0.337033 0.366385 
0.414477 0.347672 0.330892 0.317547 0.310971 0.321059 0.316454 0.316188 0.315041 
0.315186 0.316004 0.31555 0.314473 0.314573 0.313465 0.313844 0.313621 0.314357 
0.314847 0.315228 0.314607 0.316791 0.32031 0.325589 0.333718 0.348917 0.366814 
0.35712 0.350324 0.342093 0.337892 0.334838 0.332868 0.333326 0.331471 0.332038 
0.333624 0.336503 0.340263 0.340243 0.351121 0.318866 0.365731 0.361783 0.351016 
0.342608 0.33898 0.33756 0.33414 0.333125 0.334384 0.335121 0.33676 0.339961 
0.350174 0.364137 0.333783 0.293226 0.333125 0.288665 0.287161 0.293478 0.332966 
0.332984 0.333177 0.333262 0.333345 0.333427 0.333503 0.33357 0.333625 0.333679 
0.333697 0.333685 0.333681 0.333658 0.333616 0.333569 0.333512 0.333434 0.333349 
0.333255 0.333168 0.33308 0.333025 0.333016 0.344194 0.332754 0.34876 0.357241 
0.372411 0.332825 0.324267 0.318919 0.315839 0.314086 0.3128 0.311257 0.311006 
0.311817 0.31271 0.313774 0.315067 0.316441 0.318127 0.320554 0.323929 0.327425 
0.331359 0.333793 0.333635 0.331669 0.32914 0.326717 0.325443 0.324913 0.324615 
0.32459 0.324875 0.325451 0.326144 0.326893 0.327639 0.328425 0.329223 0.33003 
0.330746 0.331433 0.332052 0.332566 0.321094 0.324091 0.332338 0.331807 0.331146 
0.330415 0.329608 0.328815 0.327991 0.327145 0.326365 0.325621 0.325006 0.324505 
0.324303 0.324451 0.325026 0.326148 0.32802 0.330668 0.33316 0.334743 0.334947 
0.332551 0.328341 0.324476 0.320507 0.3174 0.314952 0.313068 0.311484 0.310345 
0.309638 0.30935 0.309595 0.310681 0.312287 0.314751 0.318734 0.323818 0.330379 
0.342171 0.358796 0.373299 0.324245 0.335475 0.35076 0.329887 0.326973 0.325028 
0.323798 0.323044 0.322839 0.322946 0.322456 0.322233 0.321848 0.321954 0.321907 
0.322323 0.322907 0.323025 0.323644 0.324972 0.327582 0.332937 0.339992 0.351352 
0.316663 0.348301 0.318137 0.348885 0.344844 0.341828 0.340037 0.338813 0.338508 
0.33835 0.339005 0.340829 0.343988 0.348372 0.346794 0.322569 0.324085 0.350924 
0.347551 0.346009 0.343862 0.342766 0.341571 0.341655 0.342452 0.344251 0.346649 
0.350727 0.349719 0.32698 0.333073 0.310381 0.312013 0.319136 0.309198 0.329074 
0.313169 0.315817 0.333444 0.333065 0.333614 0.333777 0.333929 0.334048 0.334122 
0.334153 0.334141 0.334099 0.334023 0.333925 0.333791 0.333641 0.333464 0.333273 
0.333069 0.33288 0.332729 0.332674 0.320515 0.319121 0.335793 0.333286 0.342311 
0.332522 0.327271 0.325062 0.323364 0.321346 0.318488 0.319735 0.319947 0.319913 
0.319761 0.319628 0.319399 0.319164 0.320235 0.321522 0.329463 0.326936 0.323214 
0.322971 0.323963 0.324928 0.325629 0.326431 0.327228 0.327906 0.328521 0.329058 
0.329595 0.330132 0.330651 0.331142 0.331618 0.332108 0.332626 0.327917 0.318986 
0.331802 0.331277 0.330721 0.330175 0.329618 0.329046 0.328417 0.327811 0.327176 
0.326554 0.325944 0.325353 0.324782 0.324366 0.324777 0.325944 0.328109 0.32875 
0.331429 0.330782 0.325661 0.322019 0.320674 0.318891 0.318191 0.317715 0.317446 
0.317225 0.317051 0.317093 0.317602 0.319133 0.321106 0.323635 0.32693 0.331248 
0.336425 0.341776 0.349295 0.320562 0.338341 0.333813 0.320561 0.319742 0.333337 
0.333256 0.330609 0.328831 0.32765 0.327107 0.326898 0.326709 0.326533 0.326218 
0.32605 0.326143 0.326386 0.326887 0.327285 0.327882 0.328915 0.330431 0.334126 
0.340263 0.347258 0.330421 0.344789 0.343691 0.342181 0.34097 0.340122 0.340081 
0.340685 0.341704 0.343206 0.344442 0.332258 0.346925 0.347593 0.346879 0.345811 
0.345217 0.345313 0.345654 0.346211 0.347152 0.347407 0.344325 0.342772 0.342868 
0.33292 0.318328 0.31702 0.324918 0.330685 0.325904 0.317639 0.332343 0.317744 
0.342118 0.317116 0.344145 0.333659 0.334516 0.334692 0.334768 0.334782 0.334729 
0.334637 0.334487 0.334279 0.334015 0.333712 0.333382 0.333039 0.332685 0.332399 
0.337016 0.327952 0.334633 0.33992 0.328692 0.332814 0.333192 0.327914 0.327264 
0.32676 0.325769 0.324528 0.323382 0.321225 0.342448 0.326103 0.327681 0.328889 
0.329689 0.330282 0.330692 0.331018 0.331312 0.331596 0.331859 0.33213 0.332405 
0.332673 0.322338 0.324778 0.331738 0.331399 0.331093 0.330748 0.330369 0.329929 
0.329391 0.32874 0.327924 0.326945 0.325691 0.323815 0.322234 0.318696 0.319679 
0.320859 0.322228 0.323197 0.323487 0.324023 0.32494 0.326118 0.328297 0.330251 
0.332469 0.33551 0.338564 0.322374 0.325553 0.339428 0.336412 0.346716 0.332864 
0.332663 0.332465 0.332318 0.332227 0.332049 0.331669 0.33181 0.332397 0.332949 
0.333565 0.333974 0.33465 0.335496 0.341085 0.34321 0.334256 0.335114 0.343385 
0.343024 0.342586 0.342014 0.342466 0.342817 0.343085 0.342966 0.333957 0.333445 
0.348588 0.348962 0.348154 0.348791 0.348881 0.348768 0.348282 0.347338 0.331144 
0.332068 0.324765 0.322664 0.334388 0.337345 0.327767 0.332987 0.322366 0.344248 
0.333328 0.342592 0.338179 0.34079 0.33499 0.336637 0.335329 0.33552 0.335399 
0.335265 0.334986 0.334599 0.334126 0.333613 0.333102 0.332534 0.338757 0.338743 
0.333582 0.338091 0.332593 0.331023 0.328901 0.326574 0.335626 0.335554 0.332262 
0.332561 0.33269 0.332747 0.33278 0.332783 0.332849 0.332922 0.326211 0.322979 
0.332271 0.332336 0.332426 0.332151 0.331962 0.331697 0.331224 0.330478 0.329375 
0.327733 0.337596 0.320848 0.328475 0.329704 0.329267 0.331346 0.331588 0.334165 
0.335428 0.336574 0.337716 0.337511 0.33791 0.326115 0.331672 0.337639 0.337571 
0.338013 0.337729 0.336333 0.337249 0.33771 0.338268 0.338306 0.338044 0.338124 
0.340664 0.33495 0.330718 0.342325 0.333908 0.343106 0.343375 0.343341 0.34331 
0.343044 0.342535 0.335469 0.347817 0.350248 0.350719 0.350889 0.350613 0.349575 
0.347943 0.337382 0.33125 0.330285 0.338288 0.340736 0.337551 0.331901 0.337719 
0.334472 0.345333 0.333554 0.343726 0.338623 0.338941 0.328455 0.333987 0.328643 
0.335428 0.334772 0.333992 0.333212 0.34161 0.338009 0.339891 0.339447 0.336675 
0.334594 0.336421 0.334747 0.334275 0.33387 0.333644 0.333757 0.334512 0.333599 
0.330571 0.333836 0.333781 0.333411 0.332403 0.333563 0.337595 0.334483 0.336619 
0.336057 0.335353 0.338601 0.339796 0.340097 0.339731 0.342189 0.342823 0.339107 
0.341409 0.342354 0.341925 0.341419 0.342061 0.341692 0.337722 0.335604 0.335934 
0.335925 0.333964 0.340253 0.342588 0.343111 0.34316 0.342683 0.337253 0.351714 
0.351951 0.35181 0.350532 0.336246 0.339401 0.336288 0.335038 0.334592 0.341415 
0.344065 0.339836 0.340321 0.333401 0.333007 0.343237 0.347713 0.345616 0.343313 
0.342114 0.340707 0.34948 0.334239 0.339915 0.335559 0.350472 0.337136 0.337841 
0.34544 0.336831 0.334477 0.335204 0.336084 0.335023 0.33558 0.339991 0.343282 
0.342649 0.337683 0.345244 0.343696 0.341739 0.347087 0.344476 0.345446 0.335928 
0.336049 0.337537 0.336283 0.336526 0.336698 0.336083 0.341452 0.342121 0.342094 
0.340761 0.338611 0.351809 0.334488 0.351559 0.348935 0.337229 0.344589 0.337737 
0.341627 0.344435 0.340603 0.34771 0.347066 0.339379 0.346847 0.34769 0.345414 
0.352347 0.337238 0.342008 0.338983 0.348716 0.337658 0.337484 0.339121 0.340622 
0.336495 0.350183 0.350774 0.339106 0.338397 0.346457 0.350345 0.339042 0.338819 
0.339176 0.337849 0.348538 0.348165 0.339304 0.351844 0.340647 0.2413 0.230569 
0.333301 0.8445 0.899263 0.588609 0.380679 0.350753 0.335986 0.325429 0.397555 
0.394655 0.388575 0.388261 0.387714 0.387444 0.388143 0.389177 0.389227 0.390119 
0.390504 0.389951 0.389701 0.38946 0.389742 0.391909 0.392859 0.393815 0.3953 
0.402363 0.417409 0.4295 0.593737 0.590894 0.365067 0.325475 0.313592 0.342664 
0.391502 0.389502 0.395509 0.3946 0.393055 0.396234 0.395893 0.395256 0.395089 
0.394088 0.393866 0.394869 0.397535 0.394401 0.396735 0.396218 0.397699 0.403921 
0.410611 0.421936 0.446466 0.621682 0.333318 0.333366 0.333363 0.33335 0.333347 
0.33334 0.333333 0.333322 0.333315 0.333314 0.33331 0.333298 0.333301 0.333299 
0.333298 0.333299 0.333301 0.333309 0.333309 0.333321 0.333321 0.333333 0.333342 
0.333349 0.333351 0.333351 0.333355 0.33335 0.599817 0.368672 0.326043 0.307829 
0.297682 0.292297 0.289666 0.288738 0.288821 0.289592 0.29074 0.292122 0.293758 
0.295757 0.298237 0.30164 0.306273 0.312394 0.319857 0.328813 0.338204 0.34595 
0.350781 0.351077 0.34718 0.340651 0.33333 0.327387 0.323284 0.320636 0.319375 
0.319197 0.319714 0.32077 0.322171 0.323747 0.32534 0.326813 0.328255 0.329564 
0.33072 0.331742 0.332599 0.333196 0.333421 0.333374 0.333389 0.333417 0.333178 
0.332622 0.331819 0.330757 0.329493 0.328179 0.326738 0.325167 0.323575 0.322127 
0.320772 0.319774 0.319258 0.319385 0.320727 0.323403 0.328035 0.33448 0.341483 
0.347664 0.351262 0.349915 0.344725 0.335705 0.326236 0.317549 0.310522 0.305189 
0.301124 0.297907 0.295419 0.293516 0.291872 0.290316 0.289161 0.288693 0.2887 
0.289841 0.293101 0.299402 0.310078 0.332434 0.390492 0.586059 0.422399 0.425427 
0.421942 0.427476 0.421557 0.420601 0.419472 0.384711 0.344167 0.322903 0.322789 
0.315149 0.34715 0.450638 0.565755 0.395732 0.360753 0.36931 0.42077 0.424738 
0.425133 0.328 0.321576 0.3233 0.318879 0.323564 0.334104 0.327799 0.399312 
0.556367 0.333306 0.333366 0.33338 0.333368 0.333354 0.33334 0.333333 0.333323 
0.333313 0.333309 0.333294 0.333289 0.333294 0.333296 0.333293 0.333292 0.333285 
0.333299 0.333297 0.333317 0.333325 0.333331 0.333342 0.333351 0.33336 0.333372 
0.33335 0.333347 0.577703 0.340625 0.326435 0.309001 0.298374 0.292702 0.289818 
0.28867 0.288653 0.289332 0.290422 0.291884 0.293544 0.295457 0.297802 0.300788 
0.304677 0.309663 0.316255 0.324761 0.334223 0.343118 0.349221 0.351063 0.348562 
0.342789 0.3355 0.329012 0.324323 0.321123 0.319496 0.319131 0.319546 0.320455 
0.321712 0.323184 0.324769 0.326462 0.327993 0.32935 0.330612 0.331676 0.332517 
0.333132 0.333432 0.333375 0.333378 0.333427 0.333111 0.332503 0.331662 0.330568 
0.329307 0.328009 0.326587 0.325029 0.323555 0.322046 0.320689 0.319697 0.319174 
0.319433 0.320609 0.32326 0.327636 0.333721 0.340709 0.347221 0.350748 0.35004 
0.344408 0.33595 0.32626 0.317961 0.310838 0.305053 0.300869 0.297843 0.295237 
0.293253 0.291718 0.290341 0.289288 0.288553 0.288581 0.289819 0.292508 0.298366 
0.30922 0.326701 0.357777 0.594481 0.394575 0.35623 0.322255 0.317668 0.321608 
0.321068 0.323263 0.392502 0.41636 0.418459 0.418146 0.424154 0.334374 0.405056 
0.387839 0.411283 0.341289 0.315232 0.313987 0.317218 0.31073 0.412575 0.420311 
0.420972 0.425354 0.42355 0.429113 0.413658 0.44563 0.467133 0.333352 0.333346 
0.375152 0.403527 0.40952 0.387371 0.508099 0.535942 0.423451 0.353311 0.342102 
0.322231 0.317287 0.328839 0.315539 0.296574 0.331251 0.3132 0.330885 0.311677 
0.324798 0.314802 0.32763 0.314448 0.324152 0.315254 0.31894 0.316458 0.325662 
0.315629 0.322659 0.31785 0.320862 0.315371 0.322895 0.317192 0.323112 0.315063 
0.322231 0.317346 0.320314 0.319808 0.321779 0.318855 0.315928 0.319501 0.320207 
0.320792 0.319106 0.320991 0.31994 0.325282 0.324253 0.329723 0.325291 0.342957 
0.332448 0.351928 0.366257 0.413526 0.333325 0.333283 0.333272 0.333296 0.333292 
0.333274 0.333303 0.3333 0.333279 0.33331 0.333304 0.333297 0.333319 0.333315 
0.333308 0.333331 0.333327 0.333326 0.333344 0.333337 0.333332 0.333351 0.333349 
0.333341 0.333362 0.333354 0.333356 0.333362 0.333362 0.333368 0.333366 0.333365 
0.333373 0.333373 0.333376 0.33338 0.333372 0.333374 0.33338 0.333371 0.333375 
0.333378 0.333369 0.333374 0.333378 0.333363 0.333367 0.333374 0.333363 0.333366 
0.333367 0.333353 0.333359 0.333359 0.333345 0.333348 0.333345 0.333336 0.333337 
0.33334 0.333326 0.333326 0.333335 0.33331 0.333315 0.333317 0.333302 0.333303 
0.333307 0.333291 0.333291 0.333291 0.333297 0.333288 0.333285 0.33329 0.333277 
0.333267 0.333294 0.333312 0.333349 0.333263 0.424496 0.439308 0.386193 0.359267 
0.341488 0.382237 0.328267 0.319949 0.345655 0.312558 0.308225 0.3261 0.304153 
0.301867 0.315143 0.299169 0.298074 0.30861 0.296675 0.296401 0.304625 0.295736 
0.295856 0.30261 0.295254 0.295645 0.301413 0.295731 0.296349 0.300862 0.296643 
0.297405 0.301259 0.297801 0.298689 0.301956 0.2993 0.300449 0.302915 0.301448 
0.302856 0.304467 0.304204 0.306293 0.306741 0.307957 0.310525 0.309648 0.312547 
0.316001 0.313246 0.318602 0.322339 0.317779 0.325296 0.329934 0.323294 0.332915 
0.336736 0.329377 0.339393 0.342367 0.335166 0.343964 0.345219 0.339508 0.345538 
0.34475 0.341436 0.343769 0.341423 0.340601 0.33939 0.336159 0.337377 0.334093 
0.33085 0.333105 0.329123 0.326826 0.329239 0.325478 0.323781 0.326202 0.322891 
0.321875 0.324066 0.321419 0.321035 0.322791 0.32096 0.321019 0.322313 0.321182 
0.321517 0.322434 0.321817 0.322423 0.322936 0.322928 0.323615 0.323749 0.324162 
0.324969 0.324794 0.325592 0.326325 0.325966 0.326924 0.327637 0.327186 0.328149 
0.328848 0.3283 0.329362 0.329952 0.329331 0.330416 0.330962 0.330311 0.331377 
0.331835 0.331196 0.332184 0.332559 0.331963 0.332807 0.333028 0.332569 0.333196 
0.333257 0.332963 0.329258 0.315784 0.333253 0.333004 0.332812 0.317562 0.325484 
0.33257 0.332213 0.332529 0.331856 0.331421 0.331943 0.330994 0.330373 0.331157 
0.329865 0.329237 0.330217 0.328706 0.328024 0.329171 0.327472 0.32672 0.328078 
0.32612 0.325316 0.326913 0.324739 0.323995 0.325712 0.323447 0.322804 0.324587 
0.322332 0.321718 0.323564 0.321429 0.321097 0.322764 0.320971 0.320917 0.322289 
0.321074 0.321507 0.322284 0.322077 0.323127 0.32285 0.324079 0.32583 0.324272 
0.327375 0.330105 0.326795 0.331993 0.335174 0.330347 0.337191 0.340119 0.334374 
0.341966 0.344189 0.338202 0.344878 0.345462 0.341055 0.34493 0.343363 0.341201 
0.341521 0.337978 0.338572 0.334935 0.330288 0.333362 0.327337 0.32313 0.327129 
0.320197 0.316077 0.321039 0.313712 0.310815 0.315703 0.308868 0.306432 0.311418 
0.305072 0.30331 0.30806 0.302228 0.300714 0.305604 0.299835 0.298729 0.303643 
0.298067 0.297146 0.302112 0.296667 0.295893 0.300929 0.295767 0.295072 0.3003 
0.295317 0.294843 0.300291 0.295245 0.295273 0.30082 0.296019 0.296376 0.302031 
0.298083 0.299392 0.304416 0.302665 0.305363 0.308942 0.310164 0.3152 0.316511 
0.323528 0.33266 0.328394 0.345877 0.368795 0.349001 0.393509 0.452455 0.380346 
0.354345 0.378084 0.337365 0.335198 0.325448 0.360358 0.317151 0.309196 0.341826 
0.305805 0.306295 0.334842 0.296734 0.291966 0.327942 0.292237 0.290436 0.326347 
0.291518 0.290225 0.321584 0.289093 0.289303 0.321108 0.288316 0.28851 0.32097 
0.290719 0.289553 0.320407 0.289388 0.288924 0.320119 0.289974 0.289827 0.320229 
0.29045 0.289884 0.320035 0.290701 0.289944 0.320515 0.289494 0.288828 0.321492 
0.289428 0.288459 0.321204 0.289572 0.289593 0.320327 0.288436 0.289291 0.320238 
0.290191 0.29079 0.320515 0.290507 0.291841 0.320817 0.291168 0.293236 0.322859 
0.293777 0.296962 0.325359 0.297513 0.303799 0.329509 0.309232 0.319146 0.338408 
0.329611 0.361275 0.356004 0.338927 0.400262 0.323148 0.317985 0.37399 0.31702 
0.31897 0.353915 0.315052 0.316452 0.344544 0.313447 0.314089 0.339981 0.312042 
0.313272 0.33805 0.309628 0.311572 0.337204 0.310056 0.308967 0.337308 0.314583 
0.314177 0.340167 0.314853 0.315095 0.341332 0.315017 0.314231 0.343236 0.320182 
0.316374 0.345068 0.321866 0.329437 0.354403 0.382683 0.329193 0.372161 0.251571 
0.272184 0.338219 0.387922 0.321139 0.327888 0.34928 0.311379 0.317786 0.336359 
0.313756 0.329183 0.328451 0.31277 0.316216 0.341652 0.312832 0.313341 0.341127 
0.317311 0.31498 0.342825 0.31607 0.315554 0.342507 0.315074 0.313629 0.342104 
0.316422 0.314671 0.343745 0.318617 0.313435 0.345029 0.321129 0.316456 0.349275 
0.339705 0.318297 0.356607 0.355855 0.33898 0.377355 0.246627 0.269615 0.333297 
0.372809 0.311603 0.296615 0.411193 0.2967 0.28413 0.308829 0.294915 0.30286 
0.291714 0.31348 0.269388 0.296624 0.297269 0.388459 0.374847 0.32412 0.31608 
0.333168 0.333183 0.333186 0.33319 0.33311 0.333221 0.33324 0.333155 0.333274 
0.333295 0.333228 0.333341 0.333352 0.333301 0.333394 0.333404 0.333383 0.333433 
0.333446 0.333445 0.333476 0.33348 0.333504 0.333498 0.333505 0.333551 0.333522 
0.333528 0.333589 0.333532 0.333534 0.333604 0.333537 0.333538 0.333613 0.333531 
0.333532 0.333612 0.333524 0.333523 0.333602 0.333504 0.333499 0.333579 0.333474 
0.333465 0.333539 0.333438 0.333422 0.333492 0.333394 0.333382 0.333441 0.333345 
0.333327 0.333379 0.333291 0.333273 0.333307 0.333228 0.333212 0.333215 0.333185 
0.333169 0.333147 0.333152 0.333147 0.333089 0.333147 0.333125 0.333057 0.33432 
0.338557 0.392514 0.364545 0.365812 0.333151 0.360148 0.345804 0.33886 0.330839 
0.345411 0.32609 0.321662 0.333605 0.318381 0.31539 0.325759 0.312783 0.311195 
0.320103 0.309399 0.308627 0.315954 0.307548 0.306862 0.313143 0.306228 0.306314 
0.31159 0.30597 0.30629 0.310683 0.306133 0.306537 0.310362 0.306776 0.307405 
0.31054 0.307686 0.308706 0.311088 0.309156 0.310543 0.311883 0.311301 0.31297 
0.313174 0.313891 0.3159 0.314938 0.317114 0.319663 0.31722 0.321296 0.324144 
0.320083 0.326148 0.32889 0.323717 0.331013 0.333206 0.327907 0.335044 0.336368 
0.331858 0.337263 0.337683 0.33468 0.337363 0.336702 0.335216 0.335275 0.33353 
0.33344 0.332026 0.330185 0.330378 0.32916 0.327484 0.327948 0.3268 0.325536 
0.326256 0.325144 0.324232 0.325117 0.324118 0.323611 0.324551 0.323662 0.323534 
0.324429 0.323674 0.323793 0.324592 0.324017 0.324291 0.324923 0.324629 0.325106 
0.325487 0.325488 0.326005 0.326212 0.326455 0.327061 0.327064 0.327505 0.3281 
0.327976 0.328478 0.328999 0.328816 0.329355 0.329861 0.329575 0.330227 0.330686 
0.330317 0.331036 0.331441 0.331042 0.331762 0.332095 0.331705 0.332364 0.332619 
0.332273 0.332846 0.333027 0.332753 0.301046 0.333999 0.388945 0.366236 0.360239 
0.332593 0.33234 0.332077 0.331712 0.332209 0.331401 0.330958 0.331617 0.330605 
0.330083 0.330927 0.32969 0.329137 0.330145 0.328765 0.328184 0.329328 0.327758 
0.327143 0.328464 0.326724 0.326139 0.327575 0.325742 0.325208 0.326706 0.324859 
0.324396 0.325901 0.324087 0.323791 0.325192 0.323551 0.323433 0.324591 0.323356 
0.323567 0.324259 0.323604 0.32427 0.32424 0.324466 0.325536 0.324665 0.32606 
0.327548 0.325515 0.328514 0.330209 0.326984 0.33142 0.332984 0.32906 0.334553 
0.335854 0.331572 0.33702 0.337797 0.334476 0.337748 0.337429 0.335679 0.335971 
0.334182 0.33432 0.331879 0.328857 0.330464 0.326907 0.323945 0.325856 0.322227 
0.319194 0.321946 0.317699 0.315182 0.318415 0.314175 0.312112 0.315579 0.311357 
0.30985 0.313528 0.3093 0.30808 0.312048 0.307663 0.306718 0.310864 0.306444 
0.305716 0.310025 0.305698 0.305169 0.309618 0.305349 0.30517 0.309577 0.305628 
0.305793 0.310049 0.306594 0.306994 0.311093 0.308216 0.309007 0.312995 0.311021 
0.312972 0.31588 0.315903 0.319754 0.32066 0.323496 0.328677 0.327391 0.334031 
0.343752 0.336573 0.350282 0.367532 0.363897 0.349676 0.333103 0.348429 0.355624 
0.33794 0.331987 0.320972 0.319286 0.343019 0.318186 0.32319 0.334814 0.31823 
0.317676 0.330343 0.317822 0.318047 0.325315 0.316644 0.316171 0.322978 0.315606 
0.315186 0.322041 0.314263 0.315311 0.321229 0.314725 0.315543 0.320733 0.314161 
0.315194 0.320804 0.314284 0.314981 0.320553 0.31493 0.315316 0.320281 0.314867 
0.314603 0.320352 0.314925 0.314549 0.320496 0.314641 0.314944 0.320684 0.314707 
0.314748 0.320904 0.314006 0.315413 0.321044 0.315761 0.31605 0.321921 0.316857 
0.317404 0.32337 0.319489 0.320263 0.326123 0.324596 0.326363 0.330866 0.332538 
0.338418 0.338985 0.352208 0.339896 0.347278 0.349564 0.330702 0.29532 0.328272 
0.347504 0.33669 0.332826 0.351693 0.335226 0.336568 0.344544 0.33404 0.334128 
0.33979 0.33313 0.33326 0.338135 0.333267 0.333083 0.337808 0.334731 0.333918 
0.337836 0.336693 0.335651 0.338751 0.337432 0.336824 0.340407 0.341658 0.340011 
0.343346 0.340937 0.344766 0.34743 0.344056 0.345046 0.350181 0.311635 0.317432 
0.328523 0.292958 0.331992 0.333557 0.315704 0.333731 0.297989 0.345796 0.34593 
0.338174 0.338404 0.334639 0.33425 0.344128 0.33562 0.333582 0.343144 0.336843 
0.337256 0.341255 0.337983 0.338462 0.341404 0.338921 0.338901 0.342398 0.340566 
0.341048 0.344282 0.342992 0.343379 0.346953 0.347327 0.347608 0.350309 0.341241 
0.356314 0.349948 0.305103 0.315329 0.333109 0.341225 0.342367 0.349235 0.334925 
0.343235 0.348807 0.344543 0.314113 0.301658 0.333085 0.333105 0.333092 0.332983 
0.362012 0.305414 0.319094 0.332824 0.317897 0.299265 0.333033 0.354197 0.327591 
0.333203 0.317855 0.309544 0.317904 0.302178 0.309853 0.314696 0.299147 0.323384 
0.312004 0.332717 0.338993 0.339369 0.35362 0.332988 0.333031 0.3331 0.333162 
0.332972 0.333247 0.333314 0.333156 0.333401 0.333456 0.333354 0.333534 0.333583 
0.333549 0.33364 0.333682 0.333693 0.333725 0.333749 0.333812 0.333783 0.333802 
0.333898 0.333823 0.333833 0.333962 0.33385 0.333861 0.334003 0.333869 0.333865 
0.334032 0.333851 0.333847 0.334031 0.333816 0.33379 0.333984 0.333745 0.333714 
0.333902 0.333663 0.33362 0.333795 0.333555 0.333506 0.333666 0.333441 0.333383 
0.333519 0.333307 0.333242 0.33335 0.333162 0.333102 0.333165 0.333024 0.332972 
0.332974 0.33292 0.332896 0.332827 0.33994 0.340983 0.341498 0.34199 0.343028 
0.342949 0.350664 0.343296 0.340786 0.335435 0.3424 0.333018 0.329414 0.336672 
0.327453 0.324489 0.331863 0.32248 0.320445 0.327598 0.318928 0.317833 0.323966 
0.316988 0.316319 0.321558 0.315615 0.315362 0.32014 0.314857 0.314709 0.31905 
0.314422 0.314735 0.318371 0.314547 0.314903 0.317995 0.314781 0.315356 0.317861 
0.315283 0.316165 0.317851 0.316161 0.317222 0.317982 0.317374 0.318721 0.318344 
0.31894 0.3206 0.318877 0.321505 0.323241 0.319731 0.325329 0.327014 0.322382 
0.328652 0.329836 0.325863 0.331891 0.332708 0.329319 0.332646 0.332832 0.331628 
0.331491 0.330462 0.330043 0.328416 0.327268 0.327032 0.326544 0.325747 0.324542 
0.325692 0.324993 0.324184 0.325152 0.324718 0.32435 0.325015 0.324789 0.32479 
0.325203 0.325141 0.325406 0.325508 0.325583 0.326049 0.325905 0.326094 0.326642 
0.32638 0.32669 0.327189 0.327007 0.327374 0.327764 0.327708 0.328147 0.32841 
0.328472 0.328915 0.329068 0.329194 0.329576 0.32967 0.329831 0.330193 0.330204 
0.330435 0.330801 0.33071 0.331042 0.331383 0.331206 0.331653 0.331961 0.331725 
0.332187 0.33245 0.33222 0.332649 0.332863 0.332957 0.332629 0.358199 0.351999 
0.348439 0.348176 0.319392 0.312657 0.347094 0.343734 0.331895 0.33156 0.331325 
0.330943 0.331633 0.330673 0.330245 0.331097 0.329973 0.329545 0.330517 0.329287 
0.328833 0.329934 0.328496 0.328059 0.32932 0.327744 0.32733 0.328645 0.327019 
0.326674 0.328005 0.326361 0.326055 0.327379 0.325754 0.325539 0.326771 0.325229 
0.3252 0.326186 0.324894 0.325022 0.325624 0.324762 0.325127 0.325125 0.324834 
0.325469 0.324593 0.325575 0.326429 0.324444 0.326469 0.32732 0.324606 0.328695 
0.329368 0.325512 0.331532 0.332417 0.328677 0.333169 0.333524 0.331742 0.332619 
0.331643 0.331529 0.328955 0.32698 0.328318 0.324763 0.322696 0.323421 0.321868 
0.320087 0.320856 0.319415 0.317684 0.319324 0.317273 0.31608 0.318012 0.316112 
0.315152 0.317426 0.315165 0.314447 0.31737 0.314436 0.313891 0.317246 0.313965 
0.313636 0.317158 0.313814 0.313709 0.317291 0.314072 0.314188 0.317744 0.314913 
0.315426 0.318699 0.316257 0.317048 0.320217 0.318081 0.319247 0.321987 0.320762 
0.322707 0.324423 0.32533 0.328837 0.328146 0.3309 0.335297 0.333439 0.337485 
0.34417 0.338429 0.342622 0.342811 0.344978 0.33748 0.319555 0.329134 0.334102 
0.332426 0.340774 0.330868 0.329383 0.335816 0.328447 0.327117 0.332481 0.326222 
0.325485 0.330303 0.32488 0.324369 0.328637 0.32403 0.32372 0.327444 0.323485 
0.323452 0.326754 0.323171 0.32316 0.326236 0.322933 0.322934 0.325876 0.32279 
0.322845 0.325682 0.322759 0.322712 0.325529 0.322776 0.322864 0.325587 0.323009 
0.323134 0.325807 0.323196 0.323417 0.326116 0.323268 0.323706 0.326291 0.323844 
0.324567 0.326754 0.325158 0.326241 0.327903 0.327511 0.329328 0.330215 0.331486 
0.334321 0.334118 0.337438 0.34232 0.347776 0.339563 0.344646 0.345196 0.344615 
0.338693 0.33876 0.340662 0.339042 0.338911 0.34057 0.340065 0.339451 0.340927 
0.341523 0.34065 0.342019 0.343776 0.342493 0.343661 0.345037 0.34491 0.345239 
0.342724 0.346747 0.344399 0.327021 0.335645 0.336205 0.3271 0.327023 0.316347 
0.322394 0.332858 0.312608 0.315429 0.313711 0.325345 0.343868 0.344436 0.343416 
0.343063 0.345358 0.344361 0.34386 0.346006 0.345502 0.344891 0.346853 0.346906 
0.346417 0.347695 0.347192 0.347923 0.347904 0.341728 0.34702 0.344451 0.310299 
0.311025 0.342875 0.343438 0.345747 0.345097 0.332953 0.324989 0.327048 0.323951 
0.315489 0.332401 0.332118 0.332117 0.35567 0.349344 0.345905 0.346394 0.313108 
0.316135 0.332843 0.328555 0.33288 0.332885 0.315715 0.318386 0.320757 0.331466 
0.326178 0.338414 0.332748 0.332829 0.332576 0.318731 0.347338 0.345612 0.346811 
0.336003 0.345531 0.321453 0.344387 0.346813 0.344002 0.326238 0.326063 0.32766 
0.335256 0.322632 0.319872 0.320828 0.314947 0.315761 0.332349 0.32713 0.346776 
0.345505 0.345601 0.317961 0.314067 0.318884 0.332541 0.328941 0.329128 0.331483 
0.333005 0.333146 0.333297 0.333433 0.333178 0.333569 0.333694 0.333536 0.333821 
0.333917 0.333857 0.33401 0.334073 0.334112 0.334135 0.334183 0.334298 0.334219 
0.33425 0.334415 0.334296 0.334325 0.33451 0.334365 0.334386 0.33461 0.334377 
0.334363 0.334649 0.334316 0.334274 0.334592 0.334209 0.334143 0.334465 0.334059 
0.333981 0.334296 0.333875 0.333771 0.334074 0.333653 0.333541 0.333805 0.333414 
0.333291 0.333514 0.333149 0.33302 0.333192 0.332884 0.332774 0.332862 0.332662 
0.332588 0.332573 0.341784 0.342146 0.342542 0.34295 0.343381 0.344413 0.317506 
0.321935 0.34055 0.337294 0.336401 0.333729 0.337966 0.33273 0.330252 0.335248 
0.32911 0.327387 0.332628 0.326455 0.325539 0.330296 0.324782 0.324074 0.328576 
0.323411 0.322958 0.327209 0.322404 0.322135 0.32614 0.321634 0.32156 0.325177 
0.321056 0.321054 0.324352 0.320433 0.320505 0.323431 0.319822 0.319977 0.322365 
0.319406 0.319692 0.321398 0.318971 0.319314 0.320297 0.318317 0.318972 0.318368 
0.319965 0.321864 0.322683 0.326515 0.327484 0.330373 0.330839 0.326014 0.324426 
0.322794 0.322783 0.323727 0.323792 0.32247 0.324768 0.324888 0.324209 0.325746 
0.326033 0.325782 0.326708 0.326978 0.327146 0.327469 0.32772 0.328175 0.328055 
0.328292 0.328877 0.328631 0.328919 0.329464 0.329242 0.329556 0.330068 0.329783 
0.330093 0.330576 0.330256 0.330526 0.330934 0.330659 0.330908 0.331213 0.331025 
0.331269 0.331457 0.331402 0.331639 0.331707 0.331765 0.332028 0.331969 0.33229 
0.33251 0.332383 0.346624 0.343112 0.342382 0.341436 0.341344 0.341372 0.34152 
0.342996 0.342802 0.331594 0.331304 0.331141 0.330827 0.331623 0.330654 0.330362 
0.331264 0.330184 0.329848 0.330899 0.329622 0.329311 0.330494 0.329057 0.328768 
0.330028 0.328465 0.328179 0.329505 0.32781 0.327555 0.328888 0.327148 0.326909 
0.328203 0.326429 0.326234 0.327449 0.325498 0.325338 0.326417 0.324454 0.324365 
0.325115 0.322902 0.322762 0.322941 0.322162 0.322717 0.32563 0.326252 0.330107 
0.328588 0.32678 0.320795 0.319276 0.319772 0.319007 0.318128 0.319324 0.318581 
0.318839 0.319033 0.318485 0.31935 0.319319 0.319175 0.319969 0.319943 0.319813 
0.321492 0.320211 0.320129 0.322558 0.320465 0.320479 0.323186 0.320948 0.321123 
0.32393 0.321711 0.322172 0.324926 0.322845 0.32363 0.326207 0.324349 0.325313 
0.327619 0.326122 0.327214 0.329164 0.328166 0.329922 0.331032 0.330616 0.333605 
0.333174 0.335893 0.337985 0.336705 0.339136 0.342343 0.341599 0.339286 0.347162 
0.346992 0.339525 0.333475 0.343465 0.343351 0.343464 0.339791 0.338248 0.33607 
0.341424 0.335075 0.333838 0.338492 0.332954 0.33198 0.331449 0.330737 0.334786 
0.330354 0.329912 0.33374 0.329696 0.329362 0.332898 0.329137 0.328962 0.332387 
0.328626 0.328518 0.331767 0.328332 0.32826 0.33127 0.328174 0.328151 0.33104 
0.328254 0.328332 0.3311 0.328515 0.328683 0.331447 0.328762 0.328918 0.331766 
0.328933 0.329095 0.331923 0.329155 0.329605 0.332142 0.329822 0.3307 0.332672 
0.331684 0.333114 0.334021 0.334603 0.336592 0.33679 0.341698 0.341567 0.342775 
0.3159 0.316024 0.317398 0.342362 0.341929 0.343084 0.343187 0.342895 0.34354 
0.343437 0.343849 0.343678 0.341598 0.343434 0.342316 0.321344 0.326273 0.331998 
0.331739 0.331939 0.322782 0.346747 0.346666 0.348891 0.347761 0.347952 0.346348 
0.347558 0.347844 0.341282 0.344755 0.34437 0.329202 0.335529 0.336345 0.344584 
0.340964 0.340022 0.341645 0.332739 0.332849 0.332545 0.33328 0.338267 0.33766 
0.3293 0.347657 0.347487 0.349109 0.348959 0.321059 0.332396 0.332652 0.332805 
0.336355 0.320011 0.318592 0.337627 0.315339 0.3185 0.317046 0.326778 0.321335 
0.34781 0.342451 0.343451 0.342216 0.343512 0.340337 0.331731 0.327529 0.322686 
0.325231 0.32218 0.33865 0.348416 0.346383 0.346508 0.320206 0.339804 0.34727 
0.347382 0.320128 0.318949 0.321248 0.345907 0.346956 0.34708 0.348704 0.348452 
0.32981 0.324184 0.325131 0.332152 0.33226 0.342893 0.342949 0.333488 0.333698 
0.333925 0.334119 0.333911 0.334305 0.334451 0.334396 0.334554 0.334643 0.334743 
0.334712 0.334768 0.334951 0.334783 0.334851 0.335058 0.334985 0.33505 0.335241 
0.335082 0.33508 0.335427 0.335027 0.334963 0.335408 0.334866 0.334775 0.335236 
0.334654 0.334531 0.334994 0.334383 0.334222 0.334682 0.334034 0.333848 0.334286 
0.333653 0.333457 0.333827 0.333247 0.333036 0.333351 0.332807 0.332609 0.332842 
0.332407 0.340067 0.336019 0.332349 0.339061 0.338035 0.336399 0.336145 0.334532 
0.33775 0.334041 0.33297 0.336562 0.332453 0.331586 0.33527 0.33115 0.330297 
0.334153 0.330022 0.329409 0.333149 0.328809 0.328307 0.332172 0.327703 0.327276 
0.330969 0.32659 0.326077 0.329792 0.325039 0.324464 0.328222 0.323097 0.322497 
0.325959 0.322158 0.32128 0.324412 0.319339 0.323867 0.324594 0.326033 0.326648 
0.326108 0.327795 0.328315 0.328399 0.329096 0.329482 0.330094 0.329923 0.330191 
0.331066 0.330228 0.330519 0.331355 0.330967 0.331249 0.331796 0.331422 0.331624 
0.332338 0.331656 0.331801 0.332482 0.331808 0.331931 0.332483 0.331941 0.33205 
0.33248 0.332069 0.332192 0.332491 0.332237 0.332347 0.332529 0.332183 0.33202 
0.32222 0.343077 0.343117 0.331932 0.331718 0.332447 0.331655 0.331475 0.332282 
0.331389 0.331177 0.332141 0.331038 0.330819 0.331955 0.330584 0.330341 0.331655 
0.33 0.329703 0.331177 0.329132 0.328808 0.330381 0.328532 0.32818 0.329645 
0.327443 0.326878 0.32886 0.325718 0.325046 0.32727 0.322726 0.34298 0.34289 
0.343673 0.320199 0.321281 0.32352 0.324116 0.323683 0.325009 0.325309 0.327042 
0.326022 0.32634 0.328432 0.327013 0.327548 0.329686 0.3283 0.328971 0.331069 
0.329551 0.330384 0.332439 0.330931 0.331841 0.333665 0.332269 0.333344 0.33484 
0.333715 0.335095 0.33588 0.335279 0.336397 0.336851 0.337789 0.338381 0.339028 
0.342474 0.339081 0.336387 0.335896 0.339792 0.33566 0.335232 0.338135 0.335249 
0.335038 0.337943 0.334956 0.334756 0.337892 0.334493 0.334254 0.337587 0.333517 
0.333362 0.336594 0.333811 0.333775 0.336421 0.333296 0.333381 0.336396 0.334104 
0.334226 0.336471 0.334265 0.334383 0.337352 0.334262 0.334341 0.337275 0.334191 
0.334389 0.336987 0.334307 0.334674 0.33687 0.334765 0.335677 0.336865 0.342587 
0.343088 0.342893 0.340841 0.34211 0.341633 0.332343 0.332196 0.3224 0.327107 
0.347715 0.347099 0.345898 0.34806 0.339484 0.337866 0.338409 0.334797 0.339506 
0.342921 0.34286 0.349528 0.349546 0.342939 0.345426 0.340714 0.347117 0.34838 
0.346023 0.33878 0.333021 0.333258 0.333378 0.33761 0.336803 0.342789 0.342357 
0.342835 0.323466 0.337925 0.338526 0.332565 0.332806 0.349005 0.348956 0.349451 
0.343479 0.336857 0.334919 0.330654 0.33755 0.332537 0.349605 0.350853 0.349418 
0.320308 0.319087 0.342862 0.342883 0.343363 0.341947 0.340937 0.341547 0.342895 
0.342878 0.343539 0.343605 0.348892 0.348734 0.324364 0.322476 0.324611 0.325561 
0.337932 0.34934 0.320071 0.325646 0.338366 0.349552 0.349324 0.350842 0.338949 
0.338712 0.336063 0.324685 0.32615 0.327614 0.332846 0.326736 0.330363 0.333727 
0.327166 0.347155 0.345482 0.34848 0.328257 0.332205 0.333707 0.327811 0.344053 
0.337937 0.338656 0.338482 0.334515 0.334785 0.335241 0.335334 0.335492 0.335521 
0.335797 0.335696 0.320833 0.326127 0.335926 0.335987 0.336224 0.335962 0.335894 
0.336458 0.335727 0.335598 0.336262 0.335428 0.33526 0.335873 0.335074 0.334862 
0.335464 0.334609 0.334335 0.334954 0.334039 0.333757 0.334315 0.333485 0.333194 
0.33365 0.332854 0.339254 0.338562 0.339342 0.342334 0.341793 0.339001 0.338144 
0.339929 0.338093 0.337377 0.339852 0.337316 0.33657 0.339384 0.336421 0.335883 
0.338926 0.335505 0.334779 0.338278 0.334084 0.333424 0.337087 0.332826 0.332181 
0.335762 0.331428 0.330515 0.334516 0.328483 0.327325 0.339066 0.32916 0.330025 
0.329675 0.331118 0.331738 0.332245 0.332628 0.333622 0.332715 0.332694 0.334006 
0.333053 0.320666 0.322732 0.333311 0.33345 0.334267 0.333414 0.333414 0.334392 
0.333248 0.333236 0.334111 0.333062 0.333056 0.33373 0.332925 0.33292 0.333404 
0.339281 0.342374 0.327806 0.327314 0.329823 0.340659 0.341639 0.343101 0.34313 
0.33293 0.332865 0.332935 0.332858 0.33356 0.332856 0.332753 0.333655 0.332708 
0.332535 0.33366 0.332349 0.332102 0.333523 0.331582 0.331123 0.332963 0.33092 
0.303563 0.32188 0.330393 0.329822 0.332108 0.328607 0.345794 0.343075 0.319864 
0.331067 0.331719 0.332009 0.33275 0.334641 0.333991 0.33481 0.336176 0.335207 
0.335888 0.337763 0.336216 0.336911 0.338522 0.337079 0.337866 0.339175 0.337724 
0.338541 0.339439 0.33806 0.338883 0.339235 0.34243 0.342864 0.341634 0.33887 
0.338943 0.339323 0.339387 0.340971 0.339605 0.339664 0.341686 0.339711 0.339681 
0.342236 0.339417 0.338775 0.342059 0.339253 0.319264 0.322808 0.33938 0.338904 
0.342165 0.339527 0.322513 0.323747 0.339657 0.339588 0.342416 0.339282 0.339159 
0.342127 0.338656 0.338543 0.341212 0.338049 0.338107 0.340179 0.337644 0.342882 
0.345167 0.347068 0.343671 0.349535 0.350431 0.322408 0.322193 0.33317 0.333492 
0.332954 0.335016 0.335173 0.335531 0.335169 0.339944 0.337559 0.339369 0.342549 
0.342191 0.342787 0.350411 0.331956 0.342908 0.33385 0.334177 0.33372 0.33459 
0.331187 0.33037 0.335523 0.332319 0.335523 0.337358 0.332834 0.334516 0.332957 
0.332856 0.333418 0.333344 0.341079 0.340098 0.340859 0.343217 0.343204 0.343246 
0.339303 0.339349 0.337534 0.330639 0.326568 0.324112 0.34808 0.348635 0.349711 
0.329954 0.333289 0.329179 0.351271 0.351176 0.33863 0.340026 0.339281 0.350965 
0.351085 0.351993 0.349554 0.348033 0.338468 0.332935 0.330046 0.347299 0.318684 
0.328232 0.33669 0.336998 0.322322 0.325328 0.337112 0.3371 0.337646 0.336939 
0.336716 0.33762 0.33637 0.336147 0.337041 0.33596 0.335699 0.336427 0.335332 
0.334982 0.335797 0.334548 0.334154 0.334893 0.339646 0.331647 0.332587 0.335196 
0.332593 0.34154 0.341259 0.341227 0.340983 0.342609 0.341551 0.34121 0.342889 
0.3412 0.340657 0.343339 0.340083 0.339277 0.342707 0.338368 0.337707 0.341183 
0.338043 0.340865 0.341488 0.333877 0.335127 0.335513 0.339773 0.336369 0.331939 
0.33554 0.335552 0.337131 0.270299 0.359884 0.322289 0.327717 0.335434 0.335594 
0.33692 0.335295 0.335244 0.336415 0.350344 0.350856 0.351515 0.350497 0.334482 
0.334507 0.334486 0.334478 0.33533 0.33452 0.334128 0.335538 0.337059 0.336783 
0.333734 0.333337 0.334651 0.340522 0.340934 0.340845 0.343166 0.343034 0.342864 
0.343243 0.348232 0.346233 0.352061 0.351107 0.338162 0.339345 0.3404 0.340924 
0.342261 0.340462 0.341005 0.342833 0.341049 0.341425 0.342732 0.340811 0.341017 
0.33992 0.340509 0.341389 0.342415 0.342868 0.343159 0.343598 0.343922 0.345305 
0.344001 0.343932 0.346314 0.34437 0.344423 0.350496 0.350665 0.341817 0.341986 
0.342303 0.341149 0.340427 0.334387 0.334847 0.334168 0.335999 0.336216 0.336967 
0.352107 0.351729 0.351135 0.350067 0.349592 0.351694 0.333684 0.333778 0.334635 
0.335365 0.335388 0.342121 0.342667 0.342749 0.334178 0.334245 0.336876 0.335082 
0.347363 0.344762 0.334873 0.334689 0.335708 0.334375 0.335019 0.340856 0.33999 
0.335047 0.335897 0.334744 0.334628 0.335866 0.34215 0.333885 0.342604 0.342989 
0.34549 0.34224 0.339519 0.339432 0.344606 0.343089 0.335713 0.344994 0.343793 
0.343388 0.346353 0.34252 0.342014 0.344697 0.340957 0.339962 0.351929 0.352104 
0.352291 0.341326 0.335406 0.336509 0.347 0.347612 0.349094 0.342754 0.337856 
0.335582 0.333964 0.347699 0.336309 0.336615 0.335706 0.33458 0.338232 0.338494 
0.337039 0.338734 0.338633 0.337585 0.337246 0.343163 0.3382 0.336257 0.335938 
0.338585 0.340012 0.340584 0.343454 0.344599 0.344945 0.336117 0.336334 0.336501 
0.336204 0.338378 0.338504 0.338406 0.338169 0.339186 0.337586 0.337138 0.338372 
0.336265 0.335775 0.342217 0.341895 0.340945 0.344096 0.344114 0.344516 0.342335 
0.342628 0.342491 0.344498 0.345358 0.345184 0.346066 0.34514 0.344585 0.34686 
0.343446 0.337461 0.349831 0.34849 0.336887 0.337462 0.347674 0.34866 0.347893 
0.346614 0.336665 0.338305 0.338094 0.338747 0.350306 0.35104 0.350156 0.335556 
0.335809 0.338153 0.339097 0.338109 0.345642 0.345859 0.348922 0.348416 0.340389 
0.341337 0.347773 0.344546 0.338297 0.339298 0.339026 0.351661 0.337069 0.337055 
0.350198 0.349575 0.346036 0.337697 0.347436 0.346723 0.345409 0.349342 0.350983 
0.336495 0.347196 0.347014 0.33512 0.336902 0.336997 0.344703 0.339735 0.339379 
0.338589 0.350729 0.341634 0.348486 0.349384 0.350382 0.350013 0.348996 0.338469 
0.353641 0.351776 0.340123 0.339932 0.347547 0.34853 0.340447 0.445655 0.341897 
0.3367 0.341557 0.340796 0.341249 0.337819 0.337109 0.351953 0.352079 0.339894 
0.338592 0.339394 0.339556 0.351446 0.335905 0.325479 0.337511 0.35105 0.351481 
0.350869 0.340013 0.3517 0.340921 0.333059 0.320708 0.33334 0.33327 0.333293 
0.333276 0.333287 0.333262 0.333285 0.33329 0.333259 0.3333 0.333305 0.333286 
0.333314 0.333316 0.333304 0.333326 0.333326 0.333319 0.333334 0.33334 0.333336 
0.333346 0.33335 0.333344 0.333356 0.333357 0.333347 0.333368 0.333369 0.333352 
0.333366 0.333369 0.333369 0.333372 0.333377 0.333365 0.333375 0.333377 0.333369 
0.333377 0.333378 0.333369 0.333376 0.333376 0.333371 0.333368 0.33337 0.333369 
0.333367 0.333364 0.333362 0.333358 0.333358 0.333358 0.333345 0.333344 0.333352 
0.333334 0.333333 0.333338 0.333328 0.333325 0.333337 0.333316 0.333312 0.333319 
0.333302 0.333301 0.333299 0.33329 0.333291 0.333292 0.33329 0.333287 0.333281 
0.333298 0.333295 0.333269 0.333316 0.333318 0.333284 0.333352 0.369303 0.395713 
0.460344 0.347551 0.36942 0.378887 0.324235 0.333863 0.349031 0.311052 0.315942 
0.330323 0.303258 0.30576 0.317799 0.298724 0.300096 0.309843 0.296645 0.297038 
0.305293 0.295698 0.295627 0.302726 0.295862 0.295444 0.301559 0.296254 0.295665 
0.3012 0.297225 0.296442 0.301215 0.298747 0.297818 0.302062 0.300584 0.299481 
0.303407 0.302855 0.30148 0.305006 0.305723 0.303957 0.306965 0.309408 0.307121 
0.30939 0.313889 0.311115 0.312412 0.319772 0.316086 0.316267 0.326551 0.322285 
0.320933 0.333959 0.329643 0.326653 0.340122 0.336616 0.332532 0.343823 0.342028 
0.337314 0.344509 0.344586 0.340171 0.341999 0.343821 0.340248 0.337546 0.340512 
0.337889 0.332301 0.33559 0.334152 0.327844 0.330443 0.330152 0.324521 0.326449 
0.326889 0.322316 0.323598 0.324565 0.321284 0.321786 0.323161 0.321053 0.321098 
0.322501 0.321446 0.321149 0.322461 0.322263 0.321777 0.322923 0.323394 0.32271 
0.32373 0.324607 0.323906 0.324703 0.326005 0.325187 0.325805 0.327398 0.326586 
0.326963 0.328632 0.327946 0.328108 0.329852 0.329196 0.329233 0.330902 0.330323 
0.330272 0.331781 0.331319 0.331167 0.332489 0.332131 0.331931 0.333009 0.332754 
0.33254 0.413209 0.333167 0.333261 0.333228 0.33275 0.332989 0.332956 0.332096 
0.332461 0.332479 0.331253 0.331728 0.33182 0.330218 0.330834 0.33102 0.329059 
0.3297 0.330071 0.32787 0.328531 0.32901 0.326581 0.327339 0.327934 0.325225 
0.325997 0.32679 0.323981 0.324675 0.325629 0.322718 0.323463 0.324532 0.321711 
0.322245 0.323529 0.321059 0.321404 0.322686 0.320894 0.320933 0.32221 0.321374 
0.321022 0.322146 0.32283 0.321915 0.322771 0.325492 0.323787 0.324166 0.329649 
0.326995 0.326501 0.334559 0.331542 0.329899 0.339967 0.336727 0.333996 0.344196 
0.34168 0.338165 0.345317 0.344668 0.340732 0.342983 0.344602 0.341067 0.33807 
0.341114 0.338478 0.330566 0.335106 0.333528 0.32331 0.327635 0.327711 0.316665 
0.32047 0.321588 0.310999 0.31425 0.316068 0.306438 0.309052 0.311605 0.303228 
0.304976 0.308209 0.300593 0.302081 0.30558 0.298397 0.299593 0.30347 0.297029 
0.297885 0.301934 0.295885 0.296614 0.300992 0.294929 0.295558 0.300219 0.29476 
0.295058 0.300038 0.295245 0.295276 0.300715 0.296457 0.29617 0.302128 0.299413 
0.29821 0.304719 0.303914 0.301691 0.308769 0.313188 0.308371 0.315383 0.329643 
0.321107 0.327397 0.360288 0.343981 0.348561 0.431219 0.394388 0.387037 0.46593 
0.327751 0.357529 0.311128 0.32694 0.338857 0.300614 0.310479 0.323774 0.279464 
0.301559 0.314611 0.294507 0.308011 0.322409 0.293965 0.29838 0.32712 0.291166 
0.295314 0.322226 0.291567 0.292262 0.323524 0.290751 0.291121 0.322734 0.288019 
0.290313 0.322646 0.289842 0.290198 0.324125 0.28994 0.290968 0.322772 0.28883 
0.290105 0.321997 0.289367 0.290723 0.32198 0.289426 0.290429 0.321506 0.289823 
0.291337 0.321256 0.289748 0.291052 0.321206 0.29108 0.290038 0.322538 0.289743 
0.289978 0.322013 0.292148 0.290733 0.322538 0.293936 0.291332 0.322505 0.296774 
0.293625 0.325164 0.303109 0.297518 0.329432 0.310728 0.303575 0.335324 0.325122 
0.312367 0.346098 0.360049 0.336851 0.365628 0.397077 0.387461 0.330958 0.338003 
0.319816 0.356119 0.319934 0.315485 0.354042 0.313717 0.312447 0.348461 0.311247 
0.312054 0.343285 0.312001 0.313372 0.340687 0.313424 0.316774 0.339335 0.312457 
0.31008 0.338531 0.310404 0.312617 0.336436 0.310863 0.314398 0.337718 0.312877 
0.316246 0.339493 0.315084 0.323116 0.34299 0.298724 0.325213 0.345689 0.350367 
0.364067 0.350346 0.249844 0.241995 0.37432 0.325031 0.327538 0.321669 0.372403 
0.321985 0.324065 0.356581 0.311178 0.316341 0.345772 0.317271 0.313941 0.344985 
0.315842 0.317624 0.346945 0.316963 0.311471 0.343654 0.310731 0.312803 0.337924 
0.31263 0.313969 0.338038 0.314436 0.315432 0.339445 0.315229 0.318316 0.341254 
0.315435 0.319356 0.343588 0.317196 0.327268 0.349605 0.323662 0.384229 0.3674 
0.267778 0.272575 0.333306 0.309609 0.277523 0.328404 0.33328 0.333187 0.332994 
0.375949 0.365485 0.309617 0.31743 0.313224 0.297241 0.299631 0.29822 0.319591 
0.300518 0.307399 0.333153 0.333111 0.333089 0.333092 0.333125 0.333055 0.332996 
0.333242 0.333221 0.333294 0.333276 0.333233 0.333344 0.33333 0.333311 0.333395 
0.333387 0.333381 0.33345 0.333436 0.333456 0.333491 0.333479 0.333514 0.333526 
0.333519 0.333571 0.333553 0.333545 0.333626 0.333564 0.333557 0.33366 0.333561 
0.333557 0.333661 0.333557 0.333555 0.333652 0.333538 0.333543 0.333639 0.333515 
0.333516 0.333608 0.333481 0.333491 0.333568 0.333439 0.333452 0.33352 0.33339 
0.333404 0.333465 0.333331 0.333351 0.333389 0.333268 0.333293 0.333304 0.33322 
0.33323 0.33322 0.333158 0.333177 0.333132 0.33313 0.333135 0.333072 0.33313 
0.333125 0.333037 0.335488 0.344805 0.332727 0.332918 0.350705 0.345458 0.350743 
0.366279 0.349196 0.366352 0.383885 0.368781 0.362239 0.324007 0.329949 0.336986 
0.316406 0.319883 0.327459 0.31191 0.313785 0.320798 0.30924 0.310307 0.316707 
0.308106 0.308361 0.31449 0.307145 0.3074 0.313037 0.306588 0.306411 0.31179 
0.307041 0.306367 0.310879 0.308157 0.307359 0.311242 0.309533 0.30856 0.312117 
0.311191 0.310005 0.313099 0.313218 0.311778 0.314277 0.315593 0.313867 0.315575 
0.318582 0.316407 0.317034 0.322234 0.319785 0.319092 0.326709 0.323848 0.322013 
0.330797 0.3286 0.325714 0.334568 0.332987 0.329626 0.33665 0.335807 0.333054 
0.336041 0.336516 0.334388 0.33374 0.334878 0.332954 0.330699 0.332437 0.330561 
0.327755 0.329489 0.32779 0.325703 0.327105 0.325961 0.324513 0.325511 0.325146 
0.323807 0.324437 0.324699 0.323608 0.323866 0.324497 0.323849 0.3238 0.324633 
0.324459 0.324159 0.325094 0.325217 0.324808 0.325737 0.326091 0.32561 0.326484 
0.327035 0.326474 0.327239 0.32799 0.327421 0.328015 0.328928 0.328373 0.328817 
0.329876 0.329323 0.329633 0.330707 0.330238 0.330399 0.331463 0.331048 0.331107 
0.332126 0.331771 0.331763 0.332662 0.332382 0.332331 0.312643 0.324651 0.312722 
0.333757 0.332846 0.332219 0.33252 0.332567 0.331585 0.331966 0.332094 0.330827 
0.331272 0.331499 0.329944 0.330483 0.3308 0.329008 0.329563 0.330026 0.328076 
0.328642 0.329219 0.327087 0.327691 0.328404 0.326129 0.326674 0.327565 0.325241 
0.325738 0.326738 0.32443 0.324859 0.325961 0.32383 0.324099 0.325261 0.323496 
0.32355 0.324679 0.323507 0.323373 0.324271 0.324098 0.323553 0.324208 0.325284 
0.324386 0.324479 0.327302 0.325875 0.325284 0.329993 0.328274 0.326842 0.333316 
0.331359 0.329216 0.336174 0.334601 0.332067 0.337461 0.336956 0.334192 0.337055 
0.337536 0.335414 0.334227 0.335687 0.334315 0.329438 0.331778 0.330541 0.324432 
0.327429 0.326484 0.319629 0.322636 0.322436 0.315618 0.318258 0.318833 0.312458 
0.3146 0.316064 0.309986 0.311637 0.313925 0.308061 0.309295 0.312129 0.306533 
0.307534 0.31081 0.305625 0.306203 0.309874 0.305031 0.305508 0.309319 0.304936 
0.3052 0.309306 0.305605 0.305428 0.30994 0.307127 0.306491 0.311209 0.309456 
0.308366 0.313083 0.313166 0.311495 0.316021 0.318201 0.315754 0.320356 0.326521 
0.321822 0.325972 0.341207 0.332712 0.334823 0.364697 0.349934 0.348489 0.397059 
0.369766 0.363199 0.360126 0.333379 0.310619 0.321099 0.326651 0.332701 0.341678 
0.342631 0.347656 0.318989 0.321108 0.333255 0.320748 0.318088 0.32932 0.319399 
0.317857 0.325851 0.31758 0.317352 0.323393 0.316772 0.316992 0.322115 0.316691 
0.316518 0.321568 0.31734 0.316498 0.321534 0.31703 0.315347 0.321107 0.316478 
0.3154 0.321119 0.316126 0.314663 0.320731 0.316331 0.314879 0.320781 0.315776 
0.315182 0.320763 0.315902 0.316058 0.320944 0.316831 0.316084 0.321102 0.316693 
0.315966 0.321526 0.316919 0.316159 0.322045 0.318577 0.316876 0.323223 0.321126 
0.319294 0.325104 0.325047 0.325271 0.329253 0.331692 0.331724 0.335407 0.344552 
0.341036 0.344732 0.323628 0.30192 0.350915 0.345903 0.335953 0.302915 0.325425 
0.344944 0.341083 0.350483 0.340612 0.337 0.3482 0.338115 0.336794 0.343482 
0.334876 0.335367 0.340172 0.333614 0.334428 0.338667 0.333678 0.333416 0.337577 
0.333726 0.332844 0.337502 0.333219 0.334439 0.337769 0.334949 0.335098 0.339449 
0.33771 0.33797 0.34203 0.341068 0.348226 0.346192 0.350345 0.346737 0.334684 
0.348841 0.33258 0.312406 0.307777 0.328479 0.343018 0.337009 0.352661 0.337074 
0.340381 0.350141 0.343546 0.341393 0.345823 0.338195 0.33858 0.345173 0.336446 
0.337537 0.344036 0.335046 0.336453 0.342064 0.336122 0.33653 0.341009 0.3358 
0.33767 0.341149 0.338211 0.339373 0.342574 0.339639 0.341797 0.344663 0.344829 
0.34717 0.348899 0.352503 0.353072 0.351764 0.323815 0.310753 0.33318 0.333149 
0.333036 0.333137 0.333157 0.332876 0.333061 0.334225 0.303346 0.31563 0.329885 
0.332792 0.303454 0.317537 0.326266 0.30982 0.310574 0.315162 0.322158 0.363376 
0.316529 0.298386 0.309254 0.35914 0.361573 0.325914 0.32392 0.32801 0.317316 
0.307755 0.311033 0.319034 0.314885 0.333442 0.333387 0.333169 0.33311 0.333571 
0.333518 0.333522 0.33369 0.333639 0.333693 0.33379 0.333751 0.333831 0.333878 
0.333839 0.333966 0.333922 0.333905 0.334065 0.33393 0.333933 0.334114 0.333922 
0.333921 0.334122 0.333886 0.333901 0.334094 0.333826 0.333852 0.334038 0.333749 
0.333783 0.333952 0.333651 0.333693 0.333839 0.33353 0.333587 0.333704 0.333396 
0.333461 0.333549 0.33325 0.33332 0.333367 0.333103 0.333169 0.333174 0.33297 
0.333026 0.332985 0.332869 0.332906 0.332815 0.332845 0.332846 0.332712 0.332718 
0.320758 0.316955 0.318825 0.314167 0.330281 0.335112 0.339917 0.329859 0.326909 
0.337897 0.344218 0.338447 0.352764 0.328325 0.336731 0.321873 0.323552 0.319823 
0.320817 0.325641 0.318272 0.319013 0.32386 0.316423 0.317292 0.322044 0.314866 
0.315016 0.319715 0.315862 0.315418 0.318989 0.316414 0.315947 0.319713 0.316922 
0.316356 0.31984 0.317479 0.316777 0.319782 0.318094 0.317336 0.319686 0.318813 
0.317937 0.319515 0.319811 0.318727 0.31912 0.322146 0.320619 0.319321 0.324319 
0.322808 0.320802 0.331426 0.330464 0.329412 0.330197 0.325179 0.32611 0.324285 
0.324926 0.323002 0.32445 0.324781 0.32358 0.324728 0.324944 0.32456 0.32509 
0.325202 0.325329 0.32566 0.325587 0.326048 0.326344 0.326108 0.326834 0.32703 
0.326716 0.327569 0.327712 0.327366 0.328207 0.328347 0.327995 0.328777 0.329005 
0.328627 0.329314 0.329671 0.329281 0.329854 0.330334 0.329935 0.330386 0.330933 
0.330578 0.330895 0.331511 0.33117 0.331381 0.332071 0.331762 0.331867 0.332596 
0.332338 0.332378 0.322406 0.327027 0.313915 0.318741 0.326216 0.331461 0.331807 
0.332765 0.330831 0.331213 0.331542 0.330148 0.330572 0.331003 0.329484 0.329905 
0.330448 0.328809 0.329219 0.329898 0.328109 0.328517 0.329329 0.327416 0.327784 
0.328727 0.326758 0.327096 0.328108 0.326153 0.326407 0.327484 0.325615 0.325791 
0.326854 0.325231 0.325235 0.326237 0.325061 0.324839 0.325639 0.325021 0.324629 
0.325042 0.325336 0.324733 0.324518 0.326433 0.325562 0.324366 0.328249 0.327112 
0.325157 0.330517 0.329526 0.326924 0.33143 0.330867 0.328596 0.333067 0.33286 
0.330656 0.331429 0.332497 0.331604 0.327136 0.328924 0.328337 0.323233 0.325171 
0.323642 0.32062 0.322684 0.321486 0.318272 0.319824 0.319685 0.316605 0.317927 
0.318506 0.315368 0.316449 0.317925 0.314414 0.31539 0.317517 0.313802 0.314478 
0.317263 0.313394 0.313806 0.317024 0.313304 0.313445 0.316905 0.313695 0.313551 
0.317167 0.315073 0.314491 0.31817 0.316925 0.316059 0.319824 0.319583 0.318156 
0.321936 0.323467 0.321097 0.324663 0.328075 0.325463 0.328431 0.3339 0.330501 
0.332914 0.342415 0.336675 0.338147 0.354716 0.345525 0.345183 0.354193 0.315597 
0.321012 0.333275 0.336351 0.32964 0.331067 0.336471 0.321038 0.315246 0.313208 
0.320781 0.330169 0.339858 0.326408 0.333309 0.333251 0.333163 0.333356 0.32713 
0.328183 0.332425 0.325434 0.326241 0.32994 0.32455 0.324849 0.328397 0.324109 
0.324376 0.327516 0.324034 0.324102 0.327113 0.323928 0.323913 0.326869 0.323715 
0.323613 0.326732 0.323402 0.323315 0.326476 0.323411 0.32313 0.326228 0.323385 
0.323287 0.32618 0.32363 0.323468 0.326352 0.324148 0.323906 0.326722 0.324434 
0.32422 0.327182 0.325043 0.324504 0.327717 0.326296 0.325375 0.328556 0.328203 
0.326751 0.329865 0.332235 0.330027 0.332478 0.339166 0.335879 0.337391 0.348637 
0.342701 0.34421 0.353362 0.324994 0.327924 0.332473 0.345744 0.34457 0.343408 
0.342394 0.344585 0.341237 0.340446 0.343279 0.339739 0.339355 0.341839 0.33882 
0.338557 0.340731 0.338588 0.338515 0.340287 0.33876 0.339184 0.340592 0.339691 
0.340553 0.341409 0.341457 0.342575 0.34272 0.344077 0.345114 0.34415 0.332018 
0.332298 0.332034 0.346112 0.347238 0.346844 0.346285 0.347817 0.345767 0.345105 
0.347516 0.344258 0.343955 0.346624 0.343358 0.342946 0.345692 0.34287 0.342782 
0.345484 0.343115 0.343192 0.345704 0.343684 0.344549 0.346249 0.345147 0.34603 
0.347094 0.346956 0.347499 0.347804 0.347991 0.34535 0.338357 0.346511 0.345915 
0.344887 0.346235 0.344203 0.34287 0.346349 0.345482 0.336881 0.332789 0.350562 
0.332493 0.332997 0.333053 0.332984 0.344555 0.322584 0.323719 0.317628 0.315509 
0.318666 0.314547 0.328318 0.327542 0.327661 0.326327 0.323047 0.331816 0.33172 
0.327666 0.328759 0.324177 0.326578 0.328292 0.326395 0.33247 0.3192 0.314077 
0.318824 0.329769 0.326219 0.338843 0.338035 0.330499 0.318314 0.313782 0.327237 
0.316211 0.332864 0.317196 0.325381 0.319711 0.343611 0.345847 0.343934 0.315462 
0.317901 0.317192 0.33938 0.347018 0.324403 0.346215 0.341881 0.333652 0.333539 
0.334296 0.33422 0.334418 0.334368 0.334593 0.334473 0.334448 0.334716 0.33447 
0.334474 0.334758 0.334421 0.334445 0.334736 0.334332 0.334379 0.334665 0.334205 
0.334269 0.334547 0.334028 0.334118 0.334369 0.333818 0.333919 0.334137 0.333574 
0.333692 0.333859 0.33331 0.333438 0.333548 0.333034 0.333169 0.333213 0.332764 
0.332889 0.33287 0.332555 0.332644 0.332553 0.332491 0.319234 0.319192 0.332771 
0.333701 0.336825 0.330246 0.324574 0.331174 0.332921 0.335451 0.337773 0.341409 
0.33814 0.328404 0.324724 0.328345 0.32932 0.329414 0.330594 0.333446 0.332726 
0.323258 0.324886 0.323829 0.330427 0.321805 0.323674 0.323577 0.327418 0.323369 
0.323399 0.32695 0.322754 0.322826 0.326252 0.321985 0.322053 0.325182 0.321224 
0.321388 0.324124 0.320015 0.320329 0.322581 0.329289 0.343511 0.345757 0.341987 
0.323687 0.328503 0.320726 0.320449 0.325773 0.325468 0.326999 0.326688 0.326976 
0.328017 0.327663 0.328375 0.328774 0.328463 0.329348 0.329389 0.329107 0.330017 
0.329867 0.329618 0.330496 0.3303 0.330045 0.330852 0.330718 0.330457 0.331156 
0.33112 0.330866 0.331442 0.331496 0.331255 0.331715 0.331866 0.331636 0.331988 
0.332253 0.332014 0.332262 0.33264 0.33239 0.332797 0.329395 0.340428 0.323004 
0.322515 0.320798 0.322541 0.323083 0.327698 0.331228 0.331513 0.330783 0.331082 
0.331569 0.33036 0.330642 0.331244 0.329905 0.330184 0.330917 0.329407 0.329701 
0.330557 0.328886 0.329165 0.330153 0.328312 0.328587 0.329674 0.327678 0.327943 
0.329093 0.326966 0.327214 0.328379 0.3262 0.326398 0.327497 0.32525 0.325467 
0.326439 0.324193 0.32431 0.324891 0.323483 0.323347 0.323007 0.329771 0.329944 
0.32929 0.31985 0.321932 0.318935 0.319582 0.318973 0.319355 0.319304 0.319265 
0.319576 0.320322 0.319801 0.320044 0.321558 0.32018 0.320384 0.322715 0.320285 
0.320437 0.323327 0.320626 0.320633 0.323644 0.321369 0.32114 0.324332 0.322863 
0.321983 0.325315 0.324934 0.323863 0.326974 0.327243 0.325847 0.328983 0.330196 
0.328176 0.331004 0.334008 0.331407 0.333599 0.338381 0.33527 0.33656 0.339762 
0.32126 0.31986 0.321149 0.323664 0.322933 0.336482 0.338506 0.333443 0.334841 
0.338253 0.346367 0.347442 0.329864 0.330236 0.329674 0.329846 0.332943 0.329523 
0.329645 0.332732 0.329408 0.329488 0.332545 0.329205 0.329331 0.332405 0.329045 
0.329094 0.332295 0.328884 0.328801 0.331979 0.329064 0.328953 0.331846 0.329597 
0.32936 0.332221 0.33005 0.329864 0.332856 0.330687 0.330347 0.33345 0.331412 
0.330856 0.33401 0.332489 0.331711 0.334566 0.334371 0.332863 0.335344 0.341479 
0.322653 0.341798 0.343333 0.343625 0.343622 0.342351 0.334113 0.334009 0.334372 
0.334557 0.338763 0.338124 0.343245 0.342816 0.343546 0.342391 0.342015 0.343447 
0.341623 0.341349 0.343023 0.341003 0.340864 0.34246 0.341249 0.341433 0.342375 
0.341746 0.342066 0.342865 0.342433 0.3429 0.343147 0.343318 0.343353 0.343235 
0.332097 0.332336 0.333884 0.333777 0.333804 0.334102 0.330432 0.331099 0.333343 
0.347695 0.347954 0.348002 0.347663 0.347485 0.348989 0.346819 0.346676 0.348606 
0.346928 0.346895 0.348575 0.347042 0.347069 0.349067 0.347236 0.347266 0.349082 
0.347311 0.347422 0.348839 0.347537 0.346886 0.348079 0.326405 0.327584 0.33169 
0.329381 0.331671 0.331943 0.332223 0.324687 0.324295 0.325639 0.319261 0.321757 
0.321749 0.331481 0.332471 0.335706 0.328719 0.340317 0.332879 0.335986 0.332375 
0.34081 0.318732 0.32494 0.325032 0.326838 0.329474 0.33301 0.332834 0.333139 
0.324465 0.320724 0.341256 0.318455 0.329475 0.330118 0.325522 0.332532 0.323973 
0.336992 0.320421 0.33189 0.322229 0.320394 0.320118 0.318472 0.324174 0.323715 
0.3252 0.32461 0.334163 0.318841 0.339818 0.346022 0.346206 0.343963 0.333492 
0.3334 0.333281 0.345183 0.34497 0.342392 0.33905 0.336503 0.336854 0.338825 
0.341957 0.342952 0.341306 0.317284 0.333785 0.338859 0.338655 0.329566 0.32239 
0.336137 0.338863 0.335025 0.334913 0.335127 0.335159 0.335018 0.335071 0.335448 
0.334871 0.334963 0.335324 0.334621 0.334752 0.335117 0.334289 0.334458 0.334789 
0.333901 0.334091 0.334362 0.333478 0.333681 0.333873 0.333047 0.333259 0.333364 
0.33259 0.332805 0.332827 0.332386 0.339024 0.337642 0.339461 0.338624 0.338617 
0.339081 0.330192 0.33053 0.328227 0.321572 0.329167 0.329699 0.333046 0.32772 
0.328357 0.331839 0.32602 0.326627 0.330062 0.326858 0.324676 0.335209 0.335194 
0.335565 0.335171 0.33512 0.335588 0.332708 0.328021 0.327242 0.331237 0.330959 
0.331612 0.331424 0.332437 0.331849 0.33169 0.33263 0.332029 0.331884 0.332709 
0.332187 0.33205 0.332745 0.332323 0.332195 0.332757 0.332495 0.332362 0.332798 
0.332668 0.332539 0.332872 0.332935 0.325222 0.323878 0.326001 0.32183 0.321237 
0.331517 0.331678 0.331736 0.331828 0.332298 0.322971 0.331934 0.332085 0.332366 
0.331264 0.331446 0.3322 0.330946 0.331158 0.332057 0.330545 0.330797 0.331848 
0.329979 0.330271 0.331499 0.329187 0.329547 0.33091 0.328159 0.328577 0.330032 
0.326595 0.32723 0.32866 0.325171 0.325982 0.321979 0.335461 0.335869 0.320133 
0.319543 0.319655 0.322239 0.325838 0.325373 0.326622 0.326446 0.329101 0.326659 
0.326427 0.329461 0.328248 0.327745 0.330225 0.328996 0.328363 0.331326 0.331437 
0.330244 0.332822 0.333068 0.33196 0.33463 0.334801 0.3335 0.335758 0.337024 
0.335187 0.336905 0.337201 0.334857 0.334879 0.335088 0.335161 0.337923 0.322407 
0.337742 0.32412 0.323494 0.324586 0.327367 0.330621 0.330255 0.33203 0.334992 
0.335209 0.337991 0.334841 0.334884 0.33773 0.334979 0.335049 0.337977 0.334679 
0.334811 0.338064 0.334005 0.333917 0.337069 0.33473 0.334495 0.336895 0.335163 
0.334996 0.337626 0.335798 0.335564 0.338202 0.336048 0.335903 0.338579 0.336336 
0.335962 0.338443 0.336888 0.336367 0.338322 0.340758 0.342057 0.338711 0.334756 
0.334592 0.335143 0.329709 0.329167 0.331295 0.342564 0.342911 0.341624 0.320133 
0.330637 0.331077 0.335939 0.333177 0.33366 0.34307 0.34311 0.342889 0.343039 
0.34299 0.343426 0.34277 0.34266 0.343503 0.34286 0.32682 0.319153 0.342902 
0.342924 0.343448 0.342939 0.342876 0.343357 0.342879 0.342572 0.342928 0.338674 
0.334475 0.331495 0.338057 0.332145 0.332312 0.347057 0.348353 0.349149 0.349664 
0.349314 0.349743 0.34947 0.350688 0.349747 0.324552 0.320378 0.34981 0.349687 
0.350975 0.349768 0.349496 0.350968 0.349229 0.348754 0.350301 0.348127 0.347377 
0.348922 0.335029 0.335336 0.337744 0.337768 0.328937 0.33275 0.333748 0.328806 
0.329847 0.335442 0.333167 0.329434 0.325422 0.326485 0.336513 0.337954 0.338235 
0.341626 0.341967 0.340753 0.335559 0.336412 0.337732 0.324676 0.317504 0.334922 
0.330259 0.329155 0.340775 0.33602 0.336778 0.338597 0.327248 0.332458 0.337941 
0.334717 0.334384 0.334201 0.337912 0.34648 0.344652 0.34668 0.33339 0.333624 
0.333418 0.342987 0.345433 0.345931 0.33508 0.336043 0.338134 0.33615 0.33637 
0.338455 0.338045 0.327158 0.331462 0.333993 0.333811 0.333777 0.326501 0.32766 
0.307459 0.319381 0.333609 0.324457 0.33499 0.335225 0.334422 0.334709 0.335105 
0.33378 0.334085 0.334393 0.333137 0.333436 0.333608 0.332785 0.341858 0.34238 
0.334504 0.335325 0.338721 0.335059 0.342102 0.333245 0.333145 0.336059 0.336618 
0.338701 0.329603 0.33858 0.336147 0.336102 0.333638 0.33357 0.336003 0.335857 
0.336556 0.333644 0.333482 0.334665 0.33353 0.33352 0.333333 0.333341 0.334027 
0.333256 0.333228 0.333726 0.33287 0.332959 0.333343 0.333087 0.334662 0.332884 
0.332944 0.333662 0.328766 0.329191 0.33105 0.33279 0.332824 0.332767 0.332895 
0.333793 0.332486 0.332717 0.333828 0.331917 0.332273 0.333653 0.330862 0.331331 
0.333005 0.329864 0.332009 0.331031 0.336494 0.340112 0.332947 0.333613 0.333594 
0.334518 0.336062 0.336128 0.336653 0.333761 0.332695 0.332561 0.331908 0.335165 
0.335038 0.337258 0.336454 0.325055 0.321952 0.337795 0.336955 0.339048 0.338564 
0.33782 0.339822 0.338952 0.33813 0.339722 0.339803 0.339865 0.340312 0.340148 
0.338465 0.339001 0.338354 0.338308 0.339411 0.339358 0.341912 0.342188 0.340194 
0.339897 0.342496 0.339491 0.339093 0.339397 0.339326 0.341815 0.339984 0.339839 
0.341787 0.339836 0.339989 0.342175 0.337245 0.339163 0.332313 0.333238 0.336833 
0.333193 0.335657 0.33541 0.336192 0.335439 0.335607 0.335675 0.332752 0.332288 
0.334304 0.340366 0.341284 0.341011 0.339068 0.33289 0.335655 0.327092 0.318686 
0.342738 0.342989 0.342264 0.343089 0.343234 0.342987 0.314866 0.312659 0.340518 
0.315921 0.343201 0.343148 0.34333 0.342989 0.342725 0.343057 0.342309 0.341867 
0.342217 0.338994 0.336598 0.338988 0.334547 0.350863 0.351195 0.337421 0.351253 
0.351341 0.35192 0.351367 0.351062 0.352027 0.350595 0.349877 0.351416 0.348689 
0.347758 0.349333 0.338211 0.335746 0.335824 0.336085 0.339086 0.338634 0.338639 
0.338308 0.335843 0.335911 0.336463 0.335475 0.335007 0.334749 0.337583 0.333223 
0.325574 0.335798 0.333482 0.332572 0.341129 0.327181 0.339546 0.336752 0.33695 
0.336266 0.334231 0.334357 0.332602 0.334891 0.333594 0.342639 0.341201 0.33885 
0.338743 0.332847 0.332893 0.333477 0.33328 0.331635 0.330959 0.335155 0.333822 
0.340536 0.343256 0.340468 0.329534 0.340688 0.338832 0.342026 0.341249 0.335603 
0.329704 0.334233 0.330674 0.339246 0.346527 0.344575 0.346719 0.34075 0.3412 
0.343555 0.340474 0.340829 0.342595 0.339721 0.342795 0.339229 0.339471 0.341491 
0.340231 0.348489 0.349858 0.350733 0.334109 0.33389 0.333956 0.334376 0.338596 
0.338666 0.340387 0.347671 0.339743 0.335132 0.335518 0.349854 0.350972 0.335459 
0.337324 0.335558 0.337214 0.337257 0.343873 0.343644 0.335719 0.335822 0.334075 
0.334208 0.334355 0.334558 0.334781 0.334807 0.334948 0.334955 0.33441 0.334326 
0.334725 0.334679 0.335802 0.338794 0.34194 0.342887 0.336521 0.341672 0.341137 
0.337651 0.341315 0.339127 0.340346 0.343995 0.336199 0.336143 0.337183 0.344149 
0.342117 0.339862 0.342096 0.34192 0.343497 0.340996 0.341 0.342507 0.340594 
0.346212 0.348163 0.349022 0.34287 0.343402 0.343676 0.343437 0.345229 0.343651 
0.333374 0.335383 0.334172 0.335276 0.335337 0.336396 0.336887 0.337093 0.337716 
0.334846 0.335012 0.336181 0.335946 0.336239 0.336061 0.33557 0.335343 0.336863 
0.335195 0.335319 0.336079 0.335595 0.34193 0.342276 0.325438 0.34254 0.342622 
0.341899 0.342599 0.342353 0.34219 0.341684 0.341046 0.341503 0.339642 0.338069 
0.336622 0.340101 0.35137 0.351775 0.333718 0.333956 0.33421 0.351616 0.351013 
0.34966 0.348213 0.350506 0.334653 0.33868 0.336852 0.336531 0.338153 0.342089 
0.342348 0.337221 0.337058 0.337504 0.344842 0.34324 0.340716 0.343622 0.344452 
0.34175 0.344683 0.338486 0.341136 0.341173 0.339878 0.334062 0.335268 0.343472 
0.341278 0.342049 0.3346 0.339209 0.345297 0.341019 0.34157 0.341144 0.334629 
0.340199 0.33901 0.343708 0.341897 0.346918 0.348159 0.346217 0.343476 0.337285 
0.345651 0.345415 0.344423 0.338875 0.334721 0.340505 0.340085 0.339743 0.346039 
0.347308 0.369245 0.346396 0.344338 0.335039 0.336146 0.336677 0.336056 0.345402 
0.345212 0.336889 0.343666 0.345556 0.343546 0.352151 0.352098 0.352099 0.352098 
0.352113 0.33656 0.336745 0.336899 0.338348 0.441045 0.397642 0.429193 0.339972 
0.340179 0.344877 0.347432 0.346113 0.344069 0.428821 0.402465 0.346441 0.347994 
0.349377 0.337816 0.336875 0.337287 0.336817 0.336554 0.343936 0.334775 0.337203 
0.335316 0.338009 0.338493 0.338308 0.345506 0.337411 0.341038 0.341342 0.33607 
0.335784 0.335983 0.336939 0.34845 0.348799 0.399638 0.425322 0.337494 0.337625 
0.346806 0.342324 0.350637 0.351132 0.350031 0.338413 0.338109 0.337394 0.337251 
0.337889 0.346077 0.344951 0.338426 0.338072 0.335157 0.349136 0.348615 0.338447 
0.338383 0.344929 0.345956 0.350676 0.349257 0.34633 0.337985 0.338189 0.338399 
0.337462 0.33911 0.351368 0.350976 0.339163 0.339772 0.33833 0.338502 0.339144 
0.336806 0.33654 0.340207 0.340299 0.339167 0.347244 0.34594 0.350819 0.349638 
0.337142 0.337583 0.338358 0.337207 0.347351 0.348082 0.346909 0.349462 0.338667 
0.47792 0.346591 0.347524 0.347627 0.339596 0.339963 0.338905 0.348068 0.346814 
0.352031 0.351729 0.35129 0.543656 0.449088 0.348531 0.340766 0.340013 0.35033 
0.344162 0.339036 0.337706 0.397248 0.428654 0.341417 0.341327 0.34073 0.34933 
0.335615 0.339663 0.33989 0.339902 0.339093 0.338508 0.402594 0.424471 0.338418 
0.349602 0.3398 0.351892 0.400541 0.4255 0.339894 0.40049 0.426203 0.338833 
0.396611 0.36116 0.333377 0.662129 0.333434 0.333437 0.333327 0.333163 0.332901 
0.332556 0.332172 0.331752 0.331263 0.33065 0.330016 0.329399 0.328749 0.328075 
0.327407 0.326661 0.32589 0.325087 0.324293 0.323603 0.322838 0.32213 0.321368 
0.320699 0.320206 0.319719 0.319225 0.319194 0.319391 0.319983 0.320618 0.321975 
0.3233 0.325253 0.327832 0.33085 0.333999 0.337548 0.341151 0.344322 0.347633 
0.349544 0.351151 0.351272 0.350126 0.347456 0.344611 0.340551 0.335768 0.330794 
0.326272 0.321918 0.31784 0.313852 0.310533 0.305162 0.302856 0.300904 0.299398 
0.297865 0.296498 0.295396 0.294254 0.293359 0.292563 0.291768 0.291051 0.290281 
0.289775 0.289257 0.288626 0.288555 0.288729 0.289298 0.289718 0.290944 0.292701 
0.295166 0.298873 0.303546 0.30977 0.31709 0.326739 0.347804 0.35709 0.319396 
0.307855 0.288967 0.450332 0.563844 0.333386 0.333418 0.488947 0.362868 0.339888 
0.326828 0.316681 0.308782 0.302523 0.298239 0.294798 0.292681 0.290915 0.289801 
0.289048 0.288767 0.288649 0.288789 0.289049 0.289447 0.289987 0.290641 0.291277 
0.292036 0.292809 0.293662 0.294584 0.295599 0.296777 0.298044 0.299473 0.30111 
0.303249 0.305438 0.308068 0.310812 0.314383 0.318229 0.322111 0.32665 0.331628 
0.336388 0.340565 0.344595 0.347798 0.349944 0.351161 0.351073 0.349947 0.347886 
0.345109 0.341734 0.338117 0.334429 0.33096 0.328172 0.32583 0.323831 0.322193 
0.320859 0.319966 0.319477 0.319191 0.319189 0.319332 0.319666 0.320065 0.320569 
0.321238 0.321966 0.322689 0.323422 0.324259 0.325114 0.325854 0.326691 0.327405 
0.328108 0.32881 0.329489 0.330072 0.33068 0.331215 0.331709 0.332153 0.332541 
0.332901 0.333169 0.333354 0.33343 0.333313 0.333338 0.333334 0.333335 0.33337 
0.333339 0.333346 0.333358 0.333355 0.333349 0.333347 0.333343 0.33334 0.333335 
0.333331 0.333327 0.333322 0.333321 0.333315 0.333314 0.333307 0.333296 0.333306 
0.333314 0.33332 0.33329 0.333299 0.333297 0.333301 0.333296 0.3333 0.333296 
0.333301 0.333313 0.333324 0.333299 0.33331 0.333317 0.333329 0.333319 0.333324 
0.333329 0.333329 0.333333 0.333337 0.333342 0.333343 0.333349 0.333351 0.333361 
0.333335 0.333348 0.333346 0.333332 0.333317 0.415539 0.367823 0.511384 0.432563 
0.445408 0.40048 0.430887 0.408469 0.431414 0.39791 0.427943 0.403658 0.429701 
0.482629 0.394664 0.395811 0.424937 0.399416 0.427819 0.402863 0.437036 0.393892 
0.408597 0.410139 0.494934 0.474738 0.435753 0.401395 0.433571 0.40746 0.449235 
0.46132 0.382507 0.523844 0.462892 0.290661 0.270178 0.33332 0.333303 0.333315 
0.333314 0.275458 0.279233 0.278564 0.279649 0.281732 0.275196 0.273701 0.271261 
0.273068 0.297447 0.27535 0.276839 0.298584 0.382378 0.194501 0.266414 0.276448 
0.328023 0.314011 0.321539 0.259973 0.341553 0.312157 0.273546 0.333273 0.266734 
0.277175 0.27345 0.328818 0.326249 0.328215 0.325746 0.281101 0.282989 0.28098 
0.339628 0.197395 0.333284 0.333286 0.390443 0.213777 0.189379 0.343116 0.288404 
0.313163 0.291054 0.317694 0.355894 0.349856 0.335224 0.339487 0.350125 0.335864 
0.324592 0.330085 0.326757 0.323442 0.319469 0.319053 0.319396 0.319517 0.354396 
0.342885 0.343255 0.359684 0.353008 0.335582 0.335128 0.335338 0.321453 0.318972 
0.322008 0.332958 0.335293 0.335187 0.324131 0.328342 0.327547 0.333838 0.333681 
0.33384 0.333424 0.333409 0.333506 0.333458 0.332084 0.331926 0.331735 0.327991 
0.326815 0.327688 0.334254 0.333993 0.334127 0.33391 0.34262 0.349509 0.34169 
0.349853 0.333365 0.333632 0.333584 0.333786 0.333699 0.337057 0.336424 0.337617 
0.336942 0.31319 0.304385 0.306734 0.331651 0.330889 0.331499 0.330731 0.340115 
0.3393 0.343256 0.342496 0.332694 0.332336 0.332727 0.339976 0.339322 0.339965 
0.339718 0.333346 0.333353 0.333381 0.333376 0.287934 0.333341 0.33334 0.332744 
0.332621 0.332744 0.332583 0.323118 0.316543 0.318297 0.333642 0.333931 0.333893 
0.334184 0.3343 0.315376 0.315447 0.312186 0.333347 0.333365 0.334019 0.334261 
0.33401 0.335984 0.331604 0.335564 0.330198 0.349145 0.337162 0.348229 0.341191 
0.348302 0.345348 0.350535 0.334079 0.334213 0.334329 0.367946 0.384655 0.362843 
0.333847 0.333825 0.337662 0.33718 0.337803 0.339197 0.339465 0.340856 0.336547 
0.336532 0.333249 0.33322 0.333303 0.333299 0.333274 0.328869 0.328418 0.329224 
0.322474 0.319025 0.322007 0.337168 0.295908 0.296306 0.302617 0.30373 0.324456 
0.325528 0.325905 0.328766 0.324395 0.323145 0.323598 0.342163 0.337685 0.339197 
0.333215 0.333168 0.333448 0.333363 0.32971 0.331633 0.329018 0.328355 0.327652 
0.329682 0.32914 0.341153 0.340917 0.341192 0.333666 0.333789 0.319723 0.281994 
0.278228 0.333331 0.333323 0.33333 0.317007 0.344537 0.343118 0.343314 0.327113 
0.325965 0.327592 0.326425 0.332525 0.332407 0.332285 0.339772 0.338669 0.339642 
0.338477 0.331843 0.331831 0.332071 0.316069 0.353069 0.316978 0.330854 0.330909 
0.331247 0.33133 0.344388 0.343295 0.325349 0.32397 0.323577 0.33367 0.333691 
0.333474 0.333528 0.330611 0.317077 0.33273 0.319059 0.313953 0.317647 0.326129 
0.325696 0.325115 0.341871 0.346257 0.34757 0.347006 0.347663 0.347614 0.347246 
0.323353 0.326579 0.3255 0.32514 0.325257 0.324812 0.310904 0.313746 0.313566 
0.324615 0.324464 0.324445 0.324312 0.332227 0.328577 0.329964 0.342154 0.340943 
0.340698 0.339076 0.293344 0.326344 0.327023 0.328034 0.32848 0.334806 0.334455 
0.334686 0.331732 0.332298 0.332244 0.334836 0.337039 0.332486 0.335333 0.34165 
0.343787 0.340914 0.33309 0.34672 0.350285 0.349144 0.345114 0.339869 0.323498 
0.324473 0.32464 0.325676 0.326445 0.325933 0.319607 0.319513 0.31867 0.333505 
0.333516 0.333407 0.315879 0.317837 0.318452 0.31652 0.333618 0.334996 0.330313 
0.324967 0.319119 0.323196 0.334247 0.331793 0.336093 0.333452 0.333449 0.333387 
0.33338 0.322158 0.3211 0.317107 0.327316 0.310002 0.31455 0.315379 0.319305 
0.307097 0.308154 0.313069 0.314701 0.301944 0.303303 0.309253 0.326952 0.325757 
0.325548 0.328065 0.33338 0.331002 0.295272 0.301467 0.328509 0.327424 0.335645 
0.335189 0.335759 0.33529 0.301009 0.28147 0.319465 0.311591 0.309558 0.304094 
0.311046 0.31598 0.318362 0.327844 0.32898 0.328216 0.329304 0.306327 0.31203 
0.306572 0.330475 0.328179 0.349685 0.348569 0.349745 0.32032 0.327449 0.316272 
0.322744 0.34693 0.344441 0.345829 0.333192 0.333207 0.333081 0.33313 0.321918 
0.322964 0.323131 0.325728 0.333625 0.332639 0.33288 0.33277 0.321056 0.343767 
0.34333 0.340779 0.334018 0.333983 0.337823 0.33787 0.338396 0.338703 0.321111 
0.318486 0.317219 0.373137 0.370018 0.357348 0.310848 0.315586 0.311049 0.333691 
0.333625 0.33357 0.335524 0.317503 0.312376 0.316001 0.315956 0.28828 0.333256 
0.32302 0.322382 0.323952 0.319063 0.317638 0.330942 0.287505 0.334103 0.332593 
0.334642 0.333677 0.33589 0.333371 0.333376 0.33339 0.33112 0.319852 0.32719 
0.319656 0.336955 0.336645 0.339823 0.339626 0.32531 0.336133 0.304595 0.305634 
0.308128 0.333328 0.303325 0.306797 0.304735 0.29738 0.319701 0.347149 0.347798 
0.346681 0.318062 0.31479 0.333248 0.349531 0.349808 0.335914 0.331023 0.332453 
0.329535 0.329465 0.326694 0.331692 0.331426 0.331804 0.331529 0.327079 0.32819 
0.332616 0.332183 0.354773 0.349594 0.316355 0.334745 0.33456 0.334902 0.309721 
0.309421 0.305146 0.315445 0.308539 0.318915 0.312356 0.338243 0.352 0.347963 
0.323497 0.326998 0.326772 0.328058 0.32915 0.331262 0.332357 0.371197 0.326843 
0.362538 0.314991 0.352561 0.313905 0.338584 0.326561 0.331201 0.327413 0.333349 
0.308715 0.304845 0.317839 0.320334 0.322401 0.319515 0.32481 0.312825 0.315475 
0.317408 0.318961 0.316681 0.348849 0.350102 0.34937 0.297238 0.326999 0.326732 
0.329814 0.314925 0.314372 0.312067 0.326365 0.327131 0.326089 0.351986 0.352071 
0.351875 0.334936 0.334887 0.334616 0.334589 0.332107 0.331397 0.33123 0.338577 
0.324515 0.324476 0.325111 0.325193 0.32567 0.332773 0.332684 0.332547 0.329108 
0.32908 0.329667 0.329592 0.332577 0.332809 0.33274 0.344187 0.342803 0.343562 
0.333661 0.322927 0.323705 0.326437 0.316815 0.33235 0.332113 0.332826 0.333023 
0.332611 0.332853 0.319813 0.322732 0.320216 0.323047 0.332971 0.332879 0.333302 
0.343407 0.320089 0.333281 0.333279 0.334116 0.334276 0.333373 0.333538 0.332746 
0.332874 0.332534 0.33268 0.33979 0.343064 0.344735 0.33303 0.33297 0.333241 
0.333299 0.333304 0.346219 0.344627 0.346972 0.318544 0.313197 0.317658 0.322156 
0.322179 0.323612 0.323742 0.324834 0.325005 0.325366 0.327668 0.334715 0.329836 
0.32495 0.324292 0.3258 0.324573 0.325075 0.324739 0.311429 0.315125 0.310966 
0.333 0.333059 0.287365 0.33239 0.290892 0.323985 0.322067 0.324966 0.329505 
0.330194 0.330363 0.332565 0.329572 0.329184 0.326115 0.332544 0.332317 0.330041 
0.330676 0.328356 0.327137 0.326016 0.337553 0.337928 0.337183 0.332795 0.330769 
0.330424 0.333067 0.307591 0.310425 0.306665 0.31884 0.319505 0.318476 0.317001 
0.31778 0.319527 0.326894 0.33299 0.332856 0.333007 0.332941 0.333087 0.330358 
0.330616 0.331086 0.335176 0.334819 0.337514 0.324225 0.324164 0.323509 0.324609 
0.331556 0.32998 0.330138 0.328597 0.328868 0.299923 0.32332 0.321844 0.32222 
0.330922 0.33118 0.330735 0.333139 0.333269 0.333258 0.372111 0.344498 0.333513 
0.3147 0.312784 0.311349 0.331296 0.33173 0.329348 0.329801 0.329301 0.331027 
0.330672 0.321214 0.320468 0.322329 0.345118 0.345365 0.346235 0.289525 0.329919 
0.332973 0.339372 0.338562 0.338204 0.337389 0.330244 0.329848 0.329629 0.329219 
0.33939 0.34247 0.328219 0.327661 0.327507 0.325347 0.324222 0.325741 0.3329 
0.332749 0.326487 0.323679 0.333828 0.334026 0.333853 0.334079 0.333294 0.33316 
0.33328 0.333117 0.333283 0.337609 0.343223 0.32694 0.326425 0.324258 0.323658 
0.332617 0.33235 0.332557 0.33226 0.328128 0.325004 0.325468 0.348858 0.349349 
0.348834 0.348752 0.333529 0.333676 0.33354 0.333657 0.312456 0.333268 0.330819 
0.336711 0.334464 0.3027 0.30362 0.311506 0.312009 0.309202 0.333337 0.333345 
0.347678 0.349176 0.346919 0.348708 0.331641 0.332161 0.330175 0.33302 0.333189 
0.333178 0.338138 0.34215 0.331362 0.336043 0.333591 0.319539 0.318967 0.397599 
0.403462 0.422809 0.331591 0.332331 0.330907 0.329037 0.326364 0.325643 0.328059 
0.327005 0.329807 0.331029 0.330093 0.323221 0.3233 0.323999 0.324831 0.32535 
0.364736 0.335867 0.355476 0.297836 0.333262 0.333267 0.333294 0.323706 0.321707 
0.34429 0.347323 0.341598 0.344954 0.341481 0.342253 0.341494 0.342268 0.333452 
0.333501 0.329826 0.348173 0.346381 0.331951 0.331499 0.32861 0.322005 0.323191 
0.321841 0.337949 0.337208 0.336553 0.324736 0.349995 0.370226 0.321115 0.322877 
0.32286 0.333232 0.333265 0.333155 0.333171 0.290417 0.31998 0.322196 0.330136 
0.328484 0.34521 0.347152 0.345256 0.309919 0.312904 0.311378 0.333923 0.32894 
0.326242 0.329964 0.35225 0.355424 0.351122 0.336918 0.341893 0.33481 0.338539 
0.318652 0.336392 0.331591 0.326999 0.324196 0.327474 0.318234 0.349046 0.352497 
0.312609 0.302107 0.309328 0.331773 0.331948 0.326607 0.326527 0.32939 0.337706 
0.337607 0.333685 0.333905 0.336748 0.32629 0.327187 0.326002 0.340901 0.341469 
0.341772 0.327004 0.327486 0.32638 0.284791 0.322216 0.317384 0.322367 0.341215 
0.341649 0.335366 0.322628 0.323947 0.323762 0.318962 0.335053 0.32565 0.320214 
0.333705 0.335132 0.330863 0.337226 0.329443 0.327126 0.323841 0.352916 0.316867 
0.358568 0.335154 0.334334 0.334554 0.333693 0.334207 0.334665 0.321725 0.322241 
0.323136 0.33481 0.332137 0.334682 0.332426 0.33839 0.320916 0.326695 0.325604 
0.350619 0.313879 0.346683 0.314759 0.314555 0.313071 0.310942 0.324894 0.324285 
0.340566 0.338817 0.340057 0.335839 0.335088 0.332972 0.348446 0.327994 0.330608 
0.329463 0.343657 0.344922 0.342888 0.344434 0.341078 0.340598 0.341554 0.340112 
0.345999 0.345346 0.347157 0.348009 0.346701 0.348454 0.31392 0.342298 0.34239 
0.337685 0.344845 0.325849 0.323043 0.325977 0.346971 0.346818 0.345672 0.34658 
0.343963 0.340537 0.344475 0.347783 0.348503 0.346877 0.346828 0.345297 0.344982 
0.319339 0.356321 0.334132 0.333951 0.330502 0.317954 0.332764 0.334133 0.332243 
0.339043 0.336272 0.349784 0.361085 0.330318 0.334696 0.33455 0.333232 0.333019 
0.333331 0.338382 0.33648 0.339627 0.338272 0.332716 0.332488 0.332525 0.347647 
0.337416 0.352019 0.353082 0.317158 0.32138 0.322727 0.335416 0.335796 0.319216 
0.318276 0.333528 0.333669 0.333536 0.336275 0.336075 0.336594 0.336358 0.322778 
0.323919 0.334449 0.334545 0.334783 0.333821 0.333604 0.33367 0.338504 0.337989 
0.335364 0.332392 0.334606 0.33353 0.333387 0.333404 0.334309 0.33407 0.347365 
0.34634 0.346701 0.332821 0.332524 0.333094 0.332854 0.333053 0.334772 0.334457 
0.334874 0.334531 0.334008 0.329172 0.333551 0.332584 0.333524 0.330912 0.332373 
0.329887 0.333259 0.344898 0.323481 0.326427 0.318813 0.302128 0.306699 0.306426 
0.310686 0.350701 0.330054 0.346097 0.332536 0.336005 0.330754 0.304635 0.337553 
0.339324 0.336819 0.33292 0.336117 0.324797 0.324714 0.324176 0.334371 0.33442 
0.334107 0.333201 0.333367 0.333671 0.333556 0.333533 0.332645 0.332622 0.331921 
0.331911 0.322026 0.32276 0.323089 0.322262 0.322689 0.287697 0.321759 0.323086 
0.321987 0.315106 0.321069 0.33732 0.332557 0.333968 0.325514 0.323539 0.321581 
0.348753 0.348839 0.349713 0.315443 0.352113 0.352239 0.332051 0.332624 0.332061 
0.332652 0.318518 0.31889 0.333315 0.333299 0.333243 0.334351 0.33468 0.328427 
0.329203 0.328917 0.328918 0.330074 0.330563 0.330299 0.32959 0.339765 0.340493 
0.338858 0.339647 0.289068 0.285667 0.331796 0.335902 0.324376 0.327485 0.324855 
0.351236 0.35079 0.350832 0.321394 0.333467 0.333487 0.33357 0.333254 0.341707 
0.341329 0.339825 0.287307 0.332945 0.331844 0.33116 0.331871 0.331667 0.331555 
0.330878 0.327974 0.337085 0.338707 0.338949 0.34067 0.289744 0.286593 0.332836 
0.332661 0.333725 0.333724 0.327707 0.330968 0.344821 0.345319 0.348297 0.348818 
0.311524 0.309742 0.312261 0.328429 0.33138 0.330492 0.330026 0.333022 0.33215 
0.335924 0.33637 0.335667 0.304391 0.284846 0.306202 0.32579 0.291966 0.341529 
0.328155 0.326952 0.327523 0.3254 0.344694 0.344872 0.343013 0.343259 0.326218 
0.325472 0.333423 0.333441 0.333363 0.294764 0.368443 0.36522 0.374793 0.333898 
0.334462 0.342849 0.342315 0.343296 0.325781 0.326055 0.337936 0.335012 0.32063 
0.324117 0.329242 0.333261 0.333162 0.333164 0.333031 0.34502 0.340869 0.344429 
0.338771 0.342899 0.320876 0.320714 0.317344 0.317042 0.328576 0.328528 0.331577 
0.331419 0.34788 0.367908 0.338657 0.335502 0.331573 0.334867 0.3342 0.31772 
0.322686 0.339267 0.337443 0.341593 0.333168 0.373713 0.406053 0.336607 0.33731 
0.34421 0.349331 0.347881 0.364766 0.38162 0.343542 0.343517 0.342997 0.33121 
0.330618 0.335079 0.337933 0.332634 0.335097 0.348961 0.348287 0.346947 0.34144 
0.429755 0.401242 0.334408 0.334449 0.330875 0.333421 0.336935 0.337476 0.313721 
0.309481 0.334575 0.332925 0.33421 0.33494 0.330908 0.331039 0.317051 0.343311 
0.342881 0.33282 0.332019 0.331891 0.323295 0.331778 0.331741 0.33388 0.333871 
0.322159 0.317176 0.343085 0.344451 0.343521 0.342841 0.337347 0.339362 0.343703 
0.345352 0.328957 0.329979 0.329154 0.346606 0.341655 0.331779 0.33089 0.347651 
0.350536 0.335797 0.333428 0.33792 0.327461 0.329524 0.328058 0.335347 0.337706 
0.337579 0.341293 0.34279 0.344573 0.35954 0.332148 0.329116 0.341186 0.341434 
0.342236 0.342589 0.335335 0.337988 0.338774 0.335217 0.338633 0.339115 0.33838 
0.333606 0.330656 0.333451 0.330294 0.329876 0.330953 0.324614 0.320984 0.330686 
0.337644 0.334667 0.337443 0.326675 0.321122 0.318984 0.323967 0.315368 0.318449 
0.332305 0.332344 0.325912 0.323139 0.325513 0.325881 0.324653 0.336175 0.33831 
0.334747 0.343093 0.343235 0.342735 0.33336 0.33341 0.333366 0.333387 0.348159 
0.347144 0.332286 0.334938 0.334044 0.333978 0.331784 0.331831 0.33332 0.33331 
0.330421 0.329589 0.334114 0.33388 0.333885 0.331595 0.340017 0.33675 0.341424 
0.337836 0.334551 0.333853 0.334099 0.334062 0.290457 0.341381 0.370144 0.396427 
0.3424 0.350716 0.337463 0.338765 0.337963 0.338547 0.360426 0.354101 0.354589 
0.353871 0.333373 0.333836 0.333991 0.333786 0.34642 0.347494 0.30812 0.330529 
0.328257 0.330884 0.326477 0.337386 0.34091 0.338558 0.3384 0.349343 0.348388 
0.347559 0.340684 0.334075 0.348174 0.309521 0.31347 0.315374 0.318482 0.317214 
0.317205 0.333348 0.333381 0.333343 0.320139 0.319077 0.321251 0.315489 0.335188 
0.350322 0.348356 0.334823 0.335968 0.338941 0.333494 0.33339 0.333479 0.338584 
0.338883 0.319271 0.315453 0.31542 0.331004 0.324062 0.322656 0.324646 0.323169 
0.331481 0.331335 0.333525 0.3316 0.331771 0.331284 0.331588 0.334178 0.317197 
0.332342 0.331868 0.335046 0.335888 0.333397 0.337045 0.317666 0.316367 0.345988 
0.345258 0.32552 0.326093 0.330829 0.331233 0.331432 0.336073 0.335379 0.337644 
0.339277 0.340696 0.338306 0.337072 0.339592 0.336131 0.333684 0.336758 0.331524 
0.334369 0.322237 0.32194 0.324539 0.316232 0.316286 0.314669 0.342602 0.341608 
0.342474 0.342562 0.342341 0.32652 0.3419 0.338087 0.334697 0.335288 0.333215 
0.332973 0.333593 0.333191 0.333728 0.319858 0.324702 0.326281 0.332701 0.332871 
0.332874 0.334833 0.333646 0.334968 0.335653 0.336781 0.335754 0.328985 0.331611 
0.340299 0.336272 0.321555 0.335014 0.333612 0.314235 0.330124 0.330484 0.331508 
0.338887 0.337775 0.337459 0.333421 0.338961 0.337674 0.346635 0.345282 0.34728 
0.336544 0.333587 0.337852 0.324562 0.331943 0.332088 0.32118 0.322663 0.321433 
0.328425 0.340697 0.337451 0.337211 0.335612 0.335581 0.338727 0.33751 0.337409 
0.31547 0.353029 0.349573 0.332189 0.336441 0.316491 0.320296 0.343719 0.342892 
0.342816 0.343433 0.348897 0.322317 0.321716 0.317959 0.337103 0.338387 0.335949 
0.337338 0.316843 0.320394 0.33254 0.331166 0.330157 0.309735 0.313534 0.33379 
0.330304 0.310646 0.333149 0.333975 0.333648 0.333689 0.347018 0.345291 0.323482 
0.320858 0.306973 0.334921 0.33437 0.334704 0.340798 0.341125 0.340185 0.34623 
0.3329 0.32084 0.318544 0.323625 0.317401 0.315173 0.317398 0.340778 0.318518 
0.305044 0.300951 0.300622 0.328437 0.332492 0.332275 0.333552 0.329829 0.329859 
0.330399 0.339164 0.339237 0.339931 0.336579 0.337076 0.336309 0.316713 0.341157 
0.339606 0.342107 0.329839 0.331353 0.338058 0.334763 0.336468 0.337959 0.338594 
0.337692 0.337095 0.33565 0.339399 0.333245 0.333172 0.333059 0.331562 0.341772 
0.340976 0.342706 0.341369 0.341496 0.321063 0.322255 0.322477 0.321401 0.323706 
0.359794 0.317079 0.318702 0.330811 0.329457 0.317322 0.339641 0.339776 0.348363 
0.347652 0.41118 0.333375 0.333499 0.332632 0.33984 0.339781 0.356585 0.359049 
0.348822 0.329164 0.34154 0.343637 0.328629 0.329859 0.330667 0.329305 0.338291 
0.337762 0.337357 0.332502 0.332492 0.332796 0.317987 0.317295 0.305842 0.30894 
0.304735 0.337181 0.309586 0.320368 0.323474 0.336828 0.334985 0.337114 0.237718 
0.325471 0.324261 0.325081 0.290541 0.329013 0.329652 0.328674 0.340972 0.342634 
0.339693 0.333795 0.333979 0.333584 0.335522 0.333593 0.31676 0.403473 0.373884 
0.366987 0.344493 0.344282 0.34218 0.346249 0.343825 0.341786 0.344459 0.33907 
0.327278 0.370068 0.321876 0.299713 0.300664 0.331089 0.331127 0.332523 0.350611 
0.318892 0.320541 0.322741 0.324231 0.33199 0.347312 0.377982 0.341032 0.344819 
0.340046 0.326527 0.325563 0.325777 0.3431 0.344421 0.313494 0.316614 0.34277 
0.343162 0.343137 0.331071 0.330711 0.325199 0.324826 0.324053 0.333153 0.33314 
0.330805 0.331055 0.331363 0.333373 0.33336 0.33338 0.340722 0.340768 0.341594 
0.306358 0.342651 0.342079 0.342434 0.341593 0.336496 0.334674 0.332881 0.330766 
0.326107 0.332449 0.326512 0.349383 0.340876 0.340803 0.34284 0.341959 0.349784 
0.350695 0.350619 0.326245 0.327156 0.326655 0.327548 0.324329 0.32439 0.327326 
0.332601 0.335688 0.326772 0.327499 0.326352 0.343348 0.338419 0.341999 0.332395 
0.33592 0.331084 0.332436 0.336005 0.335656 0.336155 0.347884 0.350417 0.352553 
0.329304 0.305034 0.296951 0.298091 0.338055 0.416775 0.365446 0.335318 0.335803 
0.335481 0.334251 0.334558 0.334342 0.326423 0.323719 0.335913 0.33886 0.330047 
0.329485 0.333417 0.332687 0.339054 0.340211 0.339217 0.335438 0.333324 0.321008 
0.320066 0.319527 0.341102 0.342541 0.341464 0.315327 0.317567 0.333401 0.333347 
0.335246 0.33574 0.334931 0.33568 0.336416 0.337056 0.332434 0.33142 0.327384 
0.332848 0.335547 0.335135 0.335503 0.324679 0.324952 0.324829 0.33578 0.334924 
0.334289 0.332976 0.323855 0.336934 0.336456 0.340283 0.31931 0.319084 0.327858 
0.320156 0.319101 0.319566 0.34305 0.343016 0.331524 0.330726 0.341476 0.340699 
0.340419 0.338715 0.340008 0.339705 0.338575 0.334231 0.33491 0.335885 0.297547 
0.351257 0.33505 0.335452 0.330469 0.333336 0.331239 0.330013 0.330794 0.343283 
0.345804 0.343116 0.345686 0.333351 0.334946 0.336989 0.336944 0.338024 0.342199 
0.340405 0.340823 0.342239 0.339256 0.337538 0.337274 0.326235 0.32717 0.339978 
0.342648 0.342669 0.320991 0.31966 0.328503 0.33047 0.330197 0.329898 0.345442 
0.331394 0.33485 0.322497 0.342292 0.338083 0.339879 0.342846 0.345131 0.333985 
0.334334 0.336239 0.335739 0.335417 0.345331 0.330185 0.338735 0.330587 0.244754 
0.332147 0.332415 0.332246 0.341558 0.340836 0.34058 0.339717 0.338936 0.325276 
0.327133 0.324755 0.338314 0.338956 0.338726 0.334263 0.332774 0.340679 0.329362 
0.328374 0.334515 0.334605 0.350727 0.351382 0.350937 0.351403 0.339151 0.339584 
0.325407 0.326853 0.325904 0.352263 0.352032 0.351925 0.330319 0.3301 0.336268 
0.336201 0.324969 0.333884 0.334905 0.336847 0.337304 0.33603 0.336412 0.33658 
0.337011 0.335578 0.334975 0.335057 0.335239 0.335783 0.335281 0.335473 0.333345 
0.333382 0.340976 0.341895 0.30147 0.297159 0.330765 0.331043 0.327423 0.325885 
0.349497 0.35003 0.350283 0.350807 0.346601 0.344602 0.345719 0.342969 0.340016 
0.341094 0.319645 0.340359 0.340345 0.339563 0.339409 0.320188 0.342198 0.328703 
0.342973 0.342945 0.342107 0.343015 0.338453 0.338535 0.344289 0.345658 0.341273 
0.338895 0.339507 0.32517 0.317146 0.331076 0.343285 0.34287 0.332853 0.289324 
0.288924 0.338111 0.337462 0.309474 0.305666 0.307753 0.339738 0.343144 0.343241 
0.342705 0.335194 0.335682 0.347321 0.351592 0.322038 0.333064 0.333029 0.332884 
0.326285 0.329608 0.329768 0.329371 0.334323 0.286101 0.291156 0.349639 0.348763 
0.333603 0.313236 0.315932 0.315926 0.332814 0.332788 0.333011 0.333219 0.318774 
0.318922 0.336046 0.335514 0.346212 0.333316 0.333267 0.323621 0.333305 0.346536 
0.34712 0.347363 0.351469 0.351279 0.351947 0.351889 0.313677 0.342962 0.34394 
0.335473 0.335943 0.333251 0.333298 0.336917 0.324523 0.323603 0.323661 0.322424 
0.331729 0.332186 0.329408 0.328696 0.325783 0.335569 0.335706 0.33779 0.305075 
0.300382 0.34297 0.32783 0.326862 0.32062 0.327372 0.324889 0.330295 0.347163 
0.347632 0.333529 0.333652 0.332197 0.332669 0.326117 0.340393 0.313193 0.306847 
0.315894 0.334716 0.335083 0.334735 0.335095 0.334287 0.334339 0.33303 0.328705 
0.328003 0.344283 0.342101 0.323187 0.319263 0.320021 0.350677 0.330401 0.329758 
0.330051 0.305653 0.301959 0.306307 0.320711 0.330755 0.35494 0.328497 0.328727 
0.325156 0.33525 0.335223 0.324776 0.338245 0.338274 0.332255 0.320147 0.32198 
0.324925 0.325229 0.330941 0.333405 0.33339 0.341353 0.299722 0.331538 0.361799 
0.339561 0.33848 0.336179 0.333602 0.331219 0.324116 0.324646 0.33841 0.318976 
0.331495 0.331321 0.339184 0.33281 0.340184 0.341769 0.343279 0.331564 0.33143 
0.322507 0.330292 0.33041 0.302085 0.341798 0.343717 0.342221 0.343851 0.322588 
0.322972 0.328167 0.3336 0.333504 0.409464 0.35945 0.35126 0.349583 0.326842 
0.327677 0.326592 0.330222 0.329302 0.334409 0.337157 0.318408 0.331815 0.329757 
0.3284 0.341907 0.335482 0.335807 0.304807 0.335112 0.306342 0.304846 0.330593 
0.330484 0.329268 0.329556 0.329911 0.321769 0.337425 0.331195 0.301712 0.34572 
0.347268 0.342245 0.320488 0.322232 0.320333 0.322216 0.31723 0.332694 0.317225 
0.343604 0.332563 0.323825 0.321553 0.320242 0.32746 0.330757 0.309739 0.326954 
0.318286 0.332434 0.323997 0.318141 0.323214 0.324495 0.296425 0.324227 0.324448 
0.323604 0.327583 0.333441 0.3329 0.33287 0.33375 0.334442 0.330477 0.320254 
0.321374 0.32339 0.322323 0.349889 0.338133 0.334274 0.326053 0.331205 0.45191 
0.423776 0.332414 0.313845 0.33077 0.326432 0.327298 0.328943 0.298699 0.319978 
0.331076 0.320729 0.34832 0.338895 0.338243 0.339095 0.312373 0.304824 0.262854 
0.28732 0.290589 0.319829 0.318797 0.319473 0.332982 0.289763 0.338247 0.336695 
0.335471 0.295662 0.302051 0.332967 0.333026 0.33408 0.333873 0.322328 0.322032 
0.332058 0.291661 0.339928 0.336177 0.335822 0.336361 0.315134 0.322 0.316994 
0.324167 0.326981 0.32537 0.323005 0.333441 0.333513 0.340669 0.337578 0.33783 
0.33977 0.339723 0.342156 0.360472 0.361314 0.353777 0.346201 0.345609 0.346824 
0.325886 0.323721 0.32221 0.301708 0.295549 0.295709 0.317483 0.329519 0.328421 
0.331255 0.333316 0.333356 0.343299 0.343049 0.342964 0.343072 0.308403 0.30718 
0.325191 0.328373 0.324914 0.325266 0.333442 0.295045 0.300099 0.294994 0.300172 
0.310569 0.309413 0.331996 0.308267 0.304228 0.30679 0.323736 0.318821 0.327908 
0.318704 0.318111 0.329299 0.335227 0.333792 0.321593 0.333138 0.334266 0.334379 
0.33352 0.322472 0.323804 0.332144 0.328475 0.328075 0.326826 0.324641 0.323714 
0.324802 0.332941 0.333365 0.343334 0.30576 0.305568 0.300481 0.325629 0.332979 
0.332859 0.30126 0.296598 0.301578 0.342891 0.336575 0.351682 0.337464 0.343384 
0.332084 0.327671 0.312083 0.347841 0.348567 0.324474 0.322994 0.320668 0.323755 
0.317317 0.300977 0.301285 0.331753 0.329256 0.301089 0.296172 0.295816 0.333535 
0.333407 0.333858 0.327808 0.327551 0.300228 0.345061 0.333933 0.330048 0.333755 
0.332778 0.297952 0.344962 0.313499 0.310002 0.313891 0.3138 0.341655 0.341003 
0.314695 0.31066 0.335307 0.336893 0.33693 0.322097 0.325542 0.363047 0.375214 
0.338804 0.338805 0.339613 0.339197 0.340863 0.337169 0.340671 0.331372 0.324533 
0.339086 0.329459 0.328505 0.335323 0.329284 0.323398 0.328695 0.338139 0.298847 
0.325096 0.346138 0.33091 0.330638 0.33147 0.33268 0.325058 0.32668 0.351917 
0.336396 0.336002 0.329936 0.337424 0.349432 0.351151 0.347317 0.315219 0.3476 
0.341442 0.33602 0.335871 0.343659 0.322732 0.328046 0.327041 0.32776 0.327014 
0.324109 0.333688 0.333196 0.323817 0.33308 0.333288 0.33333 0.333299 0.333283 
0.333287 0.333324 0.333323 0.328176 0.320761 0.333305 0.339843 0.312384 0.326199 
0.326474 0.321207 0.322452 0.320302 0.340972 0.341613 0.333297 0.333319 0.333315 
0.313704 0.333341 0.333382 0.324251 0.323591 0.32447 0.323591 0.345416 0.33588 
0.326732 0.32804 0.329369 0.388712 0.393898 0.316042 0.329127 0.331414 0.337347 
0.334147 0.320815 0.320742 0.318743 0.31804 0.311002 0.340505 0.333355 0.316608 
0.31167 0.307716 0.308007 0.320952 0.333673 0.333831 0.333717 0.333906 0.326634 
0.319509 0.317868 0.318732 0.316379 0.331997 0.332033 0.332232 0.33228 0.314992 
0.315562 0.3149 0.333106 0.328066 0.331662 0.334412 0.3341 0.329093 0.328819 
0.333406 0.333517 0.333563 0.332336 0.332514 0.332927 0.334642 0.334327 0.33342 
0.345524 0.30859 0.361955 0.343787 0.344824 0.343163 0.331185 0.339223 0.339951 
0.336317 0.328202 0.327842 0.328911 0.335051 0.33215 0.305633 0.321313 0.29854 
0.308847 0.341268 0.340931 0.316098 0.322337 0.32712 0.324887 0.324258 0.325183 
0.337759 0.32372 0.323832 0.325741 0.324578 0.32798 0.353444 0.323458 0.326054 
0.347777 0.347232 0.326377 0.329209 0.344351 0.348408 0.34941 0.350156 0.375967 
0.376775 0.33329 0.336819 0.337557 0.337316 0.342721 0.33126 0.347567 0.348941 
0.330462 0.347014 0.333198 0.321292 0.321784 0.323243 0.324163 0.324948 0.326336 
0.362622 0.345113 0.347004 0.347488 0.333257 0.323444 0.340028 0.339765 0.327442 
0.326009 0.333888 0.324116 0.325307 0.334286 0.331757 0.333678 0.332188 0.335391 
0.333247 0.333045 0.333119 0.328808 0.329661 0.32475 0.326008 0.329253 0.325924 
0.333132 0.325112 0.329638 0.323227 0.321506 0.331787 0.326863 0.326828 0.34844 
0.328214 0.330699 0.332142 0.325651 0.327301 0.32718 0.331442 0.332597 0.328826 
0.333355 0.333362 0.330747 0.334573 0.326336 0.326694 0.345051 0.326935 0.349742 
0.348929 0.32583 0.321819 0.336709 0.334649 0.325987 0.324807 0.313657 0.350924 
0.341902 0.339766 0.317656 0.325371 0.325546 0.326664 0.333911 0.333765 0.333953 
0.291421 0.333164 0.333237 0.333156 0.333299 0.333306 0.333243 0.343024 0.33083 
0.332459 0.325725 0.331566 0.334458 0.340702 0.328742 0.334344 0.333175 0.325929 
0.333462 0.333425 0.333384 0.338879 0.341296 0.338432 0.345266 0.341159 0.365637 
0.371744 0.366355 0.332969 0.341865 0.342683 0.342921 0.34296 0.324443 0.323683 
0.321569 0.324825 0.341058 0.341917 0.342447 0.341887 0.323841 0.33335 0.333348 
0.333427 0.345557 0.345449 0.334341 0.334369 0.33471 0.32353 0.334095 0.334151 
0.322798 0.320348 0.348254 0.333303 0.333264 0.333792 0.346576 0.333374 0.334177 
0.334603 0.332909 0.333613 0.333372 0.333521 0.339464 0.339237 0.330502 0.333284 
0.332867 0.333387 0.327771 0.331669 0.328554 0.325266 0.333039 0.32958 0.332553 
0.323383 0.326205 0.326268 0.327988 0.343078 0.343385 0.331442 0.328546 0.328575 
0.32578 0.332053 0.330024 0.332988 0.339725 0.342514 0.342935 0.316263 0.287334 
0.28951 0.333082 0.333289 0.333254 0.333163 0.339406 0.342598 0.342836 0.33953 
0.333294 0.331952 0.318165 0.320781 0.322254 0.324141 0.323015 0.336236 0.342702 
0.342487 0.342896 0.342516 0.321972 0.322957 0.341649 0.289546 0.350858 0.324048 
0.324392 0.320934 0.325442 0.343398 0.299153 0.343485 0.343167 0.335208 0.33506 
0.332896 0.3359 0.349936 0.35057 0.342413 0.343446 0.347698 0.348694 0.337288 
0.342349 0.33354 0.334232 0.336697 0.335972 0.335674 0.338205 0.336303 0.344635 
0.338629 0.342711 0.345274 0.344446 0.349849 0.351681 0.351099 0.351468 0.339453 
0.339065 0.35014 0.350685 0.351116 0.351627 0.347283 0.348855 0.347245 0.351784 
0.352048 0.316753 0.339175 0.333051 0.316882 0.341184 0.341746 0.335996 0.334994 
0.335381 0.335055 0.327407 0.328897 0.334833 0.333332 0.332364 0.321023 0.322399 
0.33364 0.341452 0.332559 0.314414 0.310769 0.336058 0.349021 0.347903 0.349693 
0.348776 0.302627 0.338267 0.337336 0.337283 0.333768 0.336153 0.332021 0.331715 
0.337171 0.334344 0.339822 0.331855 0.332097 0.340473 0.345429 0.33441 0.334714 
0.295966 0.333429 0.333348 0.338671 0.322229 0.323323 0.322216 0.335868 0.334012 
0.339072 0.329131 0.328842 0.339113 0.338812 0.332233 0.361997 0.331746 0.331731 
0.33139 0.333362 0.331861 0.337553 0.342878 0.33337 0.33198 0.331796 0.333252 
0.319714 0.353235 0.333369 0.33408 0.333991 0.337473 0.336978 0.336813 0.336355 
0.342908 0.342926 0.34265 0.308112 0.339233 0.347577 0.343015 0.417417 0.345394 
0.330892 0.323786 0.342381 0.342446 0.343905 0.352003 0.351545 0.350881 0.350701 
0.341971 0.308858 0.329721 0.349407 0.33308 0.336226 0.347677 0.342148 0.338887 
0.337142 0.3383 0.337271 0.340546 0.343083 0.343436 0.343329 0.346681 0.349651 
0.327457 0.326429 0.326641 0.327972 0.341317 0.332484 0.343435 0.3349 0.327952 
0.328242 0.33186 0.325309 0.325067 0.324146 0.333662 0.345989 0.339742 0.340824 
0.345781 0.296529 0.331131 0.33628 0.294399 0.369705 0.334604 0.451789 0.34051 
0.338654 0.338553 0.3467 0.341902 0.342896 0.328694 0.328878 0.331135 0.324971 
0.324785 0.327763 0.330845 0.331091 0.326108 0.328308 0.343546 0.320941 0.333778 
0.333625 0.320108 0.318287 0.319842 0.34338 0.302574 0.343795 0.331869 0.330536 
0.328829 0.324653 0.339531 0.322639 0.321082 0.322912 0.323407 0.349529 0.324316 
0.348985 0.3425 0.344444 0.332517 0.333101 0.333215 0.333122 0.332973 0.331878 
0.331794 0.320138 0.30959 0.331361 0.298569 0.332015 0.332221 0.332177 0.331804 
0.333271 0.333201 0.333482 0.332668 0.341851 0.342779 0.342214 0.325717 0.325688 
0.328928 0.311261 0.323938 0.334515 0.334227 0.349689 0.324199 0.322794 0.329731 
0.329405 0.320146 0.314051 0.320743 0.3243 0.334227 0.328541 0.327991 0.32796 
0.326817 0.323396 0.314498 0.330501 0.32748 0.337688 0.327184 0.34571 0.330015 
0.332153 0.338691 0.349673 0.330188 0.288759 0.33259 0.342722 0.334636 0.334703 
0.334381 0.34017 0.328541 0.312204 0.318693 0.33233 0.334112 0.334246 0.338637 
0.341529 0.337128 0.33512 0.334056 0.335537 0.336815 0.33387 0.329382 0.330394 
0.32882 0.326469 0.287751 0.341062 0.328833 0.343391 0.342556 0.337556 0.336814 
0.333373 0.328888 0.317556 0.333703 0.338868 0.337242 0.336597 0.33941 0.333363 
0.322994 0.33958 0.338858 0.319443 0.333138 0.33443 0.33052 0.295235 0.327432 
0.335786 0.335863 0.322072 0.318419 0.320814 0.286303 0.333184 0.333458 0.365793 
0.375437 0.345647 0.347261 0.332904 0.32097 0.333613 0.333314 0.333621 0.333569 
0.332887 0.318462 0.332514 0.337083 0.33126 0.337473 0.351652 0.31637 0.305139 
0.346287 0.344003 0.329851 0.327369 0.332217 0.33345 0.333543 0.354195 0.315569 
0.337319 0.332716 0.328704 0.328074 0.33338 0.327965 0.327516 0.326965 0.28993 
0.330865 0.286156 0.333302 0.333325 0.317059 0.337393 0.336084 0.337855 0.323676 
0.348293 0.325763 0.315808 0.337125 0.350924 0.351439 0.350655 0.317198 0.337094 
0.348094 0.327049 0.333374 0.362979 0.344854 0.324991 0.325363 0.326191 0.317141 
0.31128 0.326253 0.349105 0.318735 0.348315 0.340829 0.334521 0.334317 0.349784 
0.316447 0.306523 0.333326 0.345139 0.347262 0.333357 0.333327 0.321838 0.326748 
0.324317 0.343947 0.342911 0.333305 0.333277 0.333251 0.323964 0.318768 0.326112 
0.331801 0.332108 0.329095 0.332135 0.330661 0.333657 0.334605 0.332236 0.329 
0.32649 0.327072 0.332364 0.326096 0.320871 0.328316 0.327565 0.333334 0.333342 
0.329421 0.32607 0.333369 0.342936 0.342588 0.342092 0.350112 0.349289 0.327268 
0.299618 0.303969 0.343883 0.333209 0.390295 0.303249 0.333841 0.335666 0.33978 
0.32235 0.322851 0.318615 0.335892 0.310003 0.338093 0.338605 0.328566 0.329709 
0.341889 0.342522 0.330492 0.329988 0.330355 0.334828 0.336084 0.327445 0.332891 
0.332042 0.31838 0.334834 0.332736 0.295663 0.316907 0.31546 0.316746 0.330211 
0.333058 0.33401 0.33464 0.334739 0.338673 0.330042 0.313738 0.301691 0.330198 
0.35123 0.324862 0.334846 0.318876 0.345076 0.33329 0.323451 0.324544 0.300783 
0.325212 0.32943 0.32475 0.321535 0.332442 0.331895 0.367095 0.317138 0.321228 
0.323336 0.347406 0.347414 0.35031 0.340731 0.352969 0.35492 0.356487 0.340266 
0.330409 0.32746 0.335438 0.3438 0.315636 0.336455 0.338907 0.35326 0.317616 
0.345627 0.333173 0.327864 0.331834 0.325641 0.348111 0.341623 0.340203 0.342592 
0.343219 0.321764 0.32289 0.2876 0.334126 0.313398 0.334929 0.343498 0.324022 
0.350725 0.34337 0.315121 0.309413 0.314712 0.314975 0.326806 0.327864 0.332361 
0.332756 0.326752 0.33361 0.333796 0.317228 0.325633 0.345353 0.330859 0.337398 
0.359113 0.343905 0.338306 0.32985 0.329507 0.331305 0.325252 0.34571 0.32561 
0.326535 0.344441 0.327619 0.331991 0.332304 0.333506 0.320086 0.332021 0.328743 
0.350738 0.299479 0.340998 0.324422 0.33237 0.339088 0.340149 0.33936 0.335273 
0.338343 0.335127 0.334517 0.328978 0.324683 0.330158 0.326026 0.332743 0.335967 
0.33933 0.339433 0.341544 0.331217 0.33294 0.333912 0.329155 0.317066 0.340285 
0.333505 0.341152 0.333113 0.330088 0.325988 0.334714 0.337665 0.335434 0.341935 
0.312779 0.337123 0.339239 0.341213 0.342821 0.321207 0.337826 0.347445 0.34904 
0.349393 0.348697 0.342893 0.342912 0.351369 0.3442 0.339836 0.338644 0.335568 
0.33835 0.333365 0.34781 0.343317 0.333335 0.325659 0.33014 0.33329 0.317032 
0.333354 0.239272 0.331496 0.312243 0.287418 0.331122 0.341638 0.27453 0.328597 
0.332102 0.333373 0.326773 0.325058 0.326184 0.327982 0.340649 0.338022 0.329284 
0.33249 0.34892 0.329795 0.341792 0.334823 0.347156 0.345989 0.325466 0.338081 
0.336826 0.335472 0.319026 0.331196 0.334587 0.330562 0.325357 0.334673 0.33202 
0.340855 0.338868 0.342968 0.323636 0.332008 0.340925 0.339847 0.332919 0.343081 
0.325408 0.34319 0.34347 0.348995 0.322501 0.339519 0.329941 0.341429 0.319123 
0.322256 0.33401 0.336493 0.350295 0.350511 0.354307 0.333358 0.3343 0.330525 
0.339765 0.346878 0.338027 0.329139 0.343678 0.336936 0.337332 0.337461 0.33824 
0.342124 0.334271 0.342873 0.337991 0.340802 0.311448 0.319608 0.343216 0.333643 
0.33303 0.30856 0.314006 0.335092 0.335035 0.327736 0.332542 0.329892 0.32859 
0.317178 0.289424 0.33373 0.314769 0.342081 0.33512 0.32779 0.326483 0.333609 
0.337604 0.306203 0.333331 0.33707 0.333272 0.333001 0.295492 0.346928 0.347566 
0.320386 0.316824 0.335103 0.333383 0.315234 0.333095 0.343561 0.332164 0.34439 
0.333344 0.307783 0.328666 0.351134 0.325148 0.32729 0.312511 0.317041 0.340098 
0.328572 0.332752 0.340278 0.345604 0.33367 0.323307 0.333481 0.332813 0.331533 
0.333938 0.344705 0.324427 0.317888 0.356416 0.338225 0.390322 0.400252 0.366766 
0.333356 0.331481 0.342782 0.326978 0.333848 0.34165 0.333722 0.33358 0.333477 
0.329455 0.327528 0.336949 0.34296 0.34315 0.317382 0.323383 0.347934 0.333515 
0.333537 0.346891 0.338038 0.337764 0.333756 0.319286 0.335006 0.336291 0.334161 
0.346044 0.328652 0.337932 0.344955 0.319355 0.335266 0.320313 0.325289 0.341341 
0.336419 0.339065 0.327143 0.324495 0.33377 0.342443 0.345776 0.336283 0.32871 
0.290196 0.333311 0.297907 0.344129 0.324368 0.324113 0.329147 0.330231 0.335215 
0.319042 0.324853 0.341989 0.333161 0.333434 0.336454 0.32928 0.313458 0.340158 
0.334581 0.33872 0.344317 0.33727 0.332948 0.330171 0.344803 
Stress%20yz%20component 1 12526 double
-0.0788128 0.102188 -0.0745045 0.119586 5.70517e-07 -3.01021e-07 3.13657e-06 -1.29093e-06 0.0294713 
-0.0157601 0.0264619 -0.0298457 -0.0443834 0.0172644 -0.0191956 0.023373 0.0409199 0.0588391 
0.0488218 0.0488028 0.0520503 0.0530809 0.0506122 0.0507387 0.0503581 0.0510069 0.0509022 
0.0513051 0.0523675 0.052856 0.0522595 0.0523305 0.0522923 0.0523711 0.0529638 0.0537583 
0.0537517 0.0539852 0.0540277 0.0551027 0.0587657 0.0683706 0.0669221 -0.0603552 -0.0862792 
-0.080054 -0.0770049 -0.0515596 -0.0518533 -0.0515719 -0.0515768 -0.0521047 -0.0515813 -0.0507335 
-0.0522627 -0.0526358 -0.0524393 -0.0528723 -0.0533301 -0.0529624 -0.05302 -0.05404 -0.0542075 
-0.0550116 -0.0551772 -0.0553422 -0.0571474 -0.0650089 -0.0484177 1.17357e-07 -2.74035e-07 -4.50801e-06 
-3.18878e-06 -1.2978e-06 -1.11405e-06 -3.16565e-07 9.57077e-07 1.59939e-06 2.52071e-06 3.187e-06 6.18494e-08 
2.47711e-06 3.02444e-06 2.63008e-06 3.13828e-06 -2.70316e-06 2.9272e-06 -2.34026e-06 1.59353e-06 4.29911e-07 
-1.7309e-07 -1.63011e-06 -2.2403e-06 1.74759e-06 -1.18877e-06 -3.88638e-06 0.0038772 -0.0019455 -0.000174173 
-0.000155459 -0.000136395 -0.000104181 -8.51761e-05 -7.16283e-05 -6.45723e-05 -4.22086e-05 -3.85878e-05 -3.70639e-05 
-2.70674e-05 -2.29498e-05 -2.17589e-05 -2.28867e-05 -2.66544e-05 -3.17816e-05 -4.90971e-05 -5.13026e-05 -4.74187e-05 
-1.61817e-05 2.0875e-05 5.12976e-05 5.58919e-05 4.96403e-05 3.20489e-05 1.37408e-05 7.94724e-07 -1.22083e-05 
-1.95716e-05 -2.17822e-05 -2.38783e-05 -2.10238e-05 -1.829e-05 -1.66466e-05 -1.75085e-05 -1.55051e-05 -1.24943e-05 
-1.11111e-05 -8.91026e-06 -6.30721e-06 -4.15508e-06 2.19507e-06 7.59796e-07 7.29468e-07 3.20904e-06 2.90208e-07 
-4.92611e-06 -7.08985e-06 -9.5399e-06 -1.15121e-05 -1.3165e-05 -1.47329e-05 -1.41046e-05 -1.21339e-05 -1.45966e-05 
-1.63174e-05 -1.44299e-05 -1.68294e-05 -4.01479e-07 4.52257e-06 4.74798e-05 7.12323e-05 7.1383e-05 2.05287e-05 
1.00128e-05 4.33099e-06 -6.06159e-05 -0.000111156 -9.80068e-05 -2.9864e-05 -5.83235e-05 -1.34984e-05 -8.4636e-06 
-2.67641e-05 -2.21659e-05 -1.88044e-05 -2.18499e-05 -2.55693e-05 -2.78229e-06 5.39069e-06 -4.33942e-05 -3.74038e-05 
-5.91401e-05 -7.03611e-05 -0.000109194 -0.000570609 -0.00220471 0.0376508 -0.0585673 -0.0427371 -0.0443249 
-0.0502048 -0.0439899 -0.0448548 -0.0416436 -0.0353717 -0.0327454 -0.0312225 -0.029645 -0.0259841 
-0.0506643 0.0276164 0.0388558 0.0407924 0.0435332 0.0436174 0.0371334 0.0236084 0.030015 
0.0302773 0.0390832 0.0314229 0.0364403 0.0265227 1.37851e-06 9.32868e-07 2.85774e-06 2.59281e-06 
1.5323e-06 5.43394e-07 2.09746e-07 -1.33302e-06 -1.51096e-06 9.11561e-07 -3.10188e-06 -4.66888e-07 -2.5212e-06 
-2.69891e-06 -2.45821e-06 -3.56362e-06 1.06161e-06 -2.89665e-06 4.33989e-07 -4.26183e-07 -3.6606e-07 5.67882e-07 
1.82451e-06 2.37808e-06 -3.58682e-07 7.63245e-07 1.23352e-06 -0.0285655 0.00124532 0.000338216 7.58666e-05 
4.20354e-05 2.99079e-05 2.06077e-05 1.09115e-05 7.85254e-06 7.17005e-06 1.36773e-05 6.19296e-06 3.59749e-06 
6.91241e-06 1.17083e-05 2.0102e-05 3.3098e-05 5.78674e-05 7.68687e-05 9.02823e-05 8.267e-05 5.98428e-05 
1.86377e-05 -2.37585e-05 -6.04903e-05 -7.461e-05 -6.94421e-05 -6.42034e-05 -4.42035e-05 -2.93404e-05 -1.99936e-05 
-1.25455e-05 -8.06682e-06 -7.23542e-06 -4.38769e-06 -1.9395e-06 -3.55348e-07 7.00705e-07 1.83257e-06 2.66558e-06 
2.66414e-06 3.14767e-06 1.63406e-06 -2.24799e-06 -9.29986e-06 -8.19424e-06 -1.75943e-06 2.14589e-06 3.65982e-06 
4.62717e-06 6.44978e-06 8.07196e-06 8.75109e-06 9.09777e-06 5.14144e-06 3.37462e-06 4.54962e-06 1.17863e-07 
-3.9416e-07 -4.57264e-07 -1.45588e-05 -1.837e-05 -3.71474e-05 -5.16552e-05 -7.04608e-05 -7.33947e-05 -5.05301e-05 
-2.36719e-05 1.27269e-05 7.4209e-05 0.000125404 8.64495e-05 7.79913e-05 3.40352e-05 1.6474e-05 2.16204e-05 
1.5545e-05 2.3288e-05 2.62679e-05 3.17242e-05 2.82811e-05 4.13622e-05 4.30378e-05 -1.07353e-05 0.000121546 
0.00018706 0.000274989 0.000507984 0.00252244 -0.00418876 0.0252549 0.0406137 0.0303432 0.030435 
0.0320265 0.0319201 0.0304464 0.0394685 0.043717 0.0437675 0.044909 0.0459467 0.0290802 
-0.0496662 -0.0442752 -0.0435488 -0.0311014 -0.0312407 -0.0254842 -0.0402222 -0.0430027 -0.0433625 
-0.0432132 -0.0421348 -0.0449678 -0.0518355 -9.22238e-08 -8.91028e-07 1.65746e-07 1.04777e-07 8.60316e-07 
8.72962e-07 -4.42351e-08 -1.30908e-06 -1.7491e-06 -1.0292e-06 -2.23734e-07 -1.1777e-06 -1.04226e-06 -1.10422e-06 
-1.32335e-06 -1.04106e-07 -1.64306e-06 9.44377e-07 -9.30084e-07 -1.6837e-07 7.52145e-07 2.11846e-08 6.81918e-07 
8.05883e-07 -1.78586e-06 -5.45051e-07 4.48109e-06 0.00713675 -0.000259958 -2.42225e-05 9.82459e-06 4.14805e-06 
-2.93977e-06 -4.32748e-06 4.77138e-06 6.21318e-06 -4.22866e-06 -1.40164e-06 7.13921e-06 7.47961e-06 8.01876e-06 
5.51708e-06 6.34494e-06 1.06942e-06 -2.27853e-06 -2.00499e-06 2.35954e-05 2.86444e-05 -2.44893e-06 -3.04659e-06 
-8.72727e-06 -8.81575e-06 -4.02291e-06 -7.62184e-06 -8.33287e-07 2.67905e-06 4.2158e-06 2.66577e-06 2.59228e-06 
3.54052e-06 3.8509e-06 1.79356e-06 -1.81253e-07 4.49416e-07 2.14863e-06 2.25219e-06 1.58162e-06 1.65294e-06 
1.33178e-06 -3.59263e-07 4.28028e-07 -2.97345e-06 -1.64868e-06 -1.57899e-06 -1.84255e-06 -2.38347e-06 -2.98408e-06 
-2.35846e-06 -1.9416e-06 -1.03626e-06 2.95494e-06 1.57524e-06 5.07563e-06 4.96235e-06 1.67736e-06 -4.20726e-07 
-8.96952e-06 -2.13658e-05 -1.96595e-05 -1.17527e-06 4.58751e-06 4.87368e-06 1.89867e-05 7.89216e-06 -1.77431e-05 
-4.24582e-05 -1.74824e-06 -7.93026e-06 -1.1001e-05 -5.02492e-06 8.50501e-06 6.01886e-06 -7.08089e-06 3.04058e-06 
-5.13244e-06 -2.47472e-05 -9.99836e-06 9.98394e-06 1.09294e-05 4.23201e-05 6.24827e-05 3.45417e-05 0.000728156 
0.0044814 0.00687157 0.00641891 0.00641974 0.00452263 0.00544999 0.00573731 0.00528621 0.0059909 
0.00621114 0.00554897 0.00596693 0.00565865 0.00563929 0.00572016 0.00607704 0.00630627 0.00605034 
0.00636132 0.0060028 0.00628025 0.00615261 0.00611945 0.00653958 0.00557888 0.00396455 0.0119771 
0.00584622 0.00541825 0.00533214 0.00526888 0.00545316 0.00608969 0.00614122 0.00505944 0.00490971 
0.0051999 0.00545872 0.00382524 0.00900071 -0.000288606 -0.0163976 -0.0126522 -0.0105211 -0.00399467 
-0.00524798 -0.00552242 -0.00423673 -0.00440654 -0.00464574 -0.00467216 -0.00546482 -0.00533392 -0.00458355 
-0.0105367 -0.000884382 -0.00115841 -0.000372304 0.000672098 0.00218509 -0.000306419 -5.34833e-08 2.7713e-07 
-2.44769e-07 2.42597e-07 2.44276e-07 -5.95439e-07 -2.4833e-07 7.5074e-07 -5.2244e-07 6.68425e-07 -5.70077e-08 
-5.42955e-07 -1.75688e-07 -5.88749e-07 2.29162e-07 -6.4092e-07 -2.2585e-07 1.00279e-06 -1.75273e-09 -3.5227e-07 
4.60217e-07 3.00045e-07 -1.07985e-06 3.37532e-07 9.7275e-05 0.00246994 6.62167e-05 3.15376e-05 2.95005e-05 
1.7393e-05 7.08125e-06 1.4116e-05 1.39259e-05 5.30967e-06 1.23642e-06 2.77567e-06 -1.86967e-06 -4.18391e-06 
-6.27427e-06 -3.53028e-06 1.39492e-07 6.92569e-06 1.18237e-05 1.07015e-05 2.2464e-05 2.44183e-05 1.35545e-05 
-2.24033e-05 6.30798e-06 -2.69573e-05 -1.70404e-05 -1.21685e-05 -8.43856e-06 1.35397e-06 4.80634e-07 1.01133e-06 
2.26757e-06 8.46367e-07 6.92779e-07 2.08481e-06 3.46584e-06 2.95986e-06 4.32719e-07 -5.96418e-07 -1.04364e-06 
-1.00025e-06 -9.9639e-07 1.73743e-06 0.0012001 0.000403903 -2.24583e-07 -6.04511e-07 -5.78039e-07 -5.2486e-07 
-5.32409e-07 -2.46539e-07 4.47776e-06 1.58053e-06 4.75293e-07 1.96332e-07 1.26136e-06 1.08424e-06 -3.80187e-06 
1.84803e-06 1.23168e-05 1.45476e-07 -1.16408e-05 -8.37553e-06 -2.92247e-07 -3.24861e-06 9.0613e-06 1.26346e-05 
-9.19971e-06 2.49428e-05 3.09737e-05 2.92292e-05 1.84042e-05 -8.28692e-06 4.83486e-06 3.17827e-06 -3.29007e-07 
9.25049e-07 -1.17055e-05 -1.59164e-05 2.3349e-06 -1.67809e-05 -2.61814e-05 1.03398e-05 -2.05136e-05 3.04163e-05 
0.000464147 0.00195587 0.00215252 0.000666577 0.000663378 1.94955e-06 -2.06649e-05 -0.000130959 -6.03816e-05 
-0.000143786 -9.67804e-05 9.59924e-06 -5.35578e-05 -4.01786e-06 -7.73148e-05 -8.00882e-05 -0.000122321 -2.61011e-05 
-7.15327e-05 3.1017e-07 2.33832e-05 -8.11202e-05 3.96479e-05 0.000312496 -0.000829665 0.00218522 -0.000587309 
0.000133187 0.000130845 4.15031e-05 8.50089e-05 2.21305e-05 0.000103854 -0.000177149 0.000677237 0.00168298 
0.000786921 -0.000949591 -0.000685073 0.000280812 -0.000568262 0.000370096 4.23217e-05 -0.000528348 -0.000170067 
-2.99976e-05 -4.87216e-05 2.40686e-05 -6.38935e-06 -3.32068e-05 0.000238825 -0.000139207 -0.00040877 -0.000985467 
0.000343491 -3.8478e-07 -0.000324288 0.000512291 -0.000439228 0.000470337 -1.0647e-05 1.92508e-06 -2.02266e-07 
-2.26552e-07 2.60566e-07 8.86693e-08 3.70312e-07 4.26772e-07 3.97083e-07 1.90745e-07 2.93571e-07 9.30133e-08 
7.21453e-08 -3.80517e-08 2.64378e-08 1.34616e-07 -3.1066e-07 1.15912e-08 2.35984e-07 7.90228e-08 1.34761e-06 
-1.774e-07 -4.39766e-05 1.88035e-06 3.7355e-06 3.73423e-05 2.38251e-06 3.1462e-06 8.69395e-06 9.78801e-06 
1.16961e-05 4.01421e-06 -1.76062e-07 1.12261e-06 -1.35367e-06 -1.92227e-06 -2.70444e-06 -7.99161e-06 -1.0188e-05 
9.70739e-06 1.30541e-05 1.13288e-05 2.96193e-05 2.26005e-05 1.87398e-05 -3.55132e-06 -4.50226e-05 6.63379e-06 
-5.1183e-06 -1.95068e-06 -9.16545e-07 -5.28704e-06 -3.04995e-07 2.0923e-06 1.0262e-06 2.56862e-07 -1.45698e-07 
-1.66691e-08 3.34346e-07 2.99256e-07 3.00976e-07 -6.92312e-07 -2.81227e-07 -5.54958e-07 -1.30799e-06 -0.000101204 
9.87542e-05 4.48947e-05 -1.08195e-07 2.12095e-07 3.02084e-07 -6.99967e-07 6.52989e-07 1.88169e-07 -3.00056e-07 
2.36145e-07 8.57934e-07 1.61358e-06 5.45066e-06 5.93275e-06 -2.04309e-05 4.37142e-06 -1.10519e-05 1.57715e-05 
-2.23122e-05 -7.12899e-06 5.77799e-05 -2.92019e-05 4.65197e-05 4.51413e-05 1.0071e-05 1.82952e-05 -1.61865e-06 
-5.50581e-06 -3.29283e-06 -1.12895e-05 -3.44505e-06 -2.87948e-06 -3.04347e-06 7.78474e-06 -4.69901e-06 6.67859e-06 
5.46831e-06 3.0301e-05 3.32211e-06 -1.19307e-05 3.20265e-05 0.000115629 1.50553e-05 9.01302e-05 -2.51103e-05 
-3.88601e-06 2.29155e-05 -1.46744e-05 -1.75779e-05 -2.31728e-05 -1.70741e-05 -3.03606e-05 -2.10339e-05 -2.0083e-05 
-2.14554e-05 -3.06275e-05 -3.90097e-05 -3.764e-05 -3.23452e-05 -2.37787e-05 -1.16039e-05 1.03087e-05 -3.31693e-05 
1.16473e-05 4.9793e-06 3.3395e-06 -7.91249e-06 -5.10164e-05 -1.06073e-05 9.68535e-05 5.66294e-05 -1.0903e-05 
1.90924e-05 5.49767e-06 0.000150494 -4.19527e-05 -0.000204365 -3.42962e-05 3.61125e-05 1.32553e-05 3.99247e-05 
2.38134e-05 9.91486e-06 5.02386e-05 -0.000116093 3.70518e-05 0.000114065 -3.04803e-05 -4.66607e-07 -1.76027e-05 
-2.60516e-05 -9.38045e-07 -1.88727e-05 1.61852e-05 2.82238e-06 -7.14756e-05 -6.86504e-05 6.12045e-05 -6.11499e-05 
-1.09181e-05 4.26058e-08 3.86285e-07 1.36127e-07 4.05439e-08 3.6794e-07 2.79101e-07 -1.07909e-07 6.68438e-07 
2.08805e-07 1.96182e-07 1.99162e-07 8.91401e-09 -2.91701e-08 1.81778e-08 -1.28312e-07 1.07561e-07 2.85531e-07 
7.99329e-07 3.99789e-09 4.26704e-06 2.19659e-05 -2.81196e-05 6.54379e-06 -1.9961e-06 5.78926e-06 8.15078e-06 
6.47782e-06 1.20778e-06 -2.47171e-06 5.23962e-06 3.80881e-06 1.23332e-06 8.05727e-07 -2.27964e-06 -1.72047e-05 
-2.80363e-05 -1.94723e-05 -4.0491e-05 -9.16768e-06 -9.28752e-06 3.09214e-06 2.06421e-06 -4.3325e-07 -9.81157e-07 
1.35717e-07 2.85421e-07 2.85441e-07 5.55928e-07 4.38751e-07 2.44532e-07 4.4198e-07 -1.7539e-07 5.42415e-07 
-5.98221e-05 1.37577e-05 4.55108e-08 1.55128e-06 -1.2105e-06 6.10147e-07 3.77548e-07 4.2067e-07 -7.43817e-07 
5.64452e-07 -3.15123e-07 3.70293e-07 1.65792e-06 7.14571e-06 -1.51765e-05 1.82766e-05 -1.13907e-05 3.93107e-05 
1.81151e-05 5.04641e-06 -3.28221e-06 -8.06034e-07 1.57051e-06 5.66984e-07 -5.44956e-06 3.23979e-06 6.69422e-06 
7.8741e-06 -2.05406e-05 -5.14697e-05 1.5249e-05 -3.60033e-05 1.10121e-05 1.77765e-05 2.97248e-05 2.83136e-05 
-1.3202e-05 2.14702e-05 1.59806e-05 -1.001e-05 8.3505e-06 3.09919e-06 6.47034e-07 6.22623e-07 2.76775e-06 
6.29197e-06 -1.83733e-07 3.6292e-07 5.71037e-06 -5.76717e-07 -5.01357e-07 -5.34299e-07 1.00759e-05 -1.60579e-05 
-8.72033e-06 -7.92727e-06 -1.22959e-06 1.29187e-05 -9.02594e-06 7.31463e-06 1.901e-07 -1.05134e-07 8.03218e-06 
4.23183e-06 9.35837e-06 -1.50441e-05 2.60209e-05 -6.17453e-06 2.37392e-05 -2.47861e-05 8.3223e-06 -5.24398e-06 
-1.22888e-06 -2.53408e-05 -1.73559e-05 -1.46585e-05 4.26349e-05 1.28216e-05 1.22522e-06 -1.29693e-06 -8.30927e-08 
4.17862e-07 6.22139e-07 1.40622e-06 6.4055e-07 1.23505e-06 7.68257e-07 1.80541e-07 -7.79544e-09 1.00083e-07 
1.89051e-07 3.88233e-07 -9.78218e-08 5.0979e-07 -9.30093e-06 9.71766e-06 -3.38347e-06 -1.08799e-05 1.44544e-05 
1.64075e-06 5.51272e-06 5.29616e-07 2.81422e-07 5.01704e-08 6.18219e-07 -8.40903e-06 -6.97318e-07 -2.3143e-06 
1.76155e-05 -6.92662e-06 1.81925e-07 2.13405e-07 1.38498e-06 1.06434e-06 1.82608e-07 -8.14354e-08 4.67988e-07 
3.78509e-07 3.15398e-07 5.98505e-07 3.84254e-07 9.33873e-06 1.15559e-06 -2.13336e-06 -1.01304e-06 -6.90795e-07 
-1.0785e-06 8.2787e-07 -3.02882e-07 -9.67441e-07 4.45495e-06 9.08062e-06 3.44692e-07 -2.41602e-05 9.178e-06 
4.47379e-07 -7.33091e-07 -2.53771e-06 7.31319e-06 -6.10368e-06 8.14788e-09 -3.38778e-06 -2.48742e-06 -1.36924e-05 
-2.0325e-05 1.00603e-05 -3.94862e-06 1.69317e-05 1.27014e-05 -3.45099e-06 2.79171e-07 8.35029e-06 -6.93781e-07 
1.65425e-05 3.99884e-07 2.55716e-06 1.79569e-06 -3.14933e-06 7.43022e-06 2.26151e-05 5.19668e-06 -7.30171e-06 
-1.17905e-05 -4.55096e-06 1.7823e-05 1.35692e-05 3.08173e-06 1.1725e-05 4.54309e-06 6.35563e-07 2.01779e-05 
8.0507e-06 1.23788e-05 5.89094e-06 5.58297e-07 1.71594e-06 -3.40394e-06 -5.67591e-06 -7.9451e-06 -5.23988e-06 
4.34546e-05 -1.08282e-05 7.95649e-06 1.23147e-05 1.43391e-06 6.26245e-07 2.39666e-06 6.77073e-07 3.63043e-08 
-1.98929e-06 3.56757e-07 -1.56327e-07 1.27781e-07 2.14691e-07 4.56092e-07 -4.26875e-07 1.12786e-05 1.62101e-05 
-9.18315e-06 -3.08966e-06 6.21979e-06 -1.43292e-06 -1.78106e-06 1.57344e-07 8.89896e-07 -2.80485e-06 9.39775e-06 
8.28708e-06 -6.96811e-08 8.31502e-07 -5.4522e-07 -8.82575e-08 1.10813e-06 8.45532e-07 6.45275e-07 -5.91849e-06 
7.72246e-06 -5.78093e-06 -1.34236e-06 4.64425e-07 -2.78613e-07 -1.00818e-06 -1.92121e-06 -1.55025e-06 -6.78013e-07 
3.98408e-06 -9.83783e-06 2.09929e-06 -5.57777e-06 1.51407e-06 2.17426e-06 1.4944e-05 6.69739e-06 7.52889e-07 
5.26062e-06 -1.59098e-05 1.88382e-06 -2.43142e-05 1.14394e-06 -1.0713e-05 1.39934e-06 -1.07005e-05 -1.23711e-05 
1.26212e-05 1.80286e-06 1.28197e-05 1.22568e-05 -9.42221e-06 -6.19282e-07 -6.63674e-06 1.49348e-06 2.28206e-06 
-3.16213e-06 5.00348e-07 9.85371e-06 -5.44387e-07 -3.26992e-06 2.18568e-05 -1.97007e-06 1.72133e-06 -6.90663e-06 
-4.19554e-06 -1.48928e-06 -2.72253e-06 -7.94108e-08 6.25134e-07 1.43304e-07 8.35018e-07 8.60855e-07 3.05455e-06 
9.74421e-06 -2.06384e-05 9.6327e-07 7.98156e-06 9.49725e-07 2.24502e-06 7.65969e-06 2.4137e-07 -5.55973e-06 
2.22521e-06 1.10999e-06 1.57919e-06 7.5048e-06 -1.4347e-06 -6.15663e-07 -2.73727e-06 -1.38886e-06 3.23851e-06 
1.44859e-05 -1.31527e-05 9.11186e-06 -7.21811e-08 -3.4747e-06 2.19543e-05 -2.50776e-05 1.91501e-05 5.72869e-06 
1.57735e-05 -1.77927e-05 1.81198e-05 1.61999e-05 -1.34154e-05 1.96666e-06 -6.92974e-07 -1.0547e-05 1.2262e-05 
2.50389e-06 2.48332e-06 -5.39076e-07 8.2049e-07 -7.07791e-07 -1.99975e-06 -2.6272e-06 -1.48469e-06 -2.16618e-06 
-1.17122e-05 6.45389e-06 1.3803e-05 6.95981e-07 1.87945e-06 -1.52494e-06 8.10502e-07 -1.5746e-05 -3.72424e-07 
-2.01916e-06 -2.3519e-06 5.58767e-07 7.86892e-07 -1.83867e-05 -1.34375e-05 4.40016e-06 7.42729e-07 -3.16038e-06 
5.67913e-06 -7.32112e-06 6.57802e-06 1.2861e-05 -5.05579e-06 3.05328e-07 -2.09523e-06 -1.23777e-06 -1.61783e-06 
1.43283e-05 -5.99255e-06 2.60475e-07 3.54437e-06 2.30943e-06 2.35091e-07 5.78333e-07 4.13864e-07 -1.08692e-06 
-8.64951e-07 7.36765e-08 1.35494e-06 8.08202e-07 3.90189e-07 7.63618e-07 -8.51373e-08 7.38693e-07 1.21092e-06 
8.81557e-07 5.17366e-07 5.51254e-07 4.7312e-07 5.21433e-08 1.05368e-08 -6.51931e-07 2.30837e-07 -1.14786e-06 
-4.17898e-07 1.12807e-06 1.99021e-07 -2.57943e-07 -0.001831 -0.000704202 -0.000192936 -5.94293e-05 -2.22001e-05 
-1.16053e-05 -2.42751e-06 -3.17577e-06 -2.46352e-06 -5.83641e-07 2.78765e-06 -6.5555e-07 -2.78089e-06 -3.30538e-06 
-1.88455e-06 -1.9398e-06 -7.12943e-06 6.97719e-07 7.56166e-06 -3.09846e-06 4.4842e-06 2.44386e-06 -2.04869e-08 
9.09489e-06 -8.15503e-06 -7.4004e-06 -6.98821e-07 -1.66165e-06 -9.36329e-06 -5.27263e-06 -2.47877e-06 -1.54064e-06 
-5.57068e-07 -2.70745e-07 -1.17399e-06 8.49519e-07 2.60338e-06 2.81955e-07 -8.09901e-07 -3.86297e-07 -2.41652e-07 
-4.05575e-07 1.16187e-06 -8.64501e-07 7.27992e-07 1.31776e-06 2.04548e-06 2.39087e-06 2.84956e-06 2.77459e-06 
2.32246e-06 1.00884e-06 -2.24756e-06 -3.61398e-06 -3.53653e-06 -5.7301e-06 6.04618e-08 9.77506e-07 -4.69514e-06 
6.50676e-06 7.93196e-06 1.22053e-05 -3.52684e-06 2.36885e-06 1.26157e-05 -3.52782e-06 -9.14522e-06 2.04996e-05 
2.87943e-05 1.0726e-05 7.04205e-06 5.52754e-06 4.80718e-06 -8.78121e-06 -5.36632e-06 4.0036e-06 -9.78697e-06 
-7.59341e-06 -6.56223e-07 4.08933e-06 3.13934e-05 8.95216e-07 -6.93076e-05 -7.87188e-05 -7.61442e-05 0.000357426 
-0.00431733 -0.0187491 -0.0169659 -0.0157878 -0.0151453 -0.00535012 -0.00451496 -0.00480995 -0.0048197 
-0.00546416 -0.00619061 -0.00588662 -0.00557428 -0.00595108 -0.00557841 -0.00573496 -0.00552693 -0.00590802 
-0.00594665 -0.00618332 -0.00598668 -0.00604384 -0.00576034 -0.00550308 -0.0057281 -0.00568571 -0.00868494 
-0.0131056 -0.00550869 -0.00486459 -0.00468519 -0.00601887 -0.00537026 -0.004724 -0.00547346 -0.00532772 
-0.00508651 -0.00515181 -0.00698845 -0.00958933 -0.0131476 0.00133058 0.0076483 0.00737682 0.00571165 
0.00559286 0.00400825 0.00420742 0.00541395 0.00478485 0.00492373 0.00441432 0.00453428 0.00495209 
0.00638515 0.00240911 -0.000159194 -0.000150535 -5.68047e-07 0.00048949 -0.00253512 0.0011161 -4.45469e-08 
-8.82053e-07 5.39053e-07 -1.20375e-07 1.05594e-07 -2.11669e-07 5.26289e-07 3.54291e-07 -3.34602e-07 5.34796e-07 
3.85255e-07 -8.32058e-08 2.3952e-07 2.42415e-08 2.18894e-07 1.38821e-09 4.59778e-07 -5.16217e-07 -3.71046e-07 
-3.3902e-07 9.83618e-09 -7.64154e-07 4.13146e-07 -3.53996e-07 -2.82658e-05 1.11319e-06 0.00217039 0.000134862 
0.000181274 -5.14946e-05 -3.77509e-05 -3.42764e-05 -2.09921e-05 -2.187e-05 -1.34267e-05 -7.70533e-06 -9.79211e-06 
-3.86681e-06 -1.94749e-06 -5.15987e-07 1.22333e-06 6.97891e-06 6.84189e-06 6.16364e-07 -3.54649e-06 8.73029e-06 
-2.5371e-05 1.10545e-05 6.61286e-06 2.49227e-06 9.26307e-06 1.06334e-06 -7.97682e-06 1.60873e-06 4.66423e-07 
-3.79594e-06 -3.89695e-06 -2.83292e-06 -1.81104e-06 -2.70423e-07 -3.23824e-07 -1.71001e-06 -2.81524e-06 -7.44699e-07 
4.33602e-07 7.85734e-08 -2.62882e-07 1.28501e-06 9.9061e-05 -0.00013966 8.02215e-07 4.9711e-07 2.74467e-07 
2.63254e-08 8.21753e-08 -1.71375e-06 -4.31926e-06 -1.56775e-06 -2.85818e-07 -1.36849e-06 -2.29138e-06 -6.22306e-06 
-7.17162e-06 -4.99628e-06 -1.94667e-05 -6.43306e-06 -8.88506e-07 4.86805e-06 -4.77329e-06 4.449e-06 2.18817e-06 
1.78621e-05 2.73787e-05 2.9002e-06 -2.98695e-05 -3.26238e-05 -2.2912e-05 1.18596e-05 -4.59992e-06 -5.14866e-06 
-3.20204e-06 -8.01569e-06 5.13322e-06 9.92267e-06 8.60446e-06 -8.93527e-06 -3.56361e-05 1.94479e-06 -1.2193e-05 
-6.9114e-05 -0.000258732 -0.00219389 -0.000111833 -0.000873965 -0.000653852 -6.07512e-05 0.000735259 -3.98543e-05 
-0.000142089 -8.16805e-05 -5.31554e-05 -4.72375e-05 -0.000160886 -4.7685e-05 -0.000131583 3.55782e-05 -4.67483e-05 
2.28296e-05 -3.38611e-06 -2.57914e-05 1.54503e-05 5.3995e-05 -3.00815e-05 -4.67289e-05 -0.000171548 3.73159e-05 
-0.000244381 0.000117341 0.000441343 0.000539335 0.000612835 5.31936e-05 0.000105321 -1.95124e-05 -0.00013104 
-0.000171963 -0.000162711 -0.000239629 -0.000403969 0.000269817 -0.000120464 -0.000989251 -0.000124007 0.00179574 
0.000336993 1.55102e-05 -0.000660635 -0.000749762 0.000185234 7.771e-05 0.000239124 0.000102075 0.000158218 
-2.72057e-05 7.25253e-05 0.000327577 1.21905e-06 -0.000113507 -2.49518e-05 8.48832e-05 -0.000417806 0.000189221 
-5.6533e-05 0.000126988 7.02897e-07 5.5999e-07 -4.10035e-07 -1.50096e-07 -9.81058e-08 -5.21816e-07 2.0178e-08 
9.33156e-08 -2.32867e-07 -1.0758e-08 -1.51414e-07 -2.85394e-10 2.00867e-07 3.40673e-07 -2.46564e-07 -3.78639e-07 
-6.93839e-07 -1.043e-06 -3.94403e-07 2.85948e-07 -4.51472e-05 -1.46497e-05 -3.15023e-05 -0.000141096 2.98947e-05 
0.000173795 -6.57066e-07 -7.11465e-06 -4.3573e-06 -1.07202e-05 4.22225e-06 -2.84709e-06 -4.55418e-06 -5.87117e-06 
-4.61119e-06 -1.64578e-06 1.05946e-05 7.14464e-06 1.48968e-05 3.06344e-05 9.10888e-05 -2.37599e-05 -3.453e-07 
-1.64785e-05 -4.96796e-06 -4.14283e-06 -1.57086e-06 1.41332e-06 1.45258e-06 6.14547e-07 3.71144e-07 3.40069e-07 
2.92038e-07 1.2234e-07 2.18325e-07 7.32706e-07 -6.40769e-08 6.98809e-07 1.17931e-07 5.05656e-06 7.70535e-05 
-4.01164e-07 -9.01968e-07 -3.74914e-07 -4.67083e-07 -8.41116e-07 -9.60573e-07 -2.83578e-07 -2.1478e-08 -7.8155e-07 
-1.07778e-06 -9.34282e-07 -2.55595e-06 3.5781e-08 8.37007e-07 -8.73093e-06 3.94507e-06 -9.25778e-06 4.65782e-05 
-4.25581e-06 4.4663e-05 2.36074e-05 -2.67924e-05 -3.89601e-05 -2.49602e-05 -1.1852e-05 -3.98726e-06 -6.31032e-07 
3.39352e-06 4.19648e-06 4.66832e-06 5.22622e-06 -4.4393e-06 -7.64838e-06 -2.12057e-05 1.91584e-05 -2.44704e-05 
-3.69977e-05 -5.03516e-05 -5.0804e-05 -6.28718e-06 7.66185e-07 -1.07389e-05 9.68855e-05 -3.71455e-05 -3.2652e-06 
7.0602e-08 -7.72881e-06 1.88489e-05 3.30494e-05 3.64505e-05 1.80834e-05 2.73229e-05 2.15912e-05 1.11878e-05 
1.90097e-05 1.0226e-05 1.87244e-05 2.06523e-05 2.19322e-05 1.57689e-05 3.71042e-05 4.49439e-05 -8.29274e-06 
5.56627e-05 7.01216e-05 -1.59346e-07 8.88174e-06 3.12393e-05 2.02566e-05 4.314e-05 3.46668e-05 -2.17381e-05 
-3.92647e-05 -1.16131e-05 -5.76615e-05 -4.45267e-05 -1.73672e-07 3.23419e-05 -2.59967e-05 -5.15682e-05 -5.38863e-05 
-7.85267e-06 3.19232e-05 3.985e-05 2.48783e-05 -1.07263e-05 1.34095e-06 -1.66346e-05 0.000115461 5.94812e-05 
3.81841e-07 1.84366e-05 -1.23101e-05 1.81778e-05 -1.74956e-05 -2.63657e-05 -1.05241e-05 0.000108549 1.27555e-05 
3.04646e-05 -1.60905e-05 -2.96419e-05 8.39841e-07 -8.2303e-08 2.0469e-07 -4.38269e-07 -2.41106e-07 -4.06542e-07 
2.21579e-07 5.4315e-08 -7.51601e-08 2.40838e-07 1.08048e-07 -4.10866e-07 -5.82547e-07 -8.20548e-07 -7.4181e-07 
2.17671e-05 -9.35055e-06 2.17625e-06 4.30062e-05 -1.16272e-05 -6.58745e-06 4.01787e-06 -2.46208e-06 -5.07935e-06 
-2.66672e-06 -5.95245e-06 -1.18347e-05 -5.73556e-06 -2.68268e-05 -9.42889e-06 -3.37539e-06 -2.10921e-06 1.52754e-06 
2.75282e-06 9.89756e-07 2.98941e-07 1.00434e-06 5.90423e-07 2.65003e-07 4.6812e-07 -6.08133e-07 5.29973e-07 
-4.08445e-07 2.1882e-05 -1.10703e-05 -2.84449e-06 -4.85641e-07 -1.58472e-06 -4.87601e-07 -3.95215e-07 7.28423e-07 
6.35558e-08 -3.45457e-07 1.52825e-06 -3.56104e-06 -1.28565e-06 -4.14853e-06 3.63661e-06 1.24454e-05 -1.84752e-05 
-1.35401e-05 -2.16255e-06 -8.41852e-07 -3.89894e-06 -4.17498e-06 -5.59631e-06 -3.78508e-06 -1.50436e-05 -6.52714e-06 
-1.34715e-05 -2.11855e-05 1.03416e-05 -1.10671e-05 -1.53205e-05 -1.4572e-05 5.24249e-06 -9.44596e-06 2.30569e-05 
1.40404e-05 3.66006e-06 -4.37227e-07 1.07364e-06 -5.98703e-07 -8.49308e-06 1.77611e-06 3.11215e-06 4.64401e-06 
8.8914e-06 1.1552e-05 1.90566e-05 1.73322e-05 2.1388e-05 2.3275e-06 -1.39191e-07 2.14736e-05 5.29535e-06 
5.49918e-06 1.58379e-05 -9.31467e-06 -5.95641e-06 -3.33682e-05 -3.5459e-05 -2.31789e-05 -2.19484e-07 -8.43967e-07 
3.03924e-06 -1.94865e-05 3.15951e-06 1.96845e-05 1.86191e-05 1.558e-05 2.18757e-05 -6.37161e-06 -8.50205e-06 
-9.12392e-07 3.57221e-06 2.37835e-05 1.09474e-05 -1.27497e-05 4.09912e-05 -8.59831e-08 -7.32616e-05 1.19395e-06 
-1.38992e-07 5.43233e-07 2.4176e-05 8.60152e-07 2.18666e-05 1.06976e-05 -4.34946e-07 -1.79527e-06 -8.10136e-07 
-2.77486e-07 -1.36457e-08 -1.60913e-07 -1.70845e-07 9.1187e-07 -1.38971e-06 -4.42272e-07 -1.01837e-05 -3.29891e-05 
-4.44987e-06 -6.77476e-06 -6.54577e-06 -2.66387e-06 -3.00088e-06 5.39595e-06 -3.8254e-07 5.09766e-07 -2.12373e-06 
9.8073e-07 2.93997e-07 5.72988e-07 1.18927e-06 1.77028e-07 2.14033e-07 -4.96853e-07 -2.26831e-05 -1.39433e-05 
1.84231e-06 -1.14973e-06 -9.17595e-07 1.32295e-06 1.21139e-06 1.71204e-06 1.2867e-06 -1.484e-06 -4.16264e-07 
-1.45671e-06 2.92672e-06 -3.13887e-06 2.22459e-06 -3.17732e-06 2.88672e-07 -7.90726e-07 2.01499e-06 -5.34158e-06 
-1.37293e-05 -1.60745e-05 5.36367e-06 1.28579e-06 -2.57349e-06 7.98334e-06 1.5121e-07 6.9717e-06 -9.40909e-06 
-2.77435e-06 -6.58904e-06 -6.45172e-06 1.4596e-05 4.31998e-06 9.29698e-06 -6.91036e-07 -4.32352e-06 -8.28924e-06 
1.74002e-06 -9.02744e-07 6.73978e-06 1.19782e-06 -3.10541e-06 2.15674e-06 9.41245e-06 -8.43702e-06 -6.93057e-06 
-5.79275e-06 -2.38157e-05 2.88985e-05 -4.3869e-06 -7.19709e-07 -6.04542e-06 2.17362e-05 1.54416e-05 8.60674e-06 
1.80747e-05 -8.31964e-06 -7.55366e-06 -2.42658e-05 1.08318e-05 -4.06794e-06 4.81934e-06 7.69189e-06 -3.21319e-05 
1.00328e-06 7.00032e-06 -3.60884e-07 -1.86369e-05 1.9263e-05 9.42013e-06 -4.1704e-06 1.08587e-06 -4.89608e-06 
4.37986e-08 -3.07873e-07 -9.81952e-07 1.91663e-06 2.21852e-06 3.7577e-07 -2.16239e-05 -6.60456e-07 6.25215e-07 
1.75492e-06 -2.84371e-07 4.68818e-06 2.17782e-06 1.84616e-07 3.14295e-08 4.19276e-07 4.00168e-06 -7.21571e-07 
-3.3386e-06 1.75799e-06 3.55058e-06 1.59267e-06 4.44746e-06 7.58554e-06 -8.09126e-06 3.72589e-06 3.43166e-06 
1.13539e-06 -7.01002e-07 2.42949e-07 -7.25627e-06 -4.97461e-06 3.34742e-06 1.36969e-05 1.56838e-06 1.3242e-05 
7.5566e-06 1.36179e-05 1.96899e-05 -2.76981e-06 -1.06964e-05 8.45446e-07 4.41011e-06 -4.18707e-06 -7.55005e-08 
-4.44755e-07 3.06451e-06 6.28505e-07 1.26621e-05 -4.98475e-07 -4.08802e-06 4.13679e-06 5.29176e-06 7.43327e-06 
7.74363e-06 -5.34783e-06 -1.67639e-06 1.7546e-06 -1.13619e-06 -7.76593e-08 2.35783e-06 6.22012e-06 -5.37619e-06 
-2.91251e-06 -4.35013e-06 3.14024e-06 -1.38977e-06 -1.9493e-06 9.21594e-06 3.4003e-06 8.73089e-07 -5.02397e-06 
5.99745e-06 8.14993e-06 6.81761e-06 7.62025e-07 3.78525e-06 -9.82294e-08 -8.25008e-06 4.14464e-06 5.68355e-06 
9.32731e-06 7.47221e-07 -5.55487e-07 -4.90866e-06 1.79592e-06 -9.35783e-07 -3.32621e-06 -4.34707e-06 5.61652e-06 
1.36849e-06 3.82228e-09 1.64866e-05 -1.4549e-05 1.83666e-05 1.12039e-05 1.17383e-06 7.71304e-06 -9.86019e-07 
4.4074e-07 2.31889e-06 2.38872e-06 5.11741e-08 3.61282e-06 -7.88228e-07 5.55935e-06 2.94908e-06 6.99344e-07 
-2.94894e-06 1.84657e-06 -3.29309e-07 -6.11917e-07 -2.19353e-06 7.87256e-06 -3.21031e-06 1.11118e-05 3.36035e-06 
6.27253e-06 -4.82306e-06 -2.45495e-06 7.65099e-06 9.03067e-06 1.4065e-05 1.48177e-05 -9.88898e-06 3.87582e-05 
3.2001e-06 -1.79882e-06 -1.18281e-05 2.58299e-07 -1.22404e-05 2.38501e-06 -1.76397e-06 1.84848e-06 -9.38751e-07 
6.1625e-07 -2.66092e-07 -1.53863e-05 5.44991e-06 1.20096e-06 2.24478e-05 1.18957e-05 -1.82854e-06 2.06725e-07 
1.79368e-06 -1.83108e-06 -1.14764e-05 -2.96162e-06 3.41457e-06 6.88876e-06 5.33564e-07 0.00227478 0.0148181 
6.00783e-07 0.0222145 0.0393548 0.091263 0.0606246 0.0525332 0.0485632 0.0470707 0.0741207 
0.0689108 0.0692028 0.0679905 0.0684443 0.0692494 0.0683475 0.0697521 0.0708608 0.0706766 
0.0703168 0.0705492 0.0703917 0.0703355 0.0717939 0.072379 0.0724969 0.0722276 0.0723934 
0.0742844 0.0833051 0.101623 0.104964 -0.0654828 -0.0978625 -0.0809759 -0.078509 -0.0757822 
-0.0688905 -0.0709838 -0.069329 -0.0706535 -0.0714568 -0.0693088 -0.0704736 -0.0715595 -0.0710529 
-0.0708773 -0.071655 -0.0722821 -0.0715558 -0.0730764 -0.0728425 -0.0737245 -0.0743669 -0.0744264 
-0.0767259 -0.0814464 -0.0916744 -0.0870588 9.67069e-06 -4.9785e-06 -1.20531e-06 -9.89268e-06 -8.26536e-06 
-5.83234e-06 -5.0466e-06 -1.10885e-06 5.52042e-07 -1.27559e-07 8.51852e-06 2.26192e-06 8.44025e-06 8.00299e-06 
7.80727e-06 6.74456e-06 -6.07889e-07 1.58209e-06 -2.06318e-06 3.33977e-06 3.42279e-06 4.14529e-06 5.61257e-07 
-1.62621e-06 -3.97679e-06 -1.22798e-06 -5.32942e-06 -3.82185e-06 -0.0352774 0.0026884 -0.000741629 -0.000419558 
-0.000310821 -0.000213035 -0.000151527 -0.000124613 -0.000103517 -7.97263e-05 -5.82458e-05 -5.14157e-05 -4.36198e-05 
-3.34305e-05 -3.17531e-05 -3.16783e-05 -3.90412e-05 -4.98544e-05 -8.63353e-05 -0.00010971 -0.000124395 -8.25578e-05 
6.51734e-06 7.83264e-05 0.000126821 0.000122522 8.05209e-05 4.10823e-05 1.04707e-05 -1.87689e-05 -3.12772e-05 
-3.34609e-05 -3.64798e-05 -3.31037e-05 -2.91517e-05 -2.52728e-05 -2.37778e-05 -2.19322e-05 -1.82857e-05 -1.66623e-05 
-1.41041e-05 -1.01053e-05 -5.30582e-06 9.50515e-07 4.85259e-06 4.08964e-06 3.726e-06 -2.66968e-06 1.01688e-06 
-3.12855e-06 -8.08478e-06 -1.006e-05 -1.37397e-05 -1.50725e-05 -1.75173e-05 -1.98329e-05 -1.77829e-05 -2.01002e-05 
-2.01904e-05 -2.45131e-05 -2.89057e-05 -1.48755e-05 -9.79619e-07 5.26895e-05 0.000103877 0.000124567 0.000100691 
0.000100944 2.93421e-05 -5.63216e-05 -0.000147827 -0.000179713 -0.000115519 -9.31071e-05 -5.13911e-05 -1.68165e-05 
-2.61142e-05 -3.18548e-05 -2.72347e-05 -2.55392e-05 -3.31062e-05 -3.01414e-05 -2.01649e-05 -3.4868e-05 -7.10352e-05 
-0.000101903 -0.000102841 -0.000161598 -0.000348592 -0.00206038 0.00196043 -0.00715614 -0.0617333 -0.0506004 
-0.0489468 -0.0570801 -0.0563575 -0.0510814 -0.0505577 -0.0426445 -0.0381248 -0.0341132 -0.0336977 
-0.0300966 -0.0460854 -0.0423612 -0.00649272 0.0352875 0.0358782 0.038317 0.0495753 0.0502798 
0.0542131 0.029934 0.0299721 0.0333686 0.0346123 0.0343723 0.0372514 0.0345922 0.0447162 
0.00269219 1.2672e-06 1.28338e-05 3.3336e-06 5.60392e-06 3.56595e-06 -3.94153e-07 -2.48682e-06 -5.02258e-06 
-6.99254e-06 -7.67226e-06 -4.16926e-06 -8.36121e-07 -4.98672e-06 -7.39146e-06 -8.34666e-06 -9.65227e-06 -2.40064e-06 
-8.70519e-06 -4.26763e-06 3.18316e-06 2.26167e-06 5.24362e-06 6.65594e-06 8.45116e-06 8.23321e-06 1.86961e-06 
2.63339e-06 -3.02589e-07 0.0362116 -0.0189677 0.0019631 0.000286131 9.51954e-05 6.18231e-05 4.50946e-05 
3.43441e-05 2.03592e-05 1.99854e-05 1.45172e-05 1.26585e-05 6.71849e-06 4.02053e-06 3.9516e-06 8.56958e-06 
2.29974e-05 5.20331e-05 8.5151e-05 0.000119777 0.000145813 0.000130327 9.52696e-05 4.16699e-06 -8.36705e-05 
-0.000121438 -0.000123799 -0.00010637 -7.35626e-05 -5.14119e-05 -3.24204e-05 -1.81526e-05 -9.90954e-06 -4.45299e-06 
-3.44155e-06 1.58392e-07 5.46675e-07 3.07094e-06 5.58107e-06 5.0836e-06 6.22977e-06 7.07749e-06 6.1953e-06 
1.0665e-06 -1.03802e-05 -8.38934e-06 -1.11417e-05 -4.17013e-06 -2.04648e-07 5.36644e-06 7.70975e-06 9.1744e-06 
1.17016e-05 1.4155e-05 1.4565e-05 1.17807e-05 1.0441e-05 1.0321e-05 1.10357e-05 8.66973e-06 -2.97691e-06 
-7.83773e-06 -1.93391e-05 -3.01537e-05 -6.02252e-05 -0.000112569 -0.000124508 -8.23455e-05 -7.48089e-05 3.85425e-06 
0.000108412 0.000135056 0.000166835 0.000105669 9.7051e-05 5.35426e-05 3.61924e-05 2.29077e-05 2.13086e-05 
3.01357e-05 3.99913e-05 3.96939e-05 4.99493e-05 6.43374e-05 4.19323e-05 7.28937e-05 0.000257622 0.000351732 
0.000629069 0.000959117 -0.00487333 0.0344623 0.0188652 0.0474464 0.034334 0.0333317 0.0340924 
0.0343202 0.0335642 0.0437411 0.0487509 0.0502606 0.051787 0.0548018 0.033235 0.0304094 
0.00248547 -0.0466745 -0.051188 -0.0438354 -0.0374032 -0.033405 -0.0286572 -0.0540684 -0.0478138 
-0.0490161 -0.0494476 -0.0493178 -0.0526562 -0.0472689 -0.0400271 0.0114061 1.11225e-06 -1.67246e-07 
0.0104589 -0.0042548 -0.00411812 -0.0223549 0.0249085 -0.00726018 -0.0158171 -0.0260362 -0.021701 
-0.0205355 -0.0191594 -0.0201803 -0.0200732 -0.0183809 0.00343331 0.00156565 0.000997433 -0.00108977 
0.000112346 -0.000253092 -0.000136685 -0.000414509 -0.000497669 -0.000168818 -2.47009e-05 -0.000316423 0.000483658 
8.07659e-05 0.000358508 -5.59512e-05 6.33939e-05 -5.15134e-05 0.000598732 -0.000207879 -5.8633e-05 -0.000504211 
0.000263083 -0.000556449 0.000166798 -0.00017967 1.75834e-05 0.0002108 -0.000138912 -0.000302039 0.000162273 
7.12219e-05 -0.000678759 6.96014e-05 -0.000593614 7.87924e-05 -0.00045898 0.00072182 -0.000383279 0.000627565 
-0.00156085 -0.00063642 0.00270808 0.0136462 3.19519e-06 1.66853e-06 5.82166e-07 1.93129e-06 -3.90988e-06 
-7.31462e-07 -3.09952e-06 -1.24912e-06 5.0187e-07 -2.39652e-06 -7.88886e-07 -1.42442e-06 -1.42809e-06 -1.27457e-06 
-2.18157e-06 -1.93127e-06 -1.659e-06 -2.2044e-06 -2.2119e-06 -1.23925e-06 -4.28353e-06 -1.89397e-06 -1.15296e-06 
-3.9448e-06 -1.91782e-06 -3.30366e-06 -5.88132e-06 -7.11088e-07 2.36332e-06 -3.13154e-06 2.77895e-06 -2.89703e-06 
-7.58876e-07 -8.88996e-07 1.83135e-06 3.22891e-08 -1.15292e-07 1.95768e-06 -2.32551e-06 -3.20371e-07 1.23697e-06 
-3.0173e-06 -7.4663e-07 8.60081e-07 -3.40424e-06 1.21532e-06 -3.58724e-06 -3.81148e-06 -3.67101e-06 -6.89384e-07 
-2.65234e-06 7.36551e-07 -1.88547e-06 -4.48633e-06 -2.21753e-06 2.19342e-06 -2.37711e-06 -5.74667e-07 2.61305e-06 
-2.58192e-06 2.60539e-06 1.80145e-06 4.20453e-06 1.83806e-06 1.39311e-06 4.39942e-06 8.65401e-07 5.05187e-07 
3.6429e-06 4.43559e-07 1.76853e-06 4.5108e-06 1.93659e-06 -4.35232e-06 1.00296e-06 -5.60418e-07 -2.69411e-06 
-1.47586e-06 2.02417e-06 3.88834e-06 7.40259e-06 1.94097e-06 -0.0173909 0.0101879 6.61873e-05 -0.000316186 
9.65114e-05 0.000540741 -5.60413e-05 1.04428e-05 -0.000191469 -5.3062e-05 6.22408e-06 -0.000115511 -5.7939e-05 
-7.86561e-06 -6.62522e-05 -5.18267e-05 -1.7812e-05 -4.54214e-05 -4.39298e-05 -1.8202e-05 -2.90512e-05 -3.19652e-05 
-1.57107e-05 -1.94454e-05 -2.87325e-05 -6.21277e-06 -8.97342e-06 -2.48369e-05 -1.44844e-05 -3.32429e-06 -2.17667e-05 
-1.28609e-05 -1.15866e-05 -1.54563e-05 -1.30521e-06 -4.29133e-06 -9.94112e-06 2.3902e-06 1.69759e-06 -7.67581e-06 
4.72038e-06 1.48093e-06 -9.45862e-06 2.7318e-06 1.08882e-06 -1.10545e-05 -7.59598e-07 9.18906e-07 -1.68078e-05 
-7.44578e-06 -1.56834e-06 -2.22617e-05 -2.72957e-05 -6.00626e-06 -3.54462e-05 -3.04435e-05 -2.31866e-05 -2.28943e-05 
-1.92438e-05 -2.73829e-06 -3.4721e-05 -1.46141e-05 9.97859e-06 -2.51796e-05 -1.80119e-05 1.86234e-05 4.57591e-06 
1.35592e-06 2.81487e-05 2.69575e-05 1.3001e-05 3.51172e-05 3.55218e-05 2.04115e-05 2.48492e-05 3.62739e-05 
2.24929e-05 1.11013e-05 2.57407e-05 1.77203e-05 -1.06629e-05 2.31479e-05 1.37608e-05 -8.94604e-06 1.47723e-05 
1.13179e-05 -9.87983e-06 5.47026e-06 6.57241e-06 -8.76642e-06 -2.13322e-06 -9.62345e-08 -6.81388e-06 -6.01723e-06 
-3.91256e-06 -5.33906e-06 -8.34672e-06 -3.59343e-06 -2.33057e-06 -7.60659e-06 -4.22026e-06 1.55197e-06 -8.10365e-06 
-5.80225e-06 1.09931e-06 -9.70632e-06 -8.32424e-06 -4.84288e-07 -1.0827e-05 -7.63987e-06 -1.31706e-06 -9.29248e-06 
-6.16171e-06 9.49451e-07 -8.76058e-06 -6.17151e-06 3.39662e-06 -8.47792e-06 -6.23533e-06 2.80245e-06 -7.85653e-06 
-6.12561e-06 3.18465e-06 -6.94161e-06 -6.80476e-06 3.38577e-06 -6.15531e-06 -4.49291e-06 3.34316e-06 1.02737e-07 
5.08342e-06 6.56025e-07 -0.0106071 0.0188168 1.0835e-06 -2.39498e-06 -2.25504e-06 0.0183867 0.012197 
-4.71089e-06 -5.72727e-06 -3.25098e-06 -6.08288e-06 -7.3704e-06 -3.38847e-07 -7.19156e-06 -8.75388e-06 -2.57657e-07 
-7.85815e-06 -1.07573e-05 -5.77429e-08 -8.68844e-06 -1.22506e-05 -6.12094e-07 -8.72752e-06 -1.29745e-05 -8.12538e-07 
-8.5206e-06 -1.22331e-05 -6.44531e-07 -5.61664e-06 -6.62789e-06 1.32984e-06 2.76572e-06 -5.77848e-06 2.755e-06 
1.15345e-07 -8.07905e-06 4.32757e-06 1.28121e-05 2.00363e-06 7.80109e-06 1.20923e-05 5.04582e-06 1.38839e-06 
1.30612e-05 9.40657e-06 1.25285e-07 -1.95929e-05 -1.7935e-07 -2.56887e-06 -1.63343e-05 -2.52106e-05 2.86221e-06 
-4.702e-06 -2.06602e-05 -1.29022e-06 2.40132e-05 6.4056e-06 -5.87591e-06 7.28993e-05 4.01618e-05 1.36393e-05 
0.000107873 2.28424e-05 3.59357e-05 7.04919e-05 7.54354e-05 -1.94514e-05 4.87944e-05 9.40475e-05 -2.34566e-05 
-3.93299e-05 -1.61979e-06 4.18192e-05 -8.34211e-05 -3.56927e-05 -1.10231e-05 -0.000111616 -6.72767e-05 -3.83901e-05 
-6.75043e-05 -4.56827e-05 -2.00877e-05 -5.87562e-05 -1.15717e-05 4.00362e-06 1.34042e-05 2.11646e-06 -1.0458e-05 
2.6793e-05 -2.36128e-06 -1.00599e-05 1.19598e-05 7.82296e-07 -1.82514e-06 8.46006e-06 -8.30389e-07 1.00427e-05 
-1.66229e-06 -1.7083e-05 -2.87658e-06 -5.80143e-06 -1.39165e-05 -4.00946e-06 2.99544e-07 -9.24371e-06 8.98881e-07 
-3.96067e-05 -3.03434e-05 -3.53601e-05 -2.91419e-05 -3.22108e-05 -2.41878e-05 8.06134e-06 -1.13465e-05 1.15589e-05 
1.26484e-05 -3.41769e-05 5.01646e-05 -9.10993e-05 -7.87779e-05 -8.63167e-06 -0.000139604 -0.000148594 1.72373e-05 
-0.000340159 -0.000459281 -3.11218e-05 -0.0010525 -0.00062943 -5.12191e-06 0.00301215 0.00993505 0.00457315 
0.0116784 -0.034802 -0.0334044 -0.0335551 -0.0293783 0.00647009 -0.0302004 -0.0306912 0.00853313 
-0.0305759 -0.0238164 0.00490185 -0.0215368 -0.0257123 0.00875474 -0.0206751 -0.0245954 0.00932017 
-0.021303 -0.0247607 0.00797219 -0.0211658 -0.0239999 0.00786937 -0.0213146 -0.0233106 0.00818281 
-0.0217456 -0.0238807 0.00775089 -0.0212973 -0.0240133 0.00743189 -0.0223228 -0.0243312 0.00795144 
-0.0222688 -0.0241927 0.00784998 -0.0220669 -0.0238083 0.00801247 -0.0220954 -0.0236201 0.00849023 
-0.0224625 -0.0230405 0.00865805 -0.0230978 -0.0233363 0.00826701 -0.0230838 -0.0231777 0.00824414 
-0.0238934 -0.0236439 0.00843202 -0.0238933 -0.0234536 0.0085317 -0.0245729 -0.0238252 0.00887792 
-0.0250195 -0.024006 0.00876212 -0.0255772 -0.0242107 0.00865797 -0.0277721 -0.0276493 0.00882777 
-0.0319254 -0.0290171 0.00986118 -0.0229592 -0.0178642 -0.0166492 -0.0229006 0.00777857 -0.0174326 
-0.0190852 0.00811486 -0.0166974 -0.0192133 0.00753362 -0.0163691 -0.0180472 0.00654016 -0.0170295 
-0.0183698 0.00740676 -0.0163072 -0.0186262 0.00816393 -0.0148025 -0.0186737 0.0085071 -0.0162873 
-0.0185275 0.00794642 -0.0168197 -0.0195561 0.00733392 -0.0164086 -0.0197725 0.00762211 -0.0157216 
-0.0193424 0.00753888 -0.0188428 -0.0153454 0.00894514 -0.0193652 -0.0183045 0.00710943 0.00465337 
-0.00510153 0.0074387 0.006186 0.00921515 0.00974726 -0.0140283 0.0115979 0.00912388 -0.0120627 
0.0186256 0.0178004 -0.0114751 0.0185218 0.0161352 -0.00646132 0.0191538 0.0162246 -0.00745002 
0.0205717 0.0173657 -0.007825 0.0195899 0.0173793 -0.0070292 0.0195656 0.0162364 -0.00681382 
0.0193076 0.0166207 -0.0071388 0.018843 0.015703 -0.00735844 0.0169692 0.0162419 -0.00798098 
0.0242529 0.0144672 -0.00766699 0.0167868 0.0183746 -0.00711737 -0.00352396 0.00234338 8.16871e-06 
-0.0125032 0.00550466 -0.016037 -0.0139338 1.45398e-05 -0.0147135 0.00517341 0.0158241 -0.00271552 
-0.010171 0.00158011 0.0123332 -0.0034348 0.00112399 0.00813667 0.0125277 0.0107522 -0.000682003 
1.60889e-06 -4.17746e-07 1.19377e-06 -2.51461e-06 -9.64102e-07 -2.24263e-06 -6.9773e-07 -2.09625e-06 -7.19777e-07 
6.59412e-07 -2.74902e-06 -2.08586e-06 -1.41714e-06 -3.88735e-06 -2.54121e-06 -2.33693e-06 -4.38868e-06 -2.27414e-06 
-2.19535e-06 -2.5821e-06 -2.00624e-06 -1.06778e-06 -1.86286e-06 1.26874e-06 -3.90339e-06 -1.19782e-06 2.0161e-08 
-2.53811e-06 1.04588e-06 2.99939e-07 -3.58377e-06 1.59935e-06 9.53566e-08 -3.72744e-06 4.26295e-07 -3.13702e-08 
-3.59434e-06 -5.29751e-07 -6.71232e-07 -3.95586e-06 -8.17379e-07 -1.11042e-06 -2.91209e-06 -1.33621e-06 -2.18485e-06 
-2.15036e-06 -1.7349e-06 -1.05412e-06 -2.63226e-06 -2.37584e-06 -1.41277e-06 -1.02051e-06 2.49357e-06 -1.90861e-07 
1.87793e-06 2.2791e-06 7.09924e-07 1.14227e-06 2.84164e-06 2.2382e-06 1.9694e-06 4.00286e-06 2.49672e-06 
1.23109e-06 2.52622e-06 1.23237e-06 2.98092e-07 1.11322e-06 1.84609e-06 2.44831e-06 -1.55597e-06 0.00482574 
0.00569603 0.00517038 0.01162 0.0019826 -4.07422e-07 8.99844e-05 0.000143227 0.000101338 0.000129537 
-2.14387e-05 8.2153e-05 0.000121281 -3.37814e-05 5.07016e-05 7.64568e-05 -2.25596e-05 2.66351e-05 3.83868e-05 
-2.66522e-05 2.15345e-05 4.27415e-05 -1.10001e-05 2.70323e-05 6.04807e-05 -3.13164e-06 1.19031e-05 1.99986e-05 
2.07065e-05 3.80641e-06 1.41486e-05 -6.82234e-07 9.00951e-06 3.31846e-05 -1.04345e-05 1.17531e-05 2.70307e-05 
3.11862e-06 8.95574e-06 2.66301e-05 5.03235e-06 8.54793e-06 2.62215e-05 3.50154e-06 1.46201e-05 3.46568e-05 
7.4644e-06 2.23977e-05 4.04056e-05 1.60258e-05 2.89917e-05 1.68733e-05 3.58859e-05 1.09241e-05 1.18395e-05 
8.34143e-06 1.79575e-05 5.90913e-05 -2.7684e-05 8.1792e-05 4.66851e-05 4.3842e-05 1.59078e-06 1.49635e-05 
7.30439e-06 -2.9925e-05 -1.05984e-06 3.53322e-05 -3.02996e-05 -4.30946e-05 4.38871e-05 -1.16842e-05 -2.86636e-05 
-4.04826e-06 -2.04193e-05 -3.34625e-05 8.86319e-06 -1.06638e-05 -3.63897e-05 -1.83364e-05 -4.28558e-05 -2.37459e-05 
-2.0286e-05 4.23715e-06 -5.93855e-07 -8.74259e-06 1.24728e-05 9.73453e-06 -7.68016e-06 8.73726e-06 7.64386e-06 
-4.46198e-06 5.92644e-06 6.5029e-06 -2.14e-06 6.21599e-06 1.29352e-05 -2.1319e-06 5.32772e-06 9.57332e-06 
5.37266e-06 6.93466e-06 8.16226e-06 5.88929e-06 5.6341e-06 4.07015e-06 6.24097e-06 4.83975e-07 4.59344e-06 
2.52465e-06 1.12185e-06 7.63952e-06 1.99305e-06 7.62337e-06 6.68563e-06 2.75775e-06 6.50104e-06 4.27225e-06 
7.34707e-07 5.0995e-06 2.22507e-06 6.89796e-07 5.17061e-06 6.12282e-07 1.2995e-06 2.6178e-06 -1.48525e-06 
-4.28872e-07 -2.61567e-06 4.86131e-06 1.45271e-06 -0.000163933 -0.000111686 0.00134623 0.000349704 0.000547955 
-1.84491e-06 -2.98069e-06 -1.85597e-06 -3.71575e-06 -2.19999e-07 -1.23553e-06 -4.27589e-06 1.39239e-07 -9.46055e-07 
-5.18206e-06 9.07248e-07 -2.85151e-07 -5.55546e-06 1.26975e-06 1.23734e-06 -4.97115e-06 8.17164e-07 4.09761e-06 
-1.56578e-06 2.4577e-06 5.77058e-06 4.25059e-06 5.90489e-06 9.74245e-06 5.50728e-06 6.58775e-06 1.20606e-05 
5.61411e-06 5.88831e-06 1.34759e-05 2.50792e-06 6.99396e-06 1.37961e-05 4.4931e-07 9.28708e-06 1.42307e-05 
4.0685e-06 3.34541e-06 4.0276e-06 1.89304e-05 -4.77935e-06 1.97369e-05 3.22272e-05 9.34744e-06 1.20648e-05 
1.92433e-05 1.54232e-05 1.86369e-05 2.13626e-05 1.8905e-05 3.24146e-05 1.03959e-05 3.19147e-06 7.74218e-05 
-5.17652e-07 4.12803e-05 4.36463e-05 7.57457e-06 -2.55763e-05 1.9826e-05 6.04795e-05 -6.80194e-05 6.17778e-06 
7.34302e-05 2.44284e-05 3.67758e-05 5.40442e-05 3.46857e-05 -2.13597e-05 3.1006e-05 2.4228e-05 -1.69889e-05 
3.34071e-05 2.64175e-05 -1.08388e-06 1.93129e-05 2.87734e-05 -1.53759e-05 1.83619e-06 2.53479e-05 -5.75029e-06 
-1.31486e-05 6.74522e-06 -2.66397e-05 -1.10009e-05 -4.28248e-07 -5.99349e-06 -3.62263e-06 -5.45347e-06 -7.47822e-06 
-3.27116e-06 -6.00103e-07 1.40376e-05 3.32798e-06 7.48671e-07 -2.45598e-05 -2.54643e-05 -1.98393e-05 -5.23565e-05 
-1.66762e-05 -1.57874e-05 -3.52982e-05 4.47109e-06 6.84024e-06 3.35973e-05 1.49131e-05 8.79898e-06 9.76209e-05 
-8.92313e-06 4.38985e-06 -3.98069e-05 6.01152e-06 -8.24634e-06 -0.000172283 -5.14092e-06 -5.52035e-05 -0.000186279 
0.000145107 -8.22599e-05 9.43166e-05 0.000882559 0.00128696 0.000214571 6.95623e-07 0.00957683 0.00422536 
0.00955775 0.00861823 0.00858822 0.00871524 0.00197448 0.00611389 0.00733465 0.00124816 0.00617981 
0.00567375 0.000143039 0.00174487 0.00546741 -0.000374428 0.00214701 0.00504763 -0.000302775 0.00228861 
0.00464321 -0.00045982 0.00240868 0.00477954 -0.000466153 0.00236357 0.00475169 -0.000500362 0.00257654 
0.00442457 -0.000463916 0.00266901 0.00472227 -0.000464806 0.00283975 0.00423217 -0.00048708 0.00298125 
0.00435186 -0.000482384 0.00302758 0.00387969 -0.000494183 0.00319049 0.00364061 -0.000451683 0.00344787 
0.00347646 -0.000436538 0.00377358 0.0035139 -0.000452223 0.00380274 0.00323238 -0.000478322 0.0040817 
0.00336171 -0.000472624 0.00414131 0.00340963 -0.00041524 0.00414857 0.00328677 -0.000409084 0.00502412 
0.00306598 -0.00022059 0.00556269 0.00516663 0.00524181 3.29122e-05 -0.00237789 -0.00224777 -0.000263303 
0.00668223 0.012216 0.00104736 0.00114874 0.00171539 0.00521266 3.30435e-05 0.00220139 0.00456281 
-0.000470069 0.00231331 0.00418418 -0.0003253 0.00227412 0.00449205 -0.000326643 0.00198833 0.00501237 
-0.000249013 0.00180762 0.0048893 -0.000447899 0.00202356 0.00498581 -0.00045064 0.00179647 0.00505004 
-0.000483963 0.00427055 0.00537209 -0.000507159 0.00826972 0.00646484 0.00146047 0.000132772 0.00738191 
0.00152979 0.000136442 -0.000353055 -0.00505437 0.000754516 -0.000554023 0.000822723 -0.00366853 -0.00204363 
-0.00564246 -0.00124717 -0.00517126 -0.0049152 -5.47511e-05 -0.00469013 -0.0050894 -0.000142954 -0.0047476 
-0.0018085 0.000369175 -0.00488595 -0.00148836 0.000413166 -0.00459326 -0.00173234 0.000475167 -0.00449172 
-0.00172131 0.000491404 -0.00421815 -0.00193197 0.000520836 -0.00460041 -0.001909 0.000684263 -0.00766463 
-0.00142077 0.000716777 -0.00026618 -0.00719751 1.79908e-06 -0.00221525 -0.00208603 -0.000624475 -0.00498431 
-0.00253938 -0.000676115 7.47046e-05 0.000501559 0.000549232 -1.17575e-06 -3.49063e-06 8.08459e-07 1.70173e-07 
0.00213603 -0.00012189 0.000247348 -4.08383e-06 0.000708256 -0.000172365 1.92823e-06 -1.66242e-05 -0.000155594 
-0.000361016 0.00060792 -0.000415874 8.04373e-05 0.000566352 -0.000172278 0.000767263 0.00149686 0.000805238 
-0.00087982 1.54691e-06 9.80693e-05 -4.76795e-06 0.00128164 3.23398e-07 2.0516e-06 3.1557e-07 4.34416e-07 
2.94527e-06 -3.22139e-07 -1.66589e-06 2.22279e-06 -1.56169e-06 -1.28222e-06 -4.15823e-06 -9.10066e-07 -7.70546e-07 
-1.93975e-06 -1.42018e-06 -3.05402e-07 -2.02073e-06 -1.60102e-06 -1.5785e-06 -1.00439e-06 -8.61365e-08 -1.87691e-06 
-6.49028e-07 -1.67352e-07 -2.49598e-06 8.66192e-07 -6.20397e-07 -2.85892e-06 8.71572e-07 -8.67455e-07 -3.37187e-06 
8.1235e-07 -9.17056e-07 -3.08211e-06 -4.57956e-07 -9.60073e-07 -2.59935e-06 -8.64321e-07 -7.26697e-07 -1.98696e-06 
-1.31685e-06 -4.65277e-07 -2.30438e-06 -1.45734e-06 -6.84132e-07 1.27235e-06 -2.52088e-06 4.09607e-08 6.69537e-08 
2.68264e-06 -2.15794e-08 -1.26486e-07 2.41942e-06 -3.8841e-08 1.1532e-06 2.8638e-06 1.97283e-06 1.02544e-06 
4.28472e-06 1.17416e-06 8.20349e-07 2.5546e-06 8.03742e-05 -0.000239406 -2.63403e-05 -0.000195709 5.36671e-05 
-6.82659e-05 -1.77302e-05 -1.2071e-05 7.05355e-05 0.000102055 -6.56149e-06 5.81466e-05 7.87967e-05 -1.47197e-05 
5.56734e-05 7.29986e-05 -2.30301e-05 3.47467e-05 6.79896e-05 4.28267e-06 1.52675e-05 4.2533e-05 2.82972e-05 
1.23147e-05 3.74431e-05 3.47515e-05 1.36727e-05 2.22218e-05 2.3979e-05 1.12057e-05 2.77372e-05 1.73969e-06 
4.50554e-06 1.6729e-05 4.73414e-06 6.09962e-06 1.25717e-05 9.94843e-06 6.36724e-06 7.01952e-06 7.04103e-06 
6.86181e-06 3.22294e-06 4.92721e-06 7.7144e-06 4.5451e-06 2.83188e-06 1.53163e-05 2.45064e-05 1.32218e-06 
4.7203e-05 2.18738e-05 2.28831e-05 1.94944e-05 4.35601e-05 1.84003e-05 1.7095e-05 2.07398e-05 2.81751e-05 
8.14052e-05 5.3568e-05 5.16983e-05 3.80122e-05 3.18478e-05 4.18614e-05 -2.49897e-05 -3.27831e-05 -2.93998e-05 
-2.01071e-05 -1.46796e-05 4.16825e-05 6.86417e-06 -6.36923e-05 -3.69855e-05 -5.92826e-05 -5.10028e-05 -1.26626e-05 
-3.73396e-05 -2.9929e-05 2.80276e-06 -2.3041e-05 -3.23764e-05 -5.08123e-06 -1.88102e-05 -6.40013e-06 -4.73475e-06 
-4.29043e-07 -2.34315e-06 -4.96902e-06 1.32682e-06 2.86379e-06 -2.55725e-06 2.76598e-06 4.3193e-06 4.64112e-06 
2.58994e-06 5.22023e-06 5.14362e-06 2.97873e-06 4.43555e-06 3.7681e-06 3.34569e-06 5.64767e-06 2.92974e-06 
6.31731e-06 8.52523e-06 2.43435e-06 8.27749e-06 8.37901e-06 2.35507e-06 6.23755e-06 4.71723e-06 1.80356e-06 
3.44374e-06 2.67381e-06 1.2974e-06 1.28457e-06 1.70723e-07 1.51861e-06 3.97601e-06 2.1149e-06 1.34008e-06 
4.5625e-06 9.29633e-07 1.06145e-06 5.91999e-07 -6.95393e-07 -5.54486e-07 -2.75786e-07 0.000279313 -7.05431e-05 
-5.76359e-05 -0.000133977 0.000328957 0.000331214 -0.000381692 -0.000211626 1.17534e-07 -2.78891e-06 1.10842e-06 
-2.68986e-06 3.40878e-07 2.1044e-06 -3.13465e-06 8.34785e-07 2.81635e-06 -4.18198e-06 4.18478e-07 4.52482e-06 
6.89587e-06 1.07938e-06 1.03365e-05 6.2762e-06 4.54653e-06 7.87396e-06 3.50294e-06 4.2752e-06 6.69771e-06 
3.53304e-06 4.51156e-06 7.29951e-06 2.77515e-06 5.80026e-06 6.68447e-06 4.81707e-07 6.65804e-06 6.29206e-06 
-2.56507e-06 7.82452e-06 9.84425e-07 3.75346e-07 1.10786e-05 -1.38542e-05 2.39776e-06 -4.91178e-06 1.70814e-05 
3.04001e-05 -1.82975e-05 1.63075e-05 5.03044e-06 1.12093e-05 1.80342e-05 1.9118e-05 2.05762e-05 -2.74286e-05 
-6.22343e-06 1.68654e-05 6.24456e-05 -5.17744e-05 6.48468e-05 1.72517e-05 4.53622e-05 -0.000109072 -1.97482e-05 
2.2328e-05 -1.98832e-05 6.00132e-05 6.72909e-05 3.22106e-05 -2.40988e-05 5.8721e-05 5.89168e-05 -9.19266e-06 
-1.28975e-05 5.42691e-05 4.47793e-05 4.22426e-05 1.00507e-05 4.61841e-05 3.30473e-05 1.32958e-05 1.56183e-05 
-9.4751e-06 5.54448e-06 -3.44202e-05 -9.25613e-06 2.8642e-06 -2.92173e-05 -1.56078e-05 -7.36484e-06 -2.10062e-05 
-1.33483e-05 -4.12693e-06 -2.04536e-05 -1.31923e-05 -6.91003e-06 -3.32056e-05 -1.16571e-05 -2.09107e-05 -2.31838e-05 
-1.51345e-05 5.86979e-06 -4.03775e-05 -1.02086e-05 1.7108e-05 -3.30966e-05 -4.24125e-05 2.64503e-05 5.91585e-05 
-1.22596e-05 2.13477e-05 0.00013887 4.33777e-05 4.87906e-05 -2.42445e-05 1.36989e-05 3.26759e-06 2.3322e-05 
5.54402e-07 -2.14467e-05 7.48327e-05 2.38423e-06 0.00104406 0.00109188 9.43368e-06 0.000596297 0.00105708 
0.000467534 7.72083e-05 0.000163472 1.91612e-06 -9.33749e-06 1.25021e-05 -2.64071e-05 1.34301e-05 8.84075e-05 
2.37313e-05 1.36464e-05 7.07492e-05 -3.98006e-05 3.27236e-05 7.03013e-05 -1.81639e-05 2.0618e-06 9.12117e-05 
-7.00069e-05 6.73043e-06 7.47901e-05 -9.31272e-07 3.06611e-06 8.10354e-05 -6.62458e-06 -1.81827e-05 8.42611e-05 
-6.15449e-06 -2.3548e-05 5.64757e-05 -8.09875e-06 -1.90887e-05 6.07558e-05 8.22017e-06 -4.56729e-06 5.9567e-05 
6.94273e-06 -9.67279e-06 3.87146e-05 4.22313e-05 -1.33061e-05 3.27627e-05 9.09037e-05 -3.8195e-05 4.98675e-05 
8.91826e-05 -2.54985e-05 3.36264e-05 0.000109502 -2.37659e-05 5.3313e-05 0.000132752 2.58549e-05 0.000188869 
9.1359e-05 1.87472e-05 0.000161062 0.000109236 -0.000146846 -2.85325e-05 -0.00011955 4.15674e-05 -2.35093e-05 
5.31868e-05 3.93945e-05 5.61858e-06 4.23066e-05 3.01793e-05 2.89436e-05 -4.71472e-05 -2.06461e-05 -4.73757e-05 
-1.85619e-05 -0.00014127 -4.9099e-06 -8.10537e-05 -2.37438e-05 -2.27804e-05 0.000207581 -0.000150357 5.18781e-06 
0.000798302 0.000197808 7.07238e-05 0.000187282 0.000669995 -9.19022e-05 -5.30949e-05 -0.000273338 0.00031827 
0.000352181 5.41947e-05 0.000136101 0.000589553 -0.000121905 -0.000386942 7.64129e-05 0.000150917 0.000193364 
3.50261e-08 1.06459e-05 7.34663e-05 6.26613e-05 3.39824e-05 0.000137465 -9.50554e-06 8.62976e-05 -6.24182e-06 
2.34775e-06 6.61399e-05 -1.09067e-05 -3.16911e-06 0.000130968 -3.28265e-06 -0.000101701 0.000112187 -2.77563e-05 
-0.00035266 5.48811e-05 0.000165724 -5.17759e-06 7.6914e-06 -1.92686e-06 -0.000289591 0.00052862 5.79712e-05 
3.23599e-05 -6.22398e-07 -2.06496e-06 -3.04095e-07 -5.14615e-05 0.000717643 2.24497e-05 1.12061e-05 -0.000330779 
-0.000138806 -1.05053e-06 2.82878e-05 -1.20974e-06 -2.72898e-07 8.30575e-05 0.000116466 0.000177071 -0.000265721 
0.000168905 0.000661004 -1.18516e-07 -6.75868e-07 -2.06841e-06 2.12461e-05 -0.000229472 -4.75701e-05 -5.2961e-05 
2.33776e-05 2.27399e-05 4.82045e-05 -1.96794e-06 -6.00613e-05 0.000699206 0.000280228 -0.000496821 2.38802e-05 
4.462e-05 1.20796e-05 -1.79496e-05 0.000180879 0.000359806 6.80628e-06 -4.53664e-06 -0.000303386 -1.48492e-05 
0.000180768 -0.000188025 8.01121e-05 0.000151123 0.000100688 -9.05097e-08 -0.000345158 -7.20527e-05 -2.17659e-05 
1.17327e-06 -2.89095e-07 -1.73089e-06 -7.93131e-07 -4.31227e-06 7.88337e-07 1.30322e-07 -3.86485e-06 -9.47559e-07 
4.01581e-07 -1.66795e-06 -8.25938e-07 3.22527e-07 -8.38383e-07 -1.04329e-06 -6.18691e-07 -5.2602e-07 2.2183e-07 
-1.12493e-06 -2.1742e-08 -1.33754e-07 -1.03149e-06 -7.25483e-07 -4.39244e-07 -2.07549e-06 9.10064e-07 -2.48845e-07 
-2.27771e-06 2.70139e-07 1.13482e-07 -1.88027e-06 -5.55807e-07 1.74491e-08 -1.83323e-06 -8.05713e-07 2.85364e-07 
-1.24836e-06 -1.38025e-06 4.71763e-07 -2.20229e-06 -1.91266e-06 -3.58857e-07 -1.17844e-07 -2.64517e-06 -1.8877e-09 
-7.81598e-07 2.66551e-06 4.41942e-07 -1.08487e-06 2.45552e-06 5.38551e-07 8.10358e-07 3.18391e-06 9.56119e-07 
-3.02372e-07 2.82486e-06 -3.75024e-05 1.28844e-05 -2.99196e-05 -9.24292e-08 8.27661e-06 -0.000146874 -9.36274e-05 
-7.46454e-05 5.88101e-05 3.66225e-05 6.39009e-05 -1.80668e-06 -1.18029e-05 2.72514e-06 3.20695e-05 1.24158e-05 
-4.09383e-06 3.38306e-05 2.57881e-05 -2.54505e-06 2.52515e-05 2.55884e-05 5.44782e-06 2.46911e-05 1.30802e-05 
-1.01575e-05 7.86488e-06 3.30016e-06 7.0846e-06 1.48173e-05 8.37336e-06 3.56177e-06 8.12269e-08 1.37547e-05 
3.54461e-06 -2.10731e-06 1.15462e-05 4.36215e-06 -6.98649e-06 8.13599e-06 4.54043e-06 -1.61256e-05 6.02663e-06 
3.63736e-06 -5.70166e-06 -9.9493e-07 1.17305e-05 4.69646e-05 -1.09547e-05 8.12404e-05 4.89685e-05 -1.91652e-05 
5.83309e-05 0.000133446 0.000154063 4.22948e-05 0.000126483 -7.04024e-05 0.000146886 -0.000271853 -0.000147481 
-3.00107e-05 -4.35404e-05 -6.36322e-06 -1.93311e-05 -7.16661e-06 1.43255e-07 -6.95945e-06 -1.42783e-05 -8.02717e-06 
-1.29439e-05 -7.72221e-06 -2.98729e-06 -2.96273e-06 3.36261e-06 1.01851e-06 2.99221e-06 -8.86415e-07 2.52705e-06 
3.77981e-06 -8.96464e-07 3.36712e-06 4.68236e-06 1.00922e-06 3.63512e-06 5.12569e-06 2.30713e-06 3.93921e-06 
5.19059e-06 2.44222e-06 3.99369e-06 5.34613e-06 2.31922e-06 3.72691e-06 4.95096e-06 2.17678e-06 2.85449e-06 
3.88723e-06 1.22735e-06 1.72702e-06 1.70894e-06 1.72414e-06 2.09765e-06 2.56261e-07 2.20804e-06 2.46865e-06 
1.44165e-07 5.24512e-07 -5.36394e-05 -6.12717e-05 -8.89441e-05 1.33941e-05 2.88121e-05 -2.49355e-05 -1.13659e-05 
9.69849e-06 2.09054e-05 3.55086e-06 4.00954e-07 4.72601e-06 -4.28886e-06 -1.98213e-06 4.40144e-06 3.48766e-06 
-5.77854e-07 6.9391e-06 3.82539e-06 4.42941e-06 6.16909e-06 3.56195e-06 4.4049e-06 5.82451e-06 2.68132e-06 
2.15274e-06 6.9627e-06 3.37783e-06 1.22119e-06 5.39663e-06 3.06999e-06 2.97119e-06 3.08583e-06 2.51829e-06 
3.11921e-06 -1.67669e-07 -4.65498e-07 2.38869e-06 -6.6938e-06 -9.56885e-06 7.2386e-06 -3.06347e-05 -5.58864e-06 
1.38883e-06 5.09874e-06 4.26195e-05 -4.97305e-05 -9.09629e-05 9.45581e-06 -4.48703e-05 -0.000150043 9.93556e-05 
2.06732e-05 0.000104647 -1.66397e-05 9.87371e-05 7.02097e-05 3.57211e-05 -1.22934e-05 3.27369e-05 5.50002e-05 
5.79156e-05 3.834e-05 1.67624e-05 5.26203e-05 1.88622e-05 2.33353e-05 2.12243e-05 2.05073e-05 1.49274e-05 
-1.35356e-06 5.272e-06 -4.06037e-06 1.53135e-06 -1.26731e-05 -3.42104e-06 7.5298e-06 -2.35155e-05 -8.06784e-06 
-3.6736e-06 -2.2677e-05 1.85461e-06 1.61833e-06 -1.43899e-05 -1.76525e-06 -1.1068e-05 -1.62961e-05 -7.16153e-06 
8.77802e-06 -2.69762e-05 -1.80156e-05 2.21541e-05 1.8126e-05 -3.73602e-05 1.22486e-05 1.13795e-05 -7.8487e-05 
-2.82107e-05 -0.000125987 0.000108688 -1.4979e-05 8.09061e-05 -7.67433e-05 8.12128e-06 -9.02968e-05 -9.79067e-06 
3.83668e-05 3.37562e-05 1.23007e-05 -4.2444e-05 1.86655e-05 1.99918e-05 -3.90526e-05 2.35691e-05 -3.82594e-05 
4.95561e-07 3.34392e-05 -1.24526e-05 -7.94879e-06 5.18918e-05 1.16712e-05 3.23603e-05 2.57841e-05 -2.49935e-06 
-1.53318e-05 2.84761e-06 2.16316e-05 -6.66945e-06 1.76309e-07 1.15315e-05 -1.81036e-05 -1.75628e-05 2.51116e-05 
-2.59088e-05 -9.57157e-06 6.81293e-06 -3.04672e-05 -7.79932e-06 3.19395e-07 -2.58943e-05 -2.00934e-06 2.73014e-06 
-1.36864e-05 -1.44255e-05 -9.86335e-07 -1.65807e-05 -1.80614e-05 8.18761e-06 -2.07925e-05 -2.27804e-05 1.81228e-05 
-2.72416e-06 -3.64019e-05 -2.54045e-06 -3.45569e-06 -3.68151e-05 4.58518e-06 -9.74094e-07 -3.35638e-05 2.16654e-06 
-1.91601e-05 8.4021e-06 -3.28742e-06 5.92466e-05 -6.68152e-05 3.78002e-05 -3.2559e-05 1.4606e-05 -4.08431e-05 
-0.000108088 4.79902e-05 -0.000156854 -4.11435e-05 1.24305e-06 -1.19912e-05 6.94085e-06 -6.75686e-05 -3.50595e-05 
7.82816e-05 -5.6714e-05 1.03645e-06 5.32153e-05 -1.31633e-06 8.9049e-06 -0.000150905 3.94046e-05 2.22949e-06 
-1.48271e-06 -2.84011e-07 -6.49713e-05 1.60133e-06 3.18075e-05 1.07622e-05 -1.81724e-05 -2.29342e-05 -2.02604e-05 
2.52613e-05 2.29051e-05 2.48177e-05 9.4159e-07 3.41112e-05 4.37105e-05 9.80098e-06 -4.33473e-05 -2.53804e-05 
2.42983e-06 -1.74986e-05 -8.97018e-05 1.10973e-06 2.89966e-07 -1.01738e-06 -4.19427e-05 -1.02404e-05 -1.05596e-05 
-7.86222e-06 -8.32476e-06 6.1999e-05 1.6787e-05 5.53761e-05 5.97077e-05 1.00473e-06 8.79467e-08 -4.39681e-06 
3.7053e-05 -1.21767e-05 -2.73593e-05 -0.000109567 0.000159806 -4.91791e-05 1.45745e-05 -8.64353e-05 -3.88962e-05 
-2.70721e-05 1.21129e-05 -5.26399e-05 -5.19809e-05 -4.5682e-05 1.71374e-06 1.89574e-05 8.70976e-07 -1.1545e-05 
-1.55654e-05 1.76425e-05 1.8246e-05 -2.38222e-06 2.31896e-05 4.75731e-05 -7.3365e-05 3.43262e-05 4.43811e-05 
8.3358e-07 7.94037e-05 4.00559e-05 7.24353e-05 -6.74934e-05 4.31688e-05 3.4021e-05 -2.71449e-05 -2.50002e-06 
0.000172549 -5.16702e-05 2.59911e-05 -1.08929e-06 -8.04703e-07 -2.23225e-05 2.30277e-05 -8.92167e-07 -5.41265e-07 
5.1186e-07 -2.27055e-06 -4.3655e-06 -6.76689e-07 9.36436e-07 -4.95021e-06 -1.9172e-07 6.4725e-07 7.30284e-07 
-1.38463e-07 -1.12706e-07 5.31047e-07 1.79261e-07 1.12201e-06 4.72721e-07 -2.33038e-07 -9.14669e-07 1.2751e-06 
4.64836e-07 -1.21418e-06 1.60201e-06 4.72683e-07 -1.62996e-06 6.38447e-07 7.79031e-07 -8.50933e-07 -6.25616e-07 
1.03042e-06 -8.1848e-07 -1.07555e-06 1.15018e-06 -7.07746e-07 -1.52363e-06 8.54004e-07 -8.71936e-07 -2.4431e-06 
2.04917e-07 -1.63208e-07 -2.89006e-06 1.02241e-07 -1.58204e-06 3.0306e-06 4.32512e-07 -9.59306e-07 3.78664e-06 
8.62597e-08 -0.000130425 -4.25302e-05 2.17783e-06 -8.58421e-05 1.93018e-05 4.07536e-05 1.51957e-05 2.69667e-05 
3.43099e-06 -8.66202e-06 1.3834e-05 -9.43325e-06 1.96178e-05 2.63644e-05 -2.08816e-06 -2.65586e-05 4.82076e-06 
5.38481e-06 -1.37174e-05 2.65745e-06 1.24358e-05 1.00604e-05 5.5463e-06 4.83576e-06 6.8827e-06 -1.05423e-05 
4.29361e-07 -1.44627e-06 -1.14654e-05 1.80449e-06 9.71873e-08 -1.13994e-05 1.81809e-06 -1.37047e-05 -5.66443e-05 
-4.34087e-07 -5.06955e-05 -5.39215e-05 1.42154e-05 -4.53535e-06 2.28896e-05 1.78972e-06 2.23737e-06 7.73832e-06 
2.10715e-05 -4.26656e-06 -1.67857e-06 1.10542e-06 5.85934e-06 9.40027e-06 -1.30293e-05 6.43778e-06 8.85389e-06 
-5.00964e-06 3.98406e-06 3.93578e-06 -9.35154e-07 4.26332e-06 7.05477e-06 2.71735e-06 4.56515e-06 6.37054e-06 
2.71843e-06 3.86261e-06 5.84802e-06 1.52415e-06 3.66636e-06 5.30838e-06 1.69549e-06 2.92181e-06 3.85427e-06 
1.85965e-06 1.26892e-06 2.39435e-06 5.03132e-07 -1.00517e-06 -2.15749e-06 -1.4194e-07 -3.31433e-06 -3.41675e-06 
-5.74523e-06 1.28168e-05 -2.34304e-05 1.39335e-06 4.64549e-06 2.38781e-06 6.19978e-06 4.16556e-06 7.02115e-07 
5.53129e-06 5.11097e-06 1.44731e-07 4.53836e-06 5.01458e-06 1.8637e-06 2.78225e-06 4.02501e-06 1.84621e-07 
4.62587e-06 3.31057e-06 -6.497e-07 2.28268e-06 4.33556e-06 2.41788e-06 5.45824e-06 4.34094e-06 -2.4761e-07 
-5.70543e-06 -1.04616e-05 2.12981e-06 -7.86153e-06 2.63093e-05 1.55708e-06 -1.50264e-05 -1.32752e-05 -3.74035e-05 
4.66878e-06 -4.4913e-05 7.24628e-06 -1.4383e-05 -3.43804e-06 5.42603e-06 -2.57914e-06 -3.87149e-06 9.92489e-06 
8.92469e-06 -1.60083e-06 1.70364e-06 -7.05183e-06 -7.99118e-07 2.85099e-06 -2.06736e-06 -9.82658e-06 -1.06553e-06 
-7.09919e-06 1.87825e-06 2.18283e-05 7.17889e-06 2.65787e-06 -6.38488e-06 -8.68083e-06 -6.12907e-06 -1.57614e-06 
-1.47205e-05 -3.80523e-05 7.49723e-07 -5.88954e-05 -5.03678e-05 1.19033e-05 3.6819e-05 -4.78106e-05 3.1075e-05 
3.25259e-05 -2.791e-05 4.54592e-05 1.5431e-05 -6.15233e-06 3.10289e-05 2.34287e-05 -7.1297e-06 -2.07138e-06 
1.20401e-05 3.36023e-05 -2.71107e-06 4.21373e-06 -1.46402e-05 -8.2012e-06 -2.43586e-05 3.06141e-06 -8.3652e-06 
2.52929e-07 -4.9557e-06 -2.05006e-05 -4.6583e-06 7.18015e-06 -1.17755e-05 2.13224e-05 1.80026e-07 1.71624e-06 
4.51529e-06 2.82709e-06 -1.88297e-05 -5.46875e-06 1.4635e-05 1.336e-05 -2.61237e-05 1.90285e-06 4.7266e-07 
-2.77062e-05 -8.53079e-07 2.27135e-06 -2.186e-05 6.02945e-06 -1.7498e-05 8.28399e-06 8.6656e-06 2.71949e-06 
1.78635e-05 -1.0592e-05 4.50981e-07 -2.13059e-05 4.81174e-06 3.19292e-06 -2.7489e-07 3.58558e-05 -5.03924e-05 
5.9674e-05 -3.08147e-05 -6.78031e-06 2.50593e-05 3.90761e-05 -8.32456e-06 2.89391e-05 5.0272e-05 -2.00333e-05 
-2.29351e-05 1.21968e-05 3.30856e-05 2.51656e-05 3.12925e-05 -1.33941e-06 -9.53873e-06 2.91433e-06 -1.23729e-06 
1.14534e-05 -2.2649e-05 -2.41716e-08 -9.99963e-07 -6.14152e-06 2.33703e-05 -3.03456e-06 -1.72351e-05 2.11105e-05 
1.53792e-05 -5.90391e-05 -6.34576e-05 -1.13181e-05 4.75648e-07 -1.59998e-06 2.11285e-05 -3.1068e-06 5.51242e-05 
8.62895e-06 5.54739e-06 4.8566e-05 1.81084e-05 2.34391e-05 -1.16517e-06 2.27407e-05 1.04043e-05 2.98343e-05 
2.04484e-05 -3.27241e-05 2.92452e-06 -1.78952e-05 1.36368e-05 -1.18934e-05 2.23872e-07 1.13818e-05 2.29752e-06 
-1.06242e-06 -1.2026e-06 -2.85423e-05 1.91584e-05 -1.81547e-05 3.90755e-05 1.9326e-05 1.8825e-05 -9.79871e-06 
-2.13903e-05 3.02568e-06 0.0140794 0.010079 7.87325e-05 3.54501e-06 2.01978e-05 -8.99929e-06 -2.30414e-05 
-4.58079e-06 -8.00127e-06 -4.71202e-05 -5.20198e-08 6.45531e-05 -3.78845e-06 -4.92147e-06 -8.81207e-06 -1.352e-05 
2.46895e-06 -1.13683e-06 -3.02871e-07 4.70181e-06 -2.44126e-05 -7.67826e-07 -5.50464e-08 -6.8054e-06 -3.35175e-06 
-2.1594e-05 2.14646e-05 1.71886e-05 1.23061e-06 -2.70902e-06 3.50998e-07 7.05235e-07 1.61619e-06 4.05998e-07 
-1.77018e-06 9.78908e-07 0.0135865 0.0102037 7.74333e-07 1.05569e-06 -4.14844e-07 7.44638e-07 9.95609e-07 
6.48901e-07 2.23573e-06 1.14507e-07 -1.05042e-06 2.0012e-06 1.37597e-07 1.83079e-06 1.38396e-06 4.53914e-07 
-1.54325e-06 9.59041e-07 5.9668e-07 -3.1039e-06 1.7743e-06 1.39157e-07 2.61252e-06 3.21811e-07 -5.1794e-07 
-4.50578e-06 3.68856e-07 1.10377e-05 4.14021e-05 -2.20676e-05 -9.86489e-06 1.07854e-05 8.0354e-06 -8.68106e-06 
9.32382e-06 -6.06737e-06 -2.26895e-05 5.68288e-06 5.28426e-07 -3.88786e-06 -1.28047e-05 1.31941e-05 -1.1844e-05 
-9.43287e-06 1.25692e-05 1.9152e-06 -2.19721e-06 -5.76489e-06 5.63838e-07 -2.78295e-06 -6.51417e-06 -9.65981e-06 
4.70039e-06 -9.03964e-06 -1.26211e-05 9.13785e-06 6.99117e-06 1.12827e-05 5.74068e-05 8.77812e-06 2.49554e-06 
3.30207e-05 -3.50982e-07 6.83993e-06 -8.27289e-06 7.81099e-07 -2.85313e-06 3.65547e-06 -3.17901e-06 -5.26349e-06 
3.02276e-06 0.0109794 0.0063926 4.82941e-06 6.07796e-06 1.7011e-06 6.4464e-06 7.61207e-06 -8.29572e-07 
3.89351e-06 5.5276e-06 3.19597e-06 2.53014e-06 3.76977e-06 2.7983e-06 1.37019e-06 1.12287e-06 2.24922e-06 
9.90013e-06 2.64777e-06 6.82216e-06 -2.56059e-05 1.27331e-05 -1.32922e-05 1.01514e-05 -1.35658e-05 2.74484e-07 
-2.66369e-06 -6.77401e-07 -4.27498e-06 2.72365e-06 9.10534e-08 3.1883e-06 4.94192e-06 -1.36643e-07 3.9747e-06 
6.37925e-06 -1.14667e-07 4.53599e-06 5.06712e-06 -2.82704e-07 -2.10197e-07 -4.06669e-06 2.91612e-07 -3.69152e-06 
-0.00574108 -0.0124129 2.99972e-06 -3.19859e-06 -4.80375e-06 3.61262e-06 -1.46197e-05 -7.48699e-06 -9.68528e-07 
2.70243e-06 1.50867e-06 6.1287e-06 -3.93458e-06 5.09449e-06 7.89858e-06 4.78969e-08 2.29056e-05 -1.81255e-05 
-3.13321e-05 -3.50942e-06 -5.02377e-06 6.53982e-07 1.53857e-05 4.01594e-06 1.743e-05 2.87105e-05 -7.07342e-06 
1.58132e-05 1.32531e-06 -1.18924e-05 -1.43061e-07 8.55849e-06 -5.09866e-06 -2.88775e-05 -8.95809e-06 -8.92461e-06 
4.54459e-05 2.34538e-06 1.63819e-05 -7.14346e-06 -1.23223e-05 1.20805e-05 -4.51202e-06 2.66454e-06 1.22937e-06 
8.02588e-06 2.36833e-05 -3.06385e-05 -3.84268e-06 1.71171e-05 -0.0111559 -0.0098157 -2.34887e-05 -5.17181e-05 
1.82185e-05 -2.94956e-05 -0.0134523 -0.00930758 3.25246e-05 -5.76228e-06 1.16062e-05 3.68278e-05 -2.53892e-05 
-1.47742e-05 1.58168e-06 -1.98735e-05 3.66886e-06 9.1338e-06 -1.16995e-05 1.38251e-05 -1.92501e-06 4.87716e-06 
1.74396e-05 -1.05645e-05 -3.78094e-06 5.22979e-06 5.01095e-07 -0.0139848 -0.0158145 1.47906e-06 -1.41227e-06 
6.19897e-06 1.57047e-07 1.43594e-06 4.27854e-06 8.34325e-07 -6.75768e-05 -1.5121e-05 -9.47983e-06 -1.73009e-05 
6.96654e-06 9.39428e-06 1.66894e-05 -1.19885e-05 7.46389e-06 3.50642e-06 -3.97259e-07 -3.78767e-07 6.46361e-05 
-4.45407e-05 -6.1435e-06 2.74645e-05 8.62612e-06 -7.59439e-06 -1.5713e-05 -7.62905e-07 1.99441e-06 2.63835e-06 
3.18969e-06 2.26312e-06 2.62552e-06 -1.56576e-05 1.33313e-05 1.3534e-05 3.20385e-06 -6.83868e-07 -9.31826e-06 
-1.46466e-05 -2.39496e-06 -8.20728e-06 -3.50326e-06 6.61456e-07 -3.24528e-06 3.65087e-05 1.10374e-05 4.12063e-05 
2.03414e-06 2.46622e-06 2.32844e-06 -8.93445e-06 1.17815e-05 1.04103e-05 1.04082e-05 1.93451e-05 2.09189e-05 
4.91726e-06 7.61202e-06 3.423e-05 -2.99674e-06 1.14903e-05 -2.39877e-06 4.92736e-06 -2.70045e-05 -0.0152251 
-0.0141308 -3.63692e-07 4.20649e-06 -0.00937033 -0.0123384 -4.45514e-07 9.49805e-07 -3.42935e-07 -3.3987e-06 
7.49115e-07 -1.32652e-06 1.40751e-06 5.52e-07 -2.09512e-06 9.94263e-07 1.2973e-06 2.90966e-06 1.84619e-06 
1.73973e-06 2.45731e-06 1.08046e-06 1.84021e-06 2.33438e-06 -2.21833e-06 -2.68523e-06 8.8243e-07 -7.90256e-06 
2.55483e-06 -9.11874e-06 5.44034e-06 -2.85105e-05 -5.85859e-06 4.20991e-06 3.80272e-06 1.56729e-05 -5.89534e-06 
2.93742e-05 5.76627e-06 5.43239e-06 -1.08224e-05 -4.56317e-06 1.3583e-05 -4.59213e-06 5.97728e-06 2.14378e-06 
-1.33098e-05 2.45114e-05 1.67446e-05 2.06472e-06 -1.70166e-06 6.36404e-06 -1.08404e-05 -6.45336e-06 -1.78475e-05 
5.5182e-06 1.20673e-05 -1.10291e-06 -0.0192061 -0.0170397 -0.0051876 -0.0206555 3.22695e-06 9.28102e-06 
5.39874e-06 3.19496e-06 -3.23147e-06 4.92468e-06 2.24147e-05 3.71826e-05 6.22212e-06 2.02428e-05 -1.20879e-06 
2.43766e-06 3.459e-06 3.1109e-06 -2.6895e-06 8.62453e-06 6.98277e-06 6.18434e-06 4.33888e-06 -1.1992e-06 
4.6884e-06 -4.60751e-06 -9.312e-06 2.2055e-05 3.59468e-05 -4.72823e-07 2.54949e-06 -6.47495e-07 4.26609e-06 
-2.04925e-05 9.12843e-06 2.08137e-05 -6.12743e-06 4.9305e-05 4.85379e-06 -3.92762e-07 -9.95554e-06 9.60206e-06 
-4.72449e-06 -1.14317e-05 -3.94272e-05 -8.39205e-06 1.92871e-05 -9.39633e-06 3.26955e-05 -6.86e-07 -1.03972e-05 
3.04422e-06 2.47368e-06 -2.07887e-05 -2.2924e-05 -1.56083e-06 -8.59499e-06 -5.38098e-06 9.57305e-06 1.28916e-05 
1.26307e-05 5.05054e-06 -1.17245e-05 -9.69505e-06 1.16594e-05 -4.68561e-06 5.74484e-06 -1.32544e-05 -2.7696e-05 
-2.70392e-06 6.73805e-06 -1.01833e-05 5.75982e-06 -4.87437e-07 4.44547e-06 2.71629e-06 -3.18269e-06 -2.58377e-06 
7.57991e-06 2.44035e-06 -9.44533e-06 -2.79001e-05 -4.38838e-05 -1.11325e-05 -1.22725e-06 -6.01542e-06 4.19256e-06 
3.49108e-07 7.29374e-06 -1.97829e-05 7.29108e-06 7.25582e-06 3.46758e-07 6.93214e-07 1.01505e-05 2.46976e-06 
-2.03966e-05 -6.13006e-05 8.58474e-07 4.95642e-06 8.49531e-07 3.79184e-06 2.02304e-06 -1.46336e-05 9.26619e-06 
6.88959e-07 -3.96376e-06 6.38759e-06 5.57208e-06 -1.29791e-06 3.23689e-07 1.99679e-06 2.77368e-05 -5.57323e-06 
5.12843e-06 1.35664e-05 7.94121e-06 5.27188e-06 6.38149e-06 -1.78714e-05 2.2696e-06 1.58995e-05 3.85989e-05 
3.34122e-06 1.14989e-05 -6.68881e-06 -1.72241e-05 3.653e-06 -5.19412e-06 1.77659e-05 1.19394e-05 8.04644e-06 
1.59079e-05 2.17482e-05 -1.6131e-06 -1.31832e-05 8.37369e-06 3.28857e-05 7.91228e-06 -4.18287e-06 -5.44561e-06 
1.66414e-06 9.24811e-07 -3.13234e-05 -4.96226e-07 -1.84468e-06 1.66208e-06 2.03047e-06 1.3868e-05 1.29455e-05 
2.43674e-05 -4.64287e-07 -5.11244e-06 -3.82106e-06 -2.45012e-06 5.59921e-06 -1.38986e-05 2.80318e-06 -1.12826e-06 
2.14035e-05 -9.81144e-06 -4.52378e-06 1.72025e-05 -6.14425e-06 2.18134e-05 8.78147e-07 8.69373e-07 -2.89406e-06 
-1.40504e-06 1.35202e-06 9.46571e-07 -1.8737e-06 3.58335e-07 -4.3379e-06 3.97418e-06 2.23307e-06 1.80456e-07 
4.13926e-07 2.29461e-06 -1.33698e-05 -9.92312e-06 -9.10557e-06 2.21525e-06 -1.06843e-05 -7.83486e-06 5.58754e-06 
3.48306e-06 -9.01992e-06 -2.53578e-05 -6.38359e-06 9.11151e-06 -2.88222e-05 -5.28553e-06 6.59286e-06 3.18243e-05 
-1.25033e-05 8.60739e-06 1.81421e-05 -1.66067e-05 1.10267e-07 5.28745e-07 -2.13652e-05 5.70555e-06 3.50932e-05 
-3.15525e-05 -1.46804e-06 -2.5556e-06 -2.13824e-06 1.57908e-06 2.09053e-05 2.77509e-05 1.25222e-05 2.73994e-06 
2.50356e-06 -5.20934e-07 -9.04174e-07 3.91927e-06 -5.12786e-06 -3.91571e-06 -3.66976e-06 1.91632e-05 -5.78779e-06 
4.61424e-06 1.89585e-05 1.34474e-05 -9.7963e-07 6.77581e-06 -3.74035e-06 1.53332e-05 8.54422e-06 3.26195e-07 
8.33339e-06 4.36139e-05 2.19842e-05 -3.07475e-06 2.03271e-05 2.86233e-05 -1.37339e-05 -2.02149e-05 1.13969e-05 
-1.59271e-06 -2.8238e-06 6.18329e-05 1.26159e-06 1.10836e-06 -8.22846e-06 -6.36356e-07 -7.29259e-06 4.94182e-07 
3.94389e-06 4.02337e-06 -1.26737e-05 3.73946e-06 3.07297e-05 2.90957e-05 2.27842e-05 1.10244e-05 -2.32869e-06 
-0.0314682 1.68182e-06 6.74318e-06 5.05e-06 6.07057e-06 3.98168e-06 -4.28046e-06 0.0111319 -2.33588e-06 
8.00521e-06 2.42202e-07 8.75976e-07 -4.75198e-06 9.49382e-06 -7.63586e-07 2.12878e-05 -6.21461e-06 5.63505e-07 
-6.91269e-06 1.04081e-05 1.42862e-05 6.32573e-06 -0.0132598 -0.00537197 2.35373e-06 7.52163e-06 1.27112e-05 
2.83731e-05 1.3889e-06 1.26329e-06 -1.22104e-05 -0.0112109 -0.0124614 -3.12984e-06 -3.60056e-07 5.78633e-06 
4.47627e-06 5.02436e-06 3.79506e-06 1.56887e-06 1.23329e-06 -6.56228e-07 -2.05506e-07 -6.66262e-07 -2.29472e-06 
-1.69507e-06 -1.38596e-06 -4.73204e-06 -2.15167e-06 -1.34283e-06 -4.40443e-06 -1.93948e-06 -1.46855e-06 -4.49881e-06 
-1.33201e-06 -1.61341e-06 -3.39973e-06 -8.06172e-07 -1.36942e-06 -8.20864e-07 -7.67096e-08 -7.07824e-07 -1.38126e-06 
-4.20523e-06 -3.35148e-06 3.176e-06 1.48669e-07 1.22847e-06 6.57221e-09 2.17588e-07 -1.0277e-06 1.58376e-06 
-1.7507e-07 -1.59488e-06 2.18854e-06 -2.14766e-06 -1.48783e-06 1.25342e-06 -2.83722e-06 -4.77739e-06 4.71611e-07 
-2.43844e-06 4.70264e-07 -1.2446e-06 -1.7528e-06 -4.33574e-06 -1.07786e-06 -1.39778e-06 -6.96793e-07 -2.17178e-06 
1.1985e-06 -2.33952e-06 -2.91863e-06 1.40801e-06 1.77636e-06 3.52542e-06 2.30031e-06 1.64632e-06 2.66358e-06 
1.85061e-06 1.41819e-06 3.28457e-06 -7.80654e-08 1.60977e-06 5.52614e-07 4.52591e-06 4.15025e-06 2.2928e-06 
9.84331e-08 1.6944e-06 4.8318e-06 -3.91973e-07 4.40456e-07 -2.95431e-07 -6.91685e-06 0.0222397 -0.00198267 
-0.0153636 7.89144e-05 0.000976962 -0.00447412 4.27425e-05 0.000185729 -0.000388805 7.28222e-05 0.000112693 
-0.000199445 6.91755e-05 7.81995e-05 -0.00010065 4.46396e-05 4.891e-05 -5.36196e-05 3.41961e-05 2.98871e-05 
-2.75684e-05 2.37005e-05 2.26916e-05 -1.67557e-05 2.16663e-05 1.84858e-05 -8.33801e-06 1.82787e-05 4.92652e-06 
-1.86528e-07 1.59041e-05 1.42931e-05 -1.44632e-05 1.23942e-05 1.49354e-05 -1.0701e-06 1.1096e-05 1.08233e-05 
7.16941e-06 1.4004e-05 1.58887e-05 4.50236e-06 1.69708e-05 2.1362e-05 7.36192e-06 1.74561e-05 2.32206e-05 
1.24326e-05 2.31132e-05 2.10774e-05 1.64244e-05 4.19231e-05 2.46581e-05 -1.08314e-06 5.54235e-05 4.98198e-05 
-2.02843e-05 3.49128e-05 4.10962e-05 -1.53226e-07 2.98771e-05 1.38681e-05 1.90297e-05 -1.44169e-06 -1.0572e-05 
2.98577e-05 -2.82222e-05 -2.75175e-05 3.17134e-05 -4.48727e-05 -3.5279e-05 1.7076e-05 -5.18959e-05 -4.83554e-05 
2.81636e-06 -4.37842e-05 -4.01969e-05 -1.33929e-05 -1.68309e-05 -2.5059e-05 -9.05715e-06 -1.96149e-05 -1.35477e-05 
-5.73111e-06 -1.18137e-05 -5.54319e-06 -9.3395e-06 -2.03984e-06 1.61988e-06 -1.41336e-05 1.65962e-06 2.93184e-06 
-1.1242e-05 1.56574e-06 2.98298e-06 -6.95779e-06 2.9822e-06 3.34869e-06 -2.75687e-06 2.31195e-07 -6.10231e-07 
2.75469e-06 -7.68056e-07 -2.07289e-06 2.24563e-06 2.35445e-06 -1.40233e-06 2.31102e-07 3.94665e-06 1.53668e-06 
-1.18527e-06 9.42028e-07 -3.82807e-08 1.36395e-06 -1.89859e-07 -2.88586e-06 7.83117e-07 -1.32512e-06 -4.00568e-06 
3.80181e-07 -2.01336e-06 -5.36716e-06 1.35491e-06 -2.80489e-06 -5.72045e-06 7.15738e-07 -2.85378e-06 -4.4308e-06 
2.09653e-06 0.0276552 -5.41022e-06 -2.49811e-06 3.01546e-06 -1.43364e-06 -2.55426e-06 1.08465e-07 -2.59161e-07 
1.09998e-06 2.14322e-06 7.21541e-07 3.07653e-06 2.96874e-06 1.87788e-06 4.42481e-06 3.67915e-06 3.15212e-06 
6.59906e-06 4.23712e-06 3.35346e-06 7.69085e-06 4.17996e-06 3.73388e-06 8.56032e-06 3.88743e-06 1.67394e-06 
9.43658e-06 1.98497e-06 3.04319e-06 5.70673e-06 1.32118e-06 3.06473e-06 6.23257e-06 7.66438e-07 4.03456e-08 
1.16596e-05 8.15045e-07 7.21318e-06 9.26319e-06 -3.38414e-07 1.40084e-05 1.43307e-05 9.07426e-07 1.75943e-05 
1.29411e-05 -1.17582e-05 5.98618e-06 -2.12034e-05 -1.87302e-05 -4.05181e-05 -4.23795e-05 -7.00191e-08 -5.40009e-05 
-4.6502e-05 2.64177e-05 -5.69447e-05 -3.68156e-05 2.79632e-05 -2.97412e-05 -2.21508e-05 2.64915e-05 -1.45671e-05 
3.84592e-05 5.22685e-05 2.67467e-05 0.000100548 2.91677e-05 6.51866e-05 6.75723e-05 -2.9686e-05 0.000111456 
2.06206e-05 2.2199e-05 0.000118649 5.48813e-05 2.94523e-05 5.40736e-05 5.68808e-05 4.05823e-06 4.30501e-05 
-2.56219e-05 8.69799e-06 4.21644e-05 1.55209e-05 1.85686e-05 6.37015e-06 3.77955e-05 1.79165e-05 2.41154e-05 
3.32875e-05 6.74621e-06 1.55957e-05 2.61291e-05 -1.37062e-05 1.7332e-05 1.8321e-05 -1.25666e-05 1.98964e-05 
2.77651e-05 -4.42331e-06 1.36219e-05 2.36764e-05 -7.33354e-06 9.80154e-06 2.52153e-05 -1.65042e-05 1.13428e-05 
-6.11475e-06 -2.31851e-05 3.10015e-05 1.09017e-05 -1.64574e-05 3.9028e-05 9.57628e-05 4.43607e-05 4.29899e-05 
4.49024e-05 2.33937e-05 3.5165e-05 -2.5816e-05 -3.38555e-05 4.37983e-05 -3.55165e-05 -5.19634e-05 0.000100291 
-9.25166e-05 -6.70622e-05 0.00110095 1.22534e-06 -0.000100136 -0.0103134 0.000544564 -0.000580931 0.00908085 
0.0207205 0.0121167 0.0149238 0.0201903 -0.0189054 0.0131414 0.015313 -0.0160997 0.0102944 
0.015598 -0.0157655 0.0219905 0.0245559 -0.0112952 0.0217521 0.0259169 -0.00706042 0.0209766 
0.0246458 -0.00706021 0.0207876 0.0241847 -0.00809247 0.0204073 0.0227683 -0.00809706 0.0197802 
0.0218704 -0.00850156 0.0198467 0.0223216 -0.00895321 0.0212627 0.0230393 -0.00858208 0.021345 
0.0232078 -0.00868909 0.0219913 0.0239826 -0.00881089 0.0218774 0.0234344 -0.00842464 0.0223026 
0.0234191 -0.00833457 0.0219878 0.0223344 -0.00839465 0.0221238 0.0221186 -0.00885542 0.0226917 
0.022129 -0.00884463 0.0235144 0.0230936 -0.00915318 0.0236413 0.0227531 -0.00884234 0.0237731 
0.0227398 -0.00887163 0.0243462 0.0225568 -0.00895931 0.0262516 0.022549 -0.00920022 0.031183 
0.0254939 -0.00987506 0.0339122 0.0319474 -0.0100883 -0.00466056 0.0116066 0.0103049 0.0172176 
0.0192755 -0.0111973 0.0175027 0.0187021 -0.00713656 0.0162505 0.0183486 -0.00661139 0.0160531 
0.0187442 -0.00826101 0.0180712 0.0197118 -0.00815282 0.0179817 0.0204707 -0.00744797 0.0156267 
0.0177197 -0.00761209 0.0150027 0.0186989 -0.00747028 0.0159981 0.0191508 -0.00743241 0.0156216 
0.0187502 -0.00759444 0.0149031 0.0147627 -0.00791662 0.006951 0.0131337 -0.00792472 0.00983134 
0.00369365 -0.012986 0.0116417 -0.0097728 -0.014047 -0.017566 -0.0179044 -0.0166407 0.00814753 
-0.0199633 -0.0218884 0.00674239 -0.0240605 -0.0169424 0.00675084 -0.0191615 -0.0164773 0.00683971 
-0.0185851 -0.0178191 0.00620398 -0.0193497 -0.0150744 0.00642068 -0.0185958 -0.0162199 0.00725214 
-0.018529 -0.0154337 0.00711121 -0.0189735 -0.0160106 0.00700053 -0.0185428 -0.0158098 0.0067182 
-0.0183297 -0.0155478 0.0068497 -0.0161253 -0.0128672 0.00769229 -0.0170393 -0.0151649 0.00800011 
-0.0117022 0.0148624 8.63121e-06 -0.00231754 -0.0146974 0.0065773 -3.48118e-06 -4.44552e-06 2.71068e-06 
0.00890821 -0.0107236 0.020284 -0.006004 -0.00705144 0.0142712 0.00103007 -0.000523036 0.00562849 
-0.0149117 0.0013978 5.39179e-06 -7.38883e-08 1.57973e-07 -1.42017e-06 2.55522e-06 -2.65028e-08 -1.6208e-07 
-1.13781e-06 -4.23004e-07 -5.9128e-07 -1.54204e-06 -2.64982e-06 -2.20334e-06 -1.32055e-06 -3.07318e-06 -9.92365e-07 
-2.20641e-06 -4.36299e-06 -3.06985e-07 -6.95683e-07 -4.33839e-06 -8.01308e-07 -2.34403e-06 -1.57479e-06 -2.47198e-06 
-3.79908e-06 -1.73339e-06 -4.10605e-06 -3.0036e-07 1.18561e-06 -4.06157e-06 -5.84994e-07 1.31943e-06 -3.71651e-06 
-9.0982e-07 5.97934e-08 -3.83026e-06 -8.37593e-07 -1.02048e-07 -2.66522e-06 -1.196e-06 -6.19156e-07 -3.1063e-06 
-5.14241e-07 -9.70616e-07 -1.44914e-06 -1.41671e-06 -1.15849e-06 7.42494e-07 -1.76313e-06 -2.20404e-06 -3.43871e-07 
-1.94538e-06 2.0944e-06 -3.76627e-08 -1.08921e-06 2.06738e-06 7.95342e-07 -3.14581e-07 2.04901e-06 8.37761e-07 
2.05909e-06 1.91015e-06 4.42349e-07 8.71649e-07 3.84491e-06 2.37052e-06 3.18767e-06 1.00756e-06 9.0217e-07 
-1.09023e-06 -6.98632e-07 1.25939e-06 -3.95922e-05 -9.79611e-07 -1.18418e-06 0.00742265 0.00813769 8.4709e-05 
0.000117733 -7.76128e-05 0.000253258 -0.00262872 -0.0063461 0.000162976 8.56196e-06 1.78647e-07 -7.47773e-05 
2.84067e-05 -8.04807e-06 -7.51497e-05 1.76345e-05 -9.41095e-06 -5.75736e-05 1.49591e-05 2.30824e-06 -3.09403e-05 
8.84978e-06 -1.01097e-05 -3.81641e-06 3.07131e-05 -5.066e-06 -5.24419e-06 1.3571e-05 2.86072e-06 -1.27554e-05 
1.32045e-06 5.12165e-06 -1.97641e-05 9.49707e-06 -1.71789e-06 8.98847e-06 7.43865e-06 2.93463e-06 7.92869e-06 
5.53232e-06 2.45938e-06 8.00723e-06 5.32109e-06 3.64775e-06 9.17719e-06 1.04645e-05 8.65922e-06 1.53031e-05 
2.19015e-05 1.60964e-05 2.47477e-05 7.45765e-07 -1.74299e-05 2.87707e-06 1.37839e-05 -1.44456e-05 -3.83697e-05 
2.08896e-06 5.13778e-06 2.53868e-05 -2.50025e-05 -6.02041e-05 2.4826e-05 -6.35162e-06 -1.52132e-05 2.99334e-05 
-2.18046e-05 3.45521e-06 5.77405e-05 -2.71998e-06 3.87025e-05 -3.77346e-05 9.86237e-06 1.58778e-05 1.56706e-05 
6.58413e-06 2.96176e-05 -2.41158e-05 1.59656e-05 -1.81275e-05 -5.07012e-06 1.07579e-05 1.51355e-05 -1.35412e-05 
2.38291e-07 7.24047e-06 -2.5516e-06 -3.82127e-07 8.31279e-07 -1.95379e-06 2.9095e-06 -3.18385e-07 -4.52806e-06 
5.76025e-07 -3.05912e-06 -1.15927e-06 6.33143e-06 -2.49472e-06 9.46078e-07 6.7314e-06 2.20684e-06 1.9527e-06 
3.41059e-06 3.31979e-06 2.31533e-06 -1.38815e-06 -3.11489e-06 9.40435e-07 -1.49407e-06 -5.02036e-06 -4.79802e-07 
2.20706e-06 7.97102e-07 -5.89827e-07 3.31043e-06 3.54273e-06 3.83011e-07 3.16106e-06 4.5022e-06 1.2969e-06 
2.29848e-06 5.10294e-06 1.20921e-06 1.05175e-06 3.13319e-06 2.49454e-06 0.000112971 0.00293709 0.000230224 
-0.00186807 -6.30106e-07 -1.85244e-06 7.03315e-07 1.13087e-06 -1.96346e-06 4.46389e-07 1.39116e-06 -2.70761e-06 
1.30023e-06 1.86098e-06 -3.10013e-06 1.6084e-06 2.06562e-06 -3.40932e-06 2.48799e-06 1.62145e-06 -5.98736e-06 
2.38783e-06 -1.60095e-07 -5.30547e-06 -5.05717e-08 -8.06963e-07 2.08271e-06 5.70847e-06 8.14139e-07 2.54692e-06 
8.05016e-06 2.96935e-06 8.98849e-07 9.77488e-06 3.30863e-06 -1.81839e-06 1.0907e-05 2.9025e-06 -4.95939e-07 
1.06277e-05 1.20842e-06 1.0376e-05 8.8257e-06 -7.67621e-06 5.13343e-06 -1.53376e-05 -7.02674e-06 2.1523e-05 
-1.92345e-05 -1.32849e-05 4.45359e-05 1.53104e-05 -5.57727e-06 5.23432e-05 3.54274e-05 1.4756e-05 4.04798e-05 
4.90506e-05 3.00091e-05 2.43476e-05 4.16961e-05 3.91207e-05 1.21112e-05 6.75563e-05 1.4505e-05 2.92129e-05 
3.48049e-05 -4.43786e-05 7.46563e-05 -3.31623e-06 -2.0004e-05 8.68719e-05 2.72833e-05 5.96682e-05 3.88988e-05 
-1.80411e-05 2.89035e-05 1.38548e-05 -2.10225e-05 -8.15532e-06 -2.88203e-05 -4.93787e-05 -1.76401e-05 -1.96118e-05 
-5.06944e-05 -2.15385e-05 1.10482e-05 8.72057e-06 -6.53727e-06 -1.49616e-06 -1.47444e-05 -3.83297e-06 -1.01519e-05 
-3.04139e-05 -1.05362e-05 -5.95588e-06 -1.50033e-05 -7.36519e-07 -6.2012e-06 9.67949e-06 -1.70005e-05 -6.49982e-06 
-2.35872e-05 -2.26045e-05 -1.11694e-06 -2.63511e-05 3.41194e-06 1.43332e-05 -4.99086e-05 7.048e-06 1.00908e-05 
3.05344e-05 1.83223e-05 -1.43044e-06 5.46692e-05 1.44539e-05 -4.95125e-05 -8.16935e-05 -2.54042e-05 -4.77666e-05 
-0.000168257 -7.29589e-05 -2.0555e-05 -0.000243968 -0.000150952 0.00022134 -0.000325499 -0.000399295 -0.0012174 
-0.00109267 -0.000980427 -0.00509865 -0.00140991 -0.000648669 -0.00297574 -0.00294063 -0.00233812 -0.00317959 
-0.000633807 -0.00383681 -0.00210583 -0.00246447 -0.000535948 -0.00147342 -0.00219821 0.000553965 -0.00158171 
-0.00564017 0.000587986 -0.00202284 -0.00533727 0.000465955 -0.00224192 -0.00498289 0.00048414 -0.00229563 
-0.00460116 0.000494097 -0.00212493 -0.00458494 0.000457089 -0.00241507 -0.0046819 0.000478878 -0.00258344 
-0.00437367 0.00049639 -0.00276517 -0.00466122 0.000446991 -0.00299136 -0.00427134 0.000503216 -0.00301879 
-0.0043934 0.000525633 -0.00319363 -0.00389168 0.000528119 -0.00335487 -0.00359899 0.00052236 -0.00370736 
-0.00345246 0.000545731 -0.00375442 -0.00348816 0.0004979 -0.00408552 -0.00323736 0.00055684 -0.00407315 
-0.0033178 0.000507262 -0.00407705 -0.00320217 0.000508599 -0.00508303 -0.00304733 0.000323186 -0.00557131 
-0.00280173 0.000472471 -9.3035e-05 5.03345e-05 -0.00212289 -0.00385691 0.000418538 -0.000865885 0.000968574 
-0.00168337 -0.00194821 0.000323744 -0.00121412 -0.00170454 0.000540102 -0.00164426 -0.00447236 0.000547725 
-0.00219303 -0.0041203 0.000404954 -0.00228431 -0.00438267 0.000417081 -0.0021219 -0.00504664 0.000383154 
-0.00213933 -0.00503013 0.000402517 -0.00202619 -0.00503222 0.000196476 -0.0020724 -0.00497654 0.00020413 
-0.00162716 -0.00566185 0.000211833 -0.00205204 -0.000654902 0.000169271 -0.00217728 -0.00221632 0.000372626 
-0.000296549 0.00139456 -0.000497759 -0.000594931 0.00115279 0.0077266 0.00727533 0.00183756 0.00634474 
0.00383469 0.0013918 0.00431424 0.0015272 2.80538e-07 0.00169169 0.00112946 -0.000600026 0.00138926 
0.00127981 -0.000776435 0.00464255 0.00201604 -0.000443337 0.00490468 0.00166781 -0.00019779 0.0049027 
0.00192314 -0.000185719 0.00463517 0.00193651 -0.000197269 0.00464063 0.00216469 -0.000242831 0.00430572 
0.00238439 -0.000275163 0.00478791 0.00152425 -0.000665394 0.000215561 0.000128952 1.95566e-06 2.7738e-06 
-7.47745e-07 -4.11453e-06 -1.92023e-06 1.97328e-06 6.01264e-07 -0.00120547 0.000568212 7.09507e-05 0.000927198 
6.48753e-07 0.000440045 0.000332796 -0.000799948 -0.00015263 -0.000459972 -0.000230276 0.000482753 -0.0011694 
-0.000135041 -0.00109855 0.000316904 -0.00293607 0.000535206 -0.000173861 -0.000126565 -0.000101212 -0.000315047 
-0.000222057 -0.000917094 2.94809e-05 0.000327775 -1.73359e-06 -1.30532e-06 1.05195e-07 7.43211e-07 -5.85619e-07 
-2.25151e-06 -3.59825e-06 6.49941e-07 -1.23881e-06 -4.54983e-06 -2.258e-07 -2.13976e-06 -1.99173e-06 -1.55305e-06 
-2.24062e-06 -1.25046e-06 -2.28129e-06 -1.96253e-07 7.07598e-07 -2.60004e-06 -7.14564e-08 4.28698e-07 -2.78882e-06 
-6.31634e-07 7.78358e-08 -2.69743e-06 -4.09816e-07 -5.13253e-07 -1.95444e-06 -1.67358e-07 -8.61296e-07 -1.88073e-06 
-1.6521e-07 -9.79892e-07 -8.19836e-07 -5.78748e-07 -1.36563e-06 5.44102e-07 -3.76652e-07 -2.28505e-06 -3.91456e-07 
-8.63718e-07 2.29442e-06 -1.18843e-06 -8.91236e-07 2.0221e-06 -7.69268e-07 -5.46992e-07 1.47872e-06 -5.92468e-07 
1.53902e-06 1.17436e-06 -7.0426e-07 -4.01802e-07 1.22183e-06 -1.80956e-07 5.84283e-08 9.78305e-07 4.86801e-07 
-0.000348832 -1.78379e-06 -0.000150291 -0.000302433 1.78599e-05 -6.86028e-06 -0.000123478 -0.000438049 -9.27472e-05 
9.92309e-06 5.7498e-05 -3.29126e-05 0.000213246 -0.000167176 0.000999149 2.21145e-05 -4.36443e-06 3.24873e-05 
-1.01964e-05 1.10452e-05 3.49872e-05 -4.36065e-06 1.32824e-05 3.48409e-05 3.43888e-06 -4.21864e-06 -2.02807e-06 
1.10835e-05 -6.74933e-06 6.71569e-06 -8.7826e-06 2.32478e-05 7.50443e-06 -2.06223e-06 7.19442e-06 8.92546e-06 
1.16024e-06 -2.6941e-07 1.00475e-05 3.81342e-06 -3.37616e-06 1.13393e-05 2.6088e-06 -4.55455e-06 1.1879e-05 
5.31878e-08 1.15749e-06 3.49243e-05 8.12632e-06 2.74373e-05 -6.395e-06 -1.48796e-05 3.45083e-07 1.85136e-05 
4.45134e-06 6.06685e-05 2.12137e-05 7.05489e-05 -4.76615e-05 1.14562e-05 -1.54088e-05 -3.93746e-05 -9.48068e-08 
-3.18976e-05 -1.22276e-05 -6.20177e-06 -2.10554e-05 -2.37697e-05 -6.83632e-06 -2.0363e-05 -2.36066e-06 9.84103e-07 
-2.79454e-06 1.41814e-06 2.62361e-06 -1.72127e-06 -2.20435e-07 4.72502e-06 -3.31675e-06 3.21156e-06 4.80062e-06 
-1.70563e-06 3.77719e-06 5.21264e-06 5.99634e-07 2.86967e-06 5.35827e-06 2.0476e-06 3.05632e-06 4.82789e-06 
3.56934e-06 2.71149e-06 4.29649e-06 3.78717e-06 2.17459e-06 3.25605e-06 3.46643e-06 1.57405e-06 3.22582e-06 
2.55535e-06 1.10572e-06 2.07121e-06 2.53293e-06 8.14369e-07 1.85319e-06 4.92888e-06 1.72422e-06 2.46482e-06 
4.07117e-06 9.70703e-07 -0.000150939 -0.000235006 0.000489582 0.000353769 -0.000126422 -2.7295e-06 8.15887e-07 
1.1084e-06 -3.59304e-06 1.07289e-06 1.21785e-07 -3.91332e-06 1.69666e-06 4.92791e-08 -4.30838e-06 3.00655e-06 
-6.46138e-07 3.14618e-06 5.0902e-06 2.19769e-06 2.59855e-06 5.58696e-06 2.48459e-06 2.33456e-06 6.96149e-06 
2.25497e-06 1.30427e-06 8.25762e-06 4.17709e-06 -1.0938e-06 6.88801e-06 4.18927e-06 -6.15742e-06 5.48662e-06 
3.29824e-06 -8.60769e-06 5.46368e-07 2.41733e-06 5.9414e-07 -8.7472e-07 1.6977e-06 1.76273e-05 5.45668e-06 
-1.09777e-05 1.05717e-05 -3.71548e-06 -1.339e-05 1.42009e-05 9.12599e-06 2.55842e-06 2.61712e-05 3.14331e-05 
2.86225e-05 1.56948e-05 1.78376e-05 4.26315e-06 -7.82625e-06 5.05219e-05 6.59548e-05 3.61671e-05 9.4022e-06 
-7.3142e-05 1.77186e-05 1.02636e-05 8.65674e-05 5.90077e-05 5.14521e-05 3.24406e-06 5.14095e-05 -4.92049e-05 
4.68036e-05 -4.86484e-05 -3.36294e-05 -1.19516e-05 -6.73945e-06 -2.86736e-06 -2.87345e-05 5.70942e-06 1.08359e-05 
-1.65378e-05 1.15722e-05 1.33131e-05 -3.17104e-06 -1.21147e-05 -6.25825e-06 -6.07852e-06 -1.10021e-05 -3.25467e-05 
-5.83214e-06 9.59537e-07 -2.40512e-05 -5.35281e-06 -5.81683e-06 -1.9278e-05 -6.42719e-06 -2.15972e-06 -3.01053e-05 
-4.14847e-06 -1.0223e-05 -4.01454e-05 -3.08837e-06 -6.39488e-06 -3.69157e-05 1.72344e-05 -2.5739e-05 -6.19968e-05 
9.04358e-07 -2.89374e-05 -5.21962e-06 -2.00124e-05 7.32713e-05 3.09881e-05 1.77114e-05 -7.30497e-06 -9.60981e-05 
-3.90886e-05 -2.66435e-06 -0.000182411 -3.17879e-05 -0.000191015 -0.000178035 -0.000144434 -0.000590894 0.000377822 
-0.000124914 -0.00019622 -0.000303468 4.61713e-05 -7.60621e-05 -4.82095e-05 2.7466e-05 0.000121524 -0.000213314 
0.00034204 -0.000117899 -9.42342e-05 0.000224685 -1.5753e-06 6.23201e-07 2.86497e-06 -3.507e-06 3.37744e-05 
-3.64697e-05 3.08101e-05 2.86191e-05 0.000134304 5.00472e-05 -4.37129e-05 0.000167557 3.03886e-05 -4.78538e-05 
7.58545e-05 3.84316e-05 -5.90828e-05 2.67209e-05 2.75446e-05 -6.68555e-05 6.00775e-05 1.98922e-05 -5.28557e-05 
-3.21946e-06 2.42753e-05 -7.33733e-05 -9.05741e-06 1.99762e-05 -4.32244e-05 -4.5145e-06 1.22842e-05 -6.44748e-05 
1.03425e-06 1.21712e-05 -4.56192e-05 -2.07539e-07 1.32655e-05 -3.5589e-05 -2.43697e-06 1.65275e-05 4.09196e-07 
-2.8777e-05 1.18537e-05 -3.25839e-05 -6.79577e-05 1.4475e-05 -2.50376e-06 -6.47278e-05 3.05683e-05 -2.72422e-05 
-6.94892e-05 4.2617e-05 -7.33786e-05 -5.92322e-05 7.4048e-05 -8.32149e-05 -7.38532e-05 9.94257e-05 -0.000118786 
7.81517e-06 6.46684e-06 2.54839e-05 2.68333e-05 1.33754e-05 -1.79522e-05 -8.12212e-06 -0.000100868 2.42659e-05 
1.10917e-05 -8.67064e-06 -2.11728e-05 4.25961e-05 -7.66359e-06 -3.35893e-05 2.38965e-05 4.32264e-05 -4.64145e-05 
9.29511e-05 2.98392e-05 -3.6919e-05 5.71937e-06 5.74228e-06 -8.0839e-05 -7.84597e-05 7.94596e-06 -5.43419e-05 
-2.99466e-05 -3.13307e-05 -0.000147827 -4.39489e-05 -5.84598e-05 -0.000253928 -6.59613e-05 -9.26481e-05 -1.86e-06 
5.54349e-07 1.3283e-07 0.000695386 0.000184257 0.000146778 -1.16955e-05 -1.47141e-06 -4.28797e-05 -5.07341e-05 
-4.37067e-05 -4.89178e-05 -5.8367e-05 -7.25167e-05 1.82126e-06 2.07141e-05 -4.0325e-05 6.96075e-05 3.23563e-05 
2.22024e-05 4.3294e-05 7.65274e-05 4.78114e-05 -1.76469e-05 9.48721e-05 1.78819e-05 -7.57196e-05 0.00011895 
3.08229e-05 6.65038e-06 0.000132943 -5.01531e-06 -7.19755e-05 0.000159568 -5.23618e-05 -9.03105e-05 9.11717e-05 
5.24986e-05 -0.000181867 2.67567e-05 0.000753135 0.000751898 8.38793e-05 7.04046e-05 -1.28092e-07 -0.000411723 
-5.17009e-07 2.24979e-06 -4.75588e-09 2.34091e-07 1.51572e-05 -1.15097e-05 -0.000103453 -3.26868e-05 -5.63794e-05 
0.000121633 -2.56267e-06 -2.10827e-05 9.14924e-05 2.60129e-05 3.08001e-05 -1.95644e-05 2.64122e-07 -2.30301e-07 
-6.82031e-05 3.47162e-05 -0.000309213 -0.000169552 7.58993e-05 9.58806e-06 1.83496e-07 -6.11403e-05 -0.000250346 
9.26946e-05 -9.14934e-05 0.000145138 0.00014796 2.00832e-06 0.000110717 -9.02441e-05 -0.000178206 0.000333116 
7.61584e-05 -5.00272e-07 7.83778e-05 0.000113999 -2.27959e-06 -5.44473e-05 -0.000266695 -8.38554e-05 0.00016073 
0.000120214 -6.01756e-05 -0.000417484 -0.000348931 -0.000110852 2.55141e-07 -6.66803e-06 -2.53255e-07 -2.22523e-06 
1.97948e-07 -1.71147e-06 3.712e-07 -9.17603e-07 1.01031e-07 -1.68342e-06 -9.44244e-07 -9.72333e-07 -1.98913e-06 
-2.86395e-07 2.24773e-07 -1.79864e-06 -8.06757e-08 -1.01946e-07 -1.70322e-06 3.76245e-07 -4.69423e-07 -1.41996e-06 
2.38859e-07 -4.40985e-07 -9.79714e-07 3.17768e-07 -1.06989e-06 -6.21715e-07 2.76e-07 -1.58391e-06 -1.31198e-07 
1.69571e-07 -2.44364e-06 -1.10026e-06 -7.45393e-07 2.1821e-06 -2.26945e-06 -8.33448e-07 1.99475e-06 -2.12054e-06 
-9.04377e-07 2.02199e-06 -1.26368e-06 -8.84843e-07 1.52439e-06 -1.0324e-06 -8.83636e-07 -6.80801e-05 -4.79945e-07 
-3.67211e-05 1.02424e-05 1.21943e-05 -7.49246e-05 2.74449e-05 3.37374e-05 -7.66871e-06 1.97118e-05 4.79167e-05 
3.99884e-05 -0.00010216 0.00049622 3.02741e-05 -2.22041e-05 1.98327e-05 -9.74679e-06 -1.99044e-05 2.09778e-05 
2.45758e-06 -8.66923e-06 -6.90308e-06 -0.0122248 -0.00870375 4.4329e-06 -2.23053e-06 -8.61816e-06 4.12472e-06 
-4.28052e-06 -4.51283e-06 7.62301e-06 -1.10413e-06 -3.77374e-06 2.06114e-05 2.98086e-06 -1.071e-05 3.20083e-05 
-1.04842e-08 -1.88118e-05 1.03943e-05 -2.82155e-05 -2.38143e-05 -2.61287e-05 -8.63431e-06 -1.38873e-05 1.1689e-05 
-0.00012468 6.78089e-05 2.18141e-05 -0.000113159 1.16622e-06 -1.64435e-05 1.10108e-06 -4.29362e-06 -1.70009e-05 
1.61791e-06 -1.3039e-06 -3.17581e-06 1.6531e-06 5.3932e-07 3.07193e-06 3.50006e-06 1.99889e-06 3.26516e-06 
5.51182e-06 2.7208e-06 3.46222e-06 5.9832e-06 4.25938e-06 3.89651e-06 4.93485e-06 4.50451e-06 3.49142e-06 
4.08739e-06 3.62796e-06 2.34049e-06 3.46188e-06 2.82809e-06 1.40772e-06 7.4929e-07 1.22827e-06 -2.15454e-07 
1.3244e-06 2.81489e-06 -1.29883e-08 -5.66913e-07 1.4393e-06 -6.48841e-07 -2.66906e-05 -0.000113602 1.44038e-05 
-8.23033e-06 6.32193e-05 5.43848e-05 -3.40762e-05 0.000221115 -3.21007e-06 7.37404e-07 -2.8657e-06 5.17967e-06 
-1.17645e-07 2.38555e-06 6.13922e-06 1.10118e-08 2.46908e-06 6.32645e-06 2.59825e-06 2.21744e-06 4.63817e-06 
2.90261e-06 4.18136e-06 3.56518e-06 2.14721e-06 2.37499e-06 3.0265e-06 3.6889e-06 1.79888e-07 2.41569e-06 
4.8724e-06 -3.75868e-06 -6.36358e-07 4.00729e-06 -1.29811e-05 -8.47414e-06 4.04575e-07 -2.57404e-06 -1.53867e-05 
2.43063e-06 -1.91267e-05 -3.05824e-05 -8.93524e-06 2.58458e-05 1.97135e-05 -2.05732e-06 4.30664e-05 2.46746e-05 
-0.000138893 6.85947e-05 0.000109135 3.79796e-06 6.64106e-05 -7.31798e-06 1.71534e-07 -4.56534e-05 1.58913e-05 
4.15068e-08 -2.10409e-05 2.04541e-05 1.52624e-05 -4.86326e-06 4.85506e-06 1.65435e-05 -3.75874e-07 -1.64598e-08 
-7.5082e-06 -4.82893e-06 -4.50525e-06 -1.59532e-05 -7.34713e-06 -4.69083e-06 -2.31111e-05 -1.37842e-05 -1.39524e-05 
-3.83505e-05 -1.11342e-05 -2.13538e-05 -3.1973e-05 2.93282e-06 -9.48953e-06 -4.07222e-05 5.40967e-06 2.4201e-06 
4.88798e-06 4.39302e-06 -0.00012751 1.66249e-05 -2.06348e-05 1.62114e-05 -6.30006e-05 4.73101e-06 7.57556e-05 
-1.9693e-05 -7.58472e-05 9.50009e-05 -7.63067e-05 -0.00014038 -4.73798e-05 -4.01775e-05 1.74242e-05 -1.9019e-05 
0.000113073 3.26425e-06 -3.32598e-06 3.83218e-05 2.82416e-05 2.79789e-05 2.31816e-05 2.07799e-05 3.3111e-05 
1.42938e-05 3.79278e-06 5.8665e-06 -6.77336e-06 -6.12372e-06 1.09651e-07 -7.95522e-06 -1.02735e-05 -5.11653e-06 
-5.50602e-06 4.02654e-06 8.9583e-06 9.79897e-06 -1.39766e-05 1.19895e-05 7.01758e-06 -1.73222e-06 1.35842e-05 
1.19035e-05 -4.96332e-07 2.29584e-05 1.74389e-05 2.71064e-06 -1.49642e-05 -1.97405e-05 2.80515e-06 -1.06627e-05 
5.89793e-06 2.42469e-06 -2.19112e-06 1.31743e-05 -1.8269e-07 -7.33289e-06 7.12817e-05 -4.01387e-06 2.81369e-05 
8.47521e-05 6.11849e-05 -3.92346e-05 6.27487e-06 -5.05852e-05 -2.81615e-06 1.4894e-06 -1.58125e-06 -6.43297e-07 
1.05164e-05 8.06019e-06 3.13389e-05 2.28559e-05 -4.26973e-05 -1.2071e-05 1.9697e-05 -2.29476e-05 -1.63055e-06 
5.8704e-05 3.74195e-05 -1.2043e-05 1.85079e-05 -1.81072e-05 2.84589e-06 -3.15608e-05 2.60373e-07 2.9439e-05 
-4.99137e-05 -6.53325e-06 -2.8268e-05 -6.01303e-05 -2.46687e-05 -5.83784e-05 -0.000103038 -2.28387e-05 -3.62755e-05 
-2.10529e-06 1.03321e-06 -3.14617e-09 1.48652e-07 -2.0535e-06 -3.54511e-06 2.87096e-05 5.5863e-06 3.12865e-05 
8.56344e-06 -5.07445e-06 -2.23604e-05 1.10297e-05 9.27742e-06 -3.4747e-05 1.29215e-05 -1.50009e-05 4.16289e-06 
3.33156e-05 4.18516e-05 1.59534e-05 2.84511e-05 5.2836e-05 1.01118e-05 2.71789e-05 3.97307e-05 2.91514e-05 
4.52648e-05 -3.01159e-06 1.68486e-05 -3.78086e-05 2.17598e-05 -1.62122e-05 2.03183e-05 5.52826e-06 -3.70334e-06 
3.9527e-06 -2.98392e-06 1.52895e-06 -1.56813e-06 -1.98152e-05 -1.61542e-05 1.35005e-05 -9.19146e-05 -7.06219e-05 
4.99718e-05 2.72781e-05 1.48339e-05 4.04352e-06 9.07516e-05 1.87097e-05 1.29348e-06 -9.27162e-05 6.04611e-06 
1.61368e-05 0.00011542 1.91436e-05 3.27981e-05 0.000102303 9.43e-05 6.84323e-07 -1.43865e-06 -4.06004e-07 
-4.62896e-05 -4.04305e-06 -8.33979e-05 2.98759e-05 0.000248612 -7.47653e-05 -3.91304e-05 -1.37123e-07 2.10311e-05 
0.000166807 0.00011357 -2.90605e-06 -2.22032e-06 5.09842e-05 -1.52707e-05 1.25113e-05 -1.77206e-05 -1.45665e-05 
-2.901e-05 2.97574e-05 5.00819e-07 -2.78584e-05 -1.03005e-05 -1.23819e-05 1.52934e-05 2.72546e-05 -4.00233e-06 
-7.48427e-07 -8.57476e-07 -1.06542e-05 2.10932e-05 5.48309e-06 -2.03285e-05 2.91333e-06 0.000140414 6.7481e-05 
-1.27065e-05 -6.21125e-05 -1.31912e-05 -6.38719e-05 8.3154e-05 -8.08139e-05 -3.37638e-05 6.67224e-05 -1.39461e-05 
3.04196e-05 1.95247e-05 -5.09567e-07 -1.35522e-06 -1.56094e-06 5.72298e-07 -6.74087e-07 4.96658e-07 -1.61683e-06 
-7.34237e-07 9.06778e-07 -3.72133e-07 -7.61752e-07 7.25298e-07 -1.61662e-06 -5.52991e-07 6.19532e-07 -1.45378e-06 
-2.69418e-07 1.08067e-06 -1.73657e-06 -6.4989e-08 8.0829e-07 -2.54603e-06 -2.24874e-06 -1.37396e-06 3.12421e-06 
-2.031e-06 -4.93204e-07 3.69903e-06 -1.81993e-06 -5.18372e-05 2.15957e-05 9.83403e-06 -1.8135e-06 -2.11128e-05 
2.1312e-05 7.40204e-06 1.08727e-05 -0.0122674 -0.00991915 4.96115e-06 6.44845e-06 -8.879e-06 9.28983e-06 
5.823e-06 -6.11059e-06 1.74445e-05 -8.44648e-06 -1.13201e-08 7.97772e-06 1.19385e-05 -9.95971e-07 -3.71418e-07 
3.21254e-08 -1.45375e-06 8.39942e-08 -1.23166e-06 -8.01979e-07 -4.28497e-07 -1.55229e-05 -2.06092e-06 5.05831e-06 
5.61541e-06 1.87351e-06 2.99025e-06 7.68711e-06 4.04307e-06 5.85902e-06 6.07546e-06 5.50372e-06 2.68447e-06 
4.46782e-06 4.24384e-06 4.50567e-06 4.01859e-06 3.3236e-06 2.225e-06 2.29754e-06 2.20715e-06 3.78531e-07 
-1.74061e-06 6.4365e-07 -5.6395e-07 -2.79507e-06 -3.88352e-05 -4.18013e-05 3.31381e-05 -2.54542e-05 3.4995e-06 
5.69069e-06 6.50156e-06 8.0818e-07 -5.59013e-07 -4.58596e-07 6.82077e-06 -1.53511e-06 -5.85521e-06 -1.4935e-06 
4.10369e-06 6.29086e-06 2.46273e-06 4.6464e-06 4.71793e-06 3.47085e-06 4.58512e-06 4.55629e-06 3.9656e-06 
4.24323e-06 1.6858e-06 4.79911e-06 3.68688e-06 -7.25826e-06 5.47733e-06 7.97086e-06 2.61647e-06 -1.3157e-06 
-2.68319e-05 -4.3629e-06 7.69002e-06 2.87663e-05 -3.23799e-05 -1.19358e-05 -4.49085e-06 3.21634e-05 1.14878e-07 
-1.70692e-05 6.34564e-06 -3.91133e-05 8.51385e-06 -2.106e-06 -4.03451e-06 1.63988e-06 -5.55975e-06 -4.79962e-06 
-1.32136e-05 -3.15431e-06 -6.14677e-06 -1.89585e-05 -1.25456e-05 9.6012e-06 -8.40879e-06 1.26576e-05 -1.82908e-05 
-1.73137e-05 -1.24787e-05 -9.55608e-06 -1.45413e-05 -9.9311e-06 -2.33986e-05 -3.34315e-05 -1.0609e-06 1.93014e-05 
-3.66267e-05 4.95584e-06 3.10773e-05 2.11908e-05 1.23298e-06 1.44821e-05 2.36818e-05 -5.87978e-06 5.1231e-05 
7.22996e-05 -7.32218e-06 -5.76644e-06 -1.79942e-05 4.68801e-06 5.34888e-06 1.03368e-05 -5.32339e-06 1.14887e-05 
2.23267e-05 -1.0146e-05 1.72275e-05 -1.63529e-05 -1.99875e-05 -2.1788e-05 -2.02096e-05 4.70536e-06 9.52458e-06 
1.07975e-05 -3.20817e-05 3.30991e-06 -1.38369e-05 -1.95463e-06 2.02319e-06 -4.69126e-06 -6.29729e-06 9.59472e-06 
3.93986e-06 3.11587e-05 -7.66419e-06 -3.31826e-05 8.7678e-06 -7.26766e-06 -3.67025e-06 4.43412e-06 -1.00753e-05 
5.9184e-06 -1.81537e-05 -3.75402e-05 6.25183e-06 -1.96435e-05 8.9315e-06 -2.40724e-05 3.09463e-05 1.56885e-06 
-2.06709e-06 1.80879e-06 5.10245e-06 2.14241e-05 2.72014e-06 6.67213e-06 -3.45266e-05 1.75927e-06 -7.01437e-05 
7.32418e-06 2.01205e-05 -1.55727e-05 1.32489e-05 -2.82188e-06 1.50947e-05 -2.89177e-05 -6.5881e-06 2.57392e-05 
4.70522e-06 -8.15678e-06 -3.06029e-06 6.46651e-07 -1.36907e-05 4.6372e-06 -0.0140439 -0.00980281 -3.1638e-05 
-8.05412e-06 -4.19629e-05 -3.39045e-05 6.08034e-06 -1.13845e-05 -1.5586e-05 -3.66409e-05 -1.13673e-05 7.06423e-05 
-7.56827e-08 7.89111e-05 3.80791e-05 -4.62815e-06 1.32581e-06 -5.29162e-06 -1.86577e-05 1.93435e-05 1.28438e-05 
-8.60587e-06 -1.9657e-05 2.73956e-05 1.56407e-05 4.50624e-05 -0.0140226 -0.0104459 1.85416e-05 3.48551e-05 
-4.0006e-07 2.08157e-05 2.61245e-05 2.67569e-05 4.08686e-05 1.51544e-05 3.09267e-05 -1.22922e-05 1.96278e-06 
3.05044e-05 2.28793e-05 -4.5685e-07 -1.93868e-05 2.09391e-05 -1.61353e-05 -3.7804e-05 -1.75556e-05 2.81699e-05 
1.65866e-05 4.52214e-07 -2.07882e-06 2.6448e-05 -3.71665e-06 -1.49114e-07 2.98051e-05 7.00757e-05 2.98683e-06 
-8.8081e-06 -2.26015e-05 -2.05589e-05 -2.52094e-05 2.15101e-05 -6.47731e-06 -0.0140392 -0.00688997 -2.53275e-05 
2.16247e-05 2.11248e-05 -5.17345e-06 -5.15787e-06 1.43168e-05 2.96869e-05 5.23735e-06 -2.78889e-06 -2.88409e-05 
-3.70244e-07 1.01335e-06 8.79425e-07 -1.69612e-05 -1.45876e-05 2.16708e-05 -2.06689e-05 3.7892e-05 -6.68726e-08 
-3.27406e-06 -1.65432e-05 -3.61069e-06 6.25634e-06 5.87901e-06 4.8544e-06 2.56787e-05 1.23188e-05 -4.71424e-06 
1.33319e-06 -1.31121e-05 -2.16378e-05 1.83958e-05 -7.40831e-07 -2.32569e-07 -2.56494e-06 1.85888e-05 -1.43508e-05 
0.00974309 0.00975218 -2.69974e-05 -7.96998e-06 8.31797e-07 1.28175e-06 -8.05399e-07 6.77975e-07 -2.80551e-06 
-1.44707e-07 -1.07612e-06 2.62608e-06 -7.2421e-08 6.36346e-07 -3.824e-06 2.34681e-08 2.0183e-05 -1.41518e-05 
2.236e-06 1.1777e-05 -6.73827e-06 -2.1551e-05 -7.47971e-06 -8.57053e-07 1.51564e-07 3.06538e-06 6.49e-06 
-5.02519e-07 -4.17018e-05 -3.75456e-05 -1.25723e-06 1.93967e-07 9.46768e-06 5.04683e-06 -6.01773e-07 -1.76801e-06 
1.73753e-06 5.79733e-06 4.70562e-06 3.94857e-06 6.54768e-06 4.325e-06 3.76049e-06 4.11942e-06 2.62294e-06 
1.80465e-06 2.25823e-06 9.74715e-07 3.98996e-06 4.64203e-06 1.68038e-06 3.94164e-06 3.95906e-06 2.59031e-06 
-2.50849e-06 1.48804e-07 3.34424e-05 1.70731e-06 -2.86769e-06 6.85434e-09 5.04175e-06 4.82206e-06 5.39856e-06 
3.0349e-06 3.60111e-06 5.09683e-06 4.74893e-06 1.02073e-05 5.89616e-08 8.93437e-06 2.51842e-07 3.06135e-06 
2.69323e-06 -6.25602e-06 -1.75194e-05 -5.91101e-06 1.40827e-06 -1.87503e-05 -3.7144e-05 9.77642e-06 6.01127e-06 
1.90712e-06 -2.5233e-06 1.76888e-06 -1.14746e-06 -7.48366e-07 -5.98459e-06 6.48917e-06 4.54747e-06 -1.8613e-05 
-8.89335e-06 -5.97388e-06 -3.24298e-06 0.0140137 0.00962627 -3.23349e-05 -3.1041e-06 1.01756e-05 -8.88655e-06 
4.20807e-06 8.75191e-06 9.50895e-06 1.51186e-06 1.17124e-05 1.30273e-05 1.84452e-07 -2.35541e-06 -3.48976e-05 
3.55196e-05 -1.57005e-06 -4.34758e-06 6.42698e-06 -3.103e-06 1.34845e-05 1.73651e-05 -1.84884e-05 -4.72941e-05 
9.71237e-06 2.51681e-05 2.22167e-05 5.63048e-05 -2.48319e-05 2.57442e-05 -1.57124e-05 -2.35727e-05 -4.52861e-05 
2.73075e-05 -2.83827e-06 -8.98908e-06 -1.69112e-05 1.20998e-05 2.67823e-05 2.26889e-06 5.14814e-06 -7.21143e-06 
-1.8854e-05 3.41308e-07 -5.03248e-06 2.96403e-06 -3.94566e-07 4.21279e-08 -1.75591e-06 5.16922e-06 -5.34702e-06 
-3.58675e-06 -1.42495e-06 -2.27228e-05 -6.45807e-07 7.79205e-06 -7.23123e-07 -5.38816e-06 0.0142969 0.0107811 
4.57089e-06 -3.02717e-07 6.16535e-06 5.81982e-06 8.39575e-06 -4.90581e-08 0.00533931 0.0039196 -0.0111521 
-0.0211755 -2.77673e-06 -4.94757e-06 6.55179e-06 2.37125e-06 -1.91685e-05 1.46692e-05 -3.75238e-05 3.15301e-05 
1.45254e-05 1.67216e-05 -1.25326e-05 3.79903e-06 2.76342e-05 2.12485e-05 3.24481e-05 -0.000703469 -4.77227e-06 
1.42944e-05 3.31751e-06 1.50187e-05 2.31137e-05 -7.52573e-06 2.17433e-05 5.2853e-06 -8.8765e-06 9.68456e-06 
-2.34931e-05 1.55737e-05 5.61665e-05 7.76775e-07 1.14463e-07 1.95698e-06 2.35636e-05 5.04905e-06 3.43423e-05 
2.85665e-05 -2.22763e-06 -1.30528e-06 2.49124e-06 2.33796e-06 4.86237e-09 2.77913e-07 -3.1903e-06 -1.17492e-06 
1.80572e-06 1.53657e-05 8.83914e-07 9.67733e-06 -1.52275e-05 -9.15088e-06 -3.07447e-06 5.27114e-06 -1.24494e-05 
1.12264e-06 2.15383e-06 8.45473e-06 9.75051e-06 9.64441e-06 -1.43619e-06 -5.49975e-06 4.7464e-05 2.92934e-05 
1.84879e-05 1.03319e-07 -4.86062e-06 -5.27868e-07 7.10575e-07 -2.92059e-06 -1.60139e-05 7.13299e-06 4.31435e-07 
1.65235e-05 8.81769e-06 -3.83017e-05 1.02583e-05 -8.87621e-06 -6.57008e-06 1.03057e-05 1.12194e-05 7.88856e-07 
-1.36712e-05 -9.38398e-06 -8.08656e-07 1.00326e-05 1.59401e-05 -1.3433e-05 -2.74839e-05 -3.49574e-06 -1.75356e-05 
5.29814e-06 -1.28254e-05 -1.43697e-05 5.47344e-06 2.92773e-05 2.02525e-06 2.08698e-05 1.50218e-05 -7.86401e-06 
8.01639e-06 1.76298e-05 3.68054e-05 -3.24671e-06 5.56217e-07 -1.61643e-06 -7.25864e-07 -7.95089e-07 -4.24473e-06 
3.42573e-05 -2.59199e-06 -8.08961e-06 7.26034e-06 -2.47771e-06 -2.86406e-07 -4.54199e-05 -6.74257e-06 1.64358e-05 
2.37673e-06 1.25417e-05 3.63005e-06 3.01408e-06 -3.65446e-06 4.08351e-06 8.37627e-06 1.2431e-05 8.61041e-07 
5.13529e-06 4.17673e-07 5.05121e-06 4.69641e-06 -5.7e-06 6.02666e-06 4.69917e-06 8.38746e-07 -3.1686e-06 
4.21633e-06 4.53939e-06 -9.25852e-07 -1.25601e-05 -3.22119e-05 5.40289e-07 2.29264e-05 -1.59805e-05 -2.8788e-06 
3.83494e-06 -2.26229e-05 6.46508e-06 9.89199e-06 -3.21178e-06 8.44041e-06 9.93335e-06 -3.83494e-06 1.80647e-05 
1.33469e-05 2.49311e-05 -3.09447e-05 1.63713e-05 5.32635e-06 -1.47739e-05 1.01644e-05 2.19499e-05 2.50846e-06 
-1.03659e-05 -1.34026e-05 -6.65869e-06 2.24758e-05 -6.65814e-06 7.70515e-06 4.0489e-05 -4.04212e-05 -2.98661e-05 
1.16366e-05 -1.44476e-05 1.59919e-05 -3.17783e-06 4.50138e-06 1.25905e-06 -2.81537e-06 7.43461e-07 5.1674e-06 
1.11359e-05 7.20006e-06 1.83446e-06 -3.07279e-06 4.11503e-07 2.24645e-06 6.03298e-06 2.60435e-07 -1.0157e-06 
3.44099e-06 -6.49416e-06 -4.17414e-06 -4.76942e-06 3.51492e-06 -2.11512e-05 0.00484208 -9.13956e-06 -1.72498e-06 
2.12721e-05 -3.82993e-06 -5.16331e-06 4.72753e-06 -1.56285e-05 -1.86749e-05 -1.04654e-05 4.1512e-06 -2.39301e-05 
4.28385e-06 -4.64273e-06 5.03706e-06 -6.89995e-07 -4.43448e-06 -1.23466e-06 -9.53797e-07 1.86177e-05 3.28844e-05 
2.31518e-05 1.0319e-05 1.55386e-05 -1.20882e-06 2.63084e-05 -4.35804e-06 3.70553e-06 3.80913e-05 9.04182e-06 
-4.55137e-06 2.6404e-06 4.5055e-07 1.22331e-06 6.87361e-05 -4.68119e-05 -9.25361e-06 -5.11345e-06 -1.67126e-05 
-8.58207e-07 -2.37691e-05 -5.9031e-06 -1.53864e-05 -2.17942e-06 -1.33354e-05 -1.95435e-06 -1.35546e-06 -4.44668e-06 
-7.52134e-06 -4.03729e-06 5.45734e-06 1.61939e-05 2.09578e-05 -2.09392e-07 1.98644e-05 1.73513e-06 1.36758e-06 
-4.21261e-06 -9.06725e-06 3.39379e-05 2.56114e-05 2.58275e-05 2.36524e-05 -8.39183e-06 2.26964e-06 -1.63306e-05 
-7.62897e-06 4.0253e-05 -2.55021e-06 5.54306e-06 -6.36855e-07 -1.63204e-05 -2.88108e-06 1.7247e-05 -1.05217e-05 
-3.21989e-05 -0.0199584 1.66812e-05 2.26154e-05 1.15364e-06 5.56259e-06 -7.46389e-06 1.30179e-07 -5.81038e-05 
-5.63777e-05 2.16681e-06 5.74776e-06 2.56122e-05 2.18393e-05 2.61852e-05 -1.58957e-05 -3.52855e-08 1.63379e-05 
5.24354e-06 -2.48149e-06 2.63894e-06 4.7102e-06 7.03108e-07 -0.00594874 -0.00105179 -0.00766673 1.54755e-05 
-3.35402e-06 3.1388e-07 -3.03883e-05 1.44103e-05 2.66998e-05 -0.00370814 -0.000305892 8.85662e-06 -1.95488e-05 
-4.48208e-05 -8.79057e-07 -6.00071e-06 -5.08898e-06 3.42007e-06 7.53314e-06 -6.52532e-06 1.87064e-06 1.33408e-06 
-3.2532e-06 -5.29838e-06 8.9033e-06 3.00333e-06 3.96807e-06 5.56086e-06 3.32466e-06 4.1578e-06 9.72233e-07 
2.41061e-06 -7.6123e-07 8.67384e-07 3.1689e-06 3.33551e-05 0.00248593 0.00314409 1.11385e-05 3.07469e-06 
-2.55296e-06 -2.77416e-05 -2.54806e-05 -8.76019e-06 5.73499e-06 2.28846e-06 -6.66749e-06 6.3545e-06 8.01258e-06 
-2.2726e-06 3.73323e-05 -2.95798e-05 1.58122e-05 1.41502e-06 2.81248e-06 -4.67013e-06 -2.96839e-05 2.68107e-06 
-2.13119e-06 -2.03596e-05 3.33002e-05 -8.31376e-06 2.70163e-05 4.50898e-05 -1.58617e-06 1.00583e-05 6.13881e-06 
-6.44146e-06 1.08474e-05 -1.34504e-06 5.72976e-06 -9.30837e-06 -5.44674e-06 -1.04762e-06 -1.42135e-06 6.71513e-06 
3.41215e-06 -3.79649e-07 2.35092e-07 1.60018e-06 -7.90699e-06 -1.7385e-05 8.37575e-06 6.67828e-06 2.92258e-05 
1.42299e-06 4.31375e-06 -3.3887e-06 -6.76155e-06 4.97525e-05 2.68566e-05 2.85451e-05 5.25677e-05 -2.75916e-06 
0.00444276 -2.32818e-05 2.32415e-05 -1.07646e-05 9.6476e-06 -7.35079e-06 -9.26012e-06 -8.76505e-08 3.77506e-05 
6.89995e-06 1.71705e-05 8.53467e-06 0.0323782 -0.0213934 9.91716e-06 1.71732e-06 -9.68088e-06 1.95826e-05 
-2.26635e-07 2.60718e-06 3.29432e-06 0.00138366 -0.00163657 -1.69964e-05 9.83254e-06 1.58199e-05 4.56781e-07 
9.69584e-06 -1.39547e-05 -8.37154e-07 1.81097e-06 1.06897e-05 5.43042e-06 0.00223845 -0.00181259 -9.34113e-06 
-2.33229e-05 -1.90291e-05 1.77206e-05 0.00281955 -0.000478077 7.64949e-06 0.00323317 0.00191992 3.31141e-06 
0.00954287 0.00330501 -2.62188e-06 -0.0291374 -5.956e-06 4.56298e-06 3.14341e-06 3.08941e-06 2.4307e-06 
1.9129e-06 1.58668e-07 1.18839e-06 9.25855e-08 3.14469e-09 -8.81363e-07 -3.52857e-07 -9.37516e-07 -6.57816e-07 
-1.35973e-06 -1.86562e-06 -2.26664e-06 -3.23951e-06 -5.63282e-06 -6.82055e-06 -8.07914e-06 -8.61772e-06 -9.98063e-06 
-1.3694e-05 -1.1044e-05 -1.59072e-05 -2.50128e-05 -2.03319e-05 -1.50107e-05 -6.83858e-06 6.70905e-06 -1.4849e-05 
7.14188e-06 2.354e-05 2.70768e-05 1.59364e-05 1.28175e-05 -5.61958e-06 -3.01418e-05 -7.39824e-05 -7.83388e-05 
-3.45196e-05 -6.3437e-05 -5.21113e-05 -5.38968e-05 -2.69715e-05 -5.41214e-05 -4.98648e-05 -1.50908e-05 1.16078e-05 
1.22012e-05 4.73667e-05 4.02817e-05 2.4028e-05 1.54829e-05 -1.66296e-05 -3.54883e-06 -1.36237e-05 -1.04349e-05 
-1.35703e-05 -8.8799e-06 -1.01056e-05 -2.5705e-06 -5.97555e-06 -7.3236e-07 -6.70288e-06 -1.08431e-06 8.65235e-06 
1.89638e-05 2.92095e-05 -1.44385e-05 -1.97526e-05 -3.20365e-05 -4.52857e-05 7.32295e-05 7.65857e-05 0.000129553 
0.000111685 0.000220196 0.000171851 0.000489288 0.000320655 0.000980663 0.00124921 -0.00756631 -1.48455e-05 
-8.48875e-06 3.65901e-05 0.0272384 -0.0426282 -6.57911e-06 -8.32833e-06 -0.015492 0.00450096 -0.00198271 
-0.000549662 -3.75655e-05 -0.000232025 -9.26973e-05 -0.000168027 -8.6009e-05 -0.00012205 -6.21718e-05 -7.71282e-05 
-4.32208e-05 -6.29751e-05 -4.10285e-05 -5.07109e-05 -3.33118e-05 -4.42553e-05 -2.5181e-05 -2.22142e-05 -1.69384e-05 
-2.49328e-05 -1.86023e-05 -2.65186e-05 -1.61325e-05 -1.96221e-05 -1.34969e-05 -1.74242e-05 -1.08023e-05 -1.30791e-05 
-6.41585e-06 -6.6404e-06 1.54301e-06 6.08284e-06 1.09769e-05 1.19806e-05 1.38571e-05 1.62911e-05 2.16236e-05 
2.10709e-05 1.44701e-05 3.15636e-05 2.24856e-05 4.44825e-05 2.1915e-05 3.49252e-05 1.44072e-05 1.94385e-05 
2.90713e-06 -4.65219e-06 -8.53869e-06 -1.62981e-05 -1.92517e-05 -3.21629e-05 -2.68318e-05 -3.33388e-05 -2.48887e-05 
-3.2396e-05 -2.75283e-05 -3.21596e-05 -2.6198e-05 -2.79898e-05 -2.12852e-05 -2.28388e-05 -1.83979e-05 -2.08479e-05 
-1.73612e-05 -1.54711e-05 -1.30002e-05 -1.13188e-05 -1.07001e-05 -8.89758e-06 -9.6137e-06 -7.96206e-06 -7.52461e-06 
-5.83862e-06 -4.86452e-06 -2.96199e-06 -3.61838e-06 -1.30341e-06 -1.83756e-06 1.21247e-06 3.21291e-07 2.30873e-06 
1.32383e-06 1.52538e-06 2.3177e-06 -1.8821e-06 -6.67861e-07 2.99442e-07 2.77321e-07 7.34465e-07 -1.44323e-06 
-3.60303e-06 3.16024e-07 -1.8566e-08 -7.17615e-07 9.50057e-07 -6.192e-07 2.02641e-06 3.54254e-08 2.28739e-06 
2.8457e-07 2.54488e-06 2.39247e-08 2.44805e-06 -2.7972e-08 2.38945e-06 1.18766e-06 6.39548e-07 -1.85465e-06 
2.0995e-09 2.19549e-06 8.55401e-07 -5.29212e-07 1.00045e-07 4.85338e-07 -2.08308e-08 1.01689e-06 5.17742e-07 
3.6515e-07 2.05915e-07 2.71612e-06 2.28973e-06 1.55843e-06 7.16516e-07 3.21863e-07 -2.33606e-06 8.76926e-08 
-1.45923e-06 -2.37005e-06 -8.57439e-07 -2.1082e-06 -3.92173e-07 -2.22464e-06 -6.71728e-07 -1.66829e-06 -1.77111e-06 
-3.04596e-06 2.29932e-06 -1.38429e-06 9.56641e-07 5.18835e-06 0.0135472 -0.00946559 0.00794358 0.00450442 
0.00263934 0.000932602 0.00654348 0.000972663 0.00995906 -7.8079e-05 0.00216608 0.00131231 0.00600207 
0.00187785 -0.000716266 -0.00406789 -0.00168908 -0.00427565 0.00101317 -0.00202771 0.0017692 0.00236062 
0.00111899 -0.000767725 0.000229966 -0.00949736 0.00746866 0.00252934 -0.00743273 -0.00280337 -0.00231139 
-0.0138772 0.000209722 0.011504 0.00106269 -0.0190181 -0.016631 1.79419e-06 -5.73849e-07 -2.09098e-06 
2.85936e-09 -0.0254043 0.0308286 0.028587 -0.0233842 -0.0279078 -0.0223622 0.0218393 0.0219982 
0.0240383 0.0224136 0.017887 0.0244493 0.0229081 0.013624 0.0159255 0.0225213 -0.0225612 
0.000102002 8.20821e-05 8.35167e-05 -0.0127947 0.0272178 -0.0249395 0.0166659 -1.07056e-06 0.0253586 
0.0251803 0.0218369 0.0255989 2.62527e-05 -1.5722e-05 1.76051e-06 -0.0270374 -0.0283073 -0.02229 
-0.0213148 0.0127987 1.84391e-06 1.61755e-06 -0.0136914 0.0167301 0.0188267 0.000128019 0.0257579 
-0.0156629 0.0192737 0.0160258 -0.000170135 -0.00026279 0.00385777 5.99967e-06 -2.79991e-05 -0.00379775 
1.16326e-05 4.74894e-06 -7.5951e-06 9.65516e-06 -2.67152e-05 -1.87074e-05 1.03993e-05 -1.43923e-05 -0.000458789 
-0.00349626 0.00364094 -0.00010282 0.000174495 -7.74227e-07 9.312e-07 7.90924e-07 -1.50324e-06 -2.53184e-05 
7.6471e-06 1.2364e-05 -1.79725e-06 3.27242e-05 -9.72085e-06 9.99476e-06 -7.87517e-07 1.48764e-06 1.68879e-06 
-7.94341e-07 -5.92535e-07 1.44702e-06 2.82385e-06 1.56802e-06 -1.13243e-06 3.56482e-07 2.46857e-06 -2.55264e-06 
-4.11824e-07 -3.51615e-06 2.20485e-06 -1.49177e-06 1.38204e-06 1.70842e-06 2.30355e-05 -3.8705e-05 0.000184698 
-4.45117e-05 3.19248e-06 -1.05249e-06 1.88056e-06 2.60752e-06 1.22685e-06 2.71956e-06 -3.61261e-07 -5.18332e-07 
-3.86679e-07 1.36298e-05 -8.6999e-06 1.70754e-05 -2.68578e-06 -4.2542e-06 -2.83805e-06 -4.50106e-06 5.85429e-06 
1.17002e-05 -8.33776e-07 -1.27078e-05 -3.07116e-06 2.90688e-06 -8.0843e-07 -7.71498e-07 1.26818e-06 -1.60393e-05 
-8.89116e-06 -1.73006e-06 6.98044e-07 -7.68146e-07 -4.88935e-07 0.0217527 5.45335e-07 -1.38897e-06 -3.6304e-07 
1.49107e-06 -1.17963e-07 -1.09719e-07 2.27723e-05 -1.92279e-05 -4.57929e-05 1.65183e-06 7.57892e-07 2.1415e-06 
2.13067e-07 -2.33982e-06 -9.70289e-06 5.48618e-06 -2.35045e-05 1.38831e-06 1.64084e-06 2.86933e-07 1.40856e-07 
8.48518e-07 5.49969e-05 1.12604e-05 -5.60427e-06 2.0611e-05 -1.51094e-05 -0.000259225 -6.5516e-05 5.54019e-05 
0.000145474 1.90569e-05 3.89882e-05 1.77082e-06 2.00282e-06 -1.08764e-06 4.32235e-05 0.000226962 -0.000826034 
8.78238e-07 5.37511e-07 -1.36164e-06 3.14566e-06 1.40985e-06 -5.04207e-05 -9.14822e-06 -1.39977e-05 1.484e-06 
3.5009e-06 -4.85599e-07 1.36483e-06 2.58751e-06 4.61997e-07 1.62621e-06 -5.00488e-07 5.49452e-08 -3.70875e-06 
5.42919e-06 -2.28926e-05 -4.53254e-06 -2.16773e-05 2.90307e-06 -4.34176e-06 -1.904e-05 -2.26222e-05 1.72723e-07 
6.16589e-05 -2.62985e-05 2.55386e-05 -1.58388e-05 -1.79466e-06 -1.27794e-05 -2.36853e-05 -4.76947e-06 1.0255e-05 
1.3214e-06 2.27706e-06 1.52879e-06 1.03023e-06 -1.36181e-05 -2.6948e-06 -7.5067e-06 -4.08743e-06 3.2118e-06 
4.19667e-06 5.13915e-06 6.10229e-05 5.98511e-05 -8.97705e-05 -1.6961e-07 1.6347e-06 0.00489808 0.0032631 
-0.010775 -2.56917e-06 -2.27562e-06 -1.20735e-06 -0.0166357 0.000818772 4.72775e-05 0.000391834 -2.46694e-06 
-9.31134e-07 -5.18151e-06 -2.36788e-06 1.72397e-06 1.04595e-06 4.12817e-07 1.16453e-05 -9.17858e-06 -9.8268e-07 
-5.96179e-06 -1.70486e-09 -2.5874e-06 1.33686e-07 -0.016314 -0.000172143 0.0161187 6.19021e-07 1.98349e-06 
-3.37637e-06 3.50371e-08 1.05915e-06 6.69166e-05 -1.69497e-05 6.55905e-05 -7.05907e-06 4.29519e-07 -1.57658e-07 
-2.2e-07 6.82441e-07 0.000361785 -0.00401194 0.000235799 -4.04866e-05 -0.000216455 -1.83856e-05 -3.96154e-06 
-3.6139e-06 -5.08312e-06 7.47172e-05 -6.91152e-05 -5.0148e-05 -6.86727e-05 -3.57633e-05 -1.52025e-07 -8.29137e-05 
-9.82696e-06 1.36442e-05 3.36177e-06 -3.78065e-06 8.42679e-06 -1.2796e-05 -3.85262e-06 -7.75274e-06 1.11304e-05 
-1.95939e-06 9.89233e-06 -7.35595e-06 7.28505e-06 8.45283e-06 -2.90213e-05 1.72836e-05 -5.9556e-06 6.45007e-06 
-3.50096e-06 8.09266e-06 -0.0227311 -6.69576e-06 -5.48021e-06 1.81611e-05 1.28223e-05 -1.40965e-06 1.67151e-06 
6.6688e-07 -2.12062e-06 3.56895e-07 -1.39057e-06 -8.35026e-06 1.62778e-07 7.31578e-06 -3.99512e-05 3.04032e-05 
-4.14976e-06 -1.32495e-06 5.79847e-05 -0.00630723 -0.00239531 -0.0026915 -0.00029049 -0.00359214 -4.40617e-06 
-5.40521e-06 -3.81683e-06 3.42309e-06 -2e-06 1.42219e-06 -2.16647e-05 -8.09063e-06 -2.4199e-05 2.27459e-06 
-7.72473e-07 3.37274e-06 1.67682e-05 4.88927e-06 1.32423e-05 3.71246e-06 -4.77002e-06 1.97267e-06 -1.56486e-05 
-3.44706e-05 0.00411926 -3.72771e-05 -2.16013e-05 -4.29918e-05 -1.87261e-05 -1.43171e-06 1.37543e-07 -6.85194e-07 
1.09473e-06 -1.5835e-07 1.67832e-05 -1.80084e-05 -9.55703e-06 9.33845e-06 -3.69701e-06 -1.15728e-05 1.9795e-05 
-1.05715e-05 -1.5219e-05 1.35639e-05 -3.75116e-05 -9.53942e-06 3.90237e-06 -2.96932e-05 -4.32704e-07 -3.53405e-06 
2.04881e-05 7.37813e-07 -4.22474e-05 3.401e-05 -3.2906e-06 -9.55137e-06 3.61443e-07 -1.78305e-06 2.28361e-07 
-4.10562e-07 2.24017e-06 1.3224e-06 0.0135715 -0.00120051 -0.0109095 0.000457912 -0.000266908 -0.00154162 
2.28962e-06 -5.20452e-05 -9.62145e-05 -2.79973e-06 -2.84063e-06 -2.31405e-06 -4.26133e-06 -1.79933e-06 -1.96787e-05 
-1.10646e-05 6.74866e-06 -1.17532e-05 1.14955e-05 -8.47782e-06 3.33576e-06 0.000166303 -2.09776e-05 -7.70949e-05 
0.000335219 2.29093e-05 1.67361e-05 1.35114e-05 9.16556e-07 -1.00108e-06 -2.21869e-06 -1.32852e-06 -6.75286e-05 
-3.04377e-05 2.1612e-05 2.50959e-06 8.78379e-07 3.78369e-07 -2.10606e-06 4.25642e-07 5.00921e-06 -1.47771e-05 
1.18663e-05 2.9487e-05 6.57801e-08 9.62398e-07 -2.90136e-06 -2.0769e-05 1.39058e-05 2.12415e-05 -5.88344e-05 
-4.98358e-05 3.91687e-05 0.0171231 -0.00787757 -0.00638784 -2.28412e-05 -5.5159e-06 -1.19552e-05 -1.37647e-07 
2.06121e-07 5.80018e-07 0.0227857 0.0238705 -0.000413463 -8.44076e-05 -0.000273614 -0.0217946 0.000293494 
-2.41696e-05 -4.67889e-06 -1.87838e-05 4.34605e-05 -3.1817e-05 0.000517491 0.0208761 0.000465977 4.53945e-06 
-1.97495e-06 1.64719e-05 1.73536e-05 -1.23407e-07 -3.14007e-07 1.43007e-07 -0.000311478 -0.0001516 9.48417e-05 
-7.16761e-05 1.6699e-05 2.32939e-05 2.46842e-06 -1.84546e-05 -0.000612757 0.000994154 -2.35254e-06 4.1547e-07 
1.12682e-05 -3.28425e-07 2.61223e-07 -3.60708e-07 0.000456516 -0.000187401 -0.0165554 3.92971e-05 2.55465e-06 
3.67318e-05 -2.51352e-05 0.0171337 1.50208e-06 -0.000341444 1.43453e-06 0.00370759 7.65279e-05 2.28236e-05 
2.78006e-07 1.65543e-05 -2.0971e-05 9.55964e-08 -5.41757e-07 -2.35476e-06 -3.40908e-06 -6.58705e-07 6.7092e-07 
1.90218e-05 -2.00705e-06 9.54499e-05 -0.000138889 0.0170236 -2.69568e-07 8.42468e-07 -5.72067e-07 7.91934e-06 
1.04556e-05 1.04466e-05 1.91399e-05 1.76051e-05 9.94205e-05 5.15861e-05 0.0036067 0.00011626 0.000159129 
-5.06068e-05 7.35511e-05 5.56417e-05 3.15865e-05 4.84707e-05 1.282e-05 -3.871e-06 0.000810254 0.0158279 
-3.13322e-05 0.0167726 0.000319168 -0.0159192 -0.00331553 -7.13345e-06 -4.11331e-06 -2.57424e-05 -1.6489e-06 
-0.000206318 0.000164721 -0.000138802 -9.17489e-05 4.78705e-05 0.000112886 -0.000362565 0.00030269 0.000236626 
1.87883e-05 -3.89284e-05 -6.34595e-06 -2.71374e-05 -8.74716e-06 4.40333e-06 -3.87756e-06 -1.31638e-05 6.52276e-06 
-1.57445e-06 -3.21353e-05 2.43066e-05 -8.18738e-06 -3.09817e-06 -3.91893e-06 -5.32434e-06 1.51345e-05 1.00393e-05 
4.69828e-06 6.70013e-07 3.67923e-07 -6.91766e-07 8.03841e-07 -4.11766e-06 -2.12471e-06 -2.46417e-06 -3.94228e-05 
-1.85298e-07 -6.35207e-06 -8.0081e-06 -1.72515e-06 -1.02589e-06 -3.87994e-07 -1.71755e-06 -8.6988e-07 1.64657e-06 
8.40313e-07 6.17898e-07 -4.29346e-06 -4.76227e-07 -2.46488e-07 -1.13283e-06 -0.000131559 -0.000653984 -7.31274e-05 
1.70606e-06 4.34385e-05 5.4596e-05 -1.79452e-05 0.00422506 0.000513469 0.000136054 2.18428e-06 -1.90734e-06 
-7.91696e-07 -3.71758e-07 -5.32857e-06 -7.05027e-06 -8.92745e-07 -6.25069e-06 -1.29351e-06 -1.26849e-06 -1.56695e-06 
1.2009e-05 -0.000159939 -8.87602e-07 -3.09971e-06 -6.90148e-06 -3.6555e-06 -1.40037e-07 9.50176e-07 1.72004e-06 
-5.20182e-07 -8.50283e-07 -2.6482e-07 1.05651e-05 -1.26789e-05 -6.19738e-06 -2.28961e-06 -8.80807e-07 -2.20758e-06 
-1.47772e-06 -2.02727e-06 6.00213e-06 7.07964e-07 -1.45284e-06 -1.34922e-05 -3.02742e-05 -3.21839e-05 -7.18754e-05 
-4.60731e-05 2.52052e-05 8.7204e-05 9.40034e-07 1.42008e-05 -6.44879e-06 7.5906e-05 0.000126059 0.000224865 
1.44369e-05 1.50498e-05 -4.3959e-05 2.44643e-06 8.44884e-07 1.11128e-06 -2.13424e-05 2.39536e-06 -6.65587e-06 
8.94602e-07 -1.30433e-06 0.0215974 0.000179764 -0.0216392 4.03709e-06 -2.34067e-06 6.17803e-06 -6.44845e-06 
1.23293e-06 -6.71208e-07 -4.19999e-06 4.39759e-06 5.21147e-06 1.1729e-05 -1.82709e-06 -1.31311e-06 -3.52048e-08 
3.80777e-06 -4.98576e-06 -2.89912e-06 -6.31652e-06 3.85109e-06 1.39766e-05 -4.47168e-06 1.42922e-06 1.71951e-05 
1.00856e-05 -3.12631e-05 8.315e-07 7.14403e-06 4.42773e-06 -8.94896e-07 -1.12197e-05 -3.59485e-05 -1.23198e-05 
1.5689e-06 -8.74977e-06 -2.95093e-08 -9.33128e-07 1.16958e-06 1.0964e-06 -1.13053e-08 1.049e-06 -2.78586e-06 
-2.9326e-06 -3.72785e-06 2.92577e-06 -8.16991e-06 2.60264e-05 2.38656e-05 7.01077e-06 -2.87302e-05 0.000110635 
2.46827e-06 -6.68992e-06 -9.31796e-06 1.98845e-06 6.52421e-06 0.0018326 -2.85763e-06 -5.71865e-06 -8.72956e-07 
-7.91466e-07 8.45899e-07 -4.16778e-07 -1.49918e-06 1.18485e-06 -2.73427e-08 0.01786 0.0163431 -5.03913e-07 
-3.42169e-05 7.53718e-09 -2.18252e-05 -2.93422e-06 1.20686e-06 -5.5367e-06 -9.37667e-07 -3.51651e-07 6.91311e-07 
-1.26524e-07 -2.70694e-05 1.64279e-07 -1.69193e-06 -6.3961e-06 -2.38456e-05 3.46294e-07 -0.0214744 2.73485e-05 
1.44135e-05 1.12076e-05 1.10148e-05 3.20184e-06 -8.51016e-06 9.86677e-07 -1.53445e-06 -9.86198e-07 -3.50154e-06 
-4.43555e-06 2.69419e-05 1.17994e-06 1.25518e-06 -2.23924e-06 -6.50435e-06 -7.68476e-06 3.24191e-06 7.67633e-07 
3.33802e-07 -2.88061e-06 -2.97143e-05 1.18181e-06 1.10336e-06 -8.23419e-07 2.00436e-06 1.08165e-06 -1.94716e-06 
-1.54768e-06 -2.14499e-06 0.00443975 -7.53328e-06 0.000171759 5.68689e-06 4.35757e-06 4.9493e-06 3.02969e-06 
-1.63789e-06 -4.28621e-07 3.86437e-06 2.22491e-06 2.61877e-06 -8.10064e-06 -5.08932e-06 7.62172e-06 1.94557e-05 
2.28198e-05 -1.17961e-05 -1.20446e-06 1.69982e-06 9.56341e-07 9.05309e-07 -0.0186759 -4.68284e-06 -7.30237e-06 
2.06002e-05 3.05186e-06 2.0534e-07 -3.40941e-06 5.14518e-06 1.40257e-06 -6.84039e-06 -1.50179e-06 1.55621e-07 
1.39031e-05 2.30355e-05 -3.69154e-05 -2.02102e-05 -1.76331e-05 -2.27243e-05 -1.27578e-05 -1.06614e-06 9.19776e-07 
2.38697e-07 0.00277106 -0.000603243 -0.000235148 3.06355e-05 2.18001e-05 -2.09915e-05 2.14115e-05 0.0001776 
-0.00945649 -0.00328973 1.57972e-05 -1.85112e-05 -2.09867e-05 2.21317e-05 -1.20538e-05 -2.0267e-05 -3.28855e-05 
-1.97615e-05 1.70332e-06 -4.58257e-06 -1.44249e-06 -2.90873e-05 -3.46979e-05 -2.14263e-05 -1.50884e-05 -5.77432e-07 
-0.00699976 -0.00155856 -0.00263462 3.02319e-06 -1.58652e-06 -7.78646e-08 -1.55603e-06 -4.63056e-05 -4.30029e-05 
-1.5472e-05 6.65253e-05 -3.07035e-05 3.50438e-06 -6.88683e-06 4.26354e-06 -2.10581e-05 1.35283e-05 -5.64162e-07 
8.75877e-07 5.65825e-06 -3.26565e-05 -1.14044e-05 -7.17417e-06 -3.01997e-06 2.80225e-06 1.9444e-05 3.46903e-05 
-4.53892e-05 -2.42959e-05 2.54346e-06 -4.76998e-05 -0.0162047 0.0164849 0.00114114 2.19148e-07 -5.47833e-07 
-2.5494e-06 -1.82797e-06 -9.92621e-08 2.94202e-07 -3.00187e-07 -0.0228667 -4.99458e-06 -7.2466e-06 -4.56338e-06 
-2.1437e-05 -2.48054e-06 2.00825e-05 2.39484e-05 -1.41794e-05 8.45802e-07 -1.16023e-05 -9.70314e-06 4.0742e-07 
4.89158e-05 -1.6462e-06 0.000460118 -0.000412011 -0.000353105 -3.07235e-05 3.51809e-05 -1.81792e-05 -3.52116e-05 
0.00035109 -2.32559e-05 3.84004e-08 5.04801e-06 2.10624e-05 8.69757e-06 -0.0178457 -0.000218679 -0.00111414 
-5.77e-05 6.74615e-06 -4.2057e-05 2.80123e-05 -2.12545e-06 -1.49513e-06 4.47429e-06 3.14671e-06 0.000371665 
0.000507204 -7.10735e-06 -1.88336e-06 4.23717e-05 1.87331e-05 -1.99554e-06 -6.50787e-07 -1.86909e-05 9.62674e-06 
1.8345e-05 -8.71684e-07 8.21122e-07 1.39076e-06 0.0211341 -3.34516e-05 0.00424311 -0.00010594 -6.94302e-05 
5.12247e-05 -3.87512e-05 -2.90612e-05 5.95151e-05 -2.83482e-05 0.00439305 0.000353779 6.78845e-05 -0.00431812 
4.81195e-05 -1.01895e-05 3.14248e-05 -2.38741e-06 4.47328e-06 3.53038e-05 -1.69161e-05 0.000579723 -0.0173094 
0.00081272 1.67547e-06 1.08094e-06 -1.67356e-06 -1.546e-06 -1.60199e-05 4.57467e-05 -2.68853e-06 -1.17331e-06 
-5.31405e-06 8.76521e-05 8.50911e-06 2.43458e-05 -5.83593e-07 -3.02087e-05 6.66245e-06 -4.93166e-06 -5.55668e-06 
-0.000127728 0.0160688 -0.000175258 -0.0165793 6.54432e-05 -0.000253723 -7.99957e-05 -6.44716e-06 -1.44389e-06 
1.03076e-05 7.83814e-06 1.66714e-05 2.90255e-06 2.7356e-05 -3.78311e-05 -7.49644e-06 0.000742126 0.000646913 
-2.20147e-05 -5.22142e-06 -1.94454e-05 1.88451e-05 1.216e-06 0.00239232 -1.34211e-06 1.75876e-06 7.88585e-06 
-7.80212e-05 -3.60527e-05 -4.14398e-05 -1.49159e-05 -2.8551e-05 -1.36704e-05 0.0165277 8.31408e-05 -0.000890346 
0.00301448 -0.000171599 -1.16207e-06 -3.36227e-05 -3.28878e-06 -0.000402738 -0.00026821 -9.97253e-05 -4.13863e-05 
-0.000474101 0.00306369 4.80562e-05 4.64504e-06 -2.05563e-05 1.75705e-05 9.62094e-06 2.48696e-05 -3.26669e-06 
-0.0154088 0.000873845 0.0171702 0.000196098 1.91713e-05 0.00425547 7.04274e-08 3.33807e-06 -8.22624e-05 
2.29782e-05 -0.000112155 0.000976675 -0.00276007 -1.51021e-06 -1.31977e-07 2.21801e-06 1.97078e-06 3.16313e-06 
-1.51097e-07 -1.44525e-05 1.17048e-05 -4.43829e-07 2.98909e-06 -8.79314e-07 -1.00078e-06 -1.34522e-06 -0.00039429 
0.00348167 0.000154009 0.000750171 0.0171376 1.77524e-06 -8.00058e-06 9.60616e-07 2.74401e-07 -2.61987e-05 
4.90104e-05 -1.12886e-06 2.38985e-06 1.4717e-06 1.34623e-06 -5.55612e-07 2.76767e-06 -5.75615e-06 -1.8073e-06 
-5.49885e-06 8.97255e-07 1.24939e-06 9.33559e-07 1.49232e-06 2.96603e-06 3.0466e-06 2.99688e-05 2.90502e-05 
-6.15258e-06 1.74823e-05 -5.72004e-06 4.2284e-07 5.59918e-09 -2.67177e-07 3.41612e-07 5.88196e-07 2.90657e-05 
2.16174e-05 3.70039e-05 1.23685e-07 -1.04087e-06 -2.49079e-06 2.9775e-07 -1.12047e-06 -6.88906e-07 1.33685e-06 
5.54578e-07 1.02516e-06 2.06697e-06 -1.94561e-06 3.34329e-07 -6.75869e-06 -7.77088e-07 9.71634e-06 -6.88048e-07 
7.9807e-06 4.6719e-07 3.0128e-05 -5.66552e-05 -4.146e-05 2.76087e-05 -3.43176e-06 -1.90231e-06 1.11488e-05 
-1.70657e-05 0.00162386 -0.000785959 0.000257765 -2.01858e-05 2.99362e-06 1.90625e-05 5.95148e-05 1.60409e-05 
1.23628e-05 1.30506e-05 1.2252e-06 1.25486e-05 3.9674e-06 -8.32136e-06 -5.6541e-06 -1.93417e-08 4.76234e-07 
1.45366e-06 -9.62864e-08 -1.70302e-06 5.91599e-07 -3.00315e-07 5.66959e-07 -6.37369e-06 -3.74705e-06 -4.42359e-07 
1.4142e-06 3.1031e-05 4.20484e-05 -3.31417e-05 -2.55295e-05 -3.35569e-05 0.022095 2.49266e-05 2.47951e-05 
-5.22197e-06 -2.04798e-05 -7.31657e-06 0.000501246 -0.00366533 0.000542722 -1.72411e-05 1.90605e-05 -4.49156e-06 
-3.06065e-06 -3.60625e-06 1.81613e-05 -1.14857e-05 1.03247e-06 -8.23022e-06 2.19932e-06 -2.70264e-06 -4.79258e-07 
-5.01149e-06 9.92985e-06 2.02081e-07 1.89971e-06 1.68226e-06 2.19794e-06 6.01779e-07 8.39967e-07 -3.23345e-06 
-1.77522e-06 -1.85188e-07 2.47652e-07 4.22026e-07 -4.86468e-06 -2.7183e-06 1.36859e-08 2.12502e-05 -1.02828e-05 
2.44148e-07 -1.60642e-05 -0.022223 0.022091 0.000301492 1.03171e-06 -1.7923e-05 3.87952e-06 -3.86304e-06 
8.07173e-06 -3.60689e-06 -1.18259e-05 1.11069e-05 -6.92495e-07 1.97238e-06 2.85571e-06 1.6028e-06 2.26504e-05 
3.42187e-06 1.05899e-05 0.0202485 1.50885e-05 5.75969e-05 -5.91863e-05 1.0165e-06 8.45875e-07 9.20262e-07 
-7.06248e-06 3.49497e-06 -4.41428e-06 3.33606e-05 -9.70845e-06 3.63548e-06 -0.0226138 0.0224768 9.90976e-05 
-9.24586e-07 -7.02272e-06 -3.5246e-06 5.33886e-06 -1.0495e-05 -0.000125121 -1.09855e-05 -0.000164021 0.000721998 
8.05586e-06 -9.71288e-06 -4.62918e-06 1.18796e-05 -1.01411e-05 -5.00286e-07 -7.55515e-06 1.30107e-05 2.56138e-06 
2.44831e-06 6.7331e-07 -3.82369e-08 0.000284413 0.00150731 0.000605076 5.38419e-06 0.0224714 0.000622633 
3.01886e-06 -2.95958e-06 -1.15202e-06 -1.48531e-05 -1.74003e-05 -3.35222e-05 3.33668e-05 -2.56541e-06 -2.06286e-05 
-1.03309e-05 -5.44756e-07 1.8111e-06 1.28813e-06 1.71533e-05 0.0310678 -0.0110971 -0.0130213 -9.76803e-06 
-3.43745e-06 3.91461e-05 2.22068e-05 1.47254e-05 -2.38859e-06 -1.64999e-05 6.56965e-06 -6.92926e-06 -3.51134e-05 
4.63667e-05 -5.63525e-07 -1.80937e-06 -5.7801e-07 1.50771e-06 -5.8371e-07 4.308e-05 -0.00340695 4.09301e-05 
4.46228e-05 0.000131211 9.1296e-06 -1.51788e-06 1.4637e-05 1.2025e-05 1.10196e-05 1.55265e-07 1.3038e-05 
1.40016e-05 -0.0108471 0.0273429 7.11802e-06 -1.23959e-05 -3.78542e-06 -7.98028e-06 1.79406e-05 -0.00400124 
-5.58134e-05 2.87038e-05 -2.69869e-06 7.67146e-07 -1.05007e-06 0.0204735 0.016005 9.84626e-06 2.72416e-06 
-6.28011e-05 9.08205e-05 0.000723953 -0.00446355 -0.00491355 3.76315e-05 1.81056e-05 4.19073e-05 -6.17675e-06 
1.51304e-06 4.34027e-06 1.1908e-05 3.58486e-06 2.82805e-05 0.000907608 -0.0027701 0.000462286 -0.0028602 
0.013462 0.0219879 -9.31532e-07 -1.67957e-06 -7.80999e-05 1.23794e-05 1.87599e-05 -2.20424e-05 3.31336e-06 
-2.92373e-06 5.74341e-07 -7.47537e-06 3.45717e-06 -6.88868e-05 -6.46287e-06 -3.56826e-06 -0.00399254 -4.59192e-06 
-1.24231e-05 -1.27036e-06 -2.87964e-06 -4.73688e-06 9.54141e-05 -4.80753e-07 1.0517e-06 9.48593e-07 -4.88956e-07 
-3.35727e-05 0.00422065 -7.95829e-06 9.06791e-05 4.31198e-06 -6.35886e-05 1.36338e-05 -5.02296e-05 1.29134e-05 
7.68689e-06 2.14714e-05 1.00144e-05 0.000352642 0.000102614 0.00345825 -2.44328e-06 -1.54853e-06 0.000705938 
0.000455022 -0.00359211 -6.00057e-07 -1.0906e-05 -1.81667e-05 9.75853e-06 1.28457e-05 -3.00136e-05 1.0387e-05 
3.24944e-05 -3.47447e-05 2.16861e-05 0.00362879 0.000130206 -5.70135e-07 -4.30245e-07 1.38703e-05 2.45359e-05 
-2.95509e-05 1.72729e-05 1.66304e-06 -3.8269e-07 1.42369e-05 -2.32013e-05 1.39442e-05 9.19141e-06 -2.45739e-05 
-6.43115e-06 1.56736e-05 7.27636e-06 4.65789e-07 -4.43012e-07 -9.92764e-05 4.83946e-05 3.21325e-06 -4.02361e-06 
-6.40528e-06 1.8053e-05 1.85657e-06 -3.09871e-06 -4.99869e-05 -4.77218e-05 4.22264e-05 1.60046e-05 -0.00010796 
-2.27033e-07 -1.68025e-06 -4.97111e-06 -2.48997e-05 -4.10099e-06 4.61604e-08 -4.73843e-07 -3.62169e-05 -3.16778e-05 
-1.94463e-05 -2.26173e-05 -5.87873e-06 -4.3062e-05 -9.20731e-07 2.39925e-06 -2.8649e-07 -1.26654e-07 -3.80821e-06 
-3.89515e-05 3.34828e-06 -1.93667e-05 2.45668e-06 1.18813e-05 1.40643e-05 5.22364e-06 -1.94787e-06 -1.36618e-06 
-1.35622e-06 -2.39667e-06 1.60687e-06 -8.51724e-07 1.10634e-06 -1.14213e-07 5.97902e-05 -8.03784e-05 4.48988e-05 
5.31607e-05 -1.38649e-06 -9.7364e-07 1.7664e-06 1.25999e-06 -0.0205413 2.63862e-05 -0.000199507 0.00221371 
-4.33097e-06 0.000827564 -0.0043093 -4.16859e-05 -4.08816e-05 2.47183e-05 0.0160578 -0.00675573 0.0178515 
-8.26836e-05 -5.11992e-07 -7.18015e-07 1.65992e-06 -6.66548e-07 3.35771e-05 3.32827e-05 -0.0228396 -6.62153e-06 
-2.19016e-06 -3.67792e-06 -1.89182e-05 2.14479e-05 9.25078e-06 5.7472e-06 -2.00506e-05 1.58701e-06 8.01257e-06 
-1.43174e-05 6.42718e-05 3.12802e-07 3.3672e-08 8.49985e-07 1.39159e-05 2.89714e-07 2.20283e-05 -9.49175e-05 
-0.000103426 1.68204e-06 2.37658e-06 2.54228e-06 7.05534e-05 1.51763e-05 1.89983e-05 0.0181968 4.25301e-06 
0.0265986 0.000190931 0.00380487 -0.00366716 6.65261e-05 -9.45972e-07 1.67554e-06 5.5806e-07 -9.18743e-06 
1.94656e-05 6.45945e-05 -0.00044259 -2.16622e-05 1.8587e-06 -9.42209e-06 -2.27355e-05 -7.86337e-06 -2.1974e-05 
-5.59571e-06 -3.05909e-06 1.78909e-06 -2.74258e-06 1.05331e-06 2.15014e-06 -1.26041e-06 0.000488777 0.00424386 
1.50541e-06 -3.98477e-06 1.58989e-05 -6.90324e-06 -8.47772e-06 1.46099e-05 -7.41786e-06 -3.8654e-05 -1.26378e-05 
2.80508e-05 -1.77416e-06 -5.53181e-06 4.00213e-06 -3.91138e-07 -1.58693e-06 6.54525e-06 1.82621e-06 3.07602e-06 
1.96076e-05 -1.14161e-06 -3.22188e-06 -5.33165e-06 -1.96599e-05 -1.52561e-05 1.3833e-05 -2.98063e-05 5.22167e-06 
-7.8394e-06 6.18553e-06 -1.04777e-05 -6.38461e-06 -1.6186e-05 -8.93642e-06 -7.69012e-06 -4.13605e-07 -2.6299e-06 
-2.13688e-05 -2.46255e-05 5.6166e-06 -9.12059e-07 9.35429e-06 1.86202e-05 -3.29912e-05 -9.5992e-06 6.45451e-05 
1.47074e-06 -7.70476e-07 2.35684e-06 -6.7036e-06 0.00399732 -5.12898e-05 0.000170095 -7.24804e-09 -4.26109e-07 
3.04148e-07 2.02665e-06 1.25238e-06 -5.86642e-08 3.64205e-06 1.64329e-06 4.99247e-06 5.11007e-05 -3.37242e-05 
-3.08074e-05 1.18849e-05 -0.00021011 0.00307347 -4.26667e-05 -2.08783e-06 6.22323e-06 5.78557e-06 -5.98263e-06 
7.57968e-06 -4.82113e-06 -1.59407e-05 0.000344898 3.48819e-05 7.37159e-06 2.91398e-05 -1.28914e-05 1.97214e-05 
-0.000490544 -0.00034749 0.000117347 1.02288e-05 1.39071e-06 -1.43419e-06 -4.76068e-06 -4.72033e-06 -1.43025e-06 
1.06131e-05 -1.22371e-05 1.576e-05 5.28882e-06 5.35822e-05 8.15916e-06 -6.21729e-06 1.03308e-05 7.76453e-06 
-0.0161038 -0.000855323 -0.000442502 2.13691e-06 6.57565e-07 0.016771 -2.31645e-05 0.000606225 -1.689e-05 
2.25505e-05 -1.41004e-05 -0.000284999 -6.12279e-06 9.35696e-06 1.22525e-05 -1.28289e-05 6.6846e-06 -1.09887e-05 
2.11011e-05 -0.000158405 2.25114e-05 1.37155e-06 1.15359e-05 2.85061e-05 6.3201e-06 -1.40251e-06 2.32952e-07 
-3.42611e-06 1.40362e-05 1.25706e-06 -4.33115e-08 -2.206e-06 -5.62328e-07 2.89285e-05 1.46834e-05 4.35647e-06 
-1.03098e-05 -1.47307e-05 7.75242e-07 7.94183e-07 3.52437e-07 2.54922e-06 1.78272e-05 -1.0376e-06 -1.63472e-05 
2.10625e-06 9.23767e-06 -0.0038531 1.87216e-05 -7.18367e-06 5.88324e-06 -5.94089e-06 -3.89504e-05 7.28577e-06 
1.43181e-05 -1.52689e-06 -3.60199e-06 -0.000173704 -3.19447e-06 -1.43014e-06 -7.6225e-06 -2.21944e-05 -0.000159411 
8.96912e-05 4.86987e-07 -1.37941e-06 -1.58175e-05 -3.05751e-07 2.59909e-06 -3.4662e-07 0.0162084 6.65709e-06 
-6.79009e-06 3.23256e-05 -4.93122e-07 -2.68842e-06 -3.13761e-05 -2.35893e-05 -6.74924e-05 -2.60167e-05 2.54979e-06 
-9.10441e-06 4.46384e-06 1.09612e-05 -1.50496e-06 -6.12659e-07 1.28557e-06 -2.13524e-06 -5.30916e-06 2.99641e-05 
-9.54414e-06 -1.59447e-05 4.13297e-06 -1.77721e-05 -3.92681e-06 -8.68361e-06 -9.66781e-06 1.14206e-05 0.0176421 
0.000573793 -1.34082e-05 -5.56128e-06 -1.9053e-05 -4.32333e-05 -8.43887e-05 -3.62777e-06 -2.37663e-06 -3.67265e-05 
-5.39307e-05 -0.0203517 2.44034e-06 -9.0716e-07 -6.74536e-06 0.00011512 0.000114852 -0.00322448 -0.00330437 
0.00049321 -3.13587e-06 8.57059e-06 -8.5792e-06 -3.92786e-06 -4.3942e-06 -2.92412e-06 4.06169e-05 -5.5288e-06 
-7.37004e-06 -4.25769e-06 2.06992e-07 3.90511e-06 2.05183e-06 -1.3712e-05 0.00423637 -1.45656e-05 -3.37606e-06 
-1.31993e-06 -8.39819e-06 1.84171e-05 -5.05258e-06 7.4529e-06 -3.91546e-06 1.26322e-05 -1.07648e-05 0.00742793 
-4.88563e-06 -4.05867e-06 -1.48281e-06 -0.00102754 -5.08369e-06 -2.33225e-06 -3.95567e-06 1.98233e-05 3.13208e-05 
-1.83365e-05 -8.43369e-07 -6.92136e-07 4.98669e-06 -1.78574e-06 1.86135e-05 -0.00406686 0.0186557 0.0168894 
-0.00458759 -8.38552e-05 -6.16281e-06 -1.35478e-05 2.00295e-06 1.15079e-05 -0.000104684 -0.000189008 0.0036666 
1.31119e-05 -0.00886797 -4.42602e-05 8.58801e-06 -2.03808e-06 -2.51518e-06 3.4943e-05 3.13504e-05 -3.73292e-05 
4.16292e-06 -1.87046e-05 -5.53658e-06 -1.5999e-05 -0.0152513 0.0175889 -0.00151154 -4.40942e-05 2.72601e-05 
-2.67038e-05 -2.07349e-06 -6.48502e-06 -3.13025e-06 9.77741e-05 3.19364e-05 0.0167495 -0.0166845 -7.31925e-06 
4.33832e-05 4.48013e-05 -1.98337e-06 -3.7554e-06 -6.41574e-06 -5.05696e-06 -6.1376e-06 4.53562e-07 -1.58819e-06 
-2.48273e-06 -3.73398e-06 2.53509e-06 1.92611e-06 1.22501e-06 1.92533e-06 2.82676e-05 4.71865e-05 1.44489e-05 
1.34061e-05 -9.48599e-06 1.00348e-05 5.96226e-06 3.11929e-05 -7.16931e-06 5.2007e-06 -1.01567e-05 2.58562e-05 
-8.10342e-05 5.84148e-05 -5.97705e-06 -1.76773e-05 -1.16164e-05 2.98304e-06 1.17287e-05 -1.56682e-05 -6.42925e-06 
-4.44467e-06 6.33261e-06 -6.80068e-07 4.54831e-07 -3.60072e-06 -3.32102e-06 -1.42935e-05 3.87017e-06 -5.63993e-06 
-4.47862e-06 -1.0451e-06 -6.28528e-06 6.54795e-07 -2.15633e-06 0.000115895 0.00339989 6.79193e-05 -8.11309e-06 
8.30287e-06 1.51683e-05 -1.59429e-05 8.42353e-07 -1.27355e-06 -3.09421e-07 -0.00350886 0.000273482 -0.00311652 
-1.94338e-05 -2.4276e-05 -1.64854e-05 -1.77047e-06 3.53514e-06 -0.0142898 -0.0230993 -8.93394e-07 -1.37048e-06 
3.86929e-07 1.61705e-06 -1.12878e-06 5.08758e-07 1.30953e-05 2.12091e-05 -3.04058e-06 -5.23525e-06 5.34817e-06 
-4.89613e-08 1.13111e-05 -3.43026e-06 -6.00193e-05 -0.000108839 5.84782e-05 -7.84724e-06 -1.80509e-06 -1.43416e-06 
-4.03213e-08 -1.29559e-05 -7.64042e-07 4.59515e-06 2.59748e-05 -9.663e-06 -1.59588e-05 1.97494e-06 2.062e-06 
-1.16969e-05 -4.74142e-06 1.35915e-06 -1.84929e-06 -1.56521e-06 -5.05932e-06 -5.89223e-06 1.97648e-06 -1.45464e-06 
2.46407e-06 2.0887e-06 3.83031e-07 6.26093e-07 -1.14023e-05 -3.8819e-07 7.26374e-06 1.37507e-05 3.79607e-06 
-1.1769e-06 1.03325e-05 -0.0160652 -1.98258e-05 -6.55388e-06 1.80478e-05 0.0169162 -0.0167201 -1.85739e-06 
4.12595e-05 -4.84698e-05 5.10984e-07 -3.92086e-06 1.94922e-05 1.23985e-06 4.20583e-05 -4.30374e-07 -3.8991e-05 
-1.86399e-05 -5.95793e-05 -8.68979e-05 5.76076e-06 -1.55278e-05 1.54772e-06 -1.86974e-06 3.20702e-06 0.0228704 
1.50829e-05 -3.05253e-08 -3.40803e-06 -3.57417e-05 -1.19736e-05 2.61082e-06 -5.20698e-06 5.70781e-06 -3.13165e-05 
-2.68646e-07 4.29612e-05 5.03088e-05 1.32991e-06 -3.39813e-07 -6.82631e-06 9.11741e-05 8.71078e-05 9.05538e-05 
-3.74753e-07 -1.4948e-05 6.7371e-06 1.04956e-05 6.19462e-06 8.44475e-07 1.59261e-07 -3.11098e-06 5.32642e-06 
3.21784e-05 3.63919e-05 -0.00014179 7.52479e-05 -2.26257e-06 -5.93936e-07 -8.37446e-07 -4.08821e-06 -8.98972e-06 
2.61975e-06 8.87928e-06 -5.88008e-06 2.07295e-05 0.000113458 2.88433e-05 9.58184e-05 -8.91088e-05 2.39464e-05 
-2.09286e-05 -4.30596e-08 -5.04123e-07 2.22223e-05 -3.14019e-05 -5.42232e-05 -6.71798e-05 0.000201442 -0.00433507 
1.98322e-06 -1.10388e-06 -4.28194e-07 2.10164e-07 -1.67457e-05 7.05569e-06 8.3346e-06 -1.88521e-06 -3.74249e-05 
-9.3933e-06 -3.89188e-05 -2.11454e-06 -9.28387e-06 -2.98348e-06 9.17616e-07 2.66474e-06 -1.1069e-05 -1.86066e-06 
-5.09047e-06 -5.73442e-06 -3.27968e-06 -5.39132e-06 3.81418e-05 -3.84876e-05 1.87038e-05 -0.00158469 5.43597e-05 
-3.32114e-05 -7.70636e-06 2.28014e-05 1.60107e-05 -3.86327e-05 1.0979e-05 -4.6415e-06 -2.109e-06 1.65735e-05 
3.07945e-07 -5.03841e-06 -4.03187e-06 1.74147e-06 2.31298e-05 2.44571e-05 2.60125e-06 1.11787e-05 1.59624e-06 
-6.03093e-06 2.30028e-07 -6.18578e-06 -4.64757e-06 -8.42693e-07 9.97376e-07 -2.6231e-09 1.09809e-06 1.93058e-06 
2.48729e-06 2.83124e-06 1.34569e-05 -7.77341e-06 8.65356e-07 1.00035e-07 -2.27291e-07 5.87652e-05 7.9737e-07 
1.31189e-05 -1.1057e-05 -5.98585e-06 -2.97887e-05 -5.99479e-06 2.62788e-05 2.41913e-05 3.6006e-05 8.73487e-06 
6.6828e-06 -2.3103e-05 -1.14644e-05 2.02915e-05 -9.78894e-06 2.08932e-05 1.71428e-05 2.72685e-05 -1.36751e-06 
-1.67783e-05 -1.50563e-05 -1.48805e-05 1.72823e-05 -1.03835e-05 7.83799e-06 1.77625e-05 -1.4561e-05 2.52774e-05 
8.97922e-06 3.76933e-06 -5.00712e-05 1.43908e-05 -3.30019e-06 1.40934e-05 1.74648e-05 4.5865e-05 -0.0227343 
0.0225799 1.28381e-05 2.15484e-06 -1.52865e-06 1.33242e-05 -1.56655e-06 2.04243e-05 -4.95958e-06 -5.17677e-06 
-1.81563e-05 -8.2102e-07 -4.82143e-06 3.55826e-06 -2.55389e-05 -1.51566e-06 -1.49378e-06 -1.13063e-06 -8.70198e-07 
-5.02194e-06 1.7655e-06 -1.51844e-06 -5.49804e-06 0.000305944 0.0213638 -0.0211287 -2.68808e-05 -2.47702e-05 
-3.30172e-05 -2.83465e-05 9.02095e-06 -7.29892e-06 -2.72312e-06 3.83956e-06 -3.06585e-06 -6.27409e-07 -6.44709e-06 
-2.93946e-05 9.49734e-07 1.07824e-07 3.12456e-05 -6.72784e-07 -1.26781e-06 2.48057e-05 -2.37002e-06 -1.42804e-05 
2.85729e-05 3.52521e-05 1.03785e-05 -2.09342e-05 1.82544e-05 -8.15834e-06 1.50769e-05 3.75455e-06 4.80159e-05 
3.37484e-06 9.7465e-07 -2.18321e-06 4.79994e-07 -2.16605e-06 -4.60856e-06 2.25444e-06 -3.86428e-08 -7.16798e-06 
-4.45171e-06 2.66193e-06 8.35842e-06 -1.67137e-06 9.61059e-06 5.22857e-07 5.83297e-06 -3.41718e-06 1.84766e-05 
-2.23316e-06 -1.00731e-05 -1.21353e-05 1.85869e-05 -4.16673e-05 3.51279e-05 1.99653e-05 -2.06039e-05 4.18586e-05 
2.05812e-05 1.09651e-06 2.34522e-06 1.58609e-07 -2.04551e-06 -1.72106e-06 2.62627e-05 2.11769e-05 -4.07087e-05 
1.09099e-05 1.62327e-06 4.3861e-07 9.08247e-07 -1.05568e-06 -1.26124e-06 9.60139e-07 6.60668e-06 -9.9585e-05 
-2.86658e-06 -1.78946e-05 -1.57169e-05 2.09338e-06 -5.12861e-05 5.23506e-06 0.000395712 0.000113779 -2.8571e-06 
-5.89196e-06 3.50724e-06 -9.23922e-06 1.9579e-06 2.06242e-05 -6.11119e-07 1.63156e-06 5.67318e-07 -8.84366e-07 
2.28084e-05 -6.53222e-06 1.16254e-05 6.30445e-06 -7.78972e-06 6.53284e-06 -2.19502e-06 1.50504e-05 -1.73524e-05 
-9.39116e-06 -4.22806e-06 -5.80915e-05 2.18246e-06 6.9591e-07 -1.09076e-05 -2.19769e-05 1.61625e-06 -0.000458299 
5.62412e-06 2.46879e-07 -1.24603e-06 4.59453e-07 1.05146e-06 1.00627e-06 -7.47776e-06 6.415e-06 -4.9897e-07 
1.88627e-06 -2.97162e-06 -6.15037e-06 -8.90862e-06 2.16101e-05 2.64921e-05 -1.43362e-05 1.28499e-06 -1.04216e-06 
1.64513e-05 3.25414e-07 -5.60712e-06 1.49727e-05 -2.58991e-05 1.09687e-05 2.70621e-06 -6.93689e-06 1.01465e-05 
-1.452e-06 1.55527e-06 9.32599e-06 1.67433e-05 0.0197062 0.017347 0.000613703 -9.13978e-05 1.08795e-07 
-1.75661e-06 -1.25427e-05 2.54816e-06 -2.21722e-05 8.63533e-07 1.30815e-06 -2.61165e-05 1.30836e-05 -3.37608e-05 
-7.26944e-06 -3.13393e-05 8.02616e-07 -1.02592e-06 0.000263167 -8.23197e-05 -3.24951e-06 8.35745e-06 -3.8969e-06 
1.0114e-06 4.1018e-07 3.16342e-06 -1.45937e-06 -0.000118048 0.000122026 2.41979e-05 -5.69742e-05 -9.00853e-05 
-0.000151966 0.000113381 1.60799e-05 1.54746e-05 -4.62033e-06 -2.60335e-06 0.00434059 0.000298363 -0.00414828 
2.18117e-06 3.17913e-06 1.98718e-05 -1.82263e-05 5.97853e-05 7.97115e-06 -9.42367e-06 2.04787e-06 0.00138824 
-0.00429372 1.82492e-05 2.69997e-05 0.00438268 -1.72231e-06 -3.63581e-05 -2.86637e-05 1.25547e-05 -2.26373e-05 
-3.13192e-06 0.000742283 1.12076e-06 -1.43247e-06 1.5009e-06 -2.01083e-05 -1.08582e-05 -1.58042e-07 1.47999e-05 
2.35627e-06 2.12831e-05 -1.27398e-05 0.000233712 -0.00326261 9.13764e-05 0.00443715 1.23347e-05 -0.00207769 
0.0243371 2.47795e-06 1.14588e-05 -2.42998e-05 4.0018e-05 2.56785e-05 0.000839228 -0.000209312 -3.08984e-05 
1.57981e-06 0.000139567 0.000152318 -0.0032517 4.49987e-06 6.4799e-07 -0.00026571 -0.000290629 0.00383337 
0.00876406 0.000408391 -0.00378761 -2.38244e-05 2.4412e-05 2.44693e-06 -0.0206762 -3.90349e-05 2.55246e-05 
-8.52095e-06 -1.42604e-05 -1.68234e-05 7.05631e-07 -7.50155e-07 1.10784e-06 1.29273e-06 2.48591e-05 1.40135e-05 
0.0001827 0.0205883 0.00173439 7.69163e-07 7.48132e-07 -4.62986e-07 2.46036e-06 1.22105e-05 -0.00413831 
-4.04282e-05 2.94173e-05 4.50369e-05 -4.00277e-05 2.22313e-06 1.77005e-06 -2.01772e-05 1.23382e-06 -2.67875e-06 
2.6435e-05 -2.44674e-05 1.72226e-07 0.000269273 0.000199302 7.39147e-05 1.17459e-05 -3.51639e-05 4.57511e-07 
-2.40445e-06 -9.11241e-06 -1.07931e-05 -8.9335e-06 -1.59863e-05 -2.50704e-06 -1.63991e-05 -2.62847e-05 -1.19191e-05 
1.11764e-05 9.08786e-07 -3.61909e-07 7.12931e-06 4.6047e-05 -2.15042e-05 -2.63627e-05 1.80133e-05 2.93261e-06 
-1.12089e-05 1.42771e-05 3.96219e-06 -2.86631e-05 -6.77864e-06 9.50244e-06 1.31128e-05 9.79517e-06 -1.46427e-06 
-2.21116e-06 -2.34321e-05 -1.55272e-06 -2.02992e-05 1.17105e-07 -3.88331e-07 -1.20916e-07 -1.07572e-05 2.24836e-05 
1.30638e-05 -0.000123647 -5.43714e-07 3.28184e-05 1.86056e-05 -1.9908e-06 7.16512e-06 -4.87199e-06 -7.57034e-06 
1.50533e-06 -4.45834e-06 4.45092e-07 1.12698e-06 -4.33757e-06 -3.34637e-06 -1.92179e-06 -5.69466e-06 1.32666e-06 
-4.20848e-06 -1.26238e-05 -4.1395e-07 -2.30985e-05 1.98609e-05 1.28868e-05 3.48129e-06 -2.90862e-06 -2.24024e-07 
2.04712e-07 -9.24635e-06 -6.57084e-06 -8.04006e-06 -0.00248387 -0.0036528 -8.69616e-05 0.0037098 -2.82469e-06 
1.26154e-06 -1.66658e-08 3.45408e-05 -6.35437e-06 -4.96958e-05 6.6488e-05 3.65394e-05 2.17066e-05 -1.02745e-05 
-0.00422414 -1.09112e-05 -1.04367e-05 -2.37358e-05 -7.69715e-06 -1.61168e-05 -2.39138e-06 -9.62324e-06 -1.03432e-06 
2.09374e-06 4.01589e-08 -1.25812e-05 -7.02275e-05 7.57615e-06 -7.9654e-08 -3.65823e-06 -3.31608e-05 -3.15051e-06 
-2.68651e-06 -6.46676e-06 -1.55568e-05 7.39589e-06 4.09513e-06 1.2293e-05 4.8829e-06 5.79352e-06 8.37979e-06 
1.47894e-05 -7.3432e-06 3.09209e-06 1.00044e-05 3.26385e-06 -4.4841e-05 -1.08202e-05 0.000129321 -0.000210025 
-1.2853e-05 1.41357e-05 2.24936e-05 7.75455e-05 7.29591e-06 -7.66872e-06 2.51294e-05 -5.42902e-06 0.00058179 
4.82982e-05 0.000722263 -6.68188e-05 -1.7148e-07 5.02983e-06 -0.00421521 5.90072e-05 -3.10566e-05 -0.0226114 
1.33539e-05 -2.24048e-05 1.2395e-06 2.13791e-06 6.49964e-05 3.87939e-05 -7.39368e-06 0.000294356 -5.98775e-06 
-4.91975e-07 -2.14786e-06 5.91502e-06 2.80657e-05 0.00392859 -6.4837e-05 -0.00351673 0.0172298 0.000110629 
2.18369e-05 -1.12133e-05 -1.14541e-05 4.84152e-05 -0.016266 -3.97401e-06 -2.67853e-06 -4.5806e-06 -1.40299e-06 
-6.72543e-07 1.73505e-06 1.36581e-06 -6.17729e-05 6.08708e-07 7.66532e-07 2.71286e-06 9.14816e-07 -4.07119e-09 
2.39519e-06 1.28223e-06 2.50146e-06 2.50973e-06 2.57291e-05 -4.53613e-07 -1.52894e-05 -1.8086e-05 -2.17003e-06 
-4.09648e-06 -2.7196e-05 1.13227e-05 -5.18186e-05 -9.82489e-06 2.02636e-06 -1.03844e-06 2.23062e-06 1.41413e-06 
-6.60105e-05 -2.81797e-07 3.49915e-06 -1.01159e-05 -7.1689e-07 -6.49146e-06 -9.7533e-06 1.25169e-05 -2.41687e-05 
-6.47721e-06 1.441e-06 -8.14954e-06 0.00024027 -0.0013665 -1.746e-05 -4.27669e-06 -2.94313e-06 -7.44086e-06 
-8.29576e-06 1.64409e-06 1.79221e-05 -8.37283e-06 0.00408404 -0.00044695 -1.67553e-05 1.32371e-06 1.45319e-05 
-4.66786e-06 -3.08627e-06 -2.01495e-05 -0.00010831 1.04638e-06 9.13349e-07 -9.90313e-07 2.14412e-06 3.58599e-06 
-4.93168e-06 -2.56257e-05 1.43386e-05 -2.06909e-05 -2.1331e-06 -2.24632e-06 -8.15565e-07 -3.64141e-07 -1.30396e-05 
-0.0169851 -0.0165146 9.43691e-07 -2.7555e-06 -1.10084e-05 -9.52688e-07 1.48868e-06 -2.13021e-06 -2.52688e-06 
1.27031e-06 1.08031e-06 2.27126e-06 -1.45764e-06 1.10188e-07 1.24311e-06 3.65284e-07 -1.1972e-06 -3.3689e-06 
8.38007e-06 1.93879e-05 -0.00010397 1.0749e-05 1.49525e-05 -1.56038e-05 -0.000119175 2.12827e-05 -1.77702e-05 
-1.66984e-05 4.90566e-07 -1.89463e-06 -6.22854e-06 2.04514e-06 1.19478e-05 -4.88461e-06 -5.89815e-07 4.55801e-06 
-1.37703e-06 -7.35979e-05 1.8307e-05 4.60198e-05 5.29511e-05 0.000149572 -8.01834e-07 -1.47421e-05 -6.43022e-06 
0.000145773 1.88479e-06 4.06259e-05 2.02487e-05 -7.51726e-08 -1.29142e-06 -0.0034296 3.89202e-05 2.1744e-06 
-0.00025944 -0.000320034 -6.58333e-06 -3.17364e-06 2.92e-05 -3.40006e-07 -3.74431e-05 -1.86807e-05 -0.00531936 
-0.0164776 -3.1729e-06 2.30995e-06 4.46025e-06 5.29036e-06 -3.06248e-05 -6.02467e-06 -6.34454e-06 2.97756e-05 
4.64354e-07 1.70677e-05 -6.51295e-07 -2.36703e-05 -2.78816e-06 -2.3602e-05 1.63741e-06 -2.49249e-05 -1.56227e-05 
-0.00870771 3.11722e-05 2.81888e-05 -1.39107e-05 1.48257e-07 1.96395e-06 1.28718e-05 -1.11457e-05 -4.36689e-06 
-1.55321e-05 1.24044e-06 -6.42083e-06 -4.94877e-06 -4.3697e-05 0.000306516 1.73536e-06 -4.40707e-06 7.4673e-06 
-1.23305e-06 3.37373e-07 -1.10451e-06 6.26035e-06 -4.4206e-06 -5.30178e-06 -1.57004e-05 1.30163e-05 -3.49171e-06 
1.34206e-07 -1.23202e-05 -3.93351e-06 9.06829e-05 -5.37579e-05 8.14681e-07 -9.81806e-06 -1.732e-05 3.89299e-05 
5.91012e-06 -3.74564e-06 -1.76031e-05 -4.51622e-06 3.60382e-05 0.00100365 6.23818e-06 -4.64476e-06 -9.07456e-07 
8.40269e-08 1.78429e-06 4.39934e-07 1.43771e-06 -5.13049e-06 -4.23961e-06 -0.00368917 7.01784e-06 -1.27958e-05 
2.4492e-05 -1.17566e-06 -1.77183e-05 -2.45264e-06 1.03992e-05 -7.57934e-05 -4.25067e-05 -7.95507e-07 3.72156e-05 
8.4056e-05 1.46465e-05 -1.18409e-05 6.35052e-06 -2.67681e-05 6.13262e-06 2.22496e-06 1.56707e-06 1.31093e-06 
0.0204662 -8.76376e-07 -3.22593e-07 -2.10931e-06 -1.02614e-06 -2.77113e-07 -1.88679e-06 -1.24734e-05 1.14288e-06 
-2.18689e-06 2.36269e-07 1.07896e-05 -6.5903e-06 1.78161e-05 9.31543e-07 -1.63174e-06 -1.12025e-06 -3.76685e-06 
1.41271e-06 1.22293e-06 1.66046e-06 2.83406e-05 -3.09308e-05 2.06683e-05 -1.72147e-05 -3.71558e-06 0.000370748 
-0.00107023 0.000464517 7.67174e-07 8.71129e-05 -3.54878e-05 3.28718e-05 5.44836e-05 -1.43528e-06 2.925e-05 
-3.99335e-07 -2.36372e-05 -2.36748e-05 8.24865e-06 -1.62068e-05 9.8832e-06 -5.21179e-05 1.26018e-06 2.21461e-06 
4.99159e-07 -4.96728e-05 -3.81038e-05 3.66693e-07 2.80909e-07 -5.22614e-07 -4.35434e-06 9.67731e-07 -9.30796e-07 
-4.85352e-06 -2.72633e-05 0.000269283 7.66717e-07 7.58984e-07 3.30942e-07 -4.84886e-05 -7.86139e-07 7.91806e-07 
6.22907e-07 -1.7107e-06 1.14108e-06 3.31904e-07 -9.34642e-07 1.54178e-05 1.00606e-05 -4.03707e-06 1.46192e-06 
-3.7493e-06 5.24431e-07 2.06218e-05 8.28425e-06 -4.65906e-06 1.04064e-05 -7.83259e-08 3.70625e-06 8.49229e-06 
-1.98575e-05 3.27776e-06 1.34136e-05 -1.45549e-06 -1.60711e-05 -2.93389e-07 8.77317e-07 -2.41094e-06 -2.20547e-06 
-4.69357e-06 -7.34833e-06 6.06353e-05 2.16181e-06 -1.3488e-05 -4.12839e-06 -3.89211e-05 -3.90911e-06 0.0224514 
-0.022241 3.15768e-06 -1.48909e-06 -2.10288e-08 -4.63095e-07 2.08853e-06 -1.28478e-06 -1.1531e-05 -4.67066e-06 
-1.68999e-06 -2.93247e-08 4.40708e-05 -2.77725e-05 3.77928e-05 -2.28533e-05 -1.12645e-05 0.00351752 -3.83451e-06 
-5.24642e-06 -9.82291e-06 5.09145e-06 -1.89496e-06 5.59115e-06 -2.74048e-05 -0.0195475 2.26736e-05 -3.74879e-06 
-8.0413e-06 -0.00340146 -0.00338168 3.78828e-06 3.85832e-05 9.73547e-06 2.85434e-05 9.81711e-07 1.6115e-07 
-1.2017e-06 -1.33358e-05 -4.25234e-05 9.39956e-06 1.31917e-05 2.19082e-05 -3.03881e-05 1.33832e-06 2.29987e-05 
0.00272089 -2.71551e-07 -1.90607e-06 5.70725e-07 -8.26447e-06 -3.38475e-06 -8.74156e-06 2.669e-05 -1.45968e-05 
7.31228e-06 -1.76704e-06 4.96675e-07 -1.63278e-05 1.71105e-05 -3.97124e-05 1.1843e-06 -1.51864e-05 -1.36053e-05 
-6.14978e-06 -2.60993e-05 -3.26577e-06 -8.447e-06 2.58397e-06 3.80824e-05 -1.19161e-05 -7.57456e-06 -1.37916e-05 
3.59291e-06 0.00422843 2.45918e-05 -4.66448e-07 -7.56876e-05 7.17466e-06 1.24607e-05 8.6407e-07 -1.63274e-06 
7.27351e-07 -5.25645e-08 -2.39342e-06 1.65486e-05 0.000735295 -2.3125e-06 -6.48433e-06 -3.4561e-06 -5.4629e-06 
1.41436e-06 2.75824e-05 7.42131e-07 7.54676e-06 1.25164e-05 8.8057e-06 9.74614e-06 4.15792e-05 -1.28403e-05 
1.67521e-05 -5.14593e-06 -1.50903e-05 1.21138e-05 1.24018e-05 -3.47484e-05 8.23706e-06 -2.72765e-05 1.07589e-06 
-6.14624e-06 6.73842e-06 -3.88155e-05 1.81691e-06 -1.54654e-08 7.81528e-06 2.14717e-05 6.50567e-07 1.30753e-06 
-5.12322e-06 2.35934e-06 1.54672e-06 4.21376e-06 -7.38569e-06 -6.77338e-07 -6.15451e-06 1.93939e-05 -3.1681e-05 
-3.72716e-06 1.76154e-06 1.1045e-06 7.62518e-06 9.46739e-06 2.24639e-05 -0.000934177 7.17684e-07 -2.67546e-06 
-3.11878e-06 2.12308e-07 4.46142e-06 1.97977e-06 1.17847e-05 7.0217e-07 -5.7849e-06 -7.93157e-06 3.67049e-06 
0.00010348 -0.00372315 1.81158e-07 7.25535e-07 -8.43352e-07 -5.2278e-07 -5.08354e-06 2.57865e-06 -1.01607e-06 
2.72006e-05 1.95138e-05 1.95208e-06 -2.79917e-06 3.93823e-06 -5.22738e-05 -1.31432e-07 0.00322025 -2.27491e-05 
-1.75286e-06 5.09827e-06 2.27661e-06 1.35032e-05 1.41096e-05 -1.47966e-05 -2.66178e-06 3.13102e-06 2.29607e-05 
-5.31057e-06 -6.73145e-05 4.82594e-05 3.25049e-05 -7.72748e-05 -8.71137e-05 3.77655e-05 1.22182e-06 -1.92084e-05 
6.86318e-06 -4.27948e-06 7.84097e-08 -7.69265e-06 -1.98854e-05 1.04044e-05 1.33356e-05 -6.07845e-05 8.21977e-05 
7.0876e-07 2.67907e-06 -1.33968e-05 1.43284e-05 1.11581e-07 -0.00344716 1.54369e-05 7.87655e-07 -3.30419e-06 
1.01228e-05 -3.39354e-06 -5.01811e-06 -3.34229e-06 3.52034e-06 -1.99039e-05 -9.2397e-05 -0.000120405 -0.00308303 
3.86811e-05 5.83543e-06 3.20148e-06 0.00032291 -0.0197762 -0.00915431 1.63454e-06 0.00415884 -9.64113e-05 
-9.63884e-06 -9.81743e-06 -4.72794e-05 2.19567e-05 3.84861e-07 -4.87208e-06 -3.46515e-07 -4.46616e-06 -0.000763149 
-0.000534764 0.000487083 1.40159e-06 4.76389e-07 -1.29132e-06 -5.22635e-06 -4.37963e-05 -7.39339e-06 2.17036e-06 
-4.65144e-07 -2.82467e-05 2.84099e-06 -6.15149e-05 1.43033e-05 1.07636e-05 -9.47238e-06 3.40121e-06 1.53442e-05 
-2.56261e-05 -4.16097e-06 5.31716e-06 -8.7804e-06 -7.23206e-08 -5.52811e-06 -3.04522e-07 1.13209e-05 -4.69123e-07 
4.30378e-06 2.53959e-05 -2.74396e-05 -1.47676e-06 -7.47414e-07 -1.21756e-06 2.41879e-07 1.22027e-06 1.67012e-06 
-1.36348e-06 -0.00121844 -3.59266e-05 -1.22893e-06 -2.76766e-06 -2.1249e-06 1.69647e-06 -4.62923e-06 -7.79352e-07 
2.20145e-07 -1.58847e-06 -5.58102e-07 1.76143e-06 -3.27693e-05 7.3645e-06 -1.75125e-05 -1.68036e-05 -8.66174e-05 
5.45662e-05 -2.35854e-05 -1.19547e-05 1.02717e-06 5.85462e-07 9.46327e-06 -1.51338e-06 -4.25859e-06 -3.92849e-06 
-4.49497e-06 1.47279e-05 -2.66233e-05 -7.43164e-05 -1.12361e-05 8.19925e-07 1.03403e-06 9.50821e-07 -2.69203e-06 
-3.62758e-06 -6.95237e-06 1.00519e-05 2.75631e-05 -7.80942e-07 -0.00370261 -5.16724e-06 0.00218243 4.87442e-06 
-7.65346e-06 -3.84366e-06 6.7854e-07 -0.000146829 -0.0216811 5.47964e-05 3.84834e-05 8.62894e-07 1.32552e-06 
-1.15436e-06 1.3689e-05 -1.63878e-06 -0.0179385 0.0177681 -4.02549e-06 6.87918e-09 -5.68294e-07 2.25948e-05 
9.69345e-07 -5.43433e-06 1.3098e-05 1.36269e-06 -4.63837e-06 1.55364e-05 -3.62271e-07 -3.64882e-06 1.46921e-06 
5.79414e-06 -2.03135e-06 -0.0221475 8.91535e-05 -4.09487e-06 -6.93941e-05 -4.08488e-07 3.12686e-05 1.98611e-05 
-9.25538e-08 -5.12928e-05 0.00426571 -5.25665e-06 9.66071e-06 -1.26508e-05 1.59076e-05 -5.48696e-06 2.51614e-06 
-1.79133e-05 -4.66888e-05 -1.21585e-05 -3.10236e-05 -8.89975e-07 -1.86535e-06 8.15225e-06 1.36928e-05 -3.17232e-06 
7.22643e-06 1.3149e-05 -0.0255744 -6.78191e-05 4.07639e-05 0.0216448 0.0255081 -7.48434e-07 7.64508e-05 
-0.000290493 -2.28988e-06 2.31397e-05 7.33796e-07 -1.03475e-06 2.10173e-07 9.96655e-07 1.11243e-06 1.44598e-06 
-4.22148e-07 -1.10879e-05 -1.4686e-06 0.0010685 0.000267267 -0.00285658 -8.16177e-05 -5.73401e-05 -2.62389e-05 
0.000128397 4.09322e-05 7.08369e-06 -3.66946e-06 1.27174e-06 1.74437e-06 1.87142e-06 -0.00346445 -0.000273827 
0.000131498 -1.44757e-06 -7.86033e-07 -5.2677e-06 2.55074e-06 -6.01797e-07 1.37488e-06 -2.198e-05 -0.0217885 
1.98898e-05 0.0217366 -4.747e-08 2.18163e-06 0.00418872 -3.78161e-05 -3.43393e-06 6.73913e-06 8.0455e-06 
8.48258e-06 -2.67553e-05 3.90152e-06 2.40412e-05 1.28535e-05 1.01583e-05 -2.76241e-05 6.36318e-06 3.87346e-05 
3.34942e-06 2.34021e-05 3.34374e-07 -0.000263457 9.64838e-05 7.07609e-07 4.10982e-06 3.94488e-06 -0.00394186 
2.45494e-05 -2.17176e-05 1.64887e-05 -1.30132e-05 -3.80486e-05 -1.29221e-05 5.10715e-07 3.2583e-06 -1.45777e-05 
0.0181371 2.72641e-06 2.66774e-06 0.0177428 -0.00482705 -3.27393e-07 -1.06908e-06 -0.000105981 -1.31883e-05 
-0.00995789 2.661e-05 4.5885e-05 1.09029e-06 -1.23164e-06 -1.3363e-06 -0.000147079 7.6522e-05 0.00164006 
-1.52849e-05 -5.81909e-08 1.66016e-05 -1.84502e-05 -4.74195e-06 -1.38826e-05 5.30088e-08 7.29344e-06 1.34421e-06 
-1.19468e-06 1.44047e-06 2.97931e-08 -2.20286e-06 -8.62215e-07 -2.09404e-06 -9.53574e-07 1.88499e-06 1.36398e-06 
4.22174e-05 -1.60954e-05 2.09873e-06 8.22958e-06 3.00948e-06 -2.09356e-05 2.5588e-05 8.25151e-05 6.94754e-05 
-4.10155e-06 -1.18475e-05 -1.60707e-05 3.21122e-06 0.00143582 -1.78908e-06 -1.90367e-06 -2.041e-06 -1.46689e-06 
-8.61397e-06 7.73581e-06 -2.14138e-05 1.80251e-06 1.59583e-05 -4.11641e-05 -2.70565e-05 -3.06198e-06 1.39483e-06 
-1.81751e-05 1.8418e-05 -2.6207e-07 -4.52131e-06 -2.29685e-06 4.63809e-07 -8.25777e-06 8.22627e-07 1.41652e-06 
1.38757e-06 -4.91581e-06 -1.21599e-06 -8.5159e-07 4.71366e-06 1.37954e-06 -1.65791e-06 -1.28399e-05 -1.6879e-07 
-1.45212e-06 3.15831e-07 1.7334e-06 2.90215e-07 2.66456e-05 1.29636e-06 -2.38237e-05 -1.27688e-06 2.87723e-06 
-1.33156e-05 -8.66527e-06 2.35186e-06 -5.03976e-06 -5.97898e-06 -2.76193e-06 -1.19825e-07 -4.97296e-06 2.61213e-06 
-3.67821e-06 0.000181532 -5.32645e-07 -0.00343788 1.64276e-07 3.82997e-06 -0.000780355 -0.00409548 0.00442052 
-2.75514e-05 -4.8179e-05 6.70637e-05 7.66792e-05 -2.3133e-06 -0.00183778 -0.00763491 -0.00202881 4.31366e-05 
2.46345e-05 8.72901e-06 -6.31426e-06 4.38084e-05 -0.0164839 -6.25369e-07 -5.12666e-07 0.000155243 0.0161608 
0.0043682 6.05666e-07 -2.13577e-06 -6.8021e-06 -3.63191e-06 5.30099e-05 -4.1398e-05 -7.56752e-05 1.71187e-05 
4.98847e-06 1.62788e-05 -7.82126e-06 0.0215655 -4.27652e-06 -0.000343411 7.55999e-07 -7.08323e-06 -2.90533e-06 
1.77968e-05 6.3807e-06 1.11047e-05 5.45067e-05 -1.37644e-05 -5.99625e-06 -2.84618e-06 -1.02794e-06 1.80284e-06 
-1.52338e-06 -2.49086e-05 2.57129e-06 6.71617e-05 5.57035e-06 -0.00056363 -4.77297e-05 0.000113047 -1.92084e-05 
0.000122112 0.000108314 2.86494e-06 3.6039e-05 3.14948e-05 4.39997e-06 -2.77309e-06 2.62557e-06 -1.45269e-05 
6.16252e-06 7.69193e-05 -1.93908e-06 -3.35445e-06 -2.08989e-06 7.10988e-07 -3.57581e-06 1.05057e-06 -1.7449e-06 
3.8868e-06 0.0355859 -0.00332422 -0.000223819 1.99338e-05 -4.34629e-06 -1.40412e-05 1.16625e-05 -3.40755e-06 
-6.4387e-06 -1.06617e-06 5.10335e-07 7.06751e-06 -1.43421e-06 -2.78551e-06 -1.32886e-06 3.90553e-05 -1.43103e-05 
2.41194e-05 3.84002e-05 2.2316e-05 1.22248e-05 1.78283e-06 -1.3468e-06 -4.38299e-06 -0.00422553 4.54388e-06 
1.41749e-07 4.38977e-06 -7.62907e-06 -2.90824e-06 0.000223189 -7.82606e-06 1.7481e-06 4.12551e-07 -1.62027e-05 
-5.81665e-06 2.16121e-06 -2.26317e-05 8.03112e-07 -0.00364375 0.000265123 3.92397e-06 -4.85223e-05 2.01503e-05 
-2.46846e-05 -5.08983e-05 -1.46732e-05 -3.10799e-05 2.62106e-05 -0.000364467 2.50686e-06 -8.93172e-06 4.70993e-06 
4.44474e-05 6.51476e-07 5.08799e-06 -6.67635e-05 1.20994e-06 -1.09289e-06 1.32854e-06 -4.34386e-07 -3.27262e-06 
1.99845e-06 -0.00596606 1.14702e-06 -0.00165129 -0.00226736 -2.32072e-07 -4.10388e-05 -0.0106601 -1.61497e-06 
-2.326e-06 1.33374e-06 0.000140425 0.000193482 -6.88874e-06 4.45483e-07 -0.000679215 -3.53044e-06 -3.75861e-06 
-7.50335e-08 -8.24636e-06 7.75842e-06 -5.77462e-05 2.36852e-05 3.36249e-05 -1.42097e-05 -7.03158e-05 -6.31691e-06 
3.42974e-06 -1.01437e-05 -2.10032e-05 -3.89157e-06 9.74179e-07 -1.99375e-06 -3.35055e-06 -2.57777e-05 3.63054e-06 
-7.92049e-05 -2.67325e-06 -5.7967e-05 4.83571e-05 -2.96103e-06 7.85559e-06 0.00340647 9.48051e-07 -4.02137e-06 
-4.16951e-06 2.05871e-05 -1.92415e-06 -5.6896e-05 3.16626e-06 -0.00335545 -6.89123e-07 -1.09724e-05 -1.02108e-05 
-1.83838e-06 -7.75599e-07 -2.96368e-06 -5.52703e-06 -1.84576e-05 1.38666e-05 1.98284e-06 5.97562e-06 -4.04431e-06 
4.8767e-06 8.47407e-06 -3.27618e-06 -5.25426e-06 -2.60182e-06 -5.46464e-06 -1.42735e-06 1.98291e-06 -4.76183e-06 
-5.01626e-06 3.44384e-06 4.53446e-06 -4.00674e-07 4.03647e-06 -8.56503e-07 -4.93801e-06 -1.39096e-05 1.05705e-06 
-1.73872e-06 6.73983e-06 -1.24254e-05 8.00211e-07 -1.26721e-06 -3.28136e-06 1.30946e-06 -2.61772e-06 -6.21717e-05 
-0.00417021 -0.0216521 2.13131e-06 -3.76182e-05 -8.60775e-05 -2.65805e-05 -1.20991e-05 -7.17309e-06 1.51457e-06 
-1.007e-06 -2.33148e-06 1.62775e-06 1.28645e-06 1.10996e-06 -9.87347e-07 4.76403e-06 1.54318e-05 8.66752e-06 
-1.40423e-06 -0.000294299 -1.91023e-06 1.66929e-06 -0.0180079 -2.37773e-07 3.18877e-05 -1.04793e-06 0.0240923 
-0.00932327 0.0236021 -3.75755e-06 3.7786e-06 -3.83396e-07 -2.45556e-05 -3.06689e-06 7.67556e-06 -1.57905e-05 
3.1651e-05 -0.00962207 0.0266084 8.35423e-06 -1.46747e-05 3.80569e-05 -2.64575e-06 3.97794e-07 -1.40622e-06 
9.97823e-07 -0.00951856 -0.000112526 0.0041932 -0.00431908 -5.19987e-06 -0.00467852 0.0058211 0.00507701 
5.63538e-07 -1.19061e-05 5.32695e-06 -2.95915e-07 1.24422e-06 2.55329e-05 -7.86032e-07 2.21009e-06 -3.21893e-06 
-1.85898e-07 4.17453e-05 4.2516e-05 4.09135e-06 -3.62079e-05 8.12127e-06 -1.58747e-05 2.47033e-05 1.91688e-06 
6.26419e-07 -0.000193688 -1.95892e-06 -1.68273e-06 1.07997e-06 1.78801e-07 -2.63237e-05 -0.00373256 -1.26582e-06 
-0.000114199 1.75501e-05 3.27664e-06 2.64019e-06 0.000107694 4.39277e-07 8.48553e-06 -2.5671e-06 1.78187e-05 
-9.22625e-07 3.54436e-05 -4.58373e-06 -2.38517e-06 -9.91875e-08 -3.75563e-05 4.02695e-05 -2.27525e-06 -0.00410758 
0.022519 2.09222e-06 -1.96279e-05 4.23974e-05 -1.29606e-05 -0.000113746 2.89839e-06 -4.52178e-06 7.97556e-08 
6.24388e-06 -1.12412e-05 1.39026e-05 1.08453e-06 2.30134e-07 -7.28505e-07 -4.70053e-06 -8.91457e-05 4.96814e-07 
1.49356e-06 2.32201e-05 2.42403e-05 8.06618e-06 -1.18422e-06 -0.0269341 -0.0180903 
Stress%20zz%20component 1 12526 double
0.402676 0.496212 0.447979 0.602943 -1.50591e-05 -3.3768e-06 -1.32388e-05 -3.67972e-06 -0.00339308 
0.000566141 0.0668656 -0.0106974 -0.000237848 0.0168711 0.0571787 0.00963849 0.163603 0.147882 
0.148504 0.12665 0.15868 0.167913 0.163815 0.162928 0.161919 0.159693 0.161014 
0.161075 0.161697 0.161247 0.162131 0.161224 0.160949 0.161837 0.160405 0.161668 
0.162207 0.163078 0.165332 0.167112 0.172081 0.180045 0.182265 0.190864 0.222341 
0.218797 0.201551 0.165411 0.165167 0.163335 0.163848 0.16089 0.158909 0.161313 
0.162028 0.161091 0.163539 0.161936 0.162175 0.161429 0.161259 0.160018 0.163069 
0.162015 0.163758 0.166793 0.17237 0.178961 0.174707 3.69437e-06 3.10041e-06 4.2209e-06 
4.78352e-06 4.09016e-06 4.16752e-06 4.12264e-06 3.0134e-06 3.77393e-06 -1.55626e-06 -3.41446e-06 -6.3965e-07 
4.40734e-07 7.77776e-07 7.06428e-07 8.92602e-07 1.43063e-06 2.91177e-06 1.41157e-06 -9.49495e-07 -5.43123e-06 
-5.10188e-06 -3.32418e-06 -2.58074e-06 -2.16052e-06 8.13629e-06 7.88483e-06 -0.0897835 0.000767044 -0.000147323 
-0.000119618 -7.96972e-05 -5.03837e-05 -3.46965e-05 -2.76533e-05 -1.0557e-05 -1.41286e-05 -1.3078e-05 -2.3106e-06 
2.40689e-06 3.32743e-06 5.33828e-06 4.27763e-06 2.51082e-06 -1.55342e-05 -1.87221e-05 -2.14918e-05 -2.5913e-05 
5.51109e-06 3.12389e-05 4.01674e-05 2.54224e-05 1.41123e-05 8.71914e-06 7.87356e-06 1.82486e-06 -3.10569e-06 
-5.73435e-06 -5.793e-06 -3.25657e-06 -2.30573e-06 -1.29794e-06 -2.55357e-06 -3.01956e-06 -2.84083e-06 -3.38204e-06 
-4.04786e-06 -3.90082e-06 -1.84245e-06 1.09112e-06 5.14848e-06 6.81913e-06 1.55216e-06 4.53844e-06 2.03734e-06 
3.0653e-07 -7.89183e-07 -2.46068e-06 -2.91769e-06 -4.21505e-06 -6.22917e-06 -7.87553e-06 -2.76874e-06 -5.07843e-06 
-4.5161e-06 -3.0775e-06 -7.36454e-06 -1.45347e-05 -1.93212e-05 -3.80265e-05 -4.3021e-05 -6.8333e-05 1.83346e-05 
5.66842e-05 -8.46798e-06 2.95395e-05 9.96373e-05 5.27465e-05 -2.99743e-05 2.04339e-05 -1.41772e-05 7.58931e-06 
-2.19465e-05 -1.22672e-05 -7.73945e-06 -1.81288e-05 -1.67096e-05 -1.21162e-05 -1.77455e-05 -2.83717e-05 6.46589e-06 
5.50653e-05 0.000119667 0.000120051 0.000722565 0.00454876 -0.038966 -0.0134556 -0.0298511 0.00301336 
0.00959864 0.00124982 0.00348671 -0.000787192 0.0136803 0.0440121 0.0452775 0.0444031 0.0289807 
-0.0275258 0.0064027 -0.00903763 0.00757216 0.000294002 -0.000825882 0.021631 0.026668 0.0421961 
0.045942 0.0581804 0.0454698 0.00791662 0.00720198 1.42083e-05 9.23516e-06 -2.25997e-06 -1.50024e-06 
-2.73513e-06 -3.72041e-06 -3.9703e-06 -4.24582e-06 -3.03539e-06 -1.30013e-06 3.08076e-06 -4.41072e-06 1.2397e-06 
6.37856e-07 -1.27663e-06 -1.47942e-06 -2.64662e-06 -2.14081e-06 -3.15407e-06 3.06314e-08 3.51631e-06 4.34051e-06 
4.43296e-06 3.0724e-06 3.9868e-06 1.00766e-05 -5.35957e-06 -0.178492 0.00907425 0.000599967 3.85587e-05 
2.12269e-05 2.24811e-05 1.13826e-05 2.98755e-06 1.23735e-05 2.13057e-05 5.55821e-06 7.57361e-06 1.32944e-05 
1.31294e-05 1.69614e-05 2.09898e-05 2.20053e-05 1.27895e-05 4.40411e-06 8.07183e-06 1.44798e-05 2.84468e-05 
2.11416e-05 1.66858e-05 -8.26611e-06 -1.57023e-05 -1.64233e-05 -6.11068e-06 -7.71673e-06 -2.94873e-06 -8.81649e-07 
1.21248e-06 2.64258e-06 7.21977e-06 5.76308e-06 3.33557e-06 2.36948e-06 3.10152e-06 3.85223e-06 4.19345e-06 
3.82816e-06 3.78565e-06 2.50108e-06 8.59083e-07 1.75145e-06 -3.78232e-06 5.02978e-06 3.17174e-06 3.80704e-06 
4.2413e-06 5.24943e-06 6.13679e-06 6.53061e-06 6.82758e-06 1.21714e-05 -5.06289e-07 1.0463e-05 -4.50148e-06 
9.4588e-06 2.18965e-06 -2.0705e-05 4.08157e-06 1.58899e-05 4.59082e-05 5.52556e-05 4.73757e-05 2.59217e-05 
1.15022e-05 6.83081e-05 -5.73142e-05 -8.43889e-05 -4.16555e-05 -3.98917e-05 -2.206e-05 -9.94924e-06 8.66461e-06 
6.85494e-06 9.00196e-06 1.0587e-05 2.32736e-05 9.01281e-06 5.95322e-07 3.65044e-05 -6.20672e-05 -2.99781e-05 
-6.16024e-05 -0.000122716 -0.000300078 0.00062508 -0.13813 0.0111252 0.056987 0.0458384 0.0424607 
0.0484063 0.0487378 0.0458393 -0.00210219 0.000564994 0.000718131 0.00158741 -0.0127988 0.0156133 
-0.0248103 0.0148082 0.0584742 0.0447779 0.0449384 0.0450839 -0.00407574 -0.000167268 0.00252541 
0.00220751 0.00396089 -0.0393843 -0.0168029 -5.80259e-06 -1.77158e-06 -2.90719e-06 -8.46265e-07 -2.38083e-06 
-1.81646e-06 7.26372e-07 -2.39211e-06 -2.17874e-06 4.53203e-06 2.12852e-07 4.50493e-06 1.65361e-06 5.14944e-07 
6.19963e-07 5.69399e-07 -6.10733e-07 1.21286e-06 1.2475e-07 1.03135e-06 3.69921e-06 1.7904e-07 2.22019e-06 
-8.20554e-07 -1.80727e-06 -1.79873e-06 -1.5939e-07 -0.00423629 0.00026253 5.5482e-05 3.91929e-05 1.32539e-05 
-4.84334e-07 1.10997e-05 9.98573e-06 1.26165e-05 1.67917e-07 7.36123e-06 1.10637e-05 6.98469e-06 8.34665e-06 
5.70106e-06 8.71957e-06 1.33148e-05 9.43699e-07 -9.72353e-06 2.44206e-05 -2.86197e-05 -1.23917e-05 -3.77279e-06 
-1.59179e-06 -7.49234e-06 3.89854e-06 -1.71373e-05 3.07763e-06 3.45283e-06 4.56634e-06 3.35357e-06 2.02875e-06 
3.36025e-06 2.88195e-06 2.23179e-06 -2.62444e-07 8.69339e-07 3.21484e-06 2.2989e-06 1.97873e-06 8.53776e-07 
-2.74516e-07 5.92009e-07 8.39786e-07 -4.94044e-06 -1.28966e-06 -1.11087e-06 -4.21427e-07 -1.38851e-06 -1.04122e-06 
-5.97696e-07 -2.81171e-07 8.49756e-07 6.8322e-06 -1.01246e-06 1.02594e-05 7.47728e-06 6.83784e-06 -7.4182e-06 
2.21663e-05 3.08034e-05 2.33525e-05 -1.3798e-05 1.92756e-05 -1.45361e-05 -5.37606e-05 -2.17856e-05 -1.28854e-05 
3.83829e-05 6.18665e-06 1.29549e-05 -1.80348e-06 3.73738e-05 4.17166e-06 1.47685e-05 5.23505e-07 5.42753e-06 
9.54808e-06 -6.2576e-06 -2.10432e-06 -4.71384e-06 3.92882e-06 -3.8098e-05 -5.91406e-05 0.000173014 0.00096368 
-0.0279983 -0.0636499 -0.0581382 -0.0559314 -0.0538274 -0.0402731 -0.0340401 -0.0341542 -0.0334686 
-0.0330092 -0.0338648 -0.0334597 -0.0333435 -0.034185 -0.0347243 -0.0341246 -0.0333777 -0.0332535 
-0.0328627 -0.0334281 -0.0334902 -0.0332399 -0.0335317 -0.0338846 -0.0358136 -0.0395532 -0.059147 
-0.0324735 -0.0336729 -0.0329539 -0.0292896 -0.0291071 -0.0287167 -0.0304016 -0.0306092 -0.0303088 
-0.0302187 -0.02928 -0.0441452 -0.0483569 0.0183854 -0.00787937 -0.00623063 -0.00675956 -0.0301559 
-0.0336369 -0.034878 -0.0303736 -0.0302096 -0.0310987 -0.0306622 -0.0307651 -0.0303039 -0.0306871 
-0.0414191 0.0163273 -0.00868156 -0.00306137 -0.00598688 -0.00302484 -0.000497966 8.02472e-07 2.04832e-06 
1.48352e-06 1.20041e-06 5.00733e-07 1.26429e-06 -8.19137e-07 -4.27392e-07 -1.86494e-06 -8.36317e-07 -2.53462e-06 
-9.09019e-07 -1.4092e-06 -6.92851e-07 -6.05435e-07 -4.31823e-07 -3.02788e-07 2.32089e-07 -9.08287e-07 4.19819e-07 
-6.84199e-07 1.33244e-06 1.49125e-06 -2.00738e-07 0.00273876 -0.000591305 -3.6903e-05 1.64359e-05 8.45738e-06 
1.48334e-05 6.69793e-06 1.34392e-05 2.07673e-05 -1.94807e-05 1.0435e-05 1.03015e-05 -8.09264e-06 -5.8283e-06 
-7.94805e-06 -1.07129e-05 -1.13559e-05 -2.55479e-05 -3.81571e-06 2.56075e-05 -1.76817e-05 2.72907e-05 2.74215e-05 
-2.41642e-05 5.77535e-05 -2.05434e-05 -1.70447e-05 -2.36283e-06 -9.17291e-06 -1.49963e-06 -3.40957e-06 -2.328e-08 
4.15559e-06 -5.52957e-06 -2.37001e-06 -2.49643e-06 3.30309e-06 2.6761e-06 -8.389e-07 -5.24836e-07 1.45448e-06 
1.67685e-06 1.87684e-06 7.09222e-08 -0.000174137 0.00175885 1.22476e-06 1.62389e-07 -9.88809e-07 -3.12618e-07 
-1.19899e-07 -1.25465e-06 4.64449e-06 1.21433e-06 -1.12033e-06 -1.67298e-06 -8.68518e-07 -4.03547e-06 -2.24861e-06 
1.11359e-06 -3.21802e-06 -3.18524e-06 9.92558e-06 1.08272e-05 -4.301e-05 2.18556e-05 -4.45086e-05 1.80906e-05 
4.68445e-05 -1.44183e-05 -6.66253e-05 -3.42384e-05 -1.50607e-05 7.12862e-06 -7.33499e-06 -9.70609e-06 6.30588e-07 
1.17399e-05 -1.14449e-06 1.45473e-05 2.58459e-05 -2.85231e-05 4.76529e-05 -3.70658e-05 2.82781e-06 5.19831e-05 
3.58008e-05 -0.00127286 -0.0015143 0.0019647 0.00372268 0.00222082 0.00181709 0.0019144 0.00192782 
0.00198749 0.00185954 0.00202431 0.00199724 0.00196231 0.00179501 0.00175599 0.00168958 0.0017714 
0.00170247 0.00171202 0.00171577 0.00201739 0.00212041 0.00270521 -0.000490485 -0.000435435 0.00193817 
0.00164596 0.00153058 0.00146497 0.00186016 0.00231678 0.00219366 0.0022298 0.00189721 -0.000390171 
-0.000953071 -1.9137e-05 -0.000819803 -0.000158849 0.000266441 0.00235367 0.00302729 0.00320931 0.0022438 
0.00256584 0.00206425 0.0020533 0.00181799 0.00179747 0.00204784 0.000407808 0.000399541 0.000774934 
7.3699e-05 5.03868e-08 -0.000165086 4.82863e-05 0.000109784 -1.65451e-05 6.76071e-05 2.38985e-07 8.50024e-07 
-2.36338e-06 -4.37093e-07 -1.03293e-06 2.57066e-08 7.50666e-07 2.66507e-07 5.26027e-07 -1.78319e-07 6.04711e-08 
-4.77295e-07 1.69562e-07 3.69287e-08 -6.65347e-08 -4.74111e-07 -4.60438e-08 2.3428e-07 8.13904e-07 2.34317e-06 
-5.3326e-07 7.66548e-06 0.000144989 -5.07055e-05 -4.18498e-05 2.91389e-05 -1.98518e-05 1.47141e-05 -2.32059e-05 
-6.79796e-06 -9.24836e-06 5.46596e-06 -5.25828e-06 -3.81488e-06 -2.34458e-06 -1.54421e-06 1.96021e-06 1.49866e-05 
-1.2175e-05 -9.26317e-06 -7.27422e-06 7.93227e-07 3.50979e-05 -2.58531e-05 1.22722e-05 -7.57596e-05 1.55962e-05 
7.04834e-06 2.96222e-06 -5.54179e-06 -4.92772e-06 9.80718e-07 -4.33476e-06 -1.61712e-06 3.81829e-08 4.69966e-07 
-5.0856e-07 -1.02117e-06 -5.34514e-07 -4.44421e-07 6.83745e-08 5.16998e-07 1.19632e-06 1.17837e-06 -4.30611e-05 
0.000107957 4.96926e-05 -5.7699e-07 -1.35226e-07 -3.00841e-08 -1.70702e-06 -3.04391e-08 2.22643e-07 7.06172e-07 
-2.33538e-07 3.98714e-07 -2.64145e-07 8.71361e-08 1.56251e-06 -2.50649e-06 -3.87862e-05 2.16709e-05 -3.60797e-05 
-9.77429e-06 7.18662e-06 3.31674e-05 8.69882e-06 1.55376e-05 -4.3645e-05 1.9801e-07 8.68235e-06 -1.12645e-05 
-1.22025e-06 9.31912e-06 1.00067e-05 1.47257e-05 -4.36055e-06 -2.80025e-06 7.52469e-07 2.96686e-06 7.02353e-06 
-5.43113e-06 -8.38628e-05 5.46676e-05 0.000115564 -1.28167e-05 0.000356458 -0.000108921 0.000218018 0.000168881 
9.43343e-06 8.33359e-06 4.53675e-05 8.60623e-05 5.46503e-05 8.3366e-05 9.1376e-05 6.93874e-05 5.83034e-05 
7.28735e-05 8.41027e-05 6.96606e-05 0.00010326 0.000107322 0.000118256 0.000115172 0.0001673 0.00017737 
0.000187907 6.51236e-05 -3.27e-06 -2.41058e-05 -1.03892e-05 3.0777e-05 8.17112e-05 0.000306591 0.000127611 
2.55818e-05 -8.44893e-05 4.39227e-05 2.09052e-05 -6.73782e-05 0.000116218 -4.46244e-05 -5.08161e-05 -2.55256e-05 
1.54296e-05 6.48012e-05 9.16712e-05 0.000102657 0.000145194 0.000176628 -5.63736e-05 -7.93523e-07 7.95907e-05 
0.000134307 -4.73023e-07 9.43632e-05 0.000133368 9.05508e-06 0.000381676 0.000117551 -3.44535e-05 -3.56731e-06 
-4.0669e-05 2.80029e-06 8.02528e-07 1.16042e-06 -4.81618e-07 3.66692e-07 5.52394e-07 2.31383e-07 8.73964e-07 
-4.30976e-07 -2.10211e-07 -1.03814e-07 -7.60834e-08 2.75169e-07 7.82178e-08 -2.90314e-07 2.80251e-07 -9.8559e-10 
2.55122e-07 -2.1249e-07 1.04887e-05 4.85128e-06 2.22381e-05 3.05132e-06 -2.00818e-05 3.18537e-05 -1.40557e-05 
1.09824e-05 -5.43699e-06 4.12342e-06 -5.73682e-06 -6.45558e-06 -1.7997e-06 -1.25157e-06 -4.57095e-06 3.82363e-06 
-2.62717e-05 -1.46236e-05 -3.03029e-05 1.15423e-05 -1.79361e-06 -3.60577e-06 5.69302e-07 6.86247e-07 2.75246e-07 
2.76328e-07 1.11635e-06 3.57078e-07 -3.17402e-07 -7.93203e-07 -1.04793e-06 -3.96228e-07 2.68135e-06 3.20342e-08 
2.77557e-05 -1.5218e-05 -1.60629e-05 1.15643e-06 5.72439e-06 -8.37183e-07 7.28602e-07 8.65539e-07 -9.40544e-07 
-8.841e-07 -6.12541e-07 8.49478e-07 3.00035e-06 -1.03637e-06 2.97445e-05 2.57525e-05 -2.77405e-05 5.25712e-05 
-2.84521e-06 -2.57753e-06 -3.66425e-06 4.26745e-06 3.78018e-06 2.80051e-06 1.89399e-05 -3.85247e-07 -1.92437e-06 
1.07811e-06 6.94146e-06 2.65901e-05 -9.74302e-05 6.35964e-05 6.09668e-06 -2.21259e-05 2.95995e-06 9.5585e-05 
-6.71959e-05 -1.17736e-05 1.53548e-05 -1.41593e-05 -1.08049e-05 -8.43776e-06 -6.58926e-06 -5.5836e-07 -3.11598e-06 
-9.17791e-06 -1.25866e-05 -9.72461e-06 8.98104e-06 -3.40822e-07 3.98218e-08 -2.45467e-05 1.79859e-05 1.26724e-05 
-2.79854e-05 9.03463e-06 -8.43384e-07 1.8066e-05 2.54007e-05 1.52319e-05 1.52939e-07 2.50326e-05 -4.38929e-06 
1.04057e-06 2.74575e-05 -7.93609e-05 -2.275e-05 -1.2387e-05 7.00259e-06 2.89508e-05 4.47814e-06 3.30106e-06 
-1.11307e-05 -1.1045e-05 1.04068e-05 1.93101e-05 -1.59288e-05 5.89933e-06 -8.41001e-07 1.9474e-06 -1.23439e-06 
1.09975e-06 6.75597e-07 2.57593e-07 5.65449e-07 -1.62464e-07 9.60313e-07 -2.84705e-07 5.6996e-08 -2.09679e-07 
-7.28843e-08 1.79818e-07 -8.96633e-08 8.92899e-07 -5.43691e-05 1.23859e-06 2.97032e-05 -1.20752e-05 2.89505e-06 
1.22457e-05 -3.08767e-06 8.56554e-06 2.27118e-06 2.61831e-06 3.31302e-06 -9.44697e-07 1.936e-05 -5.51574e-06 
1.44424e-05 -1.11005e-07 -5.20851e-07 -2.96486e-06 -1.55845e-06 3.13439e-06 4.88369e-07 -7.00998e-07 -1.06966e-06 
-7.38073e-07 -1.5502e-06 -2.65362e-06 2.67378e-07 5.09904e-07 5.29196e-06 6.99349e-07 -1.14804e-06 8.48184e-07 
-6.57799e-07 2.25551e-06 -1.4578e-06 -3.08709e-06 -2.09711e-06 3.59707e-07 -3.88589e-06 -2.90198e-05 8.40953e-06 
1.10182e-06 -8.65296e-07 1.34518e-05 2.93843e-06 1.19223e-05 -9.36358e-06 -1.77438e-05 -9.51613e-06 -6.18309e-06 
4.88318e-05 -4.71225e-06 1.71519e-05 -2.35374e-06 -5.46645e-06 1.02906e-05 -1.16877e-05 -4.96378e-06 1.69183e-05 
2.92797e-06 1.87305e-05 -2.0666e-05 1.62841e-05 -1.86521e-06 -9.75336e-06 -7.65736e-06 2.6651e-06 1.04032e-05 
4.1068e-06 -1.11237e-05 -7.22249e-07 5.06358e-06 -4.83725e-05 5.15348e-06 -1.10984e-05 -1.81269e-06 4.83913e-07 
1.43714e-05 -4.35616e-06 -5.07144e-06 -1.1419e-05 1.44717e-05 6.35948e-07 -1.53292e-05 2.65606e-05 -1.02558e-05 
1.57969e-05 -1.56938e-06 -4.73406e-06 -6.16698e-06 6.28114e-06 1.75514e-06 -5.16522e-07 -7.45469e-07 1.7123e-06 
2.60582e-06 1.73213e-06 3.50501e-07 -1.96096e-07 2.62255e-07 -4.79253e-07 -6.88085e-07 4.19636e-06 1.91716e-06 
2.17272e-06 2.28753e-05 -6.04467e-06 -2.42504e-06 -5.30922e-06 3.82437e-06 2.69994e-06 -1.61676e-07 1.2037e-05 
-7.53723e-06 -2.33571e-06 8.22629e-07 -1.18135e-06 1.44616e-06 -1.58275e-06 -9.47431e-07 -3.42883e-06 -4.13861e-06 
1.71007e-05 4.71185e-06 -7.63272e-06 -2.29553e-06 -1.48719e-06 -6.3316e-07 -1.01062e-06 -9.77836e-07 4.5958e-07 
3.01464e-06 1.25828e-05 -1.28255e-05 -4.39381e-06 -2.22618e-06 2.73588e-06 -1.99605e-05 2.56181e-06 -1.27558e-05 
-1.41088e-05 -3.53666e-06 2.62458e-05 7.70799e-06 8.06444e-06 -4.89986e-05 4.44346e-06 -2.98923e-05 -1.09419e-05 
3.62672e-05 -3.56482e-05 -1.16831e-06 8.72287e-06 -1.31265e-05 -2.13079e-06 -1.15677e-05 -2.0082e-06 -4.07506e-07 
3.73388e-06 4.56461e-07 6.49228e-06 8.99931e-06 -2.08037e-06 1.27753e-06 -1.2219e-06 -2.05096e-05 -4.47631e-06 
2.65251e-05 -1.64309e-06 -1.20368e-06 1.55578e-06 -8.99545e-07 1.14167e-06 7.21904e-07 -8.1901e-07 2.71218e-07 
-4.56512e-06 2.6195e-08 -4.35166e-06 1.80677e-06 -4.19583e-06 -2.63961e-08 -2.01593e-05 -6.64974e-06 3.63489e-06 
2.26472e-06 -1.0408e-06 2.42706e-06 1.19842e-05 -9.74731e-07 7.35342e-07 -5.35168e-06 -5.70629e-06 6.86094e-06 
9.07157e-06 1.30442e-05 8.1791e-06 1.89512e-05 -1.53077e-05 -1.15979e-05 -1.35562e-06 -8.84331e-06 1.01521e-05 
1.3215e-05 9.15049e-06 4.69772e-06 -5.38572e-05 -1.10616e-05 -1.16828e-06 -1.78482e-06 -3.11714e-05 1.12306e-05 
-6.27422e-06 1.92902e-06 -3.30045e-06 -2.19011e-06 -3.40278e-08 -8.77586e-06 -3.28602e-06 6.60492e-06 1.71454e-05 
-3.58312e-06 -5.43472e-06 -1.4894e-05 1.90275e-05 3.98533e-06 3.10709e-06 -5.65696e-06 1.01249e-05 -5.71548e-06 
-1.46195e-06 1.91244e-07 -3.01229e-06 -8.86484e-07 -5.03731e-06 1.77036e-05 1.05256e-05 -2.839e-05 -3.95811e-06 
5.68979e-07 -2.30752e-05 1.23072e-06 -5.01709e-06 -3.83508e-06 2.22306e-05 6.49269e-06 -3.70768e-06 -9.1288e-06 
2.65745e-05 1.02281e-05 -8.51823e-06 -5.08121e-06 -6.41168e-06 -5.70171e-07 -5.50334e-07 -1.01197e-06 2.25623e-06 
2.85424e-06 -2.97073e-07 1.3994e-06 2.59538e-06 3.88501e-07 -1.11761e-06 2.77558e-07 -2.41142e-07 3.10574e-07 
1.56283e-06 -9.33028e-08 2.39032e-06 3.66955e-07 3.69329e-07 -7.44799e-07 -2.2909e-06 -7.41826e-07 -1.84806e-06 
-2.50675e-06 -8.90812e-07 7.15916e-07 2.43256e-06 -0.0260043 0.000295512 6.73659e-05 3.85345e-06 7.98111e-06 
1.02756e-06 5.01566e-06 1.05848e-05 -1.85657e-05 1.1221e-05 1.50955e-06 -8.25521e-06 -8.11015e-06 -6.57999e-06 
-1.09857e-05 -4.49848e-06 -8.41534e-06 2.86533e-05 -7.4553e-07 -5.82478e-06 -4.56196e-06 -1.33412e-06 -1.30716e-05 
-3.01977e-05 -3.2737e-06 2.37021e-06 1.23201e-05 1.01485e-05 5.64499e-06 3.45773e-06 3.1044e-06 3.83403e-06 
-3.31516e-06 -7.82357e-07 -2.37249e-06 2.41451e-06 3.4222e-07 -2.53065e-06 -2.78467e-06 -2.32476e-06 -1.31737e-06 
-2.16014e-06 -2.77222e-07 -4.07581e-07 -3.48387e-06 -1.4547e-06 -7.72732e-07 -7.44649e-08 2.50077e-07 -4.72922e-07 
5.06665e-07 -3.99512e-07 -1.73395e-06 -2.83282e-06 -1.86466e-06 -3.82942e-06 4.9662e-06 9.72703e-06 6.74322e-06 
-2.30788e-07 -2.02007e-05 -3.46409e-05 -4.13582e-06 -4.20003e-06 -4.25117e-05 1.7891e-05 5.25443e-06 -9.33e-06 
-2.20287e-05 2.27218e-05 1.46476e-05 3.35142e-06 -1.21213e-05 -6.99747e-06 -5.34212e-06 7.45818e-06 -5.3465e-06 
-3.21562e-05 1.27576e-06 9.35616e-06 4.72061e-06 3.65516e-06 7.09827e-05 6.69855e-05 0.000182259 0.000201824 
0.000856613 -0.0129293 -0.0107494 -0.0100933 -0.00951529 -0.0323978 -0.0357325 -0.033925 -0.0355617 
-0.0359729 -0.0347906 -0.0358071 -0.0350609 -0.0345465 -0.0345926 -0.0349358 -0.0348296 -0.0351031 
-0.0355513 -0.0346854 -0.0343939 -0.0346744 -0.035401 -0.0364401 -0.0379898 -0.0363112 -0.0435905 
-0.00803226 -0.0276608 -0.0280641 -0.0272532 -0.0298319 -0.0294815 -0.0304349 -0.0298542 -0.0296201 
-0.02914 -0.0294423 -0.0308221 -0.00580926 -0.00881931 0.000698924 -0.0419735 -0.0492657 -0.0478767 
-0.0290395 -0.0272443 -0.0285155 -0.0309324 -0.0293037 -0.0302785 -0.0299554 -0.0311028 -0.0299261 
-0.030457 -0.024984 0.00266173 0.00215574 -9.1782e-06 0.000361218 -0.00246577 -0.0018041 -1.10999e-06 
-6.16793e-07 -3.13482e-07 -7.35333e-07 -1.17867e-07 -7.81259e-07 -7.00061e-07 -2.23864e-07 -2.27696e-07 -8.50595e-07 
-4.88503e-07 -3.77563e-08 -6.50455e-07 2.19666e-07 -3.38415e-07 2.63613e-08 -1.118e-07 -1.0822e-07 -1.18178e-07 
-6.58606e-09 4.14072e-07 6.87956e-07 1.25002e-06 -9.97859e-07 3.67006e-05 6.77202e-07 -0.000802043 0.000179772 
0.00172739 7.2364e-06 9.63734e-06 1.72106e-05 -4.06552e-06 2.71267e-06 -6.32716e-06 1.67266e-05 -8.54863e-06 
5.14236e-07 1.01093e-06 -1.07311e-06 -5.03457e-07 -1.09014e-05 -1.97113e-05 3.14707e-05 -6.18803e-06 -1.71504e-05 
-1.1319e-05 -1.77729e-05 3.25922e-06 -4.39629e-05 1.15693e-05 -5.71171e-07 -5.72394e-06 8.03648e-06 -2.45415e-07 
6.47176e-07 -2.63348e-07 1.21836e-06 1.02595e-06 -8.82033e-08 -2.04231e-07 -6.68393e-07 -1.38402e-06 4.31259e-07 
4.15611e-08 5.10453e-07 -1.92179e-07 2.45082e-06 0.000543756 -1.65486e-06 3.23912e-07 7.06357e-07 2.67144e-07 
2.27838e-07 8.40999e-07 1.11779e-07 -3.18694e-06 -6.62205e-07 -1.47345e-07 9.44001e-08 3.85381e-07 -5.91431e-07 
-6.02995e-07 -5.26802e-06 -3.96751e-06 -1.0106e-05 -7.28235e-06 2.87667e-06 1.46059e-06 2.48845e-05 -2.32863e-05 
2.68692e-05 -4.00798e-05 -3.57367e-06 6.50551e-05 1.77988e-05 2.23374e-05 -8.37854e-06 -5.98554e-06 8.6967e-07 
4.07428e-06 -2.26175e-05 5.85558e-07 -7.96254e-06 7.95338e-06 1.44801e-06 1.52558e-05 -6.19209e-05 -7.60134e-06 
-4.09326e-05 -5.08954e-06 0.000424001 -6.8354e-05 0.000292959 0.000143618 0.000446265 0.000910312 0.00249649 
0.00241634 0.00207878 0.00199684 0.00197143 0.00195721 0.00190887 0.00196214 0.00203934 0.00208404 
0.00199889 0.00196374 0.00194114 0.00178863 0.00178732 0.00189293 0.00200143 0.00197478 0.00181415 
-2.50454e-07 0.00058779 0.000714985 0.000832146 0.00071096 0.00156441 0.00164724 0.00169661 0.00219986 
0.00185867 0.0016367 0.00146295 0.00142705 0.000486773 8.97253e-05 0.000394961 1.43775e-06 -0.000674215 
0.000446379 0.00183673 0.000567747 0.000766973 0.00178178 0.00178111 0.00197929 0.00199765 0.00187569 
0.00179483 0.00183866 0.000199397 -9.14449e-07 -0.000123233 -0.000701508 -0.000198564 0.000192737 0.000538514 
8.5504e-07 -4.02871e-05 -1.313e-07 -4.2763e-07 3.2081e-06 -1.0403e-06 -4.12334e-07 -7.45464e-08 -4.47988e-07 
-8.80789e-07 1.29481e-07 -5.26056e-07 3.5639e-07 -2.68419e-07 -5.80964e-08 1.0143e-07 -1.34045e-07 -2.93161e-07 
1.88389e-08 -1.55481e-06 6.45199e-07 7.04275e-07 -7.48943e-05 0.000207174 3.95541e-06 0.000147626 -6.19651e-05 
-0.000292157 6.36545e-07 6.97703e-07 -1.68174e-05 -1.41054e-05 -8.78481e-06 9.21125e-06 1.3773e-06 1.4327e-06 
4.98175e-07 4.77346e-06 3.41717e-06 -4.04606e-05 8.70577e-06 4.7699e-05 4.82454e-05 -3.81685e-05 -3.74269e-05 
-2.5623e-06 4.26627e-06 -1.06702e-05 1.40844e-06 1.78066e-06 2.30434e-06 -6.2707e-07 -7.91563e-07 -6.59732e-07 
-1.24341e-07 2.9812e-07 5.60447e-07 9.8338e-08 -1.95265e-07 -5.41205e-07 -1.24247e-06 -5.48794e-05 0.000183728 
3.13254e-07 2.59194e-07 6.15901e-07 1.77757e-06 -8.17978e-07 -1.31115e-06 1.01946e-06 1.14485e-07 -7.83541e-07 
-7.51088e-07 4.09458e-07 3.69118e-06 7.96702e-06 1.18471e-05 3.65015e-06 -5.80091e-06 2.17609e-05 2.73184e-05 
-2.27546e-05 2.94816e-05 -2.73019e-05 7.80161e-06 3.12754e-05 -3.51734e-07 5.45918e-06 5.12976e-06 -3.5725e-06 
-8.93958e-06 -4.84476e-06 -3.9368e-06 -8.2146e-06 1.35092e-05 1.44588e-05 -6.09006e-06 -1.96695e-05 -3.16249e-05 
-3.09647e-05 -5.94922e-05 -5.27944e-05 3.91974e-05 7.99535e-05 -4.57308e-05 6.79212e-05 3.35922e-05 3.88403e-05 
3.74969e-06 8.67654e-06 -4.55367e-05 -7.29326e-06 3.04635e-05 5.49873e-05 4.83262e-05 5.26106e-05 5.04175e-05 
5.99014e-05 6.2067e-05 7.32111e-05 8.38638e-05 7.3049e-05 8.24079e-05 9.66313e-05 8.82882e-05 2.37339e-05 
6.31005e-05 2.45091e-05 -5.50075e-06 2.82819e-05 1.46649e-05 2.68994e-05 6.02307e-05 1.16841e-05 2.15521e-06 
-1.50543e-05 8.51646e-06 8.07894e-06 8.13695e-06 5.28878e-07 0.00034434 -1.94381e-05 -1.28649e-05 -1.03331e-05 
8.91567e-06 1.07856e-05 -4.80372e-06 -3.69912e-05 -2.15383e-05 6.06044e-05 7.77649e-05 2.31244e-05 0.000508217 
-1.45811e-06 2.11282e-05 -2.73431e-05 -6.42606e-05 -0.000118266 -0.00011818 3.44923e-05 -7.86229e-06 -7.68856e-05 
2.37707e-08 2.86758e-05 2.31577e-05 -2.88499e-06 -2.3797e-07 -1.56497e-07 2.24987e-07 -8.03713e-07 -3.86214e-07 
-6.77891e-08 -6.47306e-09 -3.74174e-08 1.81311e-07 4.06691e-07 1.8889e-07 -9.1931e-07 6.72042e-10 4.35342e-07 
-5.47381e-05 1.32174e-05 2.12687e-05 -9.19899e-07 4.45502e-05 4.43981e-06 -3.76466e-06 1.91776e-06 5.25485e-06 
1.74125e-06 1.07869e-06 -2.88947e-06 -1.68348e-05 2.52501e-06 4.01623e-06 7.72381e-06 2.88509e-06 1.34288e-06 
4.69431e-08 -3.05905e-06 -1.87606e-06 -6.40124e-07 4.96767e-07 6.3735e-07 3.23558e-07 -2.99277e-07 5.29627e-07 
-5.58483e-07 1.48669e-05 7.99672e-05 -1.66189e-06 -8.05275e-06 -3.40335e-07 -1.25445e-07 -1.18776e-06 -3.29881e-07 
6.78334e-07 -4.22374e-06 1.94206e-06 2.70248e-06 -2.52965e-05 2.25896e-05 5.16794e-06 -3.94448e-05 -2.92737e-05 
-1.23231e-05 8.69673e-06 -1.69006e-06 6.97474e-07 4.2967e-07 -9.01196e-06 1.39919e-05 9.13751e-06 3.72693e-06 
9.56972e-06 -3.20027e-05 2.78991e-05 -3.06864e-05 -1.12154e-05 -7.24933e-05 -3.51969e-05 2.05834e-05 1.65217e-06 
-1.80034e-05 -2.53769e-06 -6.09989e-07 -4.21148e-07 6.05955e-06 -1.71612e-05 -4.69432e-06 -9.17021e-06 -2.83164e-05 
3.97354e-06 1.44728e-05 -6.24008e-06 -1.57541e-05 -5.51857e-06 2.06484e-06 -2.42028e-07 3.61619e-05 -5.25115e-07 
1.81917e-05 -3.47977e-06 5.49067e-06 2.26529e-05 5.81043e-06 -1.44324e-05 4.73833e-06 3.01453e-06 -7.88557e-08 
-1.16578e-05 3.38388e-05 -8.78601e-06 1.806e-05 -3.61554e-07 8.87095e-06 4.31914e-05 -1.27595e-05 -4.78377e-06 
4.46461e-07 4.4347e-06 -6.11122e-05 -2.86713e-06 1.03018e-06 -1.10847e-05 -1.34997e-06 -7.16662e-05 2.44018e-05 
1.20225e-06 8.24018e-05 2.92226e-05 -7.59394e-06 -6.88018e-06 8.53978e-06 -1.5944e-06 -2.3202e-07 -1.04782e-06 
-2.64904e-07 1.49011e-07 1.17018e-07 1.16522e-07 1.00618e-06 -1.94969e-06 6.30816e-07 -1.96192e-05 5.68639e-05 
-8.97561e-06 6.68344e-06 1.20911e-06 8.30468e-06 7.43723e-06 4.20188e-06 -1.09271e-07 8.60667e-07 -4.29496e-06 
2.58672e-06 -3.83491e-07 -1.78084e-06 4.86871e-08 9.09293e-07 4.86201e-07 2.59376e-06 -3.95599e-05 3.71528e-05 
-5.34437e-07 -8.85792e-06 2.37516e-06 1.45374e-07 9.44159e-07 3.85053e-07 3.66739e-06 -3.6222e-06 -9.46166e-08 
-4.97005e-06 1.71555e-06 -3.28139e-05 -4.04664e-08 -1.9711e-06 -1.24776e-05 -6.18585e-07 -1.58657e-05 -6.22348e-06 
3.8861e-06 6.68492e-06 2.84175e-06 4.46108e-07 -2.77004e-05 -3.65808e-08 -6.06376e-08 6.53398e-05 -1.50297e-05 
5.75629e-05 5.44809e-06 1.16106e-06 5.49339e-06 -1.92659e-05 2.17455e-05 2.15683e-05 1.81871e-05 1.73059e-05 
-1.15517e-05 6.19388e-07 3.02367e-06 -2.20332e-06 -3.63296e-06 1.11048e-05 -6.89838e-06 -2.47947e-05 -2.4564e-06 
-3.31222e-06 1.18024e-05 -2.2452e-05 1.0673e-05 3.92715e-06 3.28662e-05 -2.13895e-05 -1.19817e-05 4.13779e-06 
-2.4944e-05 -2.43986e-06 -2.80945e-05 1.04464e-06 -3.69146e-05 1.00566e-05 -3.97538e-05 -1.93981e-05 4.14814e-06 
3.02825e-07 1.54558e-05 2.74972e-06 5.93528e-06 -8.57645e-07 3.71842e-07 6.02798e-06 -8.6875e-07 -1.61094e-05 
-2.38826e-07 7.74702e-07 6.46967e-07 -1.31501e-06 3.27092e-06 -8.84014e-07 -2.35471e-05 -1.05455e-05 1.31197e-06 
-2.58392e-07 -1.16004e-06 7.08019e-06 8.95997e-07 2.01765e-06 2.96078e-06 -3.87442e-07 -9.0152e-06 1.74043e-06 
-8.17779e-06 2.08443e-06 3.64749e-06 6.05729e-06 -7.50018e-06 -1.60863e-06 -1.14895e-05 -9.79816e-06 1.81197e-06 
8.46675e-06 1.66868e-05 -6.87901e-06 9.91366e-06 7.34193e-06 -8.55015e-06 -1.73703e-06 3.6174e-05 -4.74614e-06 
-1.2203e-05 9.27231e-06 -1.70451e-05 3.03828e-06 1.96621e-05 2.74092e-05 -1.037e-05 -3.22406e-06 2.76062e-06 
-1.68477e-06 3.00115e-06 1.16267e-05 3.49568e-06 -2.19421e-05 -1.58196e-05 2.73241e-06 -9.64201e-06 8.41459e-06 
1.89124e-06 1.92998e-05 9.76677e-06 -1.45903e-06 -2.53862e-05 7.57999e-07 3.86555e-06 -7.81481e-06 -1.43349e-05 
9.04293e-06 3.27203e-06 -3.34121e-05 2.28751e-06 -4.82365e-06 -5.26142e-06 1.66734e-05 -1.17127e-05 -7.92012e-06 
-1.20781e-05 -2.46165e-05 -2.81953e-05 5.04078e-07 8.67574e-06 5.63215e-07 -6.7771e-06 -1.00351e-05 -1.55536e-06 
-1.62512e-05 -2.20383e-06 4.34101e-07 -3.29576e-06 -4.03471e-06 1.81152e-06 2.9263e-07 -1.29694e-05 9.46999e-06 
-2.20001e-05 2.84292e-06 -2.10638e-05 3.75898e-06 1.18999e-05 -2.3515e-06 -3.92368e-05 -4.20501e-06 -6.69225e-06 
5.7077e-06 1.66031e-07 3.6934e-06 3.08644e-06 3.56341e-06 -1.02401e-06 3.29161e-06 1.54791e-06 1.64404e-05 
4.09224e-06 -3.66273e-06 1.53379e-05 1.03325e-06 1.14937e-05 -4.32573e-07 5.94401e-06 4.95728e-06 -3.30276e-06 
-4.56846e-06 -2.32387e-05 1.28472e-06 -4.42319e-06 -1.99472e-05 3.02209e-06 -1.91796e-05 -3.02349e-06 6.32059e-06 
-4.57564e-06 8.26195e-06 -2.4843e-05 2.04655e-06 -6.45931e-06 -5.81858e-06 4.43559e-07 -3.99805e-06 2.06871e-06 
-2.88072e-06 -3.28237e-05 2.27092e-05 3.66257e-06 -4.13456e-06 -5.6702e-06 4.74804e-06 8.76931e-06 -4.3342e-06 
3.10556e-06 7.0616e-06 1.6673e-05 3.02921e-06 -4.81315e-06 1.5174e-05 -5.30236e-06 0.0649231 0.0579019 
-6.97394e-06 0.563002 0.599511 0.392408 0.163781 0.146648 0.14113 0.140048 0.265037 
0.263104 0.259051 0.258842 0.258477 0.258297 0.258763 0.259452 0.259486 0.26008 
0.260337 0.259968 0.259802 0.259641 0.259829 0.261274 0.261907 0.262544 0.263535 
0.268243 0.278274 0.286335 0.395827 0.25681 0.243379 0.216984 0.209062 0.228443 
0.261002 0.259669 0.263673 0.263067 0.262038 0.264157 0.26393 0.263505 0.263393 
0.262726 0.262578 0.263247 0.265025 0.262935 0.264491 0.264146 0.265134 0.269282 
0.273742 0.281292 0.297645 0.414456 -1.39052e-05 1.82493e-05 2.38521e-05 1.54178e-05 1.31268e-05 
9.95626e-06 7.28671e-06 3.77942e-07 -2.31644e-06 -5.64864e-06 -1.36122e-05 -2.26373e-05 -1.63324e-05 -1.48012e-05 
-1.45382e-05 -1.25046e-05 -1.47541e-05 -6.68315e-06 -8.02833e-06 -9.12737e-06 -1.30986e-05 -6.99456e-06 -2.7199e-07 
4.45481e-06 9.69361e-06 1.42873e-05 2.63962e-05 -2.88419e-06 0.0974062 -0.00932481 -0.00144313 -0.000741697 
-0.000430573 -0.0002765 -0.000174502 -0.000124422 -0.000102246 -5.378e-05 -5.10192e-05 -4.33621e-05 -4.02584e-05 
-4.82356e-05 -6.42224e-05 -8.00209e-05 -9.82306e-05 -0.000105088 -0.000111088 -3.83203e-05 7.01123e-05 0.000189723 
0.000292093 0.000293693 0.000191731 5.13131e-05 -5.15327e-05 -8.95848e-05 -0.000102036 -8.65824e-05 -7.00966e-05 
-5.55276e-05 -4.14432e-05 -2.20708e-05 -1.39962e-05 -6.07685e-06 -4.46263e-06 -1.23938e-06 2.49906e-06 3.13509e-06 
5.65674e-06 9.1811e-06 1.60504e-05 2.38589e-05 3.12159e-05 -9.99884e-06 -3.58648e-06 2.21924e-05 1.4326e-05 
1.47229e-05 9.64442e-06 6.65553e-06 3.14304e-06 3.28914e-07 -3.48282e-06 -8.68559e-06 2.77542e-06 -1.62853e-05 
-4.01121e-05 -3.83043e-05 -5.23785e-05 -9.62002e-05 -0.000258956 -0.000189068 -0.000184878 -0.000112022 6.75463e-05 
0.000298945 0.000286006 0.000255648 0.000401424 0.000157556 2.47426e-05 -1.45312e-05 -6.32155e-05 -8.89196e-05 
-6.35887e-05 -6.47632e-05 -5.09011e-05 -3.67756e-05 -4.03067e-05 -7.58364e-05 -0.000164982 -0.000157424 -0.000188982 
-8.40482e-05 -0.00016013 -0.000253288 -0.000479802 -0.00188634 0.00504936 0.0400194 -0.0128894 -0.0390539 
0.00574256 0.00737907 -0.00269327 0.00539154 0.00489956 0.00631699 0.0371368 0.0580802 0.0586934 
0.0508731 -0.0316894 -0.0103299 0.0403956 0.0274096 -0.0193516 0.00387409 0.00163527 0.00642767 
0.0259774 0.0422038 0.0497254 0.0563426 0.0526561 0.0551179 0.0491665 -0.0248844 -0.0262865 
0.0352461 -6.69383e-08 3.48003e-05 3.73451e-05 1.6565e-05 7.32101e-06 -7.37987e-07 -4.12173e-06 -8.89765e-06 
-1.28324e-05 -1.50039e-05 -1.43176e-05 -2.90264e-05 -1.5104e-05 -1.60607e-05 -1.80002e-05 -2.02065e-05 -3.15902e-05 
-1.95401e-05 -2.42503e-05 -1.33479e-05 -5.56008e-06 6.41465e-06 1.26859e-05 1.65912e-05 2.04943e-05 3.24601e-05 
1.78318e-05 -7.01217e-06 0.0110365 -0.0241406 -0.00183559 -0.000756337 -0.000399529 -0.000223498 -0.000130692 
-7.90026e-05 -3.99011e-05 -1.62556e-05 -2.48447e-05 -9.22148e-06 -1.18275e-05 -2.88917e-05 -4.69387e-05 -6.22477e-05 
-9.41446e-05 -0.000117782 -0.000118859 -4.54513e-05 5.03014e-05 0.000194871 0.00031708 0.00032112 0.0002146 
6.18606e-05 -6.55624e-05 -0.000126962 -0.000129987 -0.00011226 -9.21111e-05 -6.20563e-05 -3.77555e-05 -1.96417e-05 
-1.30274e-05 -4.40205e-06 -9.80275e-07 7.44717e-06 1.47351e-05 1.48782e-05 1.87893e-05 2.19434e-05 2.25169e-05 
2.15035e-05 1.45421e-05 -2.73479e-06 -6.80307e-06 1.42483e-05 1.92303e-05 1.89479e-05 1.8998e-05 1.83707e-05 
1.70362e-05 1.82368e-05 1.66923e-05 1.37459e-05 -2.71758e-06 -3.27934e-06 -3.55252e-05 -2.43548e-05 -5.62961e-05 
-8.30499e-05 -0.000106309 -8.11513e-05 -3.50222e-05 2.81049e-05 0.000165589 0.000265761 0.000271815 0.000260182 
0.000306097 -2.94333e-05 -0.000191799 -0.000132802 -0.000148955 -0.000162124 -4.70604e-05 -2.04173e-05 -1.01866e-05 
-8.5892e-06 7.36747e-06 -5.52178e-06 -2.94216e-07 -4.18425e-05 -0.000205031 -0.000363906 -0.000274897 -0.000408372 
-0.000678097 -0.00243136 -0.0100147 0.0476034 0.0118819 -0.0151264 0.0605996 0.0562214 0.0576085 
0.0633118 0.0641135 -0.00213933 0.00225124 0.00360875 -0.000801551 0.00186298 -0.015545 0.0055616 
-0.0194805 -0.0339548 -0.0423522 0.0358455 0.0517543 0.0560318 0.0478813 0.0326166 0.00634626 
0.0027605 0.00753825 0.0047397 0.00753524 -0.0750203 -0.0406627 -0.00343429 -4.25217e-06 -9.51675e-06 
-0.00818047 0.00271476 -0.00404641 0.0027829 0.338734 0.298836 0.270905 0.235542 0.228868 
0.214822 0.211525 0.219423 0.21015 0.197717 0.216017 0.171755 0.217102 0.171404 
0.207549 0.175302 0.209748 0.177024 0.203522 0.179716 0.19563 0.180783 0.203664 
0.179359 0.200559 0.183256 0.198251 0.180571 0.201091 0.183005 0.200681 0.181519 
0.198322 0.185831 0.193355 0.189914 0.193916 0.190019 0.186738 0.191774 0.191058 
0.193582 0.18827 0.194837 0.187394 0.199953 0.188811 0.205503 0.18496 0.218885 
0.187671 0.222046 0.204013 0.256142 -1.42848e-05 -1.4975e-05 -1.40458e-05 -9.63817e-06 -6.10226e-06 
2.09162e-05 -7.36482e-06 -4.32936e-06 1.01129e-05 -2.2001e-06 -4.82196e-06 9.9398e-06 -2.76919e-06 -1.13166e-06 
6.8721e-06 2.37268e-06 3.56554e-06 5.20568e-06 7.05636e-06 5.3309e-06 -1.357e-06 4.92084e-06 9.05627e-06 
-9.80661e-06 1.09796e-05 1.59177e-07 -1.22349e-05 1.01359e-05 1.02911e-05 -1.52377e-05 8.19635e-06 9.63647e-06 
-1.28671e-05 1.51988e-05 1.94378e-05 -2.077e-05 1.40954e-05 1.37231e-05 -1.43727e-05 1.28849e-05 1.32885e-05 
-1.58586e-05 1.25479e-05 1.34566e-05 -1.60336e-05 1.0151e-05 1.22625e-05 -1.63936e-05 7.55641e-06 1.3924e-05 
-2.12547e-05 1.07477e-05 1.46127e-05 -1.40854e-05 6.69241e-06 7.32202e-06 -1.41613e-05 2.98965e-07 -2.93408e-06 
-8.33564e-06 -2.12416e-06 -5.37407e-06 2.24178e-06 -9.61114e-06 -7.91234e-06 1.62675e-06 -7.56523e-06 -1.09217e-05 
9.81715e-06 -1.49096e-05 -9.94257e-06 1.13912e-05 -1.32806e-05 -1.09008e-05 2.00991e-05 -1.1951e-05 -5.60689e-06 
2.03839e-05 -5.56998e-06 -8.43339e-06 4.17896e-06 1.77155e-05 -0.00198118 -0.00455968 0.000394877 0.00204903 
0.000153498 -0.00152496 0.000747299 0.000177701 -0.000811409 0.000350952 0.000152132 -0.000522139 0.000177582 
8.66145e-05 -0.000349096 0.000107014 5.55026e-05 -0.000231551 7.07602e-05 5.72184e-05 -0.000145902 5.01551e-05 
5.28314e-05 -8.88953e-05 3.83519e-05 1.45295e-05 -6.61517e-05 1.08197e-05 3.38388e-05 -7.34993e-05 1.53099e-05 
4.65144e-05 -4.02796e-05 2.5082e-05 4.06267e-05 -3.31093e-05 2.9231e-05 4.93853e-05 -5.07293e-05 3.71353e-05 
6.15703e-05 -5.98184e-05 4.58783e-05 5.51737e-05 -6.61644e-05 5.71713e-05 5.41107e-05 -7.46699e-05 6.01197e-05 
2.42676e-05 -7.8874e-05 4.43972e-05 7.33963e-06 -8.79725e-05 4.48787e-05 -7.97967e-05 -5.40144e-05 1.60884e-05 
-0.0001451 5.49408e-05 -9.68172e-05 -0.000221721 0.000136885 -0.000129336 -0.000149815 0.000210559 -0.000157995 
-5.92369e-05 0.000264544 -0.000134803 1.96286e-05 0.000186275 -8.69207e-05 6.06349e-05 6.99643e-05 -7.93226e-06 
7.47911e-05 -3.24941e-05 2.90457e-05 6.70936e-05 -0.000104078 7.437e-05 4.98721e-05 -9.33068e-05 7.32299e-05 
3.42467e-05 -7.73084e-05 5.67049e-05 2.62914e-05 -6.6492e-05 4.0653e-05 1.60478e-05 -5.43599e-05 3.14034e-05 
1.42082e-05 -3.51609e-05 1.9301e-05 2.08967e-06 -2.51912e-05 1.13632e-05 3.83219e-07 -1.52627e-05 6.53157e-06 
-4.48279e-06 -9.00435e-06 -1.49297e-06 -2.69694e-06 -4.23727e-06 -4.15456e-06 -1.92116e-06 2.09661e-06 -3.85694e-06 
-6.48822e-06 8.78181e-06 -8.95996e-06 -8.89712e-06 9.53302e-06 -1.16687e-05 -1.22178e-05 1.15345e-05 -1.39669e-05 
-1.35279e-05 1.33193e-05 -1.45937e-05 -1.30783e-05 1.41715e-05 -1.52695e-05 -6.43258e-06 1.81934e-05 -5.95201e-06 
4.47761e-06 1.79449e-05 -0.0365436 -0.0231483 -1.41618e-05 -1.31471e-05 -1.08392e-05 -0.0290599 0.0212225 
-1.16224e-05 -1.09933e-05 1.14436e-05 -9.50959e-06 -1.15665e-05 1.26903e-05 -7.62746e-06 -1.06993e-05 1.22259e-05 
-6.96571e-06 -1.17952e-05 1.00912e-05 -4.46375e-06 -1.17243e-05 8.85018e-06 -3.15572e-06 -1.16799e-05 6.85358e-06 
-2.55869e-06 -9.84293e-06 4.04176e-06 -5.27881e-06 -7.23314e-06 -3.66547e-06 1.17025e-05 1.33512e-05 -5.37487e-06 
7.49828e-06 1.02264e-05 -1.21689e-05 3.59004e-05 4.44269e-05 -3.92076e-05 3.40923e-05 4.60464e-05 -3.61594e-05 
4.61062e-05 0.000100642 -4.8321e-05 4.46323e-05 0.000103521 -0.000163748 8.11471e-05 9.08904e-05 -0.000184711 
8.62221e-05 4.46068e-05 -0.00016523 3.86938e-05 -6.43645e-05 -9.4382e-05 -5.98338e-05 -0.000161409 2.07754e-05 
-0.000123845 -0.000179169 0.000164839 -0.000253089 -0.000196262 0.000282932 -0.00034226 -0.00021202 0.000210928 
-0.000153016 1.80898e-05 0.00027245 -7.13191e-07 2.20059e-05 7.3617e-05 9.09341e-05 2.74876e-05 2.94366e-05 
0.000115589 3.32671e-05 -9.22369e-05 0.000130345 1.70871e-05 -6.86943e-05 5.64327e-05 4.87435e-05 -0.000131623 
0.000107709 5.16223e-05 -9.15879e-05 6.62143e-05 1.57925e-05 -6.60816e-05 6.17277e-05 1.86619e-05 -8.52444e-05 
4.36612e-05 -2.35886e-07 -5.68565e-05 2.81994e-05 -3.73908e-06 -4.29314e-05 3.11362e-05 2.64454e-05 -0.000106186 
8.7749e-05 2.91579e-05 -0.000112748 3.24229e-05 3.34943e-05 -8.9857e-05 6.5378e-05 3.81316e-05 -9.84869e-05 
0.000212587 0.000150892 -0.000191327 0.000176919 0.000293487 -0.000580292 0.000377448 0.000621197 -0.000889896 
0.000847547 0.00228777 -0.0012541 0.000854039 0.00669204 -0.00240086 -0.000947292 0.00015583 -0.0128223 
-0.0130633 0.0481165 0.0219657 0.0282027 0.0238455 -0.0659188 0.0221844 0.0209103 -0.0621191 
0.0243485 0.0257401 -0.0535863 0.022122 0.0191416 -0.00895581 0.0172432 0.0158071 -0.00957861 
0.0175358 0.0165504 -0.00955751 0.0140688 0.0138485 -0.00843242 0.0115977 0.011953 -0.00731198 
0.0151281 0.0143929 -0.00834842 0.0128961 0.0131647 -0.00779791 0.0145847 0.0153998 -0.00776104 
0.0152702 0.0153394 -0.00896138 0.0152353 0.0147082 -0.00914113 0.0139457 0.0130304 -0.00898666 
0.0134544 0.0122063 -0.00801946 0.0144507 0.0141997 -0.00776212 0.0119284 0.0131922 -0.0072344 
0.0149524 0.0154711 -0.00819694 0.0141613 0.0148882 -0.00846965 0.0141627 0.0149514 -0.00830814 
0.014688 0.0157578 -0.00763143 0.012949 0.0161485 -0.00729352 0.0169871 0.023167 -0.00839131 
0.0206541 0.0305685 -0.0112548 0.000520198 0.0217182 0.0119752 0.00252192 -0.0395758 0.0119822 
0.0122537 -0.00594609 0.0115214 0.0126903 -0.00630299 0.00985523 0.00946749 -0.00634368 0.00912762 
0.00987265 -0.00917564 0.00753074 0.0087094 -0.00886715 0.0085982 0.00711377 -0.00874893 0.0142148 
0.0144511 -0.00859041 0.0148016 0.0162351 -0.00912311 0.0130376 0.0144594 -0.0088231 0.0144993 
0.0151213 -0.00826249 0.00309222 0.0151507 -0.00742054 0.0102157 0.00476311 -0.043288 0.0157934 
-0.00257656 -0.00047231 0.0194597 0.000121732 -7.88059e-05 -0.00483708 0.00323581 0.000160047 -0.00522514 
0.00725301 0.0145828 -0.0116608 0.0112649 0.013497 -0.00680984 0.0126424 0.0110557 -0.00642019 
0.0183783 0.0148604 -0.00810289 0.0175222 0.0164176 -0.00926898 0.0154347 0.013454 -0.00903078 
0.0168402 0.0154746 -0.00880702 0.0152303 0.0108883 -0.00812081 0.0138918 0.0124274 -0.00847811 
0.0173485 0.00612004 -0.00745767 -0.00717155 0.0156728 0.0017223 0.00820118 -0.00638442 9.42641e-06 
0.00883615 -0.0381547 0.0267679 0.0461923 0.00169077 0.0163438 -0.0353001 0.00686111 0.00264743 
-0.00918415 0.0106781 0.0138641 -0.0314091 0.00485668 -0.0629177 -0.0184902 -0.0126191 0.00569131 
-8.37169e-06 -6.50308e-06 -5.3847e-06 -6.34206e-06 1.34604e-05 4.34129e-08 -1.43018e-06 9.49977e-06 2.62518e-06 
4.78582e-07 9.51994e-06 5.15405e-06 2.45059e-06 2.9451e-07 8.75305e-06 -9.51663e-07 -2.28698e-06 7.00033e-06 
1.10123e-06 -1.11802e-05 1.09647e-05 5.04054e-06 -2.04336e-05 8.74332e-06 1.00153e-05 -2.82516e-05 9.8503e-06 
1.76857e-05 -2.65278e-05 1.26636e-05 1.74612e-05 -3.11e-05 1.06994e-05 1.75321e-05 -3.28442e-05 8.92485e-06 
1.80175e-05 -3.16819e-05 7.34151e-06 1.60342e-05 -3.10932e-05 5.93123e-06 1.51948e-05 -2.74748e-05 4.47988e-06 
1.22385e-05 -2.46078e-05 2.75669e-06 7.88808e-06 -1.75094e-05 -1.88662e-06 5.51925e-06 -1.25623e-05 5.76664e-07 
3.04695e-06 -4.96274e-06 -1.43544e-06 -2.39777e-06 3.13485e-06 -7.54233e-06 -1.89809e-06 3.47007e-06 -6.82071e-06 
-4.90276e-06 1.17677e-05 -1.03057e-05 2.65212e-08 1.95111e-05 -4.61358e-06 -1.28878e-05 1.63352e-05 -0.0040027 
-0.00271074 -0.00949489 -0.0115914 -0.00482809 -1.67339e-05 0.00128765 -0.000426141 0.000722694 -7.01012e-05 
-0.000404029 0.000444412 5.4335e-05 -0.000395093 0.000269167 1.16108e-05 -0.000296076 0.000164669 3.72364e-05 
-0.000201064 0.000116741 4.86743e-05 -0.000141135 0.00010753 8.51139e-05 -0.000135669 3.99056e-05 3.01847e-05 
-0.000168272 2.04864e-05 6.21818e-05 -8.32164e-05 3.66199e-05 6.2453e-05 -5.21017e-05 3.07408e-05 4.95268e-05 
-9.70214e-05 3.49234e-05 6.06407e-05 -0.000108766 3.05963e-05 7.26327e-05 -0.000121331 3.45821e-05 7.71105e-05 
-0.000132245 3.30666e-05 7.64391e-05 -0.000156787 -2.10454e-05 -2.30558e-05 -0.000138742 6.38923e-05 -6.28486e-05 
-6.14747e-05 0.000105544 -4.72884e-05 -8.12158e-05 -2.6796e-05 -0.000268948 -4.73751e-05 2.59694e-05 -0.000185678 
0.000111184 -0.000154074 -1.29156e-05 0.000243034 -0.000212979 0.000111105 0.000198124 -0.000152772 0.000170984 
6.21079e-05 -0.000126077 0.000107164 -9.10302e-06 -3.38373e-06 1.93775e-05 -5.75418e-05 8.92628e-05 2.4584e-05 
-3.80623e-05 5.87997e-05 2.2702e-06 -5.86062e-05 7.40117e-05 -1.13772e-05 -3.54125e-05 6.00997e-05 -1.03015e-05 
-3.14622e-05 4.25455e-05 -5.75318e-06 -2.56698e-05 3.68805e-05 1.57726e-05 -2.39785e-05 2.27738e-05 6.64971e-06 
-4.16571e-05 1.43838e-05 4.90406e-06 -3.72383e-05 -1.57214e-06 -5.4378e-06 -1.96875e-05 6.3925e-07 -1.04241e-06 
1.10873e-06 -4.62154e-06 6.08394e-06 2.53231e-07 -1.05511e-05 2.23036e-06 9.24327e-07 -1.22475e-05 -9.67362e-08 
1.20796e-05 -1.11539e-05 1.47053e-07 1.92263e-05 -1.20864e-05 -3.28571e-06 2.50894e-05 -1.68594e-05 -2.49692e-06 
2.57148e-05 -8.57931e-06 4.24058e-06 7.1584e-06 -0.00801794 0.0116899 0.0026683 -0.00126734 -0.000795583 
-3.09596e-07 -9.38069e-06 -3.36994e-06 -9.7919e-06 7.38067e-06 -1.99586e-06 -1.16096e-05 6.98496e-06 -1.99822e-07 
-1.16936e-05 7.20997e-06 1.36391e-06 -1.34918e-05 6.26256e-06 4.25918e-06 -1.41835e-05 4.25094e-06 4.22703e-06 
-4.38814e-06 -2.17605e-06 6.22324e-06 1.03252e-07 4.95658e-06 1.5302e-05 1.54889e-05 -7.58883e-06 1.8159e-05 
2.19163e-05 -2.78682e-05 1.72949e-05 4.88091e-05 -4.28079e-05 2.55693e-05 6.00552e-05 -6.74302e-05 2.97406e-05 
7.604e-05 -7.88039e-05 2.98904e-05 7.99267e-05 -5.48502e-05 2.76317e-05 0.000130665 -5.46914e-05 1.77867e-06 
5.78044e-05 -0.000129591 2.74541e-05 -3.03791e-05 -9.9209e-05 2.578e-05 -0.000182594 -1.00586e-05 -1.33588e-05 
-0.000277606 7.08865e-05 -4.31048e-05 -0.000101657 0.000206176 -0.000300474 -0.000146374 0.000219889 -0.000265532 
-3.40941e-06 0.000290469 -0.000118189 5.12358e-05 0.000198663 -3.17541e-05 -6.86481e-06 -6.99635e-05 1.3916e-05 
-2.84123e-05 -7.1164e-05 9.12231e-05 -3.40315e-05 -6.31981e-05 0.000129542 -2.8548e-05 -4.79795e-05 0.000100497 
-1.36301e-05 -7.79567e-05 9.92152e-05 -1.59531e-05 -4.95232e-05 4.87622e-05 -1.94899e-05 -5.74105e-05 6.93031e-05 
-8.85686e-06 -8.85317e-05 6.99406e-05 2.92074e-05 -9.29219e-05 6.5147e-05 7.18113e-05 -0.000101074 7.18246e-05 
8.24684e-05 -5.74545e-05 0.000128834 6.46186e-05 -0.000119368 6.13274e-05 8.22829e-05 -0.000240517 0.00016882 
0.000240771 -0.000307613 0.000189922 0.00055584 -0.000237715 0.000233142 0.00092661 -0.000673459 0.000105207 
0.00203096 -0.000653393 -0.000484355 0.00357664 -0.0038085 -0.00098173 -8.28724e-06 -0.0103521 -0.00501965 
-0.0129458 -0.007418 -0.0137139 -0.00868197 -0.000671195 -0.00776574 -0.00215448 0.00206498 -0.00360111 
-0.00445843 0.00492296 -0.00211098 -0.0027593 0.00110035 -0.00193569 -0.00225662 0.000451452 -0.00172869 
-0.00189183 0.000606179 -0.00211699 -0.00188289 0.000458859 -0.00188645 -0.00123845 0.000420157 -0.00220013 
-0.00168977 0.000489367 -0.00210884 -0.00230745 0.000433719 -0.00216771 -0.00244283 0.000424291 -0.00243 
-0.00262794 0.00041936 -0.00221039 -0.002315 0.000433271 -0.00200146 -0.00172037 0.000404014 -0.00187721 
-0.00181191 0.000378095 -0.00256634 -0.00195759 0.000372689 -0.00230972 -0.00232213 0.000435375 -0.0026863 
-0.00254656 0.000475485 -0.0024561 -0.0027649 0.000489364 -0.0019132 -0.0024633 0.000642282 -0.00225999 
-0.00265235 0.000987683 -0.00219745 -0.00453503 -0.002051 0.00493247 0.00526708 -0.0082887 0.00177984 
-0.00627501 -0.0109953 -0.00111678 0.00280572 -0.00234429 -0.00105336 0.00406634 -0.00199667 -0.00286868 
0.000792089 -0.00207394 -0.00287361 0.000381468 -0.00219614 -0.0025607 0.000494603 -0.00224462 -0.00310899 
0.000369658 -0.00176583 -0.00313112 0.000627501 -0.002381 -0.00343635 0.00062662 -0.00204643 -0.00258087 
0.000728083 -0.010107 -0.00260164 0.000964175 -0.006263 -0.0113757 0.00142869 0.0046316 -0.0160899 
-0.00095867 -0.00839696 0.0131797 -0.0039223 0.00933743 0.00721941 -0.00496929 -0.00214261 -0.00179556 
-0.00103907 -0.00196482 -0.00270721 -0.00312597 0.00419379 -0.00328556 -0.00336182 0.00440417 -0.00352141 
-0.00211698 0.000690872 -0.00261891 -0.00142285 0.000577699 -0.00282469 -0.00183296 0.000691812 -0.00271415 
-0.00125552 0.000742622 -0.0038915 -0.00168291 0.000836942 -0.0043189 -0.0014682 0.00108108 0.000314828 
0.00181855 0.0012846 0.00820077 -0.00696822 -5.76298e-06 -0.00293946 -0.00277298 0.000447854 -0.00772744 
0.000452244 0.00153394 0.000970853 -0.000999477 0.00260897 -1.94607e-06 2.58458e-06 2.95482e-06 1.39232e-06 
-0.00112284 -0.000799487 -0.00273167 -9.66444e-06 -4.59907e-05 0.00158673 8.04588e-06 0.00102134 0.0019202 
-0.0005262 0.00152048 -0.00273042 -0.000367833 -0.000383256 0.000179689 -0.000440817 0.00171453 0.00115556 
0.000297832 4.60119e-06 7.60989e-06 -0.000138738 -0.00235278 -2.89372e-06 -1.44153e-06 -6.2261e-06 -2.44453e-06 
2.0055e-06 -6.78689e-06 5.12092e-06 5.12453e-07 2.25443e-07 3.99581e-06 -2.25792e-06 3.72874e-06 4.14376e-06 
-7.33259e-06 7.96265e-06 3.87288e-06 -1.06823e-05 1.16071e-05 4.48132e-06 -1.67713e-05 4.66144e-06 1.2357e-05 
-2.14027e-05 8.33972e-06 1.51398e-05 -2.14515e-05 7.23099e-06 1.65342e-05 -2.37803e-05 7.65129e-06 1.66781e-05 
-2.66024e-05 6.84615e-06 1.6431e-05 -2.56466e-05 7.66289e-06 1.35929e-05 -2.48713e-05 6.39694e-06 1.24807e-05 
-2.03689e-05 5.56383e-06 7.88812e-06 -1.59413e-05 8.94027e-06 3.95099e-06 -9.1661e-06 7.31638e-06 5.40723e-07 
-8.85019e-06 2.59523e-06 -8.86417e-07 -3.32359e-06 -9.05842e-07 -5.48637e-06 2.86635e-06 -1.76591e-06 -3.13964e-06 
5.69978e-06 -6.98108e-06 3.74856e-07 6.26517e-06 -5.84159e-05 -3.83183e-06 0.000206865 -8.51128e-05 -0.000317094 
0.000413301 0.000746234 -0.000336437 0.000528848 -0.000222637 -0.000264284 0.000433843 -4.7191e-05 -0.000253911 
0.000328948 -6.56192e-05 -0.000300053 0.00026209 5.56548e-05 -0.000180032 0.000181621 5.72193e-05 -0.000288809 
0.000155029 4.48318e-05 -0.000262986 6.42192e-05 4.72174e-05 -0.000168312 6.42218e-05 5.50313e-05 -6.46232e-05 
4.28955e-05 4.24884e-05 -0.000109017 1.53647e-05 4.18282e-05 -0.000105122 2.86416e-06 4.92829e-05 -8.27384e-05 
-1.1324e-05 5.21604e-05 -6.41351e-05 -2.82728e-05 5.84394e-05 -5.1755e-05 -2.90504e-05 5.95439e-05 -3.75198e-05 
-6.15749e-05 -3.36504e-05 -4.79668e-05 0.000183909 -1.0751e-05 -9.36512e-05 9.50181e-05 -0.00011955 -0.000106856 
0.000168602 -0.000221152 -0.000115361 -4.2952e-05 -7.14842e-05 3.07234e-05 -0.000287765 2.55098e-05 0.000249108 
-0.000214152 0.000281267 -0.000172197 -0.000228033 0.000141575 8.23059e-05 -3.1673e-05 5.85641e-05 2.38311e-05 
4.13319e-05 1.87164e-06 1.38381e-05 7.09085e-05 -1.20185e-05 -7.62018e-07 6.34689e-05 -4.57918e-05 -9.13681e-06 
5.96605e-05 -3.3707e-05 -3.54629e-06 5.09115e-05 -1.15013e-05 3.40432e-06 3.58991e-05 -5.40498e-06 -2.48654e-05 
2.8929e-05 -1.7337e-06 -3.0861e-05 1.52135e-05 9.3241e-08 -2.29915e-05 6.58971e-06 9.2364e-07 -1.69634e-05 
1.83287e-07 2.00058e-06 -1.22321e-05 -2.89852e-07 2.66557e-06 -9.81043e-06 -3.81112e-06 1.70089e-06 -5.35222e-06 
-8.61279e-06 1.15431e-06 -3.48656e-07 -9.73016e-06 -8.56327e-08 5.31851e-06 -6.30662e-06 -8.8377e-06 1.53504e-05 
-6.58024e-06 -9.20148e-06 1.70553e-05 -3.98241e-06 -4.79373e-06 6.93363e-06 1.10821e-05 -0.000329084 -0.000637047 
-0.000201887 0.000351743 -0.000833058 -0.000162854 0.000184957 -6.89466e-05 8.56485e-07 -8.40984e-06 1.47573e-06 
-6.74912e-06 2.35741e-06 2.71216e-06 -7.38945e-06 1.76459e-06 5.00965e-06 -1.23646e-05 1.86153e-06 3.79226e-06 
-1.15277e-06 -2.18524e-06 9.36809e-06 3.34507e-06 4.38606e-06 7.11457e-06 9.65879e-06 -5.65013e-06 4.13393e-06 
2.05008e-05 -1.48795e-05 3.54442e-06 3.31039e-05 -2.23895e-05 4.60188e-07 4.68156e-05 -3.30407e-05 -5.28124e-06 
6.66734e-05 -4.49644e-05 -4.74661e-06 6.89597e-05 -6.16237e-05 -4.90433e-07 9.02083e-05 -4.57702e-05 -1.86233e-05 
4.87379e-05 -4.83053e-05 4.93119e-05 1.92154e-05 -6.28368e-05 3.03752e-05 -0.0001149 -7.07882e-06 9.4458e-05 
-0.000420513 -0.000188946 9.86557e-05 -0.000240629 6.3332e-05 -0.000117597 0.000166731 0.000297953 -0.000349492 
3.82332e-05 -4.33299e-05 -0.000148031 0.000291763 0.000216652 -0.000142587 -9.66415e-06 -0.000126088 2.76429e-05 
-5.86534e-05 8.29456e-06 1.45703e-05 -4.80578e-05 8.218e-06 5.84362e-05 -4.20316e-05 -3.99791e-05 9.9274e-05 
-4.15252e-05 -9.1561e-05 7.13101e-05 -1.0345e-05 -1.21654e-05 6.40645e-05 3.20283e-06 -5.99124e-06 6.43766e-05 
4.01791e-05 -3.04983e-05 4.72686e-05 6.28863e-05 -7.55707e-05 3.21844e-05 7.05853e-05 -0.000123975 3.56844e-05 
0.000110772 -9.52066e-05 5.28416e-05 0.000159554 -0.000109714 0.000126127 0.000110447 -0.000168007 6.40253e-06 
0.000304372 -0.000331431 0.000140719 0.000375444 -0.000498622 0.00016667 0.000392977 -0.000400723 4.50513e-07 
0.00105211 -0.00037885 -0.000279201 -0.000106615 -0.00234345 -0.00198809 -0.000417284 0.00121493 -0.00251633 
-0.000777457 0.000673404 -0.00064644 -0.000380852 0.000534532 -5.61829e-05 3.35872e-06 0.000347898 -5.55895e-05 
-4.80062e-05 0.000246991 0.000116731 -2.87087e-06 0.000167601 7.90118e-05 7.29662e-05 8.57392e-05 0.000123418 
8.921e-05 7.87409e-05 5.30805e-05 0.000110853 7.40895e-05 3.1064e-05 0.00010659 6.61346e-05 7.34791e-05 
1.05868e-05 6.87661e-05 1.09515e-05 2.80885e-05 4.80916e-05 5.66931e-05 -2.22755e-05 4.82353e-05 4.37063e-05 
7.05511e-05 5.61776e-05 4.62674e-05 0.000132046 6.7058e-05 -2.06838e-05 0.000173911 7.89966e-05 -1.31871e-05 
7.51022e-05 0.000101424 -3.246e-05 6.25911e-05 0.000116974 -6.57745e-05 -6.09726e-05 0.000152135 0.000129885 
4.20641e-05 0.000290043 9.47574e-05 -6.27447e-05 0.000956906 0.000878672 -5.43608e-06 -0.000889309 0.000603729 
4.22008e-05 -0.000120169 0.000136682 -7.40644e-05 -1.93122e-05 0.000176479 -0.000101544 -5.35078e-05 9.21255e-05 
-0.000179108 -0.000216216 0.000271455 -0.000369755 -0.000103991 0.000480642 -0.00119736 -6.08802e-05 0.000661714 
-0.00141639 0.000470019 0.00044704 0.00028359 -0.00191827 -0.000191629 0.000495868 0.00119216 -0.000711033 
0.00139037 -0.000514725 -0.000178383 -0.00161589 -0.00189403 0.00239437 1.92648e-05 -4.93324e-05 -0.000126081 
-0.000140555 0.000152292 -9.71781e-05 -5.0601e-05 0.000167149 -0.000256316 3.90634e-05 0.000187707 -0.00054963 
0.000148525 0.000323632 -0.000665988 0.000459377 0.000216005 -2.93117e-05 0.00107668 0.000120741 -2.615e-05 
-0.000665999 -0.000182077 9.50223e-05 0.000400148 0.000222814 -9.33442e-07 -0.000907058 -0.00103016 0.00149247 
-0.00221034 2.02033e-06 -7.56182e-06 2.12147e-06 0.00112035 -0.00226814 -0.000160815 -0.000855458 -0.00106654 
0.00171035 3.19445e-06 0.000591626 -4.2417e-06 1.6721e-07 0.000548921 0.000237079 -0.000492663 0.00034723 
0.000314478 -0.00238412 8.23827e-06 3.26365e-06 -8.45183e-06 -0.000354573 -0.000626288 0.00012787 -0.000238107 
-0.000119306 -0.000272898 -8.9576e-05 0.000511922 0.000322647 -0.00167747 -0.00252559 -0.000647061 0.000432764 
6.22354e-05 0.000359495 -3.01174e-05 -0.000310963 0.000296195 6.00021e-05 -0.000341937 -0.000329794 0.000471824 
0.00031399 -0.000470892 -0.000293327 0.000537381 -0.000312534 2.19578e-06 2.7372e-05 -0.000551398 0.000562114 
-2.2912e-06 1.20162e-05 -8.03371e-06 1.06599e-05 4.35132e-07 2.03495e-07 9.52139e-06 -2.48433e-06 4.44295e-07 
5.93185e-06 -8.71752e-06 6.80559e-06 4.85216e-06 -7.9949e-06 8.46779e-06 7.08679e-06 -1.29292e-05 3.91163e-06 
1.2994e-05 -1.68608e-05 3.85428e-06 1.40032e-05 -1.67961e-05 4.97695e-06 1.59131e-05 -1.99306e-05 6.51886e-06 
1.35705e-05 -2.1329e-05 7.1585e-06 1.1975e-05 -1.96322e-05 7.26359e-06 8.7779e-06 -1.78855e-05 5.99445e-06 
6.22774e-06 -1.33321e-05 5.83438e-06 4.48258e-07 -9.04336e-06 9.38068e-06 -7.71136e-07 -4.38233e-06 7.96012e-06 
-2.02493e-06 -6.6036e-06 4.49754e-06 -2.83208e-06 -3.0979e-06 3.45467e-06 -7.94931e-07 5.40878e-07 2.64696e-07 
-1.23617e-06 3.42624e-06 -9.73168e-05 -0.000112701 -0.000112959 -0.000133572 0.000318415 -0.000139617 0.000292493 
-0.000291559 0.000439315 -0.000120951 0.000277359 -7.81807e-05 -0.000121813 0.000332202 -5.90572e-06 -0.000140955 
0.000244889 1.24105e-05 -0.000268802 0.000204533 4.05467e-05 -0.0002514 0.000145743 9.21225e-06 -0.000180526 
9.3564e-05 3.8556e-05 -0.000146903 6.65753e-05 1.97908e-05 -0.00013329 2.97341e-05 2.99289e-05 -0.000112861 
9.44254e-06 2.89742e-05 -7.99705e-05 -2.00322e-05 3.10344e-05 -3.38819e-05 -5.99528e-05 2.60485e-05 -7.6156e-08 
-9.04573e-05 2.93508e-05 5.90319e-05 -7.98479e-05 3.73306e-05 6.78265e-05 -9.88379e-06 -2.03987e-05 2.43871e-05 
9.80561e-05 0.000146152 -0.000274783 0.000396919 -0.000341486 -0.000114113 0.000240522 9.87944e-05 0.000804691 
-5.0958e-05 -3.37819e-05 2.0896e-05 -4.27924e-05 9.62015e-05 5.61734e-05 -7.02175e-05 6.2425e-05 3.23455e-05 
-5.23217e-05 3.22783e-05 1.99938e-05 -2.70519e-05 3.07111e-05 1.51725e-05 -1.85374e-05 2.70907e-05 1.40857e-05 
-1.11766e-05 8.91309e-06 1.27298e-05 -4.44249e-06 -1.12189e-06 8.46494e-06 -1.87821e-06 -4.14481e-06 4.69248e-06 
-8.49868e-07 -7.53953e-06 1.17074e-06 9.66969e-07 -1.03896e-05 -3.67233e-07 2.20601e-06 -1.08997e-05 -7.91674e-07 
2.00591e-06 -1.0522e-05 -1.78311e-06 1.72254e-06 -7.75219e-06 -2.62351e-06 -3.2102e-06 3.03761e-06 -2.20588e-06 
-6.4761e-06 1.60582e-05 0.000308249 -3.44084e-05 -0.000290844 -7.65177e-05 -0.000119602 -8.22895e-05 -9.43428e-05 
0.000219761 0.000129645 1.38617e-06 4.69641e-07 4.9057e-06 -2.99447e-06 -4.03378e-06 2.83218e-06 -3.95049e-06 
1.77156e-06 4.30545e-06 2.41465e-06 4.15541e-06 1.19749e-06 7.2693e-06 -9.83521e-08 -1.66109e-06 1.10465e-05 
-2.41361e-06 -2.73726e-06 1.73433e-05 -1.50565e-06 -8.19494e-06 2.53626e-05 -5.70051e-06 -1.86698e-05 2.97097e-05 
3.44693e-07 -3.04293e-05 4.18252e-05 1.0586e-05 -4.47983e-05 3.89136e-05 1.11566e-05 -5.67656e-05 1.26305e-05 
5.59088e-05 -5.8093e-06 -8.90032e-05 0.000198257 0.000150299 -0.000163934 0.000476749 -0.00092399 5.48823e-06 
-0.000186562 0.000287412 -0.000333692 -0.000124891 -9.17985e-06 -3.5638e-05 0.000783568 2.60179e-05 -7.31306e-05 
0.000391119 8.84648e-05 -1.74565e-05 0.000125619 9.83316e-05 -4.02892e-05 -5.30049e-05 9.62045e-05 -2.15138e-05 
-3.27827e-05 5.47038e-05 -1.00074e-05 -2.09239e-05 4.8921e-05 2.98398e-05 -5.76663e-06 3.24474e-05 6.3005e-05 
-5.03049e-05 3.10995e-05 9.42396e-05 -5.26976e-05 -1.33482e-05 9.97306e-05 -0.000123151 -3.30993e-06 0.000149915 
-7.93463e-05 3.82366e-05 0.000148111 -0.000111168 9.51683e-05 0.000171505 -0.000265101 -1.07556e-05 0.000280331 
-0.000300118 9.91378e-05 0.000153457 -6.43385e-05 0.00016827 0.00062544 -0.000139376 -0.000336257 -0.000124489 
-0.000160068 6.48848e-06 8.92707e-05 4.03355e-05 -0.000185618 0.00028959 -0.000293641 -0.000130515 -0.000259606 
0.000346718 -0.000104107 -0.000107293 0.000355679 -0.000161544 -0.000117431 -0.000123286 -0.000136939 0.000274131 
-2.42187e-05 -4.4491e-05 0.00022864 -1.66719e-05 -4.13221e-05 7.57094e-05 -5.79712e-05 -2.08418e-05 6.87932e-05 
-4.64149e-05 -7.45197e-06 9.97302e-05 -4.12281e-05 -7.64003e-06 0.000115709 -3.5652e-05 -6.15317e-06 0.000102927 
-2.57514e-05 -2.86239e-05 6.87476e-05 -2.51075e-05 -2.26721e-05 4.94467e-05 -4.13117e-05 -2.87377e-05 6.14072e-05 
-2.98804e-05 1.28716e-06 9.39212e-05 -7.32254e-05 -5.02261e-05 0.000184906 -9.21891e-05 -5.24081e-05 0.000228358 
-0.000119969 -0.000118991 0.000244666 -7.53172e-05 -0.000178745 0.000213251 -0.000184137 -5.77202e-05 0.000150486 
0.000383184 -7.11943e-05 -0.000471877 -0.000236805 -7.62784e-05 0.000264821 -0.000221263 -0.000114598 0.000264927 
-0.000286489 7.76401e-05 0.000223064 -0.000108676 0.000248362 0.000121749 0.000338527 -0.000281006 2.57703e-06 
-1.82128e-06 -3.19358e-06 -0.000312055 -0.000122717 -9.88485e-05 0.000283169 -0.000217993 -2.31677e-05 -0.000220426 
0.000212352 0.000162859 2.59274e-05 0.000306223 3.18876e-06 0.000343796 -0.000254424 -0.000133248 0.000885198 
-0.000325803 -0.000276072 -0.000276921 7.70262e-07 1.03351e-05 -5.80313e-06 0.000249763 -4.35088e-05 -6.62086e-05 
1.04219e-05 -0.000247734 -0.000116835 0.000296789 0.000164046 -0.000701949 3.01107e-06 1.88932e-06 6.47129e-06 
0.000336377 5.80927e-05 -0.00021911 -0.000128456 -3.28548e-05 0.000124276 -6.80704e-05 -0.000269201 0.000159766 
0.000542754 0.00015297 0.000185977 -6.76631e-05 7.44493e-06 4.45551e-05 9.73772e-05 -5.45511e-05 2.22089e-05 
-7.47194e-05 -5.04475e-05 -0.000108577 0.000200738 -6.20868e-05 -7.10355e-05 0.000355371 0.00040419 6.0045e-05 
-0.000198844 0.000150733 -6.31876e-05 -0.000227042 9.04236e-05 3.53048e-05 -0.00013583 0.000238092 0.000194501 
-0.000633054 0.000290729 0.000127492 -3.5201e-06 -1.83604e-06 -0.000143531 3.34504e-06 -1.20625e-05 9.36758e-06 
-6.88395e-07 1.30457e-05 -8.34445e-07 -4.66122e-06 6.96696e-06 4.90148e-07 3.25226e-06 5.00021e-06 -1.92299e-06 
4.78832e-06 5.5205e-06 -5.81786e-06 2.96023e-06 8.9399e-06 -4.80912e-06 2.5294e-06 1.24425e-05 -1.03603e-05 
3.63475e-06 1.05485e-05 -1.42657e-05 5.76103e-06 7.34518e-06 -1.22584e-05 6.14692e-06 5.60136e-06 -1.34031e-05 
5.96477e-06 2.09321e-06 -8.40138e-06 5.73993e-06 -2.06533e-06 -4.5709e-06 5.7493e-06 -6.11937e-06 -1.45547e-06 
9.52865e-06 -3.29103e-06 7.68487e-07 9.16751e-06 -3.833e-06 -3.81997e-06 5.96544e-06 -3.51335e-06 2.79808e-07 
1.85928e-06 0.000134455 0.000210939 -0.000242076 -0.00012434 0.000213467 -0.000109417 0.000274455 -2.63339e-05 
-2.15778e-05 0.000182675 6.43072e-06 -0.000155233 0.00018455 -2.07216e-05 -0.000134605 0.000130246 4.2294e-05 
-8.83952e-05 3.78621e-05 4.40405e-05 -0.00010826 2.12393e-05 4.65788e-05 -4.71471e-05 3.02803e-06 2.84429e-05 
-2.07936e-05 -6.10301e-06 1.14251e-05 -1.05544e-05 -3.44621e-05 4.88162e-06 8.46234e-06 -8.31103e-05 -4.60657e-05 
7.33214e-06 -0.000120214 -4.2361e-05 9.8798e-05 -0.000289246 -3.24769e-05 -6.4212e-05 9.7364e-06 -6.62677e-05 
6.42861e-05 -3.05248e-05 -4.57699e-05 0.000121024 -1.96695e-05 -3.04286e-05 9.89737e-05 -1.31936e-05 -1.62692e-05 
4.01509e-05 -2.49424e-06 -1.07317e-05 1.46222e-06 2.31822e-06 -5.04881e-06 9.04832e-06 1.97805e-06 -1.62306e-06 
2.98385e-06 3.246e-06 1.97497e-07 -8.66562e-06 3.89126e-06 2.16451e-06 -1.52111e-05 5.43404e-06 2.68022e-06 
-1.6586e-05 6.71949e-06 2.36332e-06 -1.74102e-05 4.43618e-06 6.10939e-06 -1.99883e-05 2.89463e-06 6.39646e-06 
-5.35385e-05 -0.000135148 -3.56704e-05 2.18802e-05 8.48349e-07 1.07691e-06 6.87089e-06 2.14172e-06 -6.0063e-07 
3.43108e-06 3.25058e-06 -3.07547e-06 -1.1597e-05 -2.10129e-06 3.43165e-06 -2.27249e-05 9.94241e-07 1.16222e-05 
-1.30714e-05 1.01762e-05 2.08319e-05 -1.86152e-05 5.41409e-06 1.56981e-05 -2.69008e-05 2.76799e-07 2.12986e-05 
-5.24876e-05 2.19952e-05 4.81964e-05 -9.22606e-05 -2.76622e-05 4.77057e-05 4.97339e-05 -8.46507e-05 -0.000130815 
0.000232638 1.04714e-05 1.32261e-05 2.1414e-05 -3.91358e-05 -1.78395e-05 1.81244e-05 -3.48372e-05 3.40179e-06 
2.00891e-05 2.22544e-05 6.4775e-06 1.44595e-05 4.8036e-05 -1.93139e-05 -1.73658e-05 8.87293e-05 -2.47305e-05 
1.23004e-05 0.000104324 -6.72917e-05 -5.41444e-05 0.000102965 -6.38445e-05 -8.21542e-05 0.000166004 -0.000101759 
-0.000103722 0.000275609 -9.96287e-05 -5.59705e-05 0.000147447 -0.000156157 -0.000342394 1.43153e-05 0.000107426 
-5.69761e-05 5.51404e-05 -0.000218845 -8.51081e-05 -3.55599e-05 -0.000170978 -0.000161015 0.000278031 -6.77042e-05 
-3.77851e-05 0.000227621 -4.86089e-05 -2.10741e-05 0.000118411 -9.95116e-05 -4.87735e-05 7.3192e-05 -8.23049e-05 
-3.85951e-05 9.47752e-05 -8.35374e-05 -3.11632e-05 0.00014526 -5.42647e-05 -4.60716e-05 0.00011379 -7.42332e-06 
-4.14233e-05 3.1735e-05 -5.17956e-05 -4.75824e-05 0.000144884 -2.44822e-05 -3.23762e-05 0.000112163 -6.81357e-05 
-9.8193e-05 0.000208644 -8.01194e-05 -9.21353e-05 0.000232456 -5.26413e-05 -0.000176476 0.000224123 -0.000121717 
6.28339e-05 5.27211e-05 -3.19014e-05 8.2763e-05 5.1965e-05 1.03576e-06 3.76905e-06 0.000381104 -0.000178077 
0.000132955 -0.000245639 2.29777e-05 8.9218e-05 0.000398792 -8.93547e-05 -6.00114e-05 0.000228719 -4.11239e-05 
-8.2906e-05 -9.91711e-05 -0.000203708 -5.79545e-05 4.32006e-05 8.11001e-05 -2.9711e-05 -0.000102762 5.19894e-06 
4.96235e-06 -0.000124678 -1.55881e-05 1.21253e-05 -1.4922e-06 -0.00023078 -9.98001e-05 -2.4347e-05 -0.000115 
0.000212901 6.68754e-05 -0.000302943 0.000344281 -1.69768e-05 1.15014e-05 0.000119338 -0.000168266 -1.43701e-05 
0.000171345 -7.14383e-05 -0.000102726 3.07731e-05 1.45418e-05 -3.79725e-06 -4.32714e-05 0.000236311 -0.000227744 
9.9392e-05 3.96351e-06 -7.99775e-05 -0.000113578 0.000188403 5.01028e-05 -4.51653e-05 0.000138688 -5.36574e-05 
-6.58643e-05 7.15942e-05 9.30477e-05 -0.000147361 2.14653e-05 -6.37798e-05 2.83204e-05 -8.40183e-06 3.10693e-05 
0.000248687 1.94978e-05 -0.0285037 0.0264001 5.5113e-05 -7.96781e-05 -2.87276e-05 0.00018716 -1.61955e-05 
-5.88385e-06 8.21371e-05 7.16055e-05 -1.28293e-05 -0.00027195 -1.35454e-06 1.74038e-05 4.57465e-06 -3.71557e-05 
-6.22513e-06 -5.51302e-06 2.85553e-05 5.56957e-05 0.000123548 -0.000148831 1.9101e-05 0.000152057 3.25116e-05 
8.92441e-05 2.89322e-07 -0.000122255 -2.27609e-06 1.02055e-05 -6.47929e-07 4.25575e-06 -3.7799e-06 5.86929e-07 
5.80406e-06 2.52297e-06 -0.0277905 0.025568 -5.17161e-07 4.84821e-06 -1.09963e-06 1.45253e-06 -3.61512e-07 
-2.97365e-06 6.78126e-06 9.45693e-07 -2.40477e-06 4.9407e-06 -3.43056e-06 -5.0085e-06 4.42697e-06 -7.02475e-06 
2.42001e-06 5.1075e-06 -9.05255e-06 5.47847e-06 6.4512e-06 -8.40441e-06 -4.41271e-06 8.78838e-06 -4.8381e-06 
5.18385e-06 9.99554e-06 0.000159578 -0.00010099 -9.7469e-06 -5.78707e-05 -6.54407e-05 0.000125052 -1.44425e-05 
-3.59712e-05 0.000186642 6.71188e-06 -2.84456e-05 0.000187733 3.14008e-05 -7.8567e-05 5.4302e-05 4.0303e-05 
-5.7256e-05 3.13609e-05 1.56443e-05 -3.56394e-05 2.82477e-05 2.03999e-05 -2.54564e-05 -3.29423e-07 9.93852e-06 
-1.75031e-05 -2.25091e-05 4.92222e-06 -1.70058e-06 -9.09459e-06 -5.61183e-05 -0.000136691 3.32457e-05 -0.00012156 
0.000182194 -2.23417e-05 -7.60654e-05 4.68603e-07 -1.63908e-05 9.78268e-06 1.22555e-05 9.11877e-06 3.94682e-06 
-5.37465e-06 -0.0264173 0.0098166 -5.87635e-07 1.10644e-06 1.10178e-05 4.73986e-06 1.51382e-06 -1.25166e-06 
9.7037e-06 3.53374e-06 -1.91468e-05 1.18115e-05 3.32245e-06 -2.34294e-05 1.19755e-05 1.06438e-09 -2.41972e-05 
1.31999e-05 -7.68492e-06 6.68657e-05 8.00365e-05 -8.64284e-05 -2.08895e-05 2.95063e-05 -3.9916e-05 -5.23815e-05 
-2.21748e-06 1.88082e-06 -3.46393e-06 -5.46909e-06 -3.32953e-06 -8.0891e-06 -4.4133e-06 9.3034e-07 -1.66455e-05 
-3.45274e-06 4.17253e-06 -3.04739e-05 -1.85102e-06 1.90093e-05 -1.79196e-05 1.565e-06 3.8999e-05 1.62281e-05 
0.004812 0.00185035 -3.34909e-05 2.60849e-05 2.36074e-05 -5.42369e-05 -2.90627e-05 -2.77702e-05 -0.000101685 
-7.47707e-07 9.9476e-06 -1.18713e-05 5.7121e-06 -2.83441e-05 -5.23159e-06 6.277e-05 -2.13201e-05 -2.34906e-05 
6.83177e-05 -2.91268e-05 -4.10158e-05 0.000103349 -6.57156e-05 -6.34717e-05 0.000133399 -0.000127603 -0.000144124 
0.000162394 -8.73302e-05 -0.000193795 0.000155974 -0.000136715 -2.82936e-05 2.58959e-05 2.71921e-05 -7.74133e-05 
-0.000143401 -6.4681e-05 -0.00010215 0.000283696 -0.0001242 1.34965e-05 0.000141279 -9.22649e-05 -8.22148e-06 
6.11706e-05 -3.56282e-05 -9.22902e-05 0.000115084 -4.46978e-05 -0.0161821 0.0249687 -5.74324e-05 -2.09942e-05 
0.000148221 -2.49003e-05 -0.019344 0.0234472 -5.45529e-05 -9.34613e-05 5.79594e-05 -8.64183e-05 -7.23886e-05 
0.000242905 -6.88227e-05 -0.000138612 0.000178103 -6.6505e-05 -6.23679e-05 0.000170697 -6.4138e-05 -2.34351e-05 
3.90568e-05 -2.64838e-05 4.73807e-05 -9.82133e-05 0.000179035 -0.0241623 0.0135098 -2.16178e-05 9.05687e-06 
-6.36492e-08 -1.33654e-05 5.06506e-06 -4.90246e-07 -7.32593e-07 8.2096e-05 -2.2126e-05 2.64483e-05 -8.05972e-05 
0.000102543 -5.46597e-05 0.000202796 2.01782e-05 7.17218e-05 -1.80491e-05 5.17957e-06 -7.45938e-08 -0.000119932 
0.00030393 5.41061e-07 -0.000124943 0.00011871 -1.59209e-05 -6.39782e-06 1.01924e-05 1.65837e-06 -2.64027e-06 
5.52668e-07 -6.02847e-06 -2.2172e-06 -7.96464e-07 -3.82523e-05 0.00011225 -2.63564e-05 -5.45506e-05 4.54722e-05 
-1.43108e-05 3.37702e-05 3.09818e-05 4.42918e-05 -5.39738e-06 -1.42509e-05 6.64425e-05 -7.65138e-05 -1.98065e-05 
-2.60472e-05 1.15178e-05 1.89265e-05 -0.00012492 -9.90395e-05 -0.000191362 0.000299348 9.60985e-05 -0.000135846 
-9.06051e-05 9.42049e-05 -3.57434e-05 -1.40241e-05 -0.00011799 -2.10301e-05 6.20901e-05 0.000156254 0.00120316 
-0.00749855 -1.44931e-05 3.9208e-06 0.00915048 -0.0348964 -7.79876e-06 -3.16763e-06 7.58687e-06 9.96956e-06 
-3.42607e-06 1.65819e-06 3.36487e-06 -6.20985e-06 5.47397e-06 5.92154e-06 -1.14013e-05 1.97424e-06 5.41564e-06 
-1.21483e-05 5.63583e-07 8.31022e-06 -7.33095e-06 -1.44808e-06 -0.000109509 6.20253e-05 6.5041e-05 -8.32157e-05 
-6.43691e-05 6.85895e-05 3.1096e-05 8.58187e-05 -4.30099e-05 -1.83671e-05 8.23064e-05 -5.93961e-05 -5.54687e-05 
5.79399e-05 6.51301e-10 -3.78609e-05 3.81805e-05 1.16649e-05 -1.9319e-05 2.32705e-05 1.5582e-05 -2.4538e-05 
6.41632e-07 -0.000231757 -4.85033e-05 1.56864e-05 1.92152e-05 -1.49792e-05 -2.35105e-05 -2.61347e-06 -0.000163744 
1.02394e-05 4.80855e-06 -1.53697e-05 -0.0352843 -0.0420011 -0.0188922 -0.0275947 1.00306e-07 -4.5963e-06 
9.61092e-06 -5.28594e-06 3.71549e-06 -8.5733e-06 -0.000134323 -6.65134e-07 0.000128643 0.000134322 -7.02605e-06 
-7.11854e-07 8.45581e-07 -2.95822e-06 8.11311e-06 -3.07081e-05 -4.29686e-06 4.63148e-05 -3.02014e-06 3.84424e-05 
-2.73782e-05 3.4549e-05 3.18104e-05 -5.60711e-05 0.000129619 -5.22107e-05 -3.89279e-06 -3.47794e-05 9.26494e-05 
5.66998e-05 -0.00018054 -6.03332e-05 0.000246722 -6.40808e-05 1.84345e-05 -9.14856e-06 -7.93007e-06 2.59687e-05 
-3.86421e-06 -1.25069e-05 8.9722e-05 -0.00016438 -3.4201e-05 0.00013929 -5.89023e-05 -6.11451e-05 0.000217422 
-0.000112459 4.394e-06 -3.94593e-05 -0.00018419 -5.94194e-05 0.000203381 -6.25094e-05 -5.73868e-05 0.000299272 
-0.000222407 -0.00012353 0.000225447 -2.07124e-05 -0.000103439 -8.82301e-05 0.000300789 1.87075e-05 -3.51686e-05 
-4.91458e-05 9.70377e-05 -0.000100473 -2.39951e-05 1.53569e-05 1.63156e-06 -1.16761e-05 3.97894e-06 1.4986e-05 
-7.0207e-05 -0.000171319 -7.21854e-05 -3.65307e-05 0.000276304 6.9508e-05 6.29175e-06 -2.98923e-05 -9.07505e-05 
5.99988e-06 -2.08778e-05 2.62442e-05 -2.29244e-05 -1.28358e-05 -1.59481e-06 2.4749e-06 -2.8611e-06 0.000148823 
0.000245643 -0.000163951 1.59618e-05 3.51684e-06 -8.88625e-06 1.62653e-05 -3.01164e-05 -2.56106e-05 2.0151e-06 
-6.27139e-06 2.11908e-05 -7.41513e-06 -4.53193e-06 2.04854e-05 -3.78943e-05 -4.09153e-06 8.15056e-05 1.14981e-05 
-6.61643e-05 -0.000175146 -4.13892e-06 1.46418e-05 3.09082e-05 -7.56725e-05 8.02273e-06 1.76582e-05 -6.40722e-05 
-0.000151071 0.00020315 -1.64441e-05 -0.000141225 0.000165347 -6.4744e-05 -1.87513e-05 -4.46121e-05 8.94952e-06 
6.71234e-06 2.49961e-05 -1.64456e-05 1.85329e-06 0.000130204 3.69086e-05 -8.03678e-05 0.000105373 -3.99875e-05 
-7.87212e-06 4.02735e-06 7.45208e-05 2.342e-05 4.42556e-06 2.73611e-05 -7.86402e-06 3.74315e-05 -1.20522e-05 
-5.35763e-05 2.76426e-05 -1.84872e-05 2.34216e-05 1.43161e-05 -4.39463e-05 1.44493e-06 -1.43448e-05 -3.8992e-06 
6.87589e-06 -1.71667e-05 -4.9753e-05 4.23459e-06 8.22829e-05 -0.000181552 8.37411e-06 -1.9325e-05 6.76961e-06 
1.40113e-05 -2.66454e-06 -1.00918e-05 1.86164e-05 -9.41076e-06 4.7939e-06 4.90697e-07 -1.70453e-05 2.3671e-05 
3.12317e-06 -8.10152e-06 -3.88943e-05 -4.56166e-05 2.22662e-05 1.80226e-05 0.000102708 -5.33224e-05 2.45926e-05 
8.30728e-06 -3.79922e-05 -5.13862e-05 8.32864e-05 -2.32982e-05 -5.89896e-05 4.54577e-05 2.55408e-05 -2.70028e-05 
-4.88823e-06 -1.6126e-05 -0.000232251 -1.34209e-05 -7.6966e-06 -9.86141e-07 -7.4597e-05 2.67429e-05 0.000251059 
-0.000289162 -8.74146e-06 3.74311e-05 -2.95152e-05 -1.41932e-05 -3.98043e-05 -8.18804e-05 0.000183471 -2.71389e-06 
6.89456e-06 -1.17178e-06 6.60296e-06 -1.04361e-05 9.2506e-05 -4.41716e-05 -5.78904e-05 -4.78887e-05 1.34701e-05 
3.30811e-05 -7.17056e-05 0.00020258 5.76991e-06 4.93439e-06 1.44574e-05 -3.05398e-05 3.37677e-06 3.66776e-07 
2.85544e-05 9.42769e-06 7.79199e-06 -1.30342e-05 -8.92662e-05 -6.46243e-05 -3.65363e-05 0.000234419 1.09753e-05 
-3.97486e-05 -0.000200026 0.000132947 5.66597e-06 -7.87569e-06 2.35658e-05 -1.62361e-05 -1.88378e-05 1.95768e-05 
-2.9992e-05 7.56056e-05 3.64332e-06 0.00013423 -2.02895e-05 -0.000134848 -1.40842e-05 -6.52206e-05 -1.36428e-06 
-0.054888 0.000117374 1.0883e-06 -1.56391e-05 -0.000112635 1.95275e-05 -2.15512e-05 -0.00682695 7.8382e-05 
-2.9056e-05 1.72405e-05 1.88174e-06 -3.79061e-05 -2.33081e-06 1.76946e-05 -6.72356e-05 4.58239e-05 1.42209e-05 
-4.19699e-06 4.64336e-06 -3.45885e-05 -3.60027e-05 -0.00343527 -0.0144805 4.56701e-07 0.000155625 -2.62175e-05 
-9.32486e-05 3.60224e-05 -2.56604e-05 -1.90369e-05 -0.0416017 -0.00213133 -5.20963e-08 -1.56312e-05 1.14008e-05 
-1.45792e-05 -8.99457e-06 1.60457e-05 -1.08689e-05 -1.56345e-05 1.82216e-05 -8.83749e-06 -7.74918e-06 1.84236e-05 
-3.81467e-06 -6.66911e-06 7.41453e-06 -2.14187e-07 -4.10945e-06 5.40164e-06 -1.27133e-06 2.30672e-07 3.87765e-06 
3.71709e-06 2.25801e-06 -5.59573e-06 6.00294e-06 5.84394e-06 -1.67982e-05 1.59075e-05 1.37137e-05 -2.44524e-05 
1.10047e-05 1.39222e-05 -2.27187e-05 1.36183e-05 1.24522e-05 -3.22382e-05 1.26539e-05 1.28942e-05 -3.14385e-05 
1.29158e-05 1.35853e-05 -3.40561e-05 1.53231e-05 1.31005e-05 -3.16859e-05 1.42843e-05 1.01809e-05 -2.94859e-05 
1.17133e-05 7.91273e-06 -2.80863e-05 9.82585e-06 4.94377e-06 -2.19717e-05 5.91236e-06 -3.3898e-06 -1.79672e-05 
3.62877e-06 -4.51155e-06 -1.0593e-05 -5.93424e-09 5.25182e-07 -1.78925e-06 -1.71661e-06 -3.43133e-06 1.68507e-06 
-7.28387e-06 -4.60436e-06 4.23617e-06 -9.75702e-06 -9.27396e-06 1.69718e-05 -1.32583e-05 -1.37006e-05 1.94282e-05 
-8.18034e-06 -7.30709e-07 1.15512e-05 -8.37111e-07 -6.44744e-06 1.76716e-05 -1.73823e-06 -0.0614044 0.0101354 
-0.00855453 0.00151439 0.00857325 -0.0076993 0.0004116 0.00184265 -0.00169891 0.000224424 0.000668293 
-0.000854767 0.000173173 0.000394559 -0.000487023 9.72639e-05 0.000237838 -0.000302391 6.48743e-05 0.000132974 
-0.000184534 5.63031e-05 8.0081e-05 -0.000121368 3.9822e-05 4.35339e-05 -9.21979e-05 3.18927e-05 3.48157e-05 
-0.000141833 3.42438e-05 1.58617e-05 -6.09184e-05 3.42973e-05 5.48148e-06 -3.97841e-05 4.17099e-05 5.83382e-06 
-8.93753e-05 5.33336e-05 9.09443e-06 -0.000109686 6.39341e-05 1.26008e-05 -0.000133465 7.051e-05 2.45376e-05 
-0.000161737 5.85942e-05 3.52965e-05 -0.000199247 3.74832e-05 4.50206e-05 -0.000183598 -1.93326e-05 4.73091e-05 
-0.000105093 -8.13644e-05 4.96799e-05 -8.97897e-06 -0.000140173 -2.34433e-05 5.61437e-05 -0.000157568 -6.29518e-05 
0.000190203 -0.000119476 -0.00016329 0.000274762 -6.49375e-05 -0.000185503 0.000236273 9.52098e-06 -0.00014377 
0.000154928 5.27029e-05 -6.36772e-05 2.06585e-05 6.18453e-05 1.50831e-05 -6.4841e-05 5.75262e-05 7.93483e-05 
-7.91109e-05 4.37043e-05 6.6981e-05 -8.49852e-05 4.13156e-05 7.50603e-05 -7.872e-05 3.00015e-05 6.15571e-05 
-6.58221e-05 1.97295e-05 4.32959e-05 -5.0505e-05 1.40788e-05 2.67987e-05 -3.43563e-05 5.90614e-06 1.57434e-05 
-4.25409e-05 9.14919e-07 6.11279e-06 -3.05613e-05 -1.06419e-06 1.23904e-06 -1.86509e-05 -1.30447e-06 -8.65034e-07 
-3.21045e-06 -4.02757e-06 -5.71221e-06 4.70649e-06 -6.64698e-06 -8.38255e-06 1.3446e-05 -9.68099e-06 -1.07398e-05 
1.8669e-05 -1.18123e-05 -1.18472e-05 2.07177e-05 -1.33757e-05 -1.40508e-05 2.51366e-05 -1.18434e-05 -1.53039e-05 
2.34791e-05 0.0462908 -5.43936e-06 -1.26331e-05 1.39691e-05 -9.09016e-06 -1.10674e-05 9.76891e-06 -8.74383e-06 
-9.0587e-06 1.31414e-05 -9.06905e-06 -7.18727e-06 1.32177e-05 -6.69245e-06 -3.87182e-06 1.20148e-05 -6.95219e-06 
-1.25717e-06 1.08041e-05 -6.85035e-06 2.92064e-07 8.43484e-06 -2.81246e-06 3.61616e-06 6.73457e-06 4.45538e-06 
6.6149e-06 9.41734e-07 -1.55068e-06 1.5056e-05 -3.89327e-06 2.27048e-05 1.34638e-05 -2.04859e-05 2.07005e-05 
2.46319e-05 -3.03452e-05 4.49146e-05 3.36266e-05 -6.47916e-05 7.44604e-05 4.98377e-05 -8.3405e-05 5.57675e-05 
6.76092e-05 -8.02853e-05 9.87086e-05 3.07227e-05 -0.000139424 0.000119372 6.76862e-05 -0.000166154 8.09647e-05 
9.27807e-05 -0.0001126 2.40491e-05 9.72846e-05 -9.92051e-05 -2.71578e-05 7.9034e-05 -4.80427e-05 -0.000165115 
-0.000125253 0.000163551 -0.000258101 -0.000258444 0.000306778 -0.000170507 -0.00026235 0.000264502 -0.00010087 
-0.000229188 0.00033344 -0.000109615 -0.000197314 0.000113468 -3.64899e-05 -7.74623e-05 3.99179e-05 3.22359e-05 
0.000124418 -5.14889e-05 -6.21234e-06 9.5273e-05 -8.21083e-05 -2.92769e-05 0.000118461 -6.65026e-05 2.77954e-05 
9.25627e-05 -9.9011e-05 9.47746e-06 5.38643e-05 -4.0435e-05 1.35174e-05 3.27702e-05 -3.56264e-05 1.41801e-05 
4.43888e-05 -3.06603e-05 2.79015e-05 2.79433e-05 -4.42695e-05 -3.15575e-05 2.85726e-05 -6.4452e-05 -1.17503e-05 
5.06137e-05 -7.88685e-05 9.5493e-05 8.98543e-05 -9.87677e-05 6.28343e-05 0.000150162 -0.000183306 0.000102925 
6.67237e-05 -0.000184188 0.00017491 0.000193363 -0.000214849 0.00031122 0.000182809 -0.000329642 0.000755927 
0.000296375 -0.000508042 0.00228734 0.000311851 -0.000721178 -0.00178136 0.00399975 -0.00398983 0.0105211 
0.00331809 0.0101653 0.00225403 0.0141883 -0.0136007 0.0025385 0.0106359 -0.0100428 -0.00181201 
0.0100796 -0.00766682 0.0152122 0.0212806 -0.00559725 0.0196169 0.0228007 -0.00833825 0.0169764 
0.0209337 -0.0122386 0.0172594 0.0173725 -0.0107459 0.0149375 0.0150515 -0.0116736 0.0112529 
0.0134198 -0.0115654 0.0136887 0.0132815 -0.0103311 0.0150133 0.0162831 -0.0113948 0.0135868 
0.0147094 -0.0105027 0.0149664 0.0163318 -0.0100946 0.0147973 0.0150621 -0.00945643 0.0155179 
0.0165332 -0.0102429 0.0142628 0.0151757 -0.0103838 0.0151718 0.013869 -0.0102905 0.0132421 
0.0140936 -0.0109915 0.0166184 0.0155536 -0.00988415 0.0169336 0.0147322 -0.0101504 0.0174527 
0.0155278 -0.010988 0.0199517 0.0160282 -0.0115393 0.0193237 0.0171232 -0.0134035 0.0212963 
0.0168541 -0.0115025 0.0314939 0.0290859 -0.00884267 -0.0492735 0.0303185 0.00257065 0.0145251 
0.0129728 -0.00762444 0.0140023 0.013535 -0.00549565 0.0113682 0.0118997 -0.00511942 0.0101829 
0.0115302 -0.00766191 0.0128414 0.0155506 -0.00754961 0.0142722 0.0174301 -0.00859889 0.0121011 
0.00995288 -0.00938915 0.00904774 0.0111399 -0.00949065 0.00919002 0.0124221 -0.00938588 0.00893403 
0.0111575 -0.00984873 0.00872971 0.0100778 -0.0106975 -0.00743082 -0.00104078 -0.00218601 0.00498261 
0.0068332 -0.00422462 -0.013787 -0.00714492 0.0222217 0.000588189 0.00555142 0.00820385 -0.0445986 
0.0137202 0.0146349 -0.0469015 0.0102404 0.0149543 -0.0478773 0.0174182 0.0132019 -0.0089839 
0.0152265 0.0149515 -0.00584242 0.0175788 0.0094858 -0.00678741 0.0110266 0.011401 -0.0101531 
0.00948576 0.0107413 -0.00954789 0.0122679 0.011953 -0.0100562 0.0105879 0.0125153 -0.0096084 
0.0100551 0.0107055 -0.00971163 0.00463329 0.011571 -0.00844653 0.000134555 0.0287589 -0.00783361 
-0.00192374 0.00181612 -2.63634e-06 -0.000746476 0.0103343 -0.00148606 -6.27962e-06 -1.44509e-05 1.69454e-05 
-0.0108987 -0.00803941 0.0272922 -0.00977967 -0.00663333 0.00307729 0.00186287 -0.00712023 -0.0082454 
0.00547908 0.00378643 -2.19638e-05 -4.11149e-06 -1.05212e-05 -1.3288e-05 5.04239e-06 -2.60683e-06 9.93276e-06 
-3.85776e-06 -8.66995e-06 -2.65631e-07 2.19298e-06 8.06983e-06 -5.51888e-07 6.62388e-06 1.68258e-06 -9.55076e-07 
3.31657e-06 -2.96429e-06 3.26562e-06 7.92204e-06 -6.71267e-06 4.56229e-06 1.17972e-05 -1.88945e-05 1.83991e-05 
1.73722e-05 -2.2126e-05 2.14983e-05 9.91877e-06 -2.27304e-05 2.06988e-05 1.06846e-05 -2.63758e-05 2.1172e-05 
1.04172e-05 -2.69696e-05 1.96546e-05 8.45584e-06 -2.92647e-05 1.72858e-05 8.03415e-06 -2.7322e-05 1.59584e-05 
5.63956e-06 -2.48346e-05 1.35351e-05 6.06056e-06 -2.0743e-05 7.10549e-06 2.91225e-06 -1.60711e-05 6.7706e-06 
6.75763e-06 -1.2481e-05 2.04448e-06 2.4799e-06 -5.781e-06 3.16324e-07 5.81069e-07 -1.24827e-06 -2.19429e-06 
-5.60466e-06 2.69094e-06 -4.90209e-06 -7.13029e-06 5.75129e-06 -8.50873e-06 -1.11824e-05 1.38175e-05 -7.88127e-06 
-1.17907e-05 1.36487e-05 -2.58078e-05 0.000995782 -7.02984e-06 -7.11864e-06 -0.00470235 -0.0122307 -0.000300383 
0.00262554 -0.000978819 -0.00279068 -0.00497527 -0.00203361 -0.00176568 -1.91452e-05 0.000647256 -0.000506551 
6.45908e-05 0.000427343 -0.000335506 7.34062e-05 0.000264111 -0.000220167 6.13731e-05 0.00014686 -0.000178599 
6.033e-05 8.23895e-05 -0.000256396 6.66009e-05 7.14312e-05 -0.000229536 6.66864e-05 8.27981e-05 -0.000149081 
4.97698e-05 1.4322e-05 -6.72838e-05 4.63572e-05 -1.45036e-06 -0.000104172 5.86934e-05 2.0082e-05 -8.14511e-05 
6.48127e-05 2.11281e-05 -7.78317e-05 7.3474e-05 2.52568e-05 -7.85931e-05 7.29042e-05 3.31113e-05 -9.63208e-05 
0.000103216 2.99254e-05 -0.000147246 6.90888e-06 8.84911e-05 -0.000160714 -9.9281e-05 7.96987e-05 -4.59634e-05 
-0.000170121 -5.92493e-07 -4.83635e-05 -0.000245474 4.54464e-05 -2.10114e-06 -9.11952e-05 -0.000100919 0.000221815 
1.77553e-05 -0.000187758 0.000185534 8.65772e-05 -0.000242157 0.000128689 0.000104935 -0.000162595 3.96536e-05 
7.34651e-05 -2.74584e-05 -3.29291e-05 3.78158e-06 0.000111743 -2.58329e-05 1.33354e-05 9.97651e-05 -2.10426e-05 
-5.81519e-06 8.67364e-05 -1.20555e-05 -4.50794e-06 7.72364e-05 -3.11456e-05 2.22638e-06 5.63671e-05 -2.95355e-05 
1.60205e-06 3.32804e-05 -3.39248e-05 5.41389e-06 2.40429e-05 -3.32662e-05 4.7851e-06 2.37922e-05 -2.47506e-05 
8.30715e-06 1.02928e-05 -1.82582e-05 8.77789e-07 5.3301e-06 -1.12063e-05 -1.23191e-07 -6.02983e-06 -4.56051e-06 
-1.5553e-07 -1.46578e-05 1.73959e-06 -1.0274e-06 -1.37675e-05 7.79636e-06 -1.14609e-05 -1.47985e-05 1.03293e-05 
-1.01478e-05 -9.14628e-06 1.40448e-05 3.73655e-08 -4.69313e-06 1.23274e-05 0.00813232 -0.0112951 0.00204808 
-0.00271778 -1.89644e-05 -9.28098e-06 -6.24012e-06 8.18183e-06 -8.31947e-06 -4.14944e-06 8.3704e-06 -1.01779e-05 
-5.43718e-07 8.39924e-06 -9.06734e-06 1.62138e-06 7.41939e-06 -1.09669e-05 5.99008e-06 5.35528e-06 -1.11865e-05 
6.56887e-06 1.13369e-06 -2.67334e-06 5.74715e-06 -9.38576e-07 6.95795e-06 9.80071e-06 -1.07583e-06 2.1175e-05 
9.73964e-06 -1.1719e-05 3.73007e-05 1.2969e-05 -1.92607e-05 5.88634e-05 1.26466e-05 -3.39377e-05 7.71673e-05 
1.2172e-05 -5.15204e-05 5.58755e-05 3.60174e-05 -7.93499e-05 9.50527e-05 -9.4949e-06 -0.000131326 0.000107464 
-6.60985e-06 -0.000143854 7.48434e-05 1.26927e-05 -0.000185735 1.29975e-06 1.44573e-05 -0.000157252 -8.28987e-05 
4.56391e-06 -4.82206e-05 -0.000182103 9.63418e-06 0.000131335 -0.000246562 -9.6003e-05 0.000226688 -8.70347e-05 
-0.000191567 0.00024075 2.99885e-05 -0.0002772 0.000180727 -3.7728e-05 -0.000280596 9.86354e-05 -2.6094e-05 
-0.000126169 -2.36266e-05 1.14237e-05 1.46097e-05 -6.10155e-05 -9.19746e-06 0.000110464 -3.92386e-05 -1.23112e-05 
0.000149813 -5.65016e-05 -3.0611e-05 0.000120605 -3.87267e-05 -4.0469e-05 8.68999e-05 -6.7254e-05 -1.38295e-05 
6.64299e-05 -5.8917e-05 6.13305e-06 6.94002e-05 -8.80146e-05 -2.8064e-05 4.61902e-05 -6.41694e-05 -2.39454e-05 
5.75083e-05 -9.08809e-05 6.22695e-05 2.61006e-05 -0.000119051 7.70268e-05 0.000112308 -0.000157684 0.000176465 
0.000157025 -0.000166709 0.000148836 0.000217989 -0.000447213 0.00032018 8.61931e-05 -0.000539539 0.000611274 
0.000233104 -0.000717066 0.00118991 0.000272462 -0.000950616 0.00200264 0.000103487 -0.0017162 0.00557027 
-0.00251703 -0.00305685 -0.00260911 -0.00239201 0.000334946 -0.00272571 -0.00223559 -0.00272115 -0.00202689 
0.000657148 -0.00399556 -0.0021736 -0.00213577 0.000986707 -0.000881955 -0.0023973 0.00167614 -0.0016142 
-0.0039 0.0011855 -0.00262568 -0.00346865 0.000797107 -0.00274593 -0.00337759 0.000469314 -0.00237261 
-0.00338907 0.000407178 -0.00220409 -0.00316077 0.00037694 -0.00202924 -0.00423357 0.00035496 -0.00209635 
-0.00354447 0.000378348 -0.00213332 -0.00358919 0.000346077 -0.00206465 -0.00281511 0.000364998 -0.00235424 
-0.00290565 0.000456219 -0.00265205 -0.00234358 0.000389298 -0.00252356 -0.00276947 0.000296911 -0.00246611 
-0.00313394 0.000357106 -0.00259293 -0.00308919 0.000357152 -0.00267856 -0.00287016 0.000385912 -0.0031547 
-0.00297752 0.000445615 -0.00411072 -0.0020183 0.000633903 -0.00514129 -0.00218466 0.000622967 -0.00395905 
-0.00309071 0.000955053 0.00150578 0.00067974 -0.00162353 -0.00358433 6.59058e-05 -0.00323147 0.00939687 
-0.00200302 -0.00354307 0.00153051 -0.00126032 -0.00307893 0.00194616 -0.00136053 -0.00222695 0.00120857 
-0.00221372 -0.0018025 0.000566695 -0.00220111 -0.00255576 0.00041754 -0.00231744 -0.00296504 0.000441758 
-0.00182575 -0.00325338 0.00065309 -0.00243485 -0.00289473 0.000432429 -0.00245772 -0.00422891 0.000594319 
-0.00253089 -0.0054056 0.000766183 -0.00169196 -0.000616306 0.00102696 -0.000874307 -0.0019452 -0.000108512 
0.00037742 -0.00187337 0.00239131 -0.00146038 0.00133788 -0.00873184 -0.0128159 0.00108163 -0.00824394 
-0.00546163 0.000278909 -0.00135129 -0.00160626 0.00047043 -0.00247966 -0.000813616 0.0011507 -0.00223869 
-0.000877212 0.0013158 -0.0040848 -0.00137198 0.000950573 -0.0024806 -0.00159867 0.000514081 -0.0036771 
-0.00159608 0.000469405 -0.00275166 -0.00178925 0.000605412 -0.0035927 -0.00178762 0.000659996 -0.00193928 
-0.00273643 0.000880112 -0.00136887 -0.00270475 0.00121615 -0.000708673 -0.000182657 -6.73885e-06 -1.40255e-05 
1.54483e-05 1.00741e-05 -9.98462e-06 -7.01263e-06 9.74723e-06 -0.000190672 0.000345926 -0.000291434 -0.00127407 
7.87029e-06 0.000252391 -0.000356299 0.00290346 -0.00125029 6.3826e-05 -0.000272112 -0.000484657 0.00202223 
0.00106033 -0.000960058 -0.000950883 -0.00435885 0.000613996 0.000398932 -5.87032e-05 0.00133348 -0.000143457 
0.000710869 0.000927078 5.89192e-05 -0.000166493 2.15115e-06 -1.71256e-06 -1.28372e-06 8.3531e-08 7.94861e-06 
1.03987e-06 -3.67144e-06 5.6074e-06 3.63017e-06 -3.76201e-06 5.85695e-06 8.32331e-06 -1.78345e-05 1.59885e-05 
1.15541e-05 -1.71036e-05 1.77328e-05 7.36966e-06 -2.04106e-05 1.74099e-05 8.80469e-06 -1.96203e-05 1.69216e-05 
7.48216e-06 -2.25665e-05 1.42212e-05 6.87351e-06 -2.30495e-05 1.29217e-05 6.97407e-06 -2.07166e-05 9.34688e-06 
5.78135e-06 -1.78268e-05 5.59617e-06 4.6488e-06 -1.4268e-05 2.48695e-06 2.60935e-06 -9.33301e-06 4.92995e-07 
8.7157e-06 -8.81565e-06 -2.12624e-06 5.00838e-06 -5.66311e-06 -3.11446e-06 2.69561e-06 -1.79665e-06 -6.383e-06 
-7.53534e-07 2.66091e-06 -2.49127e-06 -5.50626e-06 3.97168e-06 2.72374e-07 -6.99269e-06 6.18426e-06 2.34562e-06 
-0.00045737 0.00010667 0.00123963 -0.000772833 -0.000156088 0.000562585 -0.000118846 0.00143859 -7.84325e-05 
-0.000293206 0.000725909 -0.000221474 -0.00064686 0.000899162 -0.00299075 2.0026e-05 0.000264555 5.40558e-05 
0.000214706 -0.000290894 4.79639e-05 0.000218846 -0.000257351 5.78724e-05 0.000147356 -0.000170532 4.07502e-05 
9.67736e-05 -0.000139504 4.03632e-05 1.82789e-05 -9.11576e-05 4.08517e-05 2.8713e-05 -7.91158e-05 4.46579e-05 
1.13642e-05 -4.9214e-05 4.64543e-05 -1.61591e-05 -2.33197e-05 5.14204e-05 -3.37459e-05 1.28943e-05 5.51726e-05 
-3.29878e-05 2.60845e-05 1.76725e-05 -3.36204e-06 -9.31312e-05 -4.28293e-05 0.000194622 -0.000182169 -8.90305e-05 
0.000137739 0.000147927 -0.000174848 0.000120413 6.65494e-05 -0.000146685 8.94328e-05 -0.00012868 -1.14866e-05 
3.19933e-05 4.01828e-05 -2.60684e-05 5.44098e-05 7.54938e-05 -4.94174e-05 3.60936e-05 5.60522e-05 -4.18666e-05 
7.27401e-05 -2.82627e-06 -2.42113e-05 5.28422e-05 1.00631e-05 -7.83765e-06 3.70867e-05 2.27783e-06 -4.7293e-06 
3.25939e-05 -7.30772e-06 -1.37516e-06 2.27743e-05 -1.23093e-05 -1.2404e-06 1.26045e-05 -1.2073e-05 3.20869e-08 
5.09922e-06 -1.14616e-05 1.35723e-06 1.11753e-06 -8.72082e-06 2.304e-06 -2.29516e-06 -4.82294e-06 1.55827e-06 
-5.40746e-06 -1.70444e-06 -6.91056e-06 -6.72764e-06 -3.7787e-07 -5.71702e-06 -4.27494e-06 3.44259e-06 2.80036e-06 
-1.7072e-06 2.53233e-06 -0.00130869 -0.000685023 -0.000534075 0.00011969 7.47999e-05 -4.34927e-06 2.13829e-06 
-5.02299e-06 -5.74009e-06 2.70631e-06 2.34775e-06 -7.48872e-06 4.40124e-06 2.64563e-06 -5.69968e-06 9.06096e-06 
4.14186e-07 1.43818e-06 6.14737e-06 2.74729e-06 7.30095e-06 2.84071e-06 -1.75176e-06 1.72914e-05 3.39297e-06 
-4.02279e-06 2.89998e-05 4.23712e-06 -1.96616e-06 4.23307e-05 -1.56237e-06 -6.83979e-06 5.71526e-05 -7.09157e-06 
-1.32152e-05 7.79476e-05 -1.37873e-05 -1.29069e-05 0.000107951 -2.30919e-05 -1.4175e-05 8.94008e-05 -2.7259e-05 
-9.98682e-06 8.9858e-05 -4.20142e-05 -5.97353e-05 3.66553e-05 3.48579e-06 -0.000115812 -7.4995e-05 5.12677e-05 
-6.48417e-05 -0.000165242 9.87366e-05 3.68425e-05 -0.000266392 3.90167e-05 0.000224535 -7.76217e-05 2.51272e-05 
0.000269617 -1.10284e-06 -0.000318231 -3.06026e-06 0.000150067 -0.000135664 2.00201e-05 3.33839e-05 -0.000175161 
-0.000229465 5.31735e-05 0.000100595 0.00023061 4.74292e-06 0.000116464 -2.10131e-05 -2.87645e-05 0.000110987 
-1.52497e-05 -4.5147e-05 0.000106543 -3.61781e-05 -4.85896e-05 9.52887e-05 -4.00195e-05 -1.26374e-05 8.03619e-05 
-4.38619e-05 -2.38023e-05 8.22553e-05 -5.05593e-05 -1.8492e-05 6.67084e-05 -9.95257e-05 4.78076e-05 2.5569e-05 
-0.000121888 9.68839e-05 6.97824e-05 -0.000133246 9.80567e-05 3.21892e-05 -9.28882e-05 0.000138539 4.31514e-05 
-0.000116718 0.00017571 0.000127717 -0.000345686 0.000242702 0.000211211 -0.000420324 0.000494174 -1.41536e-05 
-0.000669637 0.000500344 -2.06768e-05 -0.000668677 0.000796593 -0.000456398 -0.000331314 -0.00101963 -9.29692e-05 
-0.00065217 -0.000438041 -0.000232852 -0.000146197 -0.000178425 0.000401067 -0.000343895 0.00010472 -0.0013835 
0.00256807 0.000122893 -6.67298e-05 -0.000222865 2.95141e-06 2.99368e-06 2.09865e-06 3.3664e-06 -3.23197e-05 
-0.000124862 0.000235613 -0.00011618 -6.87371e-05 0.000129846 -3.04232e-05 -0.000199183 0.000125718 5.88947e-06 
-5.59286e-05 7.80475e-05 -2.82327e-05 -6.12923e-05 6.19936e-05 0.000135869 -0.000161782 5.29676e-05 0.000126921 
-0.000209942 0.000125172 0.000127815 -0.000194718 0.000113551 0.000133587 -0.000125494 9.61327e-05 9.03194e-05 
-7.91654e-05 5.85293e-05 3.10254e-06 1.78058e-05 5.80503e-05 -8.76233e-06 2.45237e-05 6.53549e-05 6.0564e-05 
-0.000107842 8.30623e-05 1.2693e-05 -0.000116693 0.000154642 5.45442e-05 -8.63092e-05 0.000216101 -7.38291e-05 
-0.000110753 0.000244395 -0.000564973 1.82791e-05 0.000178422 -0.000386092 -0.000165843 0.000411453 -0.000157184 
-0.00031791 0.000556014 0.00112681 -2.91329e-05 0.00031043 -0.000227417 -0.000239017 -0.000162621 -0.000174518 
-2.888e-05 0.000293465 -6.01916e-05 -2.54291e-05 0.000320493 -5.68659e-05 4.11339e-05 0.000264391 1.60447e-06 
-0.000129198 0.000125748 -8.34489e-06 -0.00011123 0.000218381 -0.000141423 -0.000167082 0.000204593 -0.00012133 
-4.61111e-05 0.000253997 -0.00022559 -0.00018357 0.000287081 -0.000102182 -0.000366642 0.000224287 -5.54181e-06 
6.16425e-07 2.91597e-06 -0.00197304 -0.000152731 -0.000488172 -3.83286e-05 0.000192861 -0.000178724 -7.01467e-06 
0.000293699 -0.000200817 3.8405e-05 0.000277437 -0.000154408 -6.00621e-06 0.000230671 -0.000109318 -9.49189e-05 
0.000173783 -5.19843e-05 -0.000176852 0.000228537 -0.000118625 -4.06928e-05 0.00027705 -5.40112e-05 -0.00012044 
0.000190607 0.000208361 -0.000482922 0.000227963 0.000676552 -0.000598774 -0.000190437 0.000140009 -0.000243804 
0.000116997 8.98079e-05 0.000104322 -0.00187802 -0.00128856 0.000756312 8.15431e-06 -4.20139e-06 -0.000121223 
-6.73979e-06 2.54115e-06 -3.79647e-06 -6.92405e-06 -0.000413631 -0.000255894 0.000461068 -8.97667e-05 0.000473431 
4.32318e-05 -0.000190335 -0.000165675 0.000259723 -0.000295886 0.000104913 -0.000195729 -0.000130174 -0.000342982 
0.000210595 -0.000264445 0.000340178 -9.70727e-06 -0.000321452 1.55168e-05 2.59836e-06 0.000394841 0.000251468 
-0.000330722 0.00020553 0.00019379 1.71904e-05 -0.000162854 5.2365e-05 0.000101692 -0.000428157 -8.28327e-05 
7.78936e-05 -1.19373e-06 -0.000209913 0.000588839 -0.000639765 1.40471e-06 0.000225324 -0.000193818 0.000481757 
-0.000325183 -2.53525e-05 -0.000750273 -0.000324434 -5.3784e-05 -0.000296086 0.000444072 8.64994e-06 -6.07524e-06 
6.29367e-06 6.36714e-06 5.9394e-06 9.68436e-06 -8.88531e-06 1.45965e-05 1.0393e-05 -1.03957e-05 1.31811e-05 
5.72353e-06 -1.56851e-05 1.14297e-05 6.5268e-06 -1.712e-05 9.25101e-06 6.07997e-06 -1.62234e-05 6.87828e-06 
6.45669e-06 -1.24611e-05 2.69004e-06 6.22765e-06 -9.97057e-06 -8.89872e-07 4.79057e-06 -6.07587e-06 -8.71915e-07 
4.2694e-06 -1.4822e-06 -2.18713e-06 9.83265e-06 -4.67986e-06 -4.38972e-06 6.61466e-06 -3.40269e-06 -4.17105e-06 
4.62725e-06 -5.61533e-07 -1.52471e-06 1.10083e-06 2.40973e-06 -2.74378e-06 -7.92125e-05 0.000216139 3.41963e-06 
-0.000111525 0.000276449 -0.000292759 0.000140948 -2.74568e-05 0.000207059 -0.000257604 -0.000301671 0.000315684 
-0.000134971 0.00115956 -0.000307103 3.77455e-05 0.000276682 1.68947e-05 0.000284518 -0.000120083 -0.000232147 
3.99116e-05 4.17607e-05 -8.20087e-06 -0.0086326 0.00419607 1.976e-05 5.31845e-05 -7.24191e-05 2.10224e-05 
3.35483e-05 -3.87246e-05 1.78574e-05 -1.53495e-05 -1.19089e-05 4.22018e-06 -7.03295e-05 2.13202e-05 -1.37612e-05 
-0.000120687 5.37106e-05 1.03734e-05 -2.89984e-05 0.000121837 -8.29708e-05 -1.07523e-05 4.58056e-05 -1.8736e-05 
-0.00066034 0.00061978 2.56201e-05 -0.000318912 -6.2713e-05 6.01964e-06 -3.48452e-05 3.1382e-05 5.14398e-05 
-2.32846e-05 1.32393e-05 4.13137e-05 -1.29386e-05 1.04115e-05 2.45628e-05 -6.98092e-06 8.38941e-06 5.75077e-06 
-4.90832e-06 7.32184e-06 -8.14838e-07 -2.39866e-06 3.84548e-06 -5.26586e-06 4.96833e-07 2.35894e-06 -8.55739e-06 
2.58253e-06 1.68466e-06 -9.57108e-06 2.73727e-06 1.18274e-06 -9.16974e-06 -1.14541e-06 3.88092e-08 -7.94521e-06 
-3.32623e-06 -1.24001e-06 -1.70242e-06 -5.50303e-06 2.45835e-06 -1.00899e-06 0.00034803 -0.000324459 -6.55335e-05 
-8.40396e-05 0.000309663 -0.000466024 0.000795182 -0.000397392 -8.45426e-07 -2.4464e-07 -4.01344e-06 6.10059e-06 
-1.75535e-06 2.66302e-06 9.34426e-06 -4.68905e-07 5.65382e-06 4.12497e-06 -3.73599e-07 -9.96528e-07 -8.19829e-07 
4.86462e-07 3.10835e-06 -7.29212e-06 2.86595e-06 2.24649e-05 -1.19649e-05 1.22075e-05 2.26299e-05 -1.38351e-05 
8.63599e-06 3.07387e-05 -2.13128e-05 1.41207e-05 5.22308e-05 -3.66988e-05 3.79596e-05 1.45489e-05 -5.71431e-05 
2.77994e-05 7.64448e-05 -2.20859e-05 5.11119e-05 4.30011e-05 6.81723e-05 3.31148e-06 -7.02133e-05 0.000602002 
-0.000758085 -0.000178516 8.80467e-05 -4.25669e-05 -0.000110043 -3.53099e-05 3.28884e-05 2.35901e-05 -5.08062e-05 
6.04628e-05 -1.8725e-05 -4.2829e-05 7.13112e-05 -1.3452e-05 -3.73711e-05 5.74944e-05 -1.92189e-07 -1.52872e-05 
5.03469e-05 -1.92816e-05 2.09908e-05 3.3746e-05 -2.51187e-05 5.7671e-05 4.04616e-05 -9.86674e-05 0.000118905 
3.89107e-05 -0.000130395 0.00012962 -9.21376e-06 -9.46871e-05 0.000161702 -2.20052e-05 -7.27733e-05 0.000197395 
1.29487e-05 -0.000122531 0.000244388 -2.1328e-05 -0.000183258 0.000463646 8.66133e-05 -0.000178296 -0.000116323 
-0.000201323 -8.69535e-05 -7.60817e-05 0.000345442 -0.000259932 -0.000276565 -0.000203083 -0.000216599 -0.000270848 
0.000184502 -0.000223518 0.000122055 -0.000103806 -4.01856e-05 -7.78307e-05 -4.74354e-05 0.000113979 -3.78517e-05 
-2.8351e-05 7.67635e-05 -2.96355e-05 -5.13576e-05 8.19276e-05 -2.70976e-05 -8.17806e-05 0.000142153 -2.55959e-05 
-7.22394e-05 0.00014367 -2.08115e-05 -6.74186e-05 0.000112011 -2.80066e-05 -1.80446e-05 5.27517e-05 -2.80547e-05 
-1.51209e-05 5.11924e-05 -7.29213e-05 -2.9813e-05 8.26217e-05 -0.000102429 -8.33914e-05 0.000172167 -0.000112239 
-7.19407e-05 0.000248037 -8.39593e-05 -7.81771e-05 0.000263786 -0.000452074 -9.15028e-05 0.000261969 -4.74413e-05 
0.000176092 3.60267e-05 8.51514e-05 -0.000152749 -5.20723e-05 7.15281e-05 8.06249e-06 9.79726e-07 -9.48898e-06 
0.00034709 4.48221e-05 -8.86959e-05 -0.000137877 -0.00011477 0.000196271 -0.000105898 -5.18126e-05 0.000222299 
-0.0001206 -7.53812e-05 0.000134623 -9.85572e-05 -0.000176657 0.000173122 -5.73442e-05 -7.6384e-05 0.000190052 
-0.000120113 -0.000104656 0.000223913 -0.000132049 -0.000141009 0.000165144 5.3148e-06 -0.000151362 0.00013249 
-1.24163e-06 3.59657e-06 1.25873e-05 5.80839e-06 -9.79155e-06 -6.60286e-06 -0.000147838 -5.24772e-06 0.00016808 
-0.000304606 1.57527e-05 0.00010273 -0.000225032 -4.45439e-06 0.000248112 -0.000214803 -7.78008e-05 0.000102324 
-0.000121843 -0.000195243 6.71347e-05 -5.58537e-05 -0.000248781 0.000259749 -1.79643e-05 -0.000164867 0.000272707 
-4.3542e-05 -0.000231918 0.000272503 6.95505e-05 -0.000308102 0.000275885 5.83306e-05 0.000201886 -0.000163899 
-6.32611e-05 5.57008e-07 2.93977e-06 -2.15823e-06 -7.45956e-05 -4.21527e-05 0.000158453 -0.00049674 0.000485567 
0.000690672 -0.000202731 -1.92795e-05 0.000316197 -0.000218669 -0.000204237 -1.75109e-06 0.000385994 -4.44891e-05 
5.64819e-05 2.782e-05 7.42558e-05 0.000127312 -0.000202742 -0.000142535 -7.63401e-06 -1.543e-06 4.34903e-06 
-8.31994e-05 6.52468e-06 0.000198893 5.96872e-05 3.34988e-06 -7.72364e-05 -0.000187782 -2.86545e-07 0.000157671 
-8.01343e-05 -8.47748e-05 -5.92826e-06 -5.61193e-05 4.58182e-05 0.000103119 3.31029e-05 -7.28162e-05 5.13004e-05 
-0.000196557 9.24908e-05 0.00023293 -5.24382e-05 -0.000230402 7.00637e-05 0.00026396 -0.000212433 -1.54752e-06 
9.86263e-06 4.19422e-06 0.000182346 0.000221325 -9.13305e-05 -5.89323e-05 4.34032e-06 0.000107543 -0.000173317 
-1.08869e-05 0.000101935 -6.11307e-05 -0.000124017 -0.000106404 1.0981e-05 3.00902e-05 -0.000160774 -0.000258126 
0.000123574 2.14169e-05 3.71086e-06 9.23582e-07 6.21825e-06 4.83903e-06 4.68173e-06 2.8301e-06 -1.04778e-05 
2.13029e-06 5.32357e-06 -5.94091e-06 -1.44271e-06 5.38659e-06 -4.28139e-06 -5.28584e-06 5.8922e-06 -6.39342e-08 
-6.55644e-06 5.08594e-06 1.79852e-06 -3.3099e-06 5.43192e-06 4.89625e-06 -5.27436e-06 8.65667e-06 -3.4967e-07 
-3.60498e-06 8.40644e-06 1.01974e-06 3.92939e-06 -0.000139693 -0.000204006 0.000147236 8.7351e-05 -0.000183936 
0.000300403 1.96725e-05 2.66346e-05 -0.0135857 0.0064476 -5.68289e-06 1.27909e-05 -1.90243e-05 -2.37835e-06 
-2.07096e-05 1.24973e-05 -9.13571e-06 -4.07586e-05 6.23845e-05 -0.000110394 3.02848e-05 8.4389e-06 1.6505e-06 
-6.45138e-06 1.02342e-05 4.22652e-06 -5.3426e-06 7.63947e-06 -4.3376e-05 -7.73884e-05 -9.70506e-06 -4.81935e-06 
-5.14026e-06 -2.33091e-06 1.94819e-05 -4.18008e-07 -6.82936e-07 6.1277e-06 9.7331e-08 -1.42379e-07 -7.40734e-06 
2.61299e-06 3.67173e-06 -1.61564e-05 3.63769e-06 5.54903e-06 -1.77162e-05 3.26967e-06 6.94193e-06 -1.33043e-05 
3.29703e-06 9.68652e-06 -1.05632e-05 -8.31082e-06 -0.000109042 -0.000223042 7.87502e-06 -4.75276e-05 3.23669e-05 
-5.59423e-06 1.18548e-07 -3.00572e-06 -2.53085e-05 -1.20515e-06 -0.000110933 -3.56967e-06 3.35075e-06 -1.00151e-05 
-5.86392e-06 -7.10499e-07 -3.24303e-06 -3.94805e-06 -4.65051e-06 -1.4294e-07 1.07636e-06 -1.35549e-05 1.39279e-05 
-5.74102e-07 -2.53957e-05 2.9889e-05 5.37236e-06 -2.134e-05 3.79717e-05 1.34941e-05 -3.47042e-05 3.44722e-05 
-4.01628e-05 -6.98421e-05 3.20795e-05 4.10942e-05 -4.30676e-05 -8.79166e-05 -0.000118947 -0.000167507 -3.8216e-06 
-3.88997e-05 0.000461314 0.000239977 -2.03459e-05 2.94181e-05 -1.63528e-06 6.22937e-06 5.72621e-06 8.76403e-06 
9.51779e-06 -3.26386e-05 5.10284e-05 1.79211e-05 -6.18462e-05 7.16579e-05 -1.58307e-05 -4.73641e-05 0.000125649 
-1.50682e-07 -7.27158e-05 0.000161927 -3.96748e-05 -5.67689e-05 0.000197133 -7.83346e-05 -5.73947e-05 0.00027334 
-0.000131367 -6.65652e-05 -3.92086e-05 -3.29231e-05 -6.93399e-05 -5.8515e-05 -8.31561e-05 9.08374e-05 -0.000376011 
-8.28256e-05 -4.45003e-05 4.05298e-05 2.48736e-05 2.84324e-05 -2.11653e-05 -8.90048e-06 2.20795e-05 -0.00012063 
-3.72451e-05 0.00019915 -4.96515e-05 -8.66177e-05 9.7116e-05 -2.9565e-05 -0.000101771 0.000231842 -4.17395e-05 
-0.000111629 0.000170463 -5.12456e-05 -9.51687e-05 7.26662e-05 -5.9135e-05 -9.44906e-06 7.01043e-05 -0.000153319 
-3.03344e-05 9.05617e-05 -0.000167403 -7.3697e-05 0.000196622 -0.000165181 -6.25559e-05 0.00030748 -0.000139757 
-7.98473e-05 0.000295038 -2.054e-05 -6.25825e-05 0.000250832 -6.48467e-05 -1.13179e-05 -3.26533e-06 6.05316e-06 
-2.5027e-06 3.63338e-06 -3.61359e-05 -1.40211e-05 3.16404e-05 -8.71147e-05 -7.77814e-05 9.02373e-05 -0.000148485 
4.14676e-05 3.00356e-05 -6.81374e-05 5.93226e-05 -4.54117e-05 -7.4168e-05 -3.78781e-05 0.000138854 -8.48973e-05 
1.90901e-05 8.64978e-05 -0.000120244 -6.2336e-05 5.21827e-05 -3.26513e-05 -0.00843878 0.00392469 -3.67193e-05 
-7.30143e-05 6.04928e-05 -7.54348e-05 -9.82373e-05 0.000100151 -9.35467e-06 -0.000133871 0.000117867 7.13181e-05 
0.000120178 4.61307e-05 -4.88759e-05 -3.40045e-06 2.18027e-06 -7.01862e-05 4.43947e-05 -9.64001e-05 -2.12649e-05 
0.00020029 -4.00931e-05 -6.23572e-07 0.000203101 -7.01559e-05 -0.0132298 0.00735721 -3.69948e-05 -0.000231425 
0.000125837 -3.70431e-05 -0.000213647 0.000191852 5.14055e-06 -0.000102906 0.000196862 -5.08391e-05 -0.000203607 
5.63746e-05 -0.000154645 -4.48331e-05 0.000264333 0.000238593 0.000172524 -0.000266345 -5.4966e-05 3.69168e-05 
9.55239e-05 9.29341e-07 -2.20938e-07 0.000289077 -7.98864e-05 -0.000110393 -0.000118584 0.000174509 -0.000231786 
-5.80625e-06 4.86772e-05 -9.70075e-06 -4.38454e-05 0.000191452 -6.35329e-05 -0.00870034 -0.00659118 5.83479e-05 
8.73422e-05 5.9466e-05 -5.09415e-05 -0.000120945 -0.000251488 0.000374174 1.30465e-05 -5.74961e-06 0.000272943 
-4.05462e-06 1.56768e-05 1.52441e-06 -0.000136057 8.58554e-05 -8.18295e-05 3.15202e-05 -9.50028e-05 1.05506e-05 
-1.04165e-05 -4.70142e-05 0.00011031 4.72055e-05 7.38992e-05 0.000214758 -7.95944e-05 2.15734e-05 0.000228915 
-0.00023243 -4.90051e-06 0.00014787 -1.57995e-05 8.61874e-06 -7.77945e-06 5.1012e-06 -3.08453e-05 8.11054e-05 
-0.0147228 0.0103417 -0.00015701 -3.41782e-05 -1.0604e-05 4.10867e-06 -7.31013e-06 5.54765e-06 6.15402e-06 
-6.02859e-06 7.89051e-06 -3.79467e-06 -6.41179e-06 5.39038e-06 3.50026e-06 6.82365e-06 -3.72156e-05 -4.6882e-05 
-1.17506e-05 4.36191e-06 5.84674e-05 -3.42424e-05 3.34025e-05 2.90176e-06 1.16046e-05 1.09295e-05 1.86757e-05 
-2.03216e-05 1.66024e-05 8.09203e-05 -1.26465e-06 -4.0752e-06 3.17403e-06 -8.44057e-06 4.34689e-06 -8.10817e-06 
8.6631e-06 5.89208e-06 -5.39747e-06 -4.89535e-06 3.16962e-06 6.58802e-06 3.87959e-06 1.18347e-05 -2.90849e-05 
3.61088e-06 1.20741e-05 -1.84763e-05 -3.85205e-06 5.67709e-06 -3.23575e-05 9.62101e-06 2.51387e-05 3.74098e-06 
1.19525e-06 -5.99547e-07 3.79627e-05 3.83289e-05 -0.000103357 -1.79762e-06 2.92047e-06 -3.14601e-06 5.0174e-07 
-2.85777e-06 -2.3203e-06 -1.12258e-05 1.20019e-05 -5.75212e-06 -2.71757e-05 4.14369e-05 2.24016e-05 -6.30838e-05 
6.50564e-05 -6.59072e-05 -8.33226e-05 -2.0172e-05 4.77792e-05 3.03793e-05 4.65408e-06 -2.24109e-07 -8.78734e-06 
-4.21385e-06 -2.7521e-07 4.16165e-06 5.97488e-06 1.20112e-05 1.26617e-05 4.02712e-05 1.81408e-06 4.62178e-05 
-2.14843e-05 5.27787e-07 1.59684e-05 -0.0127812 0.00563762 0.000115374 -2.00375e-05 -0.000108919 0.000155142 
-7.3591e-05 -9.97635e-05 0.000232788 -0.000115474 -0.000149527 -1.48893e-05 -0.000169273 -6.32156e-05 -6.63219e-05 
-3.10088e-06 0.000112543 -0.000102132 -6.27432e-05 -0.00013777 -6.1924e-05 8.79699e-05 0.000101824 2.1651e-05 
-5.85753e-05 0.000150104 -7.67022e-05 -5.87599e-05 -0.000156708 -4.7356e-05 0.000111823 -0.000164928 -7.10277e-05 
9.51208e-05 -0.000218759 -4.83785e-05 0.000332771 2.6596e-05 -2.18871e-05 7.41282e-07 -2.44425e-05 2.51442e-06 
8.97632e-05 3.49413e-06 -1.08484e-05 1.16934e-05 -6.79708e-06 4.68797e-06 2.16107e-06 -3.72915e-05 1.49366e-05 
1.07196e-05 -3.02118e-05 -5.80065e-05 9.88573e-05 2.02365e-05 -1.48412e-05 -1.76764e-05 -0.0124165 0.00450818 
-4.33654e-05 1.09802e-05 7.02785e-05 -8.92921e-05 2.58299e-05 6.81132e-05 -0.0206463 -0.038254 -0.042149 
-0.0355326 -3.14601e-05 -5.19335e-05 4.38971e-05 5.44943e-06 -0.000110864 4.08187e-05 -6.34739e-06 -5.23022e-05 
0.000111002 2.29065e-05 4.58905e-05 1.4103e-06 3.01841e-05 -5.15654e-05 -8.21235e-05 -0.033043 -3.87015e-05 
-9.83548e-05 5.43024e-05 -3.49719e-05 -0.00017812 0.000181165 -6.30079e-06 -0.000116164 0.000217764 -7.91973e-06 
-1.50556e-05 0.000146223 -0.000164089 -2.38343e-06 -1.73087e-07 -2.07142e-06 0.000156854 -4.29309e-05 -0.000218834 
-0.000210376 1.79441e-06 3.05217e-06 -2.47824e-06 -5.2102e-06 1.1056e-05 -1.01022e-08 -9.56384e-05 1.33744e-05 
-2.45524e-05 -5.87649e-05 3.01009e-05 4.61221e-05 2.72993e-05 -1.94462e-05 -3.97707e-05 3.08508e-05 8.00259e-05 
-3.10614e-06 -7.71474e-06 -2.00781e-05 0.000120794 -0.000102039 -2.83131e-06 -2.32646e-05 -6.49776e-05 -0.000121537 
-6.5342e-05 6.06771e-06 4.96822e-06 -2.07638e-06 -8.35168e-06 2.25146e-05 6.81439e-05 -4.50824e-05 2.39672e-05 
-9.16274e-05 0.000201497 -1.86126e-05 -2.87332e-05 4.6356e-05 -3.85346e-06 -3.43505e-05 9.7522e-05 -1.19957e-05 
-0.000167135 1.4864e-05 -1.81806e-05 -5.39699e-05 3.98038e-05 -0.000107666 -3.62432e-05 -0.00012404 0.000105055 
-2.15289e-05 -4.46415e-05 0.000188836 4.29566e-05 -0.000130781 0.000123749 -0.000135763 -0.000130084 0.000245432 
8.98271e-05 -7.84116e-05 -7.00466e-05 8.17751e-05 -1.59474e-06 -3.27269e-06 1.27553e-05 6.35662e-06 -7.51916e-05 
-0.000115319 0.000226311 5.22729e-05 0.00021349 -8.17352e-06 5.17577e-06 -0.000142315 -7.44925e-05 6.41337e-05 
-8.02607e-05 -2.37019e-05 -5.53368e-06 -6.15372e-06 2.45424e-05 -0.000195242 1.63413e-05 6.38217e-06 1.86743e-06 
1.98149e-05 4.71776e-08 4.79648e-06 2.50793e-05 -2.13111e-05 6.41521e-07 7.03672e-06 4.80904e-06 1.8923e-06 
-2.29063e-06 6.9734e-06 -2.97362e-05 -2.22642e-05 2.86471e-05 4.45593e-05 -1.08326e-05 0.000106313 -1.2939e-05 
-2.03333e-05 -4.00279e-05 -3.42786e-05 -1.58858e-05 -1.4221e-06 6.42011e-06 7.60689e-06 -1.38065e-05 -0.000161004 
0.000119382 -0.000122241 0.000199558 3.65524e-06 -4.46997e-06 0.000243552 -4.78e-05 -0.000218301 -6.89836e-05 
-0.00011516 -7.68506e-05 0.000245047 -8.92345e-05 -4.77861e-05 -2.84544e-05 -3.56717e-05 0.000129967 -1.41751e-05 
-8.37003e-05 3.11576e-05 1.96284e-06 5.85746e-06 4.41538e-06 -3.05887e-06 -6.7983e-06 9.2571e-06 5.73781e-06 
8.76976e-07 -6.33335e-06 -3.55746e-06 -8.31037e-06 4.47237e-07 8.18369e-06 -4.40407e-05 1.74257e-05 -9.72899e-06 
4.44872e-06 9.52993e-06 8.18294e-06 -4.22956e-05 -5.99131e-05 -1.81344e-05 -0.00547939 -5.87146e-05 3.21368e-06 
5.83578e-05 -2.1306e-05 8.44783e-07 6.70374e-05 -5.03437e-05 -1.94234e-05 2.5366e-05 -4.24938e-06 2.14307e-05 
2.8934e-05 8.55174e-06 0.00013976 -5.30071e-06 9.0487e-06 -2.22405e-06 -4.87301e-06 -0.000116323 -1.22655e-05 
-0.000110835 -7.45795e-05 0.00021625 6.44517e-06 -7.63514e-06 5.01561e-06 -2.89588e-05 -1.19028e-05 3.27486e-05 
7.76513e-05 3.82004e-06 -1.62201e-05 2.52627e-05 0.000174479 -2.22016e-05 -5.41228e-05 -3.50803e-05 2.95792e-05 
-1.47005e-05 1.09584e-05 -1.19491e-05 -4.72915e-05 -0.000109422 -1.78936e-05 4.82576e-06 -4.03806e-06 -6.79527e-05 
1.64855e-05 1.98418e-05 -3.08259e-05 -3.27377e-06 4.21127e-05 -4.63012e-05 6.94904e-06 3.85942e-05 -4.22611e-07 
-5.07303e-05 -2.58332e-05 -3.84804e-05 -0.000141781 0.000111949 -0.000177532 -1.68698e-05 7.12076e-05 1.78316e-05 
-7.19678e-05 0.000150862 -6.69881e-05 1.02925e-05 -5.30911e-06 -1.96505e-05 6.17278e-05 -4.36685e-05 0.000103771 
-1.60685e-05 -0.0415166 0.000105424 -2.86161e-05 -8.02752e-07 3.12927e-05 1.59626e-05 2.56002e-07 -4.02256e-06 
-1.96654e-05 -1.9698e-06 -0.000110082 8.08722e-05 3.28756e-05 0.000100172 -5.93361e-05 -4.16763e-07 5.31117e-06 
0.000165222 -3.65647e-06 2.94861e-06 2.06801e-05 4.91005e-05 -0.00811025 -0.0226979 -0.00517017 5.65403e-05 
-3.65621e-05 -0.000163898 0.000111991 4.10728e-05 -3.52023e-05 -0.00988102 -0.0227505 2.11972e-06 -5.76704e-05 
-0.000259187 7.34891e-06 1.0803e-05 2.60342e-06 6.18733e-07 4.04527e-06 -9.21145e-05 8.49081e-06 -3.41956e-05 
4.97738e-06 -8.53151e-06 4.4924e-05 -2.09388e-05 -0.000240326 2.43199e-05 9.05176e-06 -2.06096e-05 1.03975e-05 
-3.24628e-06 -1.83592e-05 -1.91079e-05 -5.64832e-05 -0.000117332 -0.019817 -0.00612075 -1.4876e-08 -7.81857e-06 
3.20812e-06 0.000215756 -5.23015e-05 -0.000159548 0.000334228 4.52871e-09 -1.66202e-05 1.49596e-05 1.42006e-05 
-5.11741e-06 4.27353e-05 -3.19523e-05 -5.11641e-05 2.59638e-05 2.28926e-05 8.09242e-05 -6.59469e-05 1.44202e-05 
-1.29529e-05 5.92892e-05 -1.10521e-05 0.000169213 -8.21669e-05 -1.38554e-05 -2.64951e-05 6.45515e-06 -8.47285e-06 
-6.29581e-06 3.326e-05 5.77217e-06 -4.96951e-05 -2.01759e-05 -4.02201e-05 -2.04844e-05 -2.22531e-07 1.29027e-05 
-6.46571e-06 4.78237e-06 -2.02267e-05 -2.88509e-05 1.11651e-05 0.000271922 -0.000134624 -0.000159998 -3.24802e-05 
-3.00227e-05 1.38511e-05 3.78429e-05 2.48817e-05 -0.000221933 0.000211217 -9.4693e-05 -2.57752e-06 -1.36553e-05 
0.0115935 -9.87226e-05 0.000194589 -4.14936e-06 -1.37595e-06 -2.30019e-05 1.76604e-05 6.02331e-05 4.27137e-05 
-0.000108859 -3.91458e-06 0.000175904 0.0112358 0.00981949 -8.81518e-05 2.68085e-05 -3.09044e-06 -3.57963e-05 
-9.03567e-05 1.68916e-05 2.89246e-06 -0.0289069 -0.007489 7.27863e-07 -2.94117e-05 3.87324e-05 -6.97173e-05 
2.18942e-05 -4.17321e-05 4.80342e-06 -3.30838e-06 1.36538e-05 -2.82048e-05 -0.0285056 -0.00991349 7.98363e-06 
9.0294e-05 -1.51972e-05 0.000112584 -0.0254457 -0.0039457 -5.08113e-06 -0.0297123 -0.00643807 1.8489e-05 
-0.0311683 0.0275212 -3.14075e-06 0.0549796 -1.19304e-06 1.65117e-05 8.42473e-06 2.16714e-05 9.88941e-06 
1.67179e-05 7.88121e-06 1.5912e-05 6.89427e-06 1.32331e-05 5.06522e-06 1.19765e-05 4.81189e-06 1.07793e-05 
3.70184e-06 8.37514e-06 1.30908e-06 3.71855e-06 -2.18367e-06 -1.89414e-06 -4.03123e-06 -1.98836e-05 -5.36236e-06 
-1.83689e-05 -7.43614e-06 -7.00582e-05 -7.28844e-05 -2.91725e-05 -0.000141435 -2.51347e-05 -0.000122284 -5.57521e-06 
-0.000209605 -5.71916e-05 -0.000144198 -3.01629e-05 -7.6722e-05 -4.56985e-08 2.28932e-05 4.04732e-05 0.000285555 
4.26141e-05 0.000504019 0.000125443 0.000524349 8.99622e-05 0.000183567 6.50632e-05 8.91538e-05 -9.5101e-06 
-2.4243e-06 -5.41812e-05 -0.000153544 -4.74906e-05 -0.00012884 -0.000104096 -2.39665e-06 -0.000125564 -2.77037e-05 
-6.48971e-05 -1.97236e-05 -3.91178e-05 -1.27627e-05 -3.50432e-05 -1.29389e-05 -2.79791e-05 -8.50444e-06 -4.60157e-05 
3.11952e-06 -2.88856e-05 -7.68306e-05 -2.60541e-05 -5.8498e-05 6.60878e-06 -0.000155942 -7.91084e-05 -0.00027173 
-0.000134958 -0.000510825 -0.00027373 -0.00106535 -0.000352064 -0.00191077 -0.000885094 -0.0280366 -1.99719e-05 
-2.59955e-05 2.32977e-06 -0.0418421 0.0318246 -4.12923e-06 6.14314e-06 -0.0389632 -0.0223863 -0.000779111 
-0.00186313 -0.000460276 -0.000785157 -0.000288213 -0.000443809 -0.000181645 -0.000282401 -0.000103255 -0.000163297 
-5.92046e-05 -0.000107979 -4.33253e-05 -8.24869e-05 -2.10965e-05 -5.47685e-05 -1.66564e-05 -3.32004e-05 -1.51827e-05 
-3.52279e-05 -1.10979e-05 -3.75855e-05 -1.12918e-05 -4.53437e-05 -1.67208e-05 -5.70657e-05 -2.24473e-05 -6.66258e-05 
-3.18952e-05 -7.26235e-05 -4.6709e-05 -7.30916e-05 -5.86482e-05 -6.41114e-05 -4.72552e-05 -2.83645e-05 -9.22454e-07 
5.10615e-05 5.3636e-05 0.000162833 0.000129039 0.000236185 0.00016221 0.000233414 0.000132855 0.0001558 
7.36515e-05 4.04017e-05 4.78791e-06 -4.59236e-05 -4.52774e-05 -8.82003e-05 -5.16625e-05 -9.77897e-05 -4.90824e-05 
-8.80803e-05 -4.15037e-05 -7.2976e-05 -3.54258e-05 -5.35891e-05 -2.42092e-05 -3.57117e-05 -1.55501e-05 -2.23324e-05 
-9.03822e-06 -8.20908e-06 -5.34203e-06 -2.03717e-06 -2.91289e-06 2.69067e-06 -2.34338e-07 5.8323e-06 1.67547e-06 
9.11278e-06 3.01584e-06 1.39553e-05 4.28176e-06 1.74184e-05 5.81662e-06 2.0794e-05 8.04771e-06 2.24289e-05 
9.75351e-06 2.43369e-05 1.0389e-05 9.74643e-06 -4.0458e-06 1.43523e-06 5.98038e-06 1.04898e-05 3.68269e-05 
5.96362e-06 1.27458e-05 7.49712e-06 1.43568e-05 7.48556e-06 9.02991e-06 3.95516e-06 5.45609e-06 1.56165e-06 
-3.57099e-07 -3.36623e-07 -4.99829e-06 -2.38885e-06 -8.32327e-06 -3.21635e-06 -1.67985e-05 -2.23507e-05 -4.95828e-06 
-1.0857e-05 -3.42721e-06 -3.17151e-05 -6.89597e-06 -2.04397e-05 -6.84273e-06 -2.10468e-05 -7.46614e-06 -2.13411e-05 
-5.71308e-06 -1.27852e-05 -7.91925e-07 -2.34856e-05 -4.04998e-06 -1.03573e-05 4.84482e-07 -1.05285e-05 -7.08308e-07 
-7.70448e-08 -1.11024e-06 2.20946e-06 1.00385e-06 7.76933e-06 3.80565e-06 1.26286e-05 5.96684e-06 2.50847e-05 
8.82724e-07 1.99907e-05 8.57185e-06 5.14565e-06 -3.15526e-06 0.00357318 -0.000673743 0.0288509 -0.0436034 
0.00266623 -0.0278489 -0.00689663 -0.0163476 -0.00247674 -0.0240031 -0.0106011 -0.0231607 -0.00374259 
0.00571421 -0.0337339 -0.0485156 0.0193745 -0.0377261 -0.00845599 -0.0308084 -0.0030382 -0.02401 
0.00506559 -0.00247524 -0.00463477 0.00576964 -0.00905455 -0.00761738 -0.00246985 -0.0166424 -0.00686475 
0.00141954 0.0109191 0.00599326 0.0267288 -0.0438185 -0.0329315 -5.89923e-06 1.5881e-06 8.32406e-07 
2.24611e-06 -0.0308998 -0.0239779 -0.0260407 -0.0291468 -0.0278196 -0.0303885 -0.0320435 -0.0364403 
-0.0232418 -0.0327493 -0.0362465 -0.029601 -0.0331586 -0.0181005 -0.023839 -0.00490292 -0.0322762 
-0.000773303 0.000193678 -7.7596e-05 -0.00512535 -0.0373465 -0.0391064 -0.037247 -5.93534e-06 -0.0320841 
-0.0281382 -0.0331064 -0.0376362 -5.45714e-06 5.91128e-05 3.48396e-05 -0.0293139 -0.0200185 -0.0127218 
-0.0205275 -0.0401364 -3.06647e-06 7.73011e-07 0.0071389 -0.0715607 -0.0498876 0.000758797 -0.020053 
-0.0704767 -0.0171264 0.0162412 -0.0063277 -0.0191984 -0.0019064 0.00261448 -0.00654183 -0.00162946 
-0.000224508 0.000241436 5.83058e-05 -5.9442e-06 0.000209645 8.95076e-05 -1.85048e-05 -0.000251689 -0.0171331 
-0.00180867 -0.00141784 -0.00573885 -0.0158768 -1.70941e-06 5.54394e-06 -9.30649e-07 6.95079e-06 2.17457e-05 
2.61871e-05 -3.32255e-05 -5.05693e-05 -8.01005e-05 1.04821e-05 -2.06518e-05 -6.75666e-05 -2.25923e-06 -1.58623e-06 
1.37402e-06 2.9216e-06 8.96489e-06 4.8364e-07 -8.14003e-06 -9.25805e-08 -3.48232e-06 2.76567e-06 -5.40435e-06 
2.2172e-06 -1.89196e-06 8.50295e-07 -6.99812e-07 -7.8277e-06 8.98503e-06 -2.30455e-05 -0.000685048 0.000959597 
0.000100511 -1.19292e-06 8.10594e-07 6.77453e-06 9.60653e-07 -1.08219e-05 -1.17362e-05 -2.62072e-06 -2.69739e-06 
-2.03453e-07 0.00035081 -0.000356255 1.36544e-06 -2.0407e-06 -8.26755e-06 5.53284e-06 1.31365e-06 1.51046e-05 
-8.32263e-06 -1.05391e-05 2.43041e-05 2.33791e-06 4.52249e-06 1.09639e-06 -5.13815e-05 -7.7264e-05 2.58368e-05 
0.000138256 1.08475e-07 1.80249e-06 -4.74201e-06 8.73242e-07 0.0135709 6.03437e-06 4.11119e-06 5.89604e-07 
7.92261e-06 -1.05488e-06 -4.89753e-06 0.000165868 -0.000208619 -3.31173e-05 1.20963e-06 -3.59621e-06 5.92187e-06 
-2.36574e-06 8.96406e-07 1.75127e-05 4.80585e-05 2.40194e-05 4.58865e-06 2.43053e-07 -1.12278e-05 4.0501e-06 
1.79548e-06 1.09751e-05 -6.1061e-05 0.000149033 -0.000111901 0.000148232 -0.000272247 -0.000279699 0.000556545 
0.00101602 -0.00055197 -0.000614572 -5.77028e-07 1.15845e-06 -8.04204e-07 -0.000992314 -0.00267843 -0.000325827 
5.83565e-06 5.50481e-06 -7.31485e-07 -3.54442e-06 -2.21134e-06 2.19389e-06 -9.69807e-05 -1.43416e-05 3.4682e-07 
2.54535e-06 -1.46251e-06 -5.94706e-06 5.94353e-07 5.37579e-06 -5.55616e-06 1.57276e-07 4.32443e-06 -2.9682e-06 
3.18888e-05 1.84468e-05 1.48635e-05 -1.60174e-05 6.7892e-05 6.02695e-05 -9.7247e-05 -3.72187e-05 0.00114475 
-5.06399e-05 -0.000234368 0.000147954 -6.81172e-05 5.24271e-05 -2.57127e-05 -8.69481e-05 4.912e-05 5.85416e-05 
-8.80574e-07 -2.77311e-07 9.08889e-06 -8.81273e-06 -5.40821e-05 -1.40797e-05 2.30954e-05 3.70894e-05 -7.97872e-06 
-3.10846e-05 -6.69029e-06 0.00199558 -0.000290096 0.000412625 4.62278e-06 -2.22848e-06 -0.00584643 -0.00340118 
0.0122454 -2.49281e-06 6.99891e-07 -3.6598e-06 0.0180624 0.000462285 -0.000226072 0.00101327 -1.44482e-05 
1.20689e-05 2.1402e-06 1.10833e-05 1.15126e-05 3.09757e-06 -5.56803e-06 -2.32495e-05 -6.18334e-06 -7.22625e-06 
-3.43566e-06 2.25322e-07 -2.88181e-06 1.90564e-06 0.0115047 -0.00635318 0.0183323 5.42397e-06 -8.0227e-07 
-3.49941e-06 3.03344e-07 0.000311888 -5.27473e-05 -4.97609e-07 9.76447e-05 -1.72097e-05 5.34955e-06 5.43355e-07 
-4.90558e-06 -2.11804e-06 -0.0163001 -0.00220894 -0.00867789 5.86924e-05 0.000398231 7.43241e-05 6.17412e-06 
2.37656e-06 7.69262e-07 -0.000177756 -1.86936e-05 -4.84985e-05 0.000172331 0.000174796 -1.02524e-05 -4.07735e-06 
8.50363e-05 -8.02253e-06 -5.13095e-05 -9.55858e-06 3.30987e-05 -5.09385e-06 4.76402e-05 6.26089e-05 -1.34028e-05 
-1.86788e-05 -3.08418e-05 7.15782e-06 6.68681e-05 -7.79519e-05 -2.36786e-05 8.44924e-05 -0.000148419 -4.70534e-05 
7.14707e-05 -1.4139e-05 0.013275 -2.09161e-05 3.9154e-05 8.80221e-06 -2.4913e-05 1.57932e-06 1.04453e-06 
5.95581e-06 5.31637e-06 -2.1442e-06 -1.49189e-07 0.000106915 -6.30426e-05 1.88778e-05 1.12829e-06 -0.000216233 
-5.0698e-05 -8.65529e-05 0.000233366 -0.00427979 0.00121567 0.00305854 0.000621111 -0.00251116 1.28725e-05 
1.28739e-06 -4.2492e-05 -1.10167e-05 -2.86783e-05 -3.0114e-06 2.07533e-05 6.45772e-05 -1.73684e-05 9.17512e-06 
1.02982e-05 2.07111e-06 -7.18285e-05 4.33785e-05 -1.42303e-05 3.65351e-05 0.000167474 -8.91709e-05 6.97563e-06 
0.00297899 -0.00151292 0.000658156 3.06145e-05 -0.000126454 -1.2136e-05 8.04296e-08 3.06625e-06 -1.21367e-06 
-1.56172e-05 -0.000180117 -2.33389e-05 0.000115032 0.000199474 -0.000134519 2.86017e-05 6.82896e-05 -1.57738e-05 
0.000154407 6.36945e-05 -0.000204104 3.62514e-06 -0.000188289 2.47872e-05 0.000105747 -1.83975e-05 6.80669e-06 
-1.61432e-05 -0.000319137 0.000256678 5.70256e-05 5.72059e-05 -3.23346e-06 -6.64812e-06 -2.83872e-06 -1.27872e-06 
9.73011e-07 -6.45203e-07 -2.85618e-06 0.0174322 -0.00129296 -0.00864133 -0.00131531 -9.6813e-05 0.000978949 
8.30657e-05 -0.000215275 2.48418e-06 -1.51165e-05 2.18555e-06 1.1738e-05 -2.88791e-07 4.97711e-05 5.22575e-07 
4.67564e-05 3.56395e-05 1.17352e-05 -6.76486e-05 -5.78508e-06 -1.19464e-05 -0.00195136 -0.000107632 -0.000323144 
0.00013024 -1.42025e-07 -0.000106994 1.40769e-05 -2.70755e-06 -9.15008e-06 -5.19185e-07 6.8215e-06 0.00105378 
-0.000143028 -7.92099e-05 2.69207e-05 8.52764e-08 4.68599e-07 4.94584e-06 -9.72959e-07 5.27992e-05 -3.71295e-05 
6.32393e-06 -2.31214e-05 4.74062e-06 6.84446e-07 0.000118118 -0.000106116 -2.14632e-05 3.16725e-05 -9.83185e-05 
0.000374845 2.45187e-05 0.0281162 -0.000266922 -0.00421316 -1.41613e-05 4.18578e-05 -9.22266e-05 -6.97958e-06 
7.46238e-07 5.54262e-06 0.0351356 0.0265112 -9.8375e-06 0.0003902 0.000431676 0.0132328 -0.00877408 
0.0020229 0.000891821 -0.000212503 -1.41313e-06 -5.11037e-05 -0.0174502 0.0147879 -0.00735732 -9.4392e-05 
-3.4954e-05 -0.00010952 0.000237004 9.50156e-06 -2.19577e-05 6.84457e-08 0.00105572 -0.000345347 0.000117321 
2.72422e-05 9.58912e-05 -1.3252e-05 -3.80214e-05 -3.07546e-05 4.16385e-05 -0.00121109 -9.2516e-06 -6.40105e-05 
4.73235e-06 -1.16467e-05 1.2968e-05 -1.16267e-05 0.00355972 -0.0049482 0.0174578 4.61462e-05 0.000195028 
-0.000146977 3.26905e-05 0.00953335 2.70864e-06 -0.0126657 -0.00784914 -0.00158481 -0.015203 7.25274e-05 
-2.28226e-05 -6.42017e-05 2.92021e-05 -4.90975e-06 -1.59412e-06 5.29818e-06 -3.23958e-07 -3.10783e-06 8.08703e-06 
-7.61407e-06 6.96153e-07 -0.00532953 -0.0164213 0.00959907 -3.47365e-06 7.94583e-07 -3.23908e-06 1.36847e-05 
-8.84399e-05 4.46535e-05 0.000141935 -0.000270449 0.000253642 -1.10567e-05 -0.00138577 -0.00545733 -0.0181999 
1.4024e-05 -5.20962e-05 -8.99825e-07 0.000105853 9.41992e-06 -0.000163265 3.25375e-05 -0.00632223 0.0146882 
-0.0155688 0.0142249 -0.00578709 0.0106605 -0.0013425 3.98716e-06 1.11373e-05 7.73366e-05 -7.21848e-06 
0.000948961 8.32462e-05 0.000281328 5.16531e-08 -0.000253175 -0.000220271 0.000197583 0.000103396 -0.000377015 
6.51161e-05 3.66367e-05 2.65614e-05 -7.26704e-06 9.0774e-05 -3.14935e-05 2.92649e-05 2.12401e-05 4.81638e-05 
-4.77326e-05 9.50831e-07 7.37762e-05 3.37024e-05 -2.52035e-06 -1.74255e-06 2.73213e-05 8.98998e-07 -2.37824e-05 
8.05923e-05 2.61033e-06 -2.60539e-07 -7.56046e-06 1.11191e-06 -1.06884e-06 -4.83384e-06 3.04895e-06 0.000209637 
-1.38132e-05 -3.41191e-05 3.24823e-05 -5.35478e-06 -4.01016e-06 -5.85473e-06 -4.77803e-07 -2.42312e-07 -2.46185e-06 
6.57814e-06 1.14338e-06 -4.26316e-06 -1.50895e-06 4.18306e-06 -1.22948e-07 -0.000122858 0.00024579 -0.000268588 
2.06521e-06 4.34201e-05 0.000156195 -1.62182e-05 -0.000890971 -0.0100504 -0.0126865 5.8734e-06 -5.77968e-07 
-5.03964e-06 -1.34411e-06 -3.39851e-05 1.57987e-05 4.36146e-05 -4.63192e-06 1.38308e-06 3.10624e-07 -2.76005e-06 
-4.52331e-05 8.68492e-05 1.25642e-05 1.52695e-06 -1.07787e-06 -7.34968e-06 7.57252e-06 5.26581e-06 -1.11615e-06 
-5.47024e-06 1.10018e-06 -3.70046e-07 9.58471e-05 -0.000110073 -0.000160779 1.25912e-06 -2.91636e-06 2.23259e-06 
8.82061e-06 1.75689e-06 -7.35639e-05 -1.49756e-05 4.35954e-05 5.77892e-05 6.25453e-06 8.2472e-05 -4.73506e-05 
-0.000129264 5.47526e-06 1.76681e-05 -1.62159e-05 -6.87419e-06 4.96368e-06 -0.000193207 -0.00659835 -0.0199171 
1.45713e-05 4.63696e-06 2.13129e-05 -0.000108988 7.79162e-05 -8.25089e-06 1.88958e-05 5.01367e-05 -5.52694e-05 
-7.8708e-06 5.29669e-07 0.0133746 -0.0145067 0.0119381 1.64039e-05 -2.9829e-05 -2.09744e-05 2.63406e-06 
4.51066e-06 6.67997e-06 -7.67346e-06 1.08624e-06 1.31253e-05 7.37224e-07 7.15167e-07 -1.18139e-06 2.70834e-05 
9.06005e-06 -4.11027e-05 1.25206e-05 2.06257e-06 1.14349e-05 -5.26365e-06 -1.5159e-05 -1.22446e-06 9.29356e-05 
-0.000110257 -3.01617e-06 7.24999e-05 4.90719e-06 1.12494e-05 0.000100684 -8.31003e-05 2.60189e-05 -3.15491e-05 
5.53696e-05 -2.96762e-05 2.10608e-05 2.89482e-06 6.56673e-07 -5.46569e-06 -1.36187e-06 1.11387e-06 2.7232e-06 
-4.61714e-06 6.25721e-07 -4.429e-05 -7.93569e-05 1.12906e-05 -1.95855e-05 3.33101e-05 -4.67826e-05 -9.17618e-05 
6.44118e-05 1.80986e-05 -3.72194e-06 -3.45495e-05 3.61425e-06 -0.000699974 -3.80614e-06 9.67348e-06 1.49254e-05 
-3.06396e-06 1.63407e-05 1.6723e-06 5.1594e-06 -1.31304e-05 -4.34325e-07 0.0268483 0.0154869 5.62493e-08 
3.96897e-05 0.000104869 4.30612e-05 3.63782e-06 1.77068e-06 -9.15508e-06 1.20034e-06 7.00492e-06 -8.89755e-06 
-6.3367e-06 4.46098e-05 -5.98238e-05 -1.14644e-05 0.000145019 -2.67699e-05 -3.4117e-05 0.0117322 -9.06451e-05 
0.000152715 7.76453e-06 5.83019e-06 -5.17908e-06 3.49844e-06 2.66252e-06 -2.845e-06 5.8035e-06 1.69525e-06 
-6.56227e-05 -9.70238e-05 5.54017e-06 2.72939e-07 3.16745e-07 -2.57469e-05 5.46605e-05 6.03028e-05 -3.27723e-08 
-2.37412e-06 3.03139e-05 -0.000227884 8.19289e-06 -1.42572e-05 9.11869e-06 1.19607e-06 2.59841e-06 -7.55937e-06 
3.48019e-06 -3.03856e-06 0.0002422 0.00114265 0.0027097 2.50833e-05 9.3351e-06 9.75852e-06 -5.2949e-05 
-8.89292e-06 -1.14376e-05 1.75111e-05 1.26172e-06 -1.43584e-06 2.50954e-05 -2.22658e-05 -0.000129945 -2.20065e-05 
0.000246747 -1.90179e-05 1.14396e-05 1.14708e-06 1.17124e-05 -1.99362e-05 0.00943952 1.58571e-05 -4.44445e-06 
2.07852e-06 1.69787e-05 -3.00189e-06 -3.98959e-05 9.97747e-06 -6.66131e-05 5.64231e-05 4.34172e-06 1.96434e-07 
2.26444e-05 -5.60815e-06 -4.39765e-05 7.05844e-05 5.99557e-05 -7.22719e-07 -4.51846e-06 1.36824e-06 -1.04696e-07 
-5.27685e-06 -0.00300664 0.00063288 0.000105648 0.000319919 4.47834e-05 -6.23667e-05 1.45168e-05 -0.00321559 
0.000570958 -0.00392313 -2.57075e-06 2.50635e-05 0.000127851 -0.000184964 -1.58187e-05 5.85825e-05 1.4168e-05 
-5.42533e-05 5.07501e-06 1.18769e-06 -1.51397e-05 -4.54635e-06 -7.2879e-05 6.65146e-06 2.70243e-05 3.33218e-05 
-0.00756687 0.000155482 0.00209254 2.05821e-05 -3.65676e-07 1.32956e-05 -7.65497e-06 0.000100502 2.12575e-05 
2.65101e-05 3.17116e-06 -8.59476e-07 5.63735e-05 -3.32821e-07 1.11217e-05 -2.75512e-05 8.76847e-06 -7.66798e-06 
9.39539e-07 -3.08343e-07 -1.19622e-05 3.55291e-06 -1.32458e-05 -2.43579e-06 5.0318e-06 0.00103176 -3.86794e-05 
0.00191775 -0.000142588 -0.00015749 -8.99638e-05 0.0110006 0.0228987 -0.00313649 -2.94557e-05 2.8428e-05 
-4.6456e-05 -2.4291e-06 1.60092e-05 -3.51549e-06 -5.25088e-06 0.0130438 5.34758e-05 -5.61452e-08 -8.23189e-05 
8.07666e-05 7.82262e-05 -2.80572e-05 1.39569e-05 7.66963e-06 -3.86426e-06 7.19135e-05 0.000147456 -1.08541e-06 
3.7677e-05 0.000103739 -0.000420555 -0.000113669 0.000293049 -0.000117851 3.43968e-05 0.00050409 -0.000407008 
-0.00157542 -0.000113439 8.29221e-07 2.31963e-05 -2.07391e-05 9.67018e-05 0.0194412 -0.0221026 -0.00676153 
-9.8221e-05 0.000129372 -0.000216275 -7.23081e-05 -2.03658e-06 2.0163e-05 5.34192e-05 -1.44359e-05 -0.0149764 
-0.00965616 -3.87965e-05 -3.09762e-05 8.2699e-06 3.27501e-06 4.48305e-05 -2.94573e-05 -1.35211e-06 1.43714e-05 
2.9947e-06 -2.72678e-05 1.00436e-05 -3.55488e-06 0.0126987 0.000941903 -0.000349134 0.00198908 -8.84281e-05 
0.000296875 -0.000304686 0.0013109 -3.34003e-05 -0.000238351 -0.00118051 -0.0102922 0.00166409 -0.00193554 
3.89409e-05 1.6838e-05 -3.66856e-05 3.03507e-06 3.36129e-05 7.27624e-05 -5.41688e-05 -0.0206696 0.00821479 
-0.00590955 5.58288e-07 1.45253e-06 1.40256e-06 9.77802e-08 2.81676e-05 0.00020718 1.65506e-05 1.52071e-05 
2.0649e-06 -0.0132479 2.47145e-05 -2.25423e-05 3.59905e-05 0.000680121 2.59703e-05 1.73155e-05 1.74116e-06 
-0.00645551 0.0100409 -0.0171988 0.0154034 0.000141445 3.75369e-05 -0.000102142 9.44951e-06 7.43588e-05 
4.255e-06 -6.30784e-05 -2.76055e-05 -0.000108626 0.000239429 9.8289e-05 0.000120504 0.000126036 0.000163565 
-1.9711e-05 2.10707e-05 -8.1934e-06 -6.89856e-05 1.68958e-05 -0.00155696 -1.581e-06 6.80982e-05 -6.52311e-05 
0.000225495 -1.63008e-05 -6.88957e-05 -2.08812e-05 -0.00016943 0.000125215 0.00793126 0.00283046 0.000684471 
-0.00234326 -0.000258073 3.19221e-05 -0.000111457 4.47013e-05 0.00277436 -0.000112966 -0.000157998 -0.000409809 
0.000810132 -0.00249194 0.000386818 8.53715e-06 -5.15995e-06 -3.74053e-05 -6.65884e-05 0.000164353 -2.23119e-05 
0.0173299 -0.00279643 0.0167817 -0.0080521 -0.0170702 -0.000343119 1.22026e-05 -9.53104e-05 -6.48349e-05 
0.000137275 -0.000200848 -4.25532e-05 0.00422961 -6.21052e-06 4.04907e-06 -8.58623e-06 7.05354e-06 1.62698e-06 
7.18605e-07 5.60286e-05 -3.95283e-05 -1.56976e-05 4.51439e-05 2.50878e-06 -4.37538e-06 -1.94609e-06 -0.0168455 
-0.00169339 -0.00606452 -0.00645578 0.0191876 9.99941e-06 -3.65848e-05 5.08038e-06 -3.88464e-06 -0.000190994 
-8.35625e-05 1.24077e-05 1.5299e-06 1.1602e-05 -3.76007e-06 4.3342e-06 6.26463e-06 2.72396e-06 -0.000131286 
4.63456e-06 5.42364e-06 -7.80753e-07 -2.66557e-06 1.33275e-06 1.24257e-06 6.06788e-06 -0.000184024 5.97021e-05 
4.17786e-06 -5.6991e-06 -4.96088e-06 1.03847e-05 -2.1246e-05 1.0804e-08 6.80862e-06 1.72311e-06 -0.000172187 
0.000128571 2.66712e-05 -2.50369e-07 -7.94911e-06 -2.1166e-06 1.68177e-06 -6.05656e-06 6.35464e-07 9.45622e-07 
3.08374e-06 -7.86265e-06 2.00838e-06 -6.26815e-06 -6.08211e-06 2.40127e-06 4.94158e-06 -1.87698e-05 7.24902e-06 
-5.49936e-07 4.74268e-06 -0.00022005 -6.13861e-05 -0.000264945 0.000235431 -6.11731e-05 5.03914e-05 4.84347e-06 
4.36189e-07 -0.0019923 -0.000860369 0.000441213 4.72777e-05 4.04609e-05 -2.16373e-05 8.05495e-05 0.000120632 
-6.48559e-05 1.49323e-05 -6.63506e-05 -7.56321e-05 -3.30336e-05 -2.05628e-05 5.34488e-05 5.50492e-06 4.41209e-06 
1.52227e-06 -1.94839e-06 -3.66645e-07 6.26911e-06 -2.62746e-06 -4.5676e-06 1.42713e-06 -9.63988e-06 6.07641e-06 
5.30464e-06 1.58978e-05 -1.75217e-05 1.72572e-05 0.000802924 0.0019796 0.013588 0.00108839 -8.4819e-05 
0.00189507 -7.30864e-06 4.85242e-05 -0.000215698 0.00249643 -0.000476333 1.56538e-05 -0.000105554 -1.06828e-05 
-7.23886e-06 0.00014641 -9.71049e-05 2.67863e-06 -1.49283e-05 -1.82703e-05 5.17294e-06 -8.75924e-06 3.02699e-06 
2.57316e-06 8.68633e-05 8.00086e-05 5.18927e-06 -6.55297e-07 -3.1782e-06 3.26355e-06 2.12496e-06 2.26612e-06 
3.4023e-06 5.80792e-06 6.34976e-07 4.66736e-06 2.03454e-06 -3.2e-06 3.34286e-06 0.000316691 5.28503e-06 
-8.00695e-05 3.36245e-05 0.0121803 0.0135018 -0.011378 6.19867e-06 1.36188e-05 6.41294e-06 -2.36214e-05 
-8.20292e-05 -1.12408e-05 0.000155901 2.71452e-05 9.74004e-06 1.09078e-05 1.21621e-06 -6.31594e-07 1.48531e-05 
8.14522e-05 -3.1556e-05 0.015317 -5.7996e-05 6.83255e-05 0.000304207 2.75955e-06 -4.71091e-06 6.67554e-06 
1.55253e-07 -2.19723e-06 4.29123e-07 1.2316e-05 -1.44609e-05 -3.72755e-05 0.0122577 0.013612 -0.0119177 
-3.19173e-06 -1.79477e-06 1.61478e-05 -2.3106e-05 2.32859e-05 0.000329258 -0.000355711 0.00339867 0.000193968 
-6.64546e-05 -9.0543e-06 -8.58891e-06 -2.28332e-05 -1.53594e-06 -3.19075e-05 1.898e-05 2.6645e-05 -8.71362e-06 
1.25523e-06 -3.88912e-06 7.75905e-06 -0.00156829 -0.00141882 -0.00497301 -4.9495e-05 0.0152143 -0.00925455 
3.32302e-06 -4.84575e-06 2.30396e-05 1.07556e-05 4.33003e-05 -3.69239e-06 -6.35748e-06 6.02243e-06 7.23436e-06 
-6.86062e-05 6.21934e-06 6.77213e-06 -8.29883e-06 4.17078e-05 0.0340942 -0.0060183 -0.00656556 -3.48448e-07 
-1.14069e-05 -1.67602e-05 -0.00016217 0.000184113 -2.79476e-05 2.84881e-06 4.48739e-06 6.81951e-06 -0.00050353 
-4.20764e-06 -2.13951e-05 -1.13976e-07 -2.17153e-06 5.65867e-06 -3.74704e-06 0.000713015 -0.00166597 0.00234684 
9.54745e-06 -1.81654e-05 3.79994e-05 3.88203e-05 1.43675e-05 -5.18381e-05 -3.01395e-05 -3.02812e-05 7.16922e-05 
-3.86662e-06 -0.00839276 0.041831 1.65376e-05 5.69493e-06 6.24914e-05 -2.18084e-05 -3.37221e-05 -0.00237382 
0.000761743 -5.58237e-05 3.93084e-05 5.37795e-05 5.06741e-07 0.0300128 0.0336315 7.02859e-06 -6.87582e-06 
2.50481e-05 0.000235335 -0.000254067 0.00441978 0.00654284 -0.000171113 -4.627e-05 -3.95172e-05 2.12834e-06 
5.2364e-06 -7.14828e-05 9.74689e-05 1.20328e-05 -4.91387e-05 0.000340993 -0.00213693 0.00118261 -0.00344734 
0.0379283 0.051139 1.87096e-06 -8.20188e-06 -0.000102399 0.000282053 1.75278e-05 -0.000186169 6.08046e-05 
2.70409e-06 -1.53066e-05 -1.19946e-07 -2.25495e-05 -5.26767e-06 1.46118e-06 -5.9716e-06 -0.00236077 -3.52348e-05 
1.21526e-05 4.33417e-07 5.27113e-06 6.06805e-07 -0.00502596 6.35703e-06 1.046e-06 6.79396e-06 8.95074e-06 
0.00179782 -0.000637369 0.000116914 -8.26068e-05 -0.000151539 -0.000531231 -4.63448e-05 -7.90062e-05 8.92522e-06 
1.5052e-05 0.000547578 -7.76144e-05 0.000286471 0.00226624 -0.00173561 1.04381e-05 5.98875e-06 -0.0159216 
-0.00667046 -0.00146437 1.16315e-06 -1.52624e-05 3.20626e-05 7.08583e-05 -3.32882e-05 0.000213879 -0.000145358 
-0.000178177 5.77553e-05 0.000406632 -0.00128647 -0.00684046 1.94738e-05 -2.68183e-05 -2.22514e-05 -2.42061e-05 
7.10142e-06 5.01851e-05 4.00428e-06 0.000376773 3.35547e-05 -6.52204e-05 1.17049e-05 1.3278e-05 8.9165e-06 
-1.43695e-05 -4.30953e-05 0.000121654 -2.82052e-05 -8.04575e-07 4.37685e-05 -4.40156e-05 3.17956e-05 -2.59134e-06 
6.17357e-05 -4.77112e-05 3.15275e-05 -4.46274e-06 -3.00665e-05 -0.000170974 0.00015783 0.000426529 -0.000573425 
6.43599e-07 -2.08834e-07 5.01787e-05 -0.000186745 1.1482e-06 1.88896e-06 6.34795e-06 -8.89309e-06 0.00018744 
2.99407e-05 -0.000154155 -1.40457e-05 -2.18717e-05 7.64795e-06 2.22353e-06 7.5777e-06 -1.84559e-05 3.14206e-05 
-2.26085e-06 1.51499e-05 -4.0823e-05 -3.7375e-05 -4.68183e-05 -1.35318e-05 8.56657e-05 -2.47281e-06 -2.70654e-06 
7.83953e-06 3.36858e-06 2.18052e-06 1.00526e-05 6.94977e-06 3.0583e-06 -0.00043305 -0.000394969 0.000377903 
-3.14167e-05 -2.26649e-06 -2.97178e-06 -2.04139e-07 3.00716e-06 0.0162098 -0.00014095 0.000892874 0.00513605 
9.51002e-06 -0.00736889 -0.00405458 0.000181106 -2.61827e-05 -7.01702e-05 0.0260398 -0.0022571 0.0202935 
-0.0196766 8.69986e-06 -4.36508e-06 1.14172e-06 8.03009e-07 -0.000235094 3.09052e-05 0.0159105 7.00426e-07 
-0.000273216 -4.05554e-06 -2.16651e-06 7.66604e-05 4.20031e-05 -2.64617e-05 1.76171e-05 7.21159e-06 -0.000113802 
0.000113698 -9.43414e-05 -1.36115e-05 -6.31049e-05 -5.23809e-05 4.79044e-05 2.17784e-05 2.19694e-05 -2.37505e-05 
-0.000189803 -6.24121e-06 -1.49349e-06 -1.10645e-06 7.42529e-05 -5.45376e-05 3.24004e-05 0.0160102 4.34206e-07 
0.0310476 -0.0127908 -0.0017133 -0.00099429 0.000751609 1.15601e-05 -3.15762e-07 9.19226e-06 -8.99965e-05 
-6.31126e-05 -0.000291355 0.000111292 -0.000394981 3.76121e-06 9.32007e-06 -2.97598e-05 1.50865e-05 7.79596e-06 
2.14808e-06 -6.22671e-06 -9.51211e-06 -4.14645e-06 -2.04408e-07 9.26324e-07 -1.33658e-06 -0.00774619 -0.00062943 
7.1038e-07 -5.19184e-06 -7.91897e-05 1.46289e-05 -5.45388e-06 2.51385e-05 5.1463e-05 4.10146e-05 3.46558e-06 
-1.28659e-06 2.55862e-05 -3.17886e-06 5.08154e-06 -6.8888e-06 -2.05045e-07 5.06483e-06 5.97215e-06 -1.76097e-07 
-8.79337e-06 4.79793e-07 3.10701e-06 4.21968e-05 -1.63346e-05 -0.000164194 -4.52273e-05 4.37393e-05 3.6235e-05 
-4.3934e-05 5.3752e-05 -2.64537e-05 -1.07291e-05 7.18974e-05 -1.63251e-05 -1.05017e-05 -3.67767e-05 -9.08193e-06 
7.24918e-06 -2.33043e-05 -3.96874e-06 8.06964e-06 3.99047e-05 -0.000115257 2.09101e-05 3.40018e-05 2.11394e-06 
-2.40911e-06 -7.72576e-06 6.17548e-06 2.20598e-06 -0.00193642 0.000767606 0.00310815 1.24267e-06 2.68093e-07 
-4.41582e-06 1.24376e-06 -1.97475e-05 1.33894e-06 -2.33112e-06 1.19151e-06 -1.84473e-06 -0.000148561 0.000110168 
1.32678e-05 -9.95974e-05 -0.000453583 -0.00649074 -0.00125423 4.85795e-05 -5.90974e-06 -1.47029e-05 -1.60109e-07 
-0.000118969 0.000162039 -9.46308e-06 -0.0104646 -8.96826e-05 4.01349e-05 -4.96197e-05 -6.54865e-07 -3.72892e-07 
0.0002637 0.000203635 6.78373e-05 -0.00017888 1.68387e-05 -9.72805e-06 1.99574e-05 -1.02219e-05 2.01657e-05 
-1.73563e-05 0.000108704 9.8521e-05 -5.60227e-05 -0.00010192 -6.29613e-05 3.04694e-05 9.30378e-05 -1.12483e-05 
0.0187661 -0.00627365 -0.0230599 7.30753e-06 -1.37913e-05 0.0187657 -8.9781e-05 -0.0167209 -4.45614e-05 
-7.49585e-05 2.65058e-05 -0.00086653 3.10564e-05 5.5897e-05 -4.2244e-08 -4.94552e-05 6.12038e-06 -0.000180104 
-4.80046e-05 0.000346709 -0.000772976 -8.5907e-07 -8.2558e-05 -1.68027e-05 7.72588e-07 4.7355e-05 1.76514e-05 
-4.5342e-06 -3.8974e-06 7.63721e-06 -5.05347e-07 -5.35288e-06 9.69412e-07 -6.63499e-05 -1.16336e-05 2.58311e-05 
1.38104e-05 2.47958e-05 1.63044e-06 -7.55531e-06 4.077e-06 -4.6871e-06 -2.15691e-05 1.96695e-05 -2.87915e-05 
5.45232e-06 9.95277e-05 -0.00224865 0.00240668 -4.59964e-05 6.29324e-05 3.21893e-06 0.000259338 -8.64198e-05 
2.4277e-05 -3.83084e-05 -3.47166e-07 0.000520959 -1.65602e-05 -2.80483e-06 -1.09456e-06 -0.000178509 0.00056259 
-7.1316e-05 1.93344e-06 1.17121e-06 -7.28986e-06 -2.06018e-06 -1.34578e-06 -1.04481e-06 0.0101885 0.000121371 
-3.59937e-05 2.46264e-05 -2.24749e-06 1.53554e-05 0.000251185 -0.000139509 -9.79509e-05 0.00015389 -3.70059e-05 
-7.59754e-06 -2.21219e-05 -2.05174e-06 -5.40116e-06 -2.75969e-06 4.73333e-06 7.67939e-08 -3.57716e-07 -1.5703e-05 
-3.59996e-05 -2.18606e-05 -2.9997e-05 5.5862e-05 2.04404e-05 -6.01263e-05 -4.4388e-06 5.95313e-05 0.0215675 
-0.0218106 -2.02847e-05 -7.0095e-05 5.54944e-05 -3.57041e-05 5.50765e-05 6.03195e-06 5.85282e-06 -9.03633e-06 
-0.000102665 -0.0377311 7.73387e-06 9.35769e-06 6.90924e-07 0.000769958 0.00169562 0.0022605 0.00410722 
-6.70317e-05 -6.74664e-06 5.62825e-05 -6.24424e-06 -5.74798e-06 4.33829e-07 -8.54066e-06 -4.82814e-06 6.24014e-06 
-1.92479e-05 4.77831e-06 -1.4013e-06 -5.40412e-07 4.81651e-06 -9.46992e-06 -0.0010597 3.00417e-06 7.29648e-05 
-6.83119e-05 -5.23682e-06 7.30956e-05 1.45963e-05 -4.31575e-07 -1.13045e-05 -1.56214e-05 -5.35347e-06 -0.0168347 
1.48685e-05 2.07743e-07 1.23115e-05 -0.00409428 -1.58063e-07 -4.32218e-06 -9.12716e-06 3.14214e-05 1.21606e-05 
-2.15677e-05 7.05892e-06 3.9814e-06 1.74301e-05 -1.07683e-05 -0.0080143 -0.00202097 0.0326393 0.027371 
-0.00735972 0.000276022 -2.96019e-05 1.02725e-05 0.000102017 -2.59123e-05 0.0006807 0.00299127 -0.00148232 
-2.21674e-05 -0.000110831 0.00107937 3.26767e-05 2.46176e-06 -2.43837e-06 0.000233374 -0.000112389 7.88321e-06 
-0.000122434 4.27213e-06 4.2404e-05 6.56079e-05 0.012604 0.0170748 -0.0180775 0.00035941 -0.000168108 
4.37328e-05 -3.5214e-06 3.81056e-05 -2.33354e-06 0.000691388 -0.000101623 0.00986348 0.0179008 -8.43609e-05 
-3.42957e-05 -0.000189763 9.86425e-06 7.6389e-08 9.99885e-06 5.23296e-06 -1.19803e-06 -6.87691e-06 -5.5654e-06 
5.17423e-07 1.64118e-06 2.21036e-06 -1.36432e-05 7.60088e-06 -2.76891e-08 0.000183584 1.81977e-05 -0.000141953 
4.85632e-05 -5.28956e-05 1.86649e-05 -1.69676e-05 7.06527e-06 2.14959e-07 -3.23902e-06 2.86663e-05 -3.97086e-05 
6.71203e-05 0.00013759 3.37935e-05 -2.84529e-05 0.000111165 -6.72696e-05 3.79618e-05 -4.06632e-05 -2.10737e-05 
-0.000139147 0.000106299 -1.67612e-06 1.08119e-06 6.61957e-07 -9.73214e-06 3.39898e-05 2.72159e-06 1.72333e-06 
-3.81175e-07 -2.70565e-05 2.6953e-06 4.36386e-06 -1.79275e-05 0.00291845 -0.00187856 0.000599367 -5.12922e-06 
5.6376e-06 0.000266574 -0.000126516 1.78113e-06 -2.05121e-07 2.98829e-07 -0.00324442 0.00109903 -0.00433619 
7.73869e-05 -0.000138458 5.57846e-05 8.21468e-05 -1.67575e-05 0.0447374 0.0338104 -1.09086e-06 -2.43756e-07 
4.01124e-06 1.08378e-06 1.94662e-07 -7.8007e-06 -4.0326e-05 7.30906e-05 7.14058e-06 9.74687e-07 -1.60371e-06 
1.80317e-05 3.11734e-06 -1.58478e-05 -0.000153145 0.000189421 1.27499e-05 -2.16969e-07 2.56261e-06 1.09392e-05 
-2.85365e-05 -1.82016e-08 9.88502e-06 1.52956e-05 -1.56882e-05 -1.33321e-05 -1.09062e-05 4.84992e-06 -4.05468e-06 
1.6258e-06 4.39458e-06 -1.16808e-05 -1.48056e-05 5.40573e-06 1.90615e-06 2.9053e-06 -4.16851e-06 -1.77895e-06 
-4.52071e-07 -7.83012e-06 4.28231e-06 -7.59933e-07 -2.45218e-05 2.74985e-05 -1.9325e-05 -0.000534152 1.73891e-05 
7.14221e-06 -1.99275e-05 0.0175067 -0.000108301 -7.03266e-05 0.000134886 0.0166421 0.0107217 -6.7232e-06 
4.42345e-05 4.7422e-05 1.4858e-05 -4.71185e-05 -0.000104309 -9.27299e-05 -0.000118089 1.54928e-06 -1.53697e-05 
0.000133488 0.00070432 0.00262279 3.33877e-05 -4.7238e-06 -2.74586e-06 -2.60938e-06 -5.43557e-06 0.0159562 
-1.66633e-05 -2.40599e-06 1.84655e-07 1.80512e-05 -9.96451e-05 2.72777e-06 -1.81033e-06 -8.6091e-06 -0.000112816 
-1.08363e-05 2.84256e-05 0.000157135 -4.19949e-06 4.99626e-06 6.80337e-06 -0.000186856 2.45739e-05 -4.56872e-05 
1.74784e-05 -2.16834e-05 8.7719e-05 -5.66077e-05 3.49306e-05 3.29663e-05 -1.50785e-05 -1.84708e-05 -4.54521e-05 
-3.42152e-05 0.000115713 -3.86175e-05 -0.000128251 -9.84976e-06 4.09557e-07 3.60715e-08 -4.56811e-06 -9.75229e-05 
-1.76032e-05 6.06926e-06 -1.79166e-06 4.9352e-05 -0.000228071 0.000205972 -1.57921e-05 0.000299612 -8.48118e-06 
4.87511e-05 -9.41895e-06 6.11357e-06 -2.89927e-05 -6.73334e-05 0.000654904 0.000449306 -0.00011026 -0.000407959 
1.24705e-06 -1.38209e-07 -1.9807e-06 -1.77917e-05 -2.64981e-05 6.83811e-06 -3.03902e-06 1.97214e-06 1.03545e-05 
6.75895e-05 1.00893e-05 1.58295e-05 7.14493e-07 1.54011e-05 1.32761e-05 -9.17672e-06 -8.41638e-06 1.16616e-05 
1.59945e-06 -2.61787e-06 1.17525e-05 -3.13645e-05 6.65071e-05 -1.71951e-05 -3.61832e-05 0.00612833 8.97947e-06 
-4.81074e-05 5.666e-05 -2.60737e-05 -3.94216e-05 1.70187e-06 -3.97473e-05 1.89682e-07 3.26006e-06 1.38484e-05 
2.83679e-06 1.57244e-06 -1.21073e-05 6.83586e-06 9.98832e-05 -6.47486e-06 4.30768e-06 -6.03312e-06 2.10102e-06 
3.66689e-06 -1.32465e-06 -1.90961e-06 2.17114e-06 -1.07731e-06 6.87333e-06 2.45441e-06 -1.38166e-06 -5.26142e-07 
-6.52226e-06 4.00325e-05 -5.55225e-05 -8.56137e-06 7.65471e-06 4.69651e-07 5.01273e-07 0.000121376 -3.8663e-05 
-3.72378e-05 -5.63795e-06 -3.70064e-05 2.30627e-05 4.7971e-06 -1.48435e-05 -3.14207e-05 -6.42764e-06 4.18065e-06 
-2.24698e-05 -8.77163e-05 -7.6927e-05 2.01335e-05 -1.55059e-05 4.09449e-06 -9.35369e-05 -1.85005e-05 -5.80836e-06 
-1.4758e-05 9.20099e-05 2.39177e-05 -2.24401e-05 -2.92225e-06 -9.00864e-06 -2.61448e-05 -1.52363e-05 3.82424e-06 
-8.60112e-05 1.95078e-05 0.00046925 6.5391e-06 -3.4564e-06 8.16923e-05 -2.9187e-05 -0.0124529 0.0136114 
0.014104 2.26821e-05 -5.33811e-05 -9.88947e-05 6.11949e-05 2.36278e-05 -4.46401e-06 2.24798e-05 2.12313e-05 
-3.15644e-05 -2.29922e-07 1.39929e-06 -1.62429e-05 2.514e-05 4.29236e-05 7.93069e-06 -1.22546e-06 -3.17702e-06 
-3.72096e-06 1.75094e-06 -4.32797e-06 1.9983e-06 -0.00746258 0.0131999 0.0123509 -0.000111842 4.38311e-05 
-0.000217118 3.06758e-05 5.04766e-05 1.6797e-05 -1.04995e-05 5.87333e-06 -1.00654e-05 -6.49433e-06 -4.708e-05 
2.81403e-05 1.71346e-06 3.66806e-07 2.04759e-05 5.76273e-06 -3.6581e-06 -9.53572e-06 -6.63485e-06 -7.9099e-05 
-9.35266e-05 -3.74484e-05 -2.72442e-05 -1.3028e-05 -3.35962e-05 5.77697e-05 -6.31373e-05 6.08145e-05 -3.85338e-05 
-9.64621e-06 6.43351e-07 -1.92715e-07 2.20911e-07 3.43042e-06 -9.54333e-06 1.08205e-05 3.67886e-05 -4.53948e-05 
1.89296e-06 3.69611e-06 2.39717e-05 1.033e-05 -2.05287e-05 -6.87107e-05 -9.46735e-05 0.000178871 6.47807e-05 
-3.32374e-05 1.75259e-05 1.15214e-05 -1.75369e-05 -0.000212204 0.000191445 -1.01034e-05 -2.76332e-06 0.00011068 
-4.59079e-05 1.10041e-05 2.91959e-06 -2.50056e-07 -4.13291e-06 7.99978e-06 0.000253463 0.000144684 -5.96531e-05 
5.84529e-05 -1.0984e-05 1.97276e-06 4.12432e-07 6.04768e-06 5.3368e-06 7.70924e-06 0.000157523 -0.000428041 
-4.58762e-07 -0.000100717 -3.84721e-05 -1.35242e-05 1.43311e-05 9.08135e-05 -0.0186911 0.000829275 -6.10042e-06 
2.43838e-06 1.63791e-05 -3.71706e-05 5.27574e-05 3.27333e-05 3.09838e-06 -0.000212868 -4.46909e-06 1.68891e-06 
-1.67887e-08 -4.00807e-05 -7.19137e-05 1.38733e-05 -3.32436e-06 3.69638e-07 1.20911e-06 -3.17882e-06 3.52935e-05 
-7.54754e-06 -3.54016e-05 -0.0164663 -9.0377e-07 -1.992e-05 -7.4837e-05 9.60256e-05 -1.71613e-06 -0.0221514 
-3.01744e-05 7.7786e-06 7.87434e-06 3.34531e-07 1.58086e-06 3.06338e-05 -4.40923e-05 -2.33055e-05 -6.37677e-05 
3.00557e-06 -5.37812e-06 -6.22876e-05 0.000243418 5.45412e-05 6.37213e-06 1.92931e-05 1.66491e-06 -7.71937e-06 
0.000101746 1.22677e-05 -9.76674e-06 3.5833e-05 2.10133e-05 -4.82857e-05 -1.29183e-05 -9.93144e-05 0.00128322 
-3.25837e-05 5.94791e-07 -4.47244e-05 0.000162492 0.0328201 0.0186975 -0.000295668 0.000857846 3.21822e-06 
9.17798e-07 -6.79131e-05 9.71021e-07 -5.94615e-06 6.21186e-06 -4.53994e-05 4.25437e-05 3.85564e-06 6.94625e-05 
-5.17199e-06 -3.60181e-05 -3.10647e-06 4.02475e-06 -0.00227236 1.51422e-05 2.89852e-05 5.61938e-05 -4.38929e-06 
1.19077e-06 4.28402e-06 5.12933e-06 -1.20659e-06 0.000368149 -3.22547e-05 7.47148e-05 0.00016232 9.20648e-05 
0.000130327 -5.53951e-05 1.3401e-05 2.79513e-05 -1.31241e-05 2.68393e-05 -0.000524176 -0.0113203 -0.00239512 
-0.000108373 2.68653e-05 -5.87733e-05 -3.02804e-05 0.000227845 0.000119034 -7.30052e-06 0.00486507 -0.000417198 
-0.00176146 -0.0116453 0.00147399 -0.000786364 0.00128258 -0.000225596 5.19824e-05 -0.000105559 4.36017e-05 
1.35449e-05 0.00322865 -1.33219e-06 1.1662e-06 -3.57651e-07 4.34899e-06 -2.73241e-05 -7.60626e-05 -8.30616e-06 
-1.72387e-05 -1.46347e-05 7.33347e-05 -0.0151839 -0.00297636 0.00200087 -0.000211054 0.00127575 -0.0451688 
-0.00104788 4.9047e-06 6.01118e-05 0.000134583 -0.000502597 0.000314777 0.00452236 -0.00455087 0.000492282 
9.95665e-06 0.000174386 -0.0184227 -0.00165595 -8.21379e-06 8.01554e-06 0.00021924 -0.000253372 0.00616704 
0.0219903 -0.000858911 -0.00200306 -0.000112004 6.67023e-05 1.33282e-05 0.0144653 5.23933e-07 2.50292e-06 
-0.000122266 2.77837e-05 -2.46521e-05 3.31708e-06 -5.13223e-07 -1.56517e-05 7.86407e-06 0.00163586 0.00114314 
-0.0283529 0.0191065 -0.00660757 -2.25703e-06 2.61993e-06 7.88748e-07 -0.000116195 0.00181278 -0.00157128 
6.01584e-05 1.64182e-05 2.29558e-05 0.000295156 -7.8591e-06 -2.67108e-06 -2.17541e-05 1.58923e-05 1.48197e-05 
-4.83768e-05 -0.000124116 0.000111756 0.00334882 -0.000592864 -8.46531e-05 -7.2972e-06 -3.40215e-05 -9.86035e-05 
1.04073e-05 -2.62741e-05 -3.5069e-07 -0.00012164 3.40392e-06 5.01794e-05 5.37973e-05 0.00012762 9.29677e-06 
-3.76626e-05 4.11993e-06 -3.39169e-06 7.62719e-05 -1.99184e-05 -8.96598e-05 -2.84851e-05 6.60795e-05 5.83272e-05 
-0.000102728 5.37204e-05 4.10538e-05 -6.81515e-05 -9.39934e-05 2.4823e-05 -9.69883e-05 2.19164e-05 8.93228e-07 
8.61213e-05 2.98174e-05 -8.09385e-05 1.47611e-06 1.15479e-05 -8.72149e-05 -1.85168e-05 2.84264e-05 1.15372e-05 
7.24283e-05 5.63992e-06 -3.89025e-06 -3.05889e-05 8.94762e-05 4.63003e-05 -5.90065e-06 4.55373e-07 -8.4457e-07 
8.54501e-06 -3.12186e-05 1.31071e-05 7.86888e-06 -3.60872e-06 6.71875e-06 -1.63635e-05 -3.27588e-05 2.83467e-05 
-5.19909e-06 -4.8462e-06 9.78852e-06 0.000102477 4.38598e-05 6.21905e-05 1.24754e-05 -5.45783e-06 -2.80566e-07 
-1.25383e-05 -4.33889e-05 4.54447e-06 -1.18233e-05 -0.00165237 -0.0016129 -0.00695291 -0.00148 7.89483e-05 
-2.29873e-06 -1.6307e-06 -2.23982e-05 0.000140886 -1.33343e-05 -1.57799e-05 0.00148006 6.09534e-05 3.12054e-05 
-0.00212815 -3.54347e-05 -8.74496e-06 5.87203e-05 8.10502e-05 -1.46524e-05 2.62847e-05 2.23953e-05 1.24129e-05 
-1.69757e-06 8.037e-06 6.2788e-05 3.12775e-05 4.03444e-05 -7.79275e-05 -4.37985e-05 -5.81551e-06 8.2113e-06 
-6.66914e-06 -7.19456e-06 -0.000132351 1.14191e-05 -3.89489e-05 -8.47717e-06 3.91694e-05 1.02381e-05 -3.96507e-05 
3.27898e-05 -7.54464e-05 -5.70567e-06 -7.01609e-07 8.9217e-06 -1.95043e-05 1.8072e-05 -0.000565358 -0.000244815 
-9.28478e-05 -7.85069e-05 -0.000142142 -0.00012145 8.89151e-05 -0.000130897 0.000177882 -9.47951e-06 -0.000191574 
0.00193158 0.00108724 0.000318537 1.31118e-06 -4.61189e-05 -0.00249092 0.00177067 -0.000147682 0.0139426 
3.97177e-05 -1.03312e-05 -4.8269e-06 2.99746e-06 1.85813e-05 -0.000198666 1.11379e-05 0.000729134 2.82381e-05 
2.58288e-06 6.48055e-06 -8.11253e-05 4.12516e-05 -0.00269238 0.000872652 -0.00201069 0.0159551 -0.000108973 
-9.8199e-05 -3.40262e-06 1.21877e-05 -0.000219408 0.0104141 -1.11463e-05 -1.49791e-06 -3.35828e-07 1.98068e-05 
-4.11855e-05 7.4617e-06 -2.3675e-06 2.7739e-05 1.20085e-06 -7.50672e-06 -2.92178e-06 -5.62948e-06 4.96457e-06 
1.87794e-06 2.08893e-06 5.26153e-07 4.09772e-05 0.000378294 -2.68886e-06 -1.01032e-06 -8.8643e-05 -2.1838e-08 
1.69311e-05 1.16544e-05 9.45403e-06 -1.30561e-05 3.71129e-06 -1.97448e-05 -3.06759e-06 -4.49758e-06 6.52525e-07 
-0.000870662 1.94906e-06 2.06053e-07 -6.03461e-05 9.01036e-05 3.77622e-06 3.60791e-05 -3.01259e-05 -0.000171317 
-9.83168e-06 -9.67618e-06 3.92669e-06 0.000935932 0.00592791 3.14048e-05 7.62009e-06 1.34225e-05 -2.39343e-06 
0.000106315 8.84747e-06 2.90455e-05 -4.8129e-05 -0.0150274 0.00353652 -9.23423e-06 6.6258e-06 5.72574e-05 
-7.64815e-05 5.99448e-05 2.65321e-05 8.66253e-05 5.65531e-06 -9.49891e-06 5.28883e-06 8.62467e-07 1.3825e-05 
4.53769e-05 -1.4327e-05 -4.52339e-05 6.71476e-05 -5.20485e-06 -2.24266e-06 -4.86481e-06 7.5503e-06 2.85926e-05 
0.00714758 0.0111754 -4.48549e-06 2.05517e-06 -3.21582e-05 7.86622e-06 -1.54364e-05 -5.66946e-06 1.34167e-05 
-1.08181e-06 -1.03744e-05 1.33646e-06 -1.70426e-06 1.98492e-06 -7.06534e-07 6.96851e-06 -2.74868e-06 2.71742e-05 
-1.61586e-05 0.000221902 0.00137364 -3.20416e-05 7.43997e-05 4.76318e-06 0.000540419 1.04255e-06 -1.85755e-05 
-2.5514e-05 6.07944e-06 1.00029e-05 1.74569e-06 6.4363e-05 -0.000212718 4.23136e-05 3.26956e-05 3.41401e-05 
6.29878e-05 -1.65238e-05 0.000232796 -0.000419709 0.00022379 0.000421062 -6.07578e-06 -6.0797e-06 5.31916e-05 
-5.90465e-05 -0.000217705 1.66183e-05 -1.55101e-06 -6.41204e-05 1.82629e-05 0.00253198 -1.87123e-05 2.08677e-05 
0.000316387 0.000690181 5.11056e-05 -5.22332e-05 -0.000223032 1.44171e-05 0.000127027 -2.43462e-05 -0.00341431 
0.0205094 -0.000356255 -3.76942e-06 -4.9095e-06 3.86439e-06 -6.26035e-06 2.63508e-06 0.000162626 -6.87977e-05 
1.56538e-05 1.70056e-05 8.22724e-06 8.87518e-05 -5.29371e-05 7.85902e-05 -2.03482e-05 -9.77577e-05 5.09238e-05 
-0.00768418 -0.0001399 2.6716e-08 -2.93881e-05 -1.67263e-05 1.32492e-05 -7.01949e-06 -1.37194e-05 6.5554e-05 
7.29336e-05 6.64077e-06 6.80782e-08 4.10045e-07 2.06701e-05 -0.0127471 3.56187e-06 1.38305e-05 -3.81434e-05 
-1.76483e-06 6.42766e-06 -1.52966e-06 -6.94519e-05 1.07721e-05 6.78167e-06 1.26767e-05 -7.84897e-05 2.08944e-05 
8.13094e-05 9.75084e-05 1.7824e-07 0.000267945 6.36334e-05 -1.73126e-05 -3.36445e-05 8.72324e-05 4.06353e-05 
-0.000153608 -1.42435e-05 0.000140523 -9.7363e-05 6.84356e-05 0.000646619 -6.34452e-06 -7.09985e-06 1.23452e-06 
7.07153e-06 7.65724e-06 1.00489e-05 -3.04062e-06 6.08891e-07 -1.61938e-05 0.00355208 7.52241e-05 -2.98877e-05 
2.89326e-05 2.17571e-05 2.26639e-05 -6.5767e-05 8.59547e-05 -3.03895e-06 4.71921e-05 -9.10893e-05 -2.2911e-05 
-9.95301e-05 -5.5702e-06 -9.66939e-06 -9.67612e-07 8.10969e-05 -0.00011894 1.27855e-06 8.94032e-06 -1.18283e-05 
0.0170239 -7.77087e-06 1.35929e-06 -6.10259e-06 -6.38003e-06 -4.35566e-06 -2.45604e-06 -7.92435e-05 -3.54985e-06 
8.6012e-06 2.39413e-05 -6.55924e-06 -4.27948e-05 -4.96062e-05 -4.44131e-05 -3.09376e-05 4.52851e-06 -2.4203e-05 
8.11717e-06 -9.81068e-07 -3.98807e-06 -5.32423e-05 8.15129e-05 1.30504e-06 0.00019663 5.9339e-06 0.00227292 
0.000831469 -3.17485e-05 0.000124979 0.000719312 0.0028424 -0.000101346 0.000120275 5.7066e-06 3.48056e-05 
6.05503e-06 -2.88688e-05 -1.23183e-06 -1.33896e-05 2.804e-06 -2.72021e-05 -7.62371e-05 1.50424e-06 5.96384e-06 
4.45009e-06 0.000101047 5.3049e-06 4.13318e-06 -4.73911e-06 -3.0709e-07 -3.58637e-05 6.90923e-06 3.28537e-06 
6.66875e-06 -1.16491e-08 -0.0019854 -8.27251e-06 1.29353e-06 5.28931e-06 -0.000265141 5.44257e-07 -3.28858e-06 
2.92396e-06 2.86074e-06 7.57771e-07 8.11406e-06 1.05889e-05 -5.29145e-06 8.9761e-08 -4.85246e-06 -4.68048e-07 
3.28196e-06 -2.07484e-05 -1.04026e-05 -4.33897e-05 3.37097e-05 2.87383e-06 8.30406e-06 -5.69221e-05 6.81554e-05 
-0.000208177 5.96754e-05 1.71719e-05 -7.13634e-05 -4.00319e-05 3.28385e-06 2.23454e-05 -1.81046e-05 -2.68466e-05 
3.44844e-05 -0.000112733 -3.06439e-05 6.04315e-07 -5.74409e-05 0.000145304 -0.00029108 -9.74835e-05 0.0137106 
0.0116867 2.26981e-06 -8.37938e-06 1.6179e-05 1.38255e-06 3.95038e-06 4.64913e-07 -2.7044e-05 -5.70743e-05 
-9.49075e-06 4.20255e-06 -9.96505e-05 -5.32652e-05 -5.28172e-05 -8.71249e-05 -6.1745e-05 -0.00193241 -7.47243e-05 
0.00015503 -7.34502e-05 -8.36948e-06 7.53059e-05 6.3018e-05 -7.39873e-05 0.0161911 -1.69347e-05 8.65222e-06 
2.15373e-05 -0.0027766 -0.00160775 0.000175968 0.000106396 6.55372e-05 -3.41408e-05 4.99123e-08 -4.61719e-06 
-4.43049e-06 -0.00035298 -2.7576e-05 0.000105683 7.64465e-06 2.8115e-05 -9.10439e-06 4.5468e-05 1.59713e-05 
-0.00139194 -3.05076e-06 3.24703e-06 1.30735e-05 -7.37139e-06 -3.86331e-06 -7.09311e-05 4.17123e-05 -1.70157e-05 
-1.14716e-05 1.19324e-05 -3.35737e-05 -8.44153e-06 -3.05929e-05 3.27275e-05 -3.80903e-05 2.76137e-05 6.39928e-06 
-1.08911e-05 1.77959e-05 -4.5764e-05 5.61612e-05 -3.72295e-05 1.04127e-05 2.68968e-05 -1.68274e-05 -5.45996e-06 
-1.90661e-05 -0.001307 0.000155484 3.80784e-06 -0.00047134 6.81355e-05 -3.20248e-05 -7.66396e-06 4.26352e-06 
-2.03699e-07 7.70295e-06 2.39356e-05 -3.89836e-05 -0.00093183 -3.23001e-06 4.11879e-06 3.42877e-05 -1.50476e-05 
-1.84821e-05 2.85109e-06 -3.19582e-06 4.58379e-05 -6.05422e-05 2.56374e-05 0.000133504 9.14924e-06 7.99626e-06 
5.14065e-05 -2.2429e-07 -6.24497e-06 2.8269e-05 5.0812e-05 -3.64746e-05 0.000259072 -0.000183553 1.73657e-05 
8.13116e-06 -1.17715e-05 -5.41684e-05 -2.47864e-06 -3.35323e-06 1.76063e-05 -0.000158723 6.73781e-06 -1.22381e-05 
1.55033e-06 1.09553e-05 4.62741e-07 -2.35395e-05 -9.97299e-05 1.63565e-05 -8.37367e-06 -1.686e-05 0.00013748 
-1.02757e-05 -3.2077e-06 6.31669e-06 -1.1637e-05 4.63393e-05 -4.63514e-05 0.00241743 -9.64185e-06 1.25173e-05 
-1.1388e-06 1.40857e-05 -2.4644e-05 5.65538e-06 5.32282e-05 6.80845e-06 7.12282e-06 -1.02243e-06 -1.40592e-05 
2.50579e-05 -0.00118596 7.85419e-06 6.51642e-06 2.01675e-06 -2.26055e-06 5.06535e-07 -2.4941e-06 5.69617e-06 
-3.7216e-05 0.000128861 2.2951e-07 -7.47859e-05 -3.74856e-05 -1.083e-05 -8.13221e-05 -0.00590513 -7.22246e-06 
-4.93944e-06 1.27568e-05 2.43025e-05 -1.31871e-06 -6.70997e-06 -2.47672e-05 0.000174495 -6.86033e-05 1.7946e-05 
-5.95412e-05 0.000242746 7.7712e-05 -4.11311e-06 -0.000362952 -5.10888e-06 -0.000155652 1.018e-05 7.48557e-05 
-7.31262e-06 -8.23927e-06 1.88253e-06 -3.51576e-06 -4.24087e-05 6.57652e-05 -1.71899e-05 -0.000160026 2.74903e-05 
-4.74105e-05 3.99852e-05 -5.51414e-06 4.70894e-06 -0.000137232 0.00443966 -5.23378e-05 6.72565e-06 4.04626e-06 
2.31325e-05 -3.07757e-07 -6.47749e-07 -2.26117e-05 2.00643e-05 -2.20967e-06 0.000301959 0.000665452 -0.00234585 
-0.000152629 2.29008e-05 8.67319e-06 -0.0293091 0.0150425 -0.00347019 8.07898e-07 -0.0510299 -0.000189506 
4.83593e-05 -0.000258683 -0.000126457 -1.46427e-05 0.000198192 -5.29044e-06 -3.42745e-05 6.60478e-05 -0.000532154 
-0.000843457 0.000438417 3.04057e-07 -4.99301e-06 3.03822e-05 2.41777e-07 4.29845e-05 -0.000109259 1.19971e-06 
2.46529e-06 0.000131895 8.70552e-05 0.000276963 -6.12986e-05 5.27919e-05 5.97594e-05 3.06972e-05 3.04286e-05 
-0.000108887 1.64233e-05 7.80203e-05 -1.97747e-05 3.29223e-05 4.82313e-06 1.08428e-05 -7.9076e-05 1.18297e-05 
0.000157153 -0.000118218 -0.000149237 -7.78108e-06 -4.56287e-06 3.9201e-06 -3.41612e-06 -7.14475e-07 1.04689e-05 
-6.61332e-06 -8.6887e-06 -0.00114283 -7.62768e-06 -2.00966e-06 -5.56918e-06 3.49408e-06 -9.76441e-06 -4.63943e-06 
-2.77199e-06 -6.14715e-06 1.33759e-07 2.87309e-07 -5.60791e-05 -3.60369e-05 -9.6365e-05 -0.000330645 0.000411174 
0.000197948 6.07749e-06 6.37974e-05 -9.91097e-06 7.01125e-06 -2.28539e-05 9.85839e-05 -0.000106963 7.18741e-06 
-3.759e-06 -0.000277317 -8.77567e-05 0.000227598 -4.50786e-05 6.6394e-06 8.4662e-07 6.14368e-06 -6.28022e-06 
-3.75524e-06 4.11038e-05 -2.10611e-05 -1.25509e-05 -1.12483e-05 -0.00181327 2.35511e-05 -0.0014311 4.73506e-05 
-3.18252e-05 1.19346e-05 -3.34973e-05 -0.0166964 0.0141657 -0.00899204 -7.94678e-05 -1.12852e-05 1.15818e-06 
6.86814e-06 -5.37771e-06 9.23317e-06 0.00958089 0.0175285 -1.91473e-05 -5.85146e-06 -1.51988e-06 7.13221e-05 
0.000131439 -1.13685e-05 -3.7354e-06 6.77861e-06 6.89873e-07 -1.57869e-05 -1.82809e-06 -4.90294e-06 -1.90279e-05 
2.29804e-05 -2.74784e-05 0.0127759 0.000392531 2.0343e-07 9.45633e-05 -1.25758e-05 -4.65926e-05 0.000113685 
7.39985e-06 5.54757e-05 -0.000215406 -1.88073e-06 -3.95592e-05 4.12623e-05 -1.74972e-05 8.40031e-06 9.65023e-06 
-0.000111982 5.50399e-06 3.69283e-05 0.000105545 -7.72072e-06 -1.32089e-06 -3.99217e-07 4.69049e-05 -1.40194e-05 
-1.74267e-05 -1.62665e-05 0.0206405 6.09907e-05 2.37824e-05 0.0132736 0.0221766 5.81366e-06 -0.00664528 
-0.0176925 6.30609e-05 5.45613e-05 -6.98372e-07 2.61914e-05 -1.63024e-05 2.0629e-07 2.15142e-06 -1.32578e-05 
9.71815e-07 5.34825e-05 -6.71086e-06 -0.00600286 -0.0196742 0.0020072 0.0023276 -0.000288834 0.000160104 
-0.000218433 -0.000151941 3.04658e-05 1.22569e-05 -4.17759e-06 -8.51427e-07 -7.29286e-06 0.00330168 0.00025696 
0.000193143 2.84461e-06 8.46342e-07 -9.80585e-06 -1.47049e-05 -9.20693e-06 -6.49098e-07 4.15429e-05 0.0135046 
-0.0154871 0.0138424 3.55043e-07 -6.01472e-06 -0.00145404 -2.59339e-06 0.000102284 -4.60202e-05 1.18987e-05 
1.78266e-06 4.12148e-05 -5.90454e-05 3.35542e-05 -1.34432e-05 -2.81708e-05 1.57271e-05 -3.74095e-05 -9.55955e-05 
-2.53322e-05 -9.34879e-05 8.16129e-06 0.00215372 0.00117218 6.13226e-05 -5.08553e-06 3.28252e-05 -0.00265647 
-9.66186e-05 -5.64464e-05 9.50003e-05 -6.09152e-05 1.11219e-05 5.70567e-05 6.62969e-06 9.34361e-06 -7.4619e-05 
0.0169219 3.82421e-05 5.91885e-06 0.0195457 4.79997e-05 8.1384e-06 -2.55443e-06 -0.000151308 0.00116917 
-0.00923804 -5.94594e-05 -1.62805e-05 -3.98293e-06 -1.19436e-05 1.38294e-05 -2.75126e-05 1.47612e-05 -0.00782339 
3.28639e-05 8.65868e-07 -1.44724e-05 -2.73696e-05 1.4087e-05 -1.77999e-05 1.71341e-05 8.10393e-05 -4.1339e-05 
-9.52891e-07 3.44386e-06 -2.47156e-08 1.77239e-06 2.81385e-05 8.61387e-06 1.79589e-05 1.66387e-06 2.09938e-06 
3.86842e-05 -5.00959e-05 -1.50695e-05 5.49101e-05 1.69934e-05 -2.98999e-05 -8.46267e-05 0.000180288 -4.26247e-05 
3.83396e-06 7.88569e-07 -3.42902e-05 4.90763e-05 0.00470939 -5.98512e-05 1.29853e-05 1.57267e-05 -4.03502e-05 
2.84228e-05 4.90817e-05 -9.20868e-06 5.16116e-06 6.88586e-05 1.95624e-05 6.06831e-05 -6.22683e-06 1.51869e-06 
6.07177e-06 -1.00677e-05 -4.48623e-06 1.14656e-06 5.31625e-06 -6.53429e-06 1.20276e-05 4.41103e-07 7.05523e-06 
2.04436e-05 7.47773e-06 -8.0642e-06 2.46442e-08 3.98533e-05 -0.000149466 0.000119017 7.41634e-05 -1.00083e-05 
2.16598e-06 2.91963e-06 -2.51117e-06 -2.0334e-05 -9.26875e-05 -3.3785e-06 6.17459e-05 7.78092e-06 -6.51161e-05 
-9.64711e-05 -3.47916e-05 1.11395e-05 -4.98946e-05 -0.000143329 -4.79883e-06 2.63714e-06 -1.38427e-05 -0.000165054 
-3.32813e-05 0.000223841 -1.15658e-05 -0.00509245 -4.30208e-06 -3.86529e-06 0.00029766 -0.00206413 -0.00091197 
-0.000165331 -0.000140968 -0.000371094 0.00210624 -2.56812e-05 0.0038222 -0.00528146 0.00361762 -0.000119177 
5.29242e-05 6.68853e-05 -2.03496e-07 7.47176e-06 0.0104853 7.0985e-06 -7.84908e-06 -0.00528773 0.0175018 
-0.00169615 -3.64986e-06 2.06577e-05 9.70657e-06 -1.00385e-05 0.000895878 0.000156833 -4.09671e-05 -1.37513e-05 
1.60069e-05 5.44085e-05 1.13506e-05 0.0134248 -6.48263e-06 0.000752002 7.89404e-07 -7.1163e-05 3.71063e-06 
-5.21148e-05 9.89622e-07 0.000318515 -7.56842e-05 3.15947e-05 3.85765e-05 4.5115e-06 -1.39193e-05 -1.98239e-06 
2.40851e-06 -2.62626e-05 1.29495e-06 0.000168897 4.61406e-06 0.00135059 -9.89769e-05 -5.42015e-05 5.06158e-05 
2.58581e-05 3.93193e-05 1.67826e-05 0.000232768 2.79579e-05 4.28385e-05 -2.40219e-06 -7.3691e-06 4.91607e-05 
-6.17268e-05 -7.23215e-05 -1.65832e-05 -9.72411e-07 1.30273e-05 7.44966e-06 -2.11323e-05 -2.53328e-06 3.63946e-06 
7.35493e-05 0.0548683 -0.002019 -0.000347993 -1.85843e-05 2.17247e-05 7.71417e-07 -2.02281e-05 -9.27197e-06 
1.82983e-05 -2.4009e-06 -6.86531e-06 6.7273e-06 6.91393e-06 -3.77486e-06 -6.26888e-07 -7.11847e-05 -3.76508e-05 
-7.2979e-07 -5.43647e-05 0.000181239 -4.07234e-06 -3.95393e-06 3.35947e-06 1.65581e-05 -0.00178516 2.91457e-05 
-2.98583e-06 -8.91144e-05 -3.40247e-06 -3.76062e-06 -6.47381e-05 -3.77864e-05 -2.12139e-06 -7.39533e-06 -1.28199e-05 
-0.000107942 -1.21569e-05 -0.000223453 -3.6843e-06 -0.00388378 0.000806621 -0.000201475 -0.000180765 -5.74112e-05 
-5.87081e-06 0.000142655 0.000164026 -6.572e-05 0.00010165 0.000508426 1.19222e-05 -7.77266e-06 -0.000106559 
0.000160297 8.69112e-06 -2.69795e-05 -2.31763e-05 1.40294e-05 -4.43906e-06 8.44167e-06 -1.21064e-05 4.28809e-05 
7.71416e-06 -0.0150917 -2.39065e-06 0.00281103 0.000370899 -9.26167e-07 0.00289928 0.00534113 -2.52709e-06 
-5.93072e-06 1.00404e-05 -0.000370718 6.88071e-05 -3.47734e-05 3.53734e-06 0.000890184 8.04217e-06 -7.74215e-06 
1.76803e-06 4.84106e-05 -2.65949e-06 -7.10159e-06 0.000122411 -6.42191e-05 4.13666e-05 -5.11863e-05 -1.18985e-05 
-7.4336e-06 -7.0153e-06 2.35812e-05 2.29767e-05 -7.46547e-06 1.31072e-05 8.43995e-05 -6.50773e-05 3.97247e-05 
-0.000295458 -0.000130253 0.000224519 -4.45065e-05 -3.36892e-06 -1.4676e-05 -0.00153233 2.23967e-06 1.01412e-05 
1.43475e-06 -2.85301e-05 3.38752e-05 -0.0190613 0.00140862 -0.00156417 7.06586e-06 6.14318e-06 -4.59727e-05 
7.22433e-05 1.02387e-05 -3.20979e-06 8.51723e-05 -2.18435e-05 0.000431521 5.36354e-06 0.0001775 -5.02241e-06 
-3.1004e-05 -0.000106392 5.46494e-05 -2.32153e-06 -9.17155e-05 5.03608e-06 3.63524e-06 -8.31301e-07 -1.10366e-06 
6.71523e-05 -1.90466e-05 -4.05174e-05 1.0007e-05 1.33491e-05 6.60508e-05 -2.95694e-06 -1.19243e-05 -1.9042e-05 
6.24028e-07 6.34164e-05 -0.000136925 -5.81029e-06 -9.57434e-07 -5.62515e-07 -1.07837e-06 5.12909e-06 -0.000289973 
-0.00168121 0.0129716 -1.76226e-05 0.000244297 -3.01237e-05 -9.29351e-05 -5.21936e-05 -0.00011476 -1.6646e-05 
1.08634e-05 3.77733e-05 -4.7731e-06 -3.29891e-06 2.45245e-06 -6.89931e-06 3.92691e-05 -5.36724e-05 -0.000126504 
2.208e-05 -0.000352013 4.88785e-06 -2.16171e-05 0.00906673 -2.36934e-06 -0.000648839 -7.35584e-06 0.034335 
-0.00494471 0.0174366 -3.59167e-06 -2.59596e-05 3.67749e-05 9.32395e-05 -8.07738e-05 -4.02484e-05 -7.92527e-05 
0.000136843 -0.00831599 0.0339557 -0.000130485 1.25474e-05 -9.03023e-05 -6.30887e-05 -7.21346e-06 -1.05685e-06 
-1.1743e-05 -0.00648233 0.000267588 -0.000991352 -0.00176836 -6.32644e-05 -0.00275355 -0.00227831 -0.00460103 
7.45598e-07 -4.30311e-05 0.000116821 9.27973e-06 -8.99883e-06 -2.37273e-05 6.14988e-06 -1.32677e-05 1.39973e-06 
6.35617e-06 0.000327172 0.000322417 -1.71665e-05 0.000122522 -9.27707e-05 -3.47231e-05 4.33897e-05 -4.67135e-07 
-3.12487e-06 0.000291523 4.84508e-06 1.86895e-06 6.96729e-06 -2.26801e-05 2.58221e-05 -0.00172605 3.62032e-06 
0.000122928 0.000441281 -1.58389e-05 -0.000145526 0.00024948 -6.57834e-06 2.61178e-05 -3.52028e-06 -2.5437e-06 
1.12264e-05 4.81378e-05 1.17894e-06 1.97746e-05 -2.75037e-06 7.63756e-05 0.000121167 4.88405e-05 -0.00313995 
0.0148781 -3.94953e-06 5.23236e-05 0.000200505 -9.53722e-05 -0.000534478 -1.5234e-05 1.91024e-06 3.29449e-06 
-8.53706e-06 -6.01357e-05 2.5239e-05 1.09046e-06 2.59709e-06 2.34273e-06 -1.67466e-05 -0.000362141 -1.05608e-05 
-7.94968e-06 -1.56505e-05 -0.000116834 -1.7935e-05 1.15793e-05 -0.0627592 -0.0800681 
Major%20Principal%20Stress 1 12526 double
0.99903618983 0.91775754266 0.90545669896 1.0696023986 0.33336200176 0.33334000027 0.33334700058 0.33334000045 0.41621018593 
0.38930273457 0.44308780699 0.37294775696 0.45783875294 0.37822522927 0.45886349748 0.39311703462 0.48531289491 0.40374016602 
0.37520447921 0.36073360503 0.34605729864 0.34114096689 0.33393130239 0.32992293999 0.32687383092 0.32401420595 0.32314575252 
0.32274346754 0.32376057357 0.32384117016 0.32550695302 0.32550947028 0.32634346669 0.32743591043 0.32835808693 0.33232372496 
0.33660912837 0.34052498721 0.34664468902 0.35359532524 0.36857988187 0.39734061318 0.45160815313 0.43790905436 0.40938144798 
0.39467509733 0.36369336779 0.3480233211 0.34199183394 0.33859658413 0.33566357352 0.33179964773 0.32898758536 0.3293970011 
0.32854328091 0.32675394613 0.32749503229 0.32624214949 0.32787371204 0.32969357008 0.33195619411 0.33298680817 0.33817819578 
0.34136978012 0.34846346162 0.35893052946 0.37534799795 0.39717291557 0.45620552574 0.33334500223 0.333339 0.33334700007 
0.33333900049 0.33333600097 0.33333200152 0.33332700202 0.33332400222 0.33332000247 0.33332100144 0.33331500011 0.33332300003 
0.33331300016 0.33331300046 0.33331200081 0.33331100105 0.33332700071 0.33331600161 0.33332900034 0.33332600073 0.33333200117 
0.33333700188 0.33334000204 0.33334400161 0.33333500021 0.33334500005 0.33333000241 0.45972255782 0.34582915517 0.3174174634 
0.30287732761 0.29510231309 0.29109124034 0.28927118507 0.2889051066 0.28928007605 0.29024305205 0.29149402885 0.29300001552 
0.29478600568 0.29707400269 0.29985700172 0.30404301264 0.30922804588 0.31631015531 0.32401625785 0.3337783884 0.34200842389 
0.34847521818 0.35111700202 0.34922008544 0.34399622878 0.33698529005 0.33011417244 0.32535509469 0.32194103313 0.31997000501 
0.31927700173 0.31947800535 0.32020900731 0.32149901131 0.32293301086 0.32459900985 0.32608700876 0.32752800775 0.32894700608 
0.33013800584 0.33124100539 0.33216800416 0.33292500161 0.33334500001 0.33339000403 0.33343100286 0.33331400038 0.33293900035 
0.33221800137 0.33134800162 0.3300990031 0.32884300352 0.3274800045 0.32597500512 0.32435300418 0.32282500753 0.32148800392 
0.32021500409 0.31950300066 0.31931600101 0.32007400273 0.32219100446 0.32564300702 0.3313020749 0.33813633954 0.34463045027 
0.34960622083 0.35098227548 0.34767203836 0.34019812186 0.3305303186 0.32186520256 0.31353317822 0.30784906672 0.30296300471 
0.29955400244 0.29661200167 0.29448000309 0.29272100808 0.29116901392 0.28977503172 0.2889850585 0.28876903081 0.2891330852 
0.29129058152 0.29607904277 0.30509347006 0.31950864839 0.35482522065 0.41000663164 0.42745103244 0.38434646175 0.38110312187 
0.3678184484 0.3783310857 0.37864532289 0.38698266466 0.31925568238 0.31116261641 0.30594836038 0.3052795137 0.29732491306 
0.37204581726 0.3464670947 0.38127936927 0.37202968338 0.38301632347 0.37724151627 0.35202264846 0.2939303546 0.30523741776 
0.30465905347 0.31873672051 0.30956331016 0.33890468299 0.21515033945 0.3333110008 0.33334700001 0.33334900158 0.33334400126 
0.33334100128 0.33333500111 0.33333000092 0.3333260007 0.33332100045 0.33331700033 0.3333130015 0.33331200007 0.33331100091 
0.3333140003 0.33331200014 0.33331200009 0.33331400056 0.33331800024 0.33332000175 0.3333240018 0.33332800194 0.3333310012 
0.33333500064 0.33334000007 0.3333450001 0.33335300015 0.33333900247 0.41772174277 0.34583322934 0.31972671244 0.30405453815 
0.29568526829 0.29148745372 0.28925223745 0.28871809926 0.28901707859 0.28988303622 0.29117002187 0.29272501614 0.29451101394 
0.29664801694 0.29931803048 0.30276305759 0.30728410516 0.31285616575 0.32047932493 0.32943744654 0.33868836373 0.34630309085 
0.35020700814 0.34987614405 0.34576631242 0.33921933842 0.33211620656 0.32669009785 0.32281203223 0.3202600028 0.31934700231 
0.31935500258 0.32003300384 0.3210560022 0.32248900206 0.32393500151 0.32561800135 0.32726800076 0.32864900047 0.32997600024 
0.33115000005 0.33209300005 0.33282100026 0.3333150021 0.33343200501 0.33345400315 0.33330100093 0.33282200021 0.33208900006 
0.33114100008 0.32990600039 0.32862800066 0.32731200111 0.32579300196 0.32423800545 0.32285900323 0.32129200945 0.32020500486 
0.31942401756 0.31927001866 0.31997600067 0.32175901486 0.3251951284 0.33063824565 0.33701724888 0.34404923561 0.34944109059 
0.3507440922 0.34720315045 0.34056963557 0.33094640746 0.3219971526 0.31439906577 0.30791906201 0.30277801681 0.2993800447 
0.2964790241 0.29412001769 0.29246302758 0.2909890482 0.289715039 0.28887409543 0.28851634246 0.28932133473 0.29117118155 
0.29519338409 0.30378249749 0.31831479982 0.34682883123 0.45513549928 0.31395584578 0.32520584699 0.30292309496 0.30257930253 
0.30440473819 0.30487432114 0.30962461849 0.37178923171 0.37745205378 0.37605841318 0.382873194 0.39281662388 0.24372415341 
0.39074421732 0.32396222879 0.32618649553 0.30296172062 0.3052632851 0.30475065068 0.37097605219 0.3768286303 0.37895640145 
0.38258823517 0.3830805593 0.38135576226 0.40647055179 0.3332390489 0.33325432105 0.333274818 0.33328547461 0.33330702743 
0.33332919039 0.33334715777 0.33336792687 0.33338351432 0.33338804558 0.3334005622 0.33340623176 0.3334060297 0.33340602011 
0.3334051981 0.33339756536 0.33338996369 0.33337438428 0.3333587325 0.33334599226 0.33332409725 0.33330491622 0.33328141005 
0.33326481103 0.33325932584 0.33323207964 0.33326300211 0.4238145921 0.36462941358 0.33608816561 0.32062670522 0.31219887687 
0.30661674656 0.30365032354 0.30225217284 0.30097463516 0.30112746795 0.30168994359 0.30245599126 0.30365718835 0.30562318542 
0.3082955529 0.31156435404 0.31556736675 0.32069426252 0.3265196864 0.3323255718 0.33736012606 0.34032576739 0.34095643275 
0.33912340643 0.33525375843 0.33124233717 0.32783753126 0.32521582124 0.32346544083 0.32256595207 0.32240707477 0.32271844973 
0.3233121257 0.32429251482 0.3253620796 0.32659247004 0.32777925348 0.32880053443 0.32982362298 0.33074872884 0.33157700277 
0.33227214954 0.33277146856 0.33310008192 0.33273636186 0.33226286694 0.3315526449 0.3306945412 0.32968043858 0.3286153605 
0.32750586019 0.32629990089 0.32514665615 0.32406695958 0.32314952812 0.3225130995 0.3222690264 0.3225753729 0.32366790206 
0.32560657087 0.32872148958 0.33249749952 0.33633605782 0.33964307813 0.34109728185 0.34014342941 0.33614901627 0.33010838846 
0.32426184146 0.3183703248 0.31356616927 0.30970803098 0.30685727231 0.3046932773 0.30289486501 0.30152506106 0.30059452443 
0.30029746563 0.30062813997 0.30149162459 0.30312799665 0.30660934464 0.31340309397 0.32296854957 0.33980505015 0.36947767228 
0.44373327477 0.40685029932 0.37815197317 0.35703819014 0.34080672902 0.32573096831 0.32348557004 0.31858705827 0.31668225625 
0.31533410418 0.31299594631 0.31289704475 0.31236222775 0.31266868846 0.31340190637 0.31386594294 0.31435499869 0.31424835524 
0.31671781408 0.31833810891 0.32224215449 0.32629185897 0.33197068451 0.34292395087 0.3617389322 0.38947965388 0.37196195653 
0.35921310975 0.34129194322 0.33494634604 0.33398031221 0.33318564801 0.33287684558 0.33270903652 0.33413993441 0.33537444273 
0.33738383232 0.34260990823 0.36231818751 0.37039135328 0.34839046598 0.35033447346 0.34507962799 0.33368375745 0.33778507398 
0.33303321361 0.33271199597 0.33550772131 0.33585549327 0.33654838614 0.33736079607 0.34152910931 0.34737361826 0.3615135518 
0.35236790153 0.34291733445 0.27225019383 0.27801584075 0.28176459651 0.27394352427 0.32481281727 0.33309675973 0.33311069686 
0.33317661677 0.33326292529 0.33335533234 0.33343465251 0.33350140163 0.33356093118 0.3336004467 0.33362816555 0.33363831549 
0.33365000008 0.33363830988 0.33362924092 0.33359147448 0.33354683167 0.33348827472 0.33342643916 0.33335006167 0.33326076605 
0.33317164628 0.33309693294 0.33304919662 0.33304188526 0.3449051703 0.39120798565 0.3587849561 0.34145934729 0.33069141376 
0.32370620005 0.31828012588 0.31458377319 0.31242370347 0.31123606296 0.31065512011 0.31040077888 0.31098919003 0.3116177946 
0.3126517968 0.31432108713 0.31633835563 0.31900360498 0.32232593112 0.32629798286 0.3301994263 0.33333087636 0.33498283866 
0.33453952101 0.33206967489 0.3292194392 0.32721896874 0.32574701511 0.32488611244 0.324524714 0.32454216458 0.3247879442 
0.32520771225 0.32589033815 0.32665462477 0.32755348858 0.32844386773 0.32921833949 0.32994724069 0.33067537059 0.33135681857 
0.33198228497 0.33250888421 0.33296592318 0.32899418981 0.38201707754 0.33246207166 0.33192233061 0.33128130454 0.3305473534 
0.32972594206 0.32892556299 0.32802436551 0.32715081694 0.32631371105 0.32559236063 0.32493772531 0.32444574181 0.32427689165 
0.32447491216 0.32513386701 0.32637143258 0.32825017404 0.33040338454 0.33298311954 0.33505197921 0.33525232852 0.33270375391 
0.32834230206 0.32422093197 0.32051870572 0.317077952 0.31464643847 0.31288787277 0.31153526493 0.3105294678 0.30987298734 
0.30965756617 0.30984454566 0.31071035369 0.31216929918 0.31466843606 0.31832540226 0.32481354592 0.33300300389 0.34571583879 
0.36584806832 0.36629511596 0.34912976099 0.34114582227 0.33543487298 0.33121343904 0.3275763257 0.3254368812 0.32351385383 
0.32271955459 0.32189298719 0.32138043339 0.32160849488 0.32157896244 0.32233404352 0.32318270011 0.32443918827 0.32624573848 
0.32924902881 0.33324623423 0.33895063744 0.3474657924 0.36050581424 0.35010466493 0.32376704541 0.34862354705 0.34189550967 
0.33952385905 0.33867567641 0.33829429555 0.33921295464 0.34096402527 0.3428151603 0.34666143104 0.34946391578 0.34700472321 
0.3190683993 0.32360135353 0.32302359517 0.32587786785 0.34630556236 0.34475475395 0.34220525687 0.34163873766 0.34228024093 
0.34324359009 0.34422884295 0.34652980914 0.34966503001 0.35186603044 0.3430291634 0.31351054559 0.35031554408 0.34678753052 
0.3112146672 0.33293442416 0.31538762079 0.30877105409 0.31288111613 0.31115112391 0.3407119273 0.33288668639 0.3330649697 
0.33327148239 0.33347447953 0.33365278462 0.33378990074 0.33388586056 0.33396128016 0.33400628805 0.33404714543 0.33407115489 
0.3340454138 0.33398044056 0.33388008006 0.33376289703 0.3336153549 0.33345394061 0.33326926773 0.33306999769 0.33288630876 
0.33276091029 0.34184441894 0.3435053567 0.35105300535 0.34275360683 0.33583612534 0.33087442777 0.32610398457 0.32283119822 
0.32107932923 0.31974524473 0.31878366015 0.31829472775 0.31808530738 0.31802705595 0.31811817903 0.318399075 0.31902555308 
0.3198162894 0.32150934927 0.32512865152 0.327795897 0.33098037056 0.3311911369 0.32919237396 0.32553056109 0.32445299415 
0.32438541342 0.32457973794 0.32506853202 0.32575490751 0.32637473466 0.32695996001 0.32749595095 0.32812055116 0.32878685892 
0.32943421177 0.32998492929 0.33048703469 0.33097605536 0.33145238769 0.33198012478 0.33243423678 0.33280633175 0.36107193856 
0.318387359 0.34315226427 0.33188891538 0.33139426794 0.33082629704 0.33023985303 0.32968134511 0.32900102958 0.32835569839 
0.32773486723 0.32711390831 0.32653137799 0.32596018384 0.3254337311 0.32495643235 0.32456787434 0.32488528735 0.32497268139 
0.32710833343 0.33047091305 0.33196717575 0.3309038828 0.32634465791 0.32237710925 0.32058529882 0.318923845 0.31783746015 
0.31765076445 0.31744634859 0.31728411022 0.3172842496 0.317568894 0.31831240947 0.31971867984 0.32144600823 0.32345305278 
0.32666651218 0.33253015605 0.3379325475 0.34524582912 0.34492624666 0.35373494248 0.32711713738 0.34612749041 0.34052216678 
0.33644312371 0.3333153447 0.33065529672 0.32876681679 0.32743249925 0.32643302328 0.32582353 0.32551874348 0.32552765032 
0.32598588461 0.32680751938 0.32782241797 0.32899558392 0.33096639223 0.33399805265 0.33853452602 0.34401577838 0.35165657569 
0.34479971689 0.34030280892 0.34049106618 0.3411463129 0.34244979675 0.34408356648 0.34498891967 0.34252277339 0.32990575631 
0.32878387892 0.32571420263 0.32559859296 0.31677548724 0.32337838715 0.34604924523 0.34542852063 0.34620845922 0.34720102545 
0.34799249134 0.34709455196 0.34065189699 0.31414680921 0.34520264145 0.33011362136 0.32385732658 0.33235303078 0.35664706026 
0.31800094029 0.33272671961 0.31994758469 0.33391792074 0.34771353266 0.34332811176 0.33051171347 0.31957588945 0.34726817078 
0.31833106214 0.33300769115 0.33339207763 0.33372680576 0.33402993496 0.33425025407 0.33439277192 0.33447831627 0.33458088726 
0.33467700001 0.33466496331 0.33456269677 0.33441728389 0.33422361565 0.33397296221 0.333688105 0.33337957562 0.33303780415 
0.33270955536 0.3324454668 0.3428901614 0.34321725047 0.32032619009 0.34236623028 0.33841850203 0.33488314263 0.33185320532 
0.32971556063 0.32814840693 0.32684107155 0.32580078496 0.32490657846 0.32406945512 0.32304674788 0.32195487337 0.32110587405 
0.31986998117 0.31792596592 0.32173867704 0.32328063882 0.32492905201 0.32648042185 0.32767025864 0.32856156129 0.32916243715 
0.32978960814 0.3304041785 0.3308328412 0.33113880553 0.33139249172 0.33161765062 0.33187287653 0.33211945378 0.33262471475 
0.34886588304 0.34248300447 0.34258753149 0.33183020106 0.33149331244 0.33111362432 0.33075138151 0.33030935619 0.32982198232 
0.32924959161 0.32855920655 0.3278314629 0.3270053263 0.32573077031 0.32429862252 0.32112057001 0.31863109165 0.31947956506 
0.31960781188 0.32106971689 0.32232276991 0.32300904627 0.32355981321 0.32451678447 0.3256760619 0.3271860512 0.32875481858 
0.33060218339 0.33306086093 0.33562809013 0.34122534742 0.34419068434 0.34874598952 0.33657838457 0.34305455055 0.34423779074 
0.3411725607 0.33850204916 0.33644405109 0.33474212895 0.33353137879 0.33256911348 0.33155323063 0.33102380966 0.33086498828 
0.33128090256 0.33197648521 0.33267213087 0.33339733265 0.33457913174 0.33618304094 0.33928324907 0.34262123247 0.34269250728 
0.31875072909 0.3429659471 0.34348570589 0.34327092096 0.3411656246 0.32458421811 0.33212340521 0.34849913395 0.348678328 
0.34671430058 0.34178499768 0.33119997942 0.34661952258 0.33454325947 0.34895131052 0.34160610841 0.34413510658 0.32701824362 
0.34796741123 0.34835350279 0.32157240622 0.3486572761 0.328289491 0.34344002986 0.33367520209 0.33420189485 0.33464165829 
0.33488785425 0.33504633739 0.33509358897 0.33540048854 0.33548126087 0.33536290356 0.33515032765 0.33487508771 0.33453199936 
0.33408817596 0.33362202408 0.33312764672 0.3325912462 0.33690229983 0.3396273151 0.33794481018 0.33631104491 0.33497468082 
0.33378165605 0.33289806531 0.33162737776 0.33044342525 0.32921682714 0.32729884555 0.32477410894 0.32391117122 0.32473027003 
0.32720434308 0.32924147346 0.33061785633 0.33138134472 0.33138452048 0.33221995464 0.33252304017 0.33255341799 0.33254425045 
0.33254748577 0.33256075579 0.33260955154 0.33259221161 0.3432040233 0.33239300834 0.33226778461 0.33211418298 0.33187856669 
0.33147938451 0.33088001551 0.32983998177 0.32938528394 0.32812179068 0.32610134202 0.34335247902 0.32153367001 0.32623750607 
0.32784908055 0.32907509372 0.3304239683 0.33196827723 0.33326610496 0.3346005158 0.33591825558 0.33732723545 0.33899898963 
0.34079791441 0.34116321884 0.33991743828 0.3391171694 0.33862710861 0.3381239825 0.33746513263 0.33589465817 0.33675665256 
0.33582687575 0.33727935417 0.3376400876 0.33773337964 0.33806752695 0.33859148571 0.33944143467 0.34244803416 0.34069470294 
0.34772589767 0.34119313983 0.33753610905 0.3429822483 0.35067605087 0.3439769905 0.34789037827 0.33313538407 0.34221708512 
0.34986916509 0.33391371633 0.35050215328 0.34327312887 0.3406153059 0.3433990349 0.34982469524 0.32480299491 0.33685848814 
0.32762709129 0.32989582282 0.34679556341 0.33067215111 0.34048454417 0.33492853389 0.33561978066 0.33596974048 0.3364802287 
0.33644224385 0.33607624499 0.33569208653 0.33526565791 0.3346812253 0.33399687689 0.33336355376 0.34075003944 0.34166411812 
0.34058801326 0.3399143037 0.33937110064 0.33882149012 0.33789738148 0.33639631901 0.33520989127 0.3338297482 0.33117845551 
0.33313827719 0.33399380839 0.33406781411 0.33449769701 0.33437809258 0.33399960812 0.33362249082 0.33333787689 0.34091933589 
0.32935663305 0.34069278224 0.34302785774 0.33354864752 0.33369062043 0.33371380206 0.33367843505 0.3333917893 0.33247743852 
0.33158399626 0.34495637443 0.33437267938 0.33497550766 0.33743604689 0.33831759438 0.33915872964 0.33984739957 0.34026234915 
0.34048845851 0.34245642707 0.3411824014 0.34181792777 0.34219449875 0.34228124761 0.34181969117 0.34207227067 0.34242262918 
0.34187782124 0.34120083438 0.34064253297 0.34629178654 0.35065291458 0.33546314148 0.33807389312 0.34242683498 0.33416106637 
0.3331346922 0.33340558294 0.33983487537 0.34319901033 0.33798236548 0.34957534396 0.3322048562 0.35199712216 0.35163861038 
0.34928172891 0.33748721372 0.337769085 0.33741884328 0.33665592849 0.33622626059 0.33539908021 0.33443092534 0.33390655307 
0.34298996598 0.3426732967 0.34356258031 0.34337081302 0.34212855226 0.34022631123 0.34232791361 0.33717299767 0.3386553735 
0.33712911514 0.33680391218 0.336172069 0.35113515159 0.33536327777 0.33535059676 0.33582450259 0.33837942988 0.33516979502 
0.34217425733 0.34299284573 0.34766019058 0.35151215867 0.34128201026 0.34333216542 0.34271617717 0.34308545602 0.34041344937 
0.34427501006 0.34592659878 0.34634418538 0.34686108041 0.34164892783 0.3347761806 0.33642973802 0.352246049 0.35088374768 
0.33649474939 0.33597481221 0.34237487173 0.33486824946 0.33541662408 0.34017232798 0.33592626126 0.3448550587 0.34795255092 
0.34555330753 0.34391847069 0.35219700201 0.34884018742 0.33828625787 0.3372768965 0.33966451918 0.34617318884 0.33681168606 
0.33928813553 0.33899308382 0.33768676725 0.33629476823 0.34150666654 0.34557350039 0.34211759107 0.34698024294 0.34683534352 
0.33741521845 0.34911690617 0.33940832612 0.35108611051 0.33883813503 0.35009071779 0.34094515374 0.33826084453 0.35113607362 
0.34822958756 0.34995523712 0.3404381013 0.35180764041 0.3332320288 0.33322435029 0.3332518832 0.33328243627 0.33330383096 
0.33332413076 0.33334718542 0.33336507015 0.33337854957 0.33339402964 0.33340056891 0.33340419667 0.33340701354 0.3334100378 
0.33340726169 0.33339963791 0.33339313053 0.33338163782 0.33336506992 0.33334630946 0.33332730703 0.33330018265 0.33327962602 
0.33325894165 0.33324636359 0.33324705148 0.33330000045 0.44579197633 0.36996394292 0.34228164926 0.32504416078 0.31409983324 
0.30768646636 0.30421206774 0.30212966109 0.30166612622 0.30120782078 0.30160810206 0.3028413756 0.30432274638 0.30613759804 
0.30836753934 0.31116733608 0.31458862587 0.31889892423 0.32389118328 0.32989710224 0.33499468245 0.33862375969 0.34010401536 
0.33886603487 0.33604082076 0.33225933352 0.32856390959 0.32579158884 0.3239736358 0.32289649673 0.32252900785 0.32271782063 
0.32337661939 0.32425631653 0.32526941727 0.32640998235 0.32755140272 0.32865081893 0.32977106015 0.33071114464 0.33154030657 
0.33223326869 0.33277045387 0.3331000889 0.3327313638 0.33215196822 0.33141367188 0.33056252781 0.32952222243 0.32845809906 
0.32738054237 0.32619762388 0.32508868274 0.32405288668 0.32311647038 0.32248384675 0.32224400066 0.32250772334 0.32354772757 
0.3253174649 0.32831015684 0.33201541893 0.33617985372 0.33966016923 0.34094035402 0.33967313419 0.33619757443 0.3306577849 
0.32473615343 0.31885203318 0.31386688751 0.30990684676 0.30689108219 0.30457938858 0.30257292163 0.3015139461 0.30065652512 
0.30006257304 0.30031520423 0.30150963697 0.3034805691 0.30701486734 0.31173516078 0.3210369453 0.33763224897 0.36856510519 
0.42447846008 0.37810291825 0.35662471544 0.33829963203 0.32715113301 0.33265225086 0.32615061756 0.32321727567 0.32015662583 
0.31858451739 0.31802343625 0.31664025145 0.31495463979 0.3147249967 0.31356721978 0.31417874901 0.31447686048 0.31613740733 
0.31785542591 0.31983666359 0.32119861997 0.32593650513 0.33240426038 0.34128312196 0.35358800384 0.37515127547 0.40057029533 
0.35784620148 0.35238075635 0.34334816148 0.33846093976 0.33511580727 0.33298237069 0.33338916878 0.33159291999 0.33231820843 
0.3341618246 0.33752924803 0.34204954435 0.34283217295 0.35187044921 0.31907207332 0.36601125643 0.36517031646 0.35348366741 
0.34425183002 0.33981016279 0.33794042692 0.33434445426 0.33318958152 0.33452565139 0.33548989334 0.33768117366 0.34182775346 
0.35335281879 0.36445132953 0.33380532614 0.2982059159 0.3331250602 0.29025583607 0.28782787682 0.29643232098 0.33296826436 
0.33298468485 0.33318223991 0.33326853545 0.33335216706 0.33343373395 0.33350878115 0.33357422374 0.3336276338 0.33368027269 
0.33369731077 0.33368500172 0.33368140002 0.33365943908 0.33361885723 0.33357350473 0.33351809106 0.33344118568 0.33335673697 
0.33326221174 0.33317396163 0.33308422056 0.33302729539 0.33301681098 0.34692175817 0.3327550645 0.3490934104 0.36400256642 
0.38799297621 0.33386384372 0.32464219787 0.31905386863 0.31588350832 0.31409551593 0.31280018019 0.31125966488 0.31101597367 
0.31183876195 0.31275108864 0.31384609933 0.31518980918 0.31664238108 0.31843213771 0.32096840817 0.32442407768 0.32788615049 
0.33158453901 0.33381990691 0.33366064163 0.33182111538 0.32936428849 0.32691677017 0.32556077233 0.32496323179 0.32462859025 
0.32459097581 0.3248758004 0.32545650087 0.32615529682 0.32690858622 0.32765666619 0.32844298169 0.32923986118 0.33004507112 
0.33075770848 0.33144161727 0.3320574946 0.3325686477 0.32130499133 0.32409301748 0.33234058685 0.33181178689 0.33115325822 
0.33042514746 0.32962086624 0.32882949177 0.328006507 0.32716024637 0.32637818782 0.32563040065 0.32501067597 0.32450555486 
0.3243042583 0.32446420602 0.32506882694 0.32624335624 0.32817093444 0.33084317758 0.33328832782 0.33477246149 0.3349642344 
0.33274495636 0.32873638412 0.32488640683 0.32083888755 0.31764599045 0.3151079434 0.31316165331 0.31153842017 0.31037555523 
0.30965477744 0.30935754636 0.30959689712 0.31068133011 0.31229659635 0.3147957058 0.3188807713 0.32417333638 0.33115165895 
0.34405186113 0.36412859644 0.38840480387 0.32424649077 0.34899268931 0.36490096932 0.3407413966 0.33531560533 0.33127601307 
0.32819626265 0.32609235898 0.32475414262 0.3239636663 0.32287968456 0.32232592442 0.32185114131 0.32210866154 0.32246959155 
0.32351030688 0.32494757199 0.32625125563 0.32839734869 0.33149844169 0.33620028885 0.34367325383 0.35254761641 0.3656933523 
0.31789103892 0.34840550129 0.31945166453 0.34939629323 0.34532032653 0.34212580844 0.34016351581 0.33884684242 0.33850823875 
0.33837954506 0.33913441614 0.34112521689 0.34448191016 0.34887457047 0.34685410738 0.32270925059 0.32513293711 0.35184156473 
0.34838214567 0.34650400831 0.34412143351 0.34283431773 0.34157110277 0.3417262657 0.34274066811 0.34484564923 0.34759592734 
0.3517191869 0.35004535858 0.3273182446 0.333076908 0.31076960267 0.31311251494 0.32071505724 0.30970453918 0.32907850401 
0.31392542479 0.31729383986 0.33345724683 0.33307648859 0.33362567221 0.33378613057 0.33393543275 0.33405161866 0.33412333393 
0.33415315131 0.33414121337 0.33410058002 0.33402700982 0.33393191345 0.33380082306 0.33365348288 0.33347817919 0.33328724508 
0.33308171631 0.33288990669 0.33273541708 0.33267717496 0.32077609214 0.31970851985 0.33724835139 0.33336719861 0.34582792714 
0.33261982118 0.32752969645 0.32515522614 0.32338860232 0.32134757906 0.3184905755 0.31974705744 0.31997828063 0.31997713911 
0.31987396233 0.3198194164 0.31971587743 0.31967189879 0.3209162558 0.32238863633 0.32969295048 0.32719859555 0.32354650789 
0.32315714977 0.32404249809 0.32495344083 0.32563201978 0.32643173257 0.3272358938 0.32792283112 0.32854549178 0.32908698888 
0.32962574849 0.33016198104 0.33067825975 0.3311651187 0.33163585656 0.33212030443 0.3326327563 0.3280416916 0.31928545032 
0.33181322011 0.33129353332 0.33074247119 0.33020000632 0.3296453598 0.32907383645 0.32844231558 0.32783135586 0.32718900559 
0.32655899113 0.32594413285 0.32535801466 0.32481567081 0.32446202481 0.32496692938 0.32621567409 0.3283816978 0.328960023 
0.33142911616 0.33095665605 0.32638261246 0.3227872337 0.32124105285 0.31932056502 0.31846996926 0.31788466289 0.31754521006 
0.3172792327 0.31707727545 0.31710293891 0.31760299574 0.31913590141 0.32113504491 0.32374426045 0.32724375515 0.33201828431 
0.3379766701 0.34437393437 0.35506140909 0.32057313307 0.34639505433 0.34081585988 0.32057497834 0.32044274935 0.33334032112 
0.3332693541 0.33627218836 0.33312584573 0.33068946846 0.32914392457 0.32809624997 0.32731319105 0.32674856795 0.3262392806 
0.32608159539 0.32638483226 0.32704567164 0.32814809315 0.32929408872 0.33089883081 0.333183841 0.33610058177 0.34106663664 
0.3472343987 0.35495013209 0.33103252423 0.34489191617 0.34381464611 0.34226724717 0.34100381036 0.3401248671 0.34008790713 
0.34072334327 0.34179125058 0.34334042004 0.34454278893 0.33226476953 0.34718214741 0.34786217129 0.34706646107 0.34589400123 
0.34522731902 0.34532268491 0.3457352166 0.34640912809 0.34746271296 0.34771651068 0.34449062188 0.34278898591 0.34302038786 
0.33292838049 0.31852431004 0.31777617192 0.32567068708 0.33068601921 0.32623947064 0.3179238802 0.33234849934 0.31886295995 
0.34212771634 0.31769219773 0.3531264032 0.33367808782 0.33452389117 0.33469574503 0.33476899092 0.33478200161 0.33473010474 
0.33464104817 0.33449528725 0.33429183048 0.33403230226 0.3337325523 0.33340391878 0.33306003428 0.33270267628 0.33241136952 
0.33849192534 0.32805646946 0.33534926314 0.34313149778 0.32897750708 0.33295108178 0.33351601314 0.32791447779 0.32727133589 
0.32678724977 0.32582981336 0.32463724143 0.32356370962 0.32152381629 0.34681588024 0.32610526234 0.32768297565 0.32890082599 
0.32971176718 0.33031434442 0.33073028981 0.3310590538 0.33135286304 0.33163416185 0.33189266391 0.33215775362 0.33242591518 
0.33268675618 0.32239988646 0.32493223908 0.33176454923 0.33143143966 0.33112955546 0.33078671671 0.33040687377 0.32996289129 
0.32941768145 0.32875679615 0.32793037082 0.32694524154 0.32569683747 0.3238548684 0.32237593661 0.31934213825 0.32004304722 
0.32106871386 0.32234691357 0.32326175472 0.32351783612 0.32403291301 0.3249402818 0.32612504369 0.32834730487 0.33041239335 
0.33289374919 0.33655930223 0.340716455 0.32240544027 0.32555305692 0.34381433873 0.34069272526 0.34679433483 0.33469608832 
0.3338262124 0.33312532035 0.33261535342 0.33229596364 0.3320491632 0.33175205053 0.33213045539 0.33308588908 0.33409078535 
0.33529032355 0.33645295554 0.33799754904 0.33987647527 0.34108517162 0.3432221338 0.33426805479 0.33512262619 0.34340269407 
0.34303536794 0.34258886866 0.34201411204 0.34247047918 0.34282991387 0.34310564639 0.34297782144 0.33397286741 0.33608942153 
0.34866086433 0.3490063834 0.34817155127 0.34879101754 0.34889585672 0.34882015181 0.34837516557 0.34744868852 0.33117785519 
0.33208730593 0.32478036883 0.32308928471 0.33790591443 0.3374004306 0.32776974356 0.33300612382 0.32265099469 0.34432747241 
0.33334874129 0.34265412295 0.34249721616 0.34079002261 0.33504775328 0.33665255875 0.33533753554 0.3355203787 0.33540222352 
0.33527310736 0.33500022148 0.33461946293 0.33415203561 0.33364223548 0.33313136 0.33256006929 0.34124330008 0.34091042709 
0.33358492643 0.33812561899 0.33260969279 0.33106222394 0.32897358536 0.3265740018 0.33562635537 0.33555728424 0.33230091055 
0.33260557818 0.33273723123 0.33279419165 0.33282474234 0.33282333384 0.33288325575 0.33294896397 0.32621107933 0.32318410061 
0.33231551028 0.33237624558 0.33246012967 0.33219730506 0.33200708589 0.33173799357 0.33125726846 0.33050079698 0.32938620856 
0.32773450007 0.33959609167 0.3211576687 0.32852738735 0.32972655479 0.32927525794 0.33134600051 0.33159629156 0.33421947405 
0.33559558939 0.33699061732 0.33869431817 0.33783552584 0.33851328554 0.32622137485 0.33170197421 0.33861842855 0.33768351138 
0.33802317224 0.33774854268 0.33646936111 0.33756616432 0.33830498161 0.33915289215 0.33957430657 0.33986768163 0.34060225653 
0.34066789015 0.33496458379 0.33073606629 0.34232540938 0.33390901581 0.3431060019 0.34337506632 0.3433410027 0.34331017651 
0.34304413597 0.34253501011 0.3354791981 0.34783372556 0.35025908542 0.35072295503 0.35088996956 0.35062226608 0.34959570687 
0.34798010966 0.33888910173 0.33126226243 0.33035314585 0.33970074353 0.34074119694 0.33827718505 0.33191764097 0.34028521948 
0.3344916066 0.34536162262 0.3335822912 0.34374701113 0.33876835641 0.33934610707 0.32854487032 0.33400974062 0.32864755945 
0.33545026633 0.33480247083 0.33402780897 0.33324911817 0.34161862399 0.33801776227 0.33991987653 0.33944739913 0.33667679036 
0.33464143339 0.33642955288 0.33479283896 0.33431960231 0.33391157317 0.33368021062 0.33380565587 0.33455432809 0.33364599405 
0.33058599321 0.33388402051 0.33382580436 0.33344979524 0.33243197842 0.33358875492 0.33762521746 0.33452999144 0.33661900602 
0.336057378 0.33536498705 0.33862228881 0.33991843473 0.34042531375 0.34044710266 0.3424613813 0.34285080257 0.34060252179 
0.3415473587 0.34279558138 0.34200797849 0.34167434365 0.3424534166 0.34226683563 0.33774345948 0.33562982818 0.33595308177 
0.33593874835 0.33399899982 0.34026757676 0.34259139215 0.34311125795 0.34316023842 0.34268553174 0.33727051214 0.35171425568 
0.35195100109 0.35181084857 0.35053423659 0.33625253619 0.34055951033 0.33628978344 0.33506226475 0.33462130428 0.34142443663 
0.34409554424 0.33984059693 0.34115867862 0.33344399513 0.33304417862 0.34323847197 0.34771893506 0.34561878991 0.34342709696 
0.34244403903 0.34150967117 0.34948077221 0.33426740595 0.34101795115 0.33559138891 0.35047408804 0.3371677374 0.33784110078 
0.34559678794 0.33687008279 0.33451086069 0.33523789874 0.33612745801 0.33506618552 0.33562428039 0.34000162986 0.34336309989 
0.34265829353 0.33771924534 0.34527040901 0.34391245128 0.3422693609 0.34708937821 0.34469131583 0.3455678118 0.33596559186 
0.33608955433 0.33753926359 0.33632459893 0.33654749999 0.33673572783 0.33611676595 0.34145673554 0.34212100037 0.34209708559 
0.34077556249 0.33863528465 0.35180943398 0.33452823998 0.35155910366 0.34893555808 0.33724639054 0.34459210885 0.3377426201 
0.34162736616 0.3444355005 0.34061891447 0.34772301048 0.34712774505 0.33940395342 0.34686248041 0.34769619523 0.34549182906 
0.35234702358 0.3372486317 0.34201283584 0.33901122626 0.34873392284 0.33768483808 0.33751672638 0.33914309957 0.34062241787 
0.33652825501 0.35018427537 0.35077966362 0.33911622368 0.33842793105 0.34653440014 0.35035217919 0.33904340944 0.33882642749 
0.3391766426 0.33786860897 0.34856553736 0.34820540877 0.33932081426 0.35184406543 0.34065074481 0.24133436159 0.231898669 
0.33330100473 0.99033187548 1.0415640102 0.72618222956 0.43952644439 0.39489288285 0.37143069841 0.35358655392 0.43938037491 
0.43046893617 0.42338178651 0.42081561902 0.41956735329 0.41888550247 0.41806400749 0.41967242039 0.42043379636 0.42139497896 
0.42202637574 0.42236088353 0.42282823406 0.42371581896 0.42652492926 0.43105143079 0.43427627306 0.43761520712 0.44201600913 
0.45331308002 0.47852959836 0.50955661971 0.72592613594 0.6891268195 0.45065227775 0.39690588572 0.37766175481 0.39835714418 
0.4373078438 0.43277665535 0.43396410829 0.43133456629 0.42810361881 0.42820309309 0.42768956068 0.4270638452 0.42618317525 
0.42506129877 0.42574117528 0.42803348543 0.43124950437 0.43108798089 0.43517843288 0.43792130501 0.44310537574 0.45310602201 
0.46643596506 0.48698479979 0.52666964002 0.73631624971 0.3333180016 0.33336600099 0.33336300014 0.33335000057 0.3333470012 
0.33334000178 0.33333300233 0.33332200268 0.33331500274 0.33331400204 0.33331000057 0.33329800022 0.33330100022 0.33329900044 
0.33329800075 0.33329900111 0.33330100072 0.33330900119 0.33330900115 0.33332100076 0.33332100119 0.33333300191 0.33334200238 
0.33334900216 0.33335100087 0.33335100001 0.33335500074 0.3333500021 0.62912646858 0.36874487359 0.32604862786 0.30783022451 
0.29768269545 0.29229749537 0.28966633221 0.28873820801 0.28882112071 0.28959209571 0.29074005224 0.29212202777 0.29375801435 
0.29575700642 0.29823700402 0.30164000877 0.30627303553 0.31239413789 0.3198572901 0.32881349477 0.33820457539 0.34595042848 
0.35078106948 0.35107705281 0.34718027005 0.3406514045 0.33333033571 0.32738716467 0.32328407013 0.32063601952 0.31937500353 
0.31919700631 0.31971400925 0.32077001342 0.3221710142 0.32374701337 0.32534001171 0.32681301009 0.32825500828 0.32956400702 
0.33072000637 0.33174200526 0.33259900299 0.33319600045 0.33342100187 0.33337400117 0.33338900207 0.3334170001 0.33317800001 
0.33262200089 0.33181900177 0.33075700296 0.32949300406 0.32817900497 0.32673800622 0.32516700652 0.32357500787 0.32212700595 
0.32077200744 0.3197740034 0.31925800274 0.31938500101 0.32072700085 0.32340300905 0.32803504573 0.33448025511 0.3414834782 
0.34766449492 0.35126248499 0.34991504905 0.34472514365 0.33570530635 0.32623630726 0.31754931801 0.31052213083 0.30518902683 
0.30112400748 0.29790700463 0.29541900508 0.29351600892 0.29187201966 0.29031604507 0.28916105951 0.28869306594 0.28870010717 
0.28984141454 0.2931020886 0.29940425123 0.31008774719 0.33247098893 0.39050836932 0.60873127135 0.43979783348 0.43291902101 
0.42796186596 0.43525669822 0.42900904134 0.42684362662 0.42555464289 0.38950025997 0.34889936531 0.32730783105 0.32722669211 
0.31938023064 0.3534849647 0.47117353098 0.56586794856 0.41094239877 0.36994392783 0.37461083946 0.42751553559 0.43101719593 
0.43253528663 0.33111175682 0.32484632752 0.32744688351 0.32347113339 0.32846673389 0.33968818202 0.3422069991 0.41968203776 
0.55638287382 0.33330600045 0.33336600064 0.33338000031 0.33336800207 0.33335400177 0.33334000156 0.33333300149 0.33332300122 
0.33331300097 0.33330900064 0.33329400147 0.33328900043 0.33329400073 0.33329600075 0.33329300038 0.33329200035 0.33328500015 
0.33329900052 0.33329700088 0.33331700193 0.33332500208 0.33333100205 0.33334200129 0.33335100063 0.33336000025 0.33337200004 
0.33335000057 0.33334700155 0.60395917195 0.34294591692 0.32654156969 0.3090117993 0.29837688917 0.29270303422 0.28981847297 
0.28867021773 0.28865312016 0.28933206914 0.2904220424 0.29188402476 0.29354401679 0.29545701727 0.29780202455 0.30078804753 
0.30467708522 0.30966315985 0.31625530423 0.32476153964 0.33422362333 0.34311833977 0.3492210438 0.35106307356 0.34856231638 
0.34278949424 0.33550040521 0.32901221314 0.32432307609 0.32112301409 0.31949600401 0.31913100345 0.31954600493 0.32045500422 
0.32171200325 0.32318400274 0.32476900256 0.32646200184 0.32799300103 0.3293500008 0.3306120004 0.33167600019 0.33251700014 
0.33313200071 0.33343200425 0.33337500187 0.33337800188 0.33342700161 0.3331110005 0.33250300014 0.33166200019 0.33056800051 
0.32930700097 0.3280090014 0.32658700227 0.32502900412 0.3235550039 0.32204601004 0.3206890076 0.3196970178 0.31917402235 
0.31943301131 0.32060900244 0.32326006454 0.32763619681 0.33372131972 0.34070935854 0.3472212717 0.35074801635 0.35004018516 
0.34440834611 0.33595063282 0.32626037104 0.31796113909 0.31083810228 0.30505306856 0.30086904527 0.2978430365 0.29523702528 
0.29325302815 0.29171804217 0.29034105228 0.28928806459 0.28855323579 0.28858136459 0.28981929709 0.29250853967 0.29836699923 
0.30922248721 0.32672497037 0.35785174233 0.62551938624 0.40579042226 0.36728609193 0.32731318807 0.32207163737 0.32599708587 
0.32558029635 0.32756025846 0.39740745144 0.42206783116 0.4245824447 0.42474507051 0.43175405535 0.34475161134 0.41705888399 
0.38922481845 0.42303035758 0.3505150488 0.32277194499 0.31966642591 0.32157508412 0.3138213728 0.42013401262 0.42582791561 
0.42680041785 0.43147421927 0.42991822661 0.43665034689 0.42034350842 0.45750388991 0.4674264869 0.3333520007 0.33334600025 
0.37762317754 0.40518590161 0.41336589967 0.38909018204 0.6328443572 0.64153555485 0.48815774868 0.40692375034 0.39171181013 
0.36651843693 0.35300232989 0.3679881379 0.34701844256 0.32389597785 0.3515444636 0.3323236276 0.34704121793 0.3265165781 
0.33698581363 0.32572052811 0.33642684413 0.32207344742 0.33019681312 0.32022496384 0.32279482942 0.31948911439 0.32775862376 
0.31706119391 0.32351368186 0.31827909679 0.32101169335 0.31538733315 0.32291789202 0.31736419385 0.32356164696 0.31593012238 
0.32364030914 0.31947578134 0.32322586648 0.32364798279 0.32668026066 0.32500701861 0.32349575555 0.32847748828 0.33090604772 
0.33334230246 0.33378494226 0.3376753709 0.33912045404 0.34669427718 0.34851504406 0.35666605476 0.35596189749 0.37661203104 
0.3713777962 0.39448296999 0.41383912024 0.47360302926 0.33332500169 0.33328300668 0.33327201677 0.33329607304 0.33329208937 
0.3332741582 0.33330320039 0.33330022164 0.33327956023 0.33331038266 0.33330439942 0.33329813762 0.33331953052 0.33331554387 
0.3333097559 0.33333157586 0.33332758309 0.33332813256 0.3333445732 0.33333756843 0.33333421401 0.33335151701 0.33334950816 
0.33334307001 0.33336241073 0.3333543966 0.33335773192 0.33336228976 0.33336226323 0.33336926673 0.33336615564 0.3333651376 
0.33337379512 0.33337306712 0.33337605569 0.3333803795 0.3333720087 0.33337400542 0.33338010645 0.33337100458 0.33337500745 
0.33337800021 0.33336905032 0.33337405824 0.33337808761 0.33336314352 0.33336715761 0.3333743592 0.33336324704 0.33336626127 
0.3333677585 0.33335336059 0.33335936799 0.33336017642 0.33334544499 0.33334846742 0.3333465708 0.33333651716 0.33333752935 
0.33334188278 0.33332654677 0.33332655333 0.33333707693 0.33331050752 0.33331550208 0.33331903368 0.3333023802 0.33330336627 
0.33330868243 0.33329122056 0.33329119965 0.33329210357 0.33329708933 0.33328807031 0.33328554447 0.33329002058 0.33327700818 
0.3332671811 0.33329400027 0.33331200023 0.33334900043 0.3332630241 0.44475867769 0.44362847447 0.38875126224 0.35978924127 
0.34197925012 0.38783813071 0.32842713021 0.32009296728 0.34690165262 0.31261019582 0.30827073773 0.32648599947 0.30417043872 
0.30188196254 0.31527486037 0.29917360443 0.2980777179 0.3086522353 0.29667571822 0.29640154538 0.30463542626 0.29573600446 
0.29585600266 0.30261133745 0.29525427081 0.29564531674 0.30141306089 0.29573182575 0.29634986655 0.30086352893 0.29664445341 
0.29740650581 0.30126271549 0.29780319609 0.29869121071 0.30196245195 0.29930318989 0.30045225529 0.30292506328 0.30145318983 
0.30286133028 0.30448294926 0.30421300799 0.30630270979 0.30676826713 0.30797226006 0.31054124044 0.30969482902 0.31257128922 
0.31602692013 0.31332189353 0.3186380468 0.32237658255 0.31789466062 0.32534022982 0.32997898647 0.32344829859 0.33295508475 
0.33677481195 0.32953682448 0.33941482414 0.3423858385 0.33527698646 0.34396879785 0.34522158063 0.33954855718 0.34553887208 
0.34475204359 0.34143657413 0.34378041519 0.34143652539 0.34062228468 0.33941149681 0.3361812353 0.33744203768 0.33411402518 
0.33086992771 0.33318565162 0.32913755529 0.32683938197 0.32930283011 0.3254848646 0.32378697868 0.32623823223 0.32289318499 
0.32187672827 0.32408045252 0.32141928633 0.32103516888 0.32279431645 0.32096002057 0.32101904909 0.32231310146 0.32118239514 
0.32151745256 0.32243460336 0.32181783891 0.32242390785 0.32293828211 0.32292922955 0.32361625407 0.32375288939 0.32416338026 
0.3249703806 0.32479887926 0.32559347892 0.32632646809 0.32597135356 0.32692541995 0.32763840263 0.32719143506 0.32815023187 
0.32884920283 0.32830494376 0.32936298096 0.32995296192 0.32933510088 0.33041674264 0.33096272395 0.33031418779 0.33137755303 
0.33183552752 0.33119837963 0.33218432572 0.33255929034 0.33196457139 0.33280713 0.33302810184 0.33256977881 0.33319602249 
0.33325700929 0.33296323105 0.33193950581 0.31828960758 0.33325300309 0.33300408473 0.33281209655 0.3192388729 0.32666393055 
0.33257021174 0.33221323732 0.33252958421 0.33185641686 0.3314214403 0.33194424006 0.33099464843 0.3303736859 0.33115909206 
0.32986589126 0.32923791771 0.33022001295 0.32870714262 0.32802516854 0.32917492869 0.32747328597 0.32672130218 0.32808266022 
0.32612130586 0.32531730258 0.32691794417 0.32474024639 0.32399626488 0.32571686412 0.32344810826 0.32280504368 0.32459134893 
0.32233272618 0.32171866373 0.32356729663 0.32142934883 0.32109727017 0.32276577809 0.32097101518 0.32091700345 0.32228939014 
0.32107427502 0.32150739091 0.32228424178 0.32207902104 0.32312968645 0.32285426206 0.32408514762 0.32583684848 0.32428758468 
0.32738771844 0.33011954878 0.32683208426 0.33201232231 0.33519509359 0.33041051369 0.33721312642 0.34014032079 0.3344510145 
0.34197778894 0.34419749379 0.33825651299 0.34487839592 0.3454620473 0.34106624631 0.34493526989 0.34337189179 0.3412065703 
0.34154247507 0.33800330397 0.3386269637 0.33497249743 0.33032820003 0.33348307641 0.32737491679 0.32316649571 0.32727223745 
0.32022575108 0.31610400469 0.32116013535 0.31373125145 0.31083308714 0.3157890361 0.30888017897 0.30644281111 0.31147287564 
0.30507942913 0.3033167732 0.30809386354 0.30223235432 0.30071814117 0.30562504811 0.29983765235 0.29873157778 0.30365583269 
0.29806870134 0.29714765458 0.30211984547 0.29666804385 0.29589397978 0.30093384226 0.29576751428 0.29507246394 0.3003024836 
0.29531712101 0.29484308359 0.30029171728 0.29524503465 0.29527312295 0.3008200249 0.29602026752 0.29637758033 0.30203370117 
0.29808869945 0.29939870514 0.30443102373 0.30268664625 0.30538791438 0.30899833417 0.31022754692 0.31526861346 0.31668419221 
0.32371448249 0.33284157494 0.32886671493 0.34646471363 0.36955413935 0.35051956436 0.39627949552 0.45793588696 0.38684750473 
0.36853003122 0.4186385113 0.37381522896 0.3672762625 0.35485988975 0.38476769364 0.34323017297 0.33305391633 0.36258978593 
0.32824702915 0.32485601953 0.3513002715 0.31392665431 0.30495825273 0.33978327613 0.305957694 0.30024541152 0.33532984216 
0.30206028366 0.29755792451 0.32796601828 0.29721207475 0.29456547508 0.32566462841 0.29433962949 0.29220303618 0.32404490366 
0.2951259297 0.29240070083 0.3221641613 0.29247970831 0.29119016016 0.32104173973 0.2923882741 0.29196757863 0.32063910426 
0.29237946417 0.29216473571 0.3202284914 0.29245999362 0.29267267731 0.32079738672 0.29143525611 0.29233711176 0.32213081586 
0.29195898959 0.29305645483 0.32243198465 0.29314908372 0.295825739 0.32242195356 0.29333039611 0.29756749002 0.32350083032 
0.29696258587 0.3014996329 0.32539449554 0.29956241003 0.30550022547 0.32764685097 0.30299314467 0.31037114931 0.33207753783 
0.30895612255 0.3180269122 0.33741766629 0.31700720329 0.33013370862 0.3450157998 0.3347585785 0.35278489929 0.35846561371 
0.36170213904 0.39975885941 0.38029709322 0.34399276972 0.40361477501 0.32691094406 0.32668046022 0.37597143392 0.31912314884 
0.32295331597 0.3568222349 0.31641331579 0.31902916501 0.34619931025 0.31443374539 0.31578955633 0.3408195784 0.31300630022 
0.31470584056 0.33850497965 0.31052005153 0.31285275384 0.33748977594 0.31087849869 0.31015147315 0.33752789317 0.31570867358 
0.31532776702 0.3403542987 0.31633326797 0.31643960848 0.34155475713 0.3169743312 0.31579312584 0.34364265127 0.32328392354 
0.3185046168 0.34594498246 0.32834073639 0.33285312375 0.35613545808 0.38669241406 0.33408063014 0.37383574435 0.2518418415 
0.27234297448 0.34444701585 0.39247065021 0.32553600813 0.33482597113 0.35221678621 0.31334605428 0.321162691 0.33958606086 
0.3155475353 0.33133423067 0.33042380125 0.31408219788 0.31789748617 0.34229348223 0.31405119757 0.31453721286 0.34143568655 
0.31874536282 0.31606397512 0.34300056263 0.31751956676 0.31656357878 0.34270436864 0.31689590622 0.31456804578 0.3424881877 
0.31877060092 0.31587811 0.34455494369 0.32194303423 0.31506391342 0.34640515059 0.32592726027 0.31914525393 0.35165238947 
0.34965551827 0.32280974435 0.36031009432 0.35932961174 0.34331424926 0.37992945072 0.2467478969 0.26964666544 0.33329700357 
0.40212153976 0.31170903993 0.29800376157 0.44247230546 0.3002746766 0.28586574147 0.30890679622 0.29777957357 0.30710966364 
0.29226923118 0.31728378922 0.27347094138 0.2970383865 0.30018743473 0.41402527443 0.39801164775 0.32456621674 0.31614713238 
0.33316888401 0.33318426961 0.33318797322 0.33319247668 0.33311265505 0.33322420664 0.33324362608 0.33315964395 0.33327813052 
0.33329925527 0.33323429489 0.33334540908 0.33335637301 0.33330821839 0.33339812247 0.33340794061 0.33339006403 0.33343648973 
0.33344916268 0.33345104878 0.33347863245 0.33348221688 0.33350866518 0.33349969743 0.33350631648 0.33355416213 0.33352287047 
0.33352857694 0.33359075817 0.33353227978 0.33353411925 0.33360467964 0.33353701009 0.33353800795 0.33361308337 0.33353111627 
0.3335322724 0.33361207463 0.33352459681 0.3335239008 0.33360269773 0.3335053303 0.33350067881 0.33358081575 0.33347616109 
0.33346750396 0.33354212791 0.3334410057 0.33342531386 0.33349655884 0.33339772058 0.33338594367 0.33344688126 0.33334915707 
0.33333125933 0.33338579587 0.33329512423 0.3332769844 0.33331396843 0.3332315663 0.33321518339 0.33322127115 0.33318755727 
0.33317107943 0.33315178464 0.33315346092 0.33314803199 0.33309201543 0.33314759052 0.33312536272 0.33305846546 0.33514915747 
0.33931027295 0.40786441968 0.38835553851 0.37340519606 0.33315106009 0.36358584656 0.347900504 0.34004651542 0.33161959306 
0.3482744856 0.32654478999 0.32197693866 0.33476149489 0.31856101758 0.31550789044 0.32624487981 0.31284031368 0.31123030326 
0.32028756111 0.30941295439 0.30863435626 0.31600964527 0.30754960498 0.30686222085 0.31315462352 0.30622820155 0.3063149467 
0.31159065069 0.30597313829 0.30629483792 0.31068448143 0.30614129008 0.30654773571 0.31037003962 0.30679094073 0.30742360133 
0.31055803484 0.3077110897 0.30873762271 0.31112084136 0.30919782885 0.31059676496 0.31193923768 0.31137340297 0.31306123725 
0.31326948107 0.31400931765 0.31604480603 0.31509602504 0.31729775736 0.31987909091 0.31746885306 0.32155244623 0.32442175249 
0.32044975366 0.32642827204 0.3291586468 0.32415394654 0.3312455423 0.33338591239 0.32829670824 0.33515340969 0.33642559307 
0.33209804974 0.33727243478 0.33768308832 0.33472978569 0.33738388039 0.3367543282 0.33522542811 0.3353735579 0.33365479378 
0.33355927806 0.33216316954 0.33031847533 0.33058453733 0.3292722942 0.32757897204 0.32813408687 0.32686772115 0.32558457259 
0.32637222144 0.32517356628 0.32424988751 0.32517227974 0.32412609679 0.32361444097 0.3245689864 0.32366256927 0.32353400232 
0.3244313902 0.32367461111 0.32379473048 0.32459228868 0.32402049364 0.32429587636 0.32492712593 0.32463551575 0.32511371834 
0.32549599055 0.32549683919 0.32601441488 0.32622509552 0.3264650259 0.32707131257 0.3270796821 0.327515461 0.32811028706 
0.32799285776 0.32848771064 0.32900821076 0.3288322011 0.3293634239 0.32986875107 0.32958930642 0.33023366403 0.33069197575 
0.33032879814 0.33104105056 0.33144543218 0.33105107609 0.33176554172 0.33209783019 0.33171152038 0.33236598493 0.33262041157 
0.33227701323 0.33284671806 0.33302737102 0.33275475572 0.30348056918 0.33429031151 0.40374049537 0.37342268553 0.36869583809 
0.33259402716 0.33234144197 0.33207925293 0.33171488031 0.33221211749 0.3314049656 0.33096268989 0.33162276477 0.33061079466 
0.33008952136 0.33093583331 0.3296974469 0.3291451536 0.33015670709 0.32877373096 0.32819313471 0.32934184097 0.32776739694 
0.32715244903 0.32847907641 0.32673325691 0.32614803899 0.32759022504 0.3257502978 0.325215649 0.32671987139 0.32486548684 
0.32440133539 0.32591214453 0.32409065047 0.32379343114 0.32519899501 0.32355194214 0.32343319272 0.32459341167 0.32335614003 
0.3235683406 0.32425900015 0.32360952313 0.32428163069 0.32424501655 0.32448873664 0.32557073588 0.32469112526 0.32611580837 
0.32762436497 0.3255854106 0.32861647284 0.33032848223 0.32712053628 0.3315547837 0.33311821555 0.32925493526 0.33465957906 
0.33592825078 0.3317507963 0.33704519144 0.33780117576 0.33454344584 0.3377528032 0.3374594966 0.33567965685 0.33605825376 
0.33432792095 0.3344190538 0.33208817875 0.3291082861 0.33076064211 0.32716651344 0.32420108884 0.32626864791 0.32244561228 
0.31939004907 0.32231426851 0.317854681 0.31531400806 0.31868236636 0.31427909239 0.31219621481 0.31575600423 0.31142200467 
0.30990303461 0.31364197112 0.30934015688 0.30811207574 0.31211868485 0.30768686002 0.30673681539 0.31090586617 0.30645759577 
0.30572676699 0.31004856322 0.30570510634 0.30517427722 0.30962993354 0.30535163255 0.305171405 0.3095811362 0.30562814117 
0.30579305285 0.31004914642 0.30659598425 0.30699870301 0.31109627443 0.30822974202 0.30903060542 0.31301936307 0.31106991404 
0.3130487163 0.31596346759 0.31605572984 0.31999308656 0.32090688721 0.32390160302 0.32925756572 0.32803627354 0.33504408691 
0.34524565953 0.33810813817 0.35304177809 0.37204299914 0.37417284745 0.35359082632 0.33310332662 0.36940791027 0.37547801728 
0.35867254591 0.34989585239 0.33822526129 0.33434035718 0.35791556389 0.3308065879 0.33600865699 0.34700823037 0.32799049933 
0.32795403445 0.33992042853 0.32440366093 0.32580253557 0.33273585008 0.32117828682 0.32192428137 0.32835991195 0.31840717614 
0.3191602704 0.32578377533 0.3157890984 0.3178635407 0.32360017238 0.31551427207 0.31707065818 0.32207644132 0.31440397103 
0.31588602689 0.32142975883 0.31431104754 0.31524013163 0.3207252526 0.31504372053 0.3153742484 0.32028358549 0.31536989643 
0.31475795084 0.32044907065 0.31608702755 0.31511401129 0.3209621117 0.31686318097 0.31626524307 0.32180132953 0.31820767761 
0.31712601362 0.32298619352 0.3193291956 0.31922406813 0.32437178962 0.32293480463 0.32180239257 0.32688506031 0.32666408514 
0.32544472593 0.33030958033 0.33211603147 0.33112476828 0.33538374895 0.34042890673 0.34061328959 0.34261373246 0.35239035606 
0.3567437475 0.35346298091 0.37412507231 0.34115472234 0.34828776257 0.35012956083 0.33097374853 0.29748277962 0.32827385025 
0.34863025482 0.33730260175 0.33285098572 0.35202692074 0.33575622581 0.33688851723 0.34494917371 0.33434413319 0.33425109187 
0.34001151297 0.3332555508 0.33331438715 0.33821042544 0.33329424131 0.33317528491 0.33781498934 0.33475650059 0.33414576262 
0.33784782171 0.33680079514 0.33606145907 0.3388464928 0.33773037898 0.3375026545 0.34064516758 0.34230400527 0.34107919238 
0.34378422621 0.34193492226 0.34608226797 0.34796105237 0.34433030362 0.34624159498 0.35047698825 0.31196470789 0.31759554112 
0.32853937107 0.2948669568 0.33266171049 0.33383335095 0.31627972705 0.33389019269 0.30141395935 0.34723225909 0.34635781786 
0.33917674455 0.33903716389 0.33512203158 0.33462655866 0.34454905006 0.33581784639 0.33371074596 0.34328889726 0.33692540256 
0.33727560327 0.34127103768 0.33807254357 0.33859827206 0.34142107587 0.3391739546 0.33932775012 0.34254556039 0.34115132353 
0.34187353282 0.34468921575 0.34410647472 0.34478960817 0.34767907079 0.34873188004 0.34949612211 0.35119656675 0.34145413465 
0.35805345869 0.35043473378 0.30629528574 0.31573283676 0.33310960774 0.34282853933 0.3441568963 0.34980863107 0.33647657298 
0.34452059466 0.34975594824 0.34530958822 0.31539071176 0.3029004276 0.33308521435 0.33310510942 0.33309209904 0.33298364223 
0.37813862019 0.30823441543 0.32052764516 0.33282440641 0.31799571928 0.30035028291 0.33303432379 0.36998901137 0.32759125387 
0.33335593665 0.31804364036 0.31089505255 0.31825279576 0.3034226695 0.3112397429 0.31666794697 0.30240559601 0.32357323452 
0.31296323973 0.33271809189 0.33903231842 0.33945688089 0.3640953912 0.33299395345 0.3330380897 0.33310850893 0.33317127568 
0.33298231821 0.33325693363 0.33332416458 0.33316881512 0.33341119298 0.33346575822 0.33336763003 0.33354308526 0.33359129702 
0.33356170954 0.33364710015 0.33368814607 0.3337033732 0.33372989179 0.33375294604 0.33381933082 0.33378589235 0.3338040626 
0.33390249974 0.33382425697 0.3338337015 0.33396418318 0.33385023827 0.33386103363 0.3340035817 0.33386903153 0.33386523901 
0.33403200001 0.33385174048 0.33384835478 0.3340316276 0.33381818055 0.33379298469 0.33398632571 0.333749055 0.33371893725 
0.3339066931 0.33366908436 0.33362703263 0.33380245918 0.33356301672 0.33351479173 0.33367615402 0.33345040103 0.33339282959 
0.3335312097 0.33331692745 0.33325178276 0.33336319706 0.33317121681 0.33311053662 0.33317771794 0.33303137987 0.33297833624 
0.33298470935 0.3329249018 0.33289981633 0.3328345506 0.34006239955 0.34119306339 0.34156363361 0.34222907321 0.34332725993 
0.34307121982 0.35556806857 0.3464872393 0.34296019146 0.33692234312 0.34601680944 0.33398830665 0.33008786069 0.33843325272 
0.32788137665 0.32476324311 0.33268046293 0.32262869946 0.32053161428 0.32792975116 0.31897050182 0.31785511984 0.32407834669 
0.31699661106 0.31632150166 0.32158883744 0.31561503304 0.31536268064 0.32014406118 0.31486121112 0.31471762108 0.31905082251 
0.31443733912 0.31475710942 0.31838162553 0.31457860671 0.31494595959 0.31802350773 0.31483909269 0.31543167615 0.31791720742 
0.31538308537 0.31629537328 0.31795173162 0.31632877956 0.3174330169 0.31815228039 0.31764655939 0.31905738684 0.31862426084 
0.31936108996 0.32108866262 0.31932198207 0.32207275813 0.32382836583 0.32038654942 0.32588277787 0.3275116134 0.32311378988 
0.32908820339 0.33014837419 0.32649848685 0.33203110809 0.3327488504 0.32965177503 0.33264819963 0.33287701046 0.33163494537 
0.33162393048 0.3306748087 0.33016689521 0.32868034331 0.32755337683 0.32735115998 0.32678918657 0.32595683415 0.32487427117 
0.32584541659 0.32510743903 0.32439219246 0.32522470256 0.3247642072 0.3244491698 0.32503990817 0.32480083125 0.32482420974 
0.32520669506 0.32514149058 0.3254120167 0.32550816944 0.32558483907 0.32604905003 0.32590967468 0.32610183154 0.32664679281 
0.32639108849 0.32670414604 0.32720187073 0.3270238484 0.32739301499 0.32778434252 0.32772873985 0.32816901371 0.32843587727 
0.32849451444 0.32893776613 0.32909672984 0.32921613416 0.32959730685 0.32969869079 0.3298509818 0.33021177188 0.33023054559 
0.33045200433 0.33081631538 0.33073306523 0.331055283 0.3313946959 0.33122469363 0.33166295314 0.33196931745 0.33173923431 
0.33219375868 0.33245519057 0.33223014396 0.33265260151 0.33286527533 0.33295990892 0.33263515027 0.36996714625 0.35878979996 
0.35548994268 0.36083365276 0.31940016305 0.3128849253 0.34750272911 0.34391617699 0.33190226265 0.33156907724 0.33133636578 
0.33095622353 0.33164653544 0.33068836052 0.33026194606 0.33111582698 0.32999143931 0.3295644383 0.33054019002 0.32930751815 
0.32885400887 0.3299602443 0.32851690337 0.32807950698 0.32934734358 0.32776356216 0.32734820802 0.32867103685 0.32703525295 
0.32668805383 0.32802745474 0.32637215131 0.32606320197 0.32739541245 0.32575909171 0.32554141806 0.32677993117 0.32522941769 
0.32520011338 0.32618799794 0.32489655008 0.32503075903 0.32562468544 0.32478392554 0.32516599417 0.3251401811 0.32490143622 
0.32557033588 0.32465266261 0.32571810207 0.32661054862 0.32458609581 0.3267100052 0.32758333484 0.32485677057 0.32896321144 
0.3295927463 0.32585015471 0.33166124183 0.33246748524 0.3289179208 0.33316915123 0.33354422481 0.3317551453 0.33272321039 
0.33186784588 0.3316238828 0.32934400587 0.32749073383 0.32874839452 0.32532424203 0.32326628983 0.32416726852 0.32235918861 
0.32052568287 0.32151385977 0.31976330898 0.31797670152 0.31979205237 0.31750740512 0.31627214032 0.31831971725 0.31626622753 
0.31527538257 0.31762682879 0.31525964773 0.31452088733 0.31749505546 0.31449024409 0.31393202214 0.31731785183 0.31399378354 
0.31365660003 0.31719546149 0.31382706904 0.31371690902 0.31730711606 0.31407515679 0.31418878952 0.31774739568 0.31491327972 
0.3154285151 0.31869957613 0.31626785159 0.31707004258 0.32023364603 0.31812941345 0.31932726419 0.32205529937 0.3209068168 
0.32292759815 0.3246186117 0.3257203591 0.32943246253 0.32864418648 0.33179402528 0.33659985479 0.33458593203 0.33934123403 
0.34692207729 0.34070573688 0.34262280678 0.34283725606 0.35757155055 0.34966571113 0.32093063822 0.32968258842 0.34515651345 
0.34224482492 0.35041932364 0.33965521935 0.33707194566 0.34375743114 0.33526181694 0.33292759815 0.33874106102 0.33134996043 
0.3297928279 0.33514157518 0.32849006386 0.32725174303 0.33215503773 0.3263727082 0.32549991265 0.32978449647 0.32487268643 
0.32443787984 0.32818848661 0.32387192068 0.32356926018 0.3270014767 0.32316244452 0.32301749534 0.32617097397 0.32280619626 
0.32284838298 0.32572561158 0.32280350964 0.32287342657 0.3255433246 0.32309772649 0.32343522666 0.32579279981 0.32383962361 
0.32436277422 0.32642931241 0.3248117979 0.32556341601 0.32737579796 0.325941842 0.32706920377 0.32845291919 0.32784581 
0.32942495214 0.33006704815 0.33077133959 0.33289423363 0.33257478179 0.3349977802 0.33790222746 0.33641008755 0.34078680086 
0.34477526674 0.34178243945 0.34858495516 0.35468043569 0.35740670259 0.34849215253 0.34495220608 0.34546670722 0.34475245825 
0.33869428795 0.33877821256 0.34068037153 0.33905772487 0.33891190749 0.34057001235 0.34014525882 0.33948616029 0.34094468353 
0.34170414432 0.34076198499 0.34208404657 0.34405576797 0.34270447413 0.34378039722 0.34527796965 0.34516375599 0.34536898884 
0.34275689684 0.34693774528 0.34446062781 0.32702110953 0.33565072505 0.33633515513 0.32720865409 0.32795005295 0.3179354771 
0.32260805304 0.33297855288 0.31298752694 0.31548402585 0.31451522584 0.32607179376 0.34410440306 0.3447779795 0.34345622997 
0.34306755831 0.34535807302 0.34453871714 0.34394536384 0.3460474618 0.34588038257 0.34513942433 0.34699791872 0.3474551223 
0.346851852 0.34795053579 0.34769123826 0.34846024308 0.34819632623 0.3418771451 0.34741229373 0.34463771363 0.31161631232 
0.3115986263 0.342950575 0.34359188163 0.3458889833 0.34513443373 0.33295703679 0.32517259821 0.32723155286 0.32457129528 
0.31629750396 0.33240479061 0.33212319222 0.33212533783 0.36223213617 0.35993639909 0.35435081 0.35055234226 0.31414326616 
0.31768386005 0.33284931584 0.32883807769 0.33288248971 0.33288665231 0.31634247499 0.31865251904 0.32130959492 0.33146623236 
0.32617820148 0.33843247578 0.33275218173 0.33283031009 0.33257840094 0.31905144458 0.34784575295 0.34581616403 0.34735280971 
0.33609512343 0.35019030956 0.32246944095 0.34446226209 0.34704268126 0.34405967329 0.32633577057 0.32623897387 0.32786623426 
0.33525661769 0.32263853032 0.32013678488 0.32196614991 0.31654145725 0.3167691261 0.33244818173 0.32735425286 0.34703907167 
0.34591699547 0.34615518254 0.31812591141 0.31455520018 0.31946183499 0.33254521525 0.32910673649 0.32931574392 0.3314850938 
0.33302060852 0.33316243042 0.33331410302 0.33345004939 0.33319857904 0.33358555804 0.33370950835 0.33355660085 0.33383482559 
0.33392914777 0.33387492535 0.33402007672 0.33408131588 0.3341255835 0.33414135118 0.33418784739 0.33430690784 0.33422232916 
0.33425216691 0.33441990534 0.33429710184 0.33432542711 0.33451192272 0.33436504196 0.33438604209 0.33461022831 0.33437745835 
0.33436420187 0.3346492395 0.33431839785 0.33427759505 0.33459412222 0.33421415419 0.33414971756 0.33447036538 0.33406760407 
0.3339912651 0.33430537554 0.3338871618 0.33378461066 0.33408779071 0.33366797225 0.33355693749 0.33382260155 0.33343053803 
0.33330777975 0.33353394444 0.33316537599 0.33303570097 0.33321232979 0.33289819456 0.33278670791 0.33288026741 0.33267238344 
0.33259648228 0.3325869799 0.3418107521 0.34219117346 0.34259665519 0.34301525915 0.34340014583 0.35157376249 0.31798417162 
0.32214170372 0.3432649681 0.33920912924 0.33771794025 0.33463947501 0.3399691632 0.3333140853 0.33062045899 0.33619603853 
0.32933097705 0.32751815554 0.33302540225 0.32652894903 0.32557985527 0.33044662618 0.32480019917 0.3240803463 0.3286241009 
0.32341165567 0.32295836628 0.32721689407 0.3224079911 0.32214531889 0.32614023126 0.32165309474 0.32158992464 0.32518712503 
0.32110004901 0.32111578036 0.32438395206 0.32051638394 0.32061680644 0.32349804377 0.31996725722 0.32016466643 0.32248576739 
0.31964562067 0.3199985838 0.32160073331 0.31936442263 0.31979943119 0.32062762915 0.31896084762 0.31973804306 0.31892568347 
0.32089382279 0.32279807533 0.32356460252 0.32721484522 0.32788795761 0.33042407593 0.33084952074 0.32640876054 0.32489009766 
0.323018974 0.32294904876 0.32383172579 0.32385646744 0.32258487305 0.32480259766 0.32490479184 0.32424536181 0.32575173929 
0.32603373986 0.32578717815 0.32670816361 0.32698030546 0.32714638209 0.32747484269 0.3277305956 0.32818235456 0.32806990339 
0.3283116231 0.32889437479 0.32865470773 0.32894650468 0.32949108269 0.32927250915 0.32958898343 0.33010307671 0.32981716034 
0.33012800456 0.33061573826 0.33029041105 0.33055982233 0.33097450986 0.33069117056 0.33093869636 0.33125124337 0.33105332942 
0.33129523665 0.33149111117 0.33142546662 0.33165994325 0.33173575345 0.33178298516 0.33204358393 0.33199161347 0.33230402784 
0.33252170199 0.33240057835 0.35303440298 0.35109293054 0.34683040755 0.34143677694 0.34134503792 0.34137686052 0.3415366248 
0.34300528838 0.3428032436 0.3316150009 0.33132771844 0.33116757106 0.33085554386 0.33165229949 0.33068452925 0.33039381834 
0.33129865701 0.33021671073 0.32988052411 0.33093662164 0.32965409804 0.32934176537 0.33053206529 0.32908573386 0.32879403198 
0.330063342 0.32848762952 0.32819768384 0.32953446378 0.32782449461 0.32756499906 0.32890891943 0.32715388516 0.32691118346 
0.32821397694 0.32642922337 0.32623467229 0.32745153325 0.32550349051 0.32535474191 0.32641774536 0.32449000674 0.32442776339 
0.32513284671 0.32302573079 0.32294559879 0.32302178221 0.32255042418 0.32314442475 0.32604687821 0.32652711615 0.3301611188 
0.32899168004 0.32746769237 0.3217402687 0.32023451094 0.32049613316 0.31965176794 0.31903606626 0.31984458027 0.31900759368 
0.31941930653 0.31938045648 0.31876844044 0.31974220971 0.31954799558 0.31935853996 0.32023022145 0.32008307301 0.31992100326 
0.3216495394 0.32029000318 0.3201866727 0.3226461502 0.32050413174 0.32050531544 0.32322957834 0.32096293949 0.32113066638 
0.32394563281 0.32171301705 0.32217201218 0.32492752316 0.32284762981 0.32364048139 0.32621128916 0.32437765502 0.32536597866 
0.32765596655 0.32622205815 0.32737184128 0.32928693603 0.32842284237 0.33030932548 0.33134197571 0.33117651574 0.33446579225 
0.33384051273 0.33735336653 0.33998865762 0.33820995366 0.34160492605 0.34563719724 0.34618571441 0.34209870536 0.34720244104 
0.34700518154 0.33960166594 0.33354219983 0.34352939197 0.34340166551 0.34348382223 0.34724300955 0.34506161554 0.34208832159 
0.34697274443 0.3405668837 0.3386736272 0.34308575882 0.33730556435 0.33577173887 0.33472960577 0.33345295402 0.33774279018 
0.33261047354 0.33170111148 0.33585624708 0.33111125482 0.33043829144 0.33427775951 0.32994159914 0.32950711031 0.33319182175 
0.3289728356 0.32870050304 0.33215001716 0.32840950455 0.32827377548 0.33137979399 0.32817483152 0.32818546693 0.33104214097 
0.32836993756 0.3285885769 0.33116007833 0.32894429647 0.32934423901 0.33173924327 0.3296828557 0.33018196268 0.3324468493 
0.33056762036 0.33119822004 0.33316980648 0.33174234739 0.33273966023 0.33414097127 0.33351224468 0.33503653436 0.33558435904 
0.33658396182 0.3386641304 0.33791996067 0.34049805694 0.34302483579 0.34146323796 0.34171461963 0.3415715805 0.34277613309 
0.31642029037 0.31681608163 0.3179674407 0.3424094786 0.34195746129 0.34309401062 0.34325565243 0.34295255567 0.34356295652 
0.34348335872 0.3439133255 0.34369967993 0.34160323073 0.34346764446 0.34232242485 0.32136921547 0.3262736839 0.3320124575 
0.33175632673 0.33196123338 0.32299765156 0.34674871125 0.3466681616 0.3488938809 0.34793353356 0.34809940789 0.34650839942 
0.3477358494 0.34793780839 0.34136837054 0.34489695466 0.34444639182 0.32929405561 0.33561023642 0.33640264393 0.34982947061 
0.3447759364 0.34393354887 0.34882161567 0.33275099377 0.33286280273 0.33255099736 0.33328518949 0.3382670911 0.33766106712 
0.32930330279 0.34777285853 0.34755904478 0.34914100197 0.34903290456 0.32146240826 0.33240456144 0.33266048409 0.33282277058 
0.3401643725 0.32030644059 0.31872919165 0.33763151364 0.3161044141 0.31899484727 0.3180275323 0.32702463881 0.32166826796 
0.3481225339 0.34246010053 0.34349284766 0.34222863228 0.34360361212 0.34038705185 0.33179953344 0.32763158018 0.32291576283 
0.32537791827 0.32222098481 0.34541620197 0.34842171926 0.34639672489 0.34655438668 0.32045909915 0.34493673123 0.34742691558 
0.34757542269 0.32016230993 0.3191087094 0.32134690832 0.34604933986 0.34702683896 0.347193194 0.34878341216 0.34848763542 
0.32981359842 0.32418574934 0.32513351962 0.33216320949 0.33227478862 0.34289402321 0.34294902803 0.3335125217 0.33372175455 
0.33394731673 0.33413914226 0.33393770434 0.33432230607 0.33446571163 0.33441783805 0.33456557576 0.33465210487 0.33475815131 
0.33471858112 0.33477268639 0.33495991297 0.33478596404 0.33485261947 0.33506225973 0.33498568954 0.33505011775 0.33524234761 
0.33508206098 0.3350805696 0.33542700987 0.33502878332 0.33496630957 0.33540923596 0.3348713354 0.33478232968 0.33524089876 
0.33466394655 0.33454336995 0.33500405998 0.33439805805 0.33423949648 0.33469799771 0.33405384476 0.3338695858 0.33430765637 
0.33367586429 0.3334807283 0.33385271235 0.33327095193 0.33305960801 0.33337846614 0.3328294173 0.33262974122 0.33286860179 
0.33242448376 0.34006957312 0.33602056016 0.33235489864 0.33906102472 0.33935491813 0.3373038963 0.3367417162 0.33491352155 
0.33859915636 0.33428264603 0.33312140049 0.33693811387 0.33254415411 0.33163683736 0.33542423829 0.33117432186 0.33030567545 
0.33420491492 0.3300237344 0.32940908629 0.33315878902 0.32881199777 0.32831609916 0.33217200729 0.32772105027 0.3273063549 
0.33097687518 0.32663442269 0.3261408317 0.3298191226 0.32512524334 0.32457982564 0.32828018532 0.32324777897 0.3226928414 
0.3260674459 0.32238281237 0.32156378811 0.32457402881 0.3197096073 0.32389725328 0.32460642074 0.32603588181 0.3266480098 
0.3261093058 0.32779654882 0.32832064944 0.3284026633 0.32910670555 0.32949853959 0.33010937748 0.32994445632 0.33021799738 
0.33109303856 0.33025741428 0.3305533962 0.33138982264 0.33100516003 0.33129052778 0.3318374425 0.33146508487 0.33166853391 
0.33238473622 0.33170010763 0.33184474274 0.33252993691 0.3318500323 0.33197150827 0.33252895347 0.33197903444 0.33208573147 
0.33252192696 0.33210128655 0.3322214609 0.33252713255 0.33226230627 0.3323691198 0.33255757097 0.33221328555 0.33205337588 
0.32227430806 0.34308714836 0.34312529035 0.33196863383 0.33175681549 0.33248478067 0.33169568338 0.33151656717 0.33232502369 
0.3314312566 0.33121871644 0.3321866572 0.33107890222 0.33085768172 0.33200057033 0.33062008363 0.33037330808 0.33169720577 
0.33002816025 0.32972609017 0.33121240927 0.32914991603 0.32882026111 0.33040645296 0.32854089008 0.32818423412 0.32966094847 
0.32744412793 0.32687812176 0.32886689126 0.32572135684 0.3250592721 0.32727009639 0.32296525307 0.34298517753 0.3428921496 
0.34367321578 0.32050655918 0.32151878908 0.32367553081 0.3242328562 0.32386496614 0.32509293568 0.32536880273 0.32712262022 
0.32606326771 0.3263660948 0.32847050318 0.32702647913 0.32755313478 0.32969799713 0.3283005645 0.32897154117 0.33106923241 
0.32955750717 0.33040458467 0.33244762893 0.33097900378 0.33192615572 0.33371763909 0.33241627016 0.33357126663 0.33500286414 
0.33407580019 0.33562140166 0.33627073106 0.33607257806 0.33748189111 0.33770595344 0.33947414734 0.34013712558 0.34141511122 
0.34250957503 0.33911294746 0.33897008017 0.33812011072 0.34399200294 0.33756972206 0.33680140609 0.33980112979 0.33651324495 
0.33602261159 0.33909137998 0.33571482993 0.33530826064 0.3385971695 0.33487457434 0.33448818849 0.33795461362 0.3336582826 
0.33341800443 0.33674196773 0.33382309143 0.33377549094 0.33644649456 0.33331864008 0.33346926644 0.33640220979 0.3342724679 
0.33452483929 0.33656756007 0.33472685534 0.33504428273 0.33765166666 0.33515762342 0.33552260639 0.33790964521 0.33568774944 
0.33624524445 0.33808631835 0.33652927946 0.33731265718 0.33854649461 0.33782541056 0.33914480132 0.33920839703 0.34258980048 
0.3430942566 0.34289340318 0.34084145357 0.34211095448 0.34163395267 0.33236483748 0.33222173852 0.3226333565 0.32722590931 
0.34790011838 0.34726099249 0.34597217795 0.34815808911 0.34222343611 0.33982372926 0.34023778749 0.3348457358 0.33954890317 
0.34292594562 0.34286574917 0.34953152114 0.3495460104 0.34298022088 0.34547671438 0.34074003052 0.34716830268 0.3484335886 
0.34604789925 0.34255799952 0.33304485107 0.33328256699 0.33340658645 0.34078992629 0.33965868439 0.34279386466 0.34235954394 
0.34283503341 0.32348435862 0.34152724744 0.34066877033 0.33258483438 0.33282800934 0.3490286804 0.34900334091 0.349487223 
0.3434801446 0.34028147273 0.3349612637 0.33072294929 0.3375763094 0.33256659572 0.34961714662 0.35085579057 0.34944364307 
0.32063218126 0.31955454826 0.34286382857 0.34288684373 0.34336321936 0.34194813332 0.34093705393 0.34154787132 0.34289504819 
0.34287920527 0.3435390937 0.34360500244 0.34894477057 0.34878220241 0.32438229124 0.32252453479 0.32461278459 0.32556353004 
0.34061040289 0.34937700683 0.32094165546 0.32628653734 0.34159580874 0.3495550047 0.34933639957 0.35084358685 0.33895157708 
0.33872011376 0.33607347872 0.32468890481 0.32615047384 0.32761637301 0.33287271563 0.32685543449 0.33043249039 0.33377239914 
0.32726976993 0.34719856611 0.34551749644 0.34849869881 0.3282595364 0.3322148729 0.33372114421 0.32781196173 0.34407023427 
0.34008281601 0.34074455332 0.3399217361 0.33454122927 0.33480786591 0.33525181282 0.33534198328 0.33549701024 0.33552414785 
0.33580346725 0.33569771246 0.32147252195 0.32656684973 0.33592635376 0.33598700057 0.33622549738 0.3359626594 0.33589601139 
0.33645810024 0.33573139591 0.33560479176 0.33626529186 0.33543797519 0.33527309924 0.3358824311 0.33509063342 0.33488182203 
0.33548077336 0.33463235035 0.33436121922 0.33497842799 0.33406731112 0.33378692203 0.33434569092 0.33351514706 0.33322455118 
0.33368333417 0.33288482806 0.34030320242 0.33926959176 0.34055671082 0.34233499241 0.34179531029 0.33949181955 0.3384634346 
0.34054081177 0.3383109368 0.33751696385 0.34014333901 0.33740281464 0.33661786376 0.33951198068 0.33644583775 0.33589265852 
0.33897194323 0.33550738844 0.33477900046 0.33828788905 0.33408574627 0.3334307994 0.33708702833 0.33284003506 0.3322050934 
0.33576738603 0.33146337294 0.33056598162 0.33453596031 0.32855944161 0.3273258512 0.34255409564 0.32916623446 0.33003729348 
0.32968281123 0.33113716523 0.33176347961 0.33227548582 0.33266382981 0.33365733275 0.33275411123 0.33273593786 0.33404920806 
0.33309800487 0.3210244797 0.32292422431 0.33335805064 0.3334983582 0.33431453722 0.3334621634 0.33346206519 0.33444057832 
0.33329457917 0.33328128522 0.33415798995 0.33310492711 0.33309680213 0.33377360523 0.33296270056 0.33295462354 0.33344268766 
0.33929867151 0.34238922375 0.32780678722 0.32731437384 0.32983208589 0.34066683747 0.34164244447 0.3431010607 0.34313010779 
0.33297289633 0.33290971022 0.33298126741 0.33290495545 0.33360630316 0.33290352939 0.33279974488 0.33370339836 0.33275399313 
0.33257855453 0.33370830216 0.33238995716 0.33213911345 0.33356833175 0.33161380382 0.33114942346 0.33300126302 0.3309421262 
0.30367646128 0.32236090875 0.33040953776 0.32983273163 0.33213597003 0.32861160062 0.34580146142 0.34308287103 0.32024286373 
0.33109814768 0.33173736129 0.33201974704 0.3327532196 0.33464817803 0.33399106968 0.33481172089 0.33617600349 0.33521674561 
0.33591356985 0.33777321564 0.33627009714 0.3370089256 0.33857595313 0.33724125664 0.33811819351 0.33933367387 0.33811869402 
0.33911875795 0.33981808864 0.33892658916 0.34011888575 0.34007983552 0.34243109189 0.34286407462 0.34164142522 0.3402674019 
0.3401430114 0.3403086486 0.34016968991 0.34179840942 0.34022018606 0.340123351 0.34220998869 0.34003318309 0.33989208959 
0.34251809989 0.33952476062 0.33882850894 0.3421528703 0.3392677644 0.3196377307 0.32315640332 0.33938265607 0.33893048335 
0.34216575056 0.33959702511 0.3230705656 0.32414187085 0.33982241918 0.33985833589 0.34248225241 0.33969544781 0.3397384474 
0.34237640607 0.33943337412 0.33953954645 0.3417356043 0.33930910182 0.33963232387 0.34108356483 0.3394754462 0.34288227002 
0.3451797189 0.34708106325 0.34367711307 0.34955783296 0.35044437229 0.32308426377 0.32325503135 0.33320205392 0.33352390344 
0.33298802506 0.33503440795 0.33518783767 0.33554461532 0.33519176487 0.33994443338 0.33756419535 0.33937398721 0.34254976245 
0.34219569969 0.34278755408 0.35042557691 0.33200336015 0.34290983452 0.33388111789 0.33420628081 0.33375536008 0.33459956244 
0.33119513931 0.33037940596 0.33553599435 0.33234214299 0.33555293005 0.33737483224 0.33286452533 0.33454697475 0.33299391387 
0.33289634934 0.33346029748 0.33338065564 0.34108366351 0.34010707682 0.34086927905 0.3432170016 0.34320400611 0.34324624912 
0.33931453825 0.33936664443 0.33755259694 0.33065326911 0.32668061589 0.32429865908 0.34808388658 0.34864614192 0.34972126944 
0.33000016143 0.33331282408 0.32924562098 0.35127101764 0.35117772532 0.34018779993 0.34113490317 0.34066612302 0.35096828859 
0.35108530962 0.35199307302 0.34956128586 0.34803892129 0.34018334731 0.33297349158 0.33011416134 0.34729991479 0.31966457358 
0.32923565871 0.33669349019 0.3369992774 0.32351480842 0.3270170275 0.33711200945 0.33710049839 0.33764655694 0.33694173483 
0.33672152991 0.33762162878 0.33637883398 0.33615949435 0.33704906999 0.33597691439 0.33571998542 0.33644331918 0.33535754229 
0.33501166057 0.33582314523 0.33458083107 0.33418949096 0.33492761122 0.34064925627 0.33166320761 0.33260413336 0.33521531284 
0.33261600461 0.3418818976 0.34149174607 0.34139173635 0.34108866289 0.34280422114 0.34162051516 0.34125010995 0.34298081539 
0.34122059948 0.34066503713 0.34337254641 0.34008503828 0.33927700185 0.34271421458 0.33836927574 0.33771244724 0.34118300487 
0.33805261661 0.34153310159 0.34203154805 0.33391468826 0.33515991011 0.33555001332 0.33978752379 0.33639128238 0.33195514462 
0.33557977067 0.33559488321 0.33716794474 0.28031431815 0.37854676619 0.32583331833 0.33606790526 0.33547790423 0.33563876171 
0.33696045708 0.33533955083 0.3352884588 0.33645604541 0.3503521682 0.35086137954 0.35151627139 0.35049971264 0.334527599 
0.33455322351 0.33453317667 0.33452443372 0.33537475001 0.3345622539 0.33416631861 0.3355763787 0.33709467957 0.33681598298 
0.33376815836 0.33336566931 0.33468079893 0.34133782283 0.34164397551 0.34133317137 0.34316609289 0.3430341255 0.34286594676 
0.34324314106 0.34823236475 0.3462334538 0.35206156175 0.35111058966 0.33816246473 0.33934548343 0.34040803445 0.34094658023 
0.34226544892 0.34050513707 0.34108705914 0.34287004017 0.34118583118 0.34164040071 0.34284913722 0.34114350326 0.34151651831 
0.34068062132 0.34052463778 0.34139853094 0.34284391391 0.34319441393 0.34350137971 0.34383588495 0.34407978374 0.34549369402 
0.34410176857 0.34397275495 0.34640057215 0.34439581657 0.34450165074 0.35050257571 0.35066596126 0.34182176009 0.34199166245 
0.34230612603 0.34116098524 0.34043141016 0.33442257738 0.33487913952 0.33420768177 0.33600971331 0.33622309175 0.33697391694 
0.35210704992 0.35172914221 0.35113500078 0.35006716737 0.34959593653 0.35169459958 0.33372015899 0.33380069364 0.3346627656 
0.33539669316 0.33541466303 0.34212425403 0.34266793083 0.342749234 0.33422108352 0.33428939495 0.33690566088 0.33510125988 
0.34737723731 0.3447707388 0.33491660451 0.33473192225 0.335748414 0.33441618823 0.33505748378 0.34086826148 0.34000825629 
0.33508944536 0.3359215846 0.33479004666 0.33467198685 0.33590910721 0.34254915979 0.33392393969 0.34260441525 0.34299151447 
0.34549159751 0.34252731926 0.33953965355 0.33945602318 0.34460792771 0.34308928598 0.33573482954 0.3449958341 0.34394134173 
0.34362385857 0.346431828 0.34286209282 0.34248885489 0.3449140101 0.34158904126 0.33996436994 0.35192914172 0.35210402127 
0.3522910141 0.34133644237 0.3354270726 0.33652107909 0.34700001582 0.34761274896 0.34909457756 0.34318247304 0.33785908607 
0.33562695276 0.33400527085 0.34770582602 0.3363489733 0.33665384382 0.33573828917 0.33461965614 0.33825187925 0.33851792293 
0.337055315 0.33876097203 0.33866235553 0.337616388 0.3372779432 0.34345421192 0.33822730727 0.33629531473 0.33595276899 
0.33859710442 0.34002952048 0.34059435457 0.34367117722 0.34472056288 0.34509169738 0.33615128627 0.33636141581 0.33653565317 
0.33622209646 0.3383791774 0.33850400282 0.33840731799 0.33817345818 0.33918671804 0.33759582429 0.33715222502 0.33838160778 
0.33629124945 0.335806377 0.34222020428 0.34190082747 0.34095780202 0.34427980979 0.34424160913 0.34471232337 0.34233500463 
0.34262808635 0.34249179345 0.34458554185 0.3454040289 0.3452090595 0.34613248106 0.34515114096 0.34458873201 0.34687782402 
0.34344623418 0.33748677694 0.34984031386 0.34850566506 0.33690041422 0.33747004627 0.34770984136 0.34866977622 0.34794106681 
0.34664154024 0.33668528692 0.33833582741 0.3381255046 0.33877048231 0.3503064247 0.35104036211 0.35015616893 0.3355924888 
0.33584614046 0.33815803705 0.33909937129 0.3381197935 0.34565373774 0.34586053422 0.34892324636 0.34843278068 0.34039556305 
0.34134047847 0.34777511049 0.34461665292 0.33832900214 0.33932307277 0.33904929718 0.35166150351 0.33710740044 0.33709229829 
0.35020754933 0.34957599688 0.34613899996 0.33773065978 0.34747610657 0.34680364175 0.34553903453 0.34936275292 0.35098436704 
0.33652398379 0.34725751297 0.34709058393 0.33515597837 0.33692084601 0.337020946 0.34474230968 0.33975716621 0.33938784849 
0.33860519115 0.35072963675 0.34163500619 0.3484928727 0.34938675887 0.35038385058 0.35002075322 0.34901579458 0.33849319644 
0.36367228203 0.35177602269 0.34012313445 0.33993433524 0.34758456058 0.34854807486 0.3404614331 0.44718902382 0.34190019168 
0.33673281833 0.3415570213 0.3407963759 0.3412510854 0.3378381139 0.33713060759 0.35195311436 0.35207910667 0.33989572528 
0.33860590866 0.33940675666 0.33956199768 0.351446371 0.34631391284 0.32958052588 0.33753546528 0.3510532607 0.35148100258 
0.35087151025 0.34002536103 0.35170026438 0.34092772128 0.33596258388 0.3227544198 0.33334000153 0.33327000959 0.33329300227 
0.33327610849 0.33328707582 0.33326215004 0.3332852458 0.3332902285 0.33325959854 0.33330038449 0.3333053673 0.33328716389 
0.33331448204 0.33331647582 0.33330565441 0.33332655724 0.33332655784 0.33332099922 0.33333456953 0.33334057851 0.33333818871 
0.33334653409 0.33335055213 0.33334615921 0.33335639192 0.33335741458 0.3333488148 0.33336826338 0.33336927558 0.33335329145 
0.33336613353 0.33336916282 0.33336978935 0.33337204801 0.33337705363 0.33336536528 0.33337500263 0.3333770061 0.33336908116 
0.33337701173 0.33337800759 0.33336900127 0.33337607218 0.33337606169 0.33337112313 0.33336817964 0.33337015152 0.33336943017 
0.33336730574 0.33336429013 0.33336286788 0.33335845334 0.33335841823 0.3333593789 0.33334556484 0.33334454444 0.33335386046 
0.3333346217 0.33333361278 0.33334020286 0.33332860541 0.33332561422 0.33333932528 0.33331657122 0.33331258514 0.33332126517 
0.33330241129 0.3333014375 0.33330092345 0.33329023555 0.33329125397 0.33329327286 0.3332900779 0.33328710484 0.33328162046 
0.33329800433 0.33329501395 0.33326917406 0.33331600021 0.33331800139 0.33328400683 0.33335200171 0.38090849736 0.39825107293 
0.46415564021 0.34823849403 0.36993407028 0.38550630571 0.32447196028 0.33409757894 0.35081869272 0.31113288742 0.31602858833 
0.33094888438 0.30328308318 0.30578676727 0.31800645018 0.29873096684 0.30010396918 0.30990650253 0.29664652245 0.29703979231 
0.30531036371 0.29569806739 0.29562713255 0.30272898385 0.29586210428 0.29544408531 0.3015590218 0.29625457173 0.2956654975 
0.30120078736 0.29722619689 0.2964431076 0.30121801008 0.29874913223 0.29782002749 0.30206773993 0.30058759546 0.29948438158 
0.30341687027 0.30286111135 0.30148567424 0.30502282649 0.30573345964 0.30396668542 0.30699343577 0.30942552162 0.30713723966 
0.30943792083 0.31391681664 0.31114113653 0.31249038812 0.31981240517 0.31612371322 0.31638669555 0.32660130179 0.32233392331 
0.32109708094 0.33400720703 0.32969312051 0.32683829517 0.34015244678 0.33665073187 0.33268288007 0.34383085647 0.34203917477 
0.33738776071 0.34450915074 0.34458602086 0.34017936527 0.34200924078 0.34382899379 0.34025732684 0.33756786099 0.34053267261 
0.33794412704 0.33232516712 0.33561515545 0.33423780686 0.32786217774 0.33046284698 0.33023241511 0.3245304409 0.32645958255 
0.32693983844 0.32231935889 0.32360223723 0.32458850343 0.32128460178 0.32178678403 0.32316780503 0.32105300027 0.32109800784 
0.32250164426 0.32144624881 0.32114919486 0.32246119056 0.32226373034 0.32177769335 0.32292468104 0.32339516265 0.32271111694 
0.32373348205 0.32460843399 0.32390741522 0.32470791565 0.32600657304 0.32518856022 0.32581074128 0.32739939716 0.32658741783 
0.32696877312 0.3286332307 0.3279472606 0.32811316517 0.3298530358 0.32919706802 0.32923745977 0.33090279264 0.33032382797 
0.33027560182 0.33178157689 0.33131961031 0.33116972476 0.33248930927 0.33213133675 0.33193275763 0.33300910077 0.33275412444 
0.33254080518 0.45158504015 0.33316702206 0.33326101125 0.33322801242 0.33275009983 0.33298908263 0.33295620372 0.33209625866 
0.33246123472 0.3324796363 0.33125344148 0.33172841603 0.33182131646 0.33021867257 0.33083463835 0.33102210373 0.3290598448 
0.32970082035 0.33007390556 0.3278710768 0.328532054 0.32901368962 0.32658219645 0.3273401733 0.32793836487 0.32522622631 
0.32599819906 0.32679464698 0.32398223189 0.32467625473 0.32563370336 0.32271904248 0.32346406468 0.3245363508 0.32171162697 
0.32224571438 0.3235322002 0.32105923269 0.32140426344 0.32268762956 0.32089400071 0.32093300414 0.32221023296 0.32137454266 
0.32102235756 0.32214637744 0.32283256312 0.32191705545 0.32277533638 0.32549861458 0.32379265897 0.32418085708 0.32966213311 
0.3270069826 0.32653441502 0.33457696732 0.33155970336 0.32995499518 0.33998490641 0.33674591144 0.33406450541 0.34420457546 
0.34169128819 0.33821666259 0.34531719438 0.34466923181 0.34074492939 0.34299024871 0.3446069419 0.34107023627 0.33809851858 
0.34113713137 0.33853178096 0.33060513634 0.33514484324 0.33364791955 0.32334503077 0.32767144933 0.32785312074 0.31669135695 
0.32049865186 0.32170539208 0.31101738958 0.31426946169 0.31615436465 0.30644918552 0.3090645037 0.31166134083 0.30323465378 
0.30498286249 0.30824293528 0.30059701543 0.30208537384 0.30560014898 0.29839935367 0.29959554971 0.30348195466 0.29703060052 
0.29788666439 0.30194140226 0.29588603571 0.29661506666 0.30099676267 0.29492949175 0.29555853234 0.30022152395 0.29476013256 
0.29505814942 0.30003879676 0.29524505037 0.2952760297 0.30071501518 0.29645824006 0.29617087373 0.30213055067 0.29941903138 
0.29821441005 0.30473267578 0.30393096263 0.30170630107 0.30881404486 0.31323822615 0.30841463696 0.31550610445 0.32979472265 
0.32124559106 0.32775701967 0.36081091902 0.34445305431 0.34973117638 0.43379359787 0.39638007513 0.39187008207 0.48437135844 
0.36065980985 0.39741668199 0.33769024753 0.35863254821 0.3663030226 0.32118161278 0.33441548141 0.34674990178 0.29316056043 
0.32027074757 0.33335859095 0.30755174038 0.32367977168 0.33694270236 0.30403555564 0.3131676111 0.33796440665 0.29852301076 
0.30700473051 0.33113194051 0.29705645282 0.30160751908 0.3300478455 0.29460853711 0.29817178116 0.32729915745 0.29054391557 
0.2953698311 0.32555204916 0.2916689904 0.29393677825 0.32586240436 0.29162229057 0.29386663679 0.32372063456 0.29052224437 
0.29237197572 0.32244086617 0.29148777378 0.29283464377 0.32222118379 0.29219382439 0.29246621316 0.3218008636 0.29366211935 
0.29374653887 0.32191577944 0.2949385894 0.29404642859 0.32261163663 0.29799088727 0.29406134448 0.32506550412 0.29902713121 
0.29552122516 0.32593992606 0.3041140721 0.29835941651 0.32838613241 0.30913603933 0.30149095704 0.33065103428 0.31563597064 
0.3068022799 0.3361555113 0.32621623925 0.31434887202 0.34376268452 0.3391255255 0.32474089988 0.35353018686 0.36146025065 
0.33957991521 0.36941243232 0.40382656244 0.37229888345 0.39544657731 0.424503031 0.39006512587 0.33556449262 0.34305888284 
0.32295566117 0.35810117595 0.32319832578 0.31749532998 0.35577100092 0.31558542837 0.31382777131 0.34943099817 0.31262154078 
0.31326336751 0.34378919684 0.3133255993 0.31467099222 0.3409616728 0.31456349099 0.31820185418 0.33949653706 0.31329807894 
0.31124925015 0.33872017992 0.31117013368 0.31409904705 0.33673264473 0.31183079786 0.31628343973 0.33824423377 0.31407394703 
0.31869308316 0.34040554748 0.31679542386 0.32575950494 0.34465060456 0.3007520794 0.33117532103 0.3482208485 0.3550651535 
0.36653474479 0.35222276042 0.25043504829 0.24237998753 0.37755989467 0.33079948545 0.33521390889 0.32631559909 0.37473111308 
0.32655505083 0.32781195192 0.35939847602 0.31539592931 0.31837876572 0.34785498836 0.31956231365 0.31522372779 0.34645649069 
0.31750187519 0.31874842493 0.34757969533 0.31848297438 0.31222211893 0.34397282538 0.3119000008 0.31378664038 0.33812738246 
0.31378348916 0.31518224107 0.33818901584 0.31584263032 0.31721268488 0.33973564821 0.31702844115 0.32095703401 0.34189074329 
0.31807505156 0.32354362932 0.34494112681 0.32149803532 0.33482864944 0.35223130354 0.33003977247 0.38772071768 0.36998964662 
0.26847943514 0.27338881727 0.33330600079 0.31257574821 0.28133065793 0.32905347566 0.33328000647 0.33318701267 0.33299420376 
0.41060956031 0.3865697122 0.31229129916 0.31757394477 0.31339906327 0.29863831889 0.30225722273 0.30020664555 0.32005853273 
0.30373266596 0.31009941033 0.33315304469 0.33311254044 0.33309007248 0.33309251486 0.33312524597 0.33305526207 0.33299735325 
0.33324534531 0.33322403572 0.33329804027 0.33327984672 0.33323891968 0.33334831714 0.33333432159 0.3333178921 0.33339905227 
0.3333911753 0.33338803013 0.33345331125 0.33343972757 0.33346230099 0.33349334497 0.33348176566 0.3335190042 0.33352739583 
0.33352079099 0.33357439801 0.33355360833 0.33354592731 0.33362791086 0.33356410569 0.33355727703 0.33366071841 0.33356101656 
0.33355700341 0.33366106747 0.33355734184 0.33355515379 0.33365211248 0.33353902877 0.33354370223 0.33363984063 0.33351692671 
0.33351752316 0.33361009521 0.33348393612 0.33349350756 0.33357164954 0.33344288506 0.33345551058 0.33352528854 0.33339445651 
0.33340825525 0.33347167027 0.33333567311 0.33335564267 0.33339651141 0.33327233012 0.33329744672 0.33331152955 0.33322343182 
0.33323384168 0.33322661547 0.33316025826 0.33317979843 0.33313711534 0.3331310976 0.33313655932 0.33307520207 0.33313030491 
0.33312558356 0.3330384648 0.33673355955 0.34667267268 0.33272767724 0.33291842705 0.35115796091 0.34731717085 0.35397041923 
0.37114640691 0.35362098138 0.3739263748 0.39928315068 0.38938388507 0.37296693554 0.3244558692 0.33063242278 0.33870725684 
0.31656129448 0.32011617454 0.32810232332 0.31196118929 0.31386496008 0.32103129864 0.30925281597 0.31033053013 0.31678717435 
0.30810756231 0.30836504507 0.31451288862 0.30714537491 0.30740000859 0.31303980836 0.30659147492 0.3064130761 0.31179043437 
0.30705005213 0.3063736984 0.31088496831 0.30817496511 0.30737256595 0.31125728667 0.3095651265 0.30858503363 0.31214761576 
0.31124630547 0.31004859024 0.31315429329 0.31331189974 0.31185249325 0.31437235742 0.3157444767 0.3139904827 0.31573434353 
0.31880558328 0.31659592396 0.3172849826 0.32251989176 0.32004474905 0.31945291316 0.32702675445 0.32416658496 0.32247961541 
0.33105511208 0.32890443343 0.32620290137 0.33467128904 0.33315512172 0.32997304589 0.3366554108 0.33583971483 0.33315867935 
0.33607199875 0.33652193421 0.33438802947 0.33385066594 0.33495662361 0.33303572998 0.33084547183 0.33257579159 0.3307589697 
0.32787961151 0.32962899777 0.32800802744 0.32577407405 0.32719902784 0.32611848196 0.32454159365 0.32555459003 0.32522601425 
0.32381366713 0.32445101332 0.32472757392 0.32360825534 0.32386774242 0.32450224045 0.32384986105 0.32380014417 0.32463300006 
0.32446302709 0.32416156425 0.32509674448 0.3252245997 0.32481414384 0.32574533729 0.32610104993 0.32561910479 0.32649751379 
0.327046183 0.32648472117 0.3272557512 0.32800083828 0.32743221764 0.32803293154 0.32893796485 0.32838340791 0.32883450848 
0.32988475933 0.32933236677 0.32964902792 0.33071375319 0.33024547923 0.33041238586 0.33146792772 0.33105362311 0.33111714775 
0.33212896618 0.33177478919 0.33177001979 0.33266328721 0.33238393719 0.3323349636 0.31337208485 0.32484684657 0.31276490623 
0.33376803104 0.33284656819 0.33222070016 0.33252118747 0.33256874612 0.33158807118 0.33196848191 0.33209762937 0.33083161678 
0.33127593683 0.33150501549 0.32995026449 0.33048866501 0.33080871239 0.32901593304 0.32957024225 0.33003756308 0.32808485629 
0.32865049013 0.32923277364 0.32709633427 0.32770021917 0.32841908292 0.32613824169 0.32668328839 0.3275805063 0.32524885723 
0.32574653493 0.32675232642 0.32443532595 0.32486548793 0.32597235214 0.32383232362 0.32410261137 0.32526797536 0.32349610516 
0.32355077636 0.32468121237 0.32350858055 0.32337329367 0.32427102206 0.32410962721 0.3235586767 0.32421347175 0.32531791401 
0.32440831322 0.32450433838 0.32737311016 0.32592818396 0.32535033962 0.33009860745 0.32836534159 0.32696530604 0.33343030727 
0.33147378739 0.32938304273 0.33624428686 0.33469897479 0.33222481623 0.33746981637 0.33699000318 0.33426686402 0.33707738918 
0.33753784157 0.33541453689 0.33437005946 0.33577197083 0.33440040474 0.32969667539 0.33199222336 0.33083518948 0.32468528093 
0.32768874167 0.32689634792 0.3198270231 0.32285687631 0.32281173911 0.31576241917 0.31842679536 0.31912126527 0.3125492039 
0.31471044323 0.31626185683 0.3100406665 0.31170521236 0.31404702074 0.30809317674 0.30933445436 0.31220178499 0.30655130578 
0.30755735298 0.31085167815 0.30563564219 0.30621608293 0.30989715821 0.3050362882 0.30551495155 0.30933077358 0.30493772574 
0.30520290972 0.30931037758 0.30560500663 0.30542826703 0.30994021533 0.30713097068 0.30649229556 0.31121202104 0.30947928238 
0.30837900693 0.31310612179 0.31324513402 0.31154752985 0.31610602511 0.31839805607 0.31589446257 0.32058990625 0.32698807092 
0.32214110954 0.3265020249 0.34243516884 0.33352255414 0.33605564168 0.36850168822 0.35226730652 0.35176753018 0.41106489485 
0.3770294737 0.37262730451 0.38281478888 0.33338969702 0.31064720286 0.33558126196 0.34340431749 0.34992048967 0.36107243782 
0.35659822501 0.36778840172 0.33047569661 0.33396542383 0.34538690137 0.33017940943 0.3271385031 0.33890463441 0.3266905373 
0.324122876 0.33317304602 0.32302242565 0.32165639475 0.32874956266 0.32068037062 0.31982162167 0.32585640318 0.31932872865 
0.31819161056 0.32404348217 0.31882710249 0.31734011283 0.32297414063 0.31776596469 0.31566497668 0.32182261979 0.31673284584 
0.31548022533 0.32135780836 0.31616325652 0.31479851047 0.320749866 0.31641883637 0.31530093159 0.32082945201 0.31616990335 
0.3161943594 0.32108282645 0.31684911096 0.31783820694 0.32179269513 0.31864132655 0.31892932749 0.3227047449 0.3196085633 
0.32023238658 0.32412481194 0.32147456339 0.32217492233 0.32601944431 0.32506892833 0.32497337376 0.32885123884 0.3299065858 
0.32986892123 0.33268362198 0.33642744787 0.33833504809 0.33904534267 0.34575122246 0.34736851644 0.34723954587 0.36222416321 
0.35933981545 0.35849927577 0.32424568283 0.30391486932 0.35110069216 0.3470131289 0.33595655156 0.30479174366 0.32657157221 
0.34593211645 0.3422940261 0.35077945943 0.34132880425 0.33779490669 0.34869816497 0.33839931601 0.33742085843 0.34385930283 
0.33495101407 0.33570292837 0.3403833477 0.3336314252 0.33460518723 0.33874292104 0.33370784221 0.33352429498 0.33758591592 
0.33382286043 0.33292032517 0.33751056517 0.3334825282 0.33457717767 0.33784603964 0.33547246779 0.33541270059 0.33966145357 
0.33860352328 0.33862989743 0.34243574069 0.34222921244 0.34928066568 0.34672016075 0.35113696491 0.34687753273 0.33468609487 
0.34910631949 0.33267746569 0.31315564412 0.31010140433 0.32919193823 0.34499831721 0.33869656979 0.35331602947 0.33860522341 
0.34144223552 0.35098543039 0.3440582941 0.34212732315 0.34648100245 0.33846787907 0.33892222494 0.34556477264 0.33651238199 
0.33766774978 0.34419337279 0.33512071399 0.33647390943 0.34208373428 0.33635170886 0.3365773078 0.34102522748 0.33636610483 
0.33791371133 0.34130165281 0.33920299524 0.34000280211 0.34300733509 0.34126865875 0.34297103834 0.34542985941 0.34702768805 
0.34873584818 0.34991334447 0.35452206484 0.35338603206 0.352475794 0.32384576466 0.31327567352 0.33318257251 0.33315110575 
0.33303906282 0.33314160416 0.33315708174 0.33287693774 0.33306135552 0.33434990512 0.30381207913 0.31571258712 0.33008994878 
0.33279351321 0.30525093425 0.3180664877 0.32635813925 0.31077408257 0.31322214806 0.31656959014 0.32324362021 0.37828638451 
0.31660796258 0.29908306878 0.31052567744 0.38147909068 0.37689376552 0.32591412553 0.32420931735 0.32821509765 0.31773576878 
0.30899695792 0.31302358051 0.32047671861 0.31596603085 0.33345169787 0.3333969935 0.33317786713 0.33311806333 0.33357942681 
0.33352704311 0.33353455403 0.33369641092 0.33364639826 0.33370342385 0.3337943008 0.33375632289 0.33383877239 0.33388027248 
0.33384216194 0.33397095435 0.33392271672 0.33390633817 0.33406734954 0.33393002557 0.3339332352 0.334114601 0.33392231286 
0.33392105701 0.33412200122 0.33388753836 0.33390187117 0.33409474006 0.33382944824 0.33385453208 0.33404066828 0.33375469693 
0.33378763766 0.33395738575 0.33365888952 0.33369988535 0.33384734536 0.33353973355 0.33359599001 0.33371517877 0.33340677794 
0.33347140002 0.33356240545 0.33326047925 0.33333075064 0.33338130043 0.33311203154 0.33317877583 0.33318757025 0.33297674786 
0.33303382197 0.33299635101 0.33287308893 0.33291127375 0.33282311145 0.33284679576 0.3328487324 0.33271665467 0.33271995591 
0.32098048468 0.31743931298 0.31963088599 0.31472129803 0.33109993086 0.33636955128 0.34005744403 0.32997301871 0.32703993522 
0.33997379379 0.34738042019 0.34076481596 0.36300218067 0.32847972831 0.33690605497 0.32199973602 0.32374735797 0.31986147448 
0.32088580558 0.32580304833 0.31827861879 0.31902993044 0.32391189242 0.31642310134 0.31729284698 0.32205325637 0.3148718265 
0.31501855254 0.31971503561 0.31587935193 0.31542892416 0.31899556371 0.31645132159 0.3159734824 0.31973368326 0.31699202639 
0.31640859918 0.31988619785 0.31759935248 0.31686967646 0.31986845298 0.31829419612 0.31749340209 0.31983477727 0.31913225 
0.31819712661 0.31976391183 0.32028493906 0.31913275714 0.31952775609 0.3227229595 0.32115265533 0.31992560189 0.32496732401 
0.32347443521 0.32158095357 0.33152170375 0.33069035557 0.32960965871 0.33029964322 0.32543858909 0.32638641953 0.32443692159 
0.32512127293 0.32326151463 0.32451544 0.32488011963 0.32370670758 0.32474706136 0.32498110354 0.32460817626 0.32509185219 
0.32520952094 0.32534022186 0.32566076291 0.32558700784 0.32604814763 0.32635068697 0.32611136925 0.32683752838 0.3270440215 
0.32672634285 0.32758114689 0.32773193094 0.32738323103 0.3282277353 0.32837017271 0.32801678046 0.32880388406 0.32902910829 
0.32865081228 0.32934404243 0.32969409201 0.32930468132 0.32988450966 0.33035481479 0.32995685475 0.33041472175 0.33095002866 
0.33059697242 0.33092023574 0.33152385707 0.33118471322 0.33140147854 0.33207956004 0.33177247721 0.33188201724 0.33260046968 
0.33234420579 0.33238740808 0.32285629477 0.32702716877 0.31457120443 0.31901394198 0.32636237127 0.33147016601 0.33181463098 
0.33276746566 0.33084417873 0.3312244107 0.33155583657 0.33016493086 0.33058728127 0.33102204618 0.32950343172 0.3299234259 
0.33047134413 0.32883006348 0.32923949509 0.32992427653 0.32813010782 0.32853837543 0.32935674967 0.32743474596 0.32780409399 
0.32875374653 0.32677229669 0.32711266501 0.32813093641 0.3261612218 0.32641820677 0.3275006996 0.32561713776 0.32579587604 
0.32686271721 0.32523115092 0.32523530885 0.3262387676 0.32506987191 0.32484176614 0.32563981089 0.32506007361 0.32465122288 
0.32505781858 0.32543454644 0.32479948279 0.32457824442 0.32660516898 0.32570015239 0.32450616245 0.32847117058 0.32731941921 
0.32538980278 0.33070834382 0.3297502266 0.32720484917 0.33151943972 0.33103176465 0.32884290397 0.33307182765 0.33286934193 
0.3307143652 0.33161420893 0.33257422925 0.33165074032 0.32766994227 0.32932425877 0.32873894048 0.32381062237 0.32573286342 
0.32439891819 0.3210577832 0.32316279904 0.32215258992 0.31860613692 0.32020969761 0.32018930217 0.31681956888 0.31819198953 
0.31885515118 0.31549722739 0.31661313559 0.31814513389 0.31448906516 0.31548743983 0.31764836991 0.3138436199 0.31453358368 
0.31733771685 0.31341528975 0.31383516676 0.31706294635 0.31331267769 0.31345857911 0.31692225403 0.31369630858 0.31355488492 
0.31717143544 0.31507442097 0.31449100658 0.31817008683 0.31694406599 0.31606748055 0.31983578692 0.3196596576 0.31820136766 
0.3219961076 0.32369554828 0.32124114065 0.32485652632 0.32863172909 0.3258526444 0.32893968676 0.33506239916 0.33133622845 
0.33402124803 0.34468195 0.33820749806 0.34016791134 0.36031626683 0.34903450619 0.34914898826 0.36355229673 0.31571704649 
0.32101606116 0.34273464717 0.34686666132 0.33734916935 0.3398102664 0.34401513216 0.32104376567 0.31537961122 0.31392330146 
0.3216283694 0.33017153448 0.33986437567 0.32640829079 0.33331899275 0.33326065949 0.33317548594 0.33336939844 0.33321645333 
0.33513462178 0.33876269998 0.32990158528 0.33160174046 0.33489244796 0.32764751512 0.32866601468 0.33203844344 0.32611635738 
0.32696485114 0.33002751544 0.3251679573 0.32568018496 0.32870262807 0.32446334541 0.32475026297 0.32774587664 0.32387155201 
0.32394704273 0.32711765036 0.32340553325 0.32337302265 0.32656944648 0.32348780059 0.32313981713 0.32622825353 0.32375826214 
0.32346870769 0.32629203466 0.32452915861 0.32405550598 0.32677824971 0.3257754778 0.32511349344 0.32766126667 0.32702045024 
0.32622777649 0.32879850534 0.3288920462 0.32762617964 0.33020420096 0.33167073568 0.32989044687 0.33217869611 0.33531235167 
0.33286372943 0.33481284861 0.34101194313 0.33782201606 0.33881319068 0.34875122552 0.34476456805 0.34441165255 0.35942193163 
0.3528458017 0.35164639897 0.36069802796 0.32532071912 0.32841875404 0.33344524943 0.34599357903 0.34483061048 0.34367159962 
0.34259183251 0.34470282957 0.34140423466 0.34054763233 0.34338607009 0.33980864655 0.33938424512 0.34189738103 0.33883210221 
0.33855710235 0.3407455924 0.338590836 0.33853740076 0.34028721945 0.33880043355 0.33927000027 0.34061152884 0.33981034762 
0.34074043269 0.34147016371 0.34168825075 0.34286767545 0.34283209335 0.34436642734 0.34536335156 0.34427353449 0.33202374549 
0.33230240501 0.33204290114 0.34659399306 0.34774480625 0.34734656372 0.34668212131 0.34808978511 0.34610996262 0.34533176546 
0.34774665422 0.34441531418 0.34403270272 0.34675691995 0.34339159317 0.34295099662 0.34573044774 0.34287140552 0.34280973391 
0.34548400249 0.34318448275 0.34334386704 0.3457412892 0.34390587297 0.34489775861 0.34638438147 0.34556041671 0.34657773113 
0.34735155485 0.34751276916 0.34805987952 0.34812513441 0.34844687515 0.34558027725 0.33846663553 0.34675921294 0.35076781331 
0.34492914853 0.34641052334 0.3442590231 0.34308290316 0.3468291204 0.34569251324 0.3370053256 0.33279318973 0.35992164622 
0.33249588844 0.33300690822 0.33305974302 0.33298992559 0.34987513145 0.32316355627 0.32414173191 0.31803265144 0.31576318569 
0.31915367072 0.3153432295 0.32872563359 0.32801757733 0.32809884257 0.32691607055 0.32389163079 0.33182494896 0.33172479888 
0.32794286101 0.32898800505 0.32458773827 0.32708942364 0.32834941215 0.32670566496 0.33247482078 0.31930724991 0.31444391688 
0.31891134296 0.32977093547 0.32621906486 0.33884555587 0.33803551213 0.33054264322 0.31966671813 0.31497048864 0.32732977652 
0.31728669171 0.33286928287 0.31772453331 0.32624957805 0.32082138616 0.34365816308 0.34600713601 0.343961518 0.31624611507 
0.31834928054 0.31802988505 0.35060863433 0.35821975883 0.3247555876 0.35355374921 0.3504087424 0.33366710464 0.33355504116 
0.33430152594 0.33422718955 0.33442036357 0.33437172266 0.33459865693 0.33447346771 0.33444917245 0.33471815585 0.33447006718 
0.33447403431 0.33475822959 0.33442234884 0.33444555846 0.33473629819 0.33433606133 0.33438164613 0.3346673547 0.33421262197 
0.33427492765 0.33455301101 0.33403932657 0.33412761695 0.33437948706 0.33383284622 0.3339322822 0.33415206601 0.33359129833 
0.33370826571 0.33387801805 0.33332793159 0.3334558373 0.33356936407 0.33305066296 0.33318647289 0.33323460565 0.33277754084 
0.33290409267 0.33288944783 0.33256417197 0.33265511351 0.33256796825 0.33249760468 0.32007302039 0.32030958919 0.33277857605 
0.33468901189 0.33829995394 0.33033814849 0.32474860589 0.33163159369 0.33359519829 0.33650164613 0.34001088447 0.34477772169 
0.34037350702 0.32870464841 0.32552182416 0.32841337581 0.32943838476 0.32960361944 0.33088898903 0.33393690077 0.33294339867 
0.32325827865 0.32488705558 0.32383114382 0.33173878236 0.32269568314 0.32369160976 0.32358650018 0.32741915717 0.32341360011 
0.32342844817 0.3269658925 0.32284009535 0.32288917589 0.3262943214 0.32213390294 0.32216586287 0.32526486659 0.32147065451 
0.32157915689 0.32426620624 0.32043034386 0.32065310987 0.32281510159 0.3293615305 0.34991948195 0.35080188104 0.34543912825 
0.32410184757 0.32867413267 0.32092726987 0.32072943271 0.32577572639 0.32547888675 0.32700015405 0.32668803341 0.32697600137 
0.3280265743 0.32766759082 0.32838104482 0.32879361488 0.32847732777 0.32936505118 0.32941732927 0.32913097555 0.33004459109 
0.32990060492 0.32964903408 0.33053148788 0.33033588494 0.33007979699 0.33089184976 0.33075338927 0.33049268082 0.33119711986 
0.33115266211 0.33090003716 0.33148164347 0.33152431364 0.33128547534 0.3317509873 0.33188868392 0.33166148054 0.33201873106 
0.33226935921 0.33203347703 0.33228627889 0.33264992276 0.33240305869 0.33280794167 0.3294136451 0.34653861062 0.32307791986 
0.32263171229 0.32091272647 0.32299329815 0.32329477888 0.32782502775 0.33125195171 0.33153427571 0.33081162846 0.33110870887 
0.33159853768 0.33039180661 0.33067260831 0.3312785468 0.32993804962 0.33021692474 0.33095477851 0.32943830019 0.32973380065 
0.3305954831 0.3289126483 0.32919452781 0.33018908296 0.32833115688 0.32861039783 0.32970440355 0.32768792829 0.32795776606 
0.32911469411 0.32696802261 0.32721955441 0.32839015025 0.32620080993 0.32639814456 0.32749935239 0.3252666713 0.32547265209 
0.32643987107 0.32425956184 0.32434804203 0.32490948659 0.32365286011 0.32346424454 0.32309104495 0.32979543986 0.33016912059 
0.32935446194 0.32079342135 0.32285942804 0.31946147621 0.32020427059 0.31929564851 0.31975355872 0.31979492161 0.31945670412 
0.31982099099 0.32060162151 0.31991132082 0.32018860938 0.32171844914 0.32023968015 0.32046601903 0.32280449133 0.32031338563 
0.32047912238 0.32337321952 0.32063568683 0.32065033077 0.32366319188 0.32136953754 0.32114368814 0.32433549085 0.32286820952 
0.32198359545 0.32531604053 0.32497431282 0.32388216974 0.32699674338 0.32738033068 0.32592838126 0.32907791668 0.33056967372 
0.3284147721 0.33127517045 0.33492919859 0.33202890586 0.3342877406 0.34026216595 0.33664039975 0.33809285628 0.34250155956 
0.32128543515 0.31997979132 0.32118915569 0.32366612832 0.32294950363 0.34211202009 0.34452796012 0.33839010119 0.34034265256 
0.34262955348 0.34651817358 0.34760081516 0.33179667138 0.33261674442 0.33085319287 0.33139917026 0.33442344742 0.33015488347 
0.33054411385 0.33362877256 0.3296659252 0.32992026629 0.33300825428 0.32924829402 0.32946093511 0.3325684357 0.32905349704 
0.32909798157 0.33231076508 0.3290349307 0.32885657578 0.33200138029 0.32953516678 0.32923517029 0.3320285396 0.33054386899 
0.33003811017 0.33271019277 0.33158152211 0.33106539978 0.33376149314 0.3329968292 0.33222056833 0.334873156 0.3347043165 
0.33361298124 0.336102724 0.33689410114 0.33551922921 0.33747388853 0.33990867601 0.3378591963 0.33920280393 0.34659760969 
0.32374490647 0.34180242093 0.34335989733 0.34366826135 0.34367595999 0.34235525762 0.33412199123 0.33401959541 0.33438192193 
0.33456256185 0.33876301357 0.33812577314 0.3433001802 0.34286244826 0.34356184165 0.34242809677 0.34203670234 0.34346214043 
0.34163637512 0.34135231094 0.34302978995 0.34100343064 0.34086591121 0.34246058545 0.34125513773 0.3414490794 0.34237667215 
0.34177130666 0.3421058339 0.34287339104 0.34248274776 0.34296175272 0.34316399288 0.34337518068 0.34339511974 0.34325216133 
0.33210879106 0.33234536941 0.33389621191 0.33379073048 0.33382153782 0.33411598454 0.33327725072 0.33449029355 0.33556707464 
0.34784514868 0.34808021158 0.3480809271 0.34776110546 0.34754806688 0.34904858938 0.34686183625 0.34669002174 0.34863572833 
0.34693039068 0.34689680187 0.34857957255 0.34705491688 0.34710789146 0.34907059562 0.34730410416 0.3473746095 0.34911380238 
0.34745307286 0.34760162098 0.34891203394 0.34773454944 0.34707667994 0.34818317837 0.32641706197 0.32761440887 0.33176463676 
0.32939128076 0.33168888813 0.3319580086 0.33223870852 0.32470869575 0.32433668728 0.32564615513 0.31965038052 0.32229438809 
0.32217146598 0.33538141446 0.33696723467 0.33961583853 0.32872009147 0.3451889904 0.33289161026 0.33605943585 0.33244350715 
0.34090789416 0.31948221539 0.32494092406 0.32503500573 0.32735887907 0.32947766298 0.33302510684 0.33285043731 0.3331550978 
0.3246508678 0.32100514527 0.34568707371 0.31907059941 0.32947692211 0.33012283601 0.32586133208 0.33254925301 0.32400655554 
0.33699208266 0.32073679279 0.33191288882 0.32230863077 0.32058868602 0.32083885239 0.31932686652 0.32445519576 0.32394943533 
0.32554940816 0.32494478841 0.33723731584 0.31933666482 0.34292557433 0.34611887942 0.34637797409 0.34408328197 0.33351212578 
0.3334167572 0.33329789133 0.34532937144 0.34504250934 0.34249037994 0.34455839422 0.34208111697 0.34122887252 0.34257666965 
0.34195992509 0.34297411587 0.34130795537 0.3179250073 0.33386263524 0.33895495214 0.338716496 0.32966077686 0.32274749091 
0.336148077 0.33886667243 0.33503086711 0.33492120693 0.33512769741 0.33515910224 0.33502163245 0.3350730082 0.33544945674 
0.33487921915 0.33496887896 0.33532940453 0.33463454357 0.33476302704 0.3351280115 0.33430787721 0.3344743919 0.33480630675 
0.33392425203 0.3341124167 0.33438531328 0.3335035145 0.33370569548 0.33390080739 0.33307207858 0.33328449 0.33339345691 
0.33261172991 0.33282848176 0.3328548705 0.33240446898 0.34218791851 0.33957624561 0.34229933369 0.34195323336 0.34173573018 
0.34128328153 0.33020408976 0.33053473026 0.32902277835 0.32218882381 0.32920231727 0.32972068886 0.33305460249 0.32778960265 
0.32840689389 0.3318658718 0.32614032054 0.32671856948 0.3301161805 0.32685845651 0.32468321473 0.33520907495 0.33519464091 
0.33556500006 0.33517295222 0.33512351437 0.33558945763 0.33272803393 0.32802373127 0.32724206633 0.33127253054 0.33098949975 
0.3316534957 0.33146238126 0.33247886849 0.33189324746 0.33173270129 0.33267606781 0.33207315296 0.33192809199 0.33275633361 
0.33222858431 0.33209280344 0.33279108161 0.33236011435 0.33223426656 0.33279960853 0.33252614894 0.33239602998 0.33283531047 
0.33269199527 0.33256645019 0.33290256719 0.33295789291 0.32522716023 0.32389458218 0.32600101564 0.32203694154 0.32151320513 
0.33155863985 0.33171859053 0.33177442346 0.33186428086 0.332340477 0.32300807114 0.3319672424 0.33211525607 0.33240316397 
0.33130605303 0.33148857838 0.33224559276 0.33098539545 0.33119947652 0.33210290523 0.33057861149 0.33083435338 0.33189121122 
0.33000340539 0.3303007544 0.33153632279 0.32920034879 0.32956644767 0.33093799021 0.32816274547 0.32858545838 0.33004881271 
0.32659537855 0.32723071559 0.32866540838 0.32518049102 0.32598384919 0.32218925003 0.33778171864 0.33855074241 0.32047857053 
0.32000732046 0.3200743727 0.32249070614 0.32589699868 0.32545566104 0.32664853356 0.32648731793 0.32913710121 0.32666797599 
0.32644480748 0.32947577343 0.32824806117 0.3277477037 0.33022709035 0.32900410603 0.32836431754 0.33132781043 0.33149106674 
0.33026899164 0.33284836454 0.33323534649 0.33206075243 0.33473178052 0.33522689454 0.33377564207 0.33602974625 0.33804798104 
0.33586149534 0.33755928374 0.33877073106 0.33516949593 0.33535053033 0.33572261805 0.33601066234 0.33838121797 0.32263751168 
0.34087393263 0.32423398946 0.32364881174 0.32473736169 0.32744301094 0.33064712913 0.33027511746 0.33206462367 0.33606879881 
0.33657557008 0.33877177351 0.33493329082 0.33507564221 0.33793552477 0.33498140874 0.33508077531 0.33802452556 0.33472335158 
0.33481751746 0.33806434713 0.3342209713 0.33402528567 0.3371332794 0.33520923099 0.33481589033 0.33711381314 0.33599930871 
0.33563805541 0.33807359043 0.33705544441 0.33657984313 0.33893984265 0.33785274861 0.33740010046 0.33965464852 0.33884438708 
0.33811253656 0.33998431164 0.34024191172 0.33928025669 0.34047251694 0.34075871484 0.34205751387 0.3387200243 0.33476693593 
0.33460529716 0.33515440942 0.3297235431 0.3291753065 0.33131900382 0.34256556353 0.34291415142 0.34162554284 0.32042984807 
0.33063781725 0.33107778638 0.33595051869 0.33318798123 0.33366018173 0.343073685 0.34311307015 0.34288904803 0.34304176403 
0.34299107065 0.34342603744 0.34277042901 0.34266004879 0.34350303482 0.34286078446 0.32751407871 0.31956688397 0.3429037608 
0.34292744761 0.34344807411 0.34294306957 0.34288114727 0.34335722475 0.34288437724 0.34257494084 0.34292806455 0.33867414931 
0.3344816759 0.33150286441 0.33806016599 0.33217129485 0.33233463113 0.34709831199 0.3483937339 0.34918116844 0.34968963596 
0.34932830245 0.34975979793 0.3494791336 0.35069541417 0.3497484905 0.32514642756 0.32074038846 0.34981030983 0.34969207389 
0.35097525305 0.34978068761 0.34952050659 0.35097228927 0.34926491797 0.34880230809 0.35031601287 0.34818791145 0.34744265865 
0.34895102408 0.33670214164 0.33735287386 0.33949697522 0.3390038153 0.32894044577 0.33276124972 0.33376399237 0.32880956166 
0.32985742709 0.33544765201 0.33318702661 0.32951725744 0.3255747839 0.32660512328 0.33754386137 0.33941643441 0.34012323346 
0.34162730286 0.34196720658 0.34075461465 0.3360689052 0.33713706294 0.33875742165 0.3252716123 0.31765093099 0.33495776255 
0.33026728478 0.32916012275 0.34083991519 0.33904796869 0.34012440355 0.34098984232 0.32724836475 0.33248799087 0.34022512242 
0.33473408303 0.3343995307 0.33421873432 0.33940961226 0.3465409826 0.34470247224 0.34671270019 0.33340331608 0.33364743693 
0.33344236765 0.34302466452 0.34547814882 0.345950292 0.33515975632 0.33618792925 0.33821093637 0.33640520314 0.33674332978 
0.33870807192 0.34133455952 0.3272753361 0.33153417335 0.33401208126 0.33383188249 0.33380261258 0.3265015989 0.32766097225 
0.30781856238 0.31978327452 0.33366916106 0.32463336526 0.33501136711 0.33524298145 0.3344502471 0.33473423809 0.33513142274 
0.33381245444 0.33411572999 0.33442631314 0.33317015829 0.33346904006 0.33364464442 0.33281669969 0.34186175767 0.34238206909 
0.33452482396 0.33533724527 0.33876237602 0.33510178959 0.34215177587 0.33327289759 0.33316872239 0.33606440233 0.33661924456 
0.33870429321 0.32967488232 0.34108460749 0.33614793007 0.33610447715 0.33368547858 0.33361605254 0.33600858413 0.33586553584 
0.33656056223 0.33368937669 0.33352457137 0.33471175559 0.3335749832 0.33356591214 0.33337411442 0.33338403931 0.33407010951 
0.33329141245 0.33326623704 0.33376486235 0.33291701115 0.33300657753 0.3333833865 0.33312309014 0.33470630136 0.33293070991 
0.33298982307 0.33370997539 0.32877035505 0.32919758493 0.33106538821 0.33282862387 0.33285973379 0.33281167551 0.33294164652 
0.33384148131 0.33252525365 0.33275993222 0.33387463467 0.33194784465 0.3323089043 0.33369500622 0.33088135275 0.33135638856 
0.33303891376 0.32987653132 0.33203065974 0.33104560578 0.33653678663 0.34015648885 0.33300071199 0.33366033695 0.33364124931 
0.33456529659 0.3360621225 0.33612806739 0.33665338707 0.3337611133 0.33269804851 0.33257774786 0.33193608622 0.33517913901 
0.33504326521 0.33726159613 0.3364893488 0.32575366435 0.32252624549 0.33794194921 0.33703939053 0.33910759199 0.33893986372 
0.33806236316 0.34003104125 0.33980069001 0.33868708831 0.34021659525 0.34010326298 0.34028161396 0.34033157985 0.34020937184 
0.34045595562 0.34082531271 0.339578099 0.34005485338 0.33953627198 0.33957768458 0.34211285792 0.34226035799 0.34072217138 
0.34057250757 0.34285442506 0.33966522622 0.33920084103 0.33979963822 0.33961271186 0.34197349373 0.34058862591 0.34033042401 
0.34210740877 0.34071207885 0.34071720773 0.34265962906 0.33726319095 0.3391743348 0.33235785991 0.333270383 0.33684914222 
0.33323714177 0.33567022412 0.3354267683 0.33620545091 0.33545297608 0.33561772317 0.33569285388 0.33278415894 0.33231419694 
0.3343428525 0.34037493131 0.34128914756 0.34102213147 0.33908551144 0.3328971598 0.33565936423 0.32797135131 0.31975192161 
0.34273897764 0.34298952381 0.34226948323 0.34308905668 0.34323403985 0.34298833654 0.31662207199 0.31496428923 0.34476786439 
0.32712812824 0.34320101711 0.34314800948 0.34333000105 0.34298931558 0.34272554982 0.34305798371 0.3423106988 0.3418694889 
0.34222215074 0.33899911628 0.33661126246 0.33899876682 0.33456549106 0.35086611348 0.35119666464 0.35274187311 0.35125392306 
0.351341136 0.35192008136 0.35136812492 0.35106533496 0.35202720285 0.3506005094 0.34988527385 0.35141757335 0.34870139811 
0.34777565716 0.34933716657 0.34011242309 0.335753291 0.33582872412 0.33609483973 0.34037285122 0.34036186664 0.34011026128 
0.33923394257 0.33584544383 0.33591194286 0.33646351131 0.33549663857 0.33502595773 0.33477091696 0.33760942005 0.33325427265 
0.32571732595 0.3358211298 0.33350451799 0.33259455513 0.3411358178 0.32728109776 0.33954650983 0.33675206506 0.33695258527 
0.33626979177 0.33425223645 0.33440280048 0.33262022533 0.33491129363 0.33362620765 0.3426680635 0.34181834583 0.33975514714 
0.33987529906 0.33289072338 0.33293469038 0.33352213096 0.33332006219 0.33165682717 0.33101968362 0.33518870239 0.33385250676 
0.34053654385 0.34326003477 0.34047539683 0.32959969499 0.34071370772 0.33884672856 0.34204102231 0.34128297474 0.33562811653 
0.32971134352 0.33425579273 0.33071910647 0.34029494755 0.34654207742 0.34458449821 0.3467271281 0.34081975156 0.34133277608 
0.34361791323 0.34070390714 0.34120387468 0.34279528525 0.33976907587 0.34282108935 0.34046958809 0.34050066233 0.34218318609 
0.34120520613 0.34849456653 0.34986274271 0.35073348775 0.33413463999 0.3339184987 0.333988298 0.3343997788 0.33989726313 
0.34016841691 0.34135607115 0.3476726038 0.34103961399 0.33516337153 0.33554511576 0.34985416833 0.35097211678 0.33548731946 
0.3373507951 0.33559142392 0.3372140156 0.33725768588 0.34408483579 0.34391889514 0.33576242546 0.33586450098 0.33411017848 
0.33424569903 0.33438622266 0.33459607001 0.33482011839 0.33484083539 0.33499249161 0.33500106513 0.33445588905 0.33437116604 
0.33477113188 0.33472556167 0.33584587823 0.33881307847 0.3419552923 0.34289301381 0.33654237579 0.34177369049 0.34118408623 
0.3376620709 0.34133267264 0.33914279396 0.34035466487 0.34401245949 0.33624037774 0.33618273832 0.33722093243 0.3441981739 
0.34214238252 0.34076578195 0.34237122714 0.34209097134 0.34363748194 0.34162093499 0.34142624593 0.34285741626 0.34136997856 
0.34621200039 0.34816306503 0.34902430347 0.34323511953 0.34370479739 0.34390732812 0.34361636097 0.34539796218 0.34375643026 
0.33340279696 0.33541657198 0.3342061072 0.33531960657 0.33538080444 0.33643569111 0.33688901353 0.33709359946 0.33771636973 
0.33488679478 0.33505542666 0.33622379439 0.33596783209 0.33625644726 0.33608791521 0.33560968636 0.33537920035 0.33689807037 
0.33523470968 0.335359469 0.33611615261 0.33562878371 0.3419344138 0.34227764724 0.32637627125 0.34254008332 0.34262211685 
0.34190015524 0.34260015383 0.34235591557 0.34219077321 0.34169131082 0.34105877137 0.34151095263 0.33965503551 0.33808967139 
0.33664956093 0.34011742113 0.35137119267 0.35177506137 0.33375725884 0.33399775201 0.33424804899 0.35161612178 0.35101314704 
0.34966022951 0.34821358074 0.35050633128 0.33468817063 0.33870291813 0.33686459959 0.33654917187 0.33870149383 0.34208934536 
0.34235213482 0.33722441812 0.33706495165 0.33751471641 0.34503372226 0.34356439644 0.34071969854 0.34362320759 0.34445221029 
0.34175054459 0.34468683558 0.33849016197 0.34181982127 0.34170070665 0.34047021852 0.33410549162 0.33531180447 0.34347532931 
0.34128125204 0.34204937535 0.33463805852 0.3399298354 0.34530461054 0.34103167689 0.34157856918 0.34115313263 0.33465546777 
0.34020986316 0.33901056359 0.34372194737 0.34234511933 0.34691987925 0.34816332238 0.34622406562 0.34375006241 0.33732208202 
0.34569702006 0.34550411065 0.34442323406 0.33887536099 0.33476275364 0.34052096461 0.34010510693 0.33976286105 0.34606037559 
0.34733993379 0.37777738125 0.34645389055 0.3443786171 0.33507540047 0.33618577238 0.33670212038 0.33608191947 0.34540273138 
0.34522593463 0.33689313942 0.34382268639 0.34567266225 0.34365077194 0.35215103794 0.35209801668 0.35209923237 0.35209815937 
0.35211301949 0.33657214534 0.33675351377 0.33691477225 0.33837590937 0.44116714738 0.39764920004 0.42941091474 0.33999285363 
0.34019693814 0.34488396908 0.34743254894 0.3461153505 0.34411878601 0.42894546101 0.40250026421 0.34647225098 0.34800313035 
0.34938442817 0.33781781636 0.33690848617 0.33731948897 0.33685480251 0.33659259572 0.34409802793 0.33480413232 0.33723354142 
0.33535353114 0.33803921196 0.33852162775 0.3383323181 0.34562794203 0.33741671441 0.34103997455 0.34134207249 0.33610849354 
0.33582227925 0.33601588254 0.33697183944 0.34845532956 0.34879923115 0.39968762223 0.42540953858 0.33752739944 0.33765987166 
0.34680600176 0.34281765902 0.3506411393 0.35113383704 0.35004220709 0.33842091437 0.33812245207 0.33743018867 0.3372882937 
0.33792083235 0.34619429005 0.34508574267 0.33845641334 0.33810359864 0.33518597561 0.34914609789 0.34863980972 0.33844757619 
0.33838617794 0.34500869498 0.34600510571 0.35067648983 0.34926313395 0.34642141664 0.33799387356 0.33819348393 0.33841682275 
0.33748390104 0.33911476114 0.35136898958 0.35097635408 0.33918861681 0.33979140251 0.33833130548 0.33850205421 0.33914404535 
0.33683578138 0.3365670561 0.34021437645 0.34031094155 0.33918239797 0.3472665189 0.34595031365 0.35082091868 0.34964139615 
0.33716256224 0.33759778307 0.33837098859 0.33723324598 0.34739143015 0.34812594494 0.34697232431 0.3494781653 0.33869700308 
0.47865763063 0.34667755188 0.34758267386 0.34764840787 0.33961811025 0.33997866695 0.33892818949 0.34808867382 0.34687348609 
0.35203100058 0.35172915864 0.35129241812 0.54592487695 0.45012784407 0.34856141221 0.34077412889 0.34002227572 0.35033423672 
0.34417450635 0.33903918099 0.33773157055 0.39729723913 0.42870448268 0.34141790863 0.34133047269 0.34073040858 0.34934802593 
0.33564131709 0.33966830317 0.33989187732 0.33990200627 0.33910446751 0.33852595817 0.40267207253 0.42451608308 0.33844224678 
0.34961268686 0.33980084883 0.35189201369 0.40061051021 0.42555174944 0.33989788559 0.40057865797 0.42622327474 0.3388591421 
0.39693301519 0.36125568125 0.33337700038 0.68098527078 0.33343400241 0.33343700027 0.33332700012 0.33316300014 0.33290100002 
0.33255600006 0.33217200018 0.33175200014 0.33126300032 0.33065000054 0.330016001 0.32939900079 0.32874900123 0.3280750011 
0.32740700177 0.32666100162 0.32589000256 0.3250870019 0.32429300364 0.32360300201 0.32283800354 0.32213000404 0.32136800579 
0.32069900471 0.32020600308 0.31971900395 0.31922500687 0.31919400624 0.31939100876 0.31998300119 0.32061800245 0.32197500689 
0.3233000146 0.32525302377 0.32783203672 0.33085011691 0.33399910073 0.3375482294 0.34115116534 0.34432219329 0.34763321086 
0.34954409214 0.35115106275 0.35127202982 0.35012600872 0.34745605098 0.34461111456 0.34055124265 0.3357681623 0.33079426332 
0.32627211133 0.32191810545 0.31784011245 0.31385209661 0.31053306596 0.30516201932 0.30285600811 0.30090400492 0.29939801304 
0.29786500924 0.29649800645 0.29539600798 0.29425400683 0.29335900767 0.29256301416 0.29176801287 0.29105102457 0.29028103385 
0.28977502304 0.28925701836 0.28862603526 0.28855511446 0.28872910748 0.2892981101 0.28971812807 0.29094431337 0.29270141532 
0.29516666538 0.29887374184 0.30354720948 0.30977235542 0.31709559841 0.32676127971 0.34783601185 0.35734257309 0.31939600553 
0.30785504473 0.2889670493 0.45188082968 0.58817824472 0.33338600111 0.33341800358 0.48954426366 0.36300880489 0.34000168524 
0.32684020457 0.31668615862 0.30878372352 0.30252438193 0.29823966331 0.29479861486 0.2926813325 0.29091530269 0.28980119997 
0.28904818208 0.28876710647 0.28864908677 0.28878907065 0.28904906396 0.28944704255 0.28998704141 0.29064102466 0.29127702116 
0.29203601583 0.2928090127 0.29366200989 0.29458400783 0.29559900603 0.29677700646 0.29804400614 0.29947300837 0.30111000941 
0.30324902657 0.30543802773 0.30806805963 0.31081206496 0.31438313203 0.31822916915 0.32211122998 0.32665026877 0.33162834453 
0.33638829194 0.34056532085 0.34459519226 0.34779811466 0.34994403671 0.35116100297 0.35107303144 0.34994709505 0.34788613867 
0.34510922314 0.34173421446 0.33811725714 0.33442919013 0.33096015419 0.328172093 0.32583007576 0.32383104266 0.32219302706 
0.32085900782 0.31996600304 0.31947700334 0.31919100289 0.31918900366 0.31933200419 0.31966600469 0.3200650049 0.32056900418 
0.32123800577 0.32196600455 0.32268900506 0.3234220039 0.32425900436 0.32511400346 0.32585400373 0.3266910027 0.32740500291 
0.32810800201 0.32881000223 0.32948900146 0.33007200191 0.33068000122 0.33121500143 0.33170900093 0.33215300083 0.3325410005 
0.33290100015 0.33316900002 0.33335400038 0.33343000123 0.33331300046 0.33333800041 0.33333400133 0.33333500107 0.33337000017 
0.33333900004 0.33334600031 0.33335800048 0.3333550003 0.33334900076 0.33334700067 0.33334300099 0.33334000078 0.3333350012 
0.33333100092 0.33332700127 0.33332200097 0.33332100122 0.33331500082 0.3333140012 0.33330700072 0.33329600022 0.33330600053 
0.33331400025 0.33332000003 0.33329000001 0.33329900007 0.33329700002 0.333301 0.33329600003 0.33330000007 0.33329600009 
0.33330100011 0.33331300005 0.33332400051 0.3332990006 0.33331000061 0.33331700019 0.33332900046 0.33331900037 0.33332400072 
0.33332900064 0.33332900133 0.33333300098 0.33333700139 0.33334200094 0.33334300114 0.33334900055 0.3333510005 0.33336100033 
0.33333500013 0.33334800004 0.33334600001 0.333332 0.33331700072 0.41639967648 0.36816750962 0.51175981659 0.43341985946 
0.44542615501 0.40057609705 0.43101475586 0.40847513365 0.43173513173 0.39792299191 0.42805217618 0.4036807777 0.42979940412 
0.48284814349 0.3946806473 0.39612605519 0.42494937056 0.39956156554 0.42783286799 0.40292159453 0.43705793997 0.39401310298 
0.40860463142 0.41014315932 0.49557856347 0.47496050112 0.4361727566 0.40165325425 0.43371665348 0.40747968325 0.44927351525 
0.46183894613 0.38301258554 0.52535003438 0.46344814734 0.29173945237 0.27109092913 0.33332000008 0.33330300046 0.33331500006 
0.33331400065 0.27762901467 0.28243902476 0.28123350519 0.28141087253 0.28430783506 0.27682959707 0.27527945269 0.27305024471 
0.27500547764 0.29935401259 0.27639481281 0.27882399728 0.30016275535 0.38284884364 0.19566307529 0.26888382406 0.27809578143 
0.32844995112 0.31408631544 0.32178013399 0.26083300033 0.34369521686 0.31507157964 0.27447076406 0.33327302027 0.26900666213 
0.2793158438 0.27501519292 0.33080869628 0.32694123359 0.32865556686 0.32642177177 0.28350768316 0.28566470567 0.28347100112 
0.34332808727 0.20103540344 0.33328400359 0.33328600013 0.39363363362 0.21786400321 0.19605325863 0.34358077933 0.2917614906 
0.31391797088 0.29416673022 0.31914635859 0.3570243961 0.35066949586 0.33527062284 0.33949802479 0.35013573155 0.33593230552 
0.3247893268 0.33047806449 0.327067187 0.32355509117 0.31954947917 0.31960378261 0.31981296997 0.31992088209 0.35599582426 
0.34406014951 0.34414571929 0.36113154886 0.35406170477 0.33559912294 0.33514521896 0.33535939502 0.32152949981 0.31904117904 
0.32206343437 0.33541650599 0.337162691 0.33741079027 0.32415320391 0.32840195017 0.32757738587 0.33385916579 0.33370039821 
0.33385776584 0.33342754765 0.3334129746 0.33351156141 0.33346420883 0.33210281852 0.33194859283 0.33175267387 0.32801157905 
0.32682891841 0.32770482046 0.33426562016 0.33400319091 0.3341409592 0.33392223007 0.34471280847 0.35308207153 0.34301671604 
0.35230241927 0.33336698823 0.33363928278 0.333592464 0.33379497948 0.33370943862 0.33706537432 0.33643405588 0.33762131695 
0.33694762187 0.31327192427 0.30440044369 0.3067618933 0.33169155879 0.33092642171 0.33154059564 0.33076941367 0.34011869135 
0.33931056468 0.34325683326 0.34250095637 0.33272745899 0.33236614644 0.33275665516 0.34082291908 0.34026455621 0.34100875839 
0.34089080161 0.33335335044 0.33335732929 0.33338805782 0.33338010952 0.2906152238 0.33334152076 0.33334046003 0.33274469269 
0.33262252237 0.33274436102 0.33258400883 0.32329805182 0.3166128646 0.31841582177 0.33367403728 0.33395933674 0.33392811705 
0.33421506724 0.33433390286 0.31543233007 0.31548786592 0.31222765583 0.33334744792 0.33336687412 0.334021295 0.33426446861 
0.33401343369 0.3359891482 0.33161054195 0.33556633582 0.33020065925 0.35158228813 0.33799038643 0.35176381486 0.34279828842 
0.36339181838 0.35711041304 0.36245265218 0.33410274603 0.33423952042 0.33435113063 0.37559271945 0.39078970356 0.36535667348 
0.33384829279 0.33382712498 0.33766282473 0.33718003235 0.33780300016 0.33923901591 0.33955051186 0.3408943224 0.33654703877 
0.33653235313 0.33325244924 0.33322302815 0.33330491468 0.33330064275 0.33327793578 0.32888348536 0.32843287285 0.32924437225 
0.32249901854 0.31906050489 0.32204567671 0.33718909183 0.29590909633 0.29630673899 0.30261916449 0.30373613431 0.33064117813 
0.33054361302 0.33188518046 0.3335870059 0.32441320166 0.32314893059 0.32360819523 0.3421753672 0.33774347908 0.33923484052 
0.33322107013 0.33317339792 0.33345113589 0.33336472306 0.32978035985 0.33171317975 0.32914797797 0.32836203007 0.32765455446 
0.32969819845 0.32914960231 0.34136278535 0.34108674912 0.34148953254 0.33368114072 0.33380272731 0.32016590645 0.28557815751 
0.28142847623 0.33333159754 0.33332518564 0.33333214083 0.31827853723 0.34502056453 0.34339405711 0.34371144121 0.32712901564 
0.32597442367 0.32760898707 0.32643514613 0.33252558544 0.33240932137 0.3322866384 0.33979169803 0.33869826342 0.33965984005 
0.33850403664 0.33185404893 0.33183848464 0.33207970073 0.31817132753 0.35358870212 0.31799854046 0.33086271113 0.33092223192 
0.33125827249 0.33134637795 0.34451796986 0.34342888353 0.32563956126 0.32432749398 0.32387265126 0.33369356918 0.33371076272 
0.3334983267 0.33354852192 0.33104486239 0.31746006786 0.33293691017 0.31910764729 0.31419589619 0.31782887079 0.32613799347 
0.32570421187 0.32511961156 0.34207806505 0.34645284168 0.34771683489 0.34725525241 0.34794402741 0.34777871562 0.34753896522 
0.32336188699 0.32659007443 0.32550554853 0.32515512693 0.32527387384 0.32484498341 0.3109215622 0.31376541115 0.31363525081 
0.32467437857 0.32449987264 0.32453976102 0.32437536921 0.33243165683 0.32896892818 0.33021473028 0.34237034522 0.34120168452 
0.34084147516 0.33924458603 0.3099680339 0.32634440815 0.32702300301 0.32803602334 0.32848360466 0.33481379991 0.33446275382 
0.33469649488 0.33177064749 0.33234067689 0.33228856145 0.33534251947 0.33779854506 0.33292936131 0.33603284235 0.34598215579 
0.34801138721 0.34391214384 0.33397284388 0.34913426106 0.35184449001 0.35047890775 0.34562278995 0.3405674777 0.32349885074 
0.32447363479 0.32464235384 0.32567671114 0.32644519416 0.32593315769 0.32007378779 0.31986701324 0.31907062012 0.33350637561 
0.33351693934 0.33340759541 0.31596349427 0.31800552509 0.31855311828 0.31654583706 0.33373276051 0.33503123253 0.33045488508 
0.33030126973 0.32443236683 0.32773118001 0.33438994859 0.33200041553 0.33618236617 0.33346550073 0.33345878634 0.3333971408 
0.33338079056 0.32222454636 0.32113246166 0.31713013302 0.3274720644 0.31000212225 0.31455002737 0.31538167228 0.31930917344 
0.30710188716 0.30816785961 0.31309326039 0.31474715717 0.30194694236 0.30331011896 0.30927723119 0.32702864254 0.32581240576 
0.32564678599 0.32856118651 0.33423645468 0.33157871812 0.29527215908 0.30146771014 0.32852841816 0.32743665094 0.33565096455 
0.33519637857 0.33576250317 0.33529469342 0.30194179643 0.28259868698 0.31983092381 0.31288782307 0.31026990271 0.30500420631 
0.31109547584 0.31606418943 0.31850540594 0.32785847459 0.32900128459 0.3282346516 0.32933003733 0.30632770635 0.31203001384 
0.30657203814 0.33077036337 0.32856451816 0.34968503319 0.34856906271 0.34974744372 0.32139342257 0.32788154277 0.31809322158 
0.32380652552 0.3469524482 0.34447861179 0.34589142929 0.33319466342 0.33321028081 0.3330850607 0.33313491926 0.32192619056 
0.3229641187 0.3231581437 0.32573268145 0.33363668744 0.33265369014 0.33289282509 0.33278105355 0.3210562378 0.34380479699 
0.34339033644 0.34082038823 0.33403711747 0.33399885645 0.33923397388 0.33976014192 0.34033523366 0.34125382357 0.32206664273 
0.3198487055 0.31837024269 0.38039727008 0.37270211059 0.36077369527 0.31085132442 0.3155863883 0.31104983749 0.33370159344 
0.33363686651 0.33357845012 0.35401686218 0.33440401125 0.31325149963 0.31647421602 0.31658464264 0.29021021737 0.33366712525 
0.32543352524 0.3242466122 0.32587299485 0.31943018132 0.31812624721 0.33441217143 0.29267712276 0.33826093538 0.33701538849 
0.33809248862 0.33854134594 0.33971703673 0.33337125195 0.33337677505 0.33339102581 0.33112080903 0.3198629366 0.32719007427 
0.31967849879 0.336990601 0.3367406133 0.33984465697 0.33969167753 0.32531116082 0.33614578775 0.30461080777 0.305654239 
0.30815996626 0.33332800045 0.30333123158 0.30682295306 0.30552613289 0.29953882744 0.32195586814 0.34743694989 0.34810528906 
0.34685526327 0.31810715564 0.31600463676 0.33324802199 0.34970118164 0.34989878366 0.33607487971 0.33170352579 0.33380880476 
0.33091992628 0.3312539696 0.32853109198 0.33170228594 0.33143810475 0.33181882108 0.33154604935 0.32708738043 0.32820423413 
0.33427611965 0.33222853843 0.35544730413 0.35003316998 0.31807824122 0.33476159075 0.33457966451 0.3349224905 0.30972263764 
0.30942518536 0.30514876073 0.31558757289 0.30858763477 0.3191380732 0.31244401039 0.33828323996 0.35201709347 0.34796317543 
0.32350468063 0.32699889566 0.32677242618 0.32830493945 0.32926913614 0.33136544195 0.3323840171 0.37457906446 0.33122392923 
0.36540788293 0.31618346336 0.35258936341 0.31478649764 0.33861878491 0.32661154526 0.33131110703 0.32750532464 0.33334900087 
0.30971737974 0.30720478564 0.31829151806 0.32062028244 0.32258339289 0.3207734505 0.32576337658 0.31456782423 0.31720904083 
0.31761557618 0.31916325422 0.31684549761 0.34884934199 0.35010222836 0.34937309346 0.29723943055 0.32986531197 0.32907439647 
0.33203679756 0.31501955353 0.31439706856 0.31209261562 0.32637608465 0.32714388844 0.32609711125 0.35198601997 0.3520710088 
0.3518751284 0.33493768702 0.33489014062 0.33461800203 0.33459251561 0.33215308215 0.33143931085 0.33127186817 0.3386309017 
0.32452537609 0.3244794281 0.3251163749 0.3251939552 0.32567179916 0.33278597362 0.33270106396 0.33256139661 0.32911605736 
0.32908374398 0.32967987178 0.32959921222 0.33258573226 0.33281680022 0.33274614644 0.34442290108 0.34307364503 0.34372014781 
0.33366221228 0.32293252405 0.32371395607 0.32643725894 0.3181462704 0.33340143964 0.33360141265 0.33284898678 0.33304335034 
0.33263225062 0.33287175954 0.31992212218 0.32282047105 0.32029656444 0.32311064352 0.33298195087 0.33288857873 0.33330234596 
0.3434156376 0.32014988614 0.33328216613 0.33328051036 0.33416100401 0.33432210398 0.33341936684 0.33358567138 0.33274859406 
0.33287719853 0.33253676203 0.33268343766 0.33981280568 0.34307435065 0.34473788805 0.3330376231 0.33297646843 0.3332446671 
0.33330076554 0.33330603758 0.34622070892 0.34462727357 0.34697207909 0.3185723126 0.31320340307 0.31767017678 0.32233658728 
0.32243279683 0.3238378386 0.32404411854 0.32484886111 0.325025607 0.32537416671 0.32766874452 0.34059355768 0.33504566733 
0.32496350175 0.32430995606 0.32580094983 0.32459859157 0.32511417301 0.32476059059 0.31145172887 0.31514531747 0.31098240327 
0.33301532736 0.33307067499 0.29128375602 0.3344041333 0.29529400094 0.32403243034 0.32222220635 0.32513599767 0.32953485929 
0.33022953337 0.33039809605 0.33260221622 0.32963886935 0.32924942834 0.3262230127 0.33256958784 0.33233921605 0.33005454749 
0.33069583069 0.32836085304 0.32715373438 0.32602724926 0.33757369583 0.33795297774 0.33721038219 0.3328123882 0.3309342061 
0.33061737049 0.33319829669 0.30761439296 0.31045563667 0.30668352151 0.319055336 0.31986037119 0.31877885165 0.31711553233 
0.31781760805 0.31966595911 0.32689606245 0.33300008105 0.33286220052 0.33301278718 0.33294512171 0.33309077853 0.33038975286 
0.33064650207 0.33112247217 0.33640860484 0.3358051941 0.33837995279 0.32429377302 0.32427356884 0.32358182272 0.324609205 
0.33155996981 0.32999721463 0.33015922025 0.32860588424 0.32888019618 0.30286357001 0.32332284557 0.32184470898 0.32222081247 
0.33092266487 0.33118250773 0.33073791686 0.33315512263 0.33328588567 0.33327137382 0.37818012352 0.34767158633 0.3335221321 
0.31482226965 0.31287397859 0.31142116748 0.33131538014 0.33175160396 0.32934910059 0.32980481752 0.3293052584 0.33103224087 
0.33067815211 0.32200954879 0.32117397933 0.32293271273 0.34529561296 0.34549456555 0.34633133591 0.29577194778 0.33263134666 
0.33503438696 0.33939626277 0.33859124115 0.338235642 0.33742640794 0.33026363393 0.32986869243 0.32964413699 0.3292350286 
0.33944486082 0.3425640176 0.3282239951 0.32766631306 0.32750831422 0.32537615405 0.32422803751 0.32575103798 0.33290851267 
0.33275664432 0.32794275895 0.3255181685 0.33383030022 0.33402842546 0.33385444799 0.33408049081 0.33329400197 0.33316006043 
0.33328000664 0.33311707257 0.34892730346 0.35035536451 0.35730382915 0.32694732968 0.32644175427 0.32426623233 0.32367560888 
0.33261834968 0.33235201125 0.33255776664 0.33226120888 0.32818215138 0.32508832107 0.32552845496 0.34890545723 0.34938342615 
0.3489091562 0.34880592744 0.33352910509 0.33367631244 0.33354000609 0.33365707863 0.31361058829 0.33326970888 0.33081998882 
0.33671118 0.33446457931 0.30270934479 0.3036322792 0.3115600435 0.31207883346 0.30924207808 0.33333752382 0.33334712444 
0.3477288578 0.34919561266 0.34696470096 0.34872582619 0.33175762303 0.33222874646 0.33028361493 0.3330202257 0.33318902588 
0.33317803267 0.33845887249 0.34229944578 0.34014965248 0.34362166136 0.34060794936 0.32006855721 0.31941380334 0.41202638378 
0.42525485217 0.4341823205 0.33159130335 0.33251095078 0.3311882424 0.3294017935 0.32654413045 0.32578341025 0.32821795274 
0.32712976924 0.32983037016 0.33106100998 0.33012159391 0.32330122905 0.32333638498 0.32403838421 0.3248978759 0.32545021513 
0.36498852034 0.33589081465 0.35562999976 0.29783773849 0.33326287131 0.33326757362 0.33329419712 0.32393882985 0.3219238711 
0.34429075648 0.34732709873 0.34159927566 0.34496015913 0.341483045 0.34225478158 0.34149428694 0.34226823906 0.33345817506 
0.33350664508 0.32983185181 0.34818443703 0.34639512323 0.33195938981 0.33151546854 0.32863137007 0.322078614 0.3232216718 
0.3218483577 0.34102582666 0.34051077517 0.34078285579 0.32766154968 0.35665255614 0.37265514604 0.32153026316 0.32315575594 
0.32331607469 0.33323233843 0.33326557126 0.33315590073 0.33317228966 0.30336657077 0.32012404037 0.32231451393 0.33019323451 
0.32857619797 0.34535345384 0.34742049426 0.34546093289 0.30997098926 0.31299559889 0.3114441842 0.33392493011 0.33318203284 
0.33141070299 0.3348454563 0.36699257447 0.36518975586 0.36105306663 0.3385698246 0.34473320785 0.33607652345 0.34077050016 
0.31997285219 0.33934994427 0.33160460614 0.32893561493 0.32662643132 0.32991768438 0.31929867412 0.34910598702 0.3526889562 
0.31270317757 0.30212315179 0.30938094976 0.33561884134 0.33196255976 0.32774536731 0.32735126626 0.33023855457 0.3501889829 
0.34855331144 0.33374419572 0.33391715287 0.33677711284 0.32629114173 0.3271871733 0.3260035214 0.34090593679 0.34147524382 
0.34177411258 0.32700571531 0.32749090209 0.32638117653 0.28750565887 0.32261137969 0.31798961242 0.32303328641 0.34341660386 
0.34429199567 0.33673242799 0.32556629152 0.32626512275 0.32673135053 0.32637866194 0.34325656706 0.33290338265 0.32891560846 
0.33371019573 0.33514054577 0.33086922156 0.3372262851 0.33498688491 0.32763182898 0.32456512205 0.35402149855 0.31860157164 
0.35998025023 0.33519717527 0.33437925576 0.33459995701 0.33374108158 0.33424710248 0.33466772007 0.32172563647 0.32224171193 
0.32313844934 0.34430528513 0.33294229828 0.33543153094 0.33346286753 0.33839009664 0.320916027 0.32670898533 0.32561329305 
0.35072354253 0.31472819128 0.34672646013 0.31580558893 0.31563156494 0.31382666856 0.3122473515 0.32535464003 0.32486879129 
0.34138785204 0.34001504246 0.34101782098 0.34169619492 0.34268205278 0.33992009653 0.34845097738 0.33761466243 0.34162339601 
0.33718309687 0.34390098195 0.34508233706 0.34306850311 0.34455114373 0.34113700143 0.34060152136 0.34155498442 0.3401212624 
0.3461381934 0.34542936973 0.34722532684 0.34802732414 0.34674503125 0.34848790786 0.31542029503 0.34231278668 0.3424548519 
0.33778485536 0.3451993588 0.32616040942 0.32349839915 0.32649419147 0.34769222802 0.34771622583 0.34609570735 0.34712025957 
0.34436419049 0.34118602287 0.34501724105 0.34778560677 0.34851825666 0.34687861972 0.34683062585 0.34529705789 0.34499067988 
0.32068066263 0.35759438466 0.33714041678 0.33542440177 0.33156712188 0.31926504596 0.33276558849 0.33419408429 0.33232433822 
0.33912698257 0.33637033932 0.34990254886 0.36130128063 0.3303186799 0.33472665587 0.33457796558 0.33325627115 0.33304662633 
0.33335937804 0.33903392098 0.3369714438 0.34026239654 0.33876447569 0.33272145554 0.33249300153 0.33253246081 0.34782604861 
0.33764905534 0.35231639581 0.35373728543 0.31952639235 0.32138033437 0.32272868397 0.33544239267 0.33581767858 0.31986561786 
0.31894932729 0.33352829756 0.33366935112 0.33353612761 0.33628773154 0.33609222963 0.33661041599 0.33637928681 0.3228176544 
0.32399363116 0.33446410276 0.33456410829 0.33479952634 0.33384642561 0.33363219411 0.33369332476 0.34431912683 0.34258150094 
0.33580095943 0.33267109801 0.33488615036 0.3335302689 0.33338709224 0.33340421027 0.33431119304 0.33407130808 0.34747567052 
0.34647960819 0.34690417045 0.33284795405 0.33255393187 0.33312241235 0.33288558382 0.33307715991 0.3347791024 0.33446429575 
0.33487892866 0.33453616552 0.33401170347 0.3291728528 0.33359882318 0.33263147389 0.33357163036 0.3309286498 0.3323941999 
0.32989657972 0.33328357259 0.34865851687 0.32382355642 0.32696205252 0.31902561711 0.30213401666 0.30670906485 0.30643300806 
0.31069720631 0.35090893836 0.33017469371 0.34632204324 0.33256547307 0.33603514512 0.33076174382 0.3046614155 0.33866532467 
0.34011242274 0.33693725358 0.33297872978 0.33618780618 0.32481284224 0.32472572751 0.32421125694 0.33437143127 0.33442004158 
0.33410714782 0.33322184387 0.33338817264 0.33368653574 0.33357250102 0.33354574021 0.33268938989 0.33266788815 0.33196345862 
0.33195500396 0.32213597743 0.32282469688 0.32320659987 0.3232708392 0.32404855935 0.29127349949 0.32195362335 0.32333998922 
0.32237275121 0.3151407264 0.32117305972 0.35097433864 0.34702172817 0.34605650485 0.32574588469 0.32355423829 0.32166047101 
0.34876742733 0.34884209372 0.34971679802 0.31557302609 0.35211302284 0.35223900909 0.33209207037 0.33266609713 0.33209971084 
0.33269181793 0.31884588222 0.31930213265 0.33332500488 0.33330605774 0.33325283542 0.33435210816 0.33468093719 0.32844436346 
0.32922562761 0.32894015317 0.32892726706 0.3300854769 0.33058903696 0.33032648876 0.32961193924 0.34458706289 0.34464673342 
0.3423926117 0.34264851208 0.29283076551 0.29041984314 0.3338127027 0.33592867117 0.32445080182 0.3275352675 0.32490841934 
0.35123600181 0.35079036403 0.35083286394 0.32149540099 0.33346962851 0.33348922046 0.33357404875 0.3332606939 0.3420864002 
0.34185957232 0.34041784935 0.29403622349 0.33295001477 0.33184695514 0.33119063235 0.3318755476 0.33167004322 0.33156096372 
0.3309053394 0.32800783305 0.33710070172 0.33871095207 0.33895822152 0.34067102163 0.2971378554 0.29490371012 0.33774914394 
0.33270509452 0.33377251406 0.33377004401 0.32798937075 0.33112657614 0.34510495759 0.34557221938 0.34881445762 0.3493422645 
0.31157897316 0.30978446799 0.31234572078 0.32843194451 0.33139315933 0.33050352968 0.33003676483 0.33304182992 0.33216972643 
0.33596191361 0.33640246089 0.33570423287 0.30773719085 0.28833019019 0.30870176906 0.3257934129 0.30877882029 0.35568920828 
0.32815905306 0.32695227784 0.32752551243 0.32543659267 0.34477132357 0.34500416473 0.34313929313 0.34345741254 0.32631551937 
0.32553848636 0.33342649713 0.33344415677 0.33336467234 0.2947640863 0.40395172763 0.39202814793 0.40394491125 0.33391215204 
0.33446887277 0.34286217866 0.34235606966 0.34331349547 0.3258040163 0.32606766419 0.33793676336 0.33501397814 0.32088273948 
0.32449877612 0.32926019592 0.33327469686 0.33317500475 0.33318084493 0.33304701819 0.34558997988 0.34152623789 0.34483973053 
0.33885782729 0.34304135484 0.32088512366 0.32073084566 0.31735325697 0.31705832377 0.32860399439 0.32852846121 0.33158438235 
0.33142185205 0.37209627193 0.3984745986 0.33865706819 0.33550314905 0.33164717971 0.33499651673 0.33427420436 0.32079835341 
0.32572145951 0.3394491899 0.33761109696 0.34166935196 0.33317378704 0.378372961 0.40760554343 0.33661724157 0.33731416784 
0.34424460737 0.34962706466 0.34794239561 0.3851833097 0.40403509216 0.34358884834 0.34357392237 0.34301080894 0.33125020707 
0.33065263973 0.33611268541 0.33867884673 0.33374722514 0.33590113186 0.34948548515 0.34953298672 0.34749971175 0.34227347324 
0.46222963569 0.4428954907 0.33445543927 0.3344967531 0.33175405684 0.33452073195 0.33862699004 0.33941151565 0.31372460087 
0.30948846911 0.33461509824 0.33296098693 0.33424629511 0.33626116838 0.33094880885 0.33107972002 0.31889431185 0.34339487604 
0.34300460244 0.33286685524 0.33206464794 0.33193561839 0.32330073455 0.33182212907 0.33178540446 0.33388022755 0.33387102465 
0.32235996765 0.31736056095 0.34311334707 0.34455479865 0.34356612244 0.34313438037 0.33738980037 0.33942050565 0.3437463505 
0.34541523077 0.3290424499 0.32997906168 0.32915529902 0.3473396615 0.34249001447 0.33182179945 0.33092900425 0.34765410227 
0.35054173918 0.33583595503 0.33343476777 0.33792884937 0.32747430402 0.32954253079 0.32811612251 0.33534702736 0.33770819818 
0.33758342303 0.34129372972 0.34528329638 0.34601435651 0.36173367353 0.3321529953 0.32913125445 0.34118683304 0.3414381415 
0.342236024 0.34258971277 0.33534337519 0.33989999593 0.34100071691 0.33659487848 0.34017578314 0.34050243635 0.34041591581 
0.33618852991 0.33342675453 0.33562654508 0.33260565824 0.32987689755 0.33096384966 0.32499663301 0.32142951615 0.33072554226 
0.33806216781 0.33510202013 0.33772156375 0.32667619971 0.32141593715 0.31947353077 0.32396707814 0.31549418028 0.3184827183 
0.33231138579 0.33235294378 0.32597964971 0.32326383308 0.32551461347 0.32588645755 0.32465428571 0.33624369862 0.33836216401 
0.33484599136 0.34315961026 0.34325859519 0.34278877851 0.33336013172 0.33341055917 0.33336606533 0.33338736994 0.34824014338 
0.34722672392 0.33290487911 0.33552947426 0.33421166739 0.33405221105 0.33204442037 0.33196650741 0.33332058095 0.33331048253 
0.33045365236 0.32961885541 0.33411418222 0.33388027529 0.33388504296 0.33163801154 0.35096620271 0.34705385183 0.34955765242 
0.3454333901 0.33456296951 0.33387960957 0.33412401457 0.33409126052 0.30184575813 0.3413992738 0.38549827918 0.41102372995 
0.34269844783 0.36883675109 0.35506939749 0.34104340617 0.34041756664 0.3404354357 0.36440912075 0.3570476915 0.35941448968 
0.37450075573 0.33337304145 0.33385424883 0.33400757022 0.33380014548 0.34694358149 0.34779557942 0.33512610201 0.33056709586 
0.32863610793 0.33129846074 0.3267005752 0.33810038626 0.34095770828 0.33861154726 0.33842858132 0.34934374405 0.34839369653 
0.34756052021 0.34677292204 0.3340755865 0.34817492387 0.30953256075 0.31347834069 0.31613535467 0.31898029695 0.31796175015 
0.31818279003 0.33335010479 0.33338513862 0.33334516318 0.32114273373 0.31991054488 0.32178352325 0.31682784197 0.33523207869 
0.37737768461 0.34838472986 0.33488731452 0.3360603496 0.33897491545 0.33349575486 0.33339103791 0.33348123488 0.33858545006 
0.33890008953 0.31986962902 0.31595046007 0.31621324207 0.33103563036 0.32422202525 0.322825608 0.32477114343 0.3233004876 
0.33151820963 0.33137383571 0.33352978992 0.33163494688 0.3317973135 0.3313077757 0.33161731493 0.33686300586 0.31951718894 
0.33238258195 0.33190456193 0.33658993608 0.33590946397 0.3334356522 0.33706735079 0.31793558649 0.31656505176 0.3459880502 
0.34526010523 0.32552002882 0.32609300045 0.33085743913 0.33126750571 0.33146432974 0.3361136996 0.3354229 0.33766381509 
0.33928965034 0.34070044657 0.33832974059 0.33710435629 0.33962387972 0.33619953759 0.3338305935 0.33691392254 0.33175580488 
0.33460969653 0.3224748633 0.32214415794 0.32469320786 0.3163914592 0.3164826712 0.31481701901 0.34260433629 0.34160935215 
0.3424740065 0.34256240422 0.34234291707 0.32659013488 0.34190048973 0.33811254406 0.33471688022 0.33531070876 0.33323137748 
0.33300413689 0.33363156111 0.33323188218 0.33376941559 0.3273577374 0.33099756747 0.33361320556 0.33270393777 0.33287261819 
0.33287652499 0.33485428343 0.33364609025 0.33499385087 0.3356970585 0.3368208798 0.33579709254 0.32936232501 0.3318249083 
0.34030450903 0.33889705285 0.32173492394 0.33513421458 0.33378602472 0.31434548666 0.33014503645 0.33051111112 0.33153906235 
0.33998039508 0.33896849063 0.33891805866 0.33747818242 0.33983352853 0.33861526698 0.34667603643 0.34530075088 0.34729661355 
0.34753489414 0.34339406409 0.34631700727 0.32760565089 0.33194461759 0.33209085874 0.32118021512 0.32266411522 0.32143340463 
0.32844326195 0.34071701492 0.33968631457 0.33911932571 0.33861731936 0.33818572911 0.34017919811 0.33911308849 0.33873018239 
0.3164821572 0.35358090929 0.3499024968 0.33221500361 0.33648096663 0.31747972589 0.32061690073 0.35991725186 0.34289269221 
0.34281600148 0.34343300666 0.35045488917 0.32231801661 0.32171627057 0.31795963878 0.34053089595 0.34091793061 0.33942456243 
0.33993578727 0.31722364505 0.32063930504 0.3325507933 0.33146209983 0.33033609139 0.30975167017 0.3135475138 0.33381245845 
0.33034843703 0.31064639127 0.33315344424 0.33400923167 0.33368266853 0.33372654113 0.34703046845 0.34530161873 0.32363386002 
0.32106464486 0.30698726917 0.33493416086 0.33437951527 0.33471371628 0.34080030177 0.34113012099 0.34019374412 0.3463048817 
0.3329145213 0.32098420941 0.32319960002 0.32738014026 0.31752729259 0.31526839006 0.31749486799 0.34078988732 0.31851827521 
0.30504904876 0.30095559475 0.30062548315 0.32843763279 0.33253356482 0.33231286287 0.33359558937 0.32992545066 0.32993028745 
0.33039989479 0.33916461819 0.33923704805 0.33993124419 0.33657983042 0.33707845129 0.3363116615 0.31881481732 0.3417511006 
0.34024990236 0.34252583962 0.32984691695 0.33138931829 0.34271132564 0.34029607848 0.34244362234 0.34019289037 0.34030033995 
0.33964989538 0.33713384235 0.33568449273 0.33942353175 0.33325497591 0.33318142131 0.33307130959 0.33160202077 0.34224962486 
0.34135394415 0.34301685818 0.34152124529 0.34174523556 0.32106318473 0.32225529714 0.32247794475 0.32140150546 0.32767506063 
0.36186693328 0.31730811878 0.31898171216 0.33088200488 0.32954054034 0.31863186695 0.33981820109 0.34005905429 0.34845206943 
0.34782754828 0.42337813269 0.33342018361 0.33350069429 0.33267919112 0.33997099456 0.33985288303 0.35808376542 0.35960091528 
0.34911275684 0.32919320835 0.34156824226 0.34365987643 0.32864542021 0.32989228623 0.33070337342 0.32940402843 0.33831583427 
0.33779452592 0.33739018055 0.33252014786 0.33251462747 0.33281766402 0.31829100773 0.31735156406 0.30586274946 0.30897169158 
0.30475111692 0.33721954189 0.30960218344 0.32039454405 0.32350326659 0.33685605708 0.33501017999 0.337137057 0.23803043662 
0.32547961386 0.3242653843 0.32508841429 0.29311517847 0.32904030607 0.32968435155 0.32870025884 0.34099221774 0.34264439177 
0.33969612468 0.33379817194 0.33401625321 0.33361659067 0.3355564184 0.33359784075 0.31684870337 0.40721178795 0.37817228121 
0.36745749661 0.34462209143 0.34433700091 0.3422952124 0.3463209607 0.34396140145 0.3420954242 0.34486866152 0.3395599385 
0.32737941216 0.37238311516 0.32252517731 0.29971581267 0.30066778707 0.33113001873 0.33743031825 0.33750844671 0.35061622281 
0.3188923127 0.32054182108 0.32274110683 0.32423242205 0.34023866886 0.35325294941 0.38055071358 0.34103651026 0.34482262292 
0.34006993252 0.32653216352 0.32556523477 0.3257820221 0.34337382688 0.3446688238 0.3144688252 0.31825305079 0.34281957877 
0.3431818674 0.34319665488 0.33108045074 0.33072196858 0.32520657386 0.32483237572 0.32405687696 0.33315451178 0.3331410587 
0.33082899267 0.33107699116 0.33139013489 0.33337426068 0.3333603774 0.33338152093 0.34073811513 0.34080483952 0.34160844022 
0.30636022204 0.34265202636 0.34208471024 0.34243537335 0.34160026236 0.33652440908 0.33470205693 0.33292553315 0.33084548432 
0.32623902255 0.33252753623 0.32663790679 0.34939425826 0.34143934771 0.34153575869 0.34284179111 0.3419643952 0.34978876846 
0.35069934071 0.35062003099 0.32624974392 0.32716543308 0.32666400117 0.32756314937 0.32457904397 0.32452162548 0.32746337401 
0.33260358011 0.33568800884 0.32678701652 0.3275182804 0.3263653236 0.34349899873 0.33855599308 0.34206777471 0.33242946882 
0.33593770215 0.33110935541 0.33243661488 0.33601464111 0.33566312653 0.33616137741 0.34903350909 0.35076515168 0.35367549954 
0.32955242407 0.3050482105 0.29695285527 0.2980953042 0.33805524304 0.45021992618 0.40898398327 0.33533160884 0.33581638543 
0.33549140326 0.33426317557 0.33457093641 0.33435190582 0.32654229265 0.32390245974 0.33591469065 0.33886341785 0.33004741944 
0.32948938368 0.33341853783 0.33268710953 0.34227444535 0.34410362317 0.34391206056 0.3354816674 0.33332453975 0.32127211971 
0.32032805367 0.31987036141 0.34111297328 0.34254453014 0.34147304964 0.31545162163 0.31773138984 0.33340491423 0.3333604027 
0.33961627013 0.33577669735 0.33497403462 0.33572004826 0.3364422819 0.33708155865 0.33248005579 0.33146139037 0.32738523033 
0.33284871447 0.335547002 0.33513507322 0.33550331703 0.32473338088 0.32498314892 0.32486992589 0.3371394987 0.33495575957 
0.33431558257 0.3330012608 0.32742890097 0.33694541822 0.33649855923 0.34029811498 0.3218044429 0.32213625899 0.32786437226 
0.32043974267 0.31943424989 0.31993048254 0.34305406497 0.34302097648 0.33595127629 0.33453910487 0.34207596911 0.34144981554 
0.34134188907 0.338752706 0.34009145579 0.33972766856 0.33860555898 0.33424869083 0.33495213255 0.33591690637 0.31819280627 
0.35125788069 0.33508070313 0.33548362726 0.33065832349 0.33345338186 0.33127739445 0.330044854 0.3308286377 0.34335726752 
0.34588928926 0.343146152 0.34572540178 0.33335301607 0.33498159989 0.33700022266 0.33694439906 0.33802402295 0.342211459 
0.34042281313 0.34083686652 0.34224464711 0.3395979104 0.33805740124 0.33765503287 0.32623687628 0.32717564259 0.33997846378 
0.34265478105 0.34267365068 0.32101872817 0.31975934075 0.32852582824 0.3304931094 0.33022187543 0.32991627812 0.34544201494 
0.33142357955 0.33486278873 0.32249848373 0.34232268867 0.33808549352 0.33989307345 0.34287085076 0.34519344603 0.33399584917 
0.33440345594 0.33626539255 0.33574357771 0.33543775233 0.34533852147 0.33031180216 0.33889699299 0.33068003748 0.24490420099 
0.33215859514 0.33242688751 0.33226120978 0.34156641164 0.34084985628 0.34059659211 0.33971992808 0.33893971826 0.32550562576 
0.32734937376 0.32494413292 0.33832958817 0.33896454249 0.33874199225 0.3343040049 0.33280830047 0.34068736445 0.32939294782 
0.3283988875 0.33456283387 0.33465219236 0.35073025015 0.35138300342 0.3509400503 0.3514036122 0.33921145988 0.33958512389 
0.32540971459 0.32685300415 0.32590674443 0.35226304464 0.35203224034 0.35192500807 0.33035646851 0.33013567027 0.33627938004 
0.33620685788 0.32497365213 0.33392724484 0.33492056969 0.3368540421 0.33731544647 0.33605947242 0.33644299808 0.33660142181 
0.33703376678 0.3356077665 0.33501051498 0.33508748588 0.33526006133 0.33579696938 0.33529311884 0.33548212593 0.3333522292 
0.33339205048 0.34098553938 0.34189763524 0.30147598186 0.29716049754 0.33078634805 0.3310618209 0.32792497282 0.32644463032 
0.34950695564 0.35003279521 0.35029149538 0.35080927903 0.3466281642 0.34462848818 0.34573304078 0.34296907113 0.34003122155 
0.34109942988 0.32025731609 0.34094799042 0.34118123522 0.33997557768 0.34001879113 0.32020288743 0.34219820771 0.32871512171 
0.34298006302 0.34294569318 0.34211119889 0.34302828977 0.33845328688 0.33853512651 0.34431118223 0.34570402309 0.34127420205 
0.33889537994 0.33950835117 0.32517025406 0.31717157254 0.33110256956 0.34328506869 0.34287050021 0.33988914736 0.29920334363 
0.2996540428 0.33859210621 0.33777624249 0.30952051507 0.30567580321 0.30776887696 0.33974545778 0.34314448424 0.34324108578 
0.3427055271 0.3352102574 0.33570052728 0.34735987185 0.35159260841 0.32203973662 0.33306706575 0.33303123818 0.33288787012 
0.32631211166 0.32961131843 0.32976885102 0.32939420162 0.33501882059 0.28813630011 0.29427875985 0.34965911767 0.34881143065 
0.33431927277 0.31330753496 0.31600571142 0.31602467223 0.33281413837 0.33278846299 0.33301109318 0.33321901749 0.31886573105 
0.31904323019 0.33604628874 0.33551441776 0.34629953077 0.333318134 0.33327110633 0.32378718161 0.33330543808 0.34655072598 
0.3471589507 0.34743157291 0.35146913833 0.35127911389 0.35194720532 0.35188901381 0.31379208728 0.34328813506 0.34419841068 
0.33549793871 0.33596525762 0.33325794963 0.3333022326 0.33695063504 0.32452348137 0.32360304791 0.32366211616 0.32242427099 
0.33176156482 0.33222244866 0.32942016555 0.32869841303 0.32578522469 0.33753469524 0.33796150859 0.3394853299 0.3050764925 
0.30038432629 0.34304331295 0.32793379015 0.32703614339 0.32083028747 0.32783816132 0.32518782238 0.33086982 0.3474209688 
0.34778027919 0.33352963142 0.33365333019 0.33223009975 0.33270568478 0.32615886372 0.34330082316 0.31326526653 0.30687451129 
0.3160265067 0.33471624766 0.33508371942 0.33473500036 0.33509510407 0.33429086967 0.3343414969 0.33394794605 0.32920246035 
0.32801836299 0.3442909652 0.34211160406 0.32323215815 0.31978606545 0.32049810786 0.35154244692 0.33061481611 0.32978747537 
0.33007983653 0.30566349448 0.30196631857 0.30632044725 0.32096552978 0.33078809757 0.36047588859 0.32850728854 0.32873165297 
0.32546147567 0.33656407812 0.33684220155 0.32481552291 0.33824720351 0.33828045387 0.33227513828 0.32033548051 0.32202947339 
0.32501143448 0.3252935009 0.33116389856 0.333405228 0.33339010344 0.34135908282 0.29973037521 0.33154714442 0.36366562293 
0.33958125282 0.33850297676 0.33619416331 0.33363004217 0.33122626898 0.32412688562 0.32466797554 0.34014520355 0.31900007425 
0.33149665269 0.33132493276 0.33947072818 0.33344737451 0.34020250433 0.3417779349 0.34329530466 0.33156614324 0.3314345587 
0.32285645409 0.3302953565 0.33041086334 0.30208965842 0.34195897567 0.34383884066 0.34244560079 0.34389439616 0.32490378398 
0.32297399767 0.32817601582 0.33697935333 0.33642367886 0.4131682767 0.3647841509 0.35214736731 0.35047215379 0.32684669721 
0.3276861004 0.32663429903 0.33023890752 0.32947615756 0.33442468878 0.33717508781 0.31878691995 0.33183135459 0.32977170212 
0.3284476661 0.34193391399 0.33548357104 0.33580858136 0.30727227921 0.33610175796 0.30635256293 0.30485329967 0.33060814729 
0.33049422873 0.3292816645 0.32957538177 0.32993712526 0.32190597139 0.33811441069 0.33206016508 0.30172716382 0.34594027382 
0.34770330574 0.3423840874 0.32091577427 0.32270809219 0.32065592596 0.32258490745 0.32087212477 0.33596188994 0.32013709439 
0.34361202092 0.33275895496 0.3240225063 0.32181650798 0.32058629192 0.33092446638 0.33095818645 0.31262618356 0.32744304342 
0.32462425946 0.33825050884 0.32926503971 0.32342538702 0.32764259814 0.32884076898 0.29642646107 0.3242417524 0.32446995993 
0.32361269349 0.3277484634 0.333484775 0.33294445923 0.33291191989 0.33386416134 0.33462522837 0.33373567036 0.32028141044 
0.3214900521 0.32342427561 0.32254365532 0.35034312286 0.33858805853 0.34604273337 0.33863264326 0.34182000399 0.45662005881 
0.44336742495 0.33243197754 0.31384608173 0.33164914402 0.32700364443 0.32741744365 0.32894925893 0.30061495273 0.32094452873 
0.33107806835 0.32125861124 0.3484049006 0.33897909948 0.33824610083 0.33909700532 0.31385781321 0.30647806857 0.26298269861 
0.28877734163 0.29330411012 0.32628133481 0.31922049578 0.319930149 0.33298220865 0.29834335535 0.33956827908 0.33765460698 
0.33648157681 0.29566213204 0.30205139475 0.332968503 0.33302800062 0.33408068492 0.33387380849 0.32328240041 0.32340001789 
0.3417321888 0.30326001959 0.35102534484 0.33618067521 0.33582430686 0.33636250767 0.31529131205 0.32206733569 0.31707571539 
0.32417548668 0.32698134785 0.32576283582 0.32322833997 0.33346542795 0.3335331316 0.34071005217 0.33760402662 0.33839341386 
0.34015031745 0.34021770494 0.34248955587 0.37510912986 0.37135878971 0.3618050213 0.34630464976 0.34575149308 0.3468999552 
0.32598000107 0.32382032203 0.32222865293 0.30170800165 0.29554907361 0.29570900088 0.31772920324 0.32977204316 0.32857858954 
0.33460065593 0.3333262629 0.333369597 0.34329935457 0.34304976318 0.34296818753 0.34307846179 0.30840662078 0.30718056953 
0.32532866867 0.33197284873 0.32859135277 0.32963141136 0.33389625754 0.2950451188 0.30009963208 0.29499442118 0.30017345409 
0.31062208596 0.30945537422 0.33218008444 0.30830273752 0.30423730124 0.30681709024 0.32373965228 0.31955013289 0.32795144762 
0.31880485755 0.31838947845 0.32930754027 0.33526466241 0.33392291191 0.32159376147 0.33317999852 0.33430997386 0.33442472145 
0.33352086234 0.32247235334 0.3238053204 0.33214739382 0.32849583241 0.32809563332 0.32683493047 0.32464107226 0.32371428085 
0.32480330452 0.33471986996 0.33336515654 0.34335405043 0.30576003159 0.30556815495 0.3004811308 0.32563020803 0.33297980418 
0.33285960747 0.3012631513 0.29659911549 0.30158248673 0.34370895837 0.33680614641 0.35196875351 0.33781411586 0.34341955926 
0.33208949095 0.33063556816 0.31209306689 0.34788896019 0.34859940778 0.32798701512 0.32661899151 0.32070429187 0.32375728703 
0.32175363789 0.30097802611 0.30128530513 0.33192208185 0.32949389754 0.30109112192 0.29617276101 0.29581651293 0.33353501107 
0.33340702856 0.33385869426 0.32808893459 0.32784995224 0.30023134174 0.34506210461 0.33397930437 0.33011741562 0.33380332506 
0.33282407265 0.29795399307 0.3449636028 0.31352018971 0.31002486967 0.31393287076 0.31382926421 0.34222698379 0.34163599995 
0.31469795025 0.31066667159 0.33534549074 0.33692874444 0.3369683591 0.32231471565 0.32554992021 0.37813848359 0.39044608037 
0.34027278506 0.34005994577 0.33968408578 0.33923459059 0.34086424989 0.33716962984 0.34067423346 0.3313726479 0.3254663028 
0.3390926836 0.32982015225 0.32853065394 0.33532591692 0.32987642873 0.33472298166 0.33817513022 0.34150138731 0.32004372661 
0.32511347047 0.34614668484 0.33091461596 0.33064052596 0.3315439139 0.33276271453 0.32510087841 0.32714522187 0.35191725693 
0.33639618744 0.33600200584 0.33181910154 0.33754419038 0.35117998111 0.35205005374 0.34902762608 0.31679401297 0.34813093141 
0.34144604131 0.33606134026 0.33591014789 0.34385168573 0.32747382464 0.32806856667 0.32705734423 0.32777999506 0.32709254539 
0.3242226843 0.33369429651 0.33319844311 0.32398335116 0.33308270553 0.33328821646 0.33333056052 0.3332993605 0.33328409074 
0.33328844932 0.33332455472 0.33332514575 0.32843013699 0.32090275336 0.33332221827 0.33984378347 0.31238555761 0.3262061207 
0.32648436506 0.32148973389 0.32268475885 0.32065940298 0.34097499556 0.3416228567 0.33330413246 0.33331952745 0.33331546976 
0.31488661621 0.33334137745 0.33338349185 0.32425627139 0.32359256155 0.32448303829 0.32359660263 0.34548770178 0.33596440786 
0.3268369648 0.32811638801 0.32944098548 0.39401631135 0.3958612648 0.31605060149 0.32918439832 0.33146171444 0.33737541567 
0.33424140389 0.32094849254 0.32091512189 0.31890100614 0.3182511595 0.31170072201 0.34052006495 0.33335534681 0.31673470848 
0.31170125589 0.30773436546 0.30803217451 0.32131500157 0.33367946114 0.33383888515 0.33372228338 0.33391246236 0.32663400285 
0.31975102519 0.31812942543 0.31902931056 0.31637932186 0.3320054099 0.33204517561 0.33223880034 0.33229017159 0.31502193202 
0.31678736965 0.31604666664 0.33311425543 0.32823561974 0.33170940377 0.33441205696 0.33410000002 0.32912191293 0.32884517538 
0.33340602046 0.33352188179 0.33356713412 0.33234009443 0.33251847442 0.33293203238 0.33466607968 0.3343493855 0.33346065354 
0.34555656289 0.30863654416 0.36643917051 0.34402185523 0.34502897143 0.34350637419 0.33146320234 0.3392456452 0.33997048454 
0.33632553217 0.32822439239 0.32786316789 0.32893930952 0.33507255151 0.33220893171 0.30564001163 0.32131621738 0.29854222422 
0.30885889587 0.3451133076 0.34570396533 0.31624813464 0.32269226664 0.32763839257 0.32488961894 0.32425908595 0.32518314067 
0.33787001859 0.32480465832 0.32527575416 0.32574681269 0.32458045783 0.32798175132 0.37313186333 0.32372751349 0.32623070283 
0.34825747909 0.34765966853 0.32745488042 0.33029429595 0.35286627786 0.34841804782 0.34942559364 0.35015959924 0.3762196075 
0.37963833377 0.34276188149 0.33683338941 0.33756672351 0.33733224682 0.34272157461 0.33132158604 0.34756945344 0.34894105888 
0.33046323235 0.34701946747 0.33324102049 0.32193875232 0.32254202671 0.32380694603 0.32457183979 0.32550260084 0.32673654908 
0.36314880285 0.34526168445 0.34710407718 0.34767882904 0.3332570302 0.32361286202 0.34002887762 0.33976878102 0.32751459643 
0.32606136275 0.3339006372 0.32411746544 0.32531221426 0.33495144132 0.33432934977 0.33367800026 0.33230296167 0.33559831164 
0.33324704017 0.33304529645 0.33311925862 0.32881945972 0.32968920153 0.3247586778 0.32609450508 0.32936327204 0.3259277189 
0.33334107872 0.32516211789 0.32966523338 0.32369674536 0.32210376902 0.3318197933 0.32698277073 0.32727275235 0.34853227475 
0.33504380506 0.33626347733 0.33849189787 0.32579653843 0.33329411919 0.33554599002 0.3314697704 0.33264449128 0.3288427877 
0.33335516067 0.33336224116 0.33077972956 0.33461952032 0.326348851 0.32670792407 0.36253471945 0.32843349506 0.34974909688 
0.34895187559 0.32583888697 0.32196496296 0.33673029874 0.33466173401 0.32662439511 0.32552975764 0.31375086484 0.35678502378 
0.34191140461 0.3397885699 0.31785959894 0.32539424167 0.32555332924 0.3266976857 0.3339171149 0.33376904892 0.33395768737 
0.30030541049 0.33316613623 0.33323706934 0.33315609531 0.33329907098 0.33330609272 0.33324334425 0.34303235081 0.33084969058 
0.33248998648 0.32577763423 0.33161659582 0.33447960758 0.34070249749 0.32884536797 0.33434425171 0.33318403283 0.32594021824 
0.3334717258 0.33343167183 0.33339103688 0.33894210378 0.34138877965 0.33845533146 0.34530575784 0.34183634482 0.36969081551 
0.37906542304 0.36874719767 0.33440054522 0.34186504317 0.34269986399 0.34292299509 0.34296316618 0.32448419774 0.3237106658 
0.32172555366 0.32495638328 0.34106907103 0.34192283951 0.3424479073 0.34188959248 0.32402797481 0.33335048432 0.33334855309 
0.33344413692 0.34571340673 0.34553518122 0.33437298339 0.33439603348 0.33473927167 0.32353318058 0.33410361957 0.33415761525 
0.32279899875 0.32091402147 0.34958363319 0.33330321923 0.3332648472 0.33379497277 0.35037317255 0.33341521362 0.33421378384 
0.33463697041 0.33295586437 0.33366024563 0.33337200293 0.33352156331 0.33948009405 0.33924799733 0.33054002 0.33332227112 
0.33290683431 0.33338700024 0.32787193131 0.3316729241 0.32855413422 0.32526601611 0.33304049059 0.33071165553 0.3334029963 
0.3238730177 0.32654915469 0.32682134219 0.32822497444 0.34307815229 0.34338509136 0.33155885598 0.32862811834 0.32877068923 
0.32593008552 0.33211759257 0.33020040407 0.33300734943 0.33997360628 0.3426021793 0.34296423112 0.31713986809 0.2936184093 
0.29482399376 0.33311700441 0.33328902205 0.33325419847 0.33317550078 0.34035945834 0.34302610443 0.34318724235 0.34000764253 
0.33329426157 0.33198504357 0.31866806567 0.32113643055 0.32269755343 0.32449031098 0.32301956113 0.33633179908 0.34270214175 
0.34248869951 0.34289707256 0.34252050416 0.32197395372 0.3229596067 0.34166519463 0.30451625618 0.35086317517 0.32405156629 
0.32439723596 0.32996302524 0.33427551487 0.34341653218 0.29916013762 0.3434850618 0.34316702896 0.33521569592 0.33507049362 
0.33294345245 0.33734483527 0.3499511442 0.35057939886 0.34243345782 0.34345538387 0.34771211486 0.34869870181 0.33747564237 
0.3426287175 0.3335857527 0.33427601848 0.33673528624 0.33601560326 0.33571844887 0.3382377789 0.33639720843 0.34463560194 
0.33865843742 0.34271427639 0.34527606872 0.34445290386 0.34986285413 0.35168171908 0.35110241649 0.35146943802 0.3394615455 
0.3390694901 0.35014735782 0.35068693721 0.3511190306 0.35162733076 0.34730595963 0.34886481221 0.34725417713 0.35178427022 
0.35204807135 0.31737683144 0.34181810662 0.33308897222 0.3175365327 0.34155750078 0.34218237557 0.33600512884 0.33499745768 
0.33538405771 0.33505687337 0.32740783183 0.32911762288 0.33483836045 0.33333200081 0.33240858784 0.32102300454 0.32239900869 
0.333640763 0.34145205493 0.33256160989 0.31446895156 0.31080977071 0.3361395586 0.34904980423 0.34793433184 0.34971386829 
0.34879937228 0.3026345993 0.3382827541 0.33734105854 0.33728558672 0.33471528914 0.33750563951 0.33288359772 0.33210494053 
0.33741356483 0.33473128931 0.33983968379 0.33187358006 0.33211259349 0.34048510318 0.34542901075 0.33441050804 0.33471426211 
0.29596692963 0.33344582605 0.33336888708 0.33868849184 0.32222933197 0.32332319311 0.32221600368 0.33592011469 0.33408747443 
0.34041994902 0.32915879189 0.32886560443 0.33912375835 0.33882983206 0.33229738218 0.36276671928 0.33174965733 0.33173782756 
0.33139817054 0.33338939833 0.3318844835 0.33775798089 0.34325966179 0.33337004347 0.33202113484 0.33183412716 0.33329667175 
0.31991994302 0.35473927018 0.33336901167 0.33408905416 0.3340017028 0.33747644682 0.33697969757 0.33681864222 0.33635837618 
0.34290959737 0.34293384973 0.34265364745 0.30814447827 0.33924467025 0.34762121594 0.3430180724 0.43009672393 0.34540972467 
0.33089261898 0.3237905197 0.34238181798 0.34244612761 0.34391331144 0.35200300439 0.35154561261 0.35088100299 0.3507030625 
0.34199554322 0.3089024077 0.32987899989 0.34941011847 0.33420738219 0.33780929143 0.34785147023 0.34214815054 0.34112730821 
0.33717997102 0.33833170086 0.33730787028 0.34054815345 0.34308309692 0.3434361056 0.34332931243 0.35447458338 0.35588753114 
0.32745803712 0.32642980713 0.32664132325 0.32797407005 0.34133809733 0.34528245787 0.34365741269 0.3349055276 0.32795396376 
0.32824490489 0.33188960004 0.32531506856 0.32507050769 0.32414901638 0.33369992631 0.34616788513 0.33988168039 0.3416214317 
0.34622725539 0.29653004539 0.33114919364 0.34903875337 0.3125633611 0.37171954498 0.33460786241 0.45519256124 0.34748928433 
0.34506895578 0.34191197737 0.34685366272 0.34199328471 0.34301098514 0.32904796359 0.32943427194 0.3313171783 0.32529296614 
0.32497556414 0.32790412515 0.33086096545 0.33110492298 0.3268853493 0.3283319171 0.34360556463 0.32094709983 0.33378731294 
0.33363243 0.32083839038 0.31915467499 0.32079722269 0.34351672665 0.30257956455 0.34384920567 0.33203431774 0.33073777349 
0.32907230845 0.32465908211 0.3406907589 0.32264061506 0.32108219732 0.32291317132 0.3234081561 0.34955395935 0.32432041473 
0.34901688557 0.34250216826 0.34471449365 0.3325172001 0.33310966048 0.33322136234 0.33312233952 0.33297361333 0.3318792776 
0.3317943933 0.3212056088 0.31068991216 0.33136144727 0.29857125342 0.33201729486 0.33222191422 0.33217736665 0.33180447972 
0.33330622789 0.33323233802 0.33351319381 0.33267865136 0.34187905802 0.34279419557 0.34225858157 0.32604587594 0.32599575201 
0.32904345634 0.31132083023 0.32394337594 0.33452056559 0.33423248272 0.34970128021 0.32421045314 0.32279809418 0.32975823409 
0.32942749894 0.3209740629 0.31471368269 0.32133433691 0.32430000697 0.33423203779 0.32854521369 0.32799544291 0.32796108665 
0.32681845255 0.32339613451 0.31457297858 0.3305400617 0.32751469738 0.3380655142 0.32719477551 0.3468579532 0.33002097988 
0.33216714513 0.33869914632 0.34967335799 0.33019554848 0.29046171761 0.33267933391 0.3428295628 0.33463822071 0.33470403126 
0.33438226835 0.34017375027 0.32856401867 0.31328536344 0.31975730559 0.33234009054 0.33412640592 0.33426410142 0.33973929877 
0.34184006783 0.33716079041 0.33515117685 0.33407650722 0.33557306194 0.33684445946 0.33389226938 0.32939372431 0.33040987681 
0.32882642588 0.32647433622 0.29038088701 0.35008023217 0.32885398829 0.35077207883 0.34771548791 0.33865163321 0.33795663134 
0.33337300157 0.32923038055 0.31985858611 0.33375155028 0.33897641898 0.3373715769 0.33667065709 0.33951865959 0.33336330942 
0.32309934845 0.34058866978 0.34005767405 0.31949662925 0.33313860679 0.33446897824 0.3305496009 0.29523504557 0.32744855219 
0.33582646382 0.33590528798 0.35662892037 0.31897000622 0.32111193581 0.28805272072 0.36536438526 0.33346064157 0.38921990896 
0.40122778797 0.34575177027 0.34730683312 0.33294983315 0.32097003109 0.33361481534 0.33331606592 0.3336235218 0.33357231917 
0.33292394679 0.31907120105 0.33251426612 0.34554638473 0.338488901 0.35430939261 0.35224558078 0.31653007919 0.30516812636 
0.35256499524 0.35039403608 0.33057008038 0.32738736354 0.33224503183 0.33346334082 0.33355912491 0.35603145559 0.31594214661 
0.33732364263 0.33272042657 0.3287051343 0.32807529479 0.33339939857 0.32798215883 0.32752686376 0.32723590412 0.2917748618 
0.33093103524 0.28792088896 0.33330606092 0.33332931557 0.31726793681 0.33803401435 0.33676630763 0.33880968338 0.32442562977 
0.34835488353 0.32578733954 0.3159907113 0.33856262623 0.350925649 0.35143914442 0.35065500223 0.31727053028 0.3386784124 
0.34809406248 0.32730269854 0.33337401457 0.36353698692 0.34533907799 0.32499982179 0.32536783901 0.32619173112 0.31812471105 
0.31128348806 0.32655394684 0.34910875927 0.31899642829 0.34834971873 0.34087406054 0.33456167689 0.33435641021 0.34978414651 
0.31761958887 0.30652456107 0.33332600208 0.34817378059 0.3489391589 0.33335727749 0.33333134511 0.32212082975 0.33509026944 
0.34031307521 0.34399376614 0.34298188744 0.33330506734 0.33327701645 0.3332511652 0.32411424728 0.31903733535 0.32623953518 
0.33182045153 0.33213800847 0.32931144195 0.3322733651 0.33079861206 0.33373953125 0.33462872356 0.33266214154 0.32938525625 
0.32649571044 0.32707740228 0.33237794895 0.32609737574 0.32087100332 0.32832717105 0.32757468665 0.33333457783 0.33334254462 
0.32942676998 0.32607006747 0.33337024541 0.34293750082 0.34259095075 0.3420966746 0.35011923933 0.35783271337 0.33403937976 
0.29962128774 0.30398137528 0.34407781972 0.33330939861 0.39236509332 0.30325895658 0.33395798677 0.33574242096 0.33979979891 
0.32236535326 0.32285825503 0.31861844006 0.33589284131 0.31002375634 0.33974980667 0.33997759461 0.32859216813 0.32974231088 
0.34189388091 0.3425237443 0.33050988297 0.33000207285 0.33036740401 0.33487247993 0.33612679989 0.32744968236 0.33292502852 
0.3320673359 0.31870250981 0.33488009921 0.3327377705 0.29566352643 0.31715146696 0.31560311566 0.31692936031 0.33021786186 
0.33306490736 0.33405230913 0.3346806571 0.33478187884 0.3386739417 0.33004837179 0.31385570162 0.30169649813 0.33025478958 
0.35123114895 0.32488289168 0.33488810916 0.31892668587 0.34507600178 0.33329000314 0.32345206193 0.32454825281 0.30078305706 
0.32521893184 0.32947253348 0.32475488905 0.33294964115 0.33247921251 0.33193113741 0.37689504405 0.31888666401 0.33105627183 
0.32436768803 0.3479748535 0.34792491306 0.35124427875 0.34073107236 0.35407707836 0.35766363404 0.35732883169 0.34038688479 
0.3305992001 0.32774899118 0.33548283991 0.34395610398 0.31716151302 0.33648942781 0.33891264028 0.35344639882 0.31849096865 
0.3644499448 0.33317501154 0.33197651389 0.33186950811 0.32564979731 0.34901283646 0.34168672621 0.34032500447 0.34259200576 
0.34321903526 0.32274276979 0.32366031224 0.28966003878 0.33426571506 0.31346082653 0.33494261385 0.34375484244 0.32402320348 
0.35072524956 0.34337227527 0.31527021649 0.30995610984 0.31472564644 0.31498220787 0.32681033637 0.32787397955 0.33238704128 
0.33278174092 0.3267524146 0.33361264594 0.33387009349 0.31728086672 0.32565657758 0.34963369098 0.33937557524 0.33747533312 
0.36484150983 0.35352242935 0.33833487797 0.32993154477 0.32951338548 0.33134195824 0.32525234594 0.3457145501 0.32561736366 
0.32653527384 0.34455261134 0.32761967421 0.33201773479 0.33230807298 0.33350731361 0.32014439418 0.33203874937 0.3287805803 
0.35074183533 0.30538009606 0.34103127262 0.32484741306 0.33238525227 0.3391103427 0.3401638495 0.33938440875 0.33530951461 
0.33834409665 0.33513354668 0.33456400009 0.328984549 0.32468423317 0.33019061149 0.32602725402 0.33275354156 0.33629540694 
0.33955089248 0.33955789042 0.34160612189 0.33123012076 0.33296306526 0.33395244347 0.32917239452 0.31740862225 0.34028506392 
0.33355158214 0.34115311955 0.3331364233 0.33012800267 0.32621036351 0.33498001554 0.33766609843 0.3354353453 0.34202586511 
0.31285469984 0.33715668697 0.34197185813 0.34122316934 0.34379132739 0.3219155053 0.33988105433 0.34755019068 0.34908157139 
0.34942594894 0.34876991275 0.34290149714 0.34291424644 0.35199837236 0.34440674158 0.33984799759 0.3386665591 0.33564166512 
0.33840361486 0.33336513401 0.34781263835 0.34339438913 0.33333500153 0.32566360689 0.33014294887 0.33329009199 0.31703605866 
0.33335442086 0.23951958965 0.33152038691 0.31233162702 0.28890693836 0.33115132173 0.34185699388 0.27724900821 0.32859809368 
0.33212541768 0.33337307824 0.32724647326 0.32586525301 0.32631773704 0.32799225686 0.35252217375 0.33803367426 0.32931116992 
0.33252409871 0.34893909525 0.33125979267 0.34198965664 0.33866339675 0.34721646926 0.34604422376 0.32581499649 0.33808803276 
0.33685932774 0.33548515437 0.31904113884 0.33122179742 0.3346222619 0.33058837849 0.32539071128 0.33523240614 0.33259294013 
0.34104687477 0.33888050856 0.34308532017 0.32505221315 0.33201336612 0.34092509163 0.34024473444 0.33295623858 0.34308153161 
0.32558195516 0.34319002083 0.34347001566 0.34934098905 0.32431027583 0.33982091401 0.32997562426 0.34152644493 0.31913060289 
0.32225912388 0.33404766207 0.33651214825 0.35030921541 0.35052034001 0.3604130862 0.33336233579 0.33729823838 0.33053070558 
0.34019950693 0.34694666153 0.33832199122 0.32993082007 0.34392382091 0.33694726729 0.33733942901 0.337474444 0.3382517484 
0.34216662342 0.33428728039 0.34287683212 0.33802186286 0.34080204172 0.31148903952 0.31979984362 0.34321600081 0.33364370743 
0.33303085023 0.30856848949 0.31402291851 0.33510210157 0.33506027249 0.32775564599 0.33254821731 0.32992481861 0.33638409254 
0.3180586006 0.29175926272 0.33376174421 0.31486456654 0.34230942739 0.33520601594 0.3279949973 0.32673605609 0.33361092272 
0.337634546 0.30620729395 0.33333318417 0.33708893954 0.33327200922 0.33300107721 0.29549224002 0.34695287758 0.34759721649 
0.32042712473 0.31690887847 0.33510362051 0.33338339459 0.31637905021 0.33309561135 0.35791861828 0.33216426603 0.36518896385 
0.35094387214 0.33362863339 0.32867445849 0.35113656812 0.32518494662 0.32757571617 0.31256625843 0.31707856853 0.340115874 
0.32896338768 0.35260629537 0.36523666901 0.34586911161 0.33396888222 0.32402131174 0.33901473088 0.33281310387 0.33155406823 
0.33394299815 0.36671859021 0.32485980071 0.32153063387 0.37640390051 0.33822656003 0.419502906 0.42231708506 0.38826940065 
0.33338423115 0.33225701482 0.34278200311 0.3269884927 0.33385561943 0.34219205073 0.33372702945 0.33358324433 0.33351300243 
0.32948589297 0.32811284575 0.3416082398 0.34296023907 0.34317047099 0.31738587621 0.32349925438 0.34803642104 0.33352398275 
0.33354955797 0.35883761652 0.33804252026 0.33778211725 0.33376027466 0.31947354888 0.33502231097 0.33646919089 0.33416811222 
0.34624395796 0.32924568109 0.34000848179 0.34529789743 0.31970015 0.33527108714 0.32053520374 0.32529019594 0.34134145285 
0.33645786461 0.34147196798 0.32715793171 0.32451672347 0.33380099181 0.34613679906 0.35176140312 0.33632173554 0.3429823682 
0.30374006439 0.33331139146 0.2979121646 0.34419338535 0.32450697921 0.32439342848 0.3291582866 0.330265904 0.33525156059 
0.31941164269 0.3250129021 0.34198969626 0.33318123875 0.33346581956 0.33646298511 0.32928761353 0.3140380779 0.34017528125 
0.33460568787 0.33952086428 0.34433298993 0.33730562915 0.33294820434 0.33306849168 0.34563137306 
Intermediate%20Principal%20Stress 1 12526 double
0.41352512151 0.49621197167 0.4365179452 0.60294292524 2.9513447324e-05 4.8499041176e-06 1.809040267e-05 1.0182156233e-05 -0.0048946734041 
0.0043247106019 0.068282514249 -0.012160973521 -0.0043446517848 0.016481684314 0.057205577888 0.0092921299517 0.17219786339 0.17884644536 
0.1737802794 0.16523278549 0.17811264016 0.18524482112 0.18526606218 0.18538424571 0.18538196773 0.18473553934 0.18590477645 
0.18682257763 0.18752067778 0.18740030017 0.18849268752 0.18773228363 0.18691251146 0.18574676717 0.18382983714 0.18331304875 
0.18302571942 0.18117938754 0.18072476867 0.18087728252 0.18554384039 0.19624217118 0.18407671818 0.19217327511 0.22627233952 
0.21923473708 0.20177748924 0.18577468957 0.18264368901 0.18378228388 0.18578938545 0.18590713379 0.18684001821 0.18929062114 
0.18936706589 0.18919343019 0.18975426346 0.18822859139 0.18766964017 0.18776105056 0.18674713504 0.18452415366 0.18436724343 
0.18244104818 0.18296824771 0.18472943416 0.18920578598 0.19553053914 0.18165235681 9.2667673148e-05 3.2967020604e-06 4.2824225384e-06 
4.8191731387e-06 4.1220515531e-06 4.1897578369e-06 4.141584455e-06 3.0235378051e-06 3.779497335e-06 -1.5492879535e-06 -3.4108886412e-06 -6.3812982192e-07 
4.4124905018e-07 7.7851164895e-07 7.0670330452e-07 8.9260586977e-07 1.4310256281e-06 2.9129736663e-06 1.4122847651e-06 -9.4671322955e-07 -5.4232628825e-06 
-5.0864558264e-06 -3.3120556871e-06 -2.5671737455e-06 -2.1333155619e-06 3.372895457e-05 8.6626400527e-05 -0.047722600934 0.00089464027676 -8.5480245471e-05 
-7.9017444872e-05 -5.4967611249e-05 -3.3986449498e-05 -2.8619885258e-05 -2.1319142728e-05 -8.8404835676e-06 -1.0677134858e-05 -1.1288922007e-05 -1.7018006679e-06 
3.4759838024e-06 5.1062000971e-06 7.5519558198e-06 7.8648824923e-06 8.1331819535e-06 -7.2987321209e-06 -1.0701520203e-05 4.605029865e-05 0.00019892421562 
0.00030062660714 0.00031454155216 0.00024146751126 9.7867745367e-05 1.4329676542e-05 1.3804181965e-05 1.3521134518e-05 9.8733111485e-06 2.277883468e-06 
-8.8143141869e-07 -1.8767204725e-06 -1.3785454514e-06 -9.8445435865e-07 -4.9496406087e-07 -1.5399474026e-06 2.2186298231e-06 4.3742511272e-06 8.775617256e-06 
1.1856083246e-05 1.5502419593e-05 1.8928451766e-05 1.9074971113e-05 1.5544293811e-05 8.8926249385e-06 6.210982612e-06 2.4084035356e-05 1.2811590431e-05 
1.5885466867e-05 1.3724194079e-05 1.2696193946e-05 9.36104485e-06 5.6003060568e-06 3.5595888842e-06 2.6086323204e-06 -4.3374405242e-07 -4.0569761266e-06 
-2.9781066121e-06 -1.0945991314e-06 -3.7648224153e-06 -1.4525994146e-05 -1.9181620335e-05 -3.3209031946e-05 -1.5078722778e-05 9.0978736291e-05 0.00016560249842 
0.00022683047991 0.00024155053939 0.00010830829534 0.00011282939102 5.2718814774e-05 -1.7259635013e-05 2.6562600367e-05 -1.1792076049e-05 7.5941446654e-06 
-2.0481778991e-05 -1.1160397068e-05 -6.619498289e-06 -1.610914554e-05 -1.4182374269e-05 -1.1099435452e-05 -1.7510632209e-05 -2.2314423354e-05 2.5233451004e-05 
6.3712597322e-05 0.00012582785535 0.00013056428046 0.00073842921999 0.00481252757 -0.0373470311 -0.021150615821 -0.033806331505 -0.0021216535693 
0.0025622158726 -0.0038823834973 -0.0018740101219 -0.0052589100062 0.009988187512 0.040009433181 0.041539063052 0.041042954257 0.026465435716 
-0.034016946774 0.0042406839253 -0.01266497721 0.0029998505357 -0.0046456031685 -0.0058589329059 0.017659356429 0.024583464727 0.038775592319 
0.042410523628 0.052332560608 0.041737694575 0.0038741169878 0.0043217948354 7.4948654921e-05 1.016087257e-05 -2.2569844055e-06 -1.4910409919e-06 
-2.7238426207e-06 -3.7146754294e-06 -3.9633003651e-06 -4.2395079724e-06 -3.0310653684e-06 -1.2996467083e-06 3.080765967e-06 -4.4107077768e-06 1.2400170847e-06 
6.3872122709e-07 -1.2742108263e-06 -1.4753441406e-06 -2.6452083997e-06 -2.1335009966e-06 -3.1538361848e-06 3.1134165549e-08 3.5259872159e-06 4.3624549956e-06 
4.4652219209e-06 3.1073073521e-06 3.9959797842e-06 1.0206258883e-05 0.00012031529061 -0.15091640367 0.0091019264978 0.00063953681852 5.8560293612e-05 
3.2651409503e-05 2.9394053326e-05 1.6087180356e-05 6.2154590314e-06 1.3289615637e-05 2.1955834841e-05 7.3001432356e-06 8.3178137448e-06 1.3740942123e-05 
1.4320504767e-05 1.861659775e-05 2.3426979232e-05 2.4958019913e-05 1.7932152687e-05 8.3812387839e-06 8.0800478906e-06 9.1944710997e-05 0.00021954741066 
0.00030234931431 0.00031454098222 0.00017793512795 4.770247557e-05 -8.4457995446e-06 -3.0961800488e-06 -3.1598028984e-06 -5.2567411105e-09 2.2384778177e-06 
3.1123459363e-06 3.693386749e-06 7.8123179508e-06 5.9221082131e-06 3.6436263175e-06 2.4473428746e-06 6.4674276835e-06 1.2145247048e-05 1.4331919559e-05 
1.6934344859e-05 1.9676674645e-05 1.9973161917e-05 1.9160305151e-05 1.7964708005e-06 1.2655535703e-06 1.5697203774e-05 1.5066757801e-05 1.3386103442e-05 
1.0119776544e-05 1.0033364549e-05 7.9264917374e-06 6.7438154412e-06 6.8338818747e-06 1.2192538799e-05 -2.3543005655e-07 1.0697654299e-05 -4.2092296381e-06 
1.0080682255e-05 5.7295837894e-06 -1.4412421571e-05 8.5790022689e-06 1.8194041339e-05 4.6210335743e-05 5.5642766368e-05 0.00015718374232 0.00012932958498 
0.00029738989276 0.00021068673255 0.00022834763784 8.3015211538e-05 -3.5622082058e-06 -3.0406220028e-05 -2.2035149662e-05 -9.9421142861e-06 1.1107960861e-05 
8.0745613378e-06 9.8414764446e-06 1.1820306209e-05 2.4836720989e-05 1.4186976637e-05 6.2871988178e-06 3.7373819497e-05 -6.1846618923e-05 -1.3344016492e-05 
-4.4994935838e-05 -9.7472635891e-05 -0.00024106153548 0.00083605054189 -0.095935019054 0.0096122910674 0.050808341154 0.042252498418 0.038914247233 
0.04439971807 0.044773582168 0.04233023697 -0.0062150081762 -0.0045056100184 -0.0043844897042 -0.0036939217475 -0.017945822415 0.012074368332 
-0.030621564865 0.008424529645 0.051428731707 0.04106903496 0.041198021183 0.042632119807 -0.0083890757181 -0.0050726140974 -0.0024592884261 
-0.0026695236465 -0.00063263900045 -0.043158995774 -0.022609827946 -5.7944046677e-06 -1.7653419649e-06 -2.9044449477e-06 -8.4623545627e-07 -2.3793147828e-06 
-1.8160326967e-06 7.2661993961e-07 -2.3918428353e-06 -2.1784619731e-06 4.5321422099e-06 2.1301126811e-07 4.5050797186e-06 1.653997849e-06 5.1510712544e-07 
6.1999384568e-07 5.695429177e-07 -6.1033915039e-07 1.2128682009e-06 1.2485114095e-07 1.0316040239e-06 3.6999812632e-06 1.7916838499e-07 2.2204604672e-06 
-8.1981893011e-07 -1.8069427889e-06 -1.7917356479e-06 1.1682435599e-07 0.017300818203 0.0048202954594 0.0025857013171 0.00152752648 0.0010104180541 
0.00062117122152 0.00042776254234 0.0002844150555 0.00016153398323 0.00012232594473 0.00010940202528 0.0001265475956 0.00016300624243 0.00024824489033 
0.00035652433389 0.00043881552951 0.00044464226673 0.00034017045125 -3.5634846468e-06 2.4908983891e-05 -2.8615084993e-05 -1.237730504e-05 -3.7725175794e-06 
-1.3831746952e-06 -7.3986030615e-06 0.00027516172372 0.00056236376013 0.00058605190328 0.00050143256629 0.00037753017933 0.00027816361387 0.00017801740965 
9.9152324697e-05 4.5154342946e-05 8.4716381225e-06 -2.3882344472e-07 8.782680663e-07 3.3291801781e-06 2.3757928468e-06 2.0340444245e-06 8.931592039e-07 
-2.406991678e-07 5.9431688062e-07 8.5213190243e-07 -4.9223965562e-06 -1.2815175784e-06 -1.1075768084e-06 -4.1374458904e-07 -1.3884525157e-06 -1.0376340162e-06 
-5.8846285025e-07 -2.4578805361e-07 2.1436288175e-05 5.1178363906e-05 0.0001060842336 0.00016412091475 0.00025614358512 0.00034494270685 0.00045365548394 
0.00050254812189 0.00043658467766 0.0001632245192 -1.3586563243e-05 1.9395871772e-05 -1.4309556983e-05 -5.3366993406e-05 -2.1719515028e-05 -1.2145953823e-05 
9.1352883659e-05 0.00036211204354 0.00041592348524 0.00033162439448 0.00026489201239 0.00020159515451 0.00014442010796 9.8826982382e-05 9.5480061798e-05 
0.00012053502889 0.00020157242032 0.00029664353965 0.00045495466973 0.00063369774963 0.0010837415631 0.0015598355702 0.0025004625517 0.0043371309848 
0.007476512576 0.054387685077 0.060824372026 0.069015646383 0.075662310214 0.080402462969 0.086397188839 0.088993883018 0.091879007508 
0.094624838317 0.095389082648 0.096590444308 0.097639725315 0.097727339839 0.097122596792 0.096776985054 0.095765591595 0.094091052727 
0.092943136896 0.090527683487 0.08744650416 0.084231414266 0.079496541746 0.074132637552 0.066324804057 0.053188965577 -0.028461785616 
0.023751417863 0.03379540112 0.037200216703 0.039948659658 0.04053213879 0.040374545731 0.039514906918 0.039953563297 0.040186395276 
0.039666817488 0.036145061991 0.025174159785 -0.023079377565 0.018578582241 -0.0033045739197 0.023827439537 0.038622859891 0.03825577977 
0.038441131912 0.038532990318 0.041518682372 0.041476286414 0.04095210532 0.039593405879 0.037803923597 0.033496860013 0.018750857983 
-0.030167210977 0.016787957842 0.011790854894 -0.0017770990684 0.00024804935895 -0.0025210904352 0.012872835561 8.0271906386e-07 2.0484006922e-06 
1.4835435917e-06 1.2004318949e-06 5.008370118e-07 1.2643192276e-06 -8.1910917983e-07 -4.273630922e-07 -1.8648361564e-06 -8.3630291547e-07 -2.534564287e-06 
-9.0900453806e-07 -1.4091857997e-06 -6.9285047668e-07 -6.0542757875e-07 -4.3180205956e-07 -3.0278639391e-07 2.3229398029e-07 -9.0798361955e-07 4.2001490267e-07 
-6.8382529329e-07 1.3329005333e-06 1.4928792617e-06 -1.9984137532e-07 0.035601865646 0.038234103995 0.01464308425 0.0090309573443 0.0060747953427 
0.0042601709726 0.002791840497 0.0018164676405 0.0012518908887 0.00090203055493 0.00071529885382 0.00063951635146 0.00074599470004 0.00094388965695 
0.0012235037458 0.0015813772913 0.0018211356419 0.0017667907837 0.00088373946559 2.6221607195e-05 -1.7652865783e-05 2.7413127007e-05 2.7445100129e-05 
-2.4147373408e-05 5.7764162228e-05 0.00035483625978 0.0017087099742 0.0021233361605 0.0020680340793 0.0017528860159 0.0013321777228 0.00090227114479 
0.00056722708655 0.00033661786007 0.0001591476528 2.3274642478e-05 3.3157933781e-06 2.6961360781e-06 -8.3341598206e-07 -5.2359177886e-07 1.4566557717e-06 
1.6768601782e-06 1.8769139699e-06 7.1037029718e-08 -0.0001638903365 0.035441563755 1.2251828896e-06 1.6271503858e-07 -9.8869626144e-07 -3.1260036927e-07 
-1.1966612001e-07 -1.2546463873e-06 4.6623427917e-06 6.0864620054e-05 0.00018667792148 0.00037135137541 0.00060060721766 0.00087047240281 0.0012102340097 
0.0016425499781 0.0019663279846 0.0019220404173 0.001199637367 1.1516507114e-05 -4.2962397421e-05 2.1877179205e-05 -4.4489668958e-05 1.81430419e-05 
4.7034441354e-05 0.00013569090504 0.0012736797632 0.001539932816 0.0015092075148 0.0013049573977 0.0010070501822 0.00076014071751 0.00063453482086 
0.00061516438516 0.00071936091162 0.00096167783308 0.001379084785 0.0020037398641 0.0028640137606 0.0045803102808 0.0066561456224 0.010307833929 
0.017729297223 0.053005464708 0.070642338916 0.076356235149 0.080853389134 0.084270163804 0.088457493697 0.091736591827 0.094459970206 
0.096026174955 0.097393871791 0.098330501044 0.098159654657 0.098122878128 0.096809296098 0.095340626594 0.093445577632 0.090893463802 
0.087354190928 0.082746369915 0.076602777258 0.069431534799 0.05958331052 0.027143621996 -0.00049100791179 0.015015891171 0.039734411685 
0.041243700176 0.042000487939 0.042581265352 0.042915466746 0.04224912779 0.040102082247 0.035233172247 0.027010007968 0.012992325203 
0.012239858398 -1.4275625539e-05 0.011539882421 -0.0001568677016 0.013382465634 0.038113150996 0.041828287978 0.043647258604 0.043880475 
0.043151318069 0.041104632748 0.037798999179 0.031634292658 0.02198302137 0.012129125688 0.0099154342975 0.022764371559 0.031855061472 
0.00015977638769 5.0588107879e-08 -0.00013957617033 0.0018649177932 0.0082249271322 -1.6915521043e-05 0.031613793815 2.3936107118e-07 8.5003268468e-07 
-2.3625270667e-06 -4.365823279e-07 -1.0323500428e-06 2.5751767415e-08 7.5071063257e-07 2.6653312045e-07 5.2605814573e-07 -1.7830641698e-07 6.0472162888e-08 
-4.7728955084e-07 1.695999837e-07 3.6966526006e-08 -6.6450615912e-08 -4.7409521233e-07 -4.6043031856e-08 2.3431529476e-07 8.1419797436e-07 2.3453041014e-06 
-5.3324148642e-07 0.029836702177 0.026300387649 0.023901805156 0.016756497618 0.011922177875 0.0085177341979 0.005637663162 0.0038289476265 
0.0028300988251 0.0021369470204 0.0017630909066 0.0017346360507 0.0019549652323 0.002409918627 0.0030253730929 0.0036177190936 0.0040387477522 
0.0035329327381 0.00073000608132 -7.2710074037e-06 9.6056209019e-07 3.5104121726e-05 -2.5828611721e-05 1.2405133754e-05 -7.4978554821e-05 0.0026429163407 
0.0041269242524 0.0043356014748 0.0038247646983 0.0030429380174 0.0022691755775 0.0015501102742 0.00095917302583 0.00053318812038 0.00020690370676 
-5.0019877398e-07 -1.0187073207e-06 -5.3407437298e-07 -4.4439312864e-07 6.9467001378e-08 5.1706611878e-07 1.1963220215e-06 1.1814164733e-06 0.034103992471 
0.01229226251 0.014504384803 -5.769825384e-07 -1.3519178804e-07 -3.0072374449e-08 -1.7069407884e-06 -3.0363981832e-08 5.0871794173e-05 0.00030517134578 
0.00065586284982 0.0010714945117 0.0016000265014 0.0022714146329 0.0030598290272 0.0038705017571 0.0043301075945 0.0033627760587 0.0014001943217 
-9.7745979639e-06 7.3666340227e-06 3.3267196092e-05 8.7075421295e-06 1.5744647169e-05 -4.3398311299e-05 0.0023836665257 0.0031588122624 0.0032641406777 
0.0030734185219 0.0025327264128 0.0019898102753 0.0016522686502 0.0015991672893 0.0018328708693 0.00243802567 0.0033334518453 0.0045457858165 
0.0063337386517 0.0093084888788 0.013472753653 0.017956575049 0.033488896747 0.048020566426 -0.00010829654252 0.055736035457 0.060311735155 
0.064918340517 0.069680562915 0.073988605812 0.077488384245 0.08026730331 0.082444881698 0.08376787498 0.084403258792 0.084338950926 
0.083342718122 0.081564885674 0.079575686782 0.077677020581 0.074430211635 0.069726950149 0.062798275082 0.054965722007 0.045743454444 
0.021371760991 0.032178955253 0.032352369057 0.032109503267 0.030509480485 0.026714788745 0.021237510002 0.015545408151 0.013086024761 
0.013275623926 -8.4467395545e-05 0.012697869171 0.010919495863 -6.4723074042e-05 0.029371291755 0.032939383346 0.031264680275 0.028411381024 
0.023763830166 0.018247133579 0.013842263713 0.0073813911665 0.032152394063 0.00017666366466 -5.6376448097e-05 -7.9350215968e-07 0.027483645076 
0.00013850684887 -4.7294453034e-07 0.001564402445 0.013459604329 0.019175923234 0.016521205761 0.0001202181317 -3.4429222958e-05 0.025182209611 
0.0047182540686 2.800838798e-06 8.0260387178e-07 1.1604674909e-06 -4.8153373309e-07 3.6675785365e-07 5.5246066033e-07 2.3138320971e-07 8.7396277425e-07 
-4.3097552356e-07 -2.1019619576e-07 -1.037967117e-07 -7.6031878786e-08 2.7522543401e-07 7.8271849044e-08 -2.9031281956e-07 2.8028827325e-07 -9.3823381256e-10 
2.5515494009e-07 -2.1248556782e-07 0.021706343953 0.019851264454 0.010471016718 0.024984982101 0.017991802352 0.012576857485 0.0087001153567 
0.0063321795458 0.0047414084921 0.0037126593052 0.0032778698166 0.0032861438359 0.0037008789838 0.0044121248351 0.0052868055086 0.0063253121138 
0.0071005275845 0.0051183729468 0.0065088024051 0.0070233788116 0.0063367226704 0.005349836817 0.0041261523423 0.0029631603821 0.001949207488 
0.0011884442365 0.00061021521617 0.00012194116413 -3.1642782118e-07 -7.9301598951e-07 -1.0478260996e-06 -3.9532915104e-07 2.68139224e-06 3.2042724919e-08 
0.03460282759 0.02325211472 0.022811873238 1.1570406157e-06 5.7299542302e-06 -8.3716798577e-07 7.3039992925e-07 0.00031898178704 0.00081962343169 
0.0014137284076 0.0021089839284 0.0030226605904 0.0041994448309 0.005443051365 0.0067523886952 0.00745913565 0.0047651906263 0.0051825185908 
0.0051851696083 0.0055059634519 0.0047154717029 0.0037473176308 0.0031059381875 0.0030189782026 0.0034188547487 0.0044069493246 0.0058439541607 
0.0078635175629 0.010583581555 0.013806355896 0.02387225334 0.025026857521 0.023859221145 0.011810628599 0.017390069359 0.039855083184 
0.045094070303 0.051606263395 0.056583551726 0.060826372184 0.064160321425 0.066836886719 0.069515169388 0.070888190394 0.071229211753 
0.070071697757 0.068151514787 0.066183569148 0.064179867548 0.061377968298 0.058089359537 0.05129045192 0.04265666831 0.023310905565 
0.0099706954431 0.023105160276 0.020864794459 0.017561456884 0.014571491517 0.012053644977 1.5294439581e-07 0.024563501682 0.01926587493 
0.015748144261 0.013060454622 0.011655246018 0.033788792549 0.012586894822 0.022082892754 0.015166795216 0.01339541741 0.010754869081 
0.025469416056 0.020839908481 0.010456195994 0.02235983399 0.012348639679 0.015645971209 -8.4096084784e-07 1.9477960619e-06 -1.2343496387e-06 
1.1000075531e-06 6.7565137991e-07 2.5761542491e-07 5.6576394938e-07 -1.6246854153e-07 9.6036538325e-07 -2.8438000196e-07 5.7142742429e-08 -2.0959058274e-07 
-7.2866365481e-08 1.7994125677e-07 -8.960404201e-08 8.9300412164e-07 0.013133714035 0.02249699656 0.016022890139 0.011530565259 0.0086463750719 
0.0065792852529 0.0054958448103 0.0049514623092 0.0050543258886 0.0057264628779 0.0067006666931 0.0075503060825 0.0093607263275 0.0087524207675 
0.0077635405443 0.0062659337687 0.0046376038351 0.0031750653081 0.0020053897719 0.0012502365376 0.00048528254354 -7.0024790988e-07 -1.0694561517e-06 
-7.3806327035e-07 -1.5501979865e-06 -2.6529082296e-06 2.6748726024e-07 0.016366786877 5.2920095863e-06 7.003962647e-07 0.0001452172589 0.00076469178568 
0.0015589362307 0.0024905345143 0.0032923586361 0.0047110074939 0.0062794041606 0.0076553521347 0.015868621353 0.0082824331367 0.0076880368289 
0.0058086195534 0.0048810267385 0.0046613552219 0.0052254262933 0.0064657675034 0.0086273701661 0.011525950116 0.01550898112 0.020670910968 
0.034843287979 0.010285481459 0.040571662067 0.045352335213 0.048590691885 0.051162018181 0.053944271196 0.058513142379 0.05641894745 
0.058657626481 0.054417247112 0.052563212695 0.051141520956 0.048913673081 0.04651681709 0.043774067819 0.013802871952 0.012118999885 
0.016434602737 0.032499660942 0.010245493432 0.014544356455 0.018091767052 0.011492470047 0.013395024273 -1.8123695851e-06 0.013399019696 
0.015484241236 0.0094417564201 0.017346147762 0.014847480565 0.012203996548 0.015346965153 0.014848605748 0.0098526602865 0.011000413016 
0.010213841453 0.0092541183402 0.011777238594 0.010715069876 0.033480359314 1.7566898683e-06 -5.1572613008e-07 -7.4544254027e-07 1.7124072406e-06 
2.6062534413e-06 1.732143094e-06 3.5087478976e-07 -1.9606708853e-07 2.6243959316e-07 -4.7739703118e-07 -6.8806576128e-07 0.025064163899 0.0099037529819 
0.018341389308 0.013736497809 0.010599423931 0.0084409113534 0.0070995786837 0.0064767010197 0.0068081602495 0.0079226818525 0.0084218698561 
0.0063735230353 0.0042758718228 0.0024349761663 0.0011036633178 0.00012455268976 -1.5818255069e-06 -9.4739621421e-07 -3.4278053056e-06 0.0088369749657 
0.0085399771417 0.0090077978748 0.010052042318 -2.2952360308e-06 -1.4840986798e-06 0.00050694931124 0.0014317551128 0.0026462310025 0.0041611316306 
0.0063938045516 0.0091669975818 0.0066358742084 0.0061430224509 0.0069710050627 0.0083838179257 0.010998671185 0.014725216338 0.019953051104 
0.026931942342 0.010288373777 0.031401299364 0.034624975094 0.037162001253 0.039675952771 0.042822325273 0.042091729706 0.039674571945 
0.03858348635 0.03754486587 0.035886770113 0.010297914199 0.017535987567 -2.1305956442e-06 0.011884307208 0.0092788050882 -4.0675081734e-07 
0.010766808732 4.5858150708e-07 0.0089728350534 0.009779526167 0.0085520845678 0.011667059773 0.0075608551139 0.013583695826 0.014342790867 
0.010493697651 -1.6419626495e-06 -1.2033123397e-06 1.5569211428e-06 -8.9939783401e-07 1.1425619276e-06 7.2200475715e-07 -8.188430014e-07 0.0085305169819 
0.019903734471 0.01496320763 0.012413921079 0.0098587842931 0.0083100943324 0.0077424898469 0.022984104156 0.006204742404 0.0082475572938 
0.0037601649776 0.0018633702575 0.00054602713757 0.012956159665 7.3704577153e-05 0.00099440327915 0.0039328375575 0.0057778616351 0.0060772652102 
0.026664366611 0.00929212537 0.010522661443 0.012186461552 0.007853935492 0.0098245691683 0.012363225295 0.017017850048 0.0055222734399 
0.02478510755 0.02577340296 0.028926016826 0.027321720535 0.0054473468541 -1.1682622137e-06 -1.7807126866e-06 0.012014808575 0.011685802973 
0.0089542814013 1.9292059445e-06 0.0062040083785 -2.1899788168e-06 -3.3692007472e-08 0.0061172681498 0.00218588894 0.0089849859926 0.025588271289 
0.027238220557 0.027093130421 0.012098826593 0.010239816247 0.00084275120632 0.00090280054296 0.0021068908218 0.016157415345 -5.6974648414e-06 
0.00016561627929 0.00010396851506 -3.0118886677e-06 -8.4846974218e-07 0.0052039574667 0.01848610517 0.0051684112396 0.013582559097 0.010389756755 
5.6967617412e-07 0.017987404944 0.0030271563624 0.011342391706 0.00015895681358 0.017697588509 0.0025596085707 0.0032491055932 0.015477031124 
0.018642228984 0.012693269746 0.0021306545831 0.012771465762 -6.4092317549e-06 -5.7017110274e-07 -5.4921843805e-07 -1.0119648458e-06 2.2568483336e-06 
2.8547153229e-06 -2.9665038885e-07 1.3994412184e-06 2.5957713634e-06 3.8850337495e-07 -1.1175753146e-06 2.7785315744e-07 -2.4106438043e-07 3.1056965228e-07 
1.5629477217e-06 -9.3301309303e-08 2.3905740628e-06 3.6698095709e-07 3.6935786254e-07 -7.445052028e-07 -2.2903040777e-06 -7.4182586696e-07 -1.8479030438e-06 
-2.5067417657e-06 -8.8863584002e-07 7.2497288381e-07 2.441272981e-06 0.0055124217497 0.0037699328615 0.0030589312757 0.0020651207538 0.0011911108474 
0.00071319315289 0.00049648990904 0.0003117549003 0.00024281344805 0.00015971181145 0.00013567072689 0.00016902724756 0.00021880046068 0.00031014404652 
0.00042756390856 0.00054353935046 0.00060763288597 0.00050828533895 0.00019672021712 -5.7092768292e-06 -4.5490041811e-06 -1.0424755006e-06 -1.3063029444e-05 
-3.0092424625e-05 -3.2657553153e-06 0.00011065658488 0.0005144283048 0.00063688539209 0.00060796663026 0.00047571844079 0.00032418087395 0.00022047875524 
0.00015416145795 8.5250950945e-05 3.8952368709e-05 3.2670090063e-06 3.6365632633e-07 -2.4704346315e-06 -2.7689590139e-06 -2.3064954354e-06 -1.3173551018e-06 
-2.1593251606e-06 -2.6837121806e-07 -3.8620220002e-07 -3.4643870757e-06 -1.4419007898e-06 -7.6158461322e-07 -6.5609205269e-08 2.5169017402e-07 -4.7119109007e-07 
5.0928374203e-07 -3.3900212467e-07 1.9576634123e-05 6.1872694264e-05 0.00010238647989 0.00017655381878 0.00026862353387 0.0003490446728 0.00045150883817 
0.00048164351879 0.00042965824574 0.00020101402432 -4.1332234951e-06 -4.047513095e-06 -4.2506534187e-05 1.8007364637e-05 5.4487641203e-06 -9.3312704167e-06 
0.00012935362303 0.00030838149618 0.00038112936723 0.00037164143802 0.00027641906058 0.00021283799672 0.00013860179372 0.00011156325857 0.00010975528 
0.00012156150971 0.00017714524194 0.00025137903294 0.00037568802087 0.0005815102706 0.00084899794011 0.0012535927131 0.0021930730039 0.0042086325697 
0.015562904101 0.049103942 0.0625794399 0.071830889317 0.081727813576 0.082925086544 0.085337751449 0.08893759889 0.090872085441 
0.093011475285 0.094878009217 0.095435971817 0.097082271638 0.097697014735 0.097589205916 0.097158768472 0.096763865135 0.095261466826 
0.093395770614 0.091884826218 0.089275532074 0.085984460799 0.081890363571 0.076447828035 0.069303389145 0.063317730845 0.053556650066 
0.0032677984263 0.02564997638 0.037215056066 0.040698379744 0.040163141488 0.041011246798 0.040601265639 0.040444687009 0.039551841313 
0.03977738551 0.039258358526 0.033364780251 0.026830538515 -0.00011318960061 0.00076016216142 -0.015229869418 0.018152265311 0.030270328596 
0.038674570787 0.04102023229 0.041782655976 0.040772500142 0.040869333619 0.04064956856 0.040232390986 0.038558563542 0.035544958679 
0.021840392224 -0.0021992641704 0.0026647634583 0.0021643548091 -8.8553609305e-06 0.0013699201168 0.0027112239144 -0.001801588774 -1.1083043593e-06 
-6.1210803398e-07 -3.1312832422e-07 -7.3490593804e-07 -1.1786259961e-07 -7.8125693868e-07 -7.0005270503e-07 -2.2384573286e-07 -2.2763709516e-07 -8.5059496787e-07 
-4.8847496602e-07 -3.7716635475e-08 -6.5043741121e-07 2.1966985816e-07 -3.3841480623e-07 2.6364373686e-08 -1.118000658e-07 -1.0820624991e-07 -1.1813869682e-07 
-6.5847227891e-09 4.1411392387e-07 6.8803663944e-07 1.2500217979e-06 -9.9769831278e-07 0.012408827735 6.8427261558e-07 0.014084493737 0.021288844101 
0.038905724533 0.0075129668767 0.0046218098228 0.0031100467237 0.0022568032813 0.0016593045678 0.0011930299403 0.00085337099277 0.000771591097 
0.00090031698581 0.0011567220118 0.0015382411634 0.002015634247 0.0023838579386 0.0023230052222 0.0015519000147 -2.14784607e-06 -1.7141433955e-05 
-1.1174630966e-05 -1.7663923735e-05 3.5020941197e-06 -4.3948449767e-05 1.1607605063e-05 0.0014769271111 0.0025309628138 0.0024260050359 0.0019846147169 
0.0014847952672 0.0011108555327 0.0007845663206 0.00048762199787 0.00026543237913 8.8127739507e-05 -6.6366393248e-07 -1.3837501888e-06 4.3387843235e-07 
4.2530857564e-08 5.1624969316e-07 -1.9073846451e-07 2.4512653092e-06 0.01126715037 0.012374640509 3.2406887458e-07 7.069356228e-07 2.6792726097e-07 
2.2906879214e-07 8.4105130749e-07 1.1767091736e-07 -3.1747715223e-06 7.9708295662e-05 0.00022293585435 0.00041123623013 0.00066219210385 0.00097647477701 
0.0013202091083 0.0016583864946 0.0018711121149 0.0017446439554 0.0010741201511 2.8931345545e-06 1.4791385705e-06 2.4901580209e-05 -2.3268420087e-05 
2.6877011475e-05 -4.0080701422e-05 -2.4637323375e-06 0.0010961589246 0.0017005372616 0.0016561110818 0.0013467765072 0.0010353358005 0.00077528319694 
0.00062932664456 0.0005848455568 0.00068162716571 0.00094756359846 0.0013515410238 0.0019601624081 0.0028317629802 0.0039368402702 0.0054847059628 
0.008282784967 0.015534525258 0.032299893105 0.012856566183 0.064211143947 0.046010348306 0.072511348681 0.079815671626 0.085776064798 
0.089834268555 0.091964463307 0.09382919357 0.094999974762 0.096519118724 0.097542037253 0.098177412821 0.097800743362 0.097160457062 
0.09546439921 0.093182128061 0.091636281142 0.089024955738 0.085732569 0.080668914537 0.072198581628 0.062353575955 0.051523414158 
1.1769022598e-05 0.015402648069 0.00074916177856 0.026464001829 0.034479265068 0.039067630947 0.041966935048 0.043390358873 0.043678770338 
0.04260135325 0.041189864767 0.038868277398 0.033942092723 0.025247389874 0.015122769682 0.013979000661 1.4095730657e-06 0.024302584315 
0.032325245205 0.038042451766 0.040893837846 0.042158650849 0.042585020317 0.041873683855 0.04073611303 0.037870082064 0.033487380713 
0.024588551262 0.014316938254 0.00021390441085 -9.1411673835e-07 0.0061898334523 0.0045186449927 -0.00019822603178 0.0048906279139 0.00053841365062 
0.007981074935 -3.6709471144e-05 -1.3094207669e-07 -4.275821324e-07 3.2088741467e-06 -1.0402855111e-06 -4.1228688244e-07 -7.4531134084e-08 -4.4796661202e-07 
-8.8077409373e-07 1.2950084973e-07 -5.2605304956e-07 3.5639281966e-07 -2.6841519797e-07 -5.8090184944e-08 1.0157445458e-07 -1.3401913774e-07 -2.9312479663e-07 
1.8852917953e-08 -1.5538954622e-06 6.4521411576e-07 7.0492450831e-07 0.012203532816 0.00020962663223 0.013310363964 0.013788514862 0.021312950882 
0.012870716682 0.0067129018569 0.0049631637171 0.0036302774177 0.0026193344807 0.0018583205732 0.0020648644909 0.002346371611 0.0028861215022 
0.0035948181898 0.0044552040399 0.0051716030702 0.0048131267059 0.0019785792077 5.0045058578e-05 4.9037368941e-05 -3.7780151122e-05 0.0017269241778 
0.0047620880365 0.0052084728922 0.0043428348309 0.0034442021819 0.0026543674918 0.0019246062604 0.0012886292366 0.0007451183141 0.00035379415014 
4.7761920189e-05 3.0034551039e-07 5.6186657501e-07 9.9224399711e-08 -1.8991053102e-07 -5.4111977286e-07 -1.2421873249e-06 -5.4115415139e-05 0.011955486592 
3.1373688188e-07 2.5930834046e-07 6.168691927e-07 1.7796998107e-06 -8.178545142e-07 8.3002853989e-05 0.00036941843888 0.00070544653781 0.0011642550106 
0.0017547199361 0.0024030388926 0.0031779484642 0.0038977223142 0.00413490741 0.0031166847159 0.00098359908084 2.1949922749e-05 2.7324258458e-05 
-2.183135477e-05 3.0195768847e-05 -2.6534231372e-05 7.9395367575e-06 0.0018436019756 0.0035272581431 0.0037321912056 0.0032384199507 0.0025986299415 
0.0020243281119 0.0016554398536 0.0015332719148 0.0016737673677 0.0022123110456 0.0031134855117 0.0044033514281 0.0063705715383 0.0091579984112 
0.011993049101 0.014281383819 0.023159960966 0.01271584504 0.049361774346 0.058007581217 0.012683855473 3.5113209538e-05 0.01365759251 
3.7502703777e-06 0.065438620912 0.0709130345 0.075214968783 0.077811788385 0.079654052895 0.081133027649 0.082329439705 0.083443323708 
0.083818110601 0.083112772791 0.081673330955 0.079286808641 0.07704221699 0.07418597432 0.070623263759 0.066606824511 0.058291794521 
0.043675025751 0.033910237419 0.00910407158 0.021360305414 0.026070574078 0.029582156138 0.031950914627 0.033587441006 0.033025925013 
0.031474013354 0.029137556289 0.02608328967 0.020902382749 5.2921798663e-07 0.019594750773 0.024278751935 0.028623949263 0.031531392682 
0.032472050022 0.031664535755 0.030350488083 0.028323283176 0.024892765815 0.020193808862 0.015372179809 0.01595633934 0.015217727445 
-1.4578351818e-06 0.0081156180781 0.006288908618 -6.4096385144e-05 -0.00011822979344 -0.0001154531168 0.0065327821701 0.013599393444 -5.2347389062e-05 
0.015582148307 0.0087106559233 0.041048553097 -2.8849597274e-06 -2.37968862e-07 -1.5649711062e-07 2.2501008141e-07 -8.0359292386e-07 -3.8620423436e-07 
-6.7725136e-08 -6.4729860064e-09 -3.7413738481e-08 1.813113365e-07 4.0734214176e-07 1.8900824355e-07 -9.1931069009e-07 6.8469897948e-10 4.3546474573e-07 
0.018215388045 0.012387434859 0.013625747551 0.026786611579 4.4565264641e-05 0.0084810862673 0.010606289147 0.0040597339912 0.0038641805278 
0.0042434110771 0.0050237471468 0.0060605327881 0.0077165513717 0.0095944446337 0.026490824359 0.0057221177363 0.0048323747594 0.0035839999262 
0.0024677880243 0.0015205256043 0.00081716819023 0.00028012212408 5.0241585311e-07 6.3848882842e-07 3.2407063116e-07 -2.9851714889e-07 5.297088967e-07 
-5.5811773058e-07 0.0085646608823 0.011900003111 -1.6618987211e-06 -8.052401156e-06 -3.385420762e-07 -1.2389705076e-07 0.00035584343572 0.00085344291992 
0.001498798729 0.0023464842072 0.0033613645064 0.0044448585126 0.0057675031788 0.0070386392415 0.0064747610708 0.0052228700165 0.0061493393735 
0.0056497516144 0.0048193769873 0.0039372852847 0.0032087258752 0.0029592595393 0.0031794082931 0.0038426415804 0.0053325458206 0.0073495574237 
0.010349559282 0.014964899158 0.020130652965 0.010101382423 0.012301670751 0.036030272472 0.046556098531 0.015896515193 0.061746713557 
0.063942488608 0.06595577971 0.067417147003 0.068391036519 0.069063036884 0.069722249909 0.068623244628 0.065959910965 0.063037015803 
0.059536076692 0.056542544964 0.053169652195 0.050433126289 0.014447930692 0.017381266819 -2.4202580883e-07 0.01275890098 0.019757806254 
0.021632734288 0.023263743285 0.025492089519 0.023319237523 0.021850217631 0.020265057567 0.01718821718 3.0145675316e-06 0.058117378921 
0.018870936589 0.021696628489 0.02499575761 0.023514888367 0.022544148282 0.021100550823 0.019435067382 0.017089112927 0.0060709052211 
4.4652598995e-07 0.0073079112533 -5.8950487566e-05 0.053699993581 0.012760369882 0.011982881192 -1.3490384619e-06 0.0034546149092 0.014292132492 
1.2022500668e-06 0.013519336277 0.040632259802 0.014067260309 0.012372672216 0.01101584305 -1.5943694048e-06 -2.3198878634e-07 -1.047482138e-06 
-2.6487615948e-07 1.4901102107e-07 1.1714950357e-07 1.1655176357e-07 1.0068279776e-06 -1.9496957795e-06 6.3090193963e-07 0.029148542114 0.027322078253 
0.0057578946485 0.0086499528016 0.0061953975674 0.007094837981 0.0082940648184 0.0090693299295 -1.0922746049e-07 8.6112560444e-07 0.0025199814819 
0.0014477241174 0.00064721981641 3.0867012981e-06 5.0858508377e-08 9.0929415801e-07 4.8620218804e-07 2.5937755127e-06 0.0098571293889 0.0079834701214 
-5.3433072805e-07 -8.8579196107e-06 2.3751741935e-06 0.00012685846113 0.00078296514193 0.0015527264626 0.0026140225211 0.0038762753126 0.0052112521204 
0.006558533795 0.042585613166 0.0092551514237 0.0060883851095 0.0051509452672 0.004473292444 0.004953488229 0.0054905606621 0.0075915269643 
0.010186019783 0.013824984723 0.019238884037 0.053193074422 0.050250014794 0.0073151954897 0.0038809163962 0.048750092694 0.054249088988 
0.053802229894 0.054413759408 0.057397242509 0.054001239356 0.050732221324 0.046709808143 0.043399597243 0.040482718695 0.037238152707 
0.012214410586 6.1966747513e-07 0.0057093941385 0.01314469108 0.0059232568109 0.014007798321 0.014994837255 0.016664410915 0.0155049243 
0.014528166896 0.014012105057 0.012470318411 0.012829778801 0.014699815388 0.017302186968 0.017209138153 0.01597473597 0.014864196158 
0.014350204512 0.046387008307 0.010451256402 0.010613775184 0.023513656924 0.011678117285 0.017861151746 0.010025560071 0.038959790308 
3.0335843517e-07 0.012360686195 2.7497209339e-06 0.011492510414 0.011954555922 0.016609704435 0.010116933489 -8.6875239999e-07 0.0077687482204 
-2.3876409177e-07 7.7663638772e-07 6.4696453257e-07 -1.3142572235e-06 0.0088903260578 0.0079800196913 0.011242025595 0.0075223809348 1.3119734155e-06 
0.0010964621201 -1.1600118633e-06 0.0021989211085 9.0150594747e-07 2.0177318783e-06 2.9616931668e-06 0.00039967132485 0.0035935454039 1.7415290637e-06 
0.0075343483533 0.0012711011754 0.002461865675 0.0039158457141 0.0056449444623 0.0080428752576 0.01062898275 0.00022962362067 1.8120122745e-06 
0.0064305989874 0.0070037229819 0.0082671359338 0.012164065911 0.016810290741 0.022161417867 0.038612219856 0.040489414878 0.029465198347 
0.042952553792 0.034105737485 0.042261522649 0.041497765454 0.036405684332 0.032375364369 0.0092330008398 0.0090393363667 2.7606201695e-06 
-1.6847482829e-06 0.0054671322566 0.0091406734904 0.0087763781705 0.0093425222456 0.0099360351102 0.0094906935246 0.010517690938 0.012200250235 
0.013708735711 0.012948782999 0.011879563434 -1.4587835023e-06 0.027252489797 7.5858636619e-07 3.866599463e-06 0.0078254676755 0.0091483515831 
0.01125826395 0.0079375031591 0.036910943928 2.2881238005e-06 0.0083917014323 0.039686028306 0.01100356703 0.0098357368113 0.014895507637 
0.020404861301 0.028631531294 0.011083829233 5.0415304302e-07 0.033146848914 5.6454315612e-07 0.011484113179 0.0068303729797 -1.5549365638e-06 
0.025870314823 0.0016343892552 4.3552952055e-07 -3.2955281672e-06 0.0019580671515 1.8115698943e-06 0.00076657993053 0.0089866243736 0.013495041142 
0.0097771091245 0.0033449692606 0.011547144618 0.019763771694 0.025997761949 0.0099260539607 0.02376368666 0.028868190088 0.0055845384929 
0.00057234799792 1.6603051425e-07 0.0036079112027 3.0960702415e-06 0.0048285826112 -1.0219223623e-06 0.0042212946671 0.0050827796646 0.0059112448028 
0.0047823642582 0.0081163257917 0.012402143171 1.033646897e-06 0.011670198619 0.010391245476 5.9444114792e-06 0.0092429429108 -3.3022039889e-06 
0.0081519074297 0.0089946914712 0.005071648213 0.01197484867 0.016904460063 0.0060588098133 0.028409924688 0.026790333717 0.031156775792 
0.012101282191 8.2713593863e-06 0.0086176601064 0.0054147582703 0.013718079288 0.00058968647988 0.0011619249642 0.0022988670629 0.0020556221942 
-2.8408284539e-06 0.018805794755 0.015660841787 0.00078846958421 0.0029536313538 0.017156102447 0.013706963697 9.0409190043e-05 0.00021012974491 
0.00015526851085 0.00010801904763 0.020310963093 0.020693396543 0.0017285737455 0.013487441328 0.0024091621835 0.065036442638 0.056816593797 
-6.9651066463e-06 0.56300200092 0.59951097019 0.39240793359 0.19040217229 0.17514280266 0.17180525399 0.1729921279 0.26503700874 
0.26310401731 0.2590501755 0.25884113305 0.25847700702 0.25829605557 0.25876202384 0.25945200163 0.25948499995 0.26007999832 
0.26033602694 0.25996799682 0.25980108 0.25964011957 0.25982815928 0.26127321355 0.26190700365 0.26254400659 0.26353438285 
0.26824301455 0.2782734413 0.28633439337 0.39582666396 0.26374920777 0.24337899827 0.21698399898 0.20906199767 0.22844297057 
0.26100198513 0.25966831543 0.26367298772 0.26306699118 0.26203711845 0.26415608098 0.26392904519 0.26350401469 0.26339299951 
0.26272600039 0.26257800098 0.26324604515 0.2650240871 0.26293413354 0.26449099755 0.26414599906 0.26513331432 0.26928138592 
0.27374144818 0.28129148665 0.29764496947 0.41445599743 6.0029145847e-05 7.9825017209e-05 2.3901116066e-05 1.5545117161e-05 1.319924055e-05 
1.0014271761e-05 7.329960591e-06 4.0604983277e-07 -2.3006008306e-06 -5.6391161521e-06 -1.360052161e-05 -2.2633292244e-05 -1.6329123611e-05 -1.4798327354e-05 
-1.4537167103e-05 -1.2504437163e-05 -1.4753358268e-05 -6.6817970262e-06 -8.0227474871e-06 -9.1240822732e-06 -1.3082326409e-05 -6.9601488432e-06 -2.3422944509e-07 
4.4867592468e-06 9.7238438492e-06 1.4298553078e-05 0.0001064674456 5.3148363434e-05 0.095160068977 -0.0054848054476 -0.00075920290284 -0.00037360656069 
-0.00021446916603 -0.0001555180374 -9.1817214507e-05 -7.2240619713e-05 -6.0192525775e-05 -2.7566100178e-05 -2.4748388881e-05 -2.5475451539e-05 -2.6209741772e-05 
-3.0755434815e-05 -4.3047895865e-05 -5.0330087526e-05 -6.0077827837e-05 -6.6882119561e-05 -7.3673585184e-05 -2.132819303e-05 0.00022406439711 0.00048549062827 
0.00069464151244 0.00068388034024 0.00041443619297 9.3370484811e-05 -4.7622437338e-05 -7.0294828471e-05 -7.3413807645e-05 -5.9577335358e-05 -4.4544692572e-05 
-3.6020779988e-05 -2.5149812336e-05 -1.1107271754e-05 -5.5976654141e-06 -2.2274370361e-06 1.8615513936e-06 8.0337265513e-06 1.2102648893e-05 1.8283647943e-05 
2.2376302082e-05 2.9974545463e-05 3.7060079351e-05 4.4353222246e-05 4.3109850688e-05 -7.8908979178e-06 2.0157098392e-05 3.0068893495e-05 2.5376169984e-05 
2.7862119586e-05 2.6631136881e-05 2.0515282294e-05 1.7541535462e-05 1.3102938357e-05 9.1268812608e-06 4.6212649078e-06 2.7844136415e-06 -3.5969930299e-06 
-3.6866221993e-05 -2.1423638349e-05 -3.8924440955e-05 -8.6476586644e-05 -0.00025889563011 -0.00014891900871 -0.00011126212348 1.724245948e-05 0.00015724209889 
0.00044916661548 0.00062339201254 0.00045012167757 0.00046556755014 0.00020614488491 3.1599697262e-05 -1.4229660545e-05 -6.1787747611e-05 -8.6603640623e-05 
-3.7854223324e-05 -4.7573241621e-05 -3.5742682447e-05 -2.2630090033e-05 -2.2459026673e-05 -5.903874492e-05 -0.00016225290016 -0.00014885952021 -0.00016358531712 
-8.2682010384e-05 -0.00014767322688 -0.00024016429698 -0.00047057317686 -0.0018847857116 0.018765766928 0.11462974978 -0.021107688826 -0.044420106854 
0.00027663525332 -0.00023734699333 -0.0098655287267 -0.00078415594487 -0.0011730430879 0.0018373879904 0.032530167212 0.053756742643 0.054474823177 
0.047490341369 -0.03668711825 -0.013655057483 0.043849730722 0.024316739264 -0.022603961025 0.00037599674574 -0.0041338224499 0.00047321046458 
0.018874589988 0.039119712826 0.046532261443 0.052242343369 0.048309059087 0.050787565688 0.045025090793 -0.028237196173 -0.028582389955 
0.03525148794 4.1841732623e-05 0.00011827912831 3.7345408987e-05 1.656505348e-05 7.3407975016e-06 -7.147337048e-07 -4.102346993e-06 -8.8793805489e-06 
-1.2816944879e-05 -1.4994434816e-05 -1.4317189161e-05 -2.9025529135e-05 -1.5104074238e-05 -1.6058893411e-05 -1.7996198343e-05 -2.0196796201e-05 -3.1587125467e-05 
-1.9526474132e-05 -2.4244214469e-05 -1.3342369721e-05 -5.5495307819e-06 6.445899427e-06 1.2747585035e-05 1.6678153064e-05 2.056247721e-05 3.2466369015e-05 
0.00010207102169 4.68234557e-05 0.036981487364 -0.0053318828279 -0.0016662062067 -0.00060916963976 -0.00032716106013 -0.00018276902571 -0.00010261440054 
-6.0573259479e-05 -3.0222225477e-05 -1.5684287621e-05 -2.0484855162e-05 -7.0418354527e-06 -1.0772645438e-05 -2.6131870753e-05 -4.1056495776e-05 -5.5089577821e-05 
-8.0691185206e-05 -0.0001024098639 -9.2572169167e-05 -4.0586056835e-05 0.00010993480178 0.0004353333569 0.00072878747681 0.00077254067956 0.00055542167346 
0.00020214606946 -2.5808042797e-05 -9.4495146069e-05 -9.5271549172e-05 -8.3021683659e-05 -7.3477953904e-05 -4.849791411e-05 -2.867640229e-05 -1.7578003578e-05 
-1.1309561144e-05 -4.2281677528e-06 -8.7441437677e-07 1.2699121149e-05 2.6332469371e-05 2.8217115291e-05 3.4922739501e-05 4.2920380972e-05 4.5274741803e-05 
4.107500098e-05 2.2616832021e-05 -2.6398753203e-06 1.3749550447e-05 2.7721408797e-05 3.0136484143e-05 3.3190651477e-05 3.1767570679e-05 2.9602800649e-05 
2.6465448877e-05 2.5821683526e-05 2.16167499e-05 1.6371596438e-05 -9.0282321612e-07 -2.9064622196e-06 -3.5490684554e-05 -2.3520883639e-05 -4.9431752775e-05 
-6.2624934383e-05 -0.00010434865364 -7.5527999312e-05 -3.5014253532e-05 4.0669447679e-05 0.00021092884959 0.00037389127855 0.0005718809028 0.00055199015652 
0.00038131499055 0.00017665767965 -5.5365724616e-05 -4.0246384879e-05 -8.9056678972e-05 -0.0001618256406 -4.3507509331e-05 -1.7637399985e-05 -8.2856163624e-06 
-6.6966251128e-06 7.3620551465e-06 -3.8866897318e-06 3.6369794878e-06 -3.9990638891e-05 -0.00019990020621 -0.00034534979427 -0.00012162254822 -0.00020404534951 
-0.0003555285127 -0.0024202761736 -0.0091302257723 0.068572887659 0.012090925133 -0.019625129317 0.056172181867 0.052039002446 0.053292652664 
0.058820684523 0.059869912712 -0.006671191199 -0.0034098885474 -0.0023739912634 -0.007057360059 -0.0045580071433 -0.018009933345 0.0051417954241 
-0.017405554014 -0.038199415174 -0.048494390188 0.029437813718 0.04658216039 0.051858237417 0.0449538495 0.025554494263 0.00090562788247 
-0.0029065483247 0.0017695307852 -0.00096340484252 0.0014572857182 -0.078904866814 -0.040884656567 0.00024230510992 1.9594436064e-05 1.5514738096e-05 
-0.0084653276646 0.0049484866469 -0.0039818948019 0.0019284872824 0.33873398956 0.29982317022 0.26928611978 0.23554192832 0.22947271621 
0.21482193881 0.21152499997 0.21948069722 0.21020902758 0.19771698671 0.21950423661 0.18729324845 0.22129768574 0.1892612321 
0.21378456987 0.19683349759 0.21784101471 0.19889059192 0.21449049453 0.20196912289 0.20938493431 0.20531681088 0.21690006524 
0.20531156084 0.21528749902 0.20876011071 0.2142327491 0.20700667015 0.21686535473 0.20806494528 0.21708972681 0.20592952786 
0.21484375549 0.20736356938 0.21071023705 0.20882613568 0.21060812173 0.20610362246 0.20274307975 0.20582426766 0.2049251591 
0.20447800762 0.20040374702 0.20397117531 0.19734965504 0.20749920027 0.1967590119 0.21069004371 0.19088430789 0.2224936495 
0.19151804982 0.22577019036 0.21055890338 0.25561827771 8.7240427707e-06 -1.4217717183e-05 -1.3848314109e-05 -9.6222124919e-06 -6.0995219333e-06 
2.0924089837e-05 -7.3624596048e-06 -4.3293469246e-06 1.0119325444e-05 -2.1920958472e-06 -4.8214718662e-06 9.9398096889e-06 -2.7655833721e-06 -1.131209849e-06 
6.8720892975e-06 2.3796927119e-06 3.5695167104e-06 5.2056765035e-06 7.0706573401e-06 5.3351331854e-06 -1.357028995e-06 4.9278277693e-06 9.0594534216e-06 
-9.8061736392e-06 1.0983232368e-05 1.6138662852e-07 -1.2232633245e-05 1.0136501796e-05 1.0291212972e-05 -1.5237728987e-05 8.196618073e-06 9.6373555195e-06 
-1.286709791e-05 1.5202712806e-05 1.943836417e-05 -2.0769609872e-05 1.4098569094e-05 1.3724046554e-05 -1.4372654711e-05 1.2886845841e-05 1.3289719815e-05 
-1.585854913e-05 1.2549810359e-05 1.3458258153e-05 -1.6033385802e-05 1.015260884e-05 1.2262464951e-05 -1.6393476418e-05 7.5583667777e-06 1.3925942266e-05 
-2.1254451353e-05 1.0749330376e-05 1.4612879343e-05 -1.4084435013e-05 6.6926659419e-06 7.3233330441e-06 -1.4160403671e-05 2.9913046733e-07 -2.9337937013e-06 
-8.3345425204e-06 -2.1184340815e-06 -5.3712698702e-06 2.2430515773e-06 -9.5925177251e-06 -7.9058150205e-06 1.6267422259e-06 -7.5505238222e-06 -1.0907601236e-05 
9.8177553315e-06 -1.4893501453e-05 -9.8930434347e-06 1.1394346212e-05 -1.3280609582e-05 -1.0825388342e-05 2.0099313648e-05 -1.1939397085e-05 -5.5445677791e-06 
2.038390215e-05 -3.9301336681e-06 -8.3994256327e-06 6.0976195223e-06 1.779893636e-05 0.048509958602 0.024302471006 0.0092835997081 0.0039217429855 
0.002435565567 0.007354513676 0.0018522739225 0.0013856390546 0.0022617923313 0.00099303688621 0.00084381404945 0.0011180323511 0.00060769069082 
0.00055306285091 0.00059182281703 0.00035964894426 0.00035340087358 0.00035354679684 0.00023650105614 0.00026350929349 0.00024216943485 0.00016527798415 
0.00018690960797 0.00016675661831 0.0001014721558 9.3762524585e-05 0.00010327620794 5.9475496627e-05 9.9149759178e-05 2.8713358003e-05 5.5391126836e-05 
9.9050537542e-05 3.8476467158e-05 6.6614896665e-05 8.750756492e-05 4.8933251625e-05 8.963024703e-05 0.00011211119862 6.3591840575e-05 0.0001281793665 
0.00015962713203 0.00010733896125 0.00018087395724 0.00021263237408 0.00019081284364 0.00021799658039 0.00026172123509 0.00026930695433 0.00022138595028 
0.00025958919779 0.00030645313277 0.00017149806142 0.0002253924008 0.00024807450646 5.2571934787e-05 7.7809001336e-06 6.7713163629e-05 1.8061958472e-05 
-0.00014504477258 5.8577862556e-05 -9.6232230123e-05 -0.00022170564955 0.00014184640435 -0.00012918927241 -0.00014973477524 0.0002116189386 -0.00015789351431 
-5.901436383e-05 0.00026455185775 -0.00013369511106 2.0276066014e-05 0.00018655588851 -8.1102793879e-05 6.070700975e-05 7.083494041e-05 0.0001516376445 
0.00017300784703 -1.0186442724e-05 0.00031468693315 0.0002858380394 0.00025916138076 0.00034432856234 0.00027763906541 0.00040298505547 0.00029635913408 
0.0002330245914 0.00038200450843 0.00022045347922 0.0001791080139 0.00030131247236 0.00015911677712 0.00013250047133 0.00021619036466 0.00010440150034 
9.0634987752e-05 0.00015513802794 6.3031562452e-05 4.6826687411e-05 9.2980815481e-05 2.8814919877e-05 2.3764313561e-05 4.268205182e-05 1.0901073828e-05 
5.5725108022e-06 1.0787336775e-05 -8.1674292497e-07 -1.0745629288e-06 -2.7014458205e-06 -3.760469637e-06 -1.7008533956e-06 3.4922205275e-06 -3.2751010481e-06 
-6.321598922e-06 9.8678017281e-06 -8.6521644021e-06 -8.7138596391e-06 1.0466729364e-05 -1.1542914343e-05 -1.2084281568e-05 1.2262249801e-05 -1.3942232224e-05 
-1.3458631005e-05 1.3847622359e-05 -1.4590937998e-05 -1.3078020945e-05 1.4632375051e-05 -1.524362973e-05 -6.1936968048e-06 1.858426697e-05 -4.8633336809e-06 
4.706362085e-06 1.7959368138e-05 -0.036685881887 -0.024155695594 -1.4056608855e-05 -1.2072379814e-05 -1.0825301623e-05 -0.029761680381 0.020902709899 
-1.1614398186e-05 -1.0989965419e-05 1.1458479021e-05 -9.5047122996e-06 -1.1562395296e-05 1.2826908058e-05 -7.6165546726e-06 -1.0568661407e-05 1.2482064324e-05 
-6.8010493225e-06 -1.1640141198e-05 1.0679054613e-05 -4.152304174e-06 -1.1344043089e-05 9.7597516431e-06 -2.3961787331e-06 -1.0546046293e-05 8.2102744438e-06 
2.762334298e-06 -4.9917955224e-06 7.785394083e-06 1.4452052257e-05 4.6151747741e-06 3.7835213148e-06 2.4139104925e-05 3.0854711577e-05 3.1981309136e-05 
5.5066728781e-05 4.9594494268e-05 5.5384273439e-05 9.3571767761e-05 9.9621012113e-05 9.516269431e-05 0.00013854775709 0.00013877882381 0.00014555835217 
0.00020625520107 0.00020837460161 0.00021519702935 0.00025953451787 0.00025759063495 0.00020940099675 0.00030728567803 0.00028333916804 0.00023081379456 
0.00028487851005 0.00023997233962 0.00024013177443 0.00012808782993 9.1360115526e-05 0.00013204104419 -5.9640786612e-05 -0.00015230855026 2.6435748188e-05 
-0.00012386530242 -0.00016653217555 0.00016556326107 -0.00025218362661 -0.00019588214159 0.00028343315029 -0.00033793255818 -0.00021151623608 0.00021130094384 
-0.0001520884638 2.9099405911e-05 0.0002740072145 6.6324566129e-06 2.5839248715e-05 7.9751969803e-05 0.00010309935395 7.1506278566e-05 4.9503780905e-05 
0.00031314960223 0.00014102839014 0.0001144429921 0.0003189861713 0.00017811912465 0.00027228226393 0.00019468490981 0.00013698973469 0.00023877580685 
0.00022918331931 0.00011974231033 0.00018035561319 0.00016723495999 8.5378974684e-05 0.00014345618571 0.00012960492248 6.1310094515e-05 7.8339727682e-05 
0.00010364776485 3.5316532739e-05 4.6102684642e-05 8.0854304435e-05 3.5999549584e-05 2.6699205286e-05 0.00010264010331 4.4380885477e-05 -8.1811228884e-06 
0.00018332355067 8.2529573914e-05 5.6151064059e-05 0.00014562989128 0.00019129588027 0.00014000229281 0.00027156528346 0.00020401991605 0.00024550124397 
0.00048912015141 0.00032181713791 0.00030143602601 0.00076067670442 0.00062005559164 0.00019001140028 0.0012229396829 0.0010542944707 0.00044090144705 
0.0021409433733 0.0022895598115 0.00080896832713 0.0020603456116 0.0082897520631 0.0016797102775 0.0049838746754 0.022609096951 0.0022901501617 
0.018772972667 0.10858164125 0.096172299552 0.10133389882 0.097766306918 0.051933631769 0.1014770185 0.099398933045 0.06221266009 
0.10372154074 0.11124682755 0.072895409304 0.10346581271 0.10544325674 0.092221507542 0.10184365928 0.10598495341 0.099078178814 
0.10576780005 0.10909857016 0.10048777484 0.10597241813 0.10982123877 0.10401580558 0.10742105866 0.11138788977 0.10680678666 
0.11208381539 0.11398145326 0.10716521027 0.11160116965 0.11325986982 0.10907459177 0.1135240817 0.11511204667 0.11061137099 
0.11470967637 0.11489754211 0.10965355757 0.1145366826 0.11398464584 0.1103332151 0.11318017517 0.11162088043 0.10971563969 
0.11208282963 0.11004948022 0.10997359327 0.11194671196 0.10948800692 0.10811788927 0.10922366624 0.10675723348 0.10700855294 
0.10920001139 0.10554426841 0.10383223642 0.10608285089 0.10198253616 0.1018991661 0.10327956644 0.098336994281 0.098567797684 
0.10040090992 0.095002198629 0.095108222895 0.095676849109 0.090836597335 0.090470493128 0.094509933855 0.090391510036 0.083366067631 
0.091588161107 0.091884412966 0.071095859781 0.014847959017 0.020877129732 0.050436209961 0.038594853358 0.016369993919 0.05605129374 
0.056739374828 0.043717900795 0.056138965155 0.056876624944 0.049076245413 0.053445002423 0.055199450552 0.04953350905 0.051608440987 
0.054133348569 0.048812834098 0.049558606729 0.051303764477 0.050006215082 0.051709020966 0.04787013888 0.049997066604 0.054693057114 
0.054730932162 0.050979000745 0.055978690599 0.056462478693 0.050811436549 0.056131586779 0.056106783251 0.051107303318 0.059016171217 
0.056509150765 0.048683547838 0.044354767621 0.059360836483 0.04358150817 0.011012082733 0.018685969114 0.009802746184 0.015755840169 
-0.0023846295943 0.020513003182 0.024052233578 0.040592695007 0.037334974084 0.013775130438 0.048320634447 0.050255106385 0.03355506271 
0.053419605601 0.06574610256 0.037099714118 0.054565987355 0.05758084689 0.050323100172 0.054221085699 0.055254387556 0.052274892485 
0.058384177756 0.055761876664 0.053149833192 0.057331411418 0.057009272572 0.052160808416 0.056129454551 0.055171462048 0.051427352589 
0.05681341653 0.056014762895 0.051647858088 0.056953338017 0.053024996366 0.050589382717 0.055475030918 0.053050586159 0.047918772967 
0.046744945144 0.043529614159 0.040940194037 -0.006922911205 0.025898205359 0.022869309284 0.0082601442582 -0.0060234035666 9.7104617157e-06 
0.044501038704 -0.0065063169559 0.025821369317 0.066849380023 0.0016957947164 0.015575726843 -0.009117174803 0.0059969202549 0.0029243128795 
-0.0045965341829 0.010670208119 0.013270206132 -0.014409562818 0.0052047259076 0.020078539772 0.029358703903 -0.0036703416745 0.016043959719 
-8.3715289341e-06 -6.4874950348e-06 -5.3797148676e-06 -6.3355212642e-06 1.3465312105e-05 4.4983361333e-08 -1.4285618079e-06 9.4998933714e-06 2.6327877709e-06 
4.7976382628e-07 9.52154189e-06 5.1562252988e-06 2.4518589695e-06 2.9457936208e-07 8.7543750431e-06 -9.4896975041e-07 -2.2867663627e-06 7.0062474281e-06 
1.102943248e-06 -1.1179335318e-05 1.0968299802e-05 5.0405629798e-06 -2.0433540715e-05 8.7459022155e-06 1.0015627724e-05 -2.8251570376e-05 9.8574696897e-06 
1.7685710899e-05 -2.6527637554e-05 1.2667687557e-05 1.7461316753e-05 -3.1099022314e-05 1.0701380087e-05 1.7532777892e-05 -3.2843699921e-05 8.9259082345e-06 
1.8018698319e-05 -3.1681656811e-05 7.3416515949e-06 1.6035564219e-05 -3.1093085503e-05 5.9315848504e-06 1.5198196273e-05 -2.7474774898e-05 4.4805788966e-06 
1.2241618734e-05 -2.4607796373e-05 2.7567159182e-06 7.8904195801e-06 -1.7508963361e-05 -1.8858565665e-06 5.5245680249e-06 -1.2560869072e-05 5.8368518319e-07 
3.0567453193e-06 -4.9579393488e-06 -1.4293151372e-06 -2.3953167286e-06 3.1381257167e-06 -7.5403815592e-06 -1.8947369673e-06 3.4702827172e-06 -6.8114146279e-06 
-4.9019490919e-06 1.1769227407e-05 -1.0300194219e-05 2.8844467664e-08 1.9511199798e-05 -4.6006511228e-06 -1.2884245341e-05 1.633764773e-05 0.038869005781 
0.037903901339 0.023990338016 0.049281089837 0.014798515481 -1.6722147655e-05 0.012073817882 0.0081719772419 0.0069288891128 0.0051749787135 
0.010818721078 0.0044397173508 0.0035858964267 0.006735155336 0.0030097769337 0.0024301291749 0.0045725089203 0.001949691396 0.0016488147047 
0.0030887303925 0.0012805007059 0.0011020489655 0.0020565340561 0.00087570062051 0.00073092723209 0.0013213311118 0.00056510625271 0.00055415727047 
0.0009268936528 0.00044263388579 0.00048442509794 0.00066220703496 0.00038939702319 0.00044206657808 0.00057548485757 0.00042392154777 0.00051163345342 
0.00059908356869 0.00053592437201 0.00067653787321 0.00074710964305 0.00070638668138 0.00089620489386 0.00097721048376 0.00094584280791 0.0011188983597 
0.0012923491713 0.0011112368317 0.0012231737801 0.0015856770647 0.0010938993166 0.0010793402883 0.0017193917215 0.00070901361533 0.0003908150927 
0.0012418255261 0.000109053641 -4.7167725394e-05 -5.0422481048e-05 -2.6359947674e-05 -0.00026891316159 -4.7343336686e-05 2.5990747164e-05 -0.0001856728537 
0.00011198437835 -0.00015406764468 -1.2857214264e-05 0.00024366529827 -0.00021291813139 0.00011150181376 0.00019813933307 -0.00015266941763 0.00017111865789 
6.2185639056e-05 -0.00011080143092 0.00046321897672 -8.5833698097e-06 0.00099402686278 0.0012005853806 0.0010144544199 0.0014109270839 0.0013812942778 
0.0018362680655 0.0014328332106 0.0012743697323 0.0020102097413 0.0012334937368 0.0010340644025 0.001827238781 0.000941580534 0.00077964376041 
0.0014791161484 0.0006597389996 0.00052702730783 0.001075142335 0.00041754513018 0.00032236815574 0.00068708392964 0.00024236972889 0.00018105025922 
0.00042117705325 0.00011634468711 7.5219359337e-05 0.00022174597253 2.0120633952e-05 3.0564559644e-06 8.1496268712e-05 9.4693914056e-07 -9.8005331801e-07 
1.6895823006e-06 -4.4603670094e-06 6.1510245099e-06 4.7198032149e-07 -1.0477260626e-05 2.330626553e-06 1.0251038614e-06 -1.2187387636e-05 -4.3194070156e-08 
1.2135113361e-05 -1.1126059376e-05 1.4758223431e-07 1.9263245187e-05 -1.2057904594e-05 -3.2851742053e-06 2.5096016748e-05 -1.6827629577e-05 -2.4829452303e-06 
2.5717847765e-05 -8.5557200082e-06 4.246268029e-06 7.1645653553e-06 -0.0079030741713 0.0117654978 0.030618535418 0.018369494878 0.022430343253 
-2.809632019e-07 -9.3797976988e-06 -3.369895813e-06 -9.7910271322e-06 7.4067234741e-06 -1.9880518348e-06 -1.1606779003e-05 7.045793318e-06 -1.8029928058e-07 
-1.1672747148e-05 7.3253444437e-06 1.4269469645e-06 -1.3437722003e-05 6.4503525963e-06 4.3479388685e-06 -1.4079089963e-05 4.4946603909e-06 4.5035142118e-06 
-3.7325632251e-06 -1.6908924025e-06 2.944483367e-05 4.1496131152e-05 1.4794396847e-05 0.00010471660439 0.00013448347199 0.00011915640921 0.00020904075442 
0.00026087131123 0.00025476183956 0.00034952896958 0.00043219142711 0.0004448424046 0.00051601722425 0.00062160721951 0.00067378822759 0.00072727901848 
0.00087466923571 0.00096773098503 0.00097100688063 0.0011539899582 0.0013559774353 0.0011899065544 0.0013623962207 0.0017222777292 0.0012486023326 
0.0012085601893 0.0017829873192 0.00094473433489 0.00059425057282 0.001412883219 2.5779422505e-05 -0.00018200297431 0.00022675980026 -1.3375907145e-05 
-0.0002775981577 7.1489256171e-05 -4.2810414057e-05 -0.00010163077779 0.00020617619926 -0.00030046691423 -0.00014634457837 0.0002199028135 -0.00026552756218 
-3.2406389472e-06 0.0002906847643 -0.00011789869536 5.181310508e-05 0.00019964793017 -2.9852892203e-05 0.00018235325675 -6.8183132391e-05 0.00072040556765 
0.00079180358892 0.00071788763228 0.0010701620342 0.00093248365929 0.0013257713827 0.0011234248637 0.0008921459441 0.0014754779524 0.00094983513308 
0.000734022808 0.0013116571498 0.00076763041693 0.00055506189983 0.0011055110127 0.0005477481073 0.00042242610385 0.00084616521103 0.00046224651037 
0.00034940836649 0.00061718576134 0.00044266972177 0.00035502738282 0.00052375844685 0.00048078366392 0.0004634385069 0.00056673038183 0.00058867355335 
0.0006541848592 0.00072254250834 0.00092617305557 0.00095184771792 0.00096727273978 0.0011594096138 0.0012794797787 0.0014243623249 0.0017370127959 
0.0020555119832 0.0021428940818 0.0026454210853 0.0034019268631 0.0033603115717 0.0038368518313 0.004917931476 0.0049494870926 0.0054530390614 
0.0080988986001 0.0078632021633 0.0088146021599 0.015263316624 0.024833885779 0.012551427479 -8.2741371596e-06 0.0495773909 0.048732452485 
0.05694453783 0.064472023788 0.068196465833 0.075168990718 0.063331235786 0.078753376584 0.081243357069 0.075494333683 0.084664116837 
0.084247255559 0.080995263754 0.0908826499 0.089488892273 0.08306235683 0.094405899047 0.093638879165 0.0862546177 0.097459814533 
0.096625295107 0.090223013514 0.09985533628 0.098389412731 0.093170237113 0.10128894936 0.10078015648 0.095234926081 0.10222803992 
0.10204404497 0.096762537308 0.10287247548 0.10234781053 0.097883490536 0.10290176714 0.10249661892 0.09818102533 0.10210717522 
0.10235387848 0.098204728608 0.10137807424 0.10151720583 0.097587696816 0.099897447073 0.10050165639 0.096273610608 0.097790387944 
0.099095563442 0.094535210754 0.09483743608 0.096360428906 0.09235348975 0.09214364222 0.093304113798 0.089281214133 0.087392793961 
0.089219111621 0.085359354296 0.082496683595 0.083521708732 0.080063967186 0.076455273046 0.077451656264 0.073574562462 0.067871658804 
0.068224288131 0.065505147118 0.052908380625 0.032432464022 0.027630838434 0.034646665121 0.005296015845 -0.0081936415656 0.0017796497114 
0.022970752618 0.00090783340271 0.012106510192 0.023631799667 0.043209658991 0.043676565666 0.039554455438 0.04432371325 0.043968298139 
0.041209404423 0.044855406493 0.044660649791 0.041818553899 0.04514770041 0.045324531431 0.042529426976 0.045557461486 0.045325933475 
0.042713994614 0.045730558975 0.044814897633 0.042560130055 0.043706206582 0.043133352248 0.041131613798 0.039304738731 0.040399416541 
0.037853290027 0.024308381822 0.033246411833 0.031948249908 0.0018759530097 0.019569271072 0.022194880976 0.012399000413 -0.0052173389846 
0.011320275958 -0.0083155108377 0.013245976418 0.0047839837722 0.017143025649 0.0073205598824 -0.0049596006566 0.017555566265 0.0056679555847 
0.043203615811 0.04228273909 0.04353478812 0.04385026454 0.041323294336 0.045448421169 0.044583999454 0.044502249252 0.046370759058 
0.046493257799 0.043958510655 0.046401253092 0.046598761259 0.04329120907 0.045105060048 0.045146640045 0.041894551914 0.042595093063 
0.042988688273 0.039707827413 0.036098801893 0.038114857509 0.035487013876 0.023424200005 0.030288379723 0.028523093695 0.0053547004889 
0.021105412588 0.017641961305 0.0087391053051 -0.00058169181826 -5.7439328888e-06 0.029658614113 0.020469830993 0.018213984476 0.034039692166 
0.036664479454 0.029489565301 0.035999134606 -0.00098119940126 0.002641500544 -1.938944382e-06 2.6161324851e-06 3.9781890567e-06 1.3963984315e-06 
0.045239947406 -0.000662983438 -0.0027228676561 -9.6562049165e-06 0.0092580026297 0.0035815542719 8.0458711144e-06 0.049427796134 0.0019333907286 
0.012731287986 0.0082347926652 -0.0027025760851 0.0092681902971 0.0020840785987 0.00020466161915 -0.00042153328405 0.0017243021807 0.010401440955 
0.0026750375202 4.6039075889e-06 0.03647333719 0.036001707014 0.032873751173 -2.8932572407e-06 -1.4377930837e-06 -6.2250189422e-06 -2.442045752e-06 
2.0069792893e-06 -6.7863691456e-06 5.1250814396e-06 5.1382015549e-07 2.2684584383e-07 3.9988226059e-06 -2.2563401924e-06 3.7293961997e-06 4.1438554914e-06 
-7.3326012401e-06 7.9638963983e-06 3.872889846e-06 -1.0681008881e-05 1.1607704852e-05 4.4813125451e-06 -1.6771233975e-05 4.6621015115e-06 1.2357087018e-05 
-2.1402680617e-05 8.3421226273e-06 1.513982293e-05 -2.1451475692e-05 7.2331554541e-06 1.6534177612e-05 -2.378017703e-05 7.6524723027e-06 1.6678341373e-05 
-2.6602275949e-05 6.8471043453e-06 1.6431333998e-05 -2.5646578391e-05 7.6630698314e-06 1.3593809089e-05 -2.4871247239e-05 6.3969504022e-06 1.2482216797e-05 
-2.036868424e-05 5.5638776188e-06 7.8907804344e-06 -1.594094797e-05 8.9408818299e-06 3.9555339557e-06 -9.1641007052e-06 7.3179697817e-06 5.4402561594e-07 
-8.8492452391e-06 2.5982815974e-06 -8.8250337973e-07 -3.3217689156e-06 -9.0182493966e-07 -5.4817907084e-06 2.8699143491e-06 -1.7656089616e-06 -3.1392520698e-06 
5.7013679617e-06 -6.9800917153e-06 3.7639910155e-07 6.2685426565e-06 0.034996213403 0.034391634971 0.031143089197 0.032158256843 0.029940449061 
0.028630961133 0.020610354439 0.016170386934 0.013829320869 0.011142126943 0.019554530752 0.0096522237126 0.0079666764224 0.013801950446 
0.0069397400567 0.0055769181519 0.0098127565731 0.0045612497677 0.0036465233296 0.0067909249371 0.0030113267749 0.0025319103255 0.0044892514639 
0.0021852719644 0.0018670463328 0.0030992825893 0.001581402825 0.0014690306456 0.002325809236 0.0012910532876 0.0012394452164 0.0018199781055 
0.0011983327365 0.0013026320354 0.0016420145529 0.0013307034204 0.0015247925814 0.0017486551869 0.0016342422362 0.0019167942335 0.0021097047141 
0.0020586178519 0.0024200100058 0.0026616876555 0.0025240192597 0.0028377350367 0.0032914638918 0.0028518882036 0.0029829828441 0.0038177909688 
0.0026093311481 0.0021728466608 0.0038126998491 0.0010041030587 -1.053315944e-05 0.0020214969402 9.5418000795e-05 -0.00011942719663 -0.00010302344365 
0.00016861432703 -0.00022075054659 -0.00011481328223 -4.2717978439e-05 -7.0817308769e-05 3.080058301e-05 -0.00028775335287 2.5506783751e-05 0.00024910629808 
-0.00021403989898 0.0002813310891 -0.00017198769411 -0.00022800267311 0.00015194040317 8.3550585113e-05 0.0013495767583 0.00232763482 0.00047518137155 
0.0029407521628 0.0031451382177 0.0034044737217 0.0033165640449 0.0031734519932 0.0042331268141 0.0030432665549 0.0027247995421 0.0040660722375 
0.0025079349792 0.002138209661 0.003442491199 0.0018799638043 0.0015348124371 0.0026486392819 0.0012815405824 0.0010239175376 0.0018944272648 
0.00080616147204 0.00062316916619 0.0012313108375 0.00045685022069 0.00032629588166 0.00072975792846 0.00019339575459 9.8869862584e-05 0.00035867999883 
3.8569784863e-07 2.0098287379e-06 7.2108606849e-05 -2.7738285922e-07 2.6788273612e-06 -9.7517798018e-06 -3.803203986e-06 1.7106089926e-06 -5.3261627107e-06 
-8.611324505e-06 1.1709118548e-06 -3.3492170629e-07 -9.7299070023e-06 -8.2506394719e-08 5.3289524872e-06 -6.298321948e-06 -8.833072835e-06 1.5360039987e-05 
-6.5793586255e-06 -9.195544344e-06 1.7066026595e-05 -3.9780340115e-06 -4.7916015596e-06 6.9376495685e-06 1.1082620345e-05 0.034360292143 0.023632017751 
0.028971171455 0.047074553377 0.011369368235 0.0078981839221 0.018590090879 0.013941725868 8.5781363143e-07 -8.4090848119e-06 1.4810870435e-06 
-6.7449956265e-06 2.3982568508e-06 2.7247407529e-06 -7.3753231447e-06 1.8281584742e-06 5.0328177437e-06 -1.2334765904e-05 1.9417063333e-06 3.8298939798e-06 
-1.1446212185e-06 -2.0581472359e-06 9.8824222091e-06 6.1958582919e-05 4.8681446678e-06 0.00017299155503 0.00026146439844 0.00017567583295 0.00040373957749 
0.00054377544155 0.00046609966643 0.00070283995964 0.00088230402438 0.00084279153222 0.0010747246767 0.0013023804517 0.0013044968061 0.0015335997542 
0.0018420866499 0.0018926126434 0.0021026581895 0.0024413929662 0.002610465758 0.0027222312552 0.0030182587736 0.0034272201132 0.0031059607417 
0.0031780761453 0.0040560655233 0.002722843861 0.0022822054887 0.0037989769164 0.0014781587433 8.9101379985e-05 0.0024614236279 9.5510789225e-05 
-0.00042026749572 -0.00018673837409 9.8729560942e-05 -0.00024046360391 6.5356931026e-05 -0.00011759545429 0.00016704595042 0.00029801493658 -0.00034940063145 
3.8280647102e-05 -4.2822370147e-05 -0.00014802881331 0.0002918889289 0.00021688026618 -0.00014227705304 8.4638313337e-06 -0.00012422974355 0.0012076551037 
0.001804447048 0.0012247614382 0.0022828685765 0.002298440646 0.0028091922727 0.0025038153865 0.0023471147699 0.0031536284212 0.0024372934339 
0.0021248866789 0.0030736782901 0.0020249730848 0.0017148273083 0.0027625718445 0.0015684122294 0.0013454311919 0.0022385856723 0.0012792992864 
0.0011533601989 0.0017716496725 0.0011706549372 0.0011451530485 0.0015555571076 0.0012369980596 0.0013429000288 0.0016119759274 0.0016143709992 
0.0018478421818 0.0019499547518 0.0022084167624 0.002558747596 0.0026572988107 0.0030594513763 0.0034940611402 0.0036431769197 0.0041126673891 
0.0048965150135 0.0050648259389 0.006226820123 0.0075953309725 0.0073780216451 0.0087898255412 0.010778761646 0.010892747656 0.011788110454 
0.015564706879 0.015092865867 0.038101023055 0.038052094023 0.049026423881 0.057805518806 -0.00041624933075 0.0012147990579 0.061715571804 
0.06495824938 0.052424097286 0.067759575054 0.06971573858 0.058490777504 0.072676846677 0.074416905928 0.062927944968 0.076517892189 
0.07898327778 0.067723834009 0.081010436007 0.082767363003 0.07214846554 0.08438242781 0.085881989016 0.07595640421 0.087111952185 
0.088087044414 0.079040714948 0.088833481064 0.089911440017 0.081486025448 0.090259332217 0.090940005392 0.083190030441 0.091046936111 
0.091128322679 0.084180791449 0.090938484581 0.091099798251 0.084475677156 0.090494835355 0.089929145555 0.083969700335 0.08900036287 
0.088355110463 0.082578888516 0.087261585495 0.086460226062 0.080732303153 0.085338997838 0.084268175714 0.078770985396 0.082414956347 
0.08074794391 0.076186154295 0.078335411483 0.076068618049 0.072272719949 0.072531732193 0.069401510784 0.066549725699 0.065698034618 
0.061961472494 0.05953616253 0.057316586023 0.052389885431 0.040956382302 0.051277954254 0.027818538593 0.022779451443 0.024654174881 
0.037072035785 0.036869661014 0.032177428604 0.037150687115 0.037358667589 0.032541818027 0.036541984277 0.037252188216 0.032603324365 
0.034654215528 0.035793634621 0.031742877872 0.030024925764 0.032832259466 0.029293215527 0.022596226297 0.027425413742 0.024874574763 
0.013343830625 0.021946845332 0.019014245037 0.013656049276 0.012027446629 0.013196841718 0.013279970612 0.0011964027171 -0.00070738965792 
0.012689237346 0.012300075308 0.005500060196 0.0096204892287 -0.0018938473881 0.0024149641984 0.035039528708 0.032837160676 0.037553014067 
0.037842618484 0.033499735376 0.035749036471 0.036519383076 0.032501233378 0.032336895709 0.0341362604 0.030467142336 0.026732679358 
0.030117322062 0.02667037708 0.019115617959 0.024567893017 0.021644730315 0.012444955146 0.018391023452 0.016065927432 -2.6152408171e-05 
0.0072750847604 0.037233680058 0.036444136703 0.031194735615 0.033169066443 -9.3127746195e-07 -0.00090267869626 -0.0010302155317 0.0014927421712 
-0.0022103431438 2.021027252e-06 -7.5617238088e-06 2.1383984649e-06 0.024260985159 0.038127148694 0.037546772938 0.017672571475 0.0015751340072 
0.0017285624712 3.1944662285e-06 0.00059162730622 -4.2405827435e-06 1.7004254899e-07 0.00094121795977 0.0066971155126 -0.00048857832068 0.013619134345 
0.012935743154 0.012921230931 8.238342426e-06 3.2650475512e-06 -8.4475619772e-06 0.010588058828 0.020168852768 0.017001587297 0.025170206486 
0.013447404583 0.021989122329 -8.9377260751e-05 0.019397452388 0.022150401749 0.014790958663 -0.0025256117515 -0.00063444636238 0.00043316421277 
0.013797460902 0.012432767568 0.011787805861 -0.00030691952368 0.00029897649815 0.0015618218798 0.012582815588 -0.00033000922238 0.027944348949 
0.031426129157 0.028150330876 0.0084091284114 0.0043848407399 -0.00031243022682 2.2032279484e-06 2.7430589844e-05 -0.00055140696948 0.00056236182396 
-2.2761626352e-06 1.2019366997e-05 -8.030330012e-06 1.0663489457e-05 4.3509160864e-07 2.0693239609e-07 9.5220714893e-06 -2.4834171698e-06 4.4485860472e-07 
5.9320259665e-06 -8.7169563857e-06 6.8062620466e-06 4.852161273e-06 -7.9934456009e-06 8.4679437807e-06 7.0868744977e-06 -1.2929165275e-05 3.9123129911e-06 
1.2994095675e-05 -1.6860768038e-05 3.8556793141e-06 1.4003373917e-05 -1.6795957524e-05 4.97777831e-06 1.5913100372e-05 -1.9930594909e-05 6.5195568189e-06 
1.3570666194e-05 -2.1328999923e-05 7.158612162e-06 1.1975515376e-05 -1.9632067749e-05 7.2636049074e-06 8.7790759826e-06 -1.7885276078e-05 5.9945462451e-06 
6.2293109527e-06 -1.3331582419e-05 5.8346139161e-06 4.5084634613e-07 -9.042338565e-06 9.3815810819e-06 -7.6859835919e-07 -4.3791762822e-06 7.9623140251e-06 
-2.0214181695e-06 -6.6015659879e-06 4.5010844588e-06 -2.8251856067e-06 -3.094957834e-06 3.4609427498e-06 -7.8000276142e-07 5.4451678165e-07 2.732946279e-07 
-1.2278258372e-06 3.4281089824e-06 0.026423852222 0.025433245508 0.024585353407 0.022705550202 0.0212927753 0.034158336007 0.0092963515535 
0.011316483582 0.021697245641 0.018226775902 0.015560201687 0.013025721017 0.021239152707 0.010953525622 0.0088858767217 0.015093157518 
0.007485401265 0.0061489636268 0.010398400579 0.005278360913 0.0045341143114 0.0072803881076 0.0039262925157 0.0034201978925 0.0053509314222 
0.0029979129225 0.0027656139191 0.0040717703758 0.0025796858968 0.0025236248528 0.0033533540949 0.0025170928125 0.0026701989258 0.0031831777471 
0.0028060413298 0.0031225617548 0.0034228926471 0.0033544682628 0.003808246086 0.0040289795153 0.0040725931661 0.0045537520693 0.0048590359627 
0.0048671194108 0.0053148359599 0.0058638370311 0.0054234529567 0.0053944618291 0.0068443266551 0.0043504258632 0.0027205561357 0.0064153774003 
9.9738944766e-05 0.00014935162152 -0.00027485409628 0.00039692384619 -0.00034077032577 -0.0001135457748 0.00024060513577 9.9841611539e-05 0.00081410742554 
0.0046963889494 0.0053194266455 0.0056702421947 0.0055956848386 0.0068039738043 0.0054561087452 0.0049727684044 0.0067511007962 0.0046631409631 
0.0041082640483 0.0058986768323 0.0036489887222 0.0031388271804 0.0047798179708 0.0026699719071 0.0021989898667 0.0035772857506 0.0017829607044 
0.0014103381139 0.0024669575326 0.0010990342868 0.00083018869993 0.0015711018908 0.00058890962089 0.00038518017261 0.0008998335519 0.00017475773413 
1.8824240942e-05 0.00036152976432 1.1741709723e-06 9.7087638763e-07 -1.0323968908e-05 -3.660231938e-07 2.2072076978e-06 -1.0886783702e-05 -7.9166430851e-07 
2.0110000141e-06 -1.0513528592e-05 -1.7813052404e-06 1.7249534758e-06 -7.7483820555e-06 -2.6182303728e-06 -3.2099866351e-06 3.0434060891e-06 -2.205884912e-06 
-6.4760357051e-06 1.605884248e-05 0.031578214225 0.04143015931 0.025670717485 0.027573178918 0.027514869698 0.02725316924 0.026969397574 
0.022630323659 0.023469860028 1.3932999791e-06 4.7370028735e-07 4.9172265916e-06 -2.9713838425e-06 -4.0226488876e-06 2.8503660152e-06 -3.9459566536e-06 
1.8658788348e-06 4.3053837642e-06 2.4313082729e-06 4.2234688032e-06 0.00016802445302 0.00032889287064 0.00012432356879 0.00054031387297 0.00076315412739 
0.00056162659137 0.0010124225852 0.0012771865804 0.0011074070165 0.0015567386388 0.0019051014693 0.001758575898 0.0022619979539 0.0027129448723 
0.0025665504064 0.0031687021462 0.0037276332189 0.0036203428036 0.0041633220598 0.004765009697 0.0048467448502 0.0052330916016 0.0056327645651 
0.00614761718 0.0058077459338 0.0050692519477 0.0072940357492 0.0016610437948 -0.00016365920354 0.00047716951239 -0.00092347203499 5.761781391e-06 
-0.00018634023843 0.00028942465725 -0.000332248431 -0.00012196428762 0.0023395146864 0.0033275375926 0.0026641525738 0.0039073850332 0.0041177862753 
0.0053331831313 0.0043043697905 0.0042014916654 0.0052511582985 0.004522193551 0.004231241756 0.0052815111342 0.0040283253335 0.003583431257 
0.0050778506079 0.0032104991141 0.0028401298806 0.0042135110964 0.0026106117286 0.0024001229396 0.0033868641617 0.0023520957743 0.0023530280965 
0.0030089477046 0.0025039090846 0.0027402087268 0.0031016169467 0.0030832235969 0.0035684793525 0.003775992162 0.0041296958858 0.0048086616645 
0.0049082990652 0.0056090122329 0.0064988428645 0.0065868764465 0.0075536198961 0.0089013589672 0.0088487174588 0.0098283065798 0.011999119353 
0.01174913759 0.01665520028 0.019142424591 0.018631226471 0.019300473069 0.022261773992 0.029710989266 0.024134694924 0.027228875898 
0.028177151326 0.013222438774 0.012697319932 0.02183132946 0.019008238637 0.019100821502 0.044732794986 0.047487287079 0.049546009172 
0.037722946193 0.052615638957 0.054875102021 0.04290968836 0.058145351563 0.06032007925 0.06297939885 0.065027948741 0.054495409866 
0.06731463288 0.069001690905 0.059145754421 0.070742547942 0.072071509161 0.0628326465 0.073443803517 0.074539090947 0.065780988562 
0.075865168246 0.076535397236 0.068379384355 0.0772306006 0.077546724853 0.070439808106 0.077715372897 0.077703933208 0.071239059386 
0.077113363202 0.07660842373 0.070910621678 0.075636305122 0.074766262007 0.069349156972 0.073747647003 0.072805939872 0.067449351695 
0.071726780477 0.070875984343 0.065510195267 0.069314556322 0.067818543958 0.063099341645 0.066007560557 0.063809069278 0.06010475152 
0.060245280271 0.056800472462 0.05513544185 0.052307955409 0.048545878057 0.04747577154 0.027467330233 0.027615091469 0.023632771885 
0.0095673837953 0.0046117061638 0.0070303949952 0.026471428335 0.027303960882 0.023572296464 0.023349638783 0.02548176616 0.022512850623 
0.018900957088 0.02223924438 0.019582424923 0.014824393291 0.018386600599 0.016263003454 0.012030020003 0.012145019848 2.5804334624e-06 
-1.819026736e-06 -3.1704780156e-06 0.011480402314 0.028440889707 0.028873105108 0.024691828978 0.021197269976 0.023708645635 0.016743104709 
0.019733552525 0.01774400483 0.013393669771 0.015910002718 0.014381315959 0.012313751451 0.012710300966 0.01208157438 0.029833153144 
0.024808187604 0.028978071178 0.039490734732 7.7277606666e-07 1.033664845e-05 -5.8026161615e-06 0.013309396284 0.014108353276 0.013380311549 
0.012190721832 0.024862043603 0.026478672666 0.023397311966 0.021027005527 0.00075233468161 3.0118571271e-06 1.8895288182e-06 6.4732362564e-06 
0.049067033517 0.0046564033749 0.0089722591761 0.014574624114 0.0062126447934 0.0081910373075 0.00055685864029 -0.00026890552876 0.0038633765755 
0.022730048713 0.016522938966 0.018594190849 0.015664808768 0.013961472485 0.012536182012 0.011306671452 0.012010223699 0.010430404397 
0.011193690636 0.010032495798 0.043809023567 0.025377802292 0.02924517817 0.028613088495 0.0060056976764 0.038812963071 0.024978139013 
0.022818781802 0.011420605618 0.0079113485135 0.0083953974226 0.016435276729 0.027085166413 0.025650313909 0.021923590829 0.024257768587 
0.012112413224 0.012868893792 0.011639268786 -3.5191644865e-06 -1.8229600695e-06 0.019207086463 0.019287209214 -1.2060270409e-05 9.3680902847e-06 
-6.8832304333e-07 1.3045721628e-05 -8.3443977128e-07 -4.6611280079e-06 6.96775563e-06 4.9028282095e-07 3.2525519207e-06 5.0002687481e-06 -1.9227344873e-06 
4.7883246725e-06 5.5205120136e-06 -5.8178398539e-06 2.9603774992e-06 8.9400702607e-06 -4.8091099102e-06 2.5294861502e-06 1.2442675072e-05 -1.0359745124e-05 
3.6347511698e-06 1.0548535145e-05 -1.4265678498e-05 5.7610368277e-06 7.3453750645e-06 -1.2258394996e-05 6.147216461e-06 5.6020518264e-06 -1.3402005845e-05 
5.9651663601e-06 2.0944631709e-06 -8.4003248822e-06 5.7405614146e-06 -2.0636467243e-06 -4.5695788008e-06 5.7497371253e-06 -6.1173287367e-06 -1.4533097761e-06 
9.529202326e-06 -3.2887588302e-06 7.7164735339e-07 9.1709891469e-06 -3.8269718176e-06 -3.8175839007e-06 5.9705598951e-06 -3.5029149193e-06 2.8377618499e-07 
1.8615992353e-06 0.014892211491 0.01368398465 0.012505562162 0.013987303528 0.020593583202 0.017335525298 0.014653320739 0.012109823695 
0.019163053692 0.010328595505 0.0087993026767 0.013632887214 0.0076832181861 0.0066114622488 0.0099663754836 0.005837641166 0.0051366501555 
0.0074644841403 0.0046964335939 0.0043960555298 0.0059713415486 0.0041588237513 0.0041381539458 0.0051524039931 0.0041727301998 0.0044095351309 
0.0049577269609 0.0046932981506 0.0051139884361 0.0053740586025 0.0055063080756 0.0060512074796 0.006220785773 0.0063399016769 0.0069312551996 
0.0071246166001 0.0077528156071 0.0083951407369 0.0085842489094 0.0084591360314 0.0079526602622 0.0074184897668 0.0071525958453 0.0064490103951 
0.0083046291284 0.0058475576118 0.0051044010667 0.0071368967177 0.0043990894796 0.0037316222977 0.0055363822964 0.0030826259989 0.0025206132071 
0.0039537958488 0.0019854185741 0.0015592816971 0.0025895677426 0.0012370817809 0.00090082114052 0.0016407159089 0.00055757104162 0.00028251743129 
0.00087191817941 3.2973463719e-06 2.2121157595e-07 0.00015696595472 3.8949220709e-06 2.1649950826e-06 -1.5203389186e-05 5.4355622958e-06 2.6827728501e-06 
-1.6582577553e-05 6.719716206e-06 2.372470902e-06 -1.7408986421e-05 4.445401661e-06 6.1162985464e-06 -1.9988131695e-05 2.9009528422e-06 6.3964277288e-06 
0.0086747086727 0.01836891085 0.019660520088 2.1881462231e-05 8.5482354701e-07 1.1080397877e-06 6.8710228254e-06 2.1519824251e-06 -5.8617893408e-07 
2.3781160419e-05 0.00024596861855 -2.9465084221e-06 0.00051919892107 0.00081273116922 0.00045434622247 0.0011571170575 0.0015139529862 0.0011668367603 
0.0019153505782 0.0023322903963 0.0020320813416 0.0026537239625 0.0031847603152 0.0029048161716 0.0038065306698 0.0044916330727 0.0040212037122 
0.005150735669 0.0059318402398 0.005563678785 0.0064287262293 0.0072352024014 0.0070568465189 0.004563509681 0.019274034544 0.019380558918 
0.016229084286 0.0066593562793 0.0068857668743 0.0066611750816 0.0061099206109 0.0079330464473 0.0053110711604 0.0047220173124 0.0067206202761 
0.0043377630672 0.0040112942419 0.0053340817275 0.0038691067532 0.0038861285928 0.0047036104058 0.0040973471805 0.0044325374941 0.0048645306779 
0.0048810815396 0.0055967306069 0.0057226535774 0.0064348410262 0.0074548552997 0.0073784172572 0.0085679445552 0.0099860372341 0.0098720373215 
0.011527614481 0.01351600391 0.013222078636 0.015497585897 0.017629021603 0.017682572506 0.0219691874 0.027580915338 0.029961889724 
0.011817832149 0.011157478772 0.045842932547 0.048247833985 0.032494953392 0.050745381445 0.052794708286 0.043374070362 0.054545657911 
0.056198704896 0.047335330102 0.057532979233 0.058854746542 0.050296731435 0.060216030132 0.061621820172 0.052888495234 0.063888022072 
0.06453669733 0.056419733102 0.063536009833 0.063709309399 0.057684506251 0.064826862126 0.064207635095 0.057750396985 0.062140032931 
0.061138161241 0.056733042066 0.06015584881 0.059243417504 0.053788738103 0.058491482052 0.057609098189 0.052268055025 0.056328350569 
0.055053759312 0.050382494338 0.053696121126 0.052225445904 0.048080513768 0.050673607425 0.047302103244 0.045469506459 0.01546726276 
0.017342008189 0.015187398004 0.01325965684 0.014985406443 0.013037077707 1.0410787651e-06 3.771508515e-06 0.010225210459 0.010449854664 
0.020862883324 0.017519283363 0.014966754008 0.018697453375 0.029459382938 0.024971575803 0.0274279156 0.011132172198 0.011644998529 
0.017971358713 0.016956106185 0.020764184459 0.021160767532 0.012279253633 0.013625468957 0.010816934874 0.014454202533 0.016225233314 
0.012508510139 0.033447407382 -1.558778662e-05 1.2128698882e-05 -1.4921967868e-06 0.039747593458 0.042887322699 0.016584953837 0.015153509618 
0.014326810941 0.0096532553651 0.037275973127 0.038213832691 -1.697631909e-05 1.1502011087e-05 0.014611321602 0.017068017807 0.018669985695 
0.01642056339 0.041570152139 0.010514816101 0.010158825543 0.0099178024058 -3.7756905591e-06 0.020395943988 0.01817922112 0.019405673312 
0.0095443112338 0.0068199848849 0.018590906068 0.018050025226 0.015000581698 0.014898720517 0.013573308883 0.013029350209 0.019108165588 
0.018859812768 0.015452512496 0.015884801414 0.017738056913 0.01573063012 0.0082841067134 0.0089322522527 0.010932644656 0.0088092021535 
0.038478606389 0.01847672035 -0.02883124471 0.026330829572 0.034482111096 0.020893309946 0.021389006154 0.018217316806 0.01280448469 
0.011538723626 0.011944928019 0.010429916335 0.0095445270547 0.011104265314 -1.3513352397e-06 0.0093037151449 0.010460214202 0.0097505819821 
0.0084172301093 0.014111836909 0.012597906616 0.013465204933 0.011670440316 0.011466427191 0.010810760521 0.010414238606 0.011070065866 
0.038821195995 0.033085950175 0.027851806073 -2.273572944e-06 1.0209131981e-05 -6.479081352e-07 4.2557517448e-06 -3.7798101893e-06 5.8765693822e-07 
5.8048312357e-06 2.52310896e-06 -0.028038267051 0.025524094783 -5.1700174357e-07 4.8482988142e-06 -1.0989829809e-06 1.4527067637e-06 -3.6098043101e-07 
-2.9733918171e-06 6.7820600403e-06 9.4573044526e-07 -2.4047617378e-06 4.9431037198e-06 -3.4296944365e-06 -5.0083336795e-06 4.42917169e-06 -7.0232927664e-06 
2.4220941581e-06 5.1096950725e-06 -9.0516365273e-06 5.4806902272e-06 6.4547978872e-06 -8.4019560785e-06 -4.4096405246e-06 8.7884110283e-06 -4.8367306766e-06 
5.1864896232e-06 1.000207425e-05 0.024050342915 0.020371863277 0.02925099079 0.012142508387 0.011475706744 0.017464393641 0.014808304533 
0.021593103311 0.012859074786 0.01110649514 0.016032561093 0.0098279835668 0.0085375826062 0.012073749376 0.0075948932554 0.0069341595623 
0.009447150933 0.0063784127059 0.0060129125125 0.0077345006837 0.0057592340387 0.0057650109157 0.0067419325993 0.0059339462737 0.0062862169216 
0.0066176942208 0.0067813073496 0.0073579788751 0.0073642360274 0.0079474865776 0.0089299759407 0.031492251808 0.0081610694076 0.0072110171145 
0.0094379072369 0.0063123174053 0.0054294620106 0.0044532653262 0.0037078356581 0.0053506025085 0.0028139494245 0.0022495336767 0.0033503511229 
0.0018028360768 -0.026669870536 0.010202367936 0.0011891094939 0.00077602251114 0.0017655829255 0.00031649177738 1.6311127409e-06 0.00060532457542 
9.7272859877e-06 3.5369241324e-06 -1.9146602289e-05 1.1815878139e-05 3.3224626305e-06 -2.3429423431e-05 1.1976092053e-05 3.0153148022e-09 -2.4195697899e-05 
0.0095570642588 0.0100792917 0.0082087358646 0.0093335300749 0.0094882188063 0.01051308212 0.011424880621 0.012814240354 0.012699307032 
-2.2158746317e-06 1.8896353989e-06 -3.4586347141e-06 -5.2608595205e-06 -3.3195116307e-06 0.00031136086071 0.00064533710144 0.0001464099834 0.0010743769509 
0.001513666787 0.00096772759989 0.0020634549901 0.0025941182131 0.0020484426585 0.0032786762752 0.0037479677111 0.0034235794367 0.004452962123 
0.0048558124808 0.0015399260833 0.0054977642124 0.0063784086095 0.0053079006151 0.0073221592704 0.01029317501 0.0096760982063 0.0066136006166 
0.0062272935295 0.0057922511285 0.0054562497792 0.0054355770607 0.0063482568432 0.0057937254098 0.0061956724807 0.006495822207 0.0067747070551 
0.0075730062162 0.0075935529369 0.0086339260951 0.0099803010659 0.0096072402114 0.011493935244 0.013374107412 0.012745989762 0.015540215955 
0.018105143539 0.017110924427 0.020889233367 0.024176331902 0.023132682971 0.012028425882 0.013374574811 0.0097616152132 0.035648919788 
0.038133196125 0.039751071737 0.041384671417 0.033471392444 0.04272941849 0.043929049443 0.036326719074 0.045191418391 0.04668021041 
0.038798916274 0.048225543575 0.050500294525 0.041646338717 0.049443836945 -0.016412785967 0.025027170203 0.049185347075 0.050208226848 
0.042965759927 0.048167277787 -0.019541646047 0.02355149124 0.046903287867 0.045877065857 0.041413452226 0.045286456854 0.044712254525 
0.039533520761 0.044080225985 0.043101355066 0.038429299007 0.0421180036 0.041187682721 0.037005141457 0.0397700625 0.012918119199 
0.010870420831 0.011715039858 0.0096423611677 0.01979680177 0.016634027719 -0.024447960728 0.012920159246 -2.1617789711e-05 9.0583104177e-06 
-5.9293618113e-08 -1.3365310634e-05 5.0657430433e-06 -4.8868778733e-07 -7.32503602e-07 0.013565487015 0.01256601869 0.012107943113 0.011757603535 
0.0097600205818 0.011863920927 0.016710726214 0.0086143609268 0.010420578113 -1.8049113923e-05 5.1796793068e-06 -7.4261803196e-08 0.011757670417 
0.011853561435 0.010487198305 0.011192420545 0.0074840696777 0.008997250879 0.0084119941959 1.0192435203e-05 1.6587048167e-06 -2.6378978576e-06 
5.5488092109e-07 -6.0283140277e-06 -2.2159508103e-06 0.011175478909 0.010475145158 0.0095761185292 0.012583604374 0.012390294179 0.010189167756 
0.010323379496 0.008831369008 0.0098163454382 0.0075449119598 0.0092043852818 0.00953755936 0.011145818916 0.012364273629 0.01344685067 
0.0066736398259 0.0071344882908 0.0076425291839 0.015556930402 0.015304190505 0.033457900632 0.029576497251 0.034885678518 0.015651816902 
0.01595239866 0.014220137266 0.012520639895 0.011051596847 0.030472370448 0.0084279944844 0.008702968494 0.010136224027 0.00083597098568 
-0.0080602774937 -1.4491908551e-05 3.9214238205e-06 0.0095944104507 -0.035302563797 -7.7972823327e-06 -3.1675001738e-06 7.5874873624e-06 9.9695375242e-06 
-3.4260496947e-06 1.6582334825e-06 3.3657621027e-06 -6.2097392913e-06 5.4788534559e-06 5.931573569e-06 -1.1400547153e-05 1.9763904165e-06 5.4243571421e-06 
-1.2148273701e-05 5.6517567507e-07 8.3116618832e-06 -7.3303092722e-06 -1.4475795529e-06 0.030294699706 0.0085831024521 0.009732987869 0.0096683004321 
0.0073665096598 0.01928360283 0.01679217316 0.014462372848 0.01270024464 0.017378281026 0.011672385325 0.010399991462 0.013521406031 
0.0092819836058 0.0084299797055 0.011074553804 0.0077518680147 0.0073846699432 0.0090693892754 0.0071259766892 0.0072631628685 0.0079814029626 
0.0078309640503 0.026947312144 0.028439967434 1.5689236111e-05 0.0062979499221 0.0052021377565 0.0091192906438 0.0088538092293 0.0094726198495 
0.0040364967288 0.0030900100165 0.0049480979492 -0.036361376806 -0.042720577031 -0.018308286067 -0.02851552201 0.0021698259836 0.0014721932538 
0.0028061731809 0.00082313461471 0.00033323938964 0.0011845457571 0.014037147309 0.015009865479 0.013815869482 0.012508288819 -7.0231110466e-06 
0.00030197265151 0.00074316749349 0.0012100585315 0.00053296657369 0.0032564973657 0.0040768117224 0.0050375914437 0.004824251112 0.0059700003619 
0.0050763179589 0.0062636510231 0.0073459952045 0.03118347934 0.026141942741 0.022399435571 0.012172731865 0.011877090827 0.009540337347 
0.009808638085 0.01021899426 0.0095615557579 0.013302174587 0.014768517267 0.0070692616811 0.0074087936056 0.0084242642355 0.009251834285 
0.0088154754262 0.01023358435 0.011805247014 0.01086626304 0.013896711352 0.016131101484 0.014706940859 0.018659983718 0.021811883549 
0.025305736749 0.0071724947976 0.0078051469471 0.029410294822 0.030548688098 0.024262327867 0.031133373618 0.032429743982 0.025737291943 
0.033813254008 0.035388114425 0.027919530345 0.034327584184 0.033166468566 0.013184163953 0.011732264719 0.0087813275189 0.0077565498518 
0.0075938030015 0.0056402713593 0.008184646778 -2.3994674689e-05 1.5357991195e-05 1.6352681244e-06 -1.1675211474e-05 3.9800217352e-06 1.4989973806e-05 
0.012628010286 0.011755434713 0.011776313083 0.010815299662 0.011503373676 0.012100122667 6.292175161e-06 0.0086675876388 0.0075662859615 
6.0040153113e-06 -2.0876510518e-05 0.0059691976217 0.0080173422799 0.0078933324337 -1.5946119717e-06 2.4842518848e-06 0.0075751125181 0.010032641063 
0.02762536815 0.033808586089 1.6059173268e-05 3.5231793134e-06 -5.5418921589e-06 1.6282594799e-05 -3.0116404165e-05 0.0080072355649 0.0075288050867 
-6.2706481215e-06 0.0085577169659 0.0018019535293 0.0024361764705 0.0030715368837 0.023299646134 -4.0900299763e-06 0.0084578024285 0.0088346653299 
0.009508152584 0.019841897175 0.0073267490122 0.0057823687474 0.0092730917801 0.0083659119792 8.0252372997e-06 0.033545906222 0.033121520738 
0.03272914967 0.027784079464 0.032501716207 0.032161953297 0.027470421694 0.031824477471 0.0079413712734 0.013192988399 0.012794809614 
0.012059605167 0.0076296678636 0.0079079174166 0.0074302526649 0.00984949445 0.010196856296 0.010828734793 0.027130940588 0.007159640938 
0.001573117312 4.0276466164e-06 0.02716138951 0.00099201789763 0.0015590271326 2.7371859237e-05 -7.8638955088e-06 0.0090542920941 0.0075721905547 
0.010293705232 0.0062351187343 0.0048759281749 0.0013831781598 0.00072314369084 0.023495199065 0.0071411297925 0.0004648431351 -3.8941072308e-06 
0.010538430862 0.0037544315263 0.0036679358701 0.020690541221 0.016721041006 0.020225107608 8.3759846958e-06 -1.9320254018e-05 0.00011914623342 
1.401222566e-05 -2.6642919979e-06 -1.0084633616e-05 1.8617450918e-05 -9.4067969747e-06 0.00020071102545 4.959679826e-07 -1.7043245213e-05 2.3671039273e-05 
3.1232230397e-06 -8.1014000705e-06 0.0071079536251 0.0071287033541 0.0058162938798 0.019231190288 0.016900092647 0.022714677224 0.0058176024905 
0.0073684206953 0.0071497085694 0.015331517541 0.013124214317 0.011617706799 0.015869721352 0.010201959993 0.0093842153829 0.011975501505 
0.0085582621018 0.00021858774188 0.014399009745 0.013743937621 -7.6923936304e-06 -9.7804955736e-07 0.023422312737 0.021937124469 0.01754286414 
0.012819216278 -8.7407082519e-06 0.0034577050415 0.0024208646737 0.0018837762804 0.011329591261 0.012022642558 0.011114125925 -2.7136059285e-06 
6.9131618638e-06 -1.1242552319e-06 0.00020410434959 -1.0433096258e-05 0.010371087954 0.0095861130486 0.021455556535 0.022333866746 0.0024292971153 
0.0040081759036 0.010146905182 0.014514682301 0.004489010288 0.0043651466824 0.002768413499 0.012414198493 0.0027080313626 0.003627602677 
0.016842063878 0.020510718206 0.020704069807 0.0020378360259 0.022667695664 0.022773448972 0.022672945071 0.018553406449 0.013365838493 
0.0072599967592 0.021580594507 0.018891284267 5.6663643253e-06 -7.8741359983e-06 2.3565909424e-05 0.012546963723 0.0045482162463 0.0010937393374 
0.00077610215486 0.01691066534 0.0043650760739 0.011746678352 0.011320925678 0.011856151841 0.015007256505 0.015443099896 0.0014913924635 
-0.056770203342 0.011926689289 0.0013331338634 0.0012747470934 0.015930439536 0.013250530198 0.0040803340693 -0.0070944715858 0.0053434325379 
0.00014870360742 0.0038524987213 0.0024579949168 0.003577441266 3.6817274626e-06 1.7695021594e-05 0.012377888965 0.012425299553 0.0011312318244 
0.00051642434162 0.0014786780176 0.0010823877222 0.011889179042 -0.003711393753 -0.014243123049 0.00025167356535 0.013044343396 0.014030243539 
0.015153000452 0.0026748197068 0.013591745913 0.00358337211 -0.041130114558 -0.0024802881374 1.8211397087e-05 -1.5624927978e-05 1.1468395902e-05 
-1.4507537304e-05 -8.9877470558e-06 1.6046907773e-05 -1.084918387e-05 -1.5619251021e-05 1.8227960145e-05 -8.8208353935e-06 -7.7420535289e-06 1.84235842e-05 
-3.8079344369e-06 -6.6639857408e-06 7.4167291869e-06 -2.096013475e-07 -4.1083441048e-06 5.4035822124e-06 -1.2645727212e-06 2.3186089181e-07 3.8778207532e-06 
3.7177774856e-06 2.2581339944e-06 -5.595412989e-06 6.0029381935e-06 5.8445559086e-06 -1.6798200029e-05 1.5908715311e-05 1.3715083704e-05 -2.445240471e-05 
1.100464697e-05 1.3926820042e-05 -2.2718689779e-05 1.3619610236e-05 1.2453595702e-05 -3.2238132572e-05 1.2656335044e-05 1.2895719518e-05 -3.1438423885e-05 
1.2917704827e-05 1.3586347193e-05 -3.4056104332e-05 1.5324076436e-05 1.3101113961e-05 -3.1685899507e-05 1.4284414714e-05 1.0181229528e-05 -2.9485896039e-05 
1.1713610166e-05 7.9127710322e-06 -2.808622583e-05 9.8264721305e-06 4.943777097e-06 -2.1971700464e-05 5.9139330476e-06 -3.3893428485e-06 -1.7967174615e-05 
3.6316044531e-06 -4.5108598721e-06 -1.0592892032e-05 -1.4128985036e-09 5.2541274393e-07 -1.7892792818e-06 -1.7060018803e-06 -3.4310011978e-06 1.6850717056e-06 
-7.282804494e-06 -4.6043386014e-06 4.2362129147e-06 -9.7562936063e-06 -9.2716067282e-06 1.6972559534e-05 -1.3252814839e-05 -1.3697035611e-05 1.9429577119e-05 
-8.1249170887e-06 -7.2580750941e-07 1.1566185354e-05 -6.0986645647e-07 2.5160406358e-05 1.77931079e-05 -1.4045854778e-06 -0.023423096008 0.010175264619 
0.01974256137 0.0033363046125 0.0086085347012 0.0013716770614 0.0020763667967 0.0025555960341 0.00085850612207 0.0012489150207 0.0013866212369 
0.0011282991967 0.00075911675004 0.00081722828034 0.00075668640879 0.00046362188927 0.00048002283825 0.00040628034776 0.00031974739995 0.00029439574926 
0.00026571947808 0.00021705516936 0.00018282095977 0.00016101044393 0.00017820705779 0.00012381615797 8.3137131268e-05 0.00012137715687 8.9058203203e-05 
6.1047185609e-05 0.00010910823018 5.7529675366e-05 3.5627863049e-05 0.0001319362282 6.4335877934e-05 7.6254180491e-05 0.00016528089997 9.5573956173e-05 
0.00010884866882 0.00022194820073 0.00013793803373 0.00015640981622 0.00029268439656 0.00019534237795 0.00023447233193 0.00036417136251 0.00025296882235 
0.00031865171619 0.00039874435594 0.00029350862412 0.00036334980696 0.00032498070432 0.00025947983657 0.00036041266616 0.00014101313262 0.00012937550165 
0.00014969238062 -8.1136827327e-05 4.9681218459e-05 -6.9085308053e-06 -0.00013964098233 -2.3430931104e-05 5.6921581499e-05 -0.00015756090747 -6.2934113935e-05 
0.0001908824727 -0.00011947830285 -0.00016324970407 0.00027601383501 -6.4663833488e-05 -0.00018550279328 0.00023830027723 1.0124976402e-05 -0.00014364843987 
0.00015863569 9.3340167808e-05 4.3965270071e-05 2.384343755e-05 0.00026671624685 0.00029038538196 0.00018259392073 0.00031290414433 0.00038399551035 
0.00042951319462 0.00029406591092 0.00034945303872 0.00044393121105 0.00023695778196 0.00027919397876 0.00039044383297 0.00016706305666 0.00019775292489 
0.0002743833522 0.00011621863314 0.00013232923454 0.00017320908048 8.2023675938e-05 8.499037329e-05 0.00011625779828 5.0230116108e-05 4.9029362163e-05 
8.1417452605e-05 2.8459180472e-05 2.0198837003e-05 3.4381226233e-05 7.6997498459e-06 1.3528560368e-06 7.8054132499e-06 -1.7866956875e-07 -7.1241503498e-07 
-1.8119846936e-06 -3.8431600282e-06 -5.5266807218e-06 5.0698172499e-06 -6.5281292646e-06 -8.2412358259e-06 1.3474619397e-05 -9.4961488623e-06 -1.0655514771e-05 
1.8720315907e-05 -1.1579143932e-05 -1.1699894833e-05 2.0777409506e-05 -1.3192582736e-05 -1.3995923777e-05 2.5154766086e-05 -1.1761202878e-05 -1.5298502122e-05 
2.3481234933e-05 0.061520263628 -5.3420185894e-06 -1.2363714197e-05 1.4002578025e-05 -8.7007402349e-06 -1.0956404808e-05 9.7731682101e-06 -8.5799113692e-06 
-8.8605115616e-06 1.3198000249e-05 -8.8919788782e-06 -6.9676072247e-06 1.3456708995e-05 -6.4548414271e-06 -3.4206743518e-06 1.2447056055e-05 -6.7226408377e-06 
-7.8773850942e-07 1.1493137094e-05 -6.5126831688e-06 8.7126107214e-07 9.3103568104e-06 -2.3377053205e-06 4.7397433004e-06 8.1066255973e-06 5.6008612029e-06 
9.3892572573e-06 4.4986965387e-06 7.7580827069e-06 1.7698128629e-05 1.0888797359e-05 3.2815480233e-05 4.7098391767e-05 2.4419707424e-05 5.6271872416e-05 
5.702315333e-05 5.4843839415e-05 0.00010150055045 0.00012119140688 7.2535536189e-05 0.00015333691333 0.00016947872299 0.00012698430079 0.00018155925874 
0.00020950908216 0.00017150555371 0.00024658978344 0.00020841945948 0.00026869492521 0.00028762080206 0.00029809540542 0.00027650933379 0.00023484440301 
0.00026123125416 0.00029046110964 0.00010541548212 0.00016421945155 0.00017409365128 -2.6929606578e-05 8.475342437e-05 -1.2119827348e-05 -0.000164046421 
-0.00011101746996 0.00016753834345 -0.00025751656955 -0.00025846782555 0.0003085786057 -0.00017048072115 -0.00026170293176 0.00026451855302 -9.0229798486e-05 
-0.00021290927149 0.00033344413595 -9.2083743668e-05 -0.00019172195135 0.00011620276119 4.4191884016e-05 7.5500391738e-05 9.1450972345e-05 0.00013206919582 
0.00023068586837 0.00019283584848 0.00013241405308 0.00029586927602 0.0002106785979 0.00013586918751 0.00024901330241 0.00024020164426 0.00012022040459 
0.00022869897262 0.00020197778565 7.6575549341e-05 0.00015821184455 0.00017081547181 4.9483672785e-05 0.00010675879124 0.00011915859317 4.1247414884e-05 
0.00010139412038 6.3777498302e-05 3.8038129571e-05 8.4018480824e-05 4.51668641e-05 3.9678171217e-05 8.6346717097e-05 3.7379383411e-05 6.3282202629e-05 
0.00010592972783 7.7456006915e-05 0.0001186000499 0.0001855974221 0.00010282413632 0.0001518010314 0.00026607235543 8.5145815441e-05 0.0003855271316 
0.00028063665874 0.00024029143325 0.0004752921118 0.00056359491591 0.00039356719593 0.00082256113356 0.00077675334756 0.00049268415586 0.0016153641165 
0.0013009032408 0.00085401416249 0.0029003298174 0.0024021874953 0.0018558997374 0.019873157344 0.011335271162 0.0056086909717 0.055337486115 
0.071017101487 0.069492550461 0.080546671334 0.087957003116 0.053447250285 0.086236524335 0.090305659296 0.067420711105 0.083849952338 
0.093627165585 0.078799395249 0.10248606068 0.10862898616 0.092744831455 0.10899935244 0.10701846091 0.096637226273 0.10943010735 
0.10870206409 0.096974996843 0.11158790387 0.10877351778 0.10181716381 0.11215910276 0.11001502089 0.10293036546 0.11069433776 
0.11029026939 0.10449136996 0.11326558104 0.11113505837 0.10827717712 0.11455365984 0.11432161861 0.10795790497 0.1135043647 
0.11387910476 0.10959143197 0.11410761626 0.11501010629 0.10995524985 0.11349167258 0.11479697221 0.10993048636 0.11319244612 
0.11559324618 0.10855100261 0.11082540173 0.11396863706 0.10717950771 0.10958484676 0.11157525193 0.10680831866 0.10581215208 
0.10971156205 0.10341368467 0.10515672972 0.10822077926 0.10283760412 0.1021595567 0.10544382578 0.098971570969 0.098886046793 
0.10274373677 0.094910054444 0.096736596903 0.099925586368 0.090357833008 0.091929142814 0.096234769932 0.08241619916 0.090774862568 
0.091565872403 0.077124023979 0.087994894309 0.094469140378 0.067589678122 0.034989154115 0.036171208921 0.027892827326 0.057783175189 
0.050467368538 0.01802705302 0.056274067125 0.055796959225 0.044709052126 0.054152719383 0.054701641486 0.05194021102 0.05300243793 
0.053248486174 0.052126254691 0.053728979632 0.055807699108 0.051585362684 0.05484475586 0.057315057167 0.050611751096 0.053369037029 
0.052464001483 0.050001594908 0.051457924368 0.053410362413 0.0493981642 0.052023936089 0.055295241232 0.049216797323 0.053313049494 
0.056657475885 0.048738378272 0.052513793206 0.05625605538 0.046433528212 0.030114587109 0.037096119895 0.041424207633 0.03355694726 
0.015007836386 0.017125747899 -0.013776509056 -0.0070848075615 0.025260097694 0.016523994974 0.042417758601 0.045760495943 0.0090893668507 
0.055157825451 0.055440648212 0.027728427419 0.049401370022 0.05576659994 0.034743711495 0.059104369751 0.054795480273 0.048031035519 
0.057061882337 0.056122657144 0.053360427113 0.056455013563 0.054046882019 0.0519776494 0.052054762199 0.054185625971 0.050223047339 
0.052341107989 0.054769034786 0.049963354014 0.054210246191 0.05618597358 0.049340977899 0.054276031517 0.05771249334 0.049578017972 
0.053302548536 0.055588321384 0.046826444297 0.045315612496 0.045592445738 0.040017556111 0.020111738937 0.029614672162 0.020029792016 
-0.0023301055344 0.0011689176743 -2.4689249986e-06 -0.00076349492528 0.0095509016116 0.0039729360151 -6.0983861657e-06 -1.3698203233e-05 1.6964743881e-05 
0.028774707269 0.027504384473 0.025859302831 -0.0034276777661 0.00030423167363 0.0042453950292 0.0021060912573 -0.0069066548758 0.0020743473118 
0.0052383655092 0.0038436406126 -2.1955947101e-05 -4.1028831995e-06 -1.0514863702e-05 -1.3285043076e-05 5.0956518636e-06 -2.6067656837e-06 9.9329878673e-06 
-3.8518366831e-06 -8.6699236156e-06 -2.5899360384e-07 2.1992408594e-06 8.0703276159e-06 -5.5122463719e-07 6.6336790042e-06 1.6833392349e-06 -9.5387281254e-07 
3.3189850576e-06 -2.9640307087e-06 3.26654595e-06 7.9229456501e-06 -6.7125912964e-06 4.5624424655e-06 1.1798531504e-05 -1.8894075158e-05 1.8399268149e-05 
1.7375057727e-05 -2.2125820747e-05 2.1498272399e-05 9.9242160288e-06 -2.2730200601e-05 2.06992337e-05 1.0685692973e-05 -2.6375795309e-05 2.1172200265e-05 
1.0417585144e-05 -2.6969598965e-05 1.9655027534e-05 8.4562997436e-06 -2.9264686194e-05 1.7286598075e-05 8.0343157861e-06 -2.7321999528e-05 1.5959293527e-05 
5.6395593143e-06 -2.4834599457e-05 1.353568966e-05 6.0606937371e-06 -2.0743002925e-05 7.1078839867e-06 2.9126525777e-06 -1.6070989879e-05 6.7739833196e-06 
6.7597629249e-06 -1.2480775763e-05 2.0503857535e-06 2.4810134515e-06 -5.7803469074e-06 3.1815274042e-07 5.8318424361e-07 -1.2474948324e-06 -2.1928077197e-06 
-5.5987478177e-06 2.6921464245e-06 -4.8995227359e-06 -7.1278557518e-06 5.7512478375e-06 -8.5067459338e-06 -1.1172470629e-05 1.381903389e-05 -7.87338434e-06 
-1.1784867534e-05 1.3648715984e-05 0.0072121428469 0.0096202224915 -7.0222785983e-06 -7.1183758954e-06 0.0068535126199 0.017428014455 0.011224961104 
0.017128661231 0.015684410265 0.016897904111 0.024454601015 0.056316764186 0.026634367422 0.0043601925784 0.0058091972448 0.0089349891486 
0.0027637061062 0.0035159361387 0.0054335172108 0.0019030877261 0.0022799616455 0.0034351021172 0.0013609723317 0.0015505963256 0.0023116163297 
0.0010314109362 0.001107871028 0.0016976737023 0.00071137613298 0.00078360812222 0.0011938819563 0.00057425823876 0.00057216454936 0.0008816889845 
0.00055055977122 0.00045742182089 0.00069287213757 0.00062760043557 0.00050694743502 0.00073931228081 0.0008250471348 0.00066061218589 0.00095422721195 
0.0010909030766 0.00088333365629 0.001274077913 0.0013922412616 0.0011751258763 0.0017067473573 0.0015989612036 0.0014234966325 0.0021204257556 
0.0015118271022 0.001457876783 0.0022414990544 0.00091241777698 0.0011228399826 0.0017979555118 -9.9194744927e-05 0.00018526736793 0.00069129768919 
-0.00017001681862 -4.8564710068e-07 -4.7844512714e-05 -0.00024547584096 4.5557387902e-05 -1.1614290013e-06 -9.11933701e-05 -0.00010079531274 0.00022216187649 
1.775980445e-05 -0.00018772287114 0.00018582899777 8.6715304961e-05 -0.00024214989322 0.00012872381862 0.00010507779161 -0.0001625703617 4.111936407e-05 
0.0010981087074 0.0007219530134 0.00027710516559 0.0015818040842 0.0015761546179 0.0019480994494 0.0014913726603 0.0016610340206 0.0024484563752 
0.0012009428691 0.0014456809222 0.0021938416784 0.00088434391387 0.0010994764715 0.0016725028343 0.00064791618935 0.00079475783763 0.001230364903 
0.00045838216743 0.00055686203956 0.00091682624283 0.00026639194666 0.00035122181135 0.00060326538531 0.00014011697386 0.00019426444577 0.00035861900143 
4.3300858964e-05 7.1830209542e-05 0.00016507323089 9.1685888226e-07 5.4793503846e-06 2.3326001731e-05 -1.1728733819e-07 -5.9976869759e-06 -4.5185451267e-06 
-1.4318100018e-07 -1.4657753183e-05 1.7623725237e-06 -1.0097563691e-06 -1.3747571324e-05 7.8345396776e-06 -1.1415005162e-05 -1.4717296363e-05 1.0375742013e-05 
-1.0079549267e-05 -9.1463559211e-06 1.4049211961e-05 1.4295373374e-07 -4.6929935596e-06 1.2327841898e-05 0.012640646826 7.0154835058e-05 0.010147132886 
0.0058349042485 -1.8929440922e-05 -9.2699415519e-06 -6.2380687192e-06 8.1821357051e-06 -8.2915349601e-06 -4.1199613436e-06 8.3789403304e-06 -1.013297988e-05 
-4.9517765332e-07 8.4462149101e-06 -9.0089197538e-06 1.7060213201e-06 7.5186164291e-06 -1.0907026422e-05 6.0854544107e-06 5.5049163068e-06 -1.1015896308e-05 
6.7238598284e-06 1.3819777363e-06 -1.9640010366e-06 6.0861954157e-06 -6.2976160884e-07 5.688271137e-05 3.672460233e-05 3.1119190772e-05 0.00016248390777 
0.00011665631153 0.00014393362585 0.00029351871573 0.00023082658455 0.00030080399612 0.00047469485347 0.00036780220071 0.00050296164622 0.00069974136153 
0.00055474696529 0.00076808333767 0.00090939056612 0.00079858659116 0.0010605430206 0.0011507197336 0.00098178543722 0.0013675193313 0.0012639512632 
0.0011713710867 0.001617208865 0.0011355503947 0.0011675319724 0.0016323846204 0.00058237582924 0.00086184262706 0.0012490355068 -8.2859233895e-05 
0.00012471658244 0.00030950524237 -0.00018195042472 9.6291592502e-06 0.00013192757322 -0.00024655861481 -9.5418727715e-05 0.00022693010908 -8.684480977e-05 
-0.00019154477767 0.00024088678011 3.0455932764e-05 -0.00027641914789 0.00018084576343 -3.7718533464e-05 -0.00028057882553 9.8730505803e-05 8.3590281242e-05 
-0.00012271116581 -1.7560961786e-05 0.00072020958616 0.00063663151803 0.00050031461439 0.00098848265854 0.0011383016018 0.0013021121983 0.00094615290018 
0.0012037534959 0.0015811280839 0.00076369484486 0.0010154202754 0.001438820255 0.00056462936371 0.0007686246023 0.0011149788218 0.00042762170072 
0.00056749497352 0.00084217532198 0.00035048422504 0.00045325475518 0.00059876899162 0.00033175401091 0.00040989649358 0.00051378293342 0.00039335718357 
0.00041723137976 0.00054272129542 0.00058883181774 0.00051677521507 0.00070340395781 0.00088254320345 0.00080517648457 0.00097146875053 0.0013799069139 
0.0012152831008 0.0014036019182 0.0019707092643 0.0018584803452 0.0019493910386 0.0026535258387 0.0022871219101 0.0027506638588 0.0038890957002 
0.003182588113 0.0040268550923 0.0063574268443 0.0046904956865 0.0060714594924 0.012127235334 0.0082307142747 0.010329906125 0.029664626092 
0.014560592387 0.020368768851 0.044750444575 0.0070112686371 0.010085463768 0.072358527152 0.069255562564 0.059212021265 0.056725710624 
0.056502590176 0.046516420032 0.081315892462 0.078699135597 0.069331354881 0.088821262529 0.08625799995 0.07765215515 0.091679060625 
0.091739389494 0.082652024076 0.094326177966 0.095280771004 0.087677411306 0.096308592449 0.097125237887 0.090693414623 0.098168003714 
0.098539679861 0.092835844116 0.099674028243 0.10030814711 0.094373313473 0.10122831531 0.10040838133 0.095698343647 0.10233413845 
0.10177112468 0.096959244994 0.10253678616 0.10204265691 0.097782956526 0.10240735833 0.1021034874 0.097923309442 0.10158775994 
0.1011669818 0.097379136836 0.1001799782 0.10021016273 0.096213773178 0.098698244472 0.097900174586 0.094274516127 0.097286752836 
0.095431593344 0.092431510064 0.094822870502 0.093365916695 0.090366539574 0.091822947342 0.090174427573 0.08758775915 0.08728865952 
0.085600114388 0.083358872165 0.08014186107 0.080111844876 0.076714611966 0.071843420493 0.072118200669 0.067382848633 0.06453480584 
0.063098824378 0.057467655297 0.0015102965589 0.00072998070178 0.0097332759767 0.020340311953 0.013084614591 -0.0032339110262 0.0095337467062 
0.027660386305 0.032775353644 0.021913206111 0.039288644817 0.039433035469 0.032531982968 0.043672449132 0.043650810603 0.038517776878 
0.04531914658 0.045652660888 0.040942854377 0.046167439422 0.045784542457 0.042796944241 0.045774486451 0.0456059378 0.043444248601 
0.045446394695 0.044787233935 0.043091383611 0.043820696634 0.044496430139 0.041977284602 0.042293761776 0.041939536856 0.040318385827 
0.039117874467 0.036193493402 0.037274987327 0.033618393905 0.027953218846 0.030757344266 0.023052376408 0.008721815568 0.013589625563 
0.020486076972 0.0091138558637 0.011923186535 -0.0014345848874 0.0013560710475 0.021912440819 0.02603902081 0.021174332493 0.033004436861 
0.038061708443 0.029841939692 0.043104318562 0.043024956753 0.035587942198 0.043931525954 0.045779146669 0.040891349704 0.045306212954 
0.047053173255 0.042585147369 0.044753334577 0.04589853812 0.042446809447 0.045320778813 0.045724472534 0.042138647298 0.043586796073 
0.044602194392 0.041301534975 0.042453299648 0.042556523964 0.039446992443 0.037859928941 0.038228179019 0.036254721834 0.032007277983 
0.026415532458 0.030180174206 0.020611308757 0.0088170838212 0.020757672791 -0.00069556186439 -0.00015500874235 -6.7293771863e-06 -1.4020107008e-05 
1.5448469402e-05 1.0077105053e-05 -9.9834308071e-06 -7.0111265731e-06 9.7831902779e-06 0.013456084286 0.004599081013 0.0094675258111 0.011375434843 
7.8707421539e-06 0.00025181884336 0.0080842341321 0.0029018249178 -0.0012009892252 8.8566859704e-05 -0.00023965555501 -0.00048379068831 0.042071799715 
0.010340045095 0.0029432370164 -0.00093186721393 0.053512816783 0.045904369637 0.00041833740765 -5.689119622e-05 0.0013337036786 0.010618893548 
0.0022726042251 0.00095489812127 5.9487585293e-05 0.0020911870041 2.1516150349e-06 -1.7061531797e-06 -1.2828967083e-06 8.6289394664e-08 7.9486136502e-06 
1.0449287609e-06 -3.6714638883e-06 5.6081334165e-06 3.6309169377e-06 -3.7618536313e-06 5.8569712152e-06 8.3249513753e-06 -1.783390112e-05 1.5988495772e-05 
1.1555581761e-05 -1.710340026e-05 1.7732786549e-05 7.3729942682e-06 -2.0410558346e-05 1.740997422e-05 8.8076515118e-06 -1.9620300116e-05 1.6921952189e-05 
7.4832304003e-06 -2.2566476161e-05 1.4221828093e-05 6.8738604101e-06 -2.3049475379e-05 1.2922418428e-05 6.9741154501e-06 -2.0716561535e-05 9.347830106e-06 
5.7813674559e-06 -1.7826762393e-05 5.5965095525e-06 4.6492086565e-06 -1.4267791592e-05 2.490159808e-06 2.6095536349e-06 -9.3324623359e-06 4.9785729644e-07 
8.7166970833e-06 -8.8151037939e-06 -2.1215049916e-06 5.0099324621e-06 -5.6622259613e-06 -3.1127020562e-06 2.6972265819e-06 -1.7951819398e-06 -6.3829850994e-06 
-7.454625167e-07 2.6628538442e-06 -2.4909957845e-06 -5.5056253767e-06 3.9720852582e-06 2.7239967989e-07 -6.9887626433e-06 6.187331387e-06 2.351429816e-06 
0.012650856329 0.010162448245 0.0012567573188 0.00045343181309 0.0087568585124 0.011295155354 0.014469035305 0.014471978267 0.013162416915 
0.014038570407 0.018005690947 0.01680712977 0.034391246602 0.013148774083 0.011457581019 0.0044592051446 0.005278931544 0.0032613698907 
0.0038476473407 0.0055455231088 0.0024050652341 0.0028347876092 0.0040566913678 0.0017525660946 0.0020353560807 0.0029699610894 0.0013655294245 
0.0014316926975 0.0021388953274 0.0015266391428 0.001423332464 0.0018682487527 0.0018085698271 0.0016040924251 0.0021271203428 0.0022906639944 
0.0019736074779 0.0025701929481 0.0029009587999 0.0024903899797 0.00322440519 0.0035259614238 0.0031339621426 0.0040422877104 0.0038281360114 
0.0036788491328 0.0048504309243 0.0031192670932 0.0035465008192 0.004922415158 0.00094943855604 0.0019976577597 0.0033778307606 -8.8854572376e-05 
0.00014233284326 0.00018606843583 -0.00017484351419 0.0001204695387 6.6832054169e-05 -0.00014663450955 0.0019322457329 0.00021595101308 0.0036577014027 
0.0031277766579 0.0032152755769 0.003734601003 0.003941752636 0.0050782144503 0.0030713010609 0.0034771980904 0.0048536964303 0.0023730405929 
0.0028140680716 0.0038992292552 0.0018209371233 0.0021596255278 0.0030637033771 0.0013007892499 0.0015801147962 0.0022928951708 0.00084580740054 
0.0010770318398 0.0016058557978 0.0004783244248 0.00064418948322 0.0010102394275 0.00020005561361 0.00032475567343 0.00054404027766 4.3045467572e-07 
7.5634421176e-05 0.00019584555403 1.357291295e-06 1.1334643903e-06 -8.6407249998e-06 2.30629451e-06 -2.295188815e-06 -4.8010750374e-06 1.5648488917e-06 
-5.4042422538e-06 -1.6862383885e-06 -6.904995032e-06 -6.7029449745e-06 -3.5260169164e-07 -5.7089395571e-06 -4.2749499471e-06 3.4433699331e-06 2.8035485309e-06 
-1.7046352451e-06 2.5326605015e-06 -0.0013010257857 -0.00067984381075 0.0081199237199 0.010722162827 0.012750231963 -4.3337832143e-06 2.1558774304e-06 
-5.0225818628e-06 -5.7139790143e-06 2.7268844355e-06 2.3745343641e-06 -7.4626400685e-06 4.4373995513e-06 2.7082058763e-06 -5.6274853052e-06 9.1021365134e-06 
5.1943030238e-07 1.4637470893e-06 6.1526450594e-06 2.8430102753e-06 9.3529789496e-05 1.632886586e-05 -9.2304718828e-07 0.00031783086121 0.00020840596893 
0.00022650763003 0.00059477588688 0.0004441957779 0.00053881235615 0.00096640738761 0.00075351255293 0.00093027437237 0.0014385085334 0.0011585056699 
0.0014471061138 0.0019593161 0.0016278896325 0.0020660528616 0.0025667264692 0.0021724288273 0.0027721050822 0.0030039219273 0.0027158794138 
0.0035155443626 0.0030001060029 0.0029915713354 0.0039517465639 0.0020703997334 0.0025257633435 0.0035650193204 0.0001242722752 0.0012370291592 
0.0019886796975 -0.00016524228805 9.9682795338e-05 3.7704285714e-05 -0.00026639132305 3.9397059489e-05 0.0002247097231 -7.7292630935e-05 2.5135361387e-05 
0.0002704913917 -1.1007662282e-06 -0.00031809729882 -1.7390416711e-06 0.0001508034247 -0.00013475994127 2.3597484614e-05 3.7155423969e-05 -0.00017495180131 
-0.00022918682337 0.0015542168804 0.0010267868603 0.00083245465863 0.002632583489 0.0023772269659 0.0026749840867 0.0026236745638 0.0028531033633 
0.0035808980939 0.0021966411433 0.0025797550734 0.0034297462969 0.0017227119995 0.0021028440377 0.002885551396 0.0013518271499 0.0016441083603 
0.0022796456815 0.0011144064858 0.0012991318309 0.0017722518898 0.0010536056311 0.001120774565 0.0014842888663 0.0012172738891 0.0011327379919 
0.0014951152069 0.0016827316236 0.0014642255639 0.00181281664 0.0023779326754 0.0020522938146 0.0024610489831 0.003438011182 0.0029289126251 
0.0035301430095 0.0050394718211 0.004130570442 0.0050126337783 0.0070495564989 0.0060678911711 0.0072567417716 0.0093550434739 0.0079755602452 
0.009844479063 0.011966183543 0.0097195563874 0.012330379239 0.020507803399 0.014769691233 0.018451831075 0.029254985836 0.010150619518 
0.012063680615 0.060278310826 0.056232535337 0.068576548087 0.064876613935 0.054285256145 0.01228097361 0.0099101648226 -0.001381491515 
0.0025823786783 0.013498114655 0.014158242616 0.013066089636 2.952730055e-06 2.9962011121e-06 2.1026195363e-06 3.3666543657e-06 0.074903061333 
0.072019974874 0.062270803405 0.0797269977 0.07772432985 0.068509559853 0.08300222148 0.082025471391 0.073306818839 0.085381108807 
0.084591689801 0.076714989733 0.086946749058 0.086485072754 0.078931974531 0.088677218622 0.087763107586 0.080591427477 0.089815062488 
0.088975973435 0.081924258375 0.0907124138 0.090099096038 0.083063556982 0.090654611029 0.090656252875 0.083772648927 0.089911204746 
0.090155038266 0.08359916589 0.088221611153 0.089209827032 0.082532551856 0.086025045785 0.087184365308 0.080645534537 0.084181904206 
0.084767594796 0.078374198427 0.08149692035 0.082466567751 0.075859199721 0.078040213012 0.079471816952 0.072740911445 0.073378764495 
0.07567895888 0.068993977566 0.064105110266 0.069038903073 0.063029426091 0.052149995094 0.057340063574 0.051736366282 0.041943651951 
0.046955786678 0.039640177481 0.029347626566 0.0060096982839 0.0073628265155 0.010867377856 0.023209225191 0.027262133844 0.029629668082 
0.032419980124 0.024260899258 0.033765981192 0.035535003585 0.028441432377 0.036458491159 0.037522263168 0.03123362569 0.038000629294 
0.038313180594 0.033098112238 0.037922539601 0.037383462131 0.033658216825 0.036494287927 0.035959050017 0.032553093776 0.034596198121 
0.033532676884 0.03077645742 0.031945496056 0.029240330416 0.028189317539 0.027006847583 0.022221739824 0.023918490527 -5.5323361591e-06 
6.2417967353e-07 2.9315426049e-06 0.020366083579 0.02489764863 0.027680757141 0.030315595524 0.022494316812 0.032795386325 0.034548743149 
0.026966835333 0.035700618113 0.036686556386 0.030532999045 0.036763568139 0.037177174873 0.032432006495 0.036800136669 0.036121203637 
0.032402207141 0.035855248189 0.034825295931 0.031419517871 0.033945583913 0.032521184835 0.029768719817 0.030843708224 0.028568510128 
0.027242357404 0.026346998002 0.021536821843 0.023077450726 0.020238452981 0.014142905737 0.014142364732 0.018115292848 0.022097655962 
0.015764110011 0.020796611308 0.018777614483 0.013322301457 0.019231285642 0.017776476589 0.014065100069 -4.1994438181e-06 0.033461887606 
-6.7341830175e-06 2.5430623591e-06 -3.7958570328e-06 -6.9239926935e-06 0.0273295175 -0.00025588908611 0.00046137947273 0.0029191112633 0.0079169300964 
0.0093388440064 0.0069755419059 0.0075181576289 0.00025998215582 -0.00029314595202 0.00010496304653 -0.00019258724083 -0.00012951591383 -0.00034296068507 
0.00021186314151 -0.00026364255536 0.00034218313789 -6.834329606e-06 -0.00031878452169 1.6471460838e-05 2.6009050225e-06 0.0099584857156 0.0062375262302 
0.010148389499 0.013922191801 0.013215649569 0.014505810068 0.014425992578 5.5797315337e-05 0.00011282534723 0.00043116587423 -7.9042735338e-05 
0.00095565667418 -1.1863783724e-06 -0.00020373819783 0.00059040430448 -0.00063473979466 0.018201578335 0.020474671253 0.015171045768 0.0065970205547 
0.0098211621975 0.0048568777641 0.051771709942 0.043016851547 -5.3077335459e-05 0.031943259395 0.045794304464 8.6532361574e-06 -6.0695987496e-06 
6.29374696e-06 6.3680380712e-06 5.9411058457e-06 9.6844761333e-06 -8.8851570936e-06 1.4597080558e-05 1.0393119846e-05 -1.0395670893e-05 1.3181370287e-05 
5.7245988515e-06 -1.568499109e-05 1.1430027886e-05 6.527163553e-06 -1.7119719641e-05 9.251599309e-06 6.0801042322e-06 -1.6223370526e-05 6.8790737194e-06 
6.456695553e-06 -1.246095319e-05 2.6909744333e-06 6.227843826e-06 -9.9701618272e-06 -8.8909173893e-07 4.7910900718e-06 -6.0752130744e-06 -8.6851781612e-07 
4.2705161806e-06 -1.4811267222e-06 -2.1814275871e-06 9.8340760912e-06 -4.6786269161e-06 -4.384310297e-06 6.6164681507e-06 -3.4014020056e-06 -4.1631103524e-06 
4.6299086078e-06 -5.5960759367e-07 -1.5179884833e-06 1.1043736878e-06 2.4138301262e-06 -2.7387785185e-06 0.002187058504 0.00021637387552 3.4248862792e-06 
0.013325171647 0.016268559313 0.012967106667 0.012516612519 0.010072842843 0.011807715653 0.015574555798 0.019570668013 0.024532604174 
0.022267700554 0.0011644884126 -0.00030743110228 0.0059940442914 0.0070166081855 0.0076292551686 0.0089505566919 0.011823692689 0.0092931934247 
0.0029840910531 0.0034335869299 0.002995581314 -0.008902975164 0.0042218977334 0.0031203228596 0.0029912313724 0.0038777358921 0.0035997926658 
0.0033020751967 0.0040097609192 0.0043642180623 0.0039128589395 0.0046236992904 0.0053214945909 0.0047393282792 0.0055665715794 0.0065201922371 
0.0059514834981 0.0069391060103 0.0072216773069 0.0072869232973 0.0087578303282 -8.2617664662e-05 0.033629672679 0.025024317421 0.020540562849 
-0.00066021619514 0.00061998233773 0.0063895066059 0.0043872519023 0.0044721336342 0.0050777958468 0.0036391011194 0.00421917297 0.0053100956445 
0.0026762185217 0.0031631676883 0.004258547659 0.0018257061968 0.0022293333222 0.003056017748 0.00109549129 0.001429294807 0.0020038693526 
0.00055919044919 0.00079738147422 0.0011729740773 0.00014461206894 0.00032657999029 0.00054956188854 5.0160732921e-07 2.3685525584e-06 6.8666909342e-05 
2.5825645907e-06 1.6847278493e-06 -9.5542750854e-06 2.7382448123e-06 1.1828322429e-06 -9.1608432986e-06 -1.1453332974e-06 4.2872499016e-08 -7.9397145703e-06 
-3.326235273e-06 -1.2387530753e-06 -1.6943082536e-06 -5.5030308708e-06 2.4607785581e-06 -1.0054068125e-06 0.00035092769232 0.037330937343 0.0067582703165 
0.0067308147446 0.008706132659 -0.0004656959585 0.012533123965 0.011951764502 -8.3464238451e-07 -2.3615675114e-07 -3.9948636556e-06 6.1084820701e-06 
-1.7347357529e-06 2.6643709313e-06 9.3525480532e-06 -4.1233731087e-07 3.083663845e-05 4.1250607138e-06 -3.0405354035e-07 0.00037671123 0.00020116328829 
0.00015947376693 0.00080272776046 0.00058941480515 0.00060350640082 0.0013739931751 0.0010687305255 0.0011821247523 0.0020989523726 0.0017027211493 
0.0019351040037 0.0029464176214 0.0024899720706 0.0028708923087 0.0039052790054 0.0033326619924 0.003943468352 0.0049231391857 0.0043768201602 
0.0051310892886 0.0056764524287 0.0053828578684 0.0064800450161 0.0047798988492 0.0053639275942 0.0067427440717 -6.9730770336e-05 0.00060420322765 
-0.00075776454888 -0.00017777785927 9.3021661382e-05 0.0043941018345 0.0032029615727 0.0048897220369 0.0048963345121 0.0058455933504 0.0043508859659 
0.0048060848732 0.0059434798711 0.0036125601905 0.0041287265416 0.0052194825264 0.0029088549917 0.0033512081712 0.0043807104138 0.0024067444087 
0.0026870417707 0.0035459609624 0.0022580400256 0.0023559043663 0.003022438602 0.0024704813103 0.0023751745 0.0029667744599 0.0031786362987 
0.0027503364616 0.0033753945311 0.0044097300077 0.0037523344927 0.0044194570111 0.0061247708058 0.005181574033 0.0061652244556 0.0086995970206 
0.0072401554739 0.0086559169073 0.012631158729 0.010443975125 0.012384772748 0.016922179096 0.014522755585 0.017202650936 0.019038177835 
0.011228866149 0.0084820088867 0.010602194782 0.013058732915 0.010203773593 0.046624606143 0.042292083386 0.055637200825 0.051885877416 
0.041891787608 0.017288233558 0.019924076251 0.069556937836 0.06839916669 0.071618512545 0.070791432599 0.063116067621 0.073428121463 
0.072721287803 0.065244934736 0.074779275888 0.074193833897 0.067000246348 0.075808906183 0.075243865383 0.068176868993 0.07635770857 
0.076139618643 0.06896243555 0.076334470732 0.076601425734 0.069596420309 0.075053034304 0.075769331085 0.069422963863 0.072525331693 
0.073712990628 0.067536707589 0.069868381076 0.071010601371 0.064840107233 0.066743072691 0.068072333171 0.061616344038 0.063455684854 
0.065116519779 0.058433385326 0.059772606236 0.061623371315 0.055269025287 0.053997078243 0.058229819276 0.052269531399 0.031903241658 
0.00017608198583 0.015236955834 0.017890127513 0.019024197138 0.02155966811 0.016031950009 8.063052458e-06 9.8060518117e-07 -9.488563018e-06 
0.013526117414 0.014284825457 0.013418641203 0.022567343057 0.024459267594 0.018926359207 0.025306912745 0.026626402752 0.021105373838 
0.027360045983 0.028259351743 0.022901810502 0.029355573383 0.028921041841 0.024687414649 0.028103625674 0.027173727861 0.024696234404 
0.026464841433 0.025198478633 0.022978013059 0.024473869301 0.022846734815 0.021359526268 0.021519754534 0.018737043594 0.018995845323 
-1.2346016299e-06 3.6021990249e-06 1.2587309681e-05 5.816124731e-06 -9.7909951258e-06 -6.6028969462e-06 0.066476953485 0.064441722652 0.060275430295 
0.021148051845 0.023546215271 0.017762176425 0.024839105319 0.026445940346 0.020608825706 0.02791188121 0.028427385278 0.023504889604 
0.027763117558 0.027249505358 0.024412428639 0.026802329534 0.026096017404 0.02339463016 0.025498972075 0.024438574467 0.02230332492 
0.023553253798 0.021880080274 0.020700969928 0.02092437171 0.018310925073 0.018670460502 0.0043139539821 0.0050728130394 0.0071059841067 
0.0049546439829 5.6615772436e-07 2.9486886941e-06 -2.1455895583e-06 0.0056688566611 0.0063176665977 0.0066645762234 0.0018237069674 0.00049184801366 
0.00072547678816 0.06207598823 0.059322878627 0.050661461642 0.012789759573 0.034826415101 -1.7483575222e-06 0.013432290517 0.012444793474 
0.014270839094 0.0038184608075 0.012614478491 0.011247410354 -0.00019940276551 0.012657424594 -7.6321853412e-06 -1.5412639035e-06 4.3540113846e-06 
0.011087642351 0.011030739617 0.031935946708 0.0056436841328 3.6697361491e-06 0.012304599094 -0.00018247674541 -2.8556756325e-07 0.0081346277204 
0.014354539315 0.010393852427 -5.9100258949e-06 0.00833951285 0.006827352051 0.0023887081264 0.0029210691633 0.0020928957465 0.0035286274933 
-0.0001952932342 0.00021065929682 0.056341085096 0.0080743985327 0.022891226197 0.01583950675 0.017388750077 0.014617925676 -1.5461014754e-06 
9.8639788392e-06 4.200887451e-06 0.016697849908 0.014892883425 0.014083114227 0.042151414423 0.049573280508 0.045640690359 0.033624058419 
0.015598514551 0.017515501556 0.014765246084 0.0064740502777 0.012877310216 0.013774263329 0.012918397434 0.011904795824 0.00078888614891 
0.011996831477 0.012752550671 3.7110113753e-06 9.2368585912e-07 6.2185371032e-06 4.8390375086e-06 4.6822726543e-06 2.8302681815e-06 -1.0477084827e-05 
2.1310614395e-06 5.3235679243e-06 -5.9395880588e-06 -1.4417897894e-06 5.386637103e-06 -4.280679475e-06 -5.2848417366e-06 5.892587046e-06 -6.2536930618e-08 
-6.5555559384e-06 5.0863308391e-06 1.800992294e-06 -3.3077824034e-06 5.4333978674e-06 4.8975372405e-06 -5.2700840567e-06 8.6589335513e-06 -3.4736086355e-07 
-3.5905692124e-06 8.4102203451e-06 1.0204561561e-06 3.93325827e-06 0.027708467847 0.023380477072 0.02815599141 0.035025497683 0.031376583533 
0.024485857117 0.0050052808774 0.0048831001337 -0.013946522451 0.0064728125323 0.0056105732076 0.0052435513903 0.00595675993 0.0066019876248 
0.00604143645 0.0066641883629 0.0080014284274 0.0071443699157 0.0077652235706 0.010382651281 0.0097400790127 8.4395628157e-06 1.6512850944e-06 
-6.451190491e-06 1.0236068026e-05 4.2266741187e-06 -5.3426015914e-06 7.6400567276e-06 0.0062093837618 0.0067248919968 0.0019843330443 0.0025094380482 
0.0011087446106 0.0014955844326 0.001994349333 0.00044749725825 0.00073862309459 0.001055265938 1.2637223804e-07 0.00014613487152 0.00032261308379 
2.6141795816e-06 3.6722194199e-06 -1.6114353851e-05 3.6377258259e-06 5.5494476303e-06 -1.7711345018e-05 3.2696584951e-06 6.9419160849e-06 -1.3303770282e-05 
3.2980070001e-06 9.6865747013e-06 -1.0562957952e-05 -8.3102777385e-06 0.0085174870261 0.0091620383598 0.011231125819 0.0067380850849 0.0071620361392 
-5.5833884039e-06 1.1887547811e-07 -3.0038932864e-06 -2.5308490769e-05 -1.1787303472e-06 0.0084512484548 -3.5696279821e-06 3.3538646605e-06 -9.9982299287e-06 
0.00024790845895 3.4712696163e-05 -3.1560408119e-06 0.00083018539212 0.00055573673394 0.00044836734124 0.0015491895748 0.0011794467135 0.0011765528413 
0.0025101723396 0.0020127662357 0.0020999073118 0.0036560365908 0.0030505741622 0.0032750741954 0.0048917191733 0.0042162076707 0.0045974284581 
0.0061759152995 0.0054134246739 0.0059058595757 0.0081887499365 0.0073126840745 0.0049581736887 0.050092802467 0.047968962547 0.0076126603234 
0.0074292919252 0.0093883496716 0.0087720115791 0.0049854477641 0.0055154792467 0.0041848293307 0.0045617854 0.0056318502937 0.0037159699372 
0.0038411391154 0.0047545292621 0.004146687918 0.0039652928446 0.0046679653386 0.0047538352714 0.0043238526766 0.0050955180911 0.0066371814894 
0.0056565472716 0.0064905259301 0.0090024617574 0.0076771255908 0.0088528253777 0.012397909193 0.010488361768 0.011841683234 0.017531453114 
0.014572416755 0.016371835037 0.020920632438 0.060154606092 0.059420470239 0.057918587022 0.05688904001 0.052133899007 0.010216209426 
0.03657388118 0.0059975230762 0.0065696781662 0.007660709409 0.0067287647943 0.0031209592536 0.0037572481524 0.0032306686381 0.056031414119 
0.055142251781 0.049726732607 0.061102710063 0.06070105964 0.054125383096 0.061263293378 0.060946925981 0.054323076032 0.061920760802 
0.061539487123 0.05433885634 0.062864234892 0.063381822701 0.056074426914 0.059831469019 0.061182811827 0.055884291669 0.056628394013 
0.058187744668 0.052719612509 0.052913956398 0.054663566375 0.049064159941 0.049778851917 0.051172799596 0.045499355041 0.046678915842 
0.048157164187 0.042345790844 0.043870621379 0.044888650548 0.039301414638 0.013216242506 0.014725989511 0.011598088596 6.0536001864e-06 
-2.5010261957e-06 3.633370672e-06 0.004564782908 0.0053175147832 0.0048269991893 0.015063415994 0.016292752924 0.012833158597 0.004838382163 
0.004861766456 0.005053379594 0.0071490474823 0.0063293610849 0.005769262845 0.016679264571 0.017681233837 0.01384526346 0.018099644913 
0.019011949531 0.01485206632 0.019727548948 0.020963277866 0.016165265935 0.019945533541 -0.0089746376425 0.0038442183559 0.019322624506 
0.018467253452 0.016377341013 0.018019185276 0.017166021683 0.01531957631 0.016985058734 0.015404925871 0.014450489246 0.014178278452 
0.013355377456 0.012194813174 0.013151648096 -3.3957023309e-06 2.1873586789e-06 0.014165589002 0.015761768001 0.016464032671 0.018193972114 
0.014084997823 0.019265143286 0.021035583728 0.016354498262 0.020318116016 -0.01377668375 0.0073898700169 0.020122733425 0.01954303431 
0.017717947905 0.019032729689 0.018258825552 0.016913652155 0.017792551819 0.016992568591 0.015714969441 0.016696396577 0.01549564176 
0.014825880874 0.053842261683 0.052115740257 0.044922825999 0.048046398924 0.0114794799 0.011449474067 0.010656265404 0.01024927092 
0.0068024692406 9.2959540747e-07 -2.2093745228e-07 0.011749863305 0.010197341804 0.0091494397372 0.018376261942 0.021382980376 0.026020979592 
0.012834919789 0.014459600728 0.012875237569 0.014167820319 0.016050241527 0.020569606571 -0.0092559129128 -0.0061198304273 0.0075525527855 
0.011200963511 0.0096363371851 0.01338926652 0.045946379488 0.042409842843 0.033601715351 0.0077860325596 -5.7327272068e-06 0.041184989495 
-4.0540884155e-06 1.5676797174e-05 1.5308696463e-06 0.02319769097 0.014727518264 0.01322923306 0.013417346421 0.011173240631 1.0553740714e-05 
-1.0414172772e-05 0.012318836387 0.013713295904 0.012350036127 0.008911460857 0.01047908271 0.010104339442 0.012404797357 0.013972293259 
0.014058832219 0.038822873684 0.01127312252 0.011149272807 8.6192410983e-06 -7.7789808961e-06 5.1015110503e-06 0.0075815615825 0.0088991173755 
-0.014899385988 0.010530603345 0.011578157997 0.0097357096548 -1.0602085029e-05 4.1091204007e-06 -7.3066870742e-06 5.5483456321e-06 6.1583491881e-06 
-6.027890686e-06 7.8905083746e-06 -3.7936073063e-06 -6.4116832571e-06 5.3909499555e-06 3.5036390824e-06 6.8394106916e-06 0.01087480943 0.011307533413 
0.0075312173036 0.0071136451484 0.012050417908 0.010824850755 0.01278374121 2.9018199472e-06 1.1606647683e-05 0.0068398078682 0.0067267067597 
0.0077109968904 0.0095012533914 0.033533898399 -1.2635569071e-06 -4.0751822447e-06 0.00086812747244 0.0012724998323 4.3477238231e-06 -8.107650747e-06 
8.6631241452e-06 0.001821792509 0.0023641252166 0.0016384600723 3.1770064217e-06 6.5897694434e-06 3.8833106594e-06 1.1836964907e-05 -2.907494457e-05 
3.6117048223e-06 1.2075496192e-05 -1.8476179521e-05 0.0005987729808 0.00026242602572 0.0030212770998 0.0037479729276 0.0029019006705 3.8221420785e-06 
1.1996398818e-06 4.2857178959e-05 0.0083925861596 0.007080709288 0.0086715451888 -1.7945488446e-06 2.9207369611e-06 0.0014227545674 0.0010238744831 
0.00082663415431 0.0025526691872 0.0019885897403 0.0018692941175 0.0039177690357 0.0032316510577 0.003214532808 0.0054565318949 0.0046844514783 
0.0048165466098 0.0062856081852 0.00679664294 0.0079275876188 0.011587819812 0.012151339331 0.010351403445 0.00010925215247 0.00044270248205 
0.00065434088757 -2.7514426e-07 4.1619266186e-06 5.9749356655e-06 0.0057100982599 0.0054878593171 0.0061181532926 0.0065395760004 0.0069846531001 
0.0065487850304 0.0071989541937 0.0079441460344 -0.01330672369 0.0056133703175 0.011380653891 0.0097920241436 0.010050709793 0.01560764162 
0.013375238497 0.014383484419 0.021073019707 0.017814213427 0.019343107056 0.04573123868 0.04416088753 0.046864236456 0.047190082428 
0.034366485971 0.028714688717 0.024266950678 0.035785796502 0.048360543234 0.047852019952 0.041084748543 0.042013573998 0.04205325295 
0.041168323612 0.036799887157 0.048023478492 0.049703271645 0.045874070627 0.047605700057 0.04221403045 0.041337180842 0.043395310043 
0.039200104438 0.03763122441 0.039228115835 0.034826371842 0.01011202797 0.010677675171 0.0086966722016 0.0080197483517 0.0085248317927 
0.0098667296164 3.4950060558e-06 -1.0848451099e-05 1.1699793058e-05 -6.7962625422e-06 4.6879810999e-06 2.1635441396e-06 0.0046277230436 0.0055954932104 
0.004537297638 0.010573192359 0.011024576456 0.0091514741797 0.0092371606595 0.0057131541374 0.0066657917472 -0.012982701297 0.004451938138 
0.011207623778 0.011741080713 0.0091013983796 0.011921595805 0.012861565428 0.0092770899138 -0.02066519748 -0.037940357441 -0.042286744062 
-0.036747589277 0.013104082977 0.012530590845 0.0099312515162 0.01235540181 0.011792078041 0.010004519589 0.011646212389 0.011528039931 
0.0095359688904 0.012353411077 0.011628784582 0.011068067188 0.010256643352 0.013209029585 0.014507039777 -0.029661161272 0.015306318413 
0.015207476963 0.013078021954 0.014892549428 0.014210096166 0.01361593426 0.01371829252 0.013203393764 0.012768895469 0.012794004752 
0.012647067794 0.011742534181 0.030037889376 -2.3824952184e-06 -1.730547736e-07 -2.0706727307e-06 0.025707929954 0.032007433097 0.033493050997 
0.022303121988 1.7945009852e-06 3.0522416758e-06 -2.4776698215e-06 -5.2038133127e-06 1.1057717787e-05 -2.0742278632e-09 0.010041280469 1.337482012e-05 
0.0090505847204 0.0091166432244 0.0090017658856 0.0077202268404 0.010460998337 0.0086664525479 0.0076875424029 0.0067981673706 0.00705445489 
-3.1061173962e-06 -7.7134390148e-06 -2.0019108667e-05 0.0093649334002 0.0094553441473 -2.8270185772e-06 0.011799158758 0.035499100676 0.04260206414 
0.041522117512 6.0682083726e-06 4.9743462281e-06 -2.0642253509e-06 -8.350758335e-06 0.0066333368094 0.0092945322768 0.0094566077726 0.0067691344944 
0.046564957646 0.040334187393 0.046882636049 0.0078886460086 0.011059601977 0.0082141822777 0.0094927180972 0.010192425937 0.0085850806545 
0.0089930472194 0.0077102256612 0.007199406622 0.025662498078 0.011680427806 0.010539422587 0.01116438906 0.011584248633 0.013724826575 
0.012913196171 0.015988395282 0.018945335974 0.017518722816 0.048136126715 0.041455710846 0.034278067626 0.035652878279 0.031023914675 
0.028210517624 0.011737559191 0.012719664597 0.011967842402 -1.5942002629e-06 -3.27234239e-06 1.2755304593e-05 6.3578036861e-06 0.03953696317 
0.037782490481 0.035310832859 0.010604607759 0.031678886896 -8.16990227e-06 5.1757835073e-06 0.011019444682 0.011579423267 0.007505681431 
0.0079659537104 0.006150880377 -5.5290902749e-06 -6.1530388534e-06 0.03208058343 0.029654169988 0.0013779690419 0.0019369920116 1.8676402471e-06 
1.9815769545e-05 4.8655686927e-08 4.7978754282e-06 2.5080821684e-05 -2.1310908153e-05 0.0022304811795 0.0016213849819 0.0001035178802 1.8944210227e-06 
0.0010255759118 0.00058901227299 0.0013477980474 0.0097801037051 0.010213227408 0.0095066563518 0.0087045619692 0.012917881058 0.010740716223 
0.0079659692546 0.010490530066 0.0093937265497 0.0088456978787 0.011034643467 0.002764563354 0.0035029276578 0.002451180966 0.01234528971 
0.01018579748 0.027499322604 0.018643834943 0.015901073412 0.016596044221 0.024407967032 0.021114045897 0.022626290774 0.029336874791 
0.0097240422654 0.010206196334 0.011113505419 0.027686195162 0.029968644778 0.032489072752 0.035093544388 0.026675144816 0.035361973495 
0.0066525754686 0.0067369331434 0.0056409702599 0.0004033452267 0.00084344341144 0.0010853728242 -6.7964873016e-06 9.2571180285e-06 5.7385591378e-06 
0.0037821795439 0.0030209546031 0.0027746231255 -8.3073140168e-06 4.4730784715e-07 8.1884346992e-06 0.0041812674185 0.0051606809563 0.0058210795756 
4.4486864219e-06 9.6009597275e-06 6.385334587e-05 -4.2280924337e-05 0.0063795786203 0.0066385641135 -0.0055430030686 0.0070527308167 0.0073997590107 
0.0048095590167 0.0077993665474 0.0076095135489 0.0056418127266 0.0070233521461 0.0068613740956 0.0054322302027 0.0099267050652 0.0093673443305 
0.0079788637707 0.0087143677185 0.012192310784 0.01217370677 9.049109261e-06 -2.2240078942e-06 -4.8730065333e-06 0.012152583188 0.011584492475 
0.010919597053 0.010550637506 0.01133542612 6.4457039794e-06 0.0078841192334 5.0160609381e-06 -2.8957613582e-05 0.017194580687 0.0083757390926 
0.0087590719844 3.8201685253e-06 -1.6219963761e-05 2.5276376094e-05 0.023165964588 0.026708143501 0.00851571276 0.0088932758743 0.0090952252667 
0.0083623956554 0.0094460634327 0.0075669979206 0.03142901361 0.024260926529 0.022344386655 4.8257517566e-06 0.0002576028734 0.0093326941774 
0.0084903056667 0.0083303250183 0.0047020032988 0.021716770024 0.010515692189 0.0068657649642 0.0068009604541 0.0047682996047 -4.2222587925e-07 
0.0083748837502 0.0074675022028 0.010003655815 0.026087883684 0.0099791327395 0.010873993882 0.010432247268 0.022425839263 0.0040971694579 
0.014000036313 0.016346096307 0.0090508760054 0.0073448027646 -5.3006978752e-06 0.0073390367575 0.0056772321607 0.0075584398982 0.011757639801 
0.014279672429 -0.041517798504 0.029226212668 0.03511978601 -7.99829397e-07 0.0045983007337 1.5973093406e-05 2.6530446052e-07 0.033063629479 
0.033479477282 -1.96887287e-06 0.034708215571 0.028779748947 0.037101134138 0.012303774083 0.01287311468 0.012097107017 0.012354785828 
0.012175740154 -3.6560086453e-06 2.9490589686e-06 2.069956042e-05 0.0065281353801 -0.0064156239004 -0.022691430864 -0.0052796460527 0.0052236009863 
0.0071712632042 0.033705438591 0.028040283406 0.0099456742807 0.035742942553 -0.0098540274562 -0.022740672884 0.0289915455 0.011615727978 
0.012346177938 7.3615766834e-06 0.00060615987369 0.0011278074619 0.0015811841721 0.00097669311008 0.019034079388 8.4978488079e-06 0.0067936593435 
4.9784593569e-06 0.0019759818638 0.0028690897698 0.0014009094592 0.019905558627 2.4338805468e-05 0.0030856961586 0.0035364525915 0.00036020793574 
-3.2049023104e-06 -1.8358212432e-05 0.00051893768895 0.023386258455 0.022422289213 -0.019727590469 -0.0061228759507 0.0055494939471 0.0044834107956 
0.0097745604387 0.030390042107 0.013414800159 0.013774663749 0.015246293012 4.9327126285e-07 -4.3039840418e-06 0.0033330636209 0.0024651373792 
0.0020498544195 0.021585456492 0.018328562305 0.0046108505126 0.0054489887776 2.289263724e-05 0.012998770104 0.015111236885 1.443310574e-05 
-1.2898178613e-05 0.015469416469 0.014241047661 0.01755461225 0.020945369582 0.022633972241 -2.6468116448e-05 6.4651438949e-06 0.00071407785792 
-5.3392696329e-06 0.00047130101616 0.014541021601 0.016136747608 0.0041738061525 0.0036126985949 -2.0481436924e-05 -2.0765313066e-07 0.00017730628975 
2.6082166539e-05 4.7960033655e-06 0.0023824943046 0.003226981169 0.0015480527595 0.013004535837 0.01045467221 0.012486823812 0.01179746632 
-3.0018982912e-05 1.3856903893e-05 0.00019797442696 5.3082127268e-05 0.015236366324 0.01891237591 0.024450433005 0.016966211303 0.0041454570431 
0.011551234863 0.023106859269 0.019305334677 0.024140301776 0.0038278481438 0.0032010587973 0.0023753781947 0.023975594664 0.026009028059 
0.012669925341 0.012376143211 0.013931054858 0.017052819261 0.0088673091934 0.017038446185 0.0036206112059 0.0021091369927 0.016150564589 
0.010116493894 0.00024166197907 0.00064138227894 -0.028911390332 -0.007488368635 0.0037080923719 0.0041079833503 0.0023546934731 0.017866442368 
2.1974312151e-05 0.0012485246308 0.0012323945221 0.0010581634797 0.00096648925319 0.0008846503257 -0.028514344236 -0.0099210187942 0.0014556536236 
0.019859211777 0.0010333691193 0.013053511583 -0.025462630829 -0.0039421124725 0.0014099169026 -0.029736516006 -0.0064442419465 0.0067186544789 
-0.031353598925 0.027617687597 6.0336518447e-06 0.097428905072 -6.5010420813e-07 1.9994345243e-05 2.3233787767e-05 2.2627142131e-05 2.2261501841e-05 
2.4650217902e-05 2.383949605e-05 2.3451053167e-05 1.9800217913e-05 1.8750042125e-05 1.8564421466e-05 1.7132710792e-05 1.5688921644e-05 1.4345014809e-05 
1.160048361e-05 9.8263051508e-06 6.529119115e-06 4.8495084738e-06 -1.2338064211e-06 -2.6147266056e-07 -3.6970039196e-06 -1.9797010381e-05 -4.8414682805e-06 
-1.8365799242e-05 -6.3906050426e-06 -7.0039540716e-05 -7.2886304761e-05 -2.9135504845e-05 -0.00014079824556 -1.5996787208e-05 -0.00012003520023 6.3140174877e-06 
-0.00020457825223 -5.4275006788e-05 -0.00014282134179 -2.3955993573e-05 -7.42730772e-05 3.5733935255e-05 6.5545077515e-05 0.00013410522254 0.00031015692434 
0.00016613116412 0.00061297436485 0.00047848949411 0.00057613331121 0.00017141407755 0.00021101084025 0.00021311638781 9.6283625591e-05 4.5791323148e-05 
1.100110864e-05 -5.4018843396e-05 -0.00014651366777 -4.1930956312e-05 -0.00012407112667 -8.4654041741e-05 3.9377349341e-06 -0.00012555299374 -2.5975449417e-05 
-6.4820449857e-05 -1.7798408438e-05 -3.9118132608e-05 -1.1238499117e-05 -3.4960738169e-05 -9.9429630865e-06 -2.7917691247e-05 -6.1364233749e-06 -4.1257129556e-05 
6.8556619407e-06 -2.3254014476e-05 -7.6422656198e-05 -2.3884044971e-05 -5.6484357223e-05 1.0688105302e-05 -0.00015593417487 -7.8234357637e-05 -0.00027168999231 
-0.00013398701258 -0.00051094439865 -0.00027381046099 -0.0010652696732 -0.00035236641496 -0.0018827718179 -0.00062272282318 -0.019874711563 -1.9972311763e-05 
-1.6373588716e-05 2.6687010359e-06 -0.041670059282 0.028554063618 -3.3429328862e-07 8.4355427927e-06 -0.017675246559 -0.015052383457 -0.00068365008648 
-0.0017838804868 -0.00046013809466 -0.00078327815632 -0.00028807288461 -0.00044389277875 -0.00018163086577 -0.0002822465152 -0.00010249249956 -0.00016269492139 
-5.6127346502e-05 -0.00010753233356 -4.09671163e-05 -8.2336736791e-05 -1.920256507e-05 -5.4574678171e-05 -1.4655751837e-05 -3.256439566e-05 -1.2718347533e-05 
-3.5114383424e-05 -9.80004525e-06 -3.74103664e-05 -1.0746838049e-05 -4.4923390586e-05 -1.6247934636e-05 -5.6313580953e-05 -2.1888167521e-05 -6.4741203474e-05 
-3.0685618042e-05 -6.8938805191e-05 -4.5183307629e-05 -6.6034654921e-05 -5.4036551863e-05 -5.3542093752e-05 -3.630687118e-05 -1.1743798999e-05 4.6848935591e-05 
0.00012649527133 0.0002369691625 0.00035112783197 0.00041573582046 0.00052189357986 0.00048565673973 0.00052492610737 0.00042701522378 0.00034123946389 
0.00022176775138 9.9539696346e-05 3.9852435068e-05 -3.9848318332e-05 -3.5103220166e-05 -8.6673148984e-05 -4.6303740342e-05 -9.683211514e-05 -4.5156650971e-05 
-8.7947273401e-05 -3.9896670076e-05 -7.2920666528e-05 -3.4983715723e-05 -5.3589579961e-05 -2.4177489614e-05 -3.5698892697e-05 -1.5528534431e-05 -2.2210261711e-05 
-8.7397329918e-06 -7.2825382339e-06 -4.4397811238e-06 -9.9948114381e-08 5.0089261242e-07 6.5218045297e-06 6.4746955201e-06 9.5341884481e-06 1.0642377484e-05 
1.5368489962e-05 1.6258762288e-05 2.2118395266e-05 2.1096190105e-05 2.6301547571e-05 2.6609120726e-05 3.3059338266e-05 3.0923900415e-05 3.6289721626e-05 
3.0319596156e-05 3.6214942741e-05 2.3720908265e-05 1.0948120635e-05 4.6307591472e-05 3.5652398962e-05 0.00010863562044 9.7589884366e-05 0.00010681021732 
6.0388184807e-06 1.2986965349e-05 7.5853310465e-06 1.4383838843e-05 7.4949427295e-06 9.0354377549e-06 3.958852437e-06 5.4601637647e-06 1.5639829632e-06 
-3.5658980367e-07 -3.3593967818e-07 -4.9981270334e-06 -2.3888088419e-06 -8.3232170387e-06 -3.2162873308e-06 -1.6798294829e-05 -2.2348144143e-05 -4.9539054313e-06 
-1.0853130142e-05 -3.4267719512e-06 -3.1712590929e-05 -6.8931501035e-06 -2.0434573253e-05 -6.8397753341e-06 -2.1041521266e-05 -7.4629445646e-06 -2.1334970902e-05 
-5.7085292186e-06 -1.2780934146e-05 -7.9185028498e-07 -2.3484132872e-05 -4.0467833749e-06 -1.0355041365e-05 4.8601782178e-07 -1.0526602839e-05 -7.055746428e-07 
-7.7042982736e-08 -1.1102568213e-06 2.2101124453e-06 1.00431255e-06 7.7717545548e-06 3.8081437049e-06 1.2636268392e-05 5.9751438492e-06 2.5091615867e-05 
8.8859992494e-07 2.0016214269e-05 1.6892077834e-05 0.0001042663782 -3.1525975163e-06 0.0032675474369 -0.000822344895 0.028720523967 -0.043418498773 
0.0026558100622 -0.027850796118 -0.006958766497 -0.01634198961 -0.0026979258539 -0.023987900966 -0.010552743981 -0.023150797163 -0.0037737272418 
0.0057326848063 -0.033735073019 -0.048550355197 0.019367661842 -0.037761341187 -0.0084478636195 -0.030811893751 -0.003044651514 -0.024022392698 
0.0050880406254 -0.0024758146068 -0.0045936032069 0.008207504255 -0.0091748855139 -0.0075953455805 -0.0025694217389 -0.016633187916 -0.0068240927234 
0.0010031190672 0.011053364741 0.0057808184791 0.026819340791 -0.044895767214 -0.033841070626 3.2545771512e-05 1.6883401287e-06 1.4570828918e-05 
2.0507912736e-05 -0.032978830368 -0.027080143078 -0.028661401601 -0.03090448971 -0.030313986087 -0.032009865031 -0.033584749276 -0.038002300366 
-0.025177140926 -0.032282714305 -0.03725488039 -0.031538857779 -0.034604726439 -0.018135560577 -0.024868063663 -0.0067179827343 -0.033912025608 
0.0013580419494 0.0011048501753 0.001416615236 -0.0054506591051 -0.039131135066 -0.040675918309 -0.038137625538 -5.892691124e-06 -0.034102636743 
-0.030199994459 -0.034644115498 -0.03941407828 -3.3521854511e-06 5.9935802316e-05 3.5833082059e-05 -0.031650303036 -0.022638384037 -0.014279582137 
-0.021751424688 -0.040661117209 -2.8760237451e-06 8.8203694136e-07 0.0068013708996 -0.072447294508 -0.050539336481 0.0024787213002 -0.02214648849 
-0.070952002053 -0.018295669155 0.058379422224 0.052554352083 0.051730749225 0.046649126531 0.044050824009 0.054167850602 0.046607175229 
0.0052494806398 0.0088681272307 0.0065901674415 0.0045059326709 0.0035349785539 0.0052998690957 0.0055605149101 0.0068753322193 0.050265721081 
0.040503557176 0.039427779287 0.049710349815 0.051386515263 -1.7076618909e-06 5.5443839238e-06 -9.2202954257e-07 0.0036289447264 0.0026923531749 
0.0033365710997 0.058896607429 0.05276681262 0.051371614167 0.0039245024347 0.0055464112128 0.0047741208917 -2.2592282009e-06 -1.5853844681e-06 
1.3744497851e-06 2.9215989804e-06 8.9656677429e-06 4.8474088739e-07 -8.1400325675e-06 -8.6320865628e-08 -3.4797387214e-06 2.7692818753e-06 0.00085676709664 
0.00071627546296 0.0011165406129 8.5263711178e-07 -6.9965627468e-07 -7.8277009719e-06 8.9852366845e-06 0.0094402829911 0.012407170727 0.006575481304 
0.0087170613571 -1.1928954427e-06 8.1067379773e-07 6.7746961125e-06 9.6241235029e-07 -1.0821901312e-05 -1.1729733712e-05 -2.6166726402e-06 -2.6561209733e-06 
-2.023336092e-07 0.0021864299797 0.00020955430746 0.00066749270532 -2.0403363249e-06 -8.2596319153e-06 5.5532890962e-06 1.328689946e-06 0.0082053102709 
0.0086100920667 0.0086522910208 0.0091977699134 2.3394998469e-06 4.5241166536e-06 1.0967933019e-06 0.026666483754 0.024433044012 0.032242846875 
0.030367013574 1.1028906556e-07 1.8031895057e-06 -4.74136888e-06 8.7333950241e-07 0.11198284341 6.0343696685e-06 4.1111905074e-06 5.9862233296e-07 
7.9236558313e-06 -1.0537393717e-06 -4.8963732064e-06 0.0050379710217 0.0023052719164 0.0028409857401 1.2105144455e-06 -3.5961765831e-06 5.9226744758e-06 
-2.3587895326e-06 8.9791267344e-07 0.0017636244114 0.0016205003232 0.0011072464359 4.5886828521e-06 2.4361990279e-07 -1.1227624911e-05 4.0503836162e-06 
1.7959345562e-06 0.012953734309 0.01251198915 0.013590886127 0.01278424208 0.0095998041539 0.0024248032439 0.013441461657 0.0086531267306 
0.056031418165 0.047929096084 0.041801349366 -5.7257761599e-07 1.1596651161e-06 -8.0241908001e-07 0.019920252808 0.0082871003115 0.0036885464726 
5.8356753748e-06 5.5065614518e-06 -7.2570466942e-07 -3.5434800654e-06 -2.1958865113e-06 0.036983513151 0.036382688692 0.031800032674 3.4785010155e-07 
2.5462155667e-06 -1.4605383101e-06 -5.9434426012e-06 5.9504394172e-07 5.3762127061e-06 -5.552599994e-06 2.060588258e-07 4.347985053e-06 -2.9545575837e-06 
0.0028608234083 0.0021927126568 0.0030174893286 -1.4990884038e-05 0.00022689187131 0.00024266022714 0.00025562977102 0.00037642643765 0.087065814149 
0.078789698748 0.077303642894 0.070316896854 0.00050514092381 0.00031986526972 0.00050325778075 -8.644287369e-05 4.9464001545e-05 5.8597481795e-05 
-8.7778055191e-07 -2.7449034412e-07 9.0897343596e-06 -8.8127279037e-06 0.00030801396238 0.00016703916059 0.00086269354673 0.0038969119805 0.0044447476453 
0.0040684368396 0.0047862010768 0.040894380904 0.033845265573 0.039147318152 4.6243937795e-06 -2.2277438331e-06 0.0024296738572 -0.0033789736645 
0.01180964094 -2.4919384401e-06 7.0070757364e-07 -3.6594512809e-06 0.057554054798 0.034599804059 0.029836754641 0.037966259682 0.00011663735091 
0.00010455964065 5.6408363005e-05 4.8540470201e-05 1.1512606264e-05 3.0981841708e-06 -5.5508676589e-06 0.0070957465582 0.0056307123264 0.0085962814521 
0.0069354040073 2.304491631e-07 -2.8792804608e-06 1.9061486629e-06 0.054793807977 0.053720574375 0.058435095383 5.4305175409e-06 -7.8667977279e-07 
-3.492001286e-06 3.1463096353e-07 0.02453274422 0.026041742238 0.0012366366793 0.00021203068971 0.0024336859196 5.3497606072e-06 5.4634158931e-07 
-4.9055795777e-06 -2.1170092097e-06 0.11268807598 0.10256811785 0.11376552194 0.011903122786 0.0084434256299 0.0085069171077 5.5363035142e-05 
9.871643791e-05 2.3193148258e-05 0.032411556219 0.028973685807 0.024595678101 0.027383700127 0.022146278836 0.020165100813 0.024815373819 
0.0034554234407 0.0041073787523 0.0042238034277 0.0035196922901 0.0047543136787 0.0038683882689 0.00020675968434 0.00021889813756 0.00036242191455 
0.0040847536461 0.0052472599856 0.0042421995099 0.0055289204518 -7.7901990893e-05 -2.3335437697e-05 8.4745175537e-05 0.017448869935 0.017031818019 
0.013613227267 0.012820240876 0.098694475048 0.0082767355532 0.0071363689906 0.0088199283309 0.007503246173 1.5800464444e-06 1.0455542222e-06 
5.9558485927e-06 5.3182208204e-06 -2.1426212125e-06 -1.1378673602e-07 0.013200482683 0.017268976635 0.010497768413 0.014926207436 0.027452306391 
0.022678715855 0.018908542394 0.0050493206766 0.046850340885 0.036646196614 0.040569506119 0.034844963746 0.040845014593 0.00051991531844 
0.00093498561498 0.0007351423421 0.0027263160557 0.0032476768148 0.0023289642429 0.0025937750489 0.0021416515998 0.0033023035236 9.1751562238e-06 
1.0299622964e-05 2.0715048359e-06 0.00028976901983 0.0010543443275 0.00029552566332 0.00022714025302 0.00016750897246 -8.7099205216e-05 1.2253054985e-05 
0.0878844988 0.095028856509 0.089046217516 3.0619583543e-05 -0.00012631810618 -1.2070154151e-05 8.3102371238e-08 3.0669553208e-06 -1.2135953073e-06 
-1.5616955712e-05 0.0037153899609 0.0031612577827 0.0025612261948 0.0064505866349 0.00071529361383 0.0014777237331 0.0018385186653 0.0022773854922 
0.001001188478 0.0011262008363 0.0014914584499 0.0021078726666 0.00018820426085 0.00049102790865 0.0013308795065 0.0012749894123 0.0014091637679 
0.0023445641153 0.0074238172566 0.011904221762 0.0099018705027 0.00018033824063 0.00029537634452 0.0016021532264 0.001428314576 -1.2779866681e-06 
9.7432677478e-07 -6.4494178817e-07 -2.8553204815e-06 0.016929114975 0.0018535578621 0.0024062808546 -0.0013133163697 0.0011527254366 0.0019755936382 
0.001668282902 0.0022514592645 0.0028547239034 0.0016064060085 0.0018067713241 0.001332258393 0.0014559134519 0.00058507390971 0.001093630686 
0.00063181231329 3.5895498746e-05 1.1959612547e-05 0.020680969591 0.024021769149 0.020478066864 -0.0019503111796 -0.00010745742798 -0.00032279807336 
0.00013154783575 0.027970453356 0.034416999256 0.030064181582 -2.7075318539e-06 -9.1493713438e-06 -5.1734992595e-07 6.821890853e-06 0.098443709589 
0.091007093241 0.090732583718 0.084119019633 8.6467299015e-08 4.7802688428e-07 4.9472204026e-06 -9.7292609284e-07 0.00021041605837 0.01238730924 
0.013453064814 0.011964614498 4.740747623e-06 6.8583409575e-07 0.021058726483 0.023301089155 0.027971293709 0.031098588756 -9.600442527e-05 
0.00038130552334 2.6964471269e-05 0.068532802454 0.026145538494 0.033216279216 0.00073984783912 0.0015436528564 0.0007927102802 -6.9789873165e-06 
7.4812460243e-07 5.5427019224e-06 0.11823479027 0.11248463972 0.0063446981684 0.010452551676 0.0084106410878 0.11305154718 0.1134392162 
0.09339029882 0.094377420577 0.085169028288 0.01055207124 0.0092522221031 0.10815739326 0.10853277738 0.1076738473 0.059225185752 
0.052610454487 0.055641764345 0.049651709959 9.5015697383e-06 -2.1957332786e-05 7.0001376098e-08 0.013760989706 0.011863738437 0.012927009949 
0.012371414732 0.056344904062 0.056381588734 0.048185748189 0.048426843287 0.0131548428 0.012943711265 0.00020610424117 0.00019962780281 
0.00060324082604 -3.6413643896e-06 0.00015148595412 0.00025186217707 0.0055778624886 -0.0049326009412 0.059869421752 0.019502094684 0.022381942292 
0.017807775223 0.0029587357598 0.054290995249 2.7290662922e-06 0.054350679898 0.055052446537 0.045655142186 0.11275912016 0.06378559683 
0.071149173719 0.070465031585 0.078351210494 -4.9096583129e-06 -1.5937034601e-06 5.3013319884e-06 -3.2389153419e-07 0.0017266300843 0.0019785344604 
0.061834687809 7.3153755806e-07 0.054082882162 0.053195740024 0.05451159268 -3.4724610277e-06 7.9907782153e-07 -3.2384118917e-06 0.00073796630662 
0.0005646960764 0.00041015612599 0.0023298091887 0.00052611793323 0.0028405640808 0.00099066992271 0.047367269631 0.055220019514 0.053881034579 
0.011361443383 0.012178464594 0.011191499537 0.00010625997931 9.7053626898e-06 -0.00016324950004 3.272140054e-05 0.036204452286 0.053378975712 
0.042981350293 0.055976947595 0.055118706458 0.053661320615 0.047107555381 0.0049748869878 0.0074394016848 0.0057988617252 -7.1363176757e-06 
0.0066475007028 0.00014695843167 0.010143424424 0.011281383453 0.012090920364 -0.00022000313454 0.00019768333496 0.00010318878649 -0.00037611122038 
0.0030847465581 0.0040829228624 0.0027934845323 0.010315468079 0.011110579908 0.011423823541 8.0830771964e-05 0.075885890811 0.077385612133 
0.069184604861 0.00052051471875 0.00027778322427 0.00033945901036 0.00072285854408 0.0011164016265 0.00091900767507 0.013708428761 0.012925711106 
0.014182680841 2.61035837e-06 -2.6015542266e-07 -7.5604480167e-06 1.1125028206e-06 0.00013879224065 3.790538074e-05 0.00026943193792 0.00020967739892 
0.0018410119988 0.0015819252757 0.0026376759884 0.002265152276 0.0032280779732 -5.853647775e-06 -4.7392077997e-07 -2.3990063184e-07 -2.3867135275e-06 
6.6335372592e-06 1.1816386171e-06 -4.2237760484e-06 -1.5082939031e-06 4.1830956032e-06 -1.2104036245e-07 0.034749877247 0.040724630379 0.03582078563 
2.065580572e-06 0.012368313754 0.011172109517 0.012080691454 0.10168391928 0.11260225816 0.11183682108 5.8736359124e-06 -5.7333618052e-07 
-5.0390079913e-06 -1.3418088423e-06 0.0036157092426 0.0043536674213 0.0032517984363 0.0038347467805 1.3837983253e-06 3.1085027781e-07 -2.7597983127e-06 
-4.5177629854e-05 0.010444431504 1.2565898746e-05 1.5269215358e-06 -1.0770458993e-06 -7.3460246021e-06 7.5961007267e-06 6.8239526329e-05 -1.1161072294e-06 
-5.4700622117e-06 1.1004781637e-06 -3.6991403019e-07 9.6040470054e-05 -0.000109254968 -0.00016036372827 1.2593228608e-06 -2.9162375048e-06 2.2340348475e-06 
8.8207860038e-06 1.7570488073e-06 0.0098425252617 0.0089770708465 0.0098421453585 0.0027820203198 0.0014521802243 0.0023516518021 0.0055818015778 
0.0040250765302 0.0036626138297 0.0022803698454 0.0028802834035 0.0040864223591 0.0036265247306 0.012493771059 0.10510131631 0.10486196592 
0.0074199162398 0.0084653947043 0.0094624273776 0.0017050399476 0.0030076627029 0.0027478912448 0.00087422674852 0.0013792655329 0.00072336932074 
-7.869336699e-06 5.3369180518e-07 0.10957948407 0.11112667298 0.11097581512 0.00015510781605 0.00022257342062 6.427332412e-05 3.1693742604e-06 
8.3502724846e-05 6.7826014368e-06 0.0079560943183 0.0080865513011 0.0074740818458 0.0074818581816 7.1934748997e-07 -1.1765779564e-06 0.0059997548953 
0.0051721378038 0.0054858246256 0.00054209669462 0.00041698186605 1.1523355007e-05 0.00071634023627 0.00011561328469 -1.2233831556e-06 9.298440056e-05 
-0.00011016187763 -2.9978792369e-06 0.00056534986752 0.00079746575421 0.00045029585018 0.0012338057414 0.0015903593923 0.0020991868161 0.00043084945137 
0.00030778720229 0.00034563212362 0.0027790929127 2.8969305836e-06 6.5751434654e-07 -5.4625585598e-06 -1.3585133013e-06 1.1166780805e-06 2.7316211363e-06 
-4.6082138687e-06 6.2733948467e-07 0.055367595769 0.05694440624 0.048908456007 0.0047297411612 0.0046832430505 0.0060297475597 0.012556275202 
0.013508941162 0.0043157855751 0.0035663406309 0.0039861678117 0.0033643786988 -0.0005178152371 0.00012169890293 8.5706379886e-05 5.4588241346e-05 
-3.018111628e-06 1.6342533312e-05 1.8131911722e-06 5.1633786762e-06 -1.3128804985e-05 -4.3277176222e-07 0.069233541953 0.059923387988 5.625154562e-08 
0.0018733458349 0.0011816647989 0.0009892173238 3.6380855173e-06 1.7708155277e-06 -8.8751383893e-06 1.3889737163e-06 7.007309958e-06 -8.8974060522e-06 
-6.3253005917e-06 5.4486211284e-05 0.0012391846068 0.00021387388386 0.025799619121 0.028023956801 0.021838766506 0.10884525888 0.067628456356 
0.060744215521 0.0045218377357 0.0032094054631 0.0048591781024 0.0035762650477 2.6644795106e-06 -2.8401581911e-06 5.804257829e-06 1.7286250777e-06 
0.012635639468 0.013871192378 5.5421288589e-06 7.2217176004e-07 4.4057772029e-07 0.00055476955867 0.00032152864475 0.00033202512535 -3.1172901291e-08 
-2.3739712985e-06 0.079460843094 0.086035934689 8.1928895586e-06 -1.425701622e-05 9.1200828304e-06 1.1961278798e-06 2.6870834416e-06 -7.5501077004e-06 
3.4904576098e-06 -2.8699985002e-06 0.07440580531 0.066217005284 0.062412393272 0.0037818366363 0.0037961783359 0.0030105925444 0.0029837311825 
-8.8909907109e-06 -1.1433916951e-05 1.7516952455e-05 1.282643055e-06 0.0059431886935 0.0053643191948 0.0048462353435 0.017287957592 0.018186775687 
0.021127445441 0.02160287481 1.1442427441e-05 1.147213444e-06 1.1712636538e-05 -1.9936192531e-05 0.051989994559 0.0055879534287 0.0048086041537 
0.0066974925517 0.0060255528233 0.00013864070455 0.00014633645026 0.0010560006592 0.0011037886852 0.0007202241143 4.3421751705e-06 1.9790316518e-07 
0.017892466425 0.016062988893 0.015208427538 0.013811651395 0.00010537796521 0.00018548173273 0.00050382370188 1.4314884205e-06 -9.3198127566e-08 
-5.2768467924e-06 0.04539519889 0.042175072337 0.066380670237 0.055460842169 0.059282978584 0.0035187551199 0.004375905781 0.028200888232 
0.046044836153 0.015396489543 0.0050721098954 2.515389321e-05 0.00012786620144 -0.0001849453676 0.0020068586142 0.0026187771267 0.0011787336719 
0.001470884683 0.002459991387 0.0025459305353 0.0019629061513 0.0066488730749 0.0083484393909 0.0068138729745 0.0030438651878 0.0030013097737 
-0.0008849320973 0.010125484339 0.012453338915 6.3945028174e-05 -3.6343692955e-07 1.3307003039e-05 -7.6549021651e-06 0.0035613373393 0.0054369186198 
0.0090264132918 0.010249486218 0.0082762866559 0.0097760451483 0.0042218845162 0.0061100122325 0.0037892843605 0.0057231914755 -7.6670251713e-06 
9.4104860607e-07 0.004585398387 0.011984845506 0.011086134457 0.0054072318146 0.0056321039882 0.0046665276119 0.098205064044 0.090614758071 
0.098839165192 0.035990597824 0.041914714322 0.045828004682 0.054195757278 0.059100948943 0.039928065074 0.0011397699677 0.00057641256158 
0.00034626409336 -2.4197858193e-06 1.6009387867e-05 -3.5111164079e-06 -5.2505484765e-06 0.10179703959 0.0040698208568 0.0047525770302 0.00022332631133 
0.00089499179387 0.016403146698 0.019478846583 0.017157698982 0.0007867991289 0.0013275409537 0.00090925147924 0.013738543805 0.070331196516 
0.077269049494 0.068198347107 0.050240825951 0.031895456111 0.036594939743 0.01016682998 0.016411639639 0.010133990975 0.014578826269 
-0.0015722823312 0.045061275513 8.3081822283e-07 0.077702785364 0.084672116967 0.076050216607 0.058400303093 0.053398613913 0.053853945719 
0.00092053250466 0.00056140158047 0.00061727538428 0.061591161773 -2.0319497848e-06 0.080008232959 0.080776237276 0.073008546787 0.096832691819 
0.099813104739 0.064096805971 0.063829947529 0.056614192564 0.005528705014 0.0051435268298 0.0043585907487 0.0031586786 0.0047772582526 
0.0047140070761 0.003340944844 0.0028629878227 0.0024469353575 0.11022611916 0.09723303207 0.10304254857 0.096842462772 0.010468329908 
0.015935310143 0.0079120018296 0.093004117146 0.085077289146 0.084218263204 0.092253573234 0.10339051017 0.084921663681 0.089718133227 
0.013232811393 0.012599047062 0.012155051976 3.0391923421e-06 0.068144415833 7.3454022576e-05 -5.3682331155e-05 0.051284913662 0.054902383457 
0.050035783439 8.9679792652e-07 1.5409566529e-06 0.00025239093571 9.7714466235e-05 2.8225587442e-05 0.00020726077494 5.0654097346e-05 5.2051387026e-05 
0.00011867879885 0.10150502698 0.066194801994 0.058281870915 0.06478433269 0.043224490168 0.00012677464089 0.0005717724952 0.00040007663473 
0.053801465591 0.053106175439 0.053218662444 0.056470707453 0.0012173519915 0.0076495066572 -9.0044840137e-05 9.5214629902e-06 7.4432492563e-05 
0.034304661601 0.039493369042 0.032275085908 0.05036551075 0.056946574302 0.060760007894 0.024791974205 0.078143974253 0.074233173106 
0.069556649529 0.021972254022 0.021033064402 0.017247605339 0.016795881018 0.047579123408 0.012202133746 0.012997421464 0.010509638899 
0.030875257062 0.031796568165 0.026801732556 0.025225100645 0.028271135041 0.023968796347 0.053310785377 0.044012350236 0.042605889782 
0.046362769758 0.033180103324 0.083261894722 0.089935816909 0.082530208561 0.036752724013 0.032543540132 0.030803793745 0.028579450788 
0.039839287932 0.043319906379 0.037587318843 0.026176012724 0.022496576775 0.028041986364 0.028415600302 0.032948799708 0.032960898733 
0.060601580666 0.05300115767 0.064208135663 0.11167979847 0.11126736851 0.10150047187 1.2203270977e-05 0.012083584781 0.012726882152 
0.013554393364 0.013571991512 0.015651137089 0.016851184715 -5.9853286227e-06 4.0490702823e-06 -8.5847838375e-06 7.0537828128e-06 1.6286802045e-06 
7.18669055e-07 0.018961921534 0.014625259529 0.021033646229 0.017056199728 2.5091459843e-06 -4.3747674757e-06 -1.9418208219e-06 0.052914324919 
0.045749837187 0.054116606894 0.053017719156 0.059061534524 7.0298700663e-05 0.00010523935112 5.0836165298e-06 -3.8827509506e-06 0.0028650962266 
0.0049096062143 1.2409146395e-05 1.5298964547e-06 1.1602046088e-05 -3.759534867e-06 4.3371249094e-06 6.2650116673e-06 2.725451396e-06 0.0036629571921 
0.0044341907171 5.4236375968e-06 -7.8029366191e-07 -2.6654857586e-06 1.3327582435e-06 1.2431994196e-06 6.0688753269e-06 0.043172439721 0.041758808898 
0.013333645623 0.0096519029324 0.01119205848 1.0384955675e-05 -2.1245113698e-05 1.2369507256e-08 6.8089072246e-06 1.7234767958e-06 0.024915970054 
0.030146019777 0.028604650775 -2.4699931327e-07 -7.9490012732e-06 -2.1108678009e-06 1.6821365181e-06 -6.0565198828e-06 6.3643032304e-07 9.4745466204e-07 
3.0844913486e-06 -7.8617664316e-06 2.0087131087e-06 -5.8665798357e-06 0.00086618512614 0.00056540025068 0.00040454877439 0.0070303316457 0.0082477230687 
0.0080940032975 4.7426801761e-06 0.018139262968 0.0043065814639 0.0050668284829 0.0032797266292 8.2686178588e-05 0.00046450582382 0.00046273218578 
0.00071165341019 0.0096817011255 0.01158332301 0.013246892983 0.0064180154834 0.0077200693515 0.00527518864 0.00068188919131 0.048070877757 
0.041995278428 0.010343798524 0.0072706309452 0.0090402177438 0.0067369714881 0.0079789879619 0.0072281432112 5.5060357948e-06 4.4121577843e-06 
1.5222645908e-06 -1.9464295223e-06 -3.6340370877e-07 6.2691090617e-06 -2.6274600728e-06 -4.5666992975e-06 1.4272084071e-06 -9.6393716933e-06 6.0977003943e-06 
5.3255868922e-06 0.0075177866358 0.0077064987202 0.0059839147399 0.095665415854 0.095289041452 0.11078621471 0.098228513655 0.090362427105 
0.09820986526 0.0020259182448 0.0040017190441 0.068439892174 0.082632637494 0.072460862154 0.0021182496469 0.0098733412619 0.008818204189 
0.023203574006 0.023981212673 0.020291534238 0.0010039377173 0.012817721464 0.012093725872 5.1781309451e-06 -8.7591434437e-06 3.031967399e-06 
2.574873435e-06 0.0032525656239 0.0030122542116 5.1898711137e-06 -6.5508046844e-07 -3.1775681389e-06 3.2636345304e-06 2.1250550944e-06 2.3875194762e-06 
3.4156448423e-06 5.8544542012e-06 6.3843306357e-07 4.6803030236e-06 2.0424915756e-06 -3.1994843825e-06 3.3539302347e-06 0.037795263476 0.030353810752 
0.032739895065 0.025905689174 0.11143254249 0.10853836017 0.11092791032 6.2037852196e-06 0.0047396091692 0.0053902234663 0.0043424508456 
0.015628883779 0.017738547571 0.018084178659 0.0040491574115 9.7400692709e-06 1.0908230874e-05 1.2170834345e-06 -6.2942966146e-07 0.037475641484 
0.037245527981 0.042657955124 0.10739241203 -5.7458210173e-05 6.9836472659e-05 0.00030424085737 2.7673751168e-06 -4.6867611189e-06 6.6779385615e-06 
0.0059749207548 0.0049782978885 0.010786461058 0.01254906994 0.01132548672 0.013068297836 0.10760374417 0.10511493692 0.10767180502 
0.0015063554822 0.0013500075779 0.0019563068102 -2.2533892547e-05 2.6685681907e-05 0.027544653908 0.022892038667 0.032704410133 0.02600789526 
0.00032469097506 0.00038073201679 0.00093794193768 0.0098715445198 0.010411070784 0.0092133226584 0.0080567979225 0.0093249839474 0.0080124409922 
2.5307595714e-05 -3.6916241836e-06 7.7803335149e-06 -0.0014180799127 -0.00098184478415 -0.004961334441 0.0066445204663 0.096923543726 0.095013258544 
0.0046362321571 0.0042946059702 0.0038005838545 0.0039968251215 0.014999246441 0.018032723229 0.015258046898 0.018383582649 0.0018744814902 
0.0018169223381 6.2193979566e-06 6.7722343281e-06 -8.2983459652e-06 0.00011578964903 0.10936483579 0.074882756257 0.068788953211 0.0065151029825 
0.0062997087932 0.02163722708 0.025375235382 0.021161611634 0.0037572735139 0.0035948065504 0.00703905588 0.0061504701519 0.0031915418505 
0.004469510505 0.0027874796715 -1.111871945e-07 -2.1699238291e-06 5.6587964146e-06 -3.7464025053e-06 0.037957351153 0.044044852714 0.040123415091 
0.013462979714 0.014726248866 0.0023167786037 0.0023434053631 0.0016064015145 0.0015481985364 0.077088006083 0.077294438887 0.070126118272 
0.070145048555 0.073724634218 0.11878225997 0.0072266814944 0.0063107068137 0.007142032631 0.0093711032959 0.0080998764507 0.097669937328 
0.092009930925 0.048259513333 0.054262819962 0.043057772666 5.0733830686e-07 0.047839158346 0.033398716053 0.0074090596978 0.0071499442134 
0.01526656723 0.021992862247 0.014629460464 0.060011170207 0.059997790164 0.019178258185 0.021600438381 0.017308000874 2.1340513243e-06 
5.2553829478e-06 0.056055720442 0.049676855828 0.06417287797 0.057042076297 0.026305944644 0.036040355639 0.032502686261 0.039381014504 
0.068117847834 0.11122764058 0.00018174935135 0.00060063057427 0.0066125136686 0.010267001689 0.012386141278 0.014900252183 0.0011875078584 
0.00061246141005 0.0039322859301 0.0040394384418 0.0049598982409 0.012534177319 0.00019986709717 -5.8709438784e-06 0.099763886067 0.013614554206 
0.014986798018 0.00065695514343 0.00046507574443 0.00077424432367 0.0016794385882 8.218438563e-05 0.00037840310116 6.7939615656e-06 8.9526113347e-06 
0.098015281817 0.10379568831 0.017817054143 0.020911505226 0.019060799597 0.029566103145 0.011536703876 0.012849973623 0.011829968673 
0.014830741536 0.00054859352008 -7.7538756349e-05 0.0002871614758 0.036631665231 0.042621456373 0.0011633805684 0.00082990844544 0.053713099782 
0.054906750752 0.046653393714 1.1647596899e-06 0.0076003509982 0.00029673430134 0.00029474172214 0.0005186073091 0.0002139005112 -0.00014496721554 
-0.0001781212799 5.847253724e-05 0.013274917567 0.037522234804 0.049251797675 0.0053574773306 0.0046465561155 0.028837267728 0.027593196131 
0.024415985511 0.023414691076 0.0067752142683 0.017474804522 0.022236926585 0.014659268912 0.028576731045 0.030401480838 0.035387497119 
0.057331080196 0.066032246704 0.059434055107 0.067768846606 -7.5712557451e-07 4.375391855e-05 -4.2356877898e-05 3.6304579545e-05 0.00044664165032 
0.052365037379 0.059856182337 0.053727636402 -2.8686836916e-06 0.008764843431 0.0071181055211 0.013534995797 0.0087944957128 0.011065271872 
6.4601776255e-07 -2.0709887523e-07 0.083638650923 0.090309576976 6.7815582438e-06 1.030441635e-05 1.0215107753e-05 -6.9781648682e-06 0.00018744070321 
2.9991266805e-05 0.023261697965 0.02058463388 0.024976763615 7.6480775446e-06 2.2236876436e-06 7.5777340658e-06 -1.8454318657e-05 0.017819607761 
0.016284921729 0.066510022107 0.058401930729 0.062942738745 0.063340189801 0.068464380228 0.06916069485 -2.4720897083e-06 -2.7059347708e-06 
0.0015563593939 0.001156574782 2.1805344228e-06 1.0054333041e-05 6.9497894564e-06 0.00067412265103 0.053238855898 0.057940056679 0.045363570639 
0.049244002703 -2.2662902746e-06 -2.9703150847e-06 -1.9752792818e-07 3.0083462176e-06 0.10444130105 -0.00014084559768 0.037659648609 0.035093077891 
0.020217352834 0.089694597898 0.068999970661 0.031437270469 0.036925279839 0.032074166178 0.075724237523 0.042717594902 0.062398709795 
0.084070908927 8.6998985984e-06 -4.3642871271e-06 1.1451404471e-06 8.0349636293e-07 0.027986549926 0.024533136656 0.09162932104 0.00071026254975 
0.0073840944516 0.0095877797569 0.0061546852298 0.05111971585 0.010646560242 0.0095646941438 0.0085623817184 0.010765255985 0.011475710583 
0.010458901707 0.038543652757 -1.3611488788e-05 0.010549289295 0.00057852528038 0.0011155721956 0.0066265123444 0.0083851872772 0.0057204924692 
0.0010840631186 -6.241217927e-06 -1.4927686463e-06 -1.1063145255e-06 7.4275554167e-05 0.0014279133053 0.0014914979041 0.056800035816 0.00034318743018 
0.11138586324 0.054621124969 0.046398161694 0.046835569606 0.043028088758 1.1560392204e-05 -3.1566188564e-07 9.1922984716e-06 0.0377364557 
0.037519816903 -0.00028872616327 0.0030389228825 -0.00036536157466 3.7660483128e-06 0.0076699787853 0.0064456851503 0.0068023875069 0.0056915439481 
2.1510948371e-06 -6.2267357461e-06 -9.5115051929e-06 -4.1458614298e-06 -1.8910622946e-07 9.3547479654e-07 -1.3362658082e-06 0.11047497824 0.10002612228 
7.1352833025e-07 -5.1917574455e-06 0.054077464859 0.0083687169764 0.0088803453359 0.0092494404455 0.0032118643736 0.0021797102012 0.0095045213934 
0.0095082452644 0.0020366566635 0.0028466009763 5.1025826977e-06 -6.8783173625e-06 -2.0285797131e-07 0.00055900764193 0.00083574680774 0.0095489969106 
0.010089053656 0.011892856392 0.0083572263707 4.2461648856e-05 -1.6335709929e-05 -0.00016418345357 0.063579310942 0.056067480103 0.069468795879 
0.06137620377 0.008127468488 0.0066972077554 0.0077764260692 0.0024556930313 0.002436579188 0.0015601890197 0.015462068918 0.012762048403 
0.013950445373 0.0071836029792 0.0070018130462 0.0058470751898 0.014658211072 -0.00011331066444 4.8381629757e-05 3.40178604e-05 2.1177991695e-06 
-2.4091139608e-06 -7.7257352698e-06 6.1787499668e-06 2.2061753717e-06 0.091019137842 0.084870471972 0.083995642172 1.2438142795e-06 2.6814499829e-07 
-4.4157490188e-06 1.2442694782e-06 -1.97475045e-05 1.344089032e-06 0.0014774472808 0.0017528727582 0.0020472450538 -0.00014854524323 0.00011016899866 
0.032764114296 0.047001827849 0.010527392631 0.006185454822 0.012479178337 0.0010803362618 0.003411217319 0.0028017801859 0.0035244259678 
0.040940105121 0.04736622094 0.045870654126 0.10908496209 0.042636610607 0.048699037134 0.013778388526 0.01174765504 0.01237894114 
0.060325356643 0.06404099822 0.052628644306 0.08245859207 1.6843550683e-05 -9.7265672251e-06 0.00012234161077 0.00017606467639 9.425056993e-05 
0.077443539478 0.032799008656 0.042407990191 0.043413195197 0.048276991632 0.049876780188 0.038228205022 0.045206514675 0.046101826518 
0.058978118083 0.053177892239 0.053369611767 7.3094894698e-06 0.0010698437279 0.058161666214 0.007099011941 0.091342831327 0.019096922166 
0.019804078958 0.016184096247 0.0031076757359 0.0028689536296 0.00257218142 0.0017883367469 0.041349810582 0.035009541196 0.046981193215 
0.040501615977 0.0086863338979 0.010905401562 -8.5428479329e-07 0.0089850265826 0.0075617450008 0.00065366383618 0.0011186775316 0.0072955517321 
0.0068306931849 0.00095339876647 7.6376218589e-06 -4.9977326012e-07 -5.3517028773e-06 9.7684831555e-07 0.02761008434 0.03229332676 0.0064638371246 
0.005578761748 0.00045539894359 1.6339373971e-06 -7.5536423592e-06 4.0771088855e-06 0.0025105722649 0.0038932179899 0.0023344512823 0.016629021345 
5.4525343637e-06 0.0041067340782 0.095296986378 0.090912788815 0.0028041256304 0.0020322038391 0.0025749744435 0.00025933521796 0.0019352868972 
0.00038007749597 6.2540844973e-05 0.00011732914221 0.013591923149 0.0020719186948 0.0026466187678 0.0025527169603 -0.00017810339117 0.00056328283704 
-7.1209733064e-05 0.00014702897132 0.00019811921275 0.0010753151601 -2.0577148869e-06 -1.3403560517e-06 -1.0440020159e-06 0.05531985222 0.037432602527 
0.042872998696 0.035763766592 -2.2464154707e-06 0.0020884447099 0.043552595352 0.05313385228 0.048707230853 0.040167719695 0.034983271399 
0.041541333821 0.011220152824 0.010029807692 0.010510331702 -2.7592367327e-06 4.733477679e-06 7.9783455654e-08 0.001556529386 0.02441767928 
0.019814866573 0.021488449561 0.014570254778 0.017103749551 0.00010803731916 0.00016536158194 0.00016698179102 0.00017928994842 0.060322009731 
0.045294839663 0.0016026607799 0.0014199748275 0.011187917508 0.012017689262 6.0272379592e-05 0.013513701151 0.015740967666 0.019905251004 
0.022500784174 -0.0039781101859 7.7361702266e-06 9.3578564095e-06 6.9334943213e-07 0.041918959075 0.042555937242 0.025222392978 0.013566317756 
0.014373203636 0.00012694806244 0.010006977663 0.010526530842 0.0022144807902 0.00084158712901 0.0011842485837 0.012850351002 0.0013195865479 
0.0019046242536 0.0010386796494 -1.4008106679e-06 -5.3706634456e-07 4.8167842744e-06 0.0024169034816 0.10411968679 0.00029041605412 0.00071713561025 
0.00017465751215 0.0025877950298 0.00026943444721 0.0024220460732 0.0031476464546 0.0079098083408 0.0084845905784 0.0091129589877 -0.017051080302 
0.00014256495366 6.3022102393e-05 0.00021574435041 -0.0037916776893 6.7358898181e-05 0.00018826346454 0.00018688676192 0.0092112913801 0.009258907396 
0.0078054872475 7.0598840142e-06 0.0048794720973 0.005955630258 0.0058221933008 0.11427231591 0.1034338666 0.034063157077 0.047538150971 
0.0019532493663 0.02453082918 0.034447907762 0.0411705146 0.028501547375 0.034101413298 0.039670949079 0.038580563912 0.044179715667 
0.0088659323996 0.030792747329 0.097300292558 9.0835087852e-05 9.9965598477e-05 0.00054597089252 0.065013987678 0.058745258175 0.017384020869 
0.0018887405324 0.0024156294505 0.0028310110925 0.0032671819222 0.04483459656 0.037511955397 0.02031929536 0.00035941234139 -0.00016777622485 
4.3737267246e-05 0.0016725371508 0.0013577686726 0.0011100198369 0.041004124414 0.034078744869 0.053481710717 0.057973697362 0.024566847971 
0.019749941477 0.022677556817 9.8654501364e-06 1.0037138408e-07 0.00014322631685 0.00021109452714 5.7368525843e-05 -6.8764279305e-06 -5.5650371858e-06 
5.2021309738e-07 1.650285204e-06 2.2113821337e-06 -1.3643210315e-05 7.6008855604e-06 -2.7693239846e-08 0.032312016829 0.031795284488 0.027100470678 
0.00055537413544 0.011510778906 0.0091839129804 0.011910534612 0.0094125217405 0.0096083645311 0.0084613340067 0.0092058518842 0.011446984236 
0.011402350507 0.0128777579 0.012455701031 0.02114896701 0.022865779181 0.028650659117 0.0091250294332 0.0068956332791 0.012474839477 
0.013189367288 0.011977382567 1.3569527389e-07 2.1557548415e-06 2.2903001494e-05 7.6577633538e-06 0.00026438763702 0.00011728948201 8.209518543e-06 
0.005381620536 0.0063639920504 0.00021568044897 0.00039585433039 0.00029377850594 0.042715852112 0.046430457104 0.042272330322 0.0074948313827 
0.0079808799441 0.0002666275288 -0.00012645281915 1.7811829358e-06 -2.0502076875e-07 2.991931182e-07 0.029197940552 0.02258562253 0.023398914179 
7.808446839e-05 0.0004128207036 0.00032063813556 0.0003467628319 0.0071578801347 0.071265955235 0.089077216101 -1.0903226189e-06 -2.4067241616e-07 
4.0114888703e-06 1.0858057468e-06 1.9535914176e-07 -7.79991697e-06 0.0084747849233 0.0086039622093 0.0065671900175 0.0075408209111 0.0046289358937 
0.0044502648201 0.0057201247053 0.0054053162419 0.029782172697 0.030953173624 0.038046957834 0.00041255315941 2.5644975174e-06 0.006616837609 
0.0054191045271 0.0056852265279 0.0052112902948 0.009155277918 0.0070437225581 0.0021923295598 0.003140176029 4.8501730742e-06 -4.0543186761e-06 
0.050890431174 4.4425949451e-06 -1.1678083001e-05 1.1749382943e-05 5.4121650481e-06 1.9699960125e-06 0.00094919044506 0.0010223096509 -1.2541017247e-06 
-4.4785056765e-07 -7.8297851213e-06 4.2823818678e-06 -7.5949709971e-07 0.0033445309363 0.0032060955358 0.0022190874459 0.0072398282598 0.0069742996515 
0.0082077530781 0.0070724926456 0.06056437062 -0.00010828992579 -7.0175786697e-05 0.00013489822842 0.058136158385 0.055039381658 0.0031698180323 
0.0057969733297 0.0046513049142 0.0060949605914 0.017960241316 0.016978330602 0.062322235661 0.064163301397 0.030317059816 0.035826392044 
0.034443514306 0.042934065651 0.04315204132 0.0055749247893 0.0043146357226 -2.7458671476e-06 -2.5960123694e-06 -5.4328896612e-06 0.093942250041 
0.015681039199 -2.4022496873e-06 1.9196857126e-07 2.0489668279e-05 -9.957994024e-05 0.0014127125752 0.0013448961014 0.0017476458419 0.036276579956 
0.030803210833 0.03703619203 0.032064506446 -4.1991040331e-06 5.0002933485e-06 0.0076370470293 0.014287730867 0.014114784606 0.015435474881 
0.0057000969187 0.0074411051838 0.016173486909 0.046853390229 0.05185500003 0.053441268859 0.0020024258901 0.0023524674492 0.048004636306 
0.040991331801 0.041571498942 0.011495535034 0.0092170002809 0.0010322428446 4.1573191726e-07 5.0685154813e-08 -4.5472617354e-06 0.032312306302 
0.0063688304717 0.0068271529352 0.00034610056891 0.041687812583 0.014525302032 0.014455141057 0.016072851045 0.016084231131 0.011728052697 
5.2305543863e-05 0.0081958343176 6.1136472106e-06 0.0094744756229 0.032847484213 0.013325916583 0.013859541989 0.01288258957 -0.00045844040009 
1.2488970987e-06 -1.3474543238e-07 -1.9796575231e-06 0.0074593884942 0.0072562104258 0.0051694913326 0.0010861652177 0.00014401452752 0.0022460526158 
0.00123841029 0.0032630810038 0.0004070551105 0.00048958729908 0.00085306020803 0.0039622934271 0.0040741095799 0.010364837175 0.00037188413372 
0.00033715186977 0.0011012047181 0.0016571777978 0.013567649993 0.012205336853 0.015575440604 0.013761817405 0.0062873236481 0.014591124109 
0.0092370530394 0.0087950028286 0.0075355801213 0.012032439054 0.012296073778 0.012013316185 0.00033807523407 0.000585760175 0.011796449767 
2.8381938323e-06 0.00064030930651 -1.2107327287e-05 0.010923361061 0.012418203954 0.011436066132 4.3478305713e-06 -5.9676015139e-06 2.1017753269e-06 
3.6924680759e-06 -1.3241885887e-06 -1.9097223783e-06 2.1743073348e-06 -1.0746866513e-06 6.876320712e-06 2.4575360358e-06 -1.3793562479e-06 -5.2602388866e-07 
-6.5218441541e-06 0.0096268007221 0.011425866654 8.8520652608e-05 6.4998223639e-05 4.8204755307e-07 5.0480060609e-07 0.00012162035133 -3.8344133051e-05 
0.013131246072 0.011830056441 0.013909307728 0.012516928866 0.012962454921 0.011960914084 0.011281663533 0.01426643268 0.0090414706266 
0.011003983394 0.0027092749379 0.023265310145 0.026970396712 0.017538154557 0.020694814457 0.0026658488491 0.013238706915 0.0032480484509 
0.017289778737 0.01533020785 0.015964102513 0.017308748425 -2.9225368701e-06 -9.0086135696e-06 0.010659688175 0.013748883905 0.014770600903 
0.013733173473 0.013192091626 0.013026773796 0.0016616834526 -3.4540675228e-06 0.014630833255 0.011612609831 0.10467167442 0.10491150825 
0.10336132344 0.016433265678 0.014053861734 0.00035582051837 0.00021937514364 0.00028714902199 0.0014481840869 0.010149144651 0.0099910762207 
0.0079637439514 -2.2579006756e-07 1.4068413895e-06 0.014978084624 0.012224444843 0.00025957642972 7.9313839235e-06 -1.2235605323e-06 -3.1764083537e-06 
0.0040616810798 1.9363033582e-06 -4.1250952974e-06 0.0050279548149 0.11277721345 0.11139083712 0.1125238827 0.019477315083 0.022045095414 
0.012598545252 0.0014478990721 0.002047745201 0.0022519832241 -1.049584533e-05 5.8795365919e-06 -1.0051678785e-05 -6.3067186865e-06 0.0029482700326 
0.0033574738852 1.7135186385e-06 3.6699347245e-07 0.0177888883 5.7632360701e-06 -3.6572397777e-06 0.0044393811168 -6.6321344885e-06 0.028790835311 
0.026943258452 0.026045542008 0.012121662511 0.011484727005 0.012435998349 0.012096688071 0.0014005061251 0.023971796915 0.025452912358 
-9.6462400577e-06 6.839897286e-07 -1.906042688e-07 2.2181486613e-07 0.00059128867271 0.0013890785526 0.00084880612882 0.00099661628778 0.00029716697926 
1.8956215407e-06 3.698592894e-06 0.0050059883482 0.0044594774344 0.003642956754 0.051388032154 0.049377893607 0.044360680483 0.00045819011211 
9.4186938517e-05 0.012937300249 0.0011486341983 0.0016020604329 0.0034531479407 0.0070750228119 0.0059085206527 0.008855398011 0.026975453889 
0.023712336537 1.1004096872e-05 2.9197251429e-06 -2.4935471133e-07 -4.1323268366e-06 0.0044322519872 0.022296238084 0.0021659138763 0.00055143530201 
0.0026115165457 -1.0984006639e-05 1.9727977543e-06 4.1243045392e-07 6.0485344884e-06 5.3377704865e-06 7.7092450218e-06 0.0059584409067 0.0018336266002 
-2.6234554087e-07 -9.8427499374e-05 -3.8409211597e-05 0.0034588573531 0.0042140982024 0.0025567282635 0.051865213727 0.0022112567392 -6.098876854e-06 
2.4488785857e-06 0.00037991680175 8.8406183774e-05 0.00043089587898 0.0010198810996 3.1128580993e-06 0.017785672187 -4.3942503903e-06 1.9565543229e-06 
7.9550076575e-06 0.054683633852 0.053567201049 0.0043697419238 -3.321936789e-06 3.9828840945e-07 1.2113127894e-06 0.0071871381713 0.009446271045 
0.0034688259434 0.0022251496663 0.11294824389 -9.0367823234e-07 -1.9919676423e-05 0.02795160398 0.00048759531775 -1.7059641363e-06 0.044262065843 
0.0075096600705 0.0079100262877 7.8796305731e-06 3.3991868216e-07 1.5954015076e-06 0.0013002843298 0.0019891557598 0.036977942948 0.0019905871004 
3.0562663739e-06 -5.3711404504e-06 0.015222277739 0.0114708576 0.010057701117 0.0093188382745 0.010623333927 1.7218856058e-06 -7.7123647134e-06 
0.0038763911566 1.2275267258e-05 -9.5500852522e-06 0.00012602892437 0.041519438516 0.035278759718 0.039292013031 0.011906730463 0.093738062155 
0.00012953944196 7.0334257168e-07 0.055562160835 0.057625824229 0.03232831144 0.033101460923 0.024148008387 0.029004155216 3.4886149453e-06 
1.0825239691e-06 0.00051828338597 9.9259559595e-07 0.00041637335123 6.2119322802e-06 -4.0257688608e-05 0.0039010431506 0.00017400638252 0.00020392351168 
0.0004183600133 0.011393728533 -3.1064651471e-06 4.0249797872e-06 -0.0022620946817 0.014587113751 0.00014609600005 0.0001521872859 -4.3757138278e-06 
1.2174105218e-06 4.3124959578e-06 5.161908778e-06 -1.1938829617e-06 0.0012474772883 0.0022248404364 0.0062905499875 0.00047364300408 0.016985270616 
0.018445846571 0.014578355225 0.001624423689 0.00095981323215 0.001173048873 0.0006714823968 0.098344329652 0.1097326694 0.098554994972 
-0.0001083445061 2.68702884e-05 0.0099152002507 0.01080060875 0.0098746398768 0.074415738526 -6.71267723e-06 0.0049441591436 -0.00037851609864 
0.093761178077 0.10622127572 0.08876057509 0.095764547415 0.090473682419 0.081400442687 0.00022984887466 0.00038225988899 0.0011846157319 
0.00050979834879 0.0033783738574 -1.3216436737e-06 1.1673683534e-06 -3.5220706757e-07 0.0086404930193 0.0099553961883 0.065992239002 0.00012227359592 
0.00017768926298 9.2352679498e-05 0.00060649043157 0.053343677597 0.043462554091 0.071636416627 0.081777752463 0.075004172039 0.00038924471947 
0.0366261904 4.9055701119e-06 0.0012699100138 0.008333269691 0.0046440228052 0.012505580118 0.0045286828919 -0.0045449980232 0.00049548230431 
9.9710618048e-06 0.00018886686204 0.053608329071 0.046850128256 -8.2101568204e-06 0.00017283766713 0.00022201611908 0.00019055549851 0.0061142207476 
0.021710645307 -0.00071065374735 0.092375914235 0.0043160529229 0.0059916184033 1.3373965858e-05 0.10698050779 0.023062132506 0.018056399109 
0.015709223458 0.00020146871875 0.00023209883096 3.3203998703e-06 -5.1181031568e-07 -1.5651662685e-05 7.8640663646e-06 0.09662809228 0.095742658813 
0.098118499077 0.1050513071 0.097265914508 -2.2570272249e-06 2.6199375973e-06 7.8989043034e-07 0.0018829903883 0.098508158374 0.10357087347 
0.010197209889 0.010020631186 0.0060799168033 0.0049994674073 -7.8585996303e-06 -2.6708833094e-06 0.010234868709 0.00052162976544 0.050885189352 
0.044665385314 0.043464397027 0.038126151561 0.046324617727 0.026780004787 0.028095448647 0.021381050715 0.025880133457 0.023185046091 
0.0063950791331 0.0052017302966 0.0032745319682 0.00014397555967 0.00014720981265 0.00017293347569 0.0025524484112 0.0079521601754 0.006823237366 
0.063877161728 4.1202204002e-06 -3.390725544e-06 0.015431248215 0.015463366401 0.018720523063 0.019042985887 0.0010950303083 0.00080616237836 
0.0052756167007 0.072628062029 0.081756111111 0.079625814143 0.011529857457 7.9182953609e-05 5.5096579125e-05 9.717933552e-05 0.0001366705949 
0.00093414657297 0.00074880346622 0.008592418538 0.00040280615492 0.0002176837795 0.00025809806886 7.742484893e-05 0.0034297459102 2.2333271262e-05 
0.010042791355 0.0063028419275 -3.8898119586e-06 -3.0573380856e-05 9.03440885e-05 0.00026146737213 0.0024940967124 0.0030150200506 0.0023182605037 
8.5450232232e-06 0.00021142885351 0.00058668207122 7.8694088828e-06 1.5151280813e-06 8.6162534071e-05 0.0013691725153 0.00118172814 0.00073874117511 
0.00099604889872 0.061320430998 9.7885195595e-06 0.019304251435 0.00061280410627 0.0005717928568 0.00022025673088 0.0016775324413 -2.7664558465e-07 
-1.2535988527e-05 8.2511926392e-05 7.5125579317e-05 9.3452122545e-05 0.042675330667 0.045671747059 0.054336627546 0.043777337398 0.018273532235 
-2.2938567223e-06 0.074635539759 0.001298158839 0.017961140581 0.019296216395 0.082378899431 0.091799165245 0.00023244118788 0.00042896006534 
0.096497554773 0.00012935467671 0.00020702174413 5.8731856383e-05 8.1747780756e-05 0.00010736213683 8.6638090864e-05 0.00010807808234 1.2415212857e-05 
-1.6972638806e-06 8.0389220018e-06 6.2789302344e-05 3.2464284653e-05 0.0001155204576 -7.7033196015e-05 0.010340998797 0.0099178902433 0.00089490419499 
0.0010944632346 7.9755474479e-05 -0.00013154815852 0.0011428098701 0.00068107281453 0.001364210733 0.001251896615 0.029545366286 0.034899206945 
0.0013401806145 0.00066967744941 0.0045561100295 0.0055131553546 0.0043125075735 0.0070073305966 0.004779554136 0.043505590831 0.035988782125 
0.036745816228 0.039107460803 0.036311927173 0.036761627578 8.8924421887e-05 -0.00013049842537 0.00017788699719 -9.4446256953e-06 -0.00019085977736 
0.043589079733 0.0010929623225 0.00031966002523 1.3118054135e-06 0.073894871786 0.084378706658 0.079405780054 0.03637911607 0.09534985225 
0.0063042363093 0.010721523287 -4.7784417065e-06 3.1334580925e-06 1.8958498013e-05 -0.00019852734737 0.0019651785287 0.00074199669622 0.013047466518 
2.5832083094e-06 6.4811246324e-06 0.06916110088 0.013338628523 0.024863612726 0.024090457007 0.032829441079 0.057539015575 0.025310433352 
0.014998094766 0.0037736597089 0.004756501737 0.01427328213 0.054858739158 0.00050262951827 0.00042551384895 0.00068133184368 0.0065650350193 
0.0059461358339 7.4620506797e-06 -2.3667527104e-06 0.012715082897 1.2011017521e-06 -7.5066605385e-06 -2.9213257202e-06 -5.6290788456e-06 4.9658610782e-06 
1.8795208637e-06 2.0902932264e-06 5.2665321438e-07 0.0073823442431 0.0014249409609 -2.6887878386e-06 0.0076316901832 0.0011677788354 0.0011550196355 
0.00091151394021 0.0078382938282 0.0094578684294 0.0083073480862 0.0081759947862 0.0089053650406 -3.0668459799e-06 -4.4961991698e-06 6.5430006499e-07 
-0.00020822937655 1.9490598873e-06 2.0725008088e-07 0.0014245921461 0.00094288898768 0.0016687437634 0.00098773087086 0.014713024562 -0.00017131311263 
0.0079031884849 0.0074784220796 0.0087672565188 0.0099664520963 0.011646154592 0.0020761132609 0.0069169196022 0.0081277378562 -2.1663360502e-06 
0.00010633030456 0.0044182026643 0.004915747893 0.0036749341698 0.0023853971594 0.0090561561969 0.0095837461306 6.6260151929e-06 0.0026024925054 
0.00089163977327 0.00055491023277 0.0005692181367 0.0026024040945 5.6553145059e-06 -9.4983774055e-06 5.2895022733e-06 8.6333938363e-07 0.0038607642513 
0.004689537936 0.0034876931967 0.0044001167707 0.0017631462884 -5.2045825222e-06 -2.2382448568e-06 -4.8645309763e-06 7.5507284064e-06 0.0014291432196 
0.054518049722 0.05409114515 -4.4835812138e-06 4.1667888006e-06 -3.0259802486e-05 7.8678279164e-06 -1.5436405446e-05 0.00057489928386 0.00079782575229 
-1.0813360434e-06 -1.0374023848e-05 1.3373270359e-06 -1.704166157e-06 1.9849354564e-06 -7.0653840758e-07 6.9689989122e-06 -2.7476159047e-06 0.0032972537591 
0.012420353839 0.00083746605561 0.015343316245 0.022216675212 0.025517933638 0.029308447174 0.0023736868962 0.0026749542578 0.0040275684898 
0.0071258756908 0.0001467411101 0.00026002489897 0.00027971038245 6.4406526825e-05 -0.00021257768815 0.00041579981232 0.002405203648 8.8540664019e-05 
0.00019289391026 0.025850737744 0.033674993452 0.00084561532733 0.0034106497755 0.0040319859224 0.0021554025416 0.0012589560765 0.0018820354057 
0.013924646966 0.087243485684 0.086888179681 0.0056058842117 0.0030393722322 0.0040212088122 0.06726178173 0.089694016587 0.083035398163 
0.0211760569 0.019325040121 0.080452219711 0.072603704191 0.039558582646 0.022807427465 0.01926114092 0.018284154743 0.0066281514208 
0.020001797557 0.062870433963 -3.7693391381e-06 -4.9039520411e-06 3.8792765304e-06 0.012319528903 0.0097910694695 0.02747860029 0.022030154961 
0.0048536490488 0.010687091658 8.2330505793e-06 0.0009608234191 -5.293684122e-05 8.2897776798e-05 3.4707717925e-05 -9.6480614959e-05 5.1897417261e-05 
-0.0014393213158 0.020789621683 0.016518426433 0.020296277204 -1.6692463439e-05 0.0048007501264 0.0013084420561 0.0012116473701 0.0010833666869 
0.0012134427025 6.6407821291e-06 2.4081082485e-05 2.3578166036e-05 0.013071787546 0.11005002948 3.5618682043e-06 0.0080550681423 0.010806789982 
-1.7640524906e-06 6.4282043465e-06 -1.5239532546e-06 0.0048084933589 0.0054665376127 0.0036750934955 0.0053690341419 0.0064962219154 0.0013893418768 
0.0096485555281 0.0046779166295 2.0195846874e-07 0.00026842163443 6.3630194914e-05 0.0033557874063 0.0099767331378 8.7456084705e-05 0.019458342605 
0.071696243438 0.06513345634 0.063090404633 0.010705266994 0.074718682902 0.080005733811 0.0040295198916 0.00023886486458 1.2394528957e-06 
7.0715902589e-06 7.657259675e-06 0.0060334912111 0.0011370398068 0.00020921104982 0.00012036792547 0.070642500219 0.078639605748 0.012718133504 
0.015836996667 0.083915214321 0.0069259379007 -6.5393635674e-05 8.5993803412e-05 -2.9335995279e-06 4.7443371993e-05 0.0015334051684 0.023498841926 
0.015519040244 0.0060862325746 0.0032475834789 0.00047392842122 0.00027068308115 0.00035457490045 1.2797096887e-06 8.9403860278e-06 -1.1827844906e-05 
0.10683269504 -7.7702927926e-06 1.3646606257e-06 -6.0966429313e-06 -6.379800485e-06 -4.3527418537e-06 -2.4555922692e-06 0.018178755345 0.0051721594699 
0.0049082439284 0.084110166826 0.069632304539 0.062381593763 0.013274321621 0.076566733294 0.062661048328 4.5300060446e-06 0.00027759183021 
8.1184694349e-06 -9.8070438484e-07 -3.987835401e-06 0.010165402549 0.012404844723 0.0083327752391 0.032710218572 0.027768757885 0.01372402973 
0.01831647939 0.0048247675861 0.062665158983 0.043208943681 0.043704234174 0.037471547794 0.037880947752 0.0058617926971 0.008748844905 
0.0051591434542 0.0033049290322 0.0091481761895 0.0097521745604 0.01220954009 0.011453730053 0.011342555917 1.5042405653e-06 5.9654577905e-06 
4.4503088882e-06 0.016364498134 0.015119244962 4.1363890248e-06 -4.7379046377e-06 -2.9770613532e-07 5.332164271e-05 6.9093367769e-06 3.2860253736e-06 
4.3204572262e-05 0.0020961226637 0.0020009670654 -8.2671571844e-06 1.295765606e-06 5.2893343769e-06 0.016655581649 5.4459320405e-07 -3.2841257128e-06 
2.9295476799e-06 2.9344650229e-06 8.0580272639e-07 8.1142571126e-06 1.059181428e-05 0.001928951881 0.0011393740486 0.00013217705397 -4.5218112891e-07 
3.2841212121e-06 -2.0748060323e-05 0.010449870246 0.0053067099999 0.0043008282714 0.0033037842715 8.3094273604e-06 0.071765544784 0.065238307281 
0.089078000632 0.082437045562 0.081776860227 -7.0506375136e-05 0.011956666527 0.01507531507 0.070019047103 0.076922081697 0.076493911294 
0.083753014555 -0.00011273315672 -3.044873226e-05 6.0632517119e-07 0.046234694835 0.04046356125 0.03710271491 0.0037137957885 0.10734492037 
0.10978188151 2.2725741065e-06 -8.3764714807e-06 1.6182916538e-05 1.3843731544e-06 0.040580649496 0.029694997638 0.03163447146 0.044496259631 
-9.4861567143e-06 4.2025574377e-06 0.00079572222059 0.0029890182519 -5.191802479e-05 5.1834604369e-05 0.00041484880654 0.046402263222 0.020330593249 
0.024631326373 0.019359847367 0.023307309173 0.00025589447765 0.00017812308827 0.027224312122 0.099966774982 0.014378929707 0.00034632225631 
0.00026985926162 0.08802813021 0.089218493929 0.019046268044 0.00040436969165 0.015360338583 0.012174697804 5.0357053636e-08 -4.6167098619e-06 
0.000304778518 0.016559188742 0.014733180391 0.016532505395 0.01091036064 0.010086157997 0.012149688141 0.011513613687 0.011881421051 
0.046679494334 -3.049370304e-06 3.2498572644e-06 0.0014603239823 0.0020674673095 0.0014779157538 -7.0512363899e-05 4.2348458874e-05 0.0090736196508 
0.010740364971 0.0089303765853 0.0096193632488 0.010111231359 0.016807476312 0.013711490481 0.015173797165 0.013039295153 0.0084288247957 
0.0078439600337 0.013212584871 0.012137875296 0.013518831601 0.012128486739 0.012871470007 0.012474288069 0.011168026138 0.013081735481 
0.012451130862 0.10288571246 0.027368296784 3.8090486603e-06 0.0061236776195 0.0195796997 0.023473428132 -7.6638636783e-06 4.263853225e-06 
-2.0353888257e-07 7.7029500624e-06 0.0039372637033 0.075844378082 0.012867881549 7.5322010961e-06 0.0013439624998 0.00018468246032 0.00026728572886 
-1.8482068081e-05 0.0080243403371 -3.1954544149e-06 0.0015848191613 0.00084646722429 0.058107143344 0.015119296049 0.013973773645 0.015236732248 
0.014243648989 0.00015390755372 0.0089671424392 0.055082442103 0.055549116155 0.013119494485 0.015513360783 0.010303216033 0.068492259477 
0.054250035302 0.060930011587 0.048165221029 -2.4781016263e-06 -3.3530893001e-06 0.0036838951145 -0.00015863640704 6.7378096522e-06 -1.2238062687e-05 
6.2650143959e-05 1.0956549316e-05 4.6284223981e-07 0.0010480250194 0.00021413082426 0.00074580777072 0.00025115825137 0.01214751927 0.00013755284382 
0.028189620418 0.00095454450822 0.0012710607758 0.010651647629 0.0092273384363 0.010882420314 0.0050364684369 -9.6385581179e-06 1.2522835956e-05 
-1.1373567664e-06 0.0072094886897 0.006034316579 0.012493547931 0.025606646334 6.8085097601e-06 0.0017316663399 0.0022531082989 0.0019180085296 
0.0070350808156 0.0202382914 7.8546950593e-06 6.5164294971e-06 2.0173934645e-06 -2.2572854982e-06 5.0648070018e-07 -2.4939164466e-06 5.6963130805e-06 
0.01870433417 0.022513851954 0.023184053453 0.00026020296048 0.0081556731851 0.014604649109 0.018051937129 0.015045775675 0.010869642513 
-4.8041097503e-06 0.0011426936955 0.0084541151422 0.0084512637964 0.0096046742956 0.01279056523 0.012008359527 0.011647098476 0.0116459873 
0.026679360009 0.0007532236448 7.7842723958e-05 0.020527902016 0.010760639442 0.012825060369 0.02151923415 0.0052130022128 0.025898531893 
0.0025861794005 0.0031147946036 0.0034607150573 0.0021365354959 0.012602305549 0.015805695193 0.015742799881 0.034297536227 0.025668533275 
0.0053012447307 0.0049768043899 0.0060196585634 0.0064293405436 -0.00013679789245 0.087933810487 0.03366459919 6.7256504519e-06 0.0077608568578 
0.0089776919516 -3.0775224091e-07 0.00066579244531 0.00082247602719 0.00051415221009 0.0070349148766 0.02057129942 0.041704571275 0.041786293042 
0.030556770225 6.6125700926e-05 0.0069885399014 0.093248174667 0.098118899075 0.028136226247 8.0826323217e-07 0.00096474109379 0.041829048875 
0.044623751379 0.033155023072 0.01748145092 0.029738737274 0.028440318654 0.075876436755 0.074804328309 6.7027881272e-05 -0.00050573267687 
-0.00084339251876 0.0004414744115 3.042218487e-07 -4.9929092387e-06 0.081650354405 0.00063668399009 0.021775154773 0.0026523226716 1.2013168862e-06 
2.4657100699e-06 0.0022372769487 0.0026567359485 0.00027717426628 0.026273674583 0.0001659309809 0.01878003675 3.0698923596e-05 3.0453124026e-05 
-0.00010794393566 0.00027711023674 0.031729349744 0.0003839681828 0.00019212632222 4.9393406147e-05 2.9713775734e-05 0.019171278517 0.0003708074394 
0.022665015302 0.015240633906 0.027270444459 -7.7735720123e-06 -4.5620990005e-06 3.9201302962e-06 -3.4152838642e-06 -7.1388024351e-07 1.0470735088e-05 
-6.5652936546e-06 -7.4730841101e-07 -0.0011254139049 -7.5255921118e-06 6.6540505249e-05 -5.5687630547e-06 3.5203427005e-06 -9.7454211629e-06 -4.6028326794e-06 
-2.7657365024e-06 -6.1470596833e-06 1.3452116894e-07 2.8909507124e-07 0.027120993406 0.022429329683 0.025993621566 -0.00033061942677 0.00041300497884 
0.00019899767124 0.00049628259642 0.00027285974309 -9.9105028881e-06 7.0112491107e-06 0.019844122378 0.00115611912 0.00029276260298 0.0017492783021 
0.0021913118431 -0.00027690199456 -8.7677192558e-05 0.00022758077715 0.0010635441157 6.6393982017e-06 1.0576749234e-06 6.2509116691e-06 -5.7926934553e-06 
-3.3399039945e-06 0.00061723560954 0.0017380818767 1.6140576129e-05 3.3141392973e-05 0.044501290359 0.00025424569085 0.041155385802 0.011492238521 
0.010580855052 0.011636965068 0.011005942809 0.113325499 0.11353883778 0.1136643792 0.014310436744 -1.1284959396e-05 1.158230504e-06 
6.8695602499e-06 0.032901315768 3.9340723139e-05 0.051744282776 0.057162342592 0.005602633226 -5.8505420122e-06 -1.5193228706e-06 0.023296691829 
0.040259747877 0.0065237159329 0.006622739586 6.7786791668e-06 0.0058389709038 0.0070527079058 -1.8275450855e-06 0.004961487527 0.0057701568131 
0.0057747548648 0.0035760080546 0.11209673148 0.049027541152 2.1979916562e-07 0.038112849162 0.030530025631 0.019915515268 0.018129970031 
7.3999994205e-06 5.5836749726e-05 0.10013997249 0.00045414779446 0.011268581349 0.010742000306 0.0093051080044 0.011593617865 9.6514190816e-06 
0.090802763784 0.026223087762 0.025039073433 0.0032185269876 -7.7201267794e-06 -1.3144508987e-06 0.002254989945 0.00012440263572 0.00087607926952 
0.0036888397722 0.0029521731826 0.088937317512 0.0068767690515 0.010013525229 0.11251590181 0.089278420447 5.8141750609e-06 0.083130855479 
0.076946182894 0.028721829803 0.025008376543 -6.6766031798e-07 0.00014554629795 -1.630210822e-05 2.0684729796e-07 2.152033432e-06 -1.32574786e-05 
9.7252690913e-07 0.0051076595796 -6.6833476987e-06 0.10199563264 0.1023548077 0.079515493935 0.019356034504 0.001007222253 0.00082252694789 
0.028643441612 0.034185628486 0.008386884922 0.0002922814426 0.005043668753 -8.5123326067e-07 -7.2921352133e-06 0.029606093406 0.0055081723848 
0.014178859972 2.8449053003e-06 8.6548822422e-07 -9.2676114873e-06 0.0094384814847 -8.98901218e-06 -4.3363937883e-07 4.2292306589e-05 0.11390043657 
0.11355251969 0.11223007203 3.5717251764e-07 -6.0123352479e-06 0.10333718892 0.016960490776 0.015459101057 0.020154731862 0.088379816069 
0.01673653325 0.0042887502356 0.0015531861292 0.018324579606 0.015634582871 0.014451609312 0.017414389309 0.0022564508106 0.019281464217 
0.010165040686 -8.6876118752e-05 8.1615835253e-06 0.0028664618209 0.0025446615889 0.0024569595616 0.0031034624699 0.0037776193988 0.10091878539 
0.0010754141202 -5.6434594139e-05 0.011312671286 0.0043086025457 0.0194905889 0.012225787893 6.6350605757e-06 9.3453563915e-06 0.010832855835 
0.056838676381 0.00079671555214 8.2217624055e-06 0.064581535693 0.051960119858 8.1385930512e-06 -2.5538235518e-06 0.0015369396752 0.082267507885 
0.088112686943 0.012892237627 0.013665929843 -3.9803184775e-06 -1.1942784188e-05 1.3835218165e-05 0.012900629951 0.012257965714 0.0039044534492 
0.00018641871379 8.6630278632e-07 -1.1596913502e-05 -2.699109675e-05 0.00025633668733 -1.3787663233e-05 5.5146991738e-05 0.067317459045 0.075264044037 
7.7603593748e-07 3.6803535217e-06 -2.4662583702e-08 2.1955163182e-06 0.00014805174512 0.0026947239999 0.0019878594878 1.6642638549e-06 2.0993914679e-06 
0.0114218357 0.01074246884 -1.5069471416e-05 0.009944671303 0.0099578447182 0.0073830866863 0.015613084467 0.034571689322 0.074524435022 
0.00011140771566 0.0002020274747 0.03196681875 4.9103121545e-05 0.011543332279 0.00012191421947 1.3274146996e-05 1.7472043962e-05 -4.0185826945e-05 
0.0026853800732 0.0027220679186 0.0018040969112 5.1619017026e-06 0.0014932784801 0.02400970635 0.025242783498 0.0004449258127 0.00047641522519 
0.0057440355233 0.007861376974 -4.4826377011e-06 1.1688761606e-06 5.3280600087e-06 0.0023387356882 0.0029060422638 8.694475346e-07 7.0553511272e-06 
0.0060545095064 0.0034496990448 0.0017200509242 2.4655233461e-08 8.2286247824e-05 0.0019543041574 0.0013341629161 0.0012360103 -1.0004252814e-05 
2.1672329402e-06 2.9320996125e-06 -2.4967154067e-06 0.0031705155901 0.037851663916 -3.3230653364e-06 0.0011823495418 0.00015450418537 0.0061905708855 
0.015199052671 0.0052845216738 1.1139690482e-05 0.0023733544366 -0.00014303133147 -4.5997526051e-06 2.1164532025e-05 2.7393069897e-05 9.473916426e-05 
0.00047798165404 0.00022386564883 3.4445204543e-05 0.082700103286 -4.3019810308e-06 -3.8642731364e-06 0.025721647539 0.10057352202 0.088028128106 
0.088136123799 0.025143270834 0.020831515315 0.029429365324 0.0078954213209 0.032977136836 0.034770064404 0.027024586392 0.034992065301 
5.2959484711e-05 6.6905533716e-05 0.00088670815814 0.035550552329 0.054427562108 0.00013862440219 0.0001676176972 0.055093088835 0.058411451603 
0.064060250489 -3.6491489401e-06 0.072492187289 0.0028613536717 0.00052983039084 0.033061919817 0.031348817924 0.035373988313 0.0072939944405 
0.0097019098403 5.4872714431e-05 1.1356513427e-05 0.1127294738 -6.3115302999e-06 0.0093563116754 7.9202225746e-07 0.031191485451 1.4904176676e-05 
0.011491657571 0.0088055426573 0.009731842437 0.003909482431 0.0012742742082 0.0013192224112 0.0021154205522 0.0024129412547 -1.9819303337e-06 
2.4085224434e-06 0.0036421374463 1.2953529534e-06 0.00016890870376 0.0020190778786 0.0013579424377 0.020640429515 0.067156665455 0.054577601561 
0.017087494706 0.044693337555 0.0062020957897 0.00023284795396 0.010341035702 0.070608241855 0.0015992199393 0.0098224991792 0.0060600480865 
0.0066557789593 0.021189507711 0.0060440275836 -9.7236102103e-07 1.3029043435e-05 7.4527225013e-06 0.0028685710966 0.0059320622132 0.0054788197904 
0.017508664802 0.050082399823 0.0083405082854 -0.00034717468051 0.0059910764681 0.002608069372 0.0034143697532 0.0041889354498 -9.2719545927e-06 
0.0072138741069 0.0065627203828 0.00068459391615 0.0070120223391 7.6800446402e-06 -3.7660363412e-06 8.6252365067e-07 0.011472097379 0.012614615247 
0.047907509314 0.04824281407 0.030900479742 0.0094106714856 -3.9536843838e-06 3.3621164055e-06 0.0027390473139 0.10323137637 0.033066959333 
0.001294048036 0.028715210141 0.006940786932 0.0064027473746 -6.1459667116e-05 0.060582984723 -2.117760743e-06 -7.3950780581e-06 0.029806141139 
0.0004193488598 0.0057004190869 0.022297990356 0.0051748352698 0.032994700232 0.00080705232675 0.021485447328 0.025283660599 0.016777630953 
0.018226655262 0.021569001978 0.022933019574 0.019499112874 0.020027616743 0.014504947833 0.0022684225657 0.0015568375335 -0.00010652834241 
0.00016034952548 8.6911797946e-06 0.01033053028 0.036849783814 1.437972191e-05 4.5027922091e-06 8.4641226908e-06 -1.2106395809e-05 0.0020452514043 
7.7159382604e-06 -0.015229823488 -2.3906505987e-06 0.011170776667 0.0034912709234 -9.2224867166e-07 0.04180302795 0.0052174457237 -2.241111116e-06 
-5.9305350378e-06 1.0041009542e-05 -0.00037061563874 6.8752996848e-05 0.0020422301181 3.5396988527e-06 0.056789528805 8.0730275976e-06 -7.6918429863e-06 
1.7690300804e-06 0.014028018477 0.070617110727 0.040650260694 0.05258360541 0.015080634086 0.014080893781 -5.0545931243e-05 -1.1898599589e-05 
0.00041167944882 0.0070282367147 0.0019407169981 0.0042916548886 -7.4654723709e-06 0.0029616171315 0.0012279816264 0.059094895897 0.067200460168 
0.034096170905 0.03731839219 0.028847993403 0.087111894249 -3.3689451824e-06 0.014279117041 0.045368100536 0.0033873775745 0.0094517719733 
0.0027942514987 0.012657784387 0.016293306781 0.05319038275 0.094688943665 0.04617932629 0.00026065937936 0.012825157759 0.0018829844172 
0.0026306203114 1.0239413138e-05 0.0099771162506 0.015945986715 0.016683763079 0.022551293903 5.3647611364e-06 0.055532582759 -5.0005990843e-06 
0.018363993177 0.023647812558 0.014304447281 0.073648780139 0.031727333062 5.0373382223e-06 3.6541858282e-06 -7.7997645388e-07 -8.3043905822e-07 
0.04248340341 0.010463132186 0.016487194277 0.0021070763221 0.0023851471144 0.0017538992735 0.00085203876599 0.013043500658 -1.9041933717e-05 
6.2955463642e-07 0.0011650963754 0.0016205404978 -5.8075587339e-06 -9.5511282451e-07 0.00018250305026 -1.0778191668e-06 2.6019214158e-05 0.071176149471 
0.10227390155 0.11314085567 0.0058616859679 0.0013842528789 0.032397658116 -9.2835275369e-05 0.00079244080397 0.00067397969229 -1.6645869646e-05 
0.001277245567 0.00048297290689 -4.7723735521e-06 -3.2869384001e-06 2.6094595479e-06 -6.8234212049e-06 0.00010044410538 0.028040092877 0.02361148972 
0.0026277999542 0.0090627657764 4.8888345491e-06 -2.161709109e-05 0.053559352605 -2.3691745682e-06 0.059576985081 -7.3143315938e-06 0.11846597148 
0.088805631289 0.091099080121 -3.5191457704e-06 0.01463375123 0.0015414193603 9.3540097851e-05 0.001169313939 0.0017867751873 -7.7917305575e-05 
0.00013697610519 0.081833061559 0.11516900395 0.023530767342 0.010894363214 0.089056094265 0.056392499381 -7.2022785283e-06 -1.0468067478e-06 
-1.1742596152e-05 0.080066752761 0.00026935084828 0.097852894834 0.055578827507 0.013432540597 0.074255868379 0.054639726399 0.052096815535 
7.463954444e-07 0.0093337902219 0.014136401486 1.9293702578e-05 -8.9977842402e-06 0.034438766755 6.1503181585e-06 -1.3267398959e-05 1.4001959301e-06 
0.00070457327027 0.0051867175309 0.047071670484 0.012534170034 0.022027648733 0.0015675140798 0.0053792772476 0.018365883833 -4.6710252656e-07 
-3.1245303238e-06 0.047811469886 0.0074024544102 2.3430710657e-06 6.967287986e-06 0.0043265512361 0.0070309971941 0.045737261549 3.6211066983e-06 
0.021057819263 0.0075434024133 0.019268846106 0.032575219144 0.010908554975 -6.5783383509e-06 0.0053746066409 5.8489490702e-06 0.0035682828341 
0.00085877636962 0.018541136282 7.2444225699e-05 0.0013953065304 -2.7483210415e-06 0.022557214105 0.029436854796 0.0080644452267 0.077720181909 
0.10034105619 -3.9487593563e-06 0.00026301337139 0.019116413061 0.0036700659454 -0.00053439078808 0.0045567549779 0.0010107766584 3.3151845654e-06 
0.0043640076796 0.0092877454414 0.014793247682 1.0904566405e-06 2.5971009566e-06 2.3440026721e-06 0.0068843227624 0.0078419350308 0.0076233238192 
-7.9496858279e-06 0.021521269822 0.034845017325 0.0046469510589 1.1587660845e-05 -0.06454874123 -0.080822346148 
Minor%20Principal%20Stress 1 12526 double
0.38797168866 0.32277048566 0.34327935584 0.43775267615 -1.5526005556e-05 -3.432237378e-06 -1.3925479696e-05 -4.1849268191e-06 -0.12053259252 
-0.11224430417 -0.03961252124 -0.10806018344 -0.13067894916 -0.10446181358 -0.041590175364 -0.10601667457 0.13666624169 0.11829638861 
0.12873524138 0.11204760948 0.1397650612 0.14755321198 0.14642963543 0.1456718143 0.14539620135 0.14304625471 0.14459847103 
0.14471795482 0.14476974865 0.14394252968 0.14491835946 0.14368824609 0.14328902186 0.1435703224 0.14119707592 0.14112522628 
0.14067015221 0.14030362525 0.14120754231 0.14064039224 0.14025827774 0.14027421564 0.1257291287 0.13030967054 0.1431992125 
0.1518781656 0.13991614297 0.13713598932 0.13930747705 0.14126213199 0.14341504103 0.14193921848 0.14149039643 0.14484237776 
0.1450836532 0.14415362368 0.14670770425 0.14489425911 0.1447246478 0.14387437936 0.14308767086 0.14013603817 0.14181756079 
0.1383811717 0.13738529067 0.13697203638 0.13659821607 0.13233354529 0.14055211745 3.2759681761e-06 -1.3174593419e-05 -0.00048944358812 
-0.001224226141 -0.0020743828606 -0.0030195137602 -0.0040567709626 -0.0050723623613 -0.0059956580375 -0.0067835084168 -0.0074249336782 -0.0080049715538 
-0.008276500674 -0.0083925011932 -0.0082829810874 -0.0079725610525 -0.0074443911018 -0.0067902828182 -0.0059389710542 -0.004865383513 -0.0038842291383 
-0.0028252773023 -0.0018694441673 -0.0010119051784 -0.0003675224106 7.1086831023e-06 6.8151202417e-06 -0.090172056891 -0.0027192114515 -0.0010929061551 
-0.00062138016074 -0.00036486868332 -0.00023501858647 -0.00016189368774 -0.0001028063552 -7.1686267687e-05 -5.6463611833e-05 -4.762263083e-05 -4.8101216799e-05 
-5.7480673602e-05 -7.3827362837e-05 -9.545409213e-05 -0.00011996089123 -0.00012906724598 -0.00011745478264 -6.1422133154e-05 -2.2332203036e-05 -3.2401104371e-05 
-7.0056987096e-06 1.1450323125e-05 2.3373452166e-05 1.3211077033e-05 -3.6391123264e-05 -8.8346386387e-05 -0.00012555026839 -0.00011222558269 -9.2039288023e-05 
-6.7833051314e-05 -5.3290126585e-05 -3.1800032068e-05 -2.1690580652e-05 -1.205864e-05 -4.0086056535e-06 -3.0318798798e-06 -2.9740629321e-06 -3.522636669e-06 
-4.260586645e-06 -4.1341324096e-06 -2.1297649727e-06 4.8744226369e-07 1.9614714784e-06 3.1064534038e-06 1.193622521e-06 3.9248252939e-06 1.1774964537e-06 
-1.1310242984e-07 -1.2082958599e-06 -2.6273745146e-06 -3.0682950785e-06 -4.2305805786e-06 -6.2489822013e-06 -8.093691336e-06 -1.385172778e-05 -1.8515972859e-05 
-2.0759881043e-05 -4.5819759626e-05 -6.756972403e-05 -9.9631736239e-05 -0.0001026730381 -9.4688487633e-05 -4.8547882145e-05 -6.8384975672e-05 1.7418830558e-05 
5.3466890374e-05 -2.1588001671e-05 1.9849046425e-05 1.2062949687e-05 -5.2198112029e-05 -6.9547624728e-05 -8.908402106e-05 -9.1154542256e-05 -4.0883542652e-05 
-8.0080056097e-05 -5.873937364e-05 -3.7168443759e-05 -4.3722538403e-05 -4.1092350158e-05 -5.6160987765e-05 -8.8545266348e-05 -9.5817291295e-05 -5.5374262338e-05 
-0.00030822781704 -0.00040524562895 -0.00082285033964 -0.0022726426071 -0.003600478221 -0.04521590054 -0.15539201662 -0.15124523025 -0.1174771083 
-0.094299624276 -0.1446848822 -0.15040660277 -0.18569594665 -0.19584056989 -0.25605494959 -0.24275092343 -0.22415936796 -0.22929364877 
-0.15367267049 -0.14665007863 -0.11429602206 -0.09604957392 -0.13207571831 -0.14075546536 -0.23376000489 -0.24646381933 -0.25617391008 
-0.2480575771 -0.24459688112 -0.21659920473 -0.19225917998 -0.17703615429 1.3501445621e-05 -1.5959339361e-06 -0.00038894956332 -0.0010304604567 
-0.0018714925655 -0.0027983368432 -0.0038532679153 -0.0048461070136 -0.0057810047755 -0.006741070812 -0.0074725615073 -0.0079358300796 -0.0082407412292 
-0.0083378211605 -0.0082128525605 -0.0078936141699 -0.0073749319732 -0.0066853375493 -0.0058581319885 -0.0048909923004 -0.003909811619 -0.0028767231447 
-0.0019453229035 -0.0010725749729 -0.00042779027903 3.9003992308e-06 -5.9823355797e-06 -0.1920293391 -0.0077648458361 -0.0018430222615 -0.001011367747 
-0.00056768879692 -0.00030711567281 -0.00020059602604 -0.00013332616669 -8.0775608284e-05 -4.9596458378e-05 -4.2171302722e-05 -3.7019644263e-05 -3.2449783904e-05 
-4.2961449577e-05 -5.7254475605e-05 -8.4581772264e-05 -0.00010197068117 -0.00011434540626 -8.5470354787e-05 -1.7655862753e-05 1.1319354889e-05 1.3467535479e-05 
4.6311455181e-06 5.1297654826e-06 -1.4354661892e-05 -1.6187394423e-05 -6.4136661545e-05 -0.00012953035387 -0.00012594215652 -0.00012011327022 -8.9802135307e-05 
-6.0794748233e-05 -4.431585003e-05 -2.6762152447e-05 -1.2154584202e-05 -3.5281490466e-06 1.6690443425e-06 2.3981991608e-06 3.4815135892e-06 3.9182884219e-06 
3.3408680756e-06 3.2527221114e-06 1.8516577519e-06 -6.9018757512e-08 -1.9416547634e-06 -5.9409440739e-06 4.2868500291e-06 2.0588697004e-06 3.0194800491e-06 
3.0645265945e-06 4.5891269712e-06 5.3112054758e-06 2.6752455621e-06 -1.8788511616e-06 -1.6403488721e-05 -1.0463585231e-05 -2.7884602432e-05 -3.5109105528e-05 
-5.6084339824e-05 -7.645649752e-05 -0.00010607884865 -3.2365096342e-05 -0.00011521754223 -8.8662986062e-05 -3.9563847205e-05 3.3426346401e-05 2.010152551e-05 
1.4211072968e-06 6.5437922363e-05 -5.9335406741e-05 -8.5471266772e-05 -9.7503293962e-05 -0.00010040115386 -9.1183663487e-05 -6.1605833786e-05 -4.9310852993e-05 
-3.9494118251e-05 -3.3981008595e-05 -3.0845388778e-05 -4.8903519426e-05 -2.0143069984e-05 -4.0890411404e-05 -0.0001493878788 -0.00022526530917 -0.00022615163734 
-0.00034499155591 -0.00060240384948 -0.0013696062803 -0.0031916317677 -0.13907888022 -0.12476093684 -0.22894918814 -0.22383919338 -0.24336284976 
-0.25516615626 -0.26044510331 -0.26348455546 -0.15239541353 -0.14471744976 -0.13543279248 -0.11858486226 -0.14908160147 -0.13248322175 
-0.17159095245 -0.24179055843 -0.27036202724 -0.23620285558 -0.24749690628 -0.25390987049 -0.14968971647 -0.1473892842 -0.14097070302 
-0.13127420152 -0.1185150303 -0.13811306649 -0.11608362385 -0.00017590408224 -0.00050701228489 -0.0010484307417 -0.0016793046361 -0.0024122289425 
-0.0031795708145 -0.0040033480212 -0.0047442671322 -0.0054391345964 -0.0060228456948 -0.006473942355 -0.0067999719146 -0.0069786400896 -0.0069832602718 
-0.0068090881297 -0.0064602154996 -0.0060227840823 -0.0054294642872 -0.0047063426039 -0.003922342511 -0.0030867780215 -0.0023014363525 -0.0015901203252 
-0.00097904876849 -0.00053493316693 -0.00021874763215 -5.264442425e-05 -0.0046386003017 0.00026233096185 5.5175068519e-05 3.8951196881e-05 1.3078972431e-05 
-5.7911735359e-07 1.1070621576e-05 9.9018362754e-06 1.2401352804e-05 1.4102053912e-07 7.3576105807e-06 1.1025840941e-05 6.9720928384e-06 8.311341273e-06 
5.6388257047e-06 8.5480016439e-06 1.3313779156e-05 9.1072853374e-07 -1.6769449762e-05 -0.00060339018617 -0.0010630816744 -0.0014882017801 -0.0014173430181 
-0.00086013504604 -0.00021971916529 3.7606457195e-06 -1.7590315789e-05 3.0444910488e-06 3.4474328285e-06 4.5650859699e-06 3.353190367e-06 2.0236055175e-06 
3.3422203662e-06 2.8803903323e-06 2.0508496317e-06 -1.5054141024e-05 -3.3670210597e-05 -4.6764271123e-05 -5.6639769463e-05 -6.4751657669e-05 -8.1636450565e-05 
-9.5637958235e-05 -0.00010580886859 -9.5018467444e-05 -6.927540566e-05 -6.681018098e-05 -6.2424091685e-05 -5.5192381581e-05 -4.7527035243e-05 -3.9799184328e-05 
-2.5636424183e-05 -6.3159018943e-06 7.8261482266e-07 6.8321581587e-06 -1.0178104612e-06 1.0238987149e-05 7.4432980435e-06 6.8292358513e-06 -7.6607467594e-06 
2.2086311486e-05 3.0660140979e-05 2.2435459873e-05 -0.00039995125593 -0.0010988484038 -0.001457018396 -0.0012948530203 -0.00089065035546 -0.00033997690312 
3.7372554811e-05 5.8928061901e-06 1.2947142252e-05 -1.8058520217e-06 3.7316480578e-05 4.1002037501e-06 1.4717384992e-05 4.9046036269e-07 5.2755362167e-06 
9.5394234112e-06 -6.2849887749e-06 -2.7654458209e-06 -4.7211589151e-06 3.9284300358e-06 -3.8943531475e-05 -5.9195737555e-05 0.00017291129806 0.00087438673444 
-0.02839908735 -0.063758884397 -0.058250745193 -0.056035836524 -0.053931339231 -0.040371331279 -0.03414135888 -0.034236041291 -0.033575563753 
-0.033121442497 -0.033954128954 -0.03356408906 -0.033436153062 -0.034276928294 -0.034819703158 -0.034231627999 -0.033492590287 -0.033360007965 
-0.032981650973 -0.0335340924 -0.033606258652 -0.033356473241 -0.033660526255 -0.034043988419 -0.035916536252 -0.039638819457 -0.059484970913 
-0.032763427616 -0.03375624434 -0.033037662748 -0.029372471864 -0.029197286803 -0.028821091306 -0.030509443439 -0.030679397706 -0.030375738003 
-0.030292349812 -0.029360370219 -0.044190747292 -0.048652675711 -0.12762864822 -0.010451779545 -0.00671129753 -0.0070921773457 -0.030201153751 
-0.033712245518 -0.034961586288 -0.030423903683 -0.030263279689 -0.031157591463 -0.030721801946 -0.030846132905 -0.030388378274 -0.030772209778 
-0.043062190551 -0.12576399229 -0.0092531087252 -0.0031718416778 -0.0072958558727 -0.018592373835 -0.00055301882741 -0.00083018397908 -0.0013360169389 
-0.0018820767982 -0.0024896353155 -0.0031415024446 -0.003785382539 -0.0043874116544 -0.0048891412116 -0.0052750468012 -0.0055925755639 -0.0057961455474 
-0.005845360091 -0.0057912798938 -0.0055548809248 -0.0052733644881 -0.0048927116933 -0.0043466647251 -0.0037354793618 -0.0030958319778 -0.002448756243 
-0.0018437466582 -0.0013063234029 -0.00085531825405 -0.00047203715302 0.0027336240522 -0.00060759464869 -3.694334894e-05 1.6431267217e-05 8.4182803188e-06 
1.483237942e-05 6.691556309e-06 1.3438371273e-05 2.0672937693e-05 -1.9481214874e-05 1.0434035698e-05 1.0300273186e-05 -8.094367538e-06 -5.8285549293e-06 
-7.9486004727e-06 -1.0717318989e-05 -1.1357167402e-05 -2.5573662721e-05 -3.8162953135e-06 -0.00089189396306 -0.0031813451317 -0.0057537787881 -0.006362782261 
-0.0047320978383 -0.0021228755487 -2.1053861347e-05 -1.7073414721e-05 -2.3641034109e-06 -9.1794244762e-06 -1.4996441036e-06 -3.4118706895e-06 -2.3622668119e-08 
4.1502508545e-06 -5.5295807441e-06 -2.3774288751e-06 -2.5379517951e-06 -8.1191132074e-05 -0.00014793452352 -0.00019634217001 -0.00023656183736 -0.00028522474811 
-0.0003456419798 -0.00039807627971 -0.00040549329363 -0.044668136475 0.0017553087034 -0.00026741707919 -0.00026620493751 -0.00025075664802 -0.00021666241636 
-0.00016872128983 -0.00011423678902 -4.2105567246e-05 1.2137703943e-06 -1.1273013855e-06 -1.6729902735e-06 -8.7804624255e-07 -4.0356821739e-06 -2.2642652614e-06 
1.1114490743e-06 -3.2530114598e-06 -3.1882367433e-06 9.8341744255e-06 -0.00061875485023 -0.0032335771465 -0.0053759307912 -0.0055016874533 -0.0041452663489 
-0.0020468119993 -1.4790170571e-05 -6.6630782355e-05 -3.4303215163e-05 -1.5136686707e-05 7.0884483596e-06 -7.3400984943e-06 -9.7156077183e-06 6.2842277799e-07 
1.1737349059e-05 -1.1740610207e-06 1.4540776714e-05 2.5831939598e-05 -2.8529020773e-05 4.7596883244e-05 -3.7261999821e-05 2.7882984792e-06 5.1910383538e-05 
3.3735255105e-05 -0.0012856406657 -0.0015280999084 0.00196234258 0.0037213178835 0.0022208171606 0.0018170706011 0.0019143269709 0.0019277959591 
0.001987260457 0.0018594810157 0.0020241755614 0.0019971904675 0.0019622694308 0.0017949703776 0.0017559632933 0.0016895141021 0.0017713977165 
0.0017024502615 0.0017120158516 0.0017156553067 0.0020169628062 0.0021197852406 0.002704623077 -0.039795722494 -0.00046947322158 0.0019365486467 
0.0016459007767 0.0015302156476 0.0014645090929 0.0018597386134 0.0023166269412 0.0021934174546 0.0022296967088 0.0018685862518 -0.00040171941689 
-0.0010661287026 -0.042676014901 -0.00084138058921 -0.05246744915 0.00023781300722 0.0023525650548 0.0030235451552 0.0032040137374 0.0022436840697 
0.0025653318368 0.0020641743067 0.002052991686 0.0018179673309 0.0017966181905 0.0020247509115 0.00040492811555 0.00039902535665 0.00077094201118 
-0.0020505345916 -0.00019141036199 -0.017083930616 3.6704415336e-05 0.00010708073485 -0.010727763485 6.7585982654e-05 -0.0013666667709 -0.0018932397067 
-0.002429713245 -0.0029705500452 -0.0034532851979 -0.0039233307893 -0.0043059006004 -0.0045719201834 -0.0047811080825 -0.004856255444 -0.0048062148882 
-0.0046845938054 -0.004516900596 -0.004263630098 -0.0039043771107 -0.0034545649158 -0.0029469606094 -0.0024169277701 -0.0018915479863 -0.0014029808972 
-0.00095307630791 7.6443585736e-06 0.00014494464616 -5.0716007872e-05 -4.1854249963e-05 2.9135684284e-05 -1.9853771299e-05 1.4686366709e-05 -2.3211743847e-05 
-6.8060159808e-06 -9.2801152377e-06 5.4548992471e-06 -5.2620764082e-06 -3.8174911546e-06 -2.3491612434e-06 -1.5563330489e-06 1.9461136624e-06 1.4985771445e-05 
-1.2187142012e-05 -9.2685220238e-06 -0.0035575747374 -0.0095120243336 -0.015126776781 -0.01426396139 -0.0072076968915 -0.0014191421338 1.5585710659e-05 
7.0406661562e-06 2.952806661e-06 -5.5485132901e-06 -4.9332440158e-06 9.8047839137e-07 -4.3350427999e-06 -1.6240975855e-06 3.2907231227e-08 4.6034273953e-07 
-4.9727029998e-05 -0.00022647675249 -0.00035513813299 -0.00045701438349 -0.0005431107807 -0.00066210185213 -0.00079737278418 -0.00084224179367 -4.309212767e-05 
0.00010783548701 4.9543523706e-05 -0.0005664443901 -0.00050887597789 -0.00041058305057 -0.00029084110784 -0.00014642218825 2.1626877853e-07 7.0244088603e-07 
-2.3461415386e-07 3.9589557997e-07 -2.6863642204e-07 7.8664475001e-08 1.5623819164e-06 -2.5105994151e-06 -3.8788131138e-05 2.1627493388e-05 -3.6305407e-05 
-0.0039164631263 -0.010375693069 -0.013168675541 -0.010031481518 -0.0064550249607 -0.00021983093419 1.9266049245e-07 8.6450917783e-06 -1.126532789e-05 
-1.2332173343e-06 9.3141147282e-06 1.0006200793e-05 1.4717445235e-05 -4.3918438751e-06 -2.80058816e-06 7.369606265e-07 2.9667864208e-06 6.9749383039e-06 
-5.4319577444e-06 -8.3907729022e-05 5.4666449153e-05 0.0001154598279 -1.2860111498e-05 0.00035624909248 -0.01902996184 0.00021799213273 0.00016887906266 
9.3692068636e-06 8.3259786983e-06 4.536496821e-05 8.6061267896e-05 5.4647736857e-05 8.3361017276e-05 9.137101791e-05 6.9385131151e-05 5.8302151573e-05 
7.2870764205e-05 8.4097644586e-05 6.9655842888e-05 0.00010325549532 0.00010731813634 0.00011825320435 0.00011517089943 0.00016729961749 0.00017733986499 
0.0001878291231 6.5059422022e-05 -3.3052377818e-06 -2.4321966607e-05 -1.0466439109e-05 3.0721772446e-05 8.1181532442e-05 0.0003061094616 0.00012522992971 
2.5578952837e-05 -0.021505324535 4.3760570161e-05 2.0822098829e-05 -0.011862542273 0.00011618101061 -4.4628377004e-05 -5.0855590692e-05 -2.5532068697e-05 
1.5408093987e-05 6.4315656761e-05 9.0810492352e-05 0.00010179662341 0.00014515848371 -0.030083257028 -0.012609323732 -0.00058409279592 7.9585367985e-05 
-0.0016410081395 -0.00054600669257 8.8896068801e-05 0.00013064292722 8.8991871821e-06 0.00038145847592 -0.025711180607 -0.0042107437311 -3.7476991235e-06 
-4.0675209672e-05 -0.0018105917002 -0.0022759077096 -0.0026845458075 -0.0030751750413 -0.0034169141396 -0.0037013219915 -0.0039108362739 -0.0039804372617 
-0.003935890009 -0.0038730033292 -0.003771466785 -0.0036192739442 -0.0033833557081 -0.0030621722616 -0.0026865849996 -0.0022612456602 -0.0018126641985 
-0.001378925395 -0.00095663580626 1.0483349116e-05 4.8363573527e-06 2.2231288447e-05 3.0389354005e-06 -2.0086185318e-05 3.1853584759e-05 -1.405637204e-05 
1.0982225377e-05 -5.4624157388e-06 4.1125668775e-06 -5.741592036e-06 -6.4578787585e-06 -1.8038024359e-06 -1.2542898211e-06 -4.5798319828e-06 3.8174686529e-06 
-2.6310451868e-05 -1.4672465679e-05 -3.0342344189e-05 1.1444669507e-05 -1.7982885884e-06 -3.614436722e-06 5.6832347343e-07 6.8457437922e-07 2.7060918734e-07 
2.7395013748e-07 1.1126337348e-06 3.4970997629e-07 -0.00024848050741 -0.00049966890236 -0.00067926672022 -0.0008256874292 -0.00092544781993 -0.0012802047607 
2.7745071389e-05 -1.5237186973e-05 -1.6067623467e-05 -0.00078746666579 -0.00059758300253 -0.00035669033972 -7.4161103904e-05 8.6056432203e-07 -9.4229480924e-07 
-8.8411326681e-07 -6.1301603923e-07 8.4598323377e-07 2.999222936e-06 -1.0380481303e-06 2.974328421e-05 2.5736835757e-05 -2.7752775994e-05 5.2367550129e-05 
-2.8866983545e-06 -2.5778722162e-06 -3.6658623808e-06 4.2635500609e-06 3.7787795989e-06 2.7978400915e-06 1.8903251389e-05 -3.8576662367e-07 -1.9271063354e-06 
1.0771608319e-06 6.8989729541e-06 2.6444071859e-05 -9.743095901e-05 6.3454538883e-05 6.0860157527e-06 -2.2139070125e-05 2.9400399026e-06 9.5511076663e-05 
-6.7226902963e-05 -1.1786153517e-05 1.5351983516e-05 -1.4160433795e-05 -1.0805113179e-05 -8.4379616292e-06 -6.5892823222e-06 -5.584157874e-07 -3.1160133239e-06 
-9.1782256392e-06 -1.2586600367e-05 -9.7246294252e-06 8.9808423299e-06 -3.4086277972e-07 3.9343496215e-08 -2.4547689522e-05 1.7985119759e-05 1.2659554674e-05 
-2.8009935003e-05 9.0272493788e-06 -8.4373370148e-07 1.7988157041e-05 2.5384585546e-05 1.5068810596e-05 -0.00089275621191 2.499696353e-05 -4.3922187775e-06 
9.9572456614e-07 2.7305201658e-05 -7.9386337139e-05 -2.2765133632e-05 -1.2441287747e-05 6.9993198583e-06 2.8947175132e-05 4.4541492599e-06 3.2883543524e-06 
-1.1157983311e-05 -1.1056274939e-05 1.0404586918e-05 1.9300010322e-05 -1.6059478334e-05 5.8982566539e-06 -0.0020180121264 -0.0023148752506 -0.002603618326 
-0.0029100145117 -0.0031399074483 -0.0033255189875 -0.0031661388567 -0.0031042808697 -0.0030575136102 -0.00297837797 -0.0028208678617 -0.0026142694466 
-0.0023513059766 -0.0020463441995 -0.0016697467781 -0.001270566309 -5.4382963653e-05 1.226931587e-06 2.9702882839e-05 -1.2085370668e-05 2.8591625237e-06 
1.2244400529e-05 -3.0877894026e-06 8.5654696129e-06 2.2700435418e-06 2.6182909205e-06 3.3107742679e-06 -9.5971962634e-07 1.9332451687e-05 -5.5365345987e-06 
1.4438771917e-05 -1.1823713572e-07 -5.210182794e-07 -2.9648890923e-06 -1.55870026e-06 3.1332100262e-06 4.8666012585e-07 -0.00015428774309 -0.00058300665392 
-0.00088844178178 -0.0011362557964 -0.0013120222502 -0.0010870017193 4.9972858518e-07 -0.0007034693898 -0.00033728765966 -1.1482799138e-06 8.4670542599e-07 
-6.5854283285e-07 2.255486824e-06 -1.4582109799e-06 -3.0885277848e-06 -2.1019498746e-06 3.5554956717e-07 -3.8862594455e-06 -2.9032945205e-05 8.3966265727e-06 
1.1017182202e-06 -8.6575395438e-07 1.3438281485e-05 2.9349085522e-06 1.1919836115e-05 -9.3695477409e-06 -1.7749496641e-05 -9.5327000774e-06 -6.183686216e-06 
4.8829409718e-05 -4.7125466853e-06 1.7151554988e-05 -2.358355487e-06 -5.4669419785e-06 1.02899163e-05 -1.1691527923e-05 -4.9643254862e-06 1.6918293184e-05 
2.9257436679e-06 1.8729213052e-05 -2.0666297185e-05 1.6283505002e-05 -1.8652445872e-06 -9.7561573857e-06 -7.6598521043e-06 2.6589875475e-06 1.0400374467e-05 
4.1063956852e-06 -1.1124473721e-05 -7.2472821356e-07 5.0588234893e-06 -4.8390424667e-05 5.0929367147e-06 -1.1100942664e-05 -0.0016753643867 4.7909793219e-07 
1.4365071908e-05 -4.3589062672e-06 -5.0724851169e-06 -1.1428439128e-05 1.4469253403e-05 6.358920845e-07 -1.5330190254e-05 2.6555402093e-05 -1.0256959977e-05 
1.5764161054e-05 -1.5705399458e-06 -4.7360641351e-06 -6.1879650351e-06 6.2776551876e-06 -0.0018551954402 -0.0024899314514 -0.0025377505035 -0.0023018888052 
-0.0022822042786 -0.0023155950034 -0.0022368569049 -0.0020804279393 -0.0018879754864 -0.0016989187417 -0.0015227337814 4.1930236628e-06 1.9160602719e-06 
2.1701516861e-06 2.2873789888e-05 -6.0692371001e-06 -2.4365098324e-06 -5.3093811642e-06 3.8243393282e-06 2.6984214596e-06 -1.6172830412e-07 1.203163467e-05 
-7.5474587752e-06 -2.3359221691e-06 8.2235270823e-07 -1.1816797269e-06 1.444889148e-06 -0.00059361604264 -0.001068090855 -0.0014085979104 -4.1394628148e-06 
1.7100509148e-05 4.7117355411e-06 -7.6327737169e-06 -0.00070171481249 -0.00020035052179 -6.3353104857e-07 -1.0107792375e-06 -9.7813763608e-07 4.5942499635e-07 
3.0138272563e-06 1.2560787249e-05 -1.2829086025e-05 -4.3939228536e-06 -2.2281325537e-06 2.7235791047e-06 -1.9961327956e-05 2.5459034928e-06 -1.2756058755e-05 
-1.4109655769e-05 -3.5375042342e-06 2.624503837e-05 7.7051276566e-06 8.0644331249e-06 -4.8998982892e-05 4.4270134095e-06 -2.9892679037e-05 -1.0943025736e-05 
3.6259606501e-05 -3.5648445071e-05 -1.1713948727e-06 8.7221355609e-06 -1.3128646946e-05 -0.002137081677 -1.1568028209e-05 -2.0082728181e-06 -0.0016332071275 
3.7329470086e-06 -0.0011507850577 6.4918601339e-06 8.9928096003e-06 -2.0804184013e-06 1.2737957658e-06 -1.2232121783e-06 -2.0527589554e-05 -4.4775527432e-06 
2.6498540746e-05 -0.0013817848472 -0.0012856353711 -0.0013290744224 -0.001574408635 -0.0013699514772 -0.0012820403151 -0.0012189555103 2.7116989699e-07 
-4.5655672983e-06 2.1861640139e-08 -4.3530498464e-06 1.7894597152e-06 -4.2124261334e-06 -4.7477641846e-08 -2.0177061343e-05 -6.649812263e-06 3.6340927114e-06 
2.2646041747e-06 -1.0432364418e-06 2.4259234162e-06 1.1972940782e-05 -9.8507533817e-07 7.3530065885e-07 -5.3518288891e-06 -5.7078026086e-06 6.8607073637e-06 
9.0476303199e-06 1.3013099259e-05 8.1270789924e-06 1.8930973918e-05 -1.5343448496e-05 -1.1602487522e-05 -1.358087389e-06 -8.8493751363e-06 1.0149293941e-05 
1.3197392509e-05 9.1487464336e-06 4.6955134914e-06 -5.3858143393e-05 -1.1066279344e-05 -0.0011872006168 -0.0017972321272 -3.1228970999e-05 1.1179949932e-05 
-6.2750098659e-06 -0.0013008123912 -3.300554694e-06 -0.00066821858907 -0.0005027504154 -8.7819850548e-06 -3.2862154604e-06 6.5902311483e-06 1.7123193143e-05 
-3.6112042725e-06 -5.4358312041e-06 -1.4922605035e-05 1.902383139e-05 3.9852503485e-06 3.1070500022e-06 -5.6569631327e-06 1.0120716169e-05 -0.00031191907127 
-1.4667640226e-06 1.7790753395e-07 -0.00039939165327 -0.00051954024315 -5.0413205967e-06 1.7698044848e-05 1.0523294e-05 -2.8392036159e-05 -3.9583851427e-06 
-0.00079508014808 -2.3086312542e-05 1.2282352259e-06 -5.0193088243e-06 -3.837918985e-06 2.2224299472e-05 6.4903815249e-06 -3.7078055703e-06 -9.1335460996e-06 
2.6557960775e-05 1.0221234517e-05 -8.5541116804e-06 -5.0873784989e-06 -0.00015511225191 -0.00046252528907 -0.00094363532001 -0.0015602562727 -0.0023060615824 
-0.0030717612362 -0.0038657758463 -0.0045848301939 -0.0053313399638 -0.0059429596376 -0.0063965989399 -0.0067375669607 -0.0068905636127 -0.0068609877948 
-0.0066822418114 -0.0063613679131 -0.0058838907832 -0.0053030978503 -0.0046001999533 -0.0038601097566 -0.0031013476256 -0.0023278926472 -0.0016547461758 
-0.0010186516584 -0.00051323076279 -0.00017990353263 -2.9620159567e-05 -0.026755698083 0.00028583622236 6.7235368324e-05 3.8419187425e-06 7.9770219476e-06 
1.0270427016e-06 4.9950133632e-06 1.0409808971e-05 -1.8648366211e-05 1.1209408188e-05 1.4567651222e-06 -8.3710528778e-06 -8.1699912105e-06 -6.6710724051e-06 
-1.1103952312e-05 -4.5969074688e-06 -8.4400938871e-06 2.86267312e-05 -8.0503046258e-07 -0.00035697474183 -0.0011587054051 -0.001679591333 -0.0016276239266 
-0.0012096801498 -0.00051379270529 2.0561090561e-06 1.1992210182e-05 1.0144265002e-05 5.633559543e-06 3.4565572504e-06 3.1026717942e-06 3.8266462325e-06 
-3.3270100503e-06 -7.8323991861e-07 -2.3794315608e-06 2.157525039e-06 -2.1823759313e-05 -3.6553445095e-05 -5.1446261593e-05 -6.2851005093e-05 -8.090948038e-05 
-9.219370558e-05 -9.1851517914e-05 -9.2780383056e-05 -6.6773180831e-05 -6.4520121908e-05 -5.5459128788e-05 -4.9914468123e-05 -3.9451644873e-05 -3.3330091458e-05 
-2.1374092591e-05 -5.6425106143e-06 -1.7348280606e-06 -2.8474922894e-06 -1.8705205112e-06 -3.8299877157e-06 4.9360065999e-06 9.7220190225e-06 6.7368131612e-06 
-2.9920730015e-07 -2.0249787223e-05 -3.4702851509e-05 -0.00029937031953 -0.00092537074895 -0.0014190591902 -0.0014790705582 -0.0010686737649 -0.0003510316305 
-2.207475751e-05 2.2573126107e-05 1.4646726538e-05 3.3512265673e-06 -1.2184551351e-05 -7.1580477077e-06 -5.5545469256e-06 7.4278210361e-06 -5.4538989812e-06 
-3.2163753123e-05 4.9328649269e-07 9.227159422e-06 4.5524872804e-06 2.7245466786e-06 7.0916982831e-05 6.6757491873e-05 0.00018081702217 0.00018817623603 
0.00028754882322 -0.013901960247 -0.011748255335 -0.010944821352 -0.010257736589 -0.032484237403 -0.035796869006 -0.034003674564 -0.035630611268 
-0.036060992673 -0.034905645469 -0.035906923267 -0.035152211424 -0.034648411436 -0.034682125692 -0.035031817485 -0.034917825616 -0.035203374159 
-0.03565549652 -0.034795789808 -0.034503352041 -0.034787165933 -0.035499623956 -0.036530049996 -0.038080492983 -0.03640400631 -0.044397645396 
-0.0095804399022 -0.027747332725 -0.02813161755 -0.027318919501 -0.029931348756 -0.029564717492 -0.030496634421 -0.029937107001 -0.029698949744 
-0.029215610107 -0.029522006556 -0.030954024598 -0.0060755714664 -0.010171320605 -0.10847131148 -0.042252387014 -0.049398381773 -0.047958896002 
-0.029176200804 -0.027288995079 -0.028564082894 -0.031016454401 -0.029367115135 -0.030346919948 -0.030011584326 -0.031161837204 -0.029998812136 
-0.030572511018 -0.025487795362 -0.092966359602 -0.018323730707 -7.2991637453e-05 0.00033383181597 -0.0047042507356 -0.0066806322057 -0.00072254204374 
-0.00033760853258 -0.0018314302615 -0.0024565058784 -0.0030553770639 -0.0036789539518 -0.0042280911625 -0.0047403737536 -0.0051356238588 -0.0053729326882 
-0.0055637507946 -0.0056769017582 -0.0055914400395 -0.0053919990849 -0.0050982872277 -0.0046854447284 -0.0041938110625 -0.0036521356978 -0.0030621370054 
-0.0024579317398 -0.0018919116674 -0.0013232806384 -0.00082393839048 -0.00042321214403 3.6614691352e-05 -0.00026233657232 -0.00082074713361 0.00017826147818 
0.0016722892562 7.2058056582e-06 9.6296456158e-06 1.7135241861e-05 -4.1471184867e-06 2.70216786e-06 -6.3572855021e-06 1.6725724076e-05 -8.566398439e-06 
5.1230383912e-07 1.0102779312e-06 -1.0736018587e-06 -5.0688358331e-07 -1.0910421472e-05 -1.9764231141e-05 3.1402510601e-05 -6.3996863023e-05 -0.0028527894531 
-0.0056960933792 -0.0068337658825 -0.0061893445066 -0.0034237198263 -0.00069100579486 -6.1844905468e-07 -5.7290824377e-06 8.0296584171e-06 -2.5037919164e-07 
6.4609702658e-07 -2.692778063e-07 1.2181743764e-06 1.0251345586e-06 -8.9804294078e-08 -2.1315617113e-07 -3.4914817644e-05 -0.00012771644941 -0.00020743374325 
-0.00026046045128 -0.00031592206925 -0.00037481704034 -0.00039899615029 0.00048221429756 -1.2112844927e-05 -0.00027166100557 -0.00025950447052 -0.00022560399969 
-0.00019668868953 -0.00015546429646 -0.0001016491593 -2.7121669642e-05 -6.6467353983e-07 -1.4801912719e-07 9.251686201e-08 3.8330648432e-07 -5.960675229e-07 
-6.4039913359e-07 -5.2705309848e-06 -4.0465658141e-06 -1.0106190868e-05 -7.2869424797e-06 -0.00029929304158 -0.0025566863687 -0.004991438569 -0.0056376122783 
-0.00471440417 -0.0022769832199 -6.8178765155e-05 6.5018621182e-05 1.7701084924e-05 2.2332919498e-05 -8.4783550001e-06 -6.0315061352e-06 8.6824728336e-07 
4.073193947e-06 -2.2622415146e-05 5.6427307685e-07 -7.9662487308e-06 7.9460028908e-06 1.429805252e-06 1.5231518402e-05 -6.2047546486e-05 -7.6062543376e-06 
-4.1178692144e-05 -5.8112351709e-06 0.0003694040266 -7.3110951194e-05 0.00029062573938 0.00014150037675 0.0004446197193 0.0009085350395 0.0024962121338 
0.0024162087906 0.0020787577121 0.0019968038078 0.0019713889419 0.0019571067137 0.0019088083232 0.0019620858736 0.0020393351005 0.0020839913887 
0.0019988839052 0.0019637399456 0.001941103228 0.0017886255692 0.0017873093053 0.0018929266161 0.0020013945385 0.0019746876368 0.0018139835402 
-0.0237281584 0.0005852406397 -0.033832641313 0.00082975093647 0.00070986840217 0.0015641706093 0.0016471891383 0.0016966087047 0.0021997509164 
0.001858371689 0.0016366190964 0.0014627557072 0.0014263471206 0.00048461265459 8.3048236727e-05 0.00036930974643 -0.029480308932 -0.00068426404693 
0.00044578812759 0.0018365699269 0.00056647564082 0.00076450441753 0.0017811569173 0.0017810604492 0.0019791088642 0.0019976187092 0.001875581948 
0.0017943918352 0.0018365631636 -0.050125352007 -0.001228838329 -0.00012863912306 -0.00072166793559 -0.016292395207 0.00018295990473 -0.030617403657 
6.8531413664e-07 -0.0049798074937 -0.0028829471884 -0.0018685386379 -0.0033845329874 -0.0038153905884 -0.0041118128019 -0.0043483886759 -0.0045164439547 
-0.0046076513236 -0.0046225233883 -0.0045278800212 -0.0043361298224 -0.0040651934562 -0.0037379530675 -0.0033157130266 -0.0028604892128 -0.0024101151136 
-0.0019154263253 -0.0014211476072 -0.00095491009501 -0.00055733861342 -7.4919257039e-05 -0.0027873324822 3.9400602408e-06 0.00014751252906 -6.2043126059e-05 
-0.00029549486489 6.0823432955e-07 6.8784586616e-07 -1.6827142187e-05 -1.4108945651e-05 -8.7908870438e-06 9.2093225017e-06 1.3750629938e-06 1.4320910279e-06 
4.9765666417e-07 4.7730162821e-06 3.4166700086e-06 -4.0496093345e-05 8.6307640772e-06 -0.0017282483863 -0.016444342446 -0.012564783896 -3.7428964607e-05 
-2.6001053781e-06 4.2652908252e-06 -1.0675863446e-05 1.4064810709e-06 1.7805968343e-06 2.3042789462e-06 -6.274295037e-07 -7.9165987658e-07 -6.5976132867e-07 
-1.2895287061e-07 -0.0001803282608 -0.00035406316849 -0.00049320258385 -0.00060941891716 -0.00072842851417 -0.00085826958666 -0.024584755585 0.00018329108915 
-0.00053680459011 -0.00047515043539 -0.00038352316136 -0.00027221944685 -0.00012614442341 -1.3154508219e-06 1.0194445055e-06 1.1408440848e-07 -7.8414370914e-07 
-7.5215517537e-07 4.077114566e-07 3.6880509361e-06 7.9638923969e-06 1.1844876845e-05 3.6460577015e-06 -5.8240796304e-06 -0.0025464568203 -0.0092122688623 
-0.013157139405 -0.01095537022 -0.0084835201289 -0.00088600462901 3.1230575191e-05 -3.8489849999e-07 5.4587104193e-06 5.126922112e-06 -3.5725036728e-06 
-8.9403943151e-06 -4.8700639019e-06 -3.9376285949e-06 -8.2177068315e-06 1.3506739791e-05 1.445837493e-05 -6.1019387704e-06 -1.9856191897e-05 -3.1627625864e-05 
-3.0983902225e-05 -5.9510391338e-05 -5.2964451568e-05 3.9119290969e-05 7.9924821301e-05 -4.5771897469e-05 6.7587386829e-05 -0.0094546903562 3.882667048e-05 
-0.0024017646847 8.6672670269e-06 -4.5616930724e-05 -7.3305062422e-06 3.0450547894e-05 5.4984440202e-05 4.8307504234e-05 5.2602944787e-05 5.0413187316e-05 
5.9895413849e-05 6.2061949644e-05 7.3208501219e-05 8.3862004244e-05 7.3043290887e-05 8.2402765196e-05 9.6626539479e-05 8.8281919926e-05 2.3702737642e-05 
6.3076048999e-05 2.4439589591e-05 -5.5365646142e-06 2.8260317714e-05 1.4644712281e-05 2.6896095321e-05 6.0205708715e-05 1.1575996419e-05 2.0230671315e-06 
-1.5110924719e-05 8.5095856828e-06 8.0692307294e-06 8.0652673637e-06 -0.00057011287359 0.00034394182073 -1.946132886e-05 -1.287523315e-05 -1.0427012659e-05 
8.8466331446e-06 1.0764933128e-05 -4.8084068e-06 -3.7102463611e-05 -2.1817073986e-05 6.0384857941e-05 7.7763211128e-05 2.2999152943e-05 0.00050820169181 
-0.0014051807607 2.0820082084e-05 -2.7343641879e-05 -0.0095412912949 -0.014397655417 -0.0034258175218 3.4449930928e-05 -7.9550738493e-06 -7.716816369e-05 
-9.4087907674e-07 2.8662142268e-05 2.3101401785e-05 -0.0026196478483 -0.0034174311677 -0.0035743850301 -0.0037036909406 -0.003758431731 -0.0037377247498 
-0.0036144682293 -0.003421737251 -0.0031936004874 -0.0028963922571 -0.0025525029545 -0.0021872489014 -0.0018015942843 -0.0013729062914 -0.00095093263934 
-5.4751481404e-05 1.3213079103e-05 2.1258012124e-05 -9.2926082557e-07 -0.021905822143 4.4217617935e-06 -3.7669522729e-06 1.9159745589e-06 5.2484304447e-06 
1.7403984017e-06 1.0781859276e-06 -2.8936893826e-06 -1.683579456e-05 2.5140877314e-06 4.0116346001e-06 7.7237307885e-06 2.8846833428e-06 1.3369656792e-06 
4.1736902758e-08 -3.0590774197e-06 -1.8760613693e-06 -6.4104842659e-07 -0.00013711509305 -0.00045682398559 -0.00070430842372 -0.0009250763836 -0.0011195352641 
-0.0012699165424 1.4859559278e-05 7.9925010828e-05 -0.00073967722441 -0.00056808500717 -0.00034777025707 -4.3684127509e-05 -1.1899618691e-06 -3.3009081866e-07 
6.7815312039e-07 -4.2240960067e-06 1.9367299992e-06 2.7024297949e-06 -2.5297144688e-05 2.241196239e-05 5.0602557199e-06 -3.9753064928e-05 -2.9330292371e-05 
-1.2328578433e-05 8.6961680201e-06 -1.6900627164e-06 6.9548243249e-07 4.2711766674e-07 -9.0120575333e-06 1.3976627026e-05 9.1368205987e-06 3.7261538728e-06 
9.5612439894e-06 -3.2004092552e-05 2.7891137984e-05 -3.0709089549e-05 -1.124307211e-05 -7.2504497896e-05 -3.5220692224e-05 2.0533374047e-05 1.650292702e-06 
-1.8004406145e-05 -2.5377465219e-06 -6.1041380188e-07 -4.2130641431e-07 6.0594662611e-06 -1.7161643332e-05 -4.6943354913e-06 -9.1702576175e-06 -2.8317549391e-05 
3.9732963122e-06 1.4472300135e-05 -6.2413132809e-06 -1.5755654608e-05 -5.52088244e-06 2.0642209636e-06 -0.0032605947944 3.6134731706e-05 -5.254437341e-07 
1.818947647e-05 -3.491714263e-06 5.4891066491e-06 2.2636193198e-05 5.7789302256e-06 -1.4436355522e-05 4.6997061109e-06 -0.0030236074456 -7.9307692367e-08 
-1.1658719663e-05 3.3826910052e-05 -8.7948869002e-06 1.8054097508e-05 -3.6655155668e-07 8.8683182145e-06 4.3158452278e-05 -1.2760945406e-05 -4.7841847392e-06 
-0.00087352299855 4.4346215893e-06 -0.0013400414229 -2.8751412151e-06 1.029698133e-06 -1.1109454309e-05 -0.0017371847473 -7.1785802792e-05 2.439689458e-05 
-0.002168151287 8.2342573298e-05 2.9146637129e-05 -7.6768634429e-06 -6.9056775518e-06 8.5379839269e-06 -0.0027017955728 -0.0030128087332 -0.0029607538576 
-0.0027875773863 -0.0026177714821 -0.0024279630605 -0.0021680556427 -0.0018735261275 -0.0015807099911 -0.0012223393714 -1.9661395923e-05 5.6858559644e-05 
-8.9766922855e-06 6.6716526765e-06 1.2087573052e-06 8.3027595478e-06 7.4370491297e-06 4.1901474093e-06 -0.0029163754137 -0.0028186846945 -4.296987152e-06 
2.5844231987e-06 -3.8453483675e-07 -2.2253870988e-06 -0.00048094151297 -0.00085587284587 -0.0011951057469 -0.0015023639859 -3.9778617393e-05 3.71520705e-05 
-0.0003563453896 -0.00072699758047 -0.0010011916869 1.3984815862e-07 9.4412529077e-07 3.850182551e-07 3.6664062706e-06 -3.6244922932e-06 -9.5294362656e-08 
-4.993917834e-06 1.7107184997e-06 -3.2824021207e-05 -4.2927823109e-08 -1.971160761e-06 -1.2477983753e-05 -6.2732879882e-07 -1.5867926955e-05 -6.2244950997e-06 
3.876929822e-06 6.6828772396e-06 2.8395384445e-06 4.4584624274e-07 -2.7700730319e-05 -3.6923948839e-08 -6.1242397433e-08 6.5318559939e-05 -1.5030063417e-05 
5.7560763189e-05 5.4459974534e-06 1.1574390055e-06 5.4897089914e-06 -1.9268829243e-05 2.1745208883e-05 2.1564483814e-05 1.8186773748e-05 1.7296666863e-05 
-1.1552431342e-05 -0.0026033340726 3.0232393563e-06 -2.2037813382e-06 -3.6355816078e-06 1.1104582123e-05 -6.9019554765e-06 -2.4808315656e-05 -2.4572078874e-06 
-3.3150821873e-06 1.1787230813e-05 -2.2468508489e-05 1.0668638761e-05 3.9263457205e-06 3.2824198819e-05 -2.1397216768e-05 -1.1983752672e-05 4.1347637936e-06 
-2.4958176022e-05 -2.449900208e-06 -2.8113334872e-05 1.0236049473e-06 -3.6915051511e-05 1.0042370481e-05 -3.9790592662e-05 -1.9399142319e-05 4.1383519673e-06 
-0.0025304571301 1.5446982437e-05 -0.0018915412045 5.9137376905e-06 -8.6997659499e-07 3.6034032873e-07 6.0241712303e-06 -0.0023976506176 -1.6137069333e-05 
-0.0018185863928 -0.0016253727631 -0.0014482989646 -0.0012447189241 3.2708764277e-06 -8.8597336748e-07 -2.3549223844e-05 -1.0545562828e-05 -0.0020134003678 
-2.6390039756e-07 -0.0018704329112 7.0801206023e-06 -0.00044452782037 -0.00093232325236 -0.0013781515298 -3.8763379261e-07 -9.0186923552e-06 -0.0002965571536 
-8.1793509171e-06 2.0827411534e-06 3.6474522219e-06 6.0563346919e-06 -7.5030658869e-06 -1.6088074705e-06 -1.1489714179e-05 -9.7982203418e-06 -0.0021345460654 
8.4597642443e-06 1.6686768539e-05 -6.8837524934e-06 9.9130203053e-06 7.3374428759e-06 -8.5706768141e-06 -1.7381874358e-06 3.6156549209e-05 -4.7662763462e-06 
-1.2215488995e-05 9.2534484023e-06 -1.7046234527e-05 3.0291720778e-06 1.9661171483e-05 2.7409197787e-05 -1.0370320443e-05 -3.2386020776e-06 -0.0016605617674 
-0.0019788883691 2.9990754662e-06 1.1626447024e-05 3.4853626534e-06 -2.1942291962e-05 -1.5823128237e-05 2.7271457364e-06 -9.6450872771e-06 8.4086743173e-06 
1.8544359254e-06 1.9268232511e-05 9.766746518e-06 -0.002118966438 -2.5386326696e-05 -0.0023086240244 -0.001909395802 -7.8167659516e-06 -1.4343114403e-05 
9.0347390159e-06 3.2719449214e-06 -3.3434652174e-05 -0.00083735174422 -4.8237032779e-06 -5.2616945996e-06 1.6671314569e-05 -1.1719425657e-05 -7.9247175569e-06 
-1.2078426307e-05 -2.4618965902e-05 -2.8196743319e-05 -0.001947836028 8.6756737916e-06 -0.0010014192429 -6.7783215454e-06 -1.003547956e-05 -0.0011527712036 
-1.6253964406e-05 -2.2058752451e-06 -0.0014414221232 -0.0010866989722 -4.0398676323e-06 -0.00020416557297 2.813121137e-07 -1.2973636574e-05 9.42896293e-06 
-2.2002754893e-05 2.8283184553e-06 -2.1117425311e-05 3.7360082143e-06 1.1877048467e-05 -2.4036672801e-06 -3.9239293868e-05 -4.2069027323e-06 -6.6926011575e-06 
5.7013681534e-06 -0.0013070135868 3.6932710569e-06 -0.001043679618 3.5629712874e-06 -0.0004425000351 3.2914067907e-06 1.5478727264e-06 1.6410006653e-05 
4.0854879233e-06 -3.6631760047e-06 1.5260747389e-05 -0.00092352237935 1.1491419718e-05 -4.3612685584e-07 -0.00070220193675 4.9555180498e-06 -0.00094808566008 
-4.5720464175e-06 -2.3240669646e-05 1.2820399426e-06 -4.4823376533e-06 -1.995231603e-05 3.0188583444e-06 -1.9184696265e-05 -3.05243558e-06 6.3157411896e-06 
-4.5814142471e-06 -0.0011130511085 -2.484894846e-05 2.0420155455e-06 -6.4614353989e-06 -5.8221356392e-06 4.4221025852e-07 -4.0046820886e-06 2.0686452471e-06 
-5.2939397145e-05 -3.2893821639e-05 2.2703791903e-05 3.6503106167e-06 -4.136963379e-06 -5.6727855031e-06 4.7051486627e-06 7.6854766224e-06 -4.4614362801e-06 
3.1054509567e-06 7.0615870234e-06 1.6672549687e-05 3.0238975208e-06 -4.8311513404e-06 1.5167240221e-05 -5.3093579312e-06 -0.37592770422 -0.37403036279 
-6.1499260221e-05 0.41717012359 0.45721001959 0.25483483685 0.13231538331 0.1263263145 0.1247260476 0.12508931818 0.22321161635 
0.22729004651 0.224244038 0.22628724792 0.22662363969 0.22685544196 0.22884196867 0.22895657798 0.22827920369 0.22880402272 
0.22881459732 0.22755811965 0.22667468594 0.22538506147 0.22304591146 0.22213135566 0.22048972329 0.21874378629 0.21681860802 
0.21729290543 0.21715296035 0.20627798692 0.26363720011 0.23391097273 0.15779372398 0.1455531153 0.14499224752 0.17274988525 
0.21519617107 0.21639402923 0.22521790399 0.22633244253 0.22698926274 0.23218782593 0.23213339413 0.23169714012 0.23229882524 
0.23175270084 0.23070282374 0.23008246942 0.23131040853 0.22624788558 0.22604756957 0.22244269593 0.21972730995 0.22009659207 
0.21791658676 0.21624271356 0.21744139051 0.29982175286 -1.5185745895e-05 1.803829248e-05 -0.00019536615898 -0.00081531188479 -0.0016211036444 
-0.0025282197931 -0.0035302055852 -0.0045727307889 -0.0055506185792 -0.0064094915599 -0.0071345122517 -0.0077710142312 -0.0081728634984 -0.0083858233167 
-0.0083860717819 -0.0081723312755 -0.0077558014589 -0.0071322125396 -0.0063970767362 -0.0054171440513 -0.0043921774612 -0.0033603263199 -0.0023370001407 
-0.0014152841132 -0.00066619509919 -0.0001365862639 2.4772018336e-05 -4.4019503004e-06 0.094490662445 -0.0093996781378 -0.0034930849603 -0.0017405449448 
-0.001000657285 -0.00065968933755 -0.00042163499926 -0.00030077739161 -0.00022483818879 -0.00012641860591 -0.00011909415599 -0.0001018191136 -0.00010169050999 
-0.00011868958458 -0.00016269252781 -0.00020106458724 -0.00025090230181 -0.00025346576858 -0.00024514151685 -6.4298474688e-05 5.759051386e-05 0.00014100489437 
0.00020344601083 0.00019333085006 0.00011714575891 1.4892112104e-06 -0.00014112297424 -0.00025387964629 -0.00026862732651 -0.00022035158775 -0.00017189943609 
-0.00013808413027 -9.9621639362e-05 -5.4555651274e-05 -3.5668535898e-05 -1.5147582587e-05 -7.8359937002e-06 -2.0391056014e-06 2.4948277252e-06 3.1134245268e-06 
5.4593675851e-06 8.3970897206e-06 1.3654032877e-05 1.7714728143e-05 2.3500884126e-05 -2.9880514616e-05 -3.6493446697e-06 2.151731149e-05 8.021921153e-06 
1.1747385656e-05 8.4440173339e-06 6.3022889079e-06 3.1031399452e-06 2.5491053811e-07 -4.7449568516e-06 -1.2763899742e-05 -8.6351695632e-06 -3.5276958024e-05 
-5.4820715506e-05 -7.9319260036e-05 -0.00012447380255 -0.00020520362715 -0.0003224062247 -0.00030255503817 -0.00026286560713 -0.0001537462728 6.3413001169e-05 
0.00029774546924 0.0002536609945 0.00014926327424 0.00033572779971 -2.8002732971e-05 -1.8004758738e-05 -0.00014338454615 -0.00013476258598 -0.00013452478807 
-0.00013922995179 -0.00011982658965 -9.4073598914e-05 -7.2750632742e-05 -7.7917234668e-05 -0.00011786072271 -0.00021595461117 -0.00023122742353 -0.00025988984943 
-0.00038568872937 -0.00062814737723 -0.0010089239342 -0.002250466016 -0.0039862632151 -0.0096192962441 0.039786378876 -0.13787154466 -0.19333381416 
-0.13709994122 -0.16062128123 -0.18080778262 -0.18590893067 -0.1883000398 -0.20173665796 -0.30271973252 -0.29065837369 -0.27188011529 
-0.25118447201 -0.23200524645 -0.12654437349 -0.12633807928 -0.12838453804 -0.1551765668 -0.075317546208 -0.16403944314 -0.1710847364 
-0.16850347662 -0.30278866964 -0.30138618897 -0.29266362688 -0.28407809247 -0.26388639958 -0.24151477282 -0.25714020293 -0.1497081478 
-0.091626261764 -8.8601663224e-07 3.2589530416e-05 -0.00013842462112 -0.00066360912751 -0.001424821554 -0.0023247748153 -0.0033276008763 -0.0043659494888 
-0.0053408664232 -0.0063003401012 -0.0071605318812 -0.0077490813 -0.0081463006526 -0.0083427425566 -0.0083288343816 -0.0081079300501 -0.0076831932201 
-0.0070869841418 -0.0063078369695 -0.0054038874641 -0.0044063826318 -0.0033832033026 -0.0023865529797 -0.0014699175834 -0.00069311942389 -0.00014643131229 
1.6621208668e-05 -8.1382789337e-06 -0.012615259316 -0.036314234097 -0.007338033487 -0.0028319666587 -0.0014461171057 -0.0007901681977 -0.00044446356968 
-0.00030445607052 -0.00016575303406 -0.00012469145673 -9.8257846317e-05 -6.4739307348e-05 -7.0456249203e-05 -0.00010165129578 -0.00014246575424 -0.0001928816474 
-0.00026588763803 -0.00031981998322 -0.00030329805988 -0.00015149188514 3.3174770637e-05 0.00013161287332 0.00023629372218 0.00024245475804 0.00016707994161 
5.3200292722e-05 -0.00011174527176 -0.00028967399078 -0.00031313354555 -0.00028081540593 -0.00023893015738 -0.00016301283529 -0.00010831182388 -7.3470417895e-05 
-4.2213787963e-05 -2.1170925028e-05 -7.093710821e-06 3.0113185187e-06 8.7384974419e-06 9.6894893611e-06 1.2857459086e-05 1.6659131176e-05 1.7310119757e-05 
1.6130489702e-05 1.316821534e-05 -1.6855188544e-05 -6.8067049103e-06 1.4193681255e-05 1.4146415821e-05 1.2294712876e-05 1.1571939871e-05 9.4949864337e-06 
8.6490782162e-06 9.3686207311e-06 4.9242063662e-06 -7.8610843132e-06 -2.1031852493e-05 -3.1977015345e-05 -5.9829214001e-05 -8.7118315141e-05 -0.00013635869674 
-0.0001515602761 -0.00016782778884 -0.00018358484209 -0.00015372875441 -0.00010553146789 0.00010097561453 0.00023779602436 0.00018165074244 0.00024104368773 
0.00030604089653 -4.7683803801e-05 -0.00023574811749 -0.00024505370591 -0.00026584759924 -0.00019562991539 -0.00013840015741 -7.4437695143e-05 -5.2743567371e-05 
-5.6143924545e-05 -4.9342753613e-05 -6.2285471315e-05 -9.6708789287e-05 -0.0001894316522 -0.00030125238251 -0.00055332429672 -0.00061217811712 -0.00088057487643 
-0.0015925556935 -0.0036159041976 -0.010612916563 0.035879326098 -0.12972944739 -0.24249336261 -0.24215176994 -0.27382423982 -0.28936723854 
-0.29920018087 -0.30267067117 -0.20370859025 -0.18715670261 -0.17702270344 -0.16433726145 -0.14502006821 -0.15994167799 -0.14928107941 
-0.15094276443 -0.16853674241 -0.23871785862 -0.2539362587 -0.2663202863 -0.28488352154 -0.2992899223 -0.17524590688 -0.18378028349 
-0.17995536952 -0.16944450005 -0.15811512177 -0.1384793926 -0.2261009416 -0.14882093334 -0.15238308201 -4.2782087643e-06 -9.57533379e-06 
-0.12913931988 -0.11008162825 -0.088409914865 -0.12601476932 0.21398865324 0.22767227493 0.19072013154 0.18192832134 0.18007747366 
0.17053362426 0.17580967014 0.18050916487 0.17825952985 0.17039503544 0.19222229979 0.16678112396 0.19151509634 0.1674651898 
0.1893736165 0.17019797431 0.19238914116 0.17235096066 0.19016069234 0.17464991327 0.18595423627 0.17530107473 0.192842311 
0.17470324524 0.19052881913 0.17787379249 0.18877755755 0.1754859967 0.19046075325 0.17805786086 0.18951162623 0.17640134976 
0.18796693536 0.17954464928 0.18448089647 0.18210088153 0.18439661761 0.18169635894 0.1783391647 0.18130324406 0.18057879318 
0.18182968992 0.17752331072 0.17951145379 0.17577189091 0.17921452255 0.17581094405 0.17912790153 0.17177879463 0.18322631945 
0.17040915398 0.17997083965 0.18246797638 0.18467869303 -1.4859949012e-05 -7.0308459568e-05 -0.00013854525618 -0.00028482700205 -0.00052135410319 
-0.00030805309137 -0.0007899837547 -0.0011502616533 -0.00073940665638 -0.0014641706597 -0.0018856599031 -0.0013411976332 -0.0022526841302 -0.0027156543228 
-0.0020330958916 -0.0030984428714 -0.0036092670703 -0.0027882725566 -0.0040202374973 -0.0045228826659 -0.0035997739811 -0.0048937139971 -0.0053447213422 
-0.0043940604487 -0.0056961143661 -0.0060937488062 -0.005118324187 -0.0063876803654 -0.0066991133467 -0.0057559867057 -0.0069275359075 -0.0072146884835 
-0.0062921651177 -0.0073673510281 -0.0074997762585 -0.0066733998951 -0.0075963118682 -0.007650856362 -0.0069298364978 -0.0076554465214 -0.0075993686723 
-0.0070219302574 -0.0075138822349 -0.0073572998942 -0.0069375278251 -0.0071848051269 -0.0069280975714 -0.0066803193217 -0.0067007090004 -0.0063793532084 
-0.0062745787519 -0.0060800222248 -0.0056622181659 -0.0057622073891 -0.0053012852411 -0.0047761187335 -0.0050969116922 -0.0043875873265 -0.003908119639 
-0.0043259038752 -0.0034875625005 -0.0029690761285 -0.0035035582 -0.0025762261452 -0.0021049286083 -0.0026853936686 -0.0017484149106 -0.0013295803672 
-0.0019254530315 -0.0010246666592 -0.00070785818088 -0.001257136719 -0.00047101731652 -0.00029353771855 -0.00071918268436 -0.00012346917801 -8.5709101017e-05 
-0.00033418610576 -8.1086823557e-06 -1.5729990575e-05 -1.0605875439e-05 -0.00011324554103 -0.0048122162872 -0.0049952254715 -0.00024538495031 0.0020424457454 
0.00015120231021 -0.0015542043844 0.00074620487106 0.00017528466105 -0.00082116395624 0.00034974928924 0.00015171222231 -0.00053475081861 0.00017613759133 
8.6442113145e-05 -0.00035878718351 0.00010522362726 5.542282771e-05 -0.00023793709325 7.036492681e-05 5.7134728106e-05 -0.0001520496991 4.887565393e-05 
5.281813086e-05 -9.3749363983e-05 3.3223930549e-05 1.4264236279e-05 -7.3309398464e-05 9.363455216e-06 3.3768490615e-05 -7.3898289124e-05 1.4958367503e-05 
4.6495047986e-05 -4.5166558505e-05 2.1963513111e-05 4.0508723e-05 -3.688819761e-05 2.6911664534e-05 4.937981134e-05 -5.0851824473e-05 3.5151105636e-05 
6.1569890278e-05 -5.9822625525e-05 4.4641348478e-05 5.5166534652e-05 -6.6318378135e-05 5.5599662649e-05 5.4094021893e-05 -7.508587369e-05 5.6945525827e-05 
2.4206272582e-05 -7.9431659709e-05 4.3721337769e-05 7.2816772654e-06 -8.8998629207e-05 1.784394996e-05 -7.9845873283e-05 -5.4931151149e-05 -0.00025072731237 
-0.00031887718122 -0.0002265450388 -0.00056117911049 -0.00062568685468 -0.00065164086426 -0.00075633757537 -0.00079479285402 -0.0008273731137 -0.00074396256609 
-0.00068824812879 -0.00091718799136 -0.00047276407985 -0.00037395286048 -0.0007738755708 -0.00013930771574 -6.300220544e-05 -0.00039936431552 -1.0427085363e-05 
7.4737543111e-05 -5.2233272542e-05 2.8249479853e-05 6.7045587699e-05 -0.00010756349431 7.4143832787e-05 4.9866350796e-05 -9.590108928e-05 7.3191776202e-05 
3.4245841104e-05 -7.800842525e-05 5.6703087467e-05 2.6289509622e-05 -6.6574924824e-05 4.0576653734e-05 1.6008241963e-05 -5.4370728443e-05 3.1212758226e-05 
1.4200948256e-05 -3.5176285799e-05 1.8585422573e-05 2.044936693e-06 -2.5487023172e-05 9.770928348e-06 3.5313997205e-07 -1.5333043933e-05 6.4464343115e-07 
-4.4871959193e-06 -9.2782513197e-06 -1.2773448084e-05 -3.3329855142e-06 -9.5775207856e-06 -2.2407341261e-05 -1.0240370374e-05 -2.1296471273e-05 -2.8712910016e-05 
-1.9856151344e-05 -2.9935351239e-05 -3.5322156741e-05 -2.5809185182e-05 -3.7255293712e-05 -3.9486326882e-05 -3.1708968042e-05 -4.2469137498e-05 -4.8815692942e-05 
-4.0146289663e-05 -5.1535652161e-05 -5.5769179067e-05 -4.88531142e-05 -6.3966165535e-05 -5.855747482e-05 -5.6213719414e-05 -6.6750579787e-05 -4.891666912e-05 
-4.1910638979e-05 -8.0794922413e-05 -0.17413122392 -0.18340121198 -3.2884383718e-05 -3.5093751236e-05 -2.9967545497e-05 -0.19084309252 -0.13698814045 
-4.002743744e-05 -3.6168151387e-05 -4.0367184254e-05 -3.2722937523e-05 -3.5979003551e-05 -4.0330563658e-05 -2.7627331289e-05 -3.2396238636e-05 -3.5581721176e-05 
-2.1397623831e-05 -3.1556764313e-05 -3.1803701146e-05 -1.6126465985e-05 -2.8640692314e-05 -2.7829157371e-05 -9.9563935099e-06 -2.1959234461e-05 -2.1075312962e-05 
-4.031760038e-06 -1.4547325101e-05 -1.265904133e-05 -5.3441564816e-06 -7.2808249763e-06 -7.3890624728e-06 1.0770532154e-05 1.134021129e-05 -5.9906114578e-06 
6.9111712089e-06 1.0066278826e-05 -1.2516899709e-05 3.5899601005e-05 4.3614913612e-05 -3.9273887542e-05 3.408636204e-05 4.5443128835e-05 -3.6190893197e-05 
4.6067982011e-05 9.8416486484e-05 -4.8366811796e-05 4.1452742237e-05 9.7293916823e-05 -0.00016388805849 8.100780124e-05 8.9509753257e-05 -0.00018582547273 
8.3335146103e-05 4.2696684084e-05 -0.00016542303787 3.3145659977e-05 -6.8866210154e-05 -9.5308739138e-05 -0.00010155673196 -0.0002472322348 -0.00016371244349 
-0.00049503063909 -0.0005408906149 -0.00060353125252 -0.00092064728896 -0.00070013615532 -0.00075808246168 -0.00085383233619 -0.00062348255021 -0.00099713424096 
-0.00049875660692 -0.00036678757711 -0.00085970290996 -0.00018412407775 -0.00013894667739 -0.00047439538381 1.3117152036e-05 2.4888613926e-05 -0.00012501243517 
0.00011386731607 3.2958017974e-05 -9.9256237902e-05 0.00012945338115 1.3240834512e-05 -7.4196660379e-05 5.3221823061e-05 4.578065442e-05 -0.00013199845151 
0.00010735954571 4.9965786875e-05 -9.1625056736e-05 6.5713021569e-05 1.3306851394e-05 -6.6378890782e-05 6.1571426888e-05 1.7710526951e-05 -8.5345321229e-05 
4.3661090957e-05 -1.2503004441e-06 -5.7273156635e-05 2.7191346588e-05 -6.0695099247e-06 -4.5358461484e-05 3.0262821485e-05 2.5094971713e-05 -0.00010680016248 
8.7054437248e-05 2.0245435667e-05 -0.00011383174498 3.1864355381e-05 2.4779470691e-05 -8.9859192382e-05 6.0504199484e-05 3.5307356028e-05 -9.9288315436e-05 
0.00020769539891 0.00015009371968 -0.00019312075436 0.000176555047 0.00028915802439 -0.0005820465724 0.00037681140195 0.00061603907426 -0.00089740865505 
0.00084585113196 0.0021192352495 -0.0012584232587 0.00042812975446 0.0032653085914 -0.0024027246363 -0.0015982821944 -0.0077326539104 -0.01305175489 
-0.016371103889 0.044413347445 0.01654017149 0.023365538682 0.020161303336 -0.066017225407 0.018518208528 0.017008450625 -0.062305346017 
0.020045930103 0.022529252925 -0.053651180808 0.019704532981 0.016176090528 -0.009384593676 0.015264846722 0.013157735074 -0.0099186309702 
0.015521716289 0.014021905323 -0.0097943031267 0.012219307116 0.011585786159 -0.0086408539886 0.009823011849 0.0098880740442 -0.0075296703154 
0.013329354912 0.01225374591 -0.0085457915743 0.01122222204 0.011054670015 -0.0079742414968 0.012756344196 0.013234174702 -0.0079565152495 
0.01345405946 0.013213122175 -0.0091544289641 0.013462623788 0.012662876851 -0.0093387318134 0.012181268722 0.011019407805 -0.0092061155506 
0.011637580785 0.010283364958 -0.0082470379208 0.012508904318 0.012193954085 -0.0079709628286 0.0099653376545 0.011168476497 -0.0074457832598 
0.012805802746 0.013305198696 -0.0084206719537 0.011983039083 0.012703438371 -0.0087006670684 0.011788988895 0.012630256405 -0.0085614755144 
0.012122967537 0.01329668917 -0.0078863191822 0.010052947606 0.013458194049 -0.0075618129316 0.01309058765 0.019100590676 -0.0086979913455 
0.015091799849 0.027014227627 -0.011610153 -0.0011981307344 0.015054395254 0.01096104598 0.00040900642323 -0.039761327843 0.01096705742 
0.011066509203 -0.0061291256994 0.010558219053 0.011475810047 -0.0064753456594 0.0089441821854 0.0083837831226 -0.0064673674459 0.0081303787964 
0.0087250608746 -0.0093408537529 0.0066016817407 0.0075382816822 -0.0090614410246 0.0077438803454 0.0059426579665 -0.0089630897785 0.013219469309 
0.013179800816 -0.0087930094433 0.013718341434 0.014679312831 -0.0092993036833 0.012010982022 0.012852090909 -0.0090065545904 0.013504905241 
0.01357163243 -0.0084512203018 0.001485315993 0.013195239764 -0.0077366062484 0.0052436032045 0.0036867107444 -0.043415790536 -0.12681128167 
-0.13551190488 -0.00082292902931 0.012792016212 -0.00020337113503 -0.0006259511138 -0.0056103966483 0.0022025212686 -0.00019995038742 -0.005679363571 
0.0058396691009 0.013111466768 -0.012164615366 0.010034014768 0.012411166943 -0.0069485224009 0.011206616735 0.010022899583 -0.0066146690397 
0.016695659429 0.013765848216 -0.0083172858264 0.016020521821 0.01527864865 -0.0094190570525 0.013973039228 0.012470792171 -0.009191920286 
0.015490482549 0.014479427108 -0.0089627217808 0.014015027749 0.010026590209 -0.0082810433084 0.012949108815 0.011539259916 -0.0086571724328 
0.015471936591 0.005440281494 -0.0076192583536 -0.021391950535 0.011428545378 0.0014369400002 -0.13111286115 -0.13508268187 -5.258892505e-05 
0.0083649715343 -0.038283522975 -0.0034552608897 0.042079214521 -0.063106901321 -0.022795168311 -0.035675641412 -0.023181483828 -0.061868146524 
-0.011401556994 -0.067866797343 -0.039113347509 -0.031628823677 -0.05127108064 -0.0632651142 -0.018957051655 -0.013228945066 0.004959717905 
-0.00067432516765 -0.00095668819095 -0.0011993682069 -0.0015244932171 -0.0010686299575 -0.0017878482154 -0.0021489676954 -0.0015954540739 -0.0024568981252 
-0.0028343464507 -0.0021761164945 -0.0031524812529 -0.0035694842789 -0.0028208884555 -0.0038795437987 -0.0042573733004 -0.0034746942425 -0.0045554456464 
-0.0048966843972 -0.0041045696412 -0.0051454360454 -0.0054371669066 -0.0046690852442 -0.0056318700104 -0.0058628768127 -0.0051248721583 -0.0060100476353 
-0.0061692469498 -0.0054808183286 -0.0062672138648 -0.006361429371 -0.0057405206177 -0.0063822020749 -0.0063884686323 -0.0058703138725 -0.0063574573312 
-0.0062741835958 -0.0058678448769 -0.0061535469538 -0.0059871021601 -0.005720457843 -0.0058432106582 -0.0056238122102 -0.0054577257777 -0.0054343717858 
-0.0051468570769 -0.0051201679179 -0.0048702057216 -0.0045160161984 -0.0046478692797 -0.0042095713478 -0.0038230589871 -0.0040582326918 -0.0035066240956 
-0.0030946891294 -0.003424330671 -0.0027690203547 -0.0023802068572 -0.0027686217019 -0.0020869182519 -0.0017281067462 -0.0021363013623 -0.0014590565667 
-0.001163130242 -0.0015587861656 -0.00093157542779 -0.00070083031792 -0.0010513955255 -0.00051004845139 -0.00036224827676 -0.00064038190763 -0.0040778632482 
-0.002806214292 -0.0096551476982 -0.011952628348 -0.0049021015422 -0.00015133984301 0.0012837855569 -0.00042732223872 0.0007224594675 -7.0392976611e-05 
-0.00040443567509 0.00044418466116 5.4209918214e-05 -0.00039554322658 0.0002689924898 1.1521180911e-05 -0.00029624472626 0.00016459392166 3.7208437773e-05 
-0.00020132550343 0.00011638590756 4.8459069911e-05 -0.00014149432136 0.00010728239741 8.4855821959e-05 -0.00013569362779 3.9592793737e-05 2.9579728497e-05 
-0.0001682773449 2.0457224483e-05 6.2176778151e-05 -8.3219863592e-05 3.6317796356e-05 6.2430713e-05 -5.2529178751e-05 3.0516525615e-05 4.94000165e-05 
-9.7022809454e-05 3.4675326906e-05 6.0504120475e-05 -0.00010877800528 3.036476497e-05 7.2497849051e-05 -0.00012133916207 3.4376318285e-05 7.7034890894e-05 
-0.00013224524613 3.2852121395e-05 7.6359289902e-05 -0.00015678910736 -2.1062081085e-05 -2.3696999025e-05 -0.00013876678228 6.3869452263e-05 -6.2862186704e-05 
-6.1493884682e-05 -0.00030190937944 -0.00096983347106 -0.00011676686125 -0.0017024283482 -0.0024627872289 -0.001960849999 -0.0032921310385 -0.00386723822 
-0.004402220114 -0.004128581137 -0.0039333267084 -0.0056712669893 -0.0034121512563 -0.0026217050127 -0.0052858434425 -0.0017346504789 -0.0009121774393 
-0.0032692658004 -0.00014725797812 0.00010704969035 -0.00090934097804 -3.9247925974e-06 1.9360077953e-05 -5.8803093404e-05 8.9134564039e-05 2.4547136217e-05 
-3.8181803768e-05 5.8760208968e-05 2.2629552583e-06 -5.8685676358e-05 7.4011177575e-05 -1.1382572682e-05 -3.5467680348e-05 6.0097899066e-05 -1.0321576429e-05 
-3.1488550155e-05 4.252738929e-05 -5.7979643565e-06 -2.5670818858e-05 3.6843732354e-05 1.5735082362e-05 -2.398335846e-05 2.2770325088e-05 6.6491129425e-06 
-4.1657706571e-05 1.4378919336e-05 4.8975213e-06 -3.7267787652e-05 -1.576769983e-06 -6.8234265992e-06 -1.9791365874e-05 -4.8454092131e-05 -5.6634215579e-05 
-3.1747208141e-05 -9.8839114627e-05 -9.5542641478e-05 -0.00011488634694 -0.00013005173702 -0.00012866734026 -0.00016348019327 -0.00015491614423 -0.00015494629402 
-0.00019952665504 -0.00018098840343 -0.00018919471304 -0.00023755403249 -0.00021699021591 -0.00023066172184 -0.00029347699254 -0.00025486069983 -0.00025439654477 
-0.00034675327916 -0.00026280564803 -0.00023192870522 -0.00039522489011 -0.046310935006 -0.064524309314 0.0026258692135 -0.0012711204083 -0.00079726433806 
-0.00016774179481 -0.00017749986352 -0.00017054997125 -0.00017418718124 -0.00025304154107 -0.00015772441247 -0.00016520771586 -0.00024405560826 -0.00013666418627 
-0.00014347920898 -0.0002203466869 -0.00010631413543 -0.00011832067478 -0.00018178188295 -7.1986615522e-05 -8.4563817356e-05 -0.00013342768934 -3.1769021893e-05 
-2.8409504266e-05 -7.9978669684e-05 5.5182941662e-06 1.030311364e-07 1.2453456057e-06 1.5169592866e-05 1.5488431396e-05 -7.7926268004e-06 1.8097404648e-05 
2.1757600169e-05 -2.7975566046e-05 1.7292460762e-05 4.8784530369e-05 -4.2876316241e-05 2.5565934936e-05 5.9924261131e-05 -6.7469098137e-05 2.9603554399e-05 
7.5937163479e-05 -7.8804033051e-05 2.9362389763e-05 7.9786049019e-05 -5.4864181703e-05 2.7018506692e-05 0.00013029290031 -5.4704389874e-05 1.4879648419e-06 
5.7529242567e-05 -0.00012967891848 2.7426926342e-05 -3.0472898744e-05 -9.9418500345e-05 1.8284875078e-05 -0.00077695557254 -1.156966002e-05 -0.0015637919539 
-0.0024919586194 -0.0019504690602 -0.0032375358279 -0.0036020719778 -0.0038456260417 -0.0037176502903 -0.0033857460262 -0.0050507006602 -0.0030206782003 
-0.0023365797225 -0.0046685595634 -0.0016350190539 -0.0010357894042 -0.0029901770434 -0.00017431954531 -1.0948908836e-05 -0.0010800542736 1.2643154274e-05 
-2.8512963388e-05 -7.3020144562e-05 9.0680062303e-05 -3.4213220552e-05 -6.3955846034e-05 0.00012938475056 -2.9316750798e-05 -4.8581684725e-05 0.00010047719248 
-1.3634517164e-05 -7.8024969311e-05 9.9202900256e-05 -1.6624744527e-05 -4.9729064733e-05 4.8736071752e-05 -2.0269391037e-05 -5.743488421e-05 6.8962814761e-05 
-9.5872123326e-06 -8.8730678671e-05 6.9644540041e-05 2.9096797902e-05 -9.2989888276e-05 6.5142788587e-05 7.0028790008e-05 -0.00010111758638 7.1673876015e-05 
8.2233687724e-05 -5.7461428106e-05 0.00012774869099 6.3486870398e-05 -0.0001193751726 6.1045768032e-05 8.1097702435e-05 -0.00024073239101 0.00016764316622 
0.00024076272072 -0.00030761467252 0.0001878410707 0.00055423657524 -0.00023865377682 0.0002325971508 0.00092047280659 -0.00067382963544 0.00010366102811 
0.0020195618706 -0.00065351332948 -0.00049243525391 0.0035157242354 -0.0038312332241 -0.00098228379875 -0.00030533571894 -0.01073900117 -0.0050693197651 
-0.013252283743 -0.0076769761806 -0.013936627126 -0.0089748178961 -0.00068379467611 -0.0079001044841 -0.0023877940548 0.0020575159427 -0.0037543261685 
-0.0046105200047 0.0049212677176 -0.0021240908328 -0.0028889278404 0.0010993430854 -0.0019524758624 -0.0023546805346 0.00045052235456 -0.0017476806766 
-0.0019673955053 0.00060509016082 -0.0021364246835 -0.0019618434322 0.00045794950355 -0.0019046714245 -0.0013132646594 0.00041878959801 -0.0022211409545 
-0.0017548418661 0.00048847086495 -0.0021313630242 -0.0023813921603 0.00043287585958 -0.0021931976667 -0.0025046973143 0.00042328017527 -0.0024580716506 
-0.002690769314 0.0004185607408 -0.0022394917952 -0.0023642171208 0.00043246248038 -0.0020340880433 -0.0017622694631 0.000403373862 -0.0019162755584 
-0.0018504870651 0.0003774907262 -0.0026149716839 -0.0019970870349 0.00037200963374 -0.0023624668515 -0.0023551363694 0.00043460055608 -0.002748379099 
-0.0025829975516 0.00047465037167 -0.0025204150631 -0.0028035770161 0.00048854786301 -0.0019836797749 -0.0025020458541 0.00064128707946 -0.0023744048683 
-0.002685485635 0.0009865549744 -0.0023812029366 -0.0046182163579 -0.0021360010035 0.0049312440441 -0.067824684371 -0.042304738056 -0.035166559966 
-0.0064178174325 -0.011438885157 -0.001123175917 0.0027769995889 -0.0023559748058 -0.0011338428992 0.0040589108473 -0.0020111164433 -0.0029367700138 
0.00078817160558 -0.0020900972961 -0.0029382469447 0.00038098865835 -0.0022124817207 -0.0026373163415 0.00049428668335 -0.0022570820735 -0.0032173860917 
0.0003694416794 -0.001776084116 -0.0032315767059 0.00062617814655 -0.0023932855649 -0.0035427567445 0.00062503862638 -0.0020586740037 -0.0026901789178 
0.00072636676219 -0.010161704081 -0.0027240198022 0.00095897272495 -0.0064869266346 -0.011544366051 0.0014114207758 0.004443891701 -0.016553482138 
-0.00098251703102 -0.041378205961 -0.061911486911 -0.0040640647255 0.008692577306 -0.074374942575 -0.054771748697 -0.0021814353503 -0.0020911334492 
-0.0011581303585 -0.0019744229798 -0.0027997296988 -0.0031980931961 0.0041893456053 -0.0033607275628 -0.0034412654101 0.0044031234881 -0.0036082716196 
-0.002126641067 0.00068952366592 -0.0027045066595 -0.0014318833149 0.00057431406425 -0.0029025046457 -0.0018424501644 0.00068909969978 -0.0027800665967 
-0.0012666410952 0.00074017883355 -0.0039530766132 -0.0016938756775 0.00083525732906 -0.0043871800448 -0.0014820018359 0.0010785195597 -0.00070672713989 
0.0017828787256 0.0012829049112 0.0076232989521 -0.0083688249394 -0.0004693397908 -0.002954913439 -0.0027907072925 0.00044613845433 -0.0078368051484 
0.00042106988784 0.0015310264609 0.00096723017501 -0.022995689358 -0.0033883481489 -0.00021500647984 -0.00012368097588 -5.8284604955e-05 -0.0003284093058 
-0.0011371075937 -0.015675818989 -0.036852447506 -0.0001380446412 -4.9292612866e-05 -0.00026252718404 -0.00060386978061 0.0010204324987 -0.041314544601 
-0.00058192463221 0.0015117769735 -0.025021696468 -0.0003715990525 -0.00062113409539 -0.0017424535183 -0.035563330684 -0.01341086819 0.001144284526 
0.00016322474748 -0.00022096061175 7.4542797127e-06 -0.00013882590646 -0.0023655223682 -0.0013557139105 -0.0016265034352 -0.0019001900078 -0.0021923181599 
-0.0016314096859 -0.0024634141535 -0.0027833787441 -0.0021641564873 -0.0030486343847 -0.003370301234 -0.0027097216109 -0.0036085059119 -0.0039078471138 
-0.0032238895239 -0.0041442013974 -0.0043886560831 -0.0037085744915 -0.0045827123954 -0.0047751860324 -0.0041414908884 -0.0049117730146 -0.0050681626904 
-0.0044736197575 -0.0051642493769 -0.0052682715273 -0.0047151632078 -0.0053034004313 -0.0053283136049 -0.0048571718244 -0.0053008027164 -0.0052751192558 
-0.0048724501372 -0.0052122614356 -0.0050962751095 -0.0047871576208 -0.0050099607253 -0.0048767856006 -0.0046400657583 -0.0047448650116 -0.0045606087678 
-0.0044248433206 -0.0043772344055 -0.0041125152929 -0.0041118595307 -0.0038859273339 -0.0035873662709 -0.0036994060193 -0.0033323926153 -0.0030219528965 
-0.0032108906475 -0.0027521305065 -0.0024390866741 -0.0026864388853 -0.0021713208306 -0.001872671195 -0.0021503815091 -0.0016309501723 -0.0013623966283 
-0.0016406309386 -0.0011365927922 -0.00090517487675 -0.0011698339762 -5.8728854166e-05 -4.1301887402e-06 0.00020684219749 -8.6242851975e-05 -0.00031710299167 
0.00041322004696 0.00074611098578 -0.00033646323624 0.00052873567109 -0.00022270706648 -0.00026442419555 0.00043371263444 -4.7248112414e-05 -0.0002539141662 
0.00032888128908 -6.569045884e-05 -0.00030007250273 0.00026203076764 5.5327189965e-05 -0.00018004809572 0.00018150240438 5.7179131251e-05 -0.00028881715575 
0.00015494597746 4.4763805209e-05 -0.00026300602583 6.3913332301e-05 4.7016116582e-05 -0.0001683424186 6.409739044e-05 5.4974998806e-05 -6.4623818365e-05 
4.2853640723e-05 4.2476946541e-05 -0.00010901708044 1.5204567423e-05 4.1826031654e-05 -0.00010513491718 2.7892302889e-06 4.9282520213e-05 -8.2750531477e-05 
-1.1357222596e-05 5.215711007e-05 -6.4144375471e-05 -2.8291621583e-05 5.8437460033e-05 -5.1769281963e-05 -2.9107988915e-05 5.95342165e-05 -3.7521607331e-05 
-6.1756008136e-05 -3.4179683783e-05 -4.7988716543e-05 0.00018390781291 -0.00036028567058 -9.3667564431e-05 -0.0019638577718 -0.0038146262078 -0.0012924514364 
-0.0059289157151 -0.0082565456481 -0.0065626745701 -0.010226342113 -0.010850517296 -0.012332152212 -0.010511911279 -0.0089023774389 -0.014291043667 
-0.0065431325786 -0.0042119227918 -0.011335604518 -0.0021422536355 -0.00011581323489 -0.0036300746697 -3.2386324269e-05 5.8215131843e-05 1.7212555059e-05 
4.1323145624e-05 1.704397096e-06 1.3831920365e-05 7.0861893704e-05 -1.2027688247e-05 -7.686302342e-07 6.3434172648e-05 -4.5812595124e-05 -9.138791976e-06 
5.9660463241e-05 -3.3727236519e-05 -3.564192791e-06 5.0908255947e-05 -1.1512811912e-05 3.3950081939e-06 3.5893835888e-05 -5.4140540789e-06 -2.4865471429e-05 
2.8920042813e-05 -1.768910275e-06 -3.0862567864e-05 1.5207877732e-05 6.7371762872e-08 -2.3006944684e-05 6.5851100981e-06 8.6806256526e-07 -1.6982670639e-05 
-1.122935031e-05 -7.4504281891e-05 -1.2313550595e-05 -0.00015202063371 -0.00019286410293 -0.00014039244292 -0.00025396871192 -0.00028043060347 -0.00028976464688 
-0.00033352179971 -0.00035215998252 -0.00040117296437 -0.00039557925752 -0.00042060302844 -0.00048987307443 -0.00047543844036 -0.00051345508041 -0.00059323795475 
-0.00057478456293 -0.00060636950609 -0.00071592068915 -0.00062104288181 -0.00063329446315 -0.0008274749397 -0.00080533478678 -0.00032932239403 -0.00063706470659 
-0.00020190113081 0.00034893686288 -0.00083388928662 -0.00016411322485 0.00018453701211 -7.8349454092e-05 -0.00041563597756 -0.00041619799037 -0.00037965114189 
-0.00036925765181 -0.00053299028445 -0.00031370710012 -0.00029639118472 -0.00045675254413 -0.00022713747991 -0.00021267013219 -0.00034663220125 -0.00013034478082 
-9.0991620129e-05 -0.00022249039492 -2.2369985329e-06 3.3277054281e-06 -4.1196867621e-05 7.1108523867e-06 9.6563683375e-06 -5.7888109462e-06 4.1324049173e-06 
2.0489526507e-05 -1.4919906982e-05 3.53314569e-06 3.3096908288e-05 -2.2421479981e-05 4.4380474545e-07 4.6807088098e-05 -3.3068675694e-05 -5.3086797074e-06 
6.6673366524e-05 -4.498498312e-05 -4.7748785147e-06 6.8917707981e-05 -6.1634897282e-05 -6.0722755581e-07 9.0075356794e-05 -4.5771412405e-05 -1.8690264157e-05 
4.8605875201e-05 -4.8313428962e-05 4.9235969018e-05 1.9181287389e-05 -6.3259524562e-05 3.0011251812e-05 -0.00011490122475 -7.0830228081e-06 -0.0017399742254 
-0.004186871809 -0.001519472335 -0.0066070856925 -0.0083702206393 -0.0071030757337 -0.0092950227746 -0.0090298197579 -0.011192607236 -0.0082368117584 
-0.0067388733232 -0.01220979033 -0.0057349780615 -0.0038087197622 -0.0080256427872 -0.0014576869765 -2.0505807359e-05 -0.003649726772 2.6809187148e-05 
-5.8663315454e-05 7.4533522708e-06 1.4552740686e-05 -4.8159962352e-05 8.193352455e-06 5.8425695169e-05 -4.2126694405e-05 -4.0044768766e-05 9.9273038824e-05 
-4.1534445361e-05 -9.1578076519e-05 7.1279284743e-05 -1.037963735e-05 -1.2232703549e-05 6.4018185508e-05 3.0994963633e-06 -5.9987464608e-06 6.4363775725e-05 
4.0058875143e-05 -3.0499460754e-05 4.7264621496e-05 6.2434230224e-05 -7.5573863917e-05 3.2129549411e-05 7.0185749185e-05 -0.00012397660464 3.5583676885e-05 
0.00011066471458 -9.5207484969e-05 5.2773248355e-05 0.00015944382132 -0.00010976883684 0.00012612217335 0.00010999167169 -0.00016804328598 6.3783443762e-06 
0.00030423883729 -0.00033146863471 0.00014030977852 0.00037538049562 -0.00049906012544 0.00016650918084 0.00039296056877 -0.0004011026839 2.060238053e-07 
0.0010513258301 -0.00037885275029 -0.0002792308304 -0.00010676508451 -0.0023466244334 -0.0019918199339 -0.020931772885 -0.027588057482 -0.0025201152562 
-0.00077813130134 0.00067338307207 -0.00064713440473 -0.00038133624231 0.00053452335943 -5.6546512671e-05 3.3546407599e-06 0.00034789201597 -5.5642122276e-05 
-4.8011877382e-05 0.00024698180714 0.00011663113226 -2.876903066e-06 0.00016759772967 7.8875794502e-05 7.2964538659e-05 8.5738521861e-05 0.00012327938529 
8.918574287e-05 7.8739339501e-05 5.2878759296e-05 0.0001108527983 7.4087351453e-05 3.0887259308e-05 0.00010658926452 6.6130192568e-05 7.3246730848e-05 
1.058114352e-05 6.8763073822e-05 1.0757276055e-05 2.8063680894e-05 4.8089841699e-05 5.653125129e-05 -2.2347712419e-05 4.8235150689e-05 4.3619816246e-05 
7.0466414016e-05 5.617667054e-05 4.6184008844e-05 0.00013200392472 6.7056891194e-05 -2.082364313e-05 0.00017383151404 7.8992009217e-05 -1.3353442647e-05 
7.500614656e-05 0.00010142155314 -3.2611069677e-05 6.2439420745e-05 0.0001169722648 -6.5886889359e-05 -6.1210839714e-05 0.00015212175608 0.000129649524 
4.1724861369e-05 0.00029004101687 9.4016214571e-05 -6.2965825857e-05 0.00095682110875 0.00087836521747 -5.4807498777e-06 -0.000891667667 0.00060369586508 
4.2177061167e-05 -0.00012034257691 0.00013668186913 -7.4076388823e-05 -1.9387283686e-05 0.00017644862247 -0.00010158709939 -5.3656301096e-05 9.2117602717e-05 
-0.000179267846 -0.00021643561087 0.0002712305629 -0.0003702487392 -0.00010422459395 0.00048042925016 -0.0012044559517 -6.0949929904e-05 0.0006616503967 
-0.0014183174621 0.00046602838616 0.00044606715616 0.00027803119128 -0.0019199416835 -0.0001944258441 0.00049224330006 -0.032235695666 -0.018985320441 
0.0013897796129 -0.00051475318778 -0.00018634013725 -0.0016373650831 -0.0085706284531 -0.021930487961 1.9233033028e-05 -5.0272574164e-05 -0.00012622504134 
-0.0001411317925 0.00015228360233 -9.7231710982e-05 -5.1347914368e-05 0.00016705382224 -0.00025639427792 3.8778670754e-05 0.00018764594109 -0.00054983165602 
0.00014825093363 0.00032361912573 -0.00066764421853 0.00045934090661 0.00021594845194 -2.9311947471e-05 0.0010758628214 0.00012069993922 -0.00056775790781 
-0.00067642006337 -0.00018213205653 9.4903969382e-05 0.00040012908156 0.00022281382763 -0.0010953589515 -0.039184677511 -0.042220897333 -0.024019467448 
-0.01080920082 -0.00042196830431 -0.00043308531835 -0.0005702297612 0.0011202286664 -0.0022738877798 -0.00016099793556 -0.00085547173122 -0.0010701101644 
-0.0056660125248 -0.0011028358529 -0.025471478999 -0.00070555482675 -0.00050660714426 0.00033802805194 0.00023652444525 -0.0058235496039 0.00034426329697 
0.00031423336923 -0.0023854267072 -0.00073811680106 -0.00036084548877 -0.00041551620738 -0.00035517641038 -0.00062649371794 0.00012781866901 -0.00023882319226 
-0.00011943400983 -0.00027302988835 -0.010288149692 0.00051110752191 0.0003208639871 -0.0016834019499 -0.036935148816 -0.034562188505 -0.018348534468 
6.2056807282e-05 0.00035909711117 -3.2308138725e-05 -0.013639293381 -0.0060456487446 5.0604116832e-05 -0.0003430343225 -0.020943337636 0.0004714033814 
0.00031376537144 -0.00047200541654 -0.00029343682576 0.00051364007708 -0.0039379687661 -0.0005603957006 -0.02327279508 -0.01696913495 -0.018949741628 
-0.0018576835606 -0.0021051235825 -0.0023557064013 -0.0026152429789 -0.0020503690012 -0.0028277614822 -0.0030514890335 -0.0024882617659 -0.0032560261538 
-0.0034850579424 -0.0028930059099 -0.0036616173959 -0.0038446058816 -0.0032624349544 -0.0039934613361 -0.0041200474707 -0.003581377871 -0.0042263998458 
-0.0043294870088 -0.0038290853701 -0.0043648732389 -0.0044005872823 -0.0039793828672 -0.0043779327889 -0.0043494220876 -0.0039926183106 -0.0043186390504 
-0.0042602020341 -0.0039374894976 -0.0042056679602 -0.0041272355627 -0.0038554123525 -0.004045644208 -0.0039292687404 -0.0037246956074 -0.0038034641624 
-0.003635696667 -0.0035260560535 -0.0034640420355 -0.0032545732491 -0.0032424417309 -0.0030553631529 -0.0028172400296 -0.0028875247039 -0.0025939602262 
-0.0023450532617 -0.0024803464757 -0.0021080295314 -0.0018600978632 -0.0020394827343 -0.001631650834 -0.0013966528336 -0.0015946310515 -0.0011785220355 
-0.00095738162343 -0.0011638817685 -9.7321117771e-05 -0.00011271996906 -0.00011296759999 -0.00013368134961 0.00031839386945 -0.00013971549855 0.00029126983073 
-0.00029184629866 0.00043930125514 -0.00012095614386 0.00027731706213 -7.8876726071e-05 -0.0001218289039 0.00033219107422 -6.1114291605e-06 -0.00014105104951 
0.00024487068763 1.2181334046e-05 -0.00026880482908 0.00020435305732 4.0457123034e-05 -0.00025140428866 0.00014567131198 9.168055712e-06 -0.00018052832042 
9.3465406402e-05 3.8555799207e-05 -0.00014703744192 6.6498300581e-05 1.9687059782e-05 -0.00013329535435 2.9686548716e-05 2.9915335902e-05 -0.00011286378132 
9.4321992752e-06 2.8972083378e-05 -7.9985206723e-05 -2.0034401135e-05 3.1031872706e-05 -3.388518271e-05 -5.9953184296e-05 2.6039996145e-05 -7.9512834738e-08 
-9.0457383119e-05 2.9341041595e-05 5.9031561294e-05 -7.9853488514e-05 3.6847576714e-05 6.7800696584e-05 -9.9072755265e-06 -2.0607892156e-05 2.3886229745e-05 
-0.0011082866367 -0.0040531749521 -0.0079316714222 -0.014597650071 -0.019539573281 -0.022498943157 -0.021303203875 -0.0095084077553 -0.0053606040881 
-5.0960945132e-05 -3.3947304614e-05 2.0768017862e-05 -4.2894677986e-05 9.608465038e-05 5.6076996527e-05 -7.0217747727e-05 6.2392389877e-05 3.2345244856e-05 
-5.2325612945e-05 3.2263322475e-05 1.9951464315e-05 -2.7054539763e-05 3.071103723e-05 1.5147902843e-05 -1.8552862165e-05 2.7090390621e-05 1.4081602074e-05 
-1.1187812615e-05 8.9107708318e-06 1.2727783106e-05 -4.4548681334e-06 -1.1264721139e-06 8.4641720798e-06 -1.8948112234e-06 -4.1570745803e-06 4.6924047757e-06 
-1.1334696427e-06 -7.5585569634e-06 -0.00014526048576 -0.00024706023553 -7.0236486784e-05 -0.00036230876954 -0.00043286755455 -0.00037979128352 -0.00051710042617 
-0.00057249374212 -0.00059436663779 -0.00064058542411 -0.00068748566364 -0.00075454725619 -0.00073320344301 -0.00079779014099 -0.00087909627095 -0.00096563983119 
-0.0010463020527 -0.0010907789936 0.00030823179741 -3.4498248488e-05 -0.00029086903594 -7.6673555094e-05 -0.00011960961683 -8.2319257423e-05 -9.4365173148e-05 
0.00021974896499 0.00012964136833 -0.00064773303376 -0.0005947295023 -0.00050523159059 -0.00044668194231 -0.00070021262014 -0.00032478843939 -0.00024998187825 
-0.00048205132432 -0.00011998135936 -3.5799689608e-06 -0.00020902470239 1.1969979412e-06 7.2670635133e-06 -2.8821227201e-07 -1.6708221846e-06 1.1046387919e-05 
-2.4421980296e-06 -2.7493627448e-06 1.7342883476e-05 -1.5164434856e-06 -8.2081883721e-06 2.5362068633e-05 -5.7158348518e-06 -1.8682916072e-05 2.9701371971e-05 
3.3734738886e-07 -3.044481307e-05 4.1809690364e-05 1.0579943677e-05 -4.4800872404e-05 3.8851990035e-05 1.1156393624e-05 -5.6773942018e-05 1.2602548233e-05 
5.5874905476e-05 -5.8960285832e-06 -8.9913938507e-05 0.00019824904076 0.00014847102435 -0.0020277295463 -0.007443178719 -0.01309193411 -0.017791792354 
-0.014448201797 -0.011232705032 -0.0053247922652 -0.0010512527529 -1.030769238e-05 -3.5643535803e-05 0.00078299916923 2.5992593484e-05 -7.3140556155e-05 
0.00039109933512 8.8398530322e-05 -1.746860341e-05 0.00012550098926 9.8322468684e-05 -4.0310912874e-05 -5.3017484871e-05 9.618615301e-05 -2.1598314618e-05 
-3.2782712415e-05 5.4701510176e-05 -1.0029975847e-05 -2.092519838e-05 4.8917528903e-05 2.9831417735e-05 -5.779127234e-06 3.2372135152e-05 6.2800522896e-05 
-5.0305410918e-05 3.1093365418e-05 9.4188693909e-05 -5.2697707275e-05 -1.3361604622e-05 9.972986128e-05 -0.00012318231732 -3.3108369329e-06 0.00014991467808 
-7.9371918213e-05 3.8226214683e-05 0.00014803685194 -0.00011119047259 9.4876029456e-05 0.00017150055671 -0.00026510416891 -1.1277923747e-05 0.00027991940076 
-0.00030026832342 9.8970992434e-05 0.00015337478473 -6.4418628664e-05 0.00016807087898 0.00062526877092 -0.00013947967823 -0.00033645728424 -0.00012450594016 
-0.00016010086522 6.4837639405e-06 8.9250937455e-05 4.0314067101e-05 -0.00018582215057 0.00028954626698 -0.00029364553499 -0.00013051761424 -0.00025963675886 
0.00034662737945 -0.00010412966011 -0.00010732222523 0.00035563182404 -0.00016155990959 -0.00011744911474 -0.00012329061578 -0.00013694175916 0.00027413095638 
-2.4225121767e-05 -4.4493382235e-05 0.000228638498 -1.6674661404e-05 -4.1322698627e-05 7.5703393567e-05 -5.7973856204e-05 -2.0843061662e-05 6.8782892749e-05 
-4.6418744899e-05 -7.4522496814e-06 9.9728685309e-05 -4.123325192e-05 -7.6403667503e-06 0.00011570689864 -3.5656418123e-05 -6.1533063048e-06 0.00010292664263 
-2.5752166699e-05 -2.8624534115e-05 6.8747587285e-05 -2.510909576e-05 -2.2673112136e-05 4.9446457345e-05 -4.1314400767e-05 -2.8740252586e-05 6.1406209566e-05 
-2.9881234184e-05 1.2827724522e-06 9.3919452091e-05 -7.3229114343e-05 -5.0230283563e-05 0.00018489308533 -9.2194336023e-05 -5.2411735925e-05 0.00022834744256 
-0.00012001109501 -0.00011899386664 0.00024466347639 -7.5329553571e-05 -0.0001787588458 0.0002132414984 -0.00018418686215 -5.7792166854e-05 0.000150481026 
0.00038310983829 -7.2132095389e-05 -0.00047196269217 -0.00023681193599 -7.6400571205e-05 0.00026481391627 -0.0002214542076 -0.00011461983169 0.00026491986189 
-0.00028720481034 7.7570216581e-05 0.00022305914343 -0.00010870002108 0.00024811694519 0.00012162069363 0.00033839152527 -0.00028200975116 -0.00072848190765 
-0.00070106298027 -0.00084393748402 -0.00031210887824 -0.00012271795526 -9.8915205097e-05 0.00028315912175 -0.0002179965379 -2.3221227234e-05 -0.00022053012589 
0.00021225007321 0.00016284577676 2.5887091881e-05 0.00030576562445 3.1809848825e-06 0.00034378894168 -0.00025526138988 -0.00013336630779 0.0008849742448 
-0.00032582700278 -0.00027609205035 -0.00027697140461 -0.0013248962796 -0.0015782342801 -0.00077312287574 0.00024947722574 -4.385317707e-05 -6.6287272231e-05 
1.039727459e-05 -0.00024773613602 -0.00011685244797 0.00029677506341 0.00016403591384 -0.00071774194159 -0.00076636322976 -0.0010840542956 -0.0015437325298 
0.00033637098421 5.6828735535e-05 -0.00021913082191 -0.00012849375479 -3.491369525e-05 0.0001229314214 -6.8111338943e-05 -0.015283834281 0.00015879146116 
0.00054177139129 0.00015283050667 0.0001859384864 -6.7704152662e-05 6.9603284064e-06 4.4521234861e-05 9.7372303319e-05 -5.4554978976e-05 2.1941675665e-05 
-7.5628309942e-05 -5.0528110516e-05 -0.0001086025385 0.00020071644985 -6.2089863265e-05 -7.1110676767e-05 0.00035427417149 0.00040399569454 5.9990406156e-05 
-0.00019884849208 0.0001502174539 -6.3355518362e-05 -0.00022761774383 9.0407013269e-05 3.5299422491e-05 -0.00013583790481 0.0002380890094 0.00019449699067 
-0.00063316564201 0.00029048586618 0.00012710359637 -0.00076366442246 -0.00092723870052 -0.00014354067393 3.3077948798e-06 -0.0021501239254 -0.0023377450573 
-0.0025010068041 -0.0026800922798 -0.0021727843486 -0.0028363561635 -0.0029952724294 -0.0024670281894 -0.0031620060532 -0.0032932549334 -0.0027630415669 
-0.0034158511201 -0.003511356398 -0.0030373829928 -0.0036140141876 -0.0036359196368 -0.003245559736 -0.003569519628 -0.00353571793 -0.0032631781666 
-0.0035090009821 -0.003475529632 -0.0031575698954 -0.0034482833309 -0.0034047997695 -0.0031006359646 -0.003358205701 -0.0032912403721 -0.003041519858 
-0.0032033169423 -0.0030989512017 -0.0029168910397 -0.0029823886864 -0.002841068167 -0.0027300290263 -0.0026908852008 -0.002524507842 -0.0024929285281 
-0.0023531748425 -0.0021602805715 -0.0022060455074 -0.0019544954079 -0.0017501240412 -0.0018590285251 -0.0015330624203 -0.0013333516567 -0.0014676057563 
-0.0011311360788 0.00013427039242 0.0002108941859 -0.0002422368054 -0.00012436824635 0.0002134656688 -0.00010943860132 0.00027441806435 -2.637914046e-05 
-2.1587854573e-05 0.00018263346104 6.4175523008e-06 -0.00015523408791 0.00018453770418 -2.0741208645e-05 -0.00013461877559 0.00013024297748 4.226839741e-05 
-8.8524262836e-05 3.7854105962e-05 4.4018684132e-05 -0.00010826056817 2.1237777969e-05 4.6565693785e-05 -4.7148384933e-05 3.027559038e-06 2.8422868422e-05 
-2.0795741056e-05 -6.103850731e-06 1.14149683e-05 -1.0555601053e-05 -3.4463510953e-05 4.8684997049e-06 8.4612509543e-06 -8.311094557e-05 -4.6082295551e-05 
7.3196430834e-06 -0.00012022197546 -4.2829848146e-05 9.8780285594e-05 -0.00028957932773 -3.2500439236e-05 -6.4212502816e-05 9.6287448149e-06 -6.6267892983e-05 
6.4281174443e-05 -3.0601235359e-05 -4.5770411356e-05 0.00012102398366 -1.9714529461e-05 -3.0430488322e-05 9.896392019e-05 -1.3205922478e-05 -1.6269783304e-05 
4.0146495464e-05 -2.4970918107e-06 -1.0739594762e-05 1.4618410276e-06 2.3164074457e-06 -5.0567344489e-06 9.0399113458e-06 1.9771359501e-06 -1.6404033653e-06 
2.9704460915e-06 -9.0739727475e-06 -0.00021342945928 -8.7034868128e-06 -0.00041062495922 -0.00054730375477 -0.00038060217969 -0.00068925495751 -0.00078793702082 
-0.00074776338295 -0.00090137577857 -0.00098286805398 -0.0010242387668 -0.0010574054881 -0.0011151467132 -0.001236001142 -0.00094057686826 -0.0008301388509 
-5.3565228547e-05 -0.00013520721267 -3.5680834867e-05 -0.00064178109611 -0.00052471196717 -0.00089966779556 -0.00035120550941 -0.00019744142923 -0.00052669113841 
3.3538221445e-06 3.2485242366e-06 -0.00010439446344 -1.1598139566e-05 -2.1021808592e-06 3.4130955081e-06 -2.2725590788e-05 9.9317781111e-07 1.160967256e-05 
-1.3082227652e-05 1.0175630697e-05 2.0821287526e-05 -1.8625195084e-05 5.412665113e-06 1.5688973002e-05 -2.6901546208e-05 2.3961091616e-07 2.1296412873e-05 
-5.2491194163e-05 2.1993204528e-05 4.8196355278e-05 -9.2263668983e-05 -2.7866700684e-05 4.7672787312e-05 4.8971147352e-05 -8.4662777233e-05 -0.00013082351588 
0.00023263793208 1.0455945567e-05 1.3200142153e-05 2.1398111908e-05 -3.9152614487e-05 -1.7922090165e-05 1.8117559437e-05 -3.4867243317e-05 3.4012894476e-06 
2.0088326786e-05 2.2245353809e-05 6.4725971338e-06 1.442361202e-05 4.7982623309e-05 -1.9331433429e-05 -1.736747647e-05 8.8720636893e-05 -2.4733588085e-05 
1.2171686681e-05 0.00010427872018 -6.7384203611e-05 -5.4149207955e-05 0.0001029639821 -6.3850847431e-05 -8.2158910818e-05 0.00016600013194 -0.00010176046048 
-0.00010373667576 0.00027560343264 -9.9638395406e-05 -5.6034458587e-05 0.00014743428891 -0.00015618294845 -0.000342428736 1.4274377614e-05 0.00010732505173 
-5.6983282501e-05 5.5114168461e-05 -0.00021885772207 -8.5152804953e-05 -3.5616234805e-05 -0.00017098150272 -0.00016102937422 0.00027803084946 -6.7707061215e-05 
-3.7801586306e-05 0.00022761091555 -4.8618059456e-05 -2.1081284031e-05 0.00011841007044 -9.9516072731e-05 -4.8782160662e-05 7.3183148279e-05 -8.2309566985e-05 
-3.8596863348e-05 9.477436712e-05 -8.3538662325e-05 -3.1163543055e-05 0.00014525918568 -5.4266905816e-05 -4.607313505e-05 0.00011378322844 -7.424148864e-06 
-4.1423834848e-05 3.1732863038e-05 -5.1799748415e-05 -4.7582630842e-05 0.0001448792337 -2.4487672677e-05 -3.2380779394e-05 0.00011216276251 -6.8135704704e-05 
-9.8196764569e-05 0.00020863131572 -8.0119981008e-05 -9.213838543e-05 0.00023244762596 -5.2659280893e-05 -0.0001764805604 0.00022411951056 -0.00012188023849 
6.2769106395e-05 5.2719915554e-05 -3.1911815255e-05 8.2702074401e-05 5.1934620282e-05 -0.0010817927985 -0.0010213789791 0.00038103704076 -0.00017814097675 
0.00013285329931 -0.00024571485158 2.2945741906e-05 8.9175519567e-05 0.00039877294879 -8.9359760756e-05 -6.0014487378e-05 0.00022871100553 -4.14255997e-05 
-8.2910337199e-05 -9.9226449829e-05 -0.00020371359857 -5.8032429261e-05 4.3126082246e-05 8.1016760324e-05 -2.9776397876e-05 -0.00010276720819 5.1770264991e-06 
4.9529581607e-06 -0.00012498489976 -0.0017520013811 -0.001966940384 -0.0018516564505 -0.00023089974835 -9.9807185989e-05 -2.4365499106e-05 -0.00011505355268 
0.00021285665354 6.6861412833e-05 -0.00030296356181 0.0003442779821 -0.0013115548577 -0.0015527599496 0.00011933600177 -0.0001683247134 -1.4378797142e-05 
0.00017133700659 -7.1463172969e-05 -0.00010280580004 3.0698270526e-05 1.4539993853e-05 -0.0011896372775 -4.3362008092e-05 0.00023629930595 -0.00022776038647 
9.9379501967e-05 3.9403666197e-06 -8.0012140428e-05 -0.00011364695163 0.0001884019412 5.0048964801e-05 -4.5228110005e-05 0.0001386664673 -5.3671178012e-05 
-6.5882334839e-05 7.1588005419e-05 9.3043841497e-05 -0.00014738848006 2.1432774605e-05 -6.4007749654e-05 2.8293357233e-05 -8.6310776373e-06 3.1067103513e-05 
0.00024867772498 1.9470623698e-05 -0.21507111075 -0.14794726692 5.5093160699e-05 -7.9692741312e-05 -2.8733327884e-05 0.00018715634382 -1.6257271953e-05 
-5.9212402818e-06 8.2130364642e-05 7.1584351983e-05 -1.2980195522e-05 -0.00027198832451 -0.0014984588337 1.7384168221e-05 4.5700559907e-06 -3.7186820318e-05 
-6.2251690768e-06 -5.5160433479e-06 2.8552244879e-05 5.5691953822e-05 0.00012347127916 -0.00014883109415 1.9096273302e-05 0.00015205666601 3.2511461322e-05 
8.9232090875e-05 2.8582341604e-07 -0.00012229717585 -0.0020975217868 -0.0022166295466 -0.0027040228394 -0.0028079732827 -0.002846250326 -0.0029308585781 
-0.0025148080213 -0.0028431226013 -0.2284237549 -0.15820194452 -0.0027403239192 -0.0026976906539 -0.0024264380301 -0.0026896595795 -0.0026724219262 
-0.0022943904983 -0.002678546709 -0.0026481717947 -0.0023011318717 -0.002596287589 -0.0025335901032 -0.0022838312701 -0.0024398956235 -0.0023559834876 
-0.0021617154429 -0.0022382125492 -0.0021322501376 -0.0019860702112 -0.0020111847222 -0.001884224488 -0.0017975439861 -0.0017755670957 -0.001604262554 
-0.0016177268051 -0.0013652145942 0.00015953266242 -0.00010104503619 -9.7485062127e-06 -5.7871497354e-05 -6.5457736015e-05 0.00012503880911 -1.4481634404e-05 
-3.5986283388e-05 0.000186630418 6.6528894554e-06 -2.8445700663e-05 0.00018768479691 3.1354430794e-05 -7.8597056712e-05 5.4280990259e-05 4.0294916659e-05 
-5.7260163935e-05 3.1359753129e-05 1.5641327374e-05 -3.5649131105e-05 2.8247396034e-05 2.0399583069e-05 -2.5467326221e-05 -3.3075439121e-07 9.9382023411e-06 
-1.7503349607e-05 -2.2509385631e-05 4.9217250499e-06 -1.7069136929e-06 -9.1027809801e-06 -5.6145436471e-05 -0.00013673844542 3.3241836854e-05 -0.00012156059809 
0.00018218553472 -2.2344333893e-05 -7.6077023499e-05 4.6745513671e-07 -1.6396265665e-05 9.7574226747e-06 1.2254844131e-05 9.1172352139e-06 3.9376343816e-06 
-5.3755966448e-06 -0.23716890917 -0.16994799225 -5.8777169458e-07 1.0957275542e-06 1.1017653544e-05 4.7276794529e-06 -2.6353484369e-05 -1.2785543147e-06 
-0.00036422175483 -0.00059271440694 -0.00025409215061 -0.00081653848461 -0.00098054613944 -0.00085327520812 -0.0011392311538 -0.0012771354913 -0.0012554791628 
1.3184129956e-05 -7.7003708672e-06 6.6862620072e-05 8.0022588996e-05 -8.6443096333e-05 -2.0909092286e-05 2.9481204715e-05 -3.9917056841e-05 -5.2396320108e-05 
-0.00070989493981 -0.00051442603895 -0.00027396170079 -2.1278478362e-05 -0.00046056618044 -8.0933504602e-06 -4.4182823304e-06 8.680005723e-07 -1.6645579541e-05 
-3.4540524487e-06 4.1627699755e-06 -3.0476048655e-05 -1.8526824724e-06 1.9004891414e-05 -1.7919694965e-05 1.5638336677e-06 3.8996538957e-05 1.621977344e-05 
-0.23136627376 -0.23542848484 -3.3502874983e-05 2.6084659865e-05 2.3606758851e-05 -5.4246790934e-05 -2.9099132523e-05 -2.7809438839e-05 -0.00010174934561 
-7.4892063666e-07 9.9451840749e-06 -1.1878122872e-05 5.705444036e-06 -2.8358976989e-05 -5.23667929e-06 6.2756626612e-05 -2.1325793095e-05 -2.3513266365e-05 
6.8301635992e-05 -2.9135372724e-05 -4.1089039892e-05 0.0001033223328 -6.5788945939e-05 -6.3563579685e-05 0.00013339807794 -0.0001276666357 -0.00014413397454 
0.00016239251574 -8.7343266246e-05 -0.0001938175299 0.00015595635023 -0.00013673348679 -2.8311376354e-05 2.5846473285e-05 2.7191670317e-05 -7.7434991845e-05 
-0.00014340852027 -6.4701339866e-05 -0.00010221132523 0.00028369414111 -0.0001242045491 1.3496055054e-05 0.00014127123298 -9.2266380286e-05 -8.2214845948e-06 
6.1154435808e-05 -3.5632396668e-05 -9.2293663262e-05 0.00011507498194 -4.4699145959e-05 -0.23903204473 -0.16241687352 -5.7435544668e-05 -2.1004402202e-05 
0.00014821051447 -2.4903196595e-05 -0.23642091956 -0.15793316209 -5.455994722e-05 -9.3463042636e-05 5.7954764151e-05 -8.6422961105e-05 -7.2390525234e-05 
0.00024287817146 -6.8822809799e-05 -0.00013861351475 0.00017809969083 -6.651041713e-05 -6.2374488075e-05 0.00017069071417 -6.4146698461e-05 -2.3524315638e-05 
3.901706369e-05 -2.6486907636e-05 4.7366461049e-05 -9.8248034234e-05 0.00017903499584 -0.22764060305 -0.1520083906 -0.0015544339296 -0.0017053548796 
-0.0012952694142 -0.002376998035 -0.002516558353 -0.0023120868803 -0.001995374964 8.2075604058e-05 -2.2140036207e-05 2.6417977196e-05 -8.066318878e-05 
0.00010253273104 -5.4734708543e-05 0.00020279287079 2.0177123734e-05 7.1709168515e-05 -0.0018421578721 -0.0019591009206 -0.0015238404124 -0.00011996485221 
0.00030382925429 5.367993965e-07 -0.00012495789896 0.00011869733478 -1.5921831512e-05 -6.4142588168e-06 -0.001397625366 -0.0017448950884 -0.0011305762419 
-0.00092782255012 -0.00093804263689 -0.0013424068867 -8.3888551596e-07 -3.8274281428e-05 0.00011224242477 -2.6362372254e-05 -5.45508914e-05 4.545531891e-05 
-1.4328546422e-05 3.3756759497e-05 3.0979421615e-05 4.4290730504e-05 -5.4485514314e-06 -1.4399337482e-05 6.6437003012e-05 -7.6529349319e-05 -1.9826612655e-05 
-2.6048451139e-05 1.1515434109e-05 1.892633958e-05 -0.00012496803823 -9.9255324725e-05 -0.00019136255881 0.00029934757626 9.6096963344e-05 -0.00013585148984 
-9.0713383408e-05 9.4094615024e-05 -3.5769158638e-05 -1.4042231973e-05 -0.00011800776247 -2.1036162395e-05 6.2080269426e-05 0.00015621518368 -0.14717738456 
-0.19975993121 -0.0019744813832 -0.0018374980259 -0.12317473887 -0.2262398637 -0.0018022209262 -0.0017903685178 -0.0013087075596 -0.0018037748033 
-0.0018414599257 -0.0012912688198 -0.0019427848702 -0.0019200744643 -0.0014540548778 -0.0018002244274 -0.001742366172 -0.0014665513307 -0.0016756710112 
-0.0016038105992 -0.0013228668228 -0.0015428825129 -0.0014756816028 -0.0012498017207 -0.00010956497964 6.2025233366e-05 6.5039766669e-05 -8.3218974794e-05 
-6.4373369561e-05 6.8589069593e-05 3.1076771219e-05 8.5809505091e-05 -4.3017429526e-05 -1.8369260965e-05 8.2305910235e-05 -5.9397514074e-05 -5.5490125092e-05 
5.793681673e-05 -3.6186480669e-08 -3.7861110909e-05 3.8174208273e-05 1.1663108735e-05 -1.9332851301e-05 2.326806966e-05 1.5581894154e-05 -2.4545833159e-05 
6.409758907e-07 -0.00023177073665 -4.8518782729e-05 -0.0013386010956 1.9215168591e-05 -1.4980275922e-05 -2.3524938289e-05 -2.6150801264e-06 -0.00016374847095 
1.02120021e-05 4.8053240797e-06 -1.5372390102e-05 -0.15586724134 -0.17618828916 -0.11189423226 -0.15279108325 1.0009402056e-07 -4.6012602827e-06 
9.6106601724e-06 -5.2903854998e-06 3.6943027349e-06 -8.574470605e-06 -0.00013433851265 -7.1015588837e-07 0.00012860213248 0.00013432054099 -6.9131239248e-05 
-7.2401135387e-07 8.4341289458e-07 -2.9604722306e-06 8.1115254849e-06 -3.0709366529e-05 -4.2971971381e-06 4.6314651803e-05 -3.0208189142e-06 3.8419062081e-05 
-2.7384521558e-05 3.4518666094e-05 3.180626359e-05 -5.6073269895e-05 0.00012960074434 -5.221764522e-05 -3.9175488098e-06 -3.4795723589e-05 9.2645292823e-05 
5.6690653211e-05 -0.00018069900786 -6.0452758617e-05 0.00024668566082 -6.4087722534e-05 1.8398093392e-05 -9.1655949253e-06 -7.9387543363e-06 2.5954181621e-05 
-3.868557399e-06 -1.2528317027e-05 8.9715843853e-05 -0.00016448320697 -3.4343532587e-05 0.00013928780405 -5.898037971e-05 -6.1232073463e-05 0.00021742013774 
-0.00011251706454 4.3914229394e-06 -3.9467184947e-05 -0.00018419873043 -5.9421423147e-05 0.00020337342236 -6.2567968601e-05 -5.7514518208e-05 0.00029918603508 
-0.00022242957649 -0.00012369937934 0.00022544450548 -2.0713153499e-05 -0.00010345830978 -8.8269767115e-05 0.00030076302627 1.8639892224e-05 -3.5170901469e-05 
-4.9154832141e-05 9.7011105123e-05 -0.00010048993533 -0.001434017808 -0.0015099806128 -0.0011283254774 -0.0021477842019 -0.0021614928361 -0.0015833009166 
-7.0267208735e-05 -0.00017149592379 -7.2199262771e-05 -3.6597732361e-05 0.0002759937925 6.9485751874e-05 -0.0014120394199 -2.994357511e-05 -9.0752064033e-05 
-0.0012333672977 -0.0015999143225 2.6172544172e-05 -2.2927509298e-05 -1.284223744e-05 -0.00068339871588 -0.00042790530471 -2.9344950155e-06 0.00014882206082 
0.0002456375439 -0.00016397589021 -0.00018017988197 -0.00054498259236 -1.031625398e-05 -0.00087911852008 -0.0008732127755 -2.5627640273e-05 2.0137237486e-06 
-0.0003147340989 2.1169230029e-05 -7.4153145623e-06 -4.5352499795e-06 2.0481309935e-05 -3.7900222466e-05 -0.0011859311939 8.1437920237e-05 1.1458303226e-05 
-6.6164389101e-05 -0.0001751624301 -4.1414868165e-06 1.4639875803e-05 3.0768706109e-05 -7.5680463476e-05 -0.001715562046 1.7617882203e-05 -6.4134668434e-05 
-0.00015107923716 0.00020314253555 -1.6453121734e-05 -0.00014123318276 0.00016531520648 -6.4762728108e-05 -1.8772513633e-05 -4.4642223258e-05 8.9186328109e-06 
6.693074595e-06 2.49658695e-05 -1.6445618232e-05 1.8515398428e-06 0.00013014373475 3.6903341783e-05 -8.0380152587e-05 0.0001053593707 -4.005450872e-05 
-7.8721893818e-06 -0.00095186214201 7.4505271605e-05 2.3378805996e-05 4.4046109508e-06 -0.00088468892903 -0.00096210425979 3.743015445e-05 -1.2055687559e-05 
-5.3596536381e-05 2.7641840003e-05 -1.849090166e-05 2.3405443577e-05 1.4304208437e-05 -4.3957287794e-05 1.4378636426e-06 -1.435367009e-05 -0.0019683040803 
6.8406069618e-06 -1.7168708218e-05 -4.9803444727e-05 4.2161509312e-06 8.2279009535e-05 -0.00018155699324 -0.00040197914095 -0.00082278755159 6.6922016501e-06 
-0.0015346273862 -0.00064045365206 -0.00058903799132 -0.00059206903923 -0.00063348813911 4.7858312918e-06 -0.00085554856539 -0.0010046570789 -0.00011481482067 
-0.00094043650585 -0.00092749012394 -3.8952205363e-05 -4.5617420082e-05 2.2220298392e-05 1.8022517922e-05 0.00010270622169 -5.3322989745e-05 2.454548152e-05 
8.2502391285e-06 -3.8074215456e-05 -5.144558916e-05 8.3243178957e-05 -2.3364499286e-05 -5.899200839e-05 4.545674959e-05 2.5473404558e-05 -2.7028329751e-05 
-4.9445088025e-06 -1.6137682337e-05 -0.00023237460361 -1.34235788e-05 -0.0013001084276 -0.0010616243644 -7.4651098118e-05 2.6742212702e-05 0.00025092805128 
-0.00028931852194 -0.0010787476694 3.7428645331e-05 -2.9534472585e-05 -1.4221791506e-05 -3.9820265668e-05 -8.1885071914e-05 0.00018337614161 -0.00059349008708 
-0.00021203306308 -0.00065166257746 6.446318117e-06 -0.00033966750145 9.2280303279e-05 -4.4178873363e-05 -5.789329434e-05 -4.7936126819e-05 1.3469930756e-05 
3.3076730736e-05 -7.1821267063e-05 0.00020214477893 5.7674814141e-06 4.9149378198e-06 1.4446716049e-05 -3.0541802938e-05 3.3749647605e-06 3.6580577301e-07 
2.8541187687e-05 9.4126079722e-06 7.7222229751e-06 -1.3060001752e-05 -8.9268429352e-05 -6.4715024451e-05 -3.6615901097e-05 0.00023435963283 1.0969770636e-05 
-3.9749152948e-05 -0.00020003347838 0.00013287880162 -0.00096594676733 -0.00091437055914 -0.00044028610559 -1.6309500492e-05 -1.8840255559e-05 1.9548968223e-05 
-3.0007306713e-05 7.5603510876e-05 3.6310574971e-06 0.00013417895251 -2.0374048981e-05 -0.00013485042356 -1.4193922454e-05 -6.5315080468e-05 -1.3731787556e-06 
-0.19451507869 0.00011736202398 1.0399839744e-06 -1.5641428708e-05 -0.00011263511891 1.9522442662e-05 -2.156836622e-05 -0.15811950224 7.8357781297e-05 
-2.9062937579e-05 1.7240475309e-05 1.8809247556e-06 -3.8042765756e-05 -1.592885485e-05 -0.00053489201427 -6.7238923007e-05 4.5817674929e-05 1.4203791277e-05 
-4.2129946803e-06 4.5986814464e-06 -3.4643906113e-05 -3.6052743364e-05 -0.14036878909 -0.11825590283 3.8085163885e-07 0.00015562090454 -2.6263621609e-05 
-9.3259300087e-05 3.5921666966e-05 -2.5670695422e-05 -1.9040287663e-05 -0.17959916932 -0.12780146167 -3.7632097362e-07 -0.00011100985868 -4.3847670168e-05 
-0.00046477915275 -0.00026145964223 -0.0002668622478 -0.0010136055113 -0.0007067407526 -0.00066971890174 -0.0017326311481 -0.0013236544237 -0.0012182338787 
-0.0025612187756 -0.0021075609423 -0.0019098866095 -0.0034610218232 -0.0029467889501 -0.0026794311655 -0.004351036288 -0.0038604497011 -0.0034657288804 
-0.0051684047816 -0.0047104522517 -0.0042412995227 -0.0060111719133 -0.0055450051994 -0.0049873847954 -0.0066695245914 -0.0063171269676 -0.0056829314478 
-0.0071413734722 -0.00690212744 -0.0062098193597 -0.0074551493155 -0.0073083250254 -0.0066243253498 -0.0075823850676 -0.007535207622 -0.0068739412329 
-0.0075052936393 -0.0075664386341 -0.006935601269 -0.0072566931602 -0.0074158123067 -0.0068301031341 -0.0068457097593 -0.0070951318522 -0.0065714101788 
-0.0062622660539 -0.006604540175 -0.0061721779502 -0.0055700339582 -0.005971238241 -0.0056297588962 -0.004740136413 -0.0052128148972 -0.0049785204897 
-0.003884994532 -0.0043597034702 -0.0042497829657 -0.0029924599303 -0.0034982544506 -0.0034861652539 -0.0021474518281 -0.0026058254698 -0.0027098251711 
-0.0013850123597 -0.0018116175248 -0.0019758934965 -0.00075062027577 -0.0010686863262 -0.0013038736192 -0.00028498138171 -0.00050175440348 -0.00072999383735 
-4.7638949471e-05 -0.000119225848 -0.00031717904784 -1.4941751732e-05 -6.86003693e-06 -8.1037634415e-05 -1.4220153716e-05 -0.062549801349 0.0081166624518 
-0.010726731583 0.0015081813542 0.0054871250204 -0.007791822768 0.00041075292705 0.0018347050254 -0.0017258088465 0.00022352155773 0.00066684343719 
-0.00086648057285 0.00017198407487 0.00039316045142 -0.00049234758683 9.585816835e-05 0.00023632497904 -0.00030477687718 6.4127454397e-05 0.00013145294099 
-0.00018590418731 5.3589542877e-05 7.8596490639e-05 -0.00012255729007 3.9699662717e-05 4.2843435568e-05 -9.4375732594e-05 3.1248808471e-05 3.2937299741e-05 
-0.00014215044149 3.3402683934e-05 1.4888523129e-05 -6.2145840274e-05 3.4263844986e-05 5.2019078353e-06 -4.1203306306e-05 4.166554328e-05 5.696188552e-06 
-9.0251242784e-05 5.3255051308e-05 9.0331565899e-06 -0.0001107283088 6.3772065726e-05 1.2572003986e-05 -0.00013476510388 7.0351013913e-05 2.453411282e-05 
-0.00016344255052 5.7907207566e-05 3.5256341236e-05 -0.00020074792623 3.7349329777e-05 4.5007541606e-05 -0.00018401121327 -1.9803525774e-05 4.7296284827e-05 
-0.00010844031694 -0.00021232960523 -0.00015030883254 -0.00013774911243 -0.00059801879775 -0.00051476424149 -0.00059941295005 -0.0008737485641 -0.00080650145376 
-0.0010373981813 -0.00083275643874 -0.00086772315609 -0.0011063171049 -0.00060126144831 -0.00067457699751 -0.00094232011599 -0.00022582298709 -0.00031533016622 
-0.00057253873113 4.9081611277e-05 -6.3731720711e-05 -0.00017441639641 6.1824314501e-05 1.4921738446e-05 -6.4909033575e-05 5.7409151552e-05 7.9321236161e-05 
-7.9222529675e-05 4.3669502603e-05 6.6954728363e-05 -8.531484291e-05 4.1256038583e-05 7.5024291596e-05 -7.9292860202e-05 3.0001176813e-05 6.1556337855e-05 
-6.6319717119e-05 1.9703055257e-05 4.3264802046e-05 -5.0944642659e-05 1.4031183778e-05 2.67724729e-05 -3.5011137381e-05 5.9060771469e-06 1.5737094343e-05 
-4.2755297914e-05 8.7714425218e-07 6.0659284504e-06 -3.0723073657e-05 -1.2126016952e-06 -5.2758411465e-07 -1.8723895077e-05 -6.5826209381e-06 -1.420015381e-05 
-1.6687385636e-05 -1.3573609791e-05 -2.5519627252e-05 -2.1474393328e-05 -2.3288750758e-05 -3.258803524e-05 -2.4337587936e-05 -3.2798483174e-05 -3.9108853691e-05 
-3.1541530955e-05 -4.3708342884e-05 -4.737161867e-05 -4.1453870917e-05 -4.8773591897e-05 -5.3688631008e-05 -5.3949597245e-05 -4.9371365028e-05 -5.4661336897e-05 
-6.3099018367e-05 0.044118096223 -3.8490302202e-05 -4.5404031163e-05 -4.3005794937e-05 -3.130984967e-05 -4.0403122719e-05 -6.0413074857e-05 -3.3212276152e-05 
-3.5930508888e-05 -4.0353896208e-05 -3.218794826e-05 -3.0995593161e-05 -3.5841364128e-05 -2.8851278778e-05 -2.6057097683e-05 -3.1452481899e-05 -2.6362048665e-05 
-1.8098485594e-05 -2.7111800656e-05 -2.4545967178e-05 -1.372129359e-05 -2.277393749e-05 -1.7023208819e-05 -7.3475635073e-06 -1.7907621235e-05 -9.1425659515e-06 
1.9238431427e-06 -1.5056936359e-05 -2.207240853e-06 1.47513463e-05 -5.8978225211e-06 2.228604371e-05 1.305962958e-05 -2.0793602671e-05 1.8865559633e-05 
2.4294271013e-05 -3.108624094e-05 4.473436264e-05 3.3583756526e-05 -6.4827695752e-05 7.4443778249e-05 4.9752840021e-05 -8.356426575e-05 5.5761580405e-05 
6.6626553724e-05 -8.0409290392e-05 9.4637696111e-05 3.0638790135e-05 -0.00013942630095 0.00011930561652 6.5658823242e-05 -0.00016654540942 7.9930188054e-05 
9.2209849717e-05 -0.00011785713462 1.836429516e-05 9.2954789385e-05 -0.00011093192693 -0.00014512560515 -8.6073665329e-05 -0.00012660817926 -0.000457019039 
-0.00041388671664 -0.00050722193712 -0.00072009180919 -0.00080436398667 -0.00084356299765 -0.00077227098932 -0.00086705596734 -0.00092195482378 -0.00035007777676 
-0.00061863109713 -0.00090527109308 -0.00019400059177 -0.00026780828767 -0.00070915030619 -3.8441550667e-05 -8.6739019131e-05 -0.00010885391606 1.9530753371e-05 
0.00010948027071 -5.9977832518e-05 -7.8729705786e-06 9.2710029134e-05 -8.8073546171e-05 -3.081060927e-05 0.00011733300027 -6.8569076283e-05 2.7779219829e-05 
9.2107241773e-05 -9.9786070495e-05 9.2831782243e-06 5.3803615242e-05 -4.1664455241e-05 1.3228160854e-05 3.2572697974e-05 -3.7319650848e-05 1.259806318e-05 
4.4152289063e-05 -3.2535458159e-05 2.6215258142e-05 2.7733563013e-05 -4.5946029155e-05 -3.3892320889e-05 2.8169646648e-05 -7.1526836694e-05 -1.212516272e-05 
5.0572547462e-05 -7.9433371233e-05 9.2086575269e-05 8.7727178332e-05 -0.00010337601927 5.3416207121e-05 0.00015004991755 -0.00018639848577 7.7342488813e-05 
6.655798752e-05 -0.00018444420882 0.00015767025741 0.0001912830164 -0.00021559905372 0.0002902327122 0.00018265469606 -0.0003302856059 0.00072612023162 
0.00029625069888 -0.0005083958354 0.0019974011609 0.00029443919162 -0.00072140412051 -0.0021723152144 0.0036114037124 -0.004250703042 0.006569055445 
0.00077617866723 0.0093870675449 0.0013461111322 0.011478748674 -0.014769472885 0.0018733628808 0.0095417592933 -0.010969312884 -0.0024211227693 
0.0090246868455 -0.0085029061961 0.013460398935 0.018755842163 -0.0060417838171 0.017900991923 0.020361627986 -0.0084868829279 0.015379281896 
0.018734905401 -0.01239253735 0.015691043304 0.015255463143 -0.010941909312 0.013429860124 0.013182697949 -0.01187012291 0.0098296466756 
0.011699699511 -0.011781819119 0.012229128564 0.011493663384 -0.010570681483 0.013339349591 0.0143598446 -0.011619339525 0.011892190935 
0.012761319523 -0.010730998145 0.013168009953 0.014235049941 -0.010332033638 0.012995803032 0.013052914626 -0.0096747799593 0.013650334537 
0.014513414947 -0.01046168205 0.012444808874 0.013353634351 -0.010599944338 0.013316065966 0.012086403592 -0.010530322784 0.011274816711 
0.012294812797 -0.011232110735 0.014506598186 0.013568404225 -0.01014588653 0.014785003974 0.012812417183 -0.010393005246 0.015275682571 
0.013617783333 -0.011230565747 0.017650863847 0.01416974161 -0.011782817532 0.016550031682 0.01528953019 -0.013648886021 0.017216186778 
0.014416312386 -0.011799956301 0.028029443256 0.024253876174 -0.0093219254364 -0.04954108512 0.015717565213 0.0014533300497 0.012718341975 
0.010770770292 -0.0082594689664 0.012794207096 0.012051310799 -0.0056455030478 0.010395352247 0.010625687201 -0.005265429192 0.0092663212869 
0.010290346314 -0.0078726615314 0.011734821071 0.014125908673 -0.0077418454804 0.013139953149 0.015825688649 -0.0087681781597 0.011283284027 
0.0087932283649 -0.0095865248274 0.0082215819549 0.0099278905401 -0.0096687589291 0.0082675860478 0.01117861904 -0.0095550110917 0.0080699334788 
0.0099815409541 -0.010019955754 0.0079890929327 0.009163739685 -0.010888032768 -0.0079530865067 -0.0018232209252 -0.0024113661309 0.0044822092406 
-0.00036258117384 -0.0047596283204 -0.13435253923 -0.12473509996 0.017298207639 -0.00036019141981 0.0044776525081 0.0070318549625 -0.044767179926 
0.012316823718 0.01295989987 -0.047014203434 0.0080333006682 0.013941134342 -0.047994499859 0.016147216603 0.012256491938 -0.0091240262127 
0.013923842477 0.013842717926 -0.0059606424413 0.015965512058 0.0085038990482 -0.0069081847794 0.0097893369992 0.010400833648 -0.010322729798 
0.0082446628533 0.0097722241472 -0.0097187598501 0.010936723494 0.010907041542 -0.010236026105 0.0092737273312 0.011437472649 -0.0097649612612 
0.0086751999024 0.0096442492931 -0.0098946011078 0.0034338421875 0.010706604827 -0.0086356896546 -0.00076505640398 0.022100510159 -0.0083565486378 
-0.1233650696 -0.11327261495 -5.2505700235e-05 -0.067480329283 -0.037589759538 -0.0027774516739 -3.6447102588e-05 -3.580976886e-05 -5.3093207585e-05 
-0.01115766758 -0.0087230066685 -0.010662351996 -0.012381187004 -0.008634044945 -0.027360123923 -0.053963543992 -0.054617020674 -0.009125210039 
-0.025733951474 -0.054843620945 -0.00012802754575 -0.00084956105091 -0.00061257481771 -0.00042671482142 -0.00024879923379 -0.0001924351387 -0.00050875847772 
-0.0020736912381 -0.0017077557458 -0.0027627469114 -0.0023869229856 -0.0021331701761 -0.003460537799 -0.0030598313876 -0.0027531428637 -0.0041275534694 
-0.0037602077197 -0.0033739403929 -0.0047582921788 -0.0043952484721 -0.0039725610656 -0.0053157851261 -0.0050204869959 -0.00451495462 -0.0057302959985 
-0.0055110538447 -0.0049703281884 -0.0060220383 -0.0058540927583 -0.0052916510588 -0.0061942061198 -0.006117898125 -0.0055105984115 -0.0062369667648 
-0.006249573796 -0.0056657074667 -0.0061077422721 -0.0061952242451 -0.0056811324906 -0.0058490795642 -0.0060066523996 -0.0055368206267 -0.0054693576027 
-0.0057013531636 -0.0052860652126 -0.0049739467085 -0.0052586276944 -0.0049256095333 -0.0043854374554 -0.0047288009789 -0.0044688386485 -0.0037486198979 
-0.0041120473804 -0.0039432804947 -0.0030858890206 -0.003454593781 -0.0033659820601 -0.0023977919453 -0.0027770088332 -0.0027622503209 -0.0017787333055 
-0.0021233575915 -0.0021700966758 -0.0011886908311 -0.0015009208673 -0.0015946252947 -0.00068816858695 -0.00094139124465 -0.0010557236077 -0.00031676279563 
-0.00049223539604 -0.00060067481859 -2.7200201367e-05 0.00099518682671 -0.00017108879928 -0.00018566631381 -0.0048736535286 -0.012434985306 -0.00030076332977 
0.0026253718615 -0.00098061064581 -0.0027908589086 -0.0051848216931 -0.0022245592556 -0.0017850829614 -1.9406975992e-05 0.00064725597335 -0.00051189698362 
6.4450215359e-05 0.00042728232324 -0.00033711652824 7.3109183399e-05 0.0002639792756 -0.00022099775853 6.1334800822e-05 0.00014684354522 -0.00017951967582 
6.0116754132e-05 8.2353406877e-05 -0.0002565083181 6.6122855946e-05 7.0781492229e-05 -0.00022957631667 6.6481245654e-05 8.2652454507e-05 -0.00014924535829 
4.9553903505e-05 1.4269782094e-05 -6.7988248672e-05 4.63506547e-05 -1.8927455829e-06 -0.00010417495355 5.8678769143e-05 1.966818497e-05 -8.1473067077e-05 
6.4794158025e-05 2.0736205248e-05 -7.786289995e-05 7.3473003139e-05 2.4937668845e-05 -7.8647882187e-05 7.2876300163e-05 3.258197186e-05 -9.6400085907e-05 
0.00010233561775 2.9284656238e-05 -0.00014745765672 6.8293401942e-06 8.8252071671e-05 -0.0001609826765 -0.00039338960059 7.9695375796e-05 -4.6856501381e-05 
-0.0024766162566 -0.0014249102756 -0.0014480773584 -0.004047957204 -0.0033288227105 -0.0042396456053 -0.0043536426266 -0.0044018685177 -0.0058285262261 
-0.0035451232497 -0.0041359093353 -0.0061886544663 -0.0018317940499 -0.0027659307158 -0.0047317147951 -7.2299518263e-05 -0.00081347123067 -0.0019578154687 
7.3464881865e-05 -2.7464183096e-05 -3.2944707432e-05 3.773443357e-06 0.00011172054216 -2.5844314363e-05 1.332909382e-05 9.96210531e-05 -2.1043224142e-05 
-5.8151904269e-06 8.6702156988e-05 -1.2071102524e-05 -4.508190023e-06 7.7207510659e-05 -3.1238885336e-05 2.2211412247e-06 5.6353095303e-05 -2.9680466154e-05 
1.5847883126e-06 3.3271114296e-05 -3.3954527077e-05 5.3972458034e-06 2.3945247594e-05 -3.3271870313e-05 4.7551983021e-06 2.366096149e-05 -2.477139185e-05 
8.1497912979e-06 1.0071415543e-05 -1.8303632178e-05 -2.4550546961e-05 -1.5087250613e-05 -1.1621937732e-05 -7.7685752472e-05 -8.1940456568e-05 -8.1450748223e-05 
-0.00013210668245 -0.00013148781938 -0.00016077270035 -0.00016439183605 -0.00016583915571 -0.00022153103475 -0.00020520061474 -0.00020004931699 -0.00027198319267 
-0.00023709343445 -0.00023489111904 -0.00033246120638 -0.00024339880302 -0.00024983133059 -0.0003753890386 0.0078369883243 -0.012110716404 0.0020327408806 
-0.0027548552844 -0.00023487114657 -0.00017823819847 -0.00017497751822 -0.00025204442637 -0.00016747811659 -0.00016517938658 -0.00025004590872 -0.00015004170436 
-0.00014035237044 -0.00022754446899 -0.00012886391241 -0.00012124165476 -0.00019847761266 -0.00010746771396 -9.0709421661e-05 -0.00016661471231 -7.2226793005e-05 
-5.8762216134e-05 -0.00012490392801 -1.9707606569e-05 -1.7748197407e-05 -5.9594436783e-05 6.8549520821e-06 9.7931170103e-06 -1.7284212507e-06 2.1011863183e-05 
9.7394032118e-06 -1.1793043423e-05 3.7177038507e-05 1.2953488916e-05 -1.9319834292e-05 5.8623924581e-05 1.2632032619e-05 -3.3953706388e-05 7.6892779355e-05 
1.2074670777e-05 -5.1522108657e-05 5.5755384956e-05 3.5938138969e-05 -7.9354980004e-05 9.4835757747e-05 -9.5050419221e-06 -0.00013132708234 0.00010741872397 
-6.664153057e-06 -0.00014410124293 7.4382842492e-05 1.2496768421e-05 -0.0001857892448 6.9347279151e-07 1.408608601e-05 -0.00015770354178 -0.00043084074075 
1.0429329101e-06 -5.1617575082e-05 -0.0020205494311 -0.0011832897653 -0.0013683988 -0.0034681997592 -0.0028458674495 -0.0036359561307 -0.0036381290741 
-0.0037482737888 -0.0049001536696 -0.0025838168892 -0.0033707916815 -0.0048872434998 -0.0011407388566 -0.0020819305312 -0.0034729745863 -3.300921206e-05 
-0.00034429080628 -0.001258154562 1.0511017389e-05 1.3869874798e-05 -6.3848226893e-05 -9.3392862072e-06 0.00011023704311 -3.9396067609e-05 -1.2358002102e-05 
0.00014966627547 -5.6516518324e-05 -3.1236348419e-05 0.00012053236729 -3.8817695314e-05 -4.0562108285e-05 8.6861939544e-05 -6.7257808011e-05 -1.4047976789e-05 
6.6239949989e-05 -5.8982475822e-05 6.1236358998e-06 6.9275517011e-05 -8.8068798389e-05 -2.8351212963e-05 4.6177160812e-05 -6.4925910342e-05 -2.4227320632e-05 
5.728320518e-05 -9.0885780141e-05 6.1608054305e-05 2.6083355917e-05 -0.00011992628362 7.7025919421e-05 0.00011212495665 -0.00015803978994 0.00017607570729 
0.00015566496655 -0.00016826270826 0.00014786271329 0.00021735880015 -0.00044729914851 0.00031978808963 8.5788622355e-05 -0.00053954910983 0.00060926737784 
0.00023300634441 -0.00071744599578 0.0011874743168 0.00027228217651 -0.00095148717159 0.0019844164412 0.00010166620346 -0.0017178363033 0.0054059490627 
-0.0025411960903 -0.0030811233633 -0.002700443456 -0.0024296356587 0.0003239793671 -0.0027585991115 -0.0022659700534 -0.002738060933 -0.0020687384448 
0.00065593281086 -0.0040386817504 -0.0021902890727 -0.0021548294244 0.0009851507507 -0.00088932695916 -0.0024135030475 0.0016746504394 -0.0016221979264 
-0.0039988654942 0.001184329906 -0.0026384836166 -0.0035589157494 0.00079573303245 -0.002761893065 -0.0034596495574 0.00046829619697 -0.0023893423683 
-0.0034603604249 0.00040625171138 -0.0022182207322 -0.0032310299426 0.00037628590031 -0.00204752 -0.0043099280144 0.00035399656005 -0.0021173342858 
-0.0036108200058 0.00037749464948 -0.0021573626724 -0.003663357384 0.0003453544701 -0.002092844694 -0.0028775289882 0.00036413654514 -0.0023829032958 
-0.0029739911952 0.00045515571087 -0.0026841391557 -0.0023969496707 0.00038832969362 -0.0025591310193 -0.0028169720735 0.00029604996795 -0.0025094261316 
-0.0031789199254 0.00035608399312 -0.0026370638941 -0.003133529026 0.00035636811214 -0.0027305356771 -0.0029082613321 0.00038491400924 -0.003206045317 
-0.0030190556227 0.00044482085722 -0.0041618289374 -0.0020562929644 0.00063304836218 -0.0052184329532 -0.0022178771086 0.00062257249802 -0.0040548190513 
-0.0031170498241 0.00095352193556 -0.054599999385 -0.015086610024 -0.0018376781354 -0.0036276708545 6.0939651738e-05 -0.023125902633 -0.059088148915 
-0.0020186227521 -0.0035603497465 0.0015284444546 -0.0012646690655 -0.0031058721613 0.0019449120659 -0.0013707951465 -0.002308019029 0.0012076902959 
-0.0022280806468 -0.00186128926 0.00056619292125 -0.0022167746237 -0.0026268896885 0.00041687472229 -0.0023310686634 -0.0030649727761 0.00044069348 
-0.0018413051293 -0.0033493391093 0.00065174122146 -0.0024476748332 -0.0029835378128 0.00043170476092 -0.0024712495711 -0.0043179474446 0.00059387960406 
-0.0025400877505 -0.0055225908277 0.00076565498357 -0.0017115663449 -0.00061859052986 0.0010266549806 -0.00090694831691 -0.0023354382983 -0.00011453243169 
0.00037702353947 -0.00188145155 0.0023899793449 -0.027314799444 -0.050552829275 -0.0089078980326 -0.0129923906 0.0010709680332 -0.0083648002705 
-0.0055054739657 0.00027303891419 -0.0014181026605 -0.0016226399077 0.00047028535712 -0.0025047650256 -0.00081758760786 0.0011492776526 -0.0022465849413 
-0.00088413503429 0.0013138798379 -0.004159948568 -0.0013853275521 0.00094922927218 -0.0025776876755 -0.0016083503342 0.00051330622398 -0.003783900905 
-0.0016122857245 0.00046811721432 -0.0028561548887 -0.0018016760702 0.00060388446247 -0.0037133876872 -0.0018041373593 0.00065721475995 -0.0020646460291 
-0.0027557106341 0.00087909332585 -0.0016560436002 -0.0028239958782 0.0012146832054 -0.077819075799 -0.04582402178 -0.0014061319818 -0.0011064211478 
-0.00095332199411 -0.001509707169 -0.00015203492874 -0.00035578024383 -0.000236797476 -0.00019646140512 0.00033331585829 -0.00029145693176 -0.0012822536199 
-0.00036251965889 -0.0044064120894 -0.00047647083646 -0.038571804164 -0.0085792833491 -0.017706688918 -0.0050746565892 -0.035406286524 0.0020103457712 
0.0010602223284 -0.0013593838006 -0.016027693228 -0.0043833574654 0.00060646084568 -0.052449430936 -0.028962029359 -0.027255021325 -0.00014571932638 
0.00069357685665 -0.0055716706313 -0.018378586992 -0.00017118085241 -0.0032782683335 -0.002963629909 -0.002161467949 -0.0018545560845 -0.0037926468151 
-0.0035223381684 -0.0031453840056 -0.0042566416536 -0.0040138490112 -0.003616114003 -0.0045959408164 -0.0044118045287 -0.0039929629905 -0.0048329624758 
-0.0047207934216 -0.0042578645516 -0.0050130667026 -0.0049210115088 -0.0044622495797 -0.0051144856436 -0.0050580481645 -0.004597821004 -0.0050801232165 
-0.0051229480805 -0.0046520212431 -0.0049375289912 -0.0050331515182 -0.0046127900827 -0.0046976589596 -0.0048384821239 -0.004467398317 -0.0043606678789 
-0.0045575476732 -0.0042308057849 -0.0039598598603 -0.0041909057585 -0.0039264455684 -0.0034833867612 -0.0037404902168 -0.0035468693144 -0.0029628527985 
-0.0032430010131 -0.0031015859982 -0.0024422439815 -0.0027284521966 -0.0026429913141 -0.0019105132948 -0.0021832574419 -0.0021647917138 -0.0013809278788 
-0.0016627700441 -0.0016638229547 -0.00090130319949 -0.0011494043869 -0.0011803418532 -0.0004946207852 -0.00070451032586 -0.00074728074228 -0.00040510771605 
-0.0004579110041 0.00010600877679 -0.010905413312 -0.00077337284481 -0.00015612736754 0.00056257836802 -0.00011902533868 0.0014366930215 -8.0584637208e-05 
-0.00029357020112 0.00072589786454 -0.00022271972562 -0.00064948727262 0.00089795960654 -0.002994385991 1.9944831799e-05 0.00026451548239 5.4031428013e-05 
0.0002145030762 -0.00029089544356 4.7959876953e-05 0.00021867794748 -0.0002573547868 5.7684966278e-05 0.00014719293782 -0.00017059945554 4.0704277089e-05 
9.6768361906e-05 -0.00013973493877 4.0362127844e-05 1.8192272336e-05 -9.116006037e-05 4.0850281788e-05 2.8608176554e-05 -7.911940641e-05 4.4647520123e-05 
1.1297538732e-05 -4.9214796922e-05 4.6443017357e-05 -1.6205538687e-05 -2.3327867857e-05 5.1382852337e-05 -3.377013499e-05 1.2879317357e-05 5.5146590825e-05 
-3.3013542385e-05 2.6051747673e-05 1.6836345621e-05 -3.4000030928e-06 -9.3222451661e-05 -4.5987358698e-05 0.00019459891305 -0.0001825116508 -0.0027272799352 
-0.00063303245023 0.00012755499877 -0.011836108232 -0.010632412108 -0.0072146113594 -0.0098077137098 8.7817981572e-05 -0.00012869153947 -1.1489593681e-05 
3.1973715005e-05 3.9592592468e-05 -2.6069400725e-05 5.4407535292e-05 7.5491770884e-05 -4.9429825637e-05 3.6091969169e-05 5.6049505767e-05 -4.1869385794e-05 
7.273108504e-05 -2.8273810354e-06 -2.4211331817e-05 5.2828830009e-05 1.0062090679e-05 -7.8538660192e-06 3.7082652994e-05 2.2742836662e-06 -4.7311956777e-06 
3.2589209114e-05 -7.3104054044e-06 -1.3765246682e-06 2.2770787666e-05 -1.2314025703e-05 -1.2467276324e-06 1.2595364512e-05 -1.208034184e-05 -7.0256550338e-06 
5.0791196774e-06 -1.1488585418e-05 -0.00016232507148 -0.00010535665845 -6.9079658663e-05 -0.00028511108055 -0.0002426847222 -0.00026723461545 -0.0003804342369 
-0.00035441363926 -0.00042097594609 -0.00046804163495 -0.00043831891222 -0.00054644180647 -0.00055471111794 -0.00051945420208 -0.00066757802419 -0.00062326086499 
-0.00061263235465 -0.00078874840844 -0.031090458981 -0.03773914796 -0.00053808314848 0.00011518519227 7.4696666154e-05 -0.000386575496 -0.00039666856268 
-0.00056724607088 -0.00034177483774 -0.00034744727694 -0.00050097235315 -0.00027672494332 -0.00028629643161 -0.00042598775676 -0.00019256991596 -0.00020629307236 
-0.00032801436946 -7.2229242639e-05 -0.00011766696915 -0.00019203025314 7.2453373093e-06 2.8279177309e-06 -1.8430286971e-05 1.7272577716e-05 3.3890122974e-06 
-4.0619512107e-06 2.8978228111e-05 4.2333283436e-06 -1.9859306285e-06 4.2304514479e-05 -1.5776882855e-06 -6.8497625959e-06 5.7126308567e-05 -7.1132791121e-06 
-1.3218527872e-05 7.7930578335e-05 -1.3815782484e-05 -1.2907357711e-05 0.00010794262529 -2.3156869845e-05 -1.4180973892e-05 8.9395263531e-05 -2.7261289844e-05 
-9.9897591599e-06 8.9845558769e-05 -4.2018328304e-05 -5.9776282717e-05 3.6646586421e-05 3.4800561842e-06 -0.00011598377228 -7.5002859926e-05 5.1169332725e-05 
-6.5104180185e-05 -0.0028027735346 -0.0010359427987 -0.00076805695779 -0.0075478203975 -0.0053907650142 -0.0055112386916 -0.0095256867218 -0.0090390600908 
-0.01066993959 -0.0077583510016 -0.0087744029509 -0.012348361535 -0.0046906986919 -0.0069409728268 -0.009821867869 -0.00040262389892 -0.0018974026197 
-0.0049004263637 5.3153417179e-05 0.00010050909698 0.00023044541699 4.7425102801e-06 0.00011596941933 -2.1269358751e-05 -2.8827947037e-05 0.0001109841111 
-1.525896929e-05 -4.528552927e-05 0.00010654233872 -3.617828533e-05 -4.8676760491e-05 9.5124834448e-05 -4.0060801277e-05 -1.2724445347e-05 8.026986231e-05 
-4.3874429323e-05 -2.3838531359e-05 8.2236705745e-05 -5.05875372e-05 -1.85653204e-05 6.6644728331e-05 -9.9528591875e-05 4.7665135505e-05 2.5566085633e-05 
-0.00012195865115 9.6881309768e-05 6.9520254491e-05 -0.00013332946978 9.8018038098e-05 3.2184831924e-05 -9.3034098758e-05 0.00013848021383 4.3111111621e-05 
-0.0001167386109 0.00017569990031 0.00012679590364 -0.00034585610064 0.00024229641135 0.0002107354259 -0.0004208725268 0.00049213136698 -1.5342298022e-05 
-0.00066996409689 0.00050011046036 -2.2231250929e-05 -0.00066876757448 0.00079612276953 -0.00045849542041 -0.00033153333537 -0.0010215125626 -9.4935210836e-05 
-0.0006559117784 -0.00043819899403 -0.0002331486539 -0.00014621443235 -0.00017870533879 0.00040097869124 -0.00034443427558 0.00010274395884 -0.0043093399497 
-0.017494778082 0.00012254385998 -6.8648089569e-05 -0.00022394542414 -0.0027257340732 -0.0024275220157 -0.0021368099099 -0.00264109869 -3.233436788e-05 
-0.00012495865427 0.00023560961943 -0.0001162629751 -6.8807413368e-05 0.00012983818415 -3.0559795035e-05 -0.0001993690657 0.00012565572514 5.7232803132e-06 
-5.5969544817e-05 7.8042322417e-05 -2.8439060422e-05 -6.1350016273e-05 6.1991001125e-05 0.0001357049727 -0.00016185255232 5.2963485645e-05 0.00012680650515 
-0.00021005816741 0.00012516326267 0.00012766794742 -0.00019483669131 0.00011354754184 0.00013347538406 -0.00012556400629 9.613024494e-05 9.0152510023e-05 
-7.9211361472e-05 5.8528750487e-05 2.9327762594e-06 1.7772788135e-05 5.8048734727e-05 -8.885913707e-06 2.446495413e-05 6.5353691308e-05 6.050955741e-05 
-0.0001080132865 8.3058531507e-05 1.2626448786e-05 -0.00011704039578 0.00015464131695 5.4495509828e-05 -8.6573020721e-05 0.00021609344984 -7.3945263235e-05 
-0.00011104130554 0.00024436881935 -0.00056542639393 1.8059970472e-05 0.00017840522775 -0.00038611261144 -0.00016587462564 0.00041133417132 -0.00015726757725 
-0.00031819837553 0.00055593754437 0.0011263554696 -2.914030309e-05 0.0003104294425 -0.0002285442852 -0.00023902122387 -0.0001626653188 -0.00017458570539 
-2.8892629845e-05 0.00029343617499 -6.03074499e-05 -2.5465014572e-05 0.00032049052967 -5.7003604985e-05 4.1025610434e-05 0.00026438427937 1.4729633278e-06 
-0.00012958094348 0.00012574335712 -8.4204920206e-06 -0.0001112928913 0.00021824472774 -0.00014144448157 -0.00016713228575 0.00020457037943 -0.00012137573802 
-4.6120671264e-05 0.00025397586974 -0.00022603680288 -0.00018357586605 0.00028707011199 -0.00010315692561 -0.00036683338927 0.00022426198685 -0.00042303796802 
-0.00041987476401 -0.00054842170836 -0.0019764166354 -0.00015378588286 -0.00048839285869 -3.8345436963e-05 0.00019285907558 -0.0001787729407 -7.0232793211e-06 
0.00029360944824 -0.00020084929602 3.8145892171e-05 0.00027741800602 -0.00015446930459 -6.4776993507e-06 0.00023061676022 -0.00010946018776 -9.5056445067e-05 
0.00017377336711 -5.2015242398e-05 -0.00017701496815 0.00022852993231 -0.00011868188392 -4.0736242461e-05 0.00027704870903 -5.433613552e-05 -0.00012048125731 
0.00019059474091 0.00020759383484 -0.00048302336439 0.00022787785928 0.00067592386524 -0.00059905698523 -0.00019143726059 0.00013970321434 -0.0002439732679 
0.00011303845497 8.9673250477e-05 0.00010428442045 -0.001879724614 -0.0012907660444 0.00075532217461 8.1286418531e-06 -0.00080451567929 -0.00012175682194 
-0.00042545404964 -0.0016353201275 -0.0016224836376 -0.0013284756513 -0.00041367995422 -0.018122961188 -0.0068740833802 -9.1039400565e-05 0.00047341521732 
4.3127078398e-05 -0.00019033640101 -0.00016584622276 -0.01215743649 -0.0085033426169 -0.0058084305962 -0.0060653325474 -0.010462007044 -0.011193520197 
-0.0017697291537 -0.0037777974973 -0.016166943409 -0.023041396578 -0.024638179632 -0.0077003496197 -0.0005603753258 0.0003930053784 0.00024608489112 
-0.00033265445816 0.00020550272774 0.00019367556742 1.6424463872e-05 -0.00016285871088 -0.015458475537 -0.0074722614791 -0.00043235151503 -0.022563066487 
7.7265213042e-05 -0.0010470602233 -0.0014775461096 -0.017208743351 -0.0089269213692 1.3632976324e-06 0.00022491673404 -0.00020288177247 0.00048167137361 
-0.00032572573326 -2.7595316407e-05 -0.00075081727029 -0.00032484438049 -0.0005652212676 -0.00029619460002 0.00044392513892 -0.0029891779389 -0.0027478267974 
-0.0038561360128 -0.0037512504456 -0.0040176052796 -0.0039451927716 -0.003516357084 -0.0041291582937 -0.0040928225665 -0.0036597758751 -0.0041684674513 
-0.0041621553787 -0.0037542896952 -0.0041135491646 -0.0041584288281 -0.003775148475 -0.0039602419154 -0.0040494762634 -0.0037027447297 -0.0037310327632 
-0.003856787656 -0.0035409511567 -0.0034591475091 -0.0036073371474 -0.003326617473 -0.0031072070035 -0.0032976027242 -0.0030592566692 -0.0027107417295 
-0.0029195768243 -0.0027350491201 -0.0023041272878 -0.0025102887273 -0.0023770152997 -0.0018683783743 -0.0020958447002 -0.0019980869394 -0.0014060587753 
-0.0016388653324 -0.0015885697552 -0.00095759669187 -0.0011852370583 -0.0011596523469 -0.00076831467822 -8.0081395481e-05 -0.0028776140686 -0.0011225313093 
-0.0001119085382 0.00027643574537 -0.00029281415678 0.00014092959272 -2.7493335517e-05 0.00020704505994 -0.00025760592871 -0.00030172348251 0.00031565813301 
-0.00013527857871 -0.033129276821 -0.020596196053 3.7735398087e-05 0.00027667905619 1.6860087078e-05 0.00028443227362 -0.00012017646119 -0.00023217909741 
3.9901896737e-05 4.1758189958e-05 -8.3260047316e-06 -0.1972954072 -0.14188151087 1.9757381691e-05 5.3182945132e-05 -7.2432164741e-05 2.1019621515e-05 
3.3544931766e-05 -3.8738021406e-05 1.7853988473e-05 -1.5354327178e-05 -1.190959056e-05 4.2126452452e-06 -7.0330650355e-05 2.1312032924e-05 -1.3807947765e-05 
-0.00012068739304 5.3708348292e-05 1.0372229818e-05 -2.9031567676e-05 0.00012179508213 -0.013436983634 -1.0906930465e-05 4.5707137834e-05 -1.9227095748e-05 
-0.011088371372 -0.016088135005 2.5283620312e-05 -0.00031897660955 -6.2713027495e-05 6.0170415149e-06 -3.485036819e-05 3.136561907e-05 5.1402781845e-05 
-2.3287420382e-05 1.3230794242e-05 4.1311219996e-05 -1.2939679423e-05 1.0410407525e-05 2.4553870521e-05 -6.9814825579e-06 8.389055419e-06 5.7403253331e-06 
-4.9146934614e-06 7.3202843197e-06 -8.1679123256e-07 -2.4196660545e-06 3.8404970877e-06 -5.2775042649e-06 -0.0001705600399 -3.9209185065e-05 -8.6601546944e-06 
-0.00041171214623 -0.00031571222404 -0.00030260427867 -0.0006033936179 -0.0005280244298 -0.00058541720122 -0.0007711419991 -0.00070684360671 -0.00081526855205 
-0.00092881320812 -0.00085746328267 -0.0010236470038 -0.0010720827588 -0.00099462512252 -0.0013360652537 -0.023229542788 -0.00032450696511 -6.5553681068e-05 
-8.4046631589e-05 0.00030846387313 -0.003747336194 0.00079507915595 -0.00039758424833 -0.00056214649126 -0.00060912419422 -0.00042066403606 -0.00046680576182 
-0.00065476129899 -0.00023103895805 -0.00031174360096 -0.00045213536565 5.5405617148e-06 -9.4606132201e-05 -0.00019430505952 -1.0149527803e-06 -8.2076839233e-07 
4.165932708e-07 3.1082906997e-06 -7.2947312278e-06 2.8085928213e-06 2.2464843936e-05 -1.1973255622e-05 1.2189197685e-05 2.2629233662e-05 -1.3842311658e-05 
8.6278766165e-06 3.0738472047e-05 -2.1319277504e-05 1.4108136684e-05 5.2221860682e-05 -3.6715349033e-05 3.7958858914e-05 1.4548414075e-05 -5.7165347544e-05 
2.7799041245e-05 7.6180533714e-05 -2.2125794215e-05 5.095029645e-05 4.2972137854e-05 6.816016422e-05 3.1724623556e-06 -0.019120922394 -0.015282621813 
-0.018407482395 -0.00072968548936 -0.0042278030022 -4.2584944267e-05 -0.00011013516408 -3.5310448433e-05 3.2835167518e-05 2.3535134657e-05 -5.0846289642e-05 
6.0456932014e-05 -1.872638441e-05 -4.2930014604e-05 7.1305273997e-05 -1.3453669574e-05 -3.7416237374e-05 5.7487203737e-05 -2.0393036277e-07 -1.5297238943e-05 
5.0342744906e-05 -1.9302083464e-05 2.0913944609e-05 3.3700859904e-05 -2.5119181871e-05 5.7502146765e-05 4.0438957443e-05 -9.8692714769e-05 0.0001188691845 
3.8668783578e-05 -0.00013041006064 0.00012961716837 -9.2179961204e-06 -9.468749148e-05 0.00016167051536 -2.2010488798e-05 -7.2774437185e-05 0.00019739425769 
1.2511124754e-05 -0.00012265835449 0.0002443306762 -2.2108987524e-05 -0.00018327135021 0.00046360095468 8.6357965524e-05 -0.00017830321543 -0.00011656039214 
-0.00020132429428 -8.7053711669e-05 -7.6132172723e-05 0.00034518076322 -0.00026070922582 -0.00027699123729 -0.00020312650404 -0.00021660101848 -0.00027097797445 
0.00018446090897 -0.00022392514185 0.00012196359365 -0.00010381522136 -4.0196708208e-05 -7.7836112347e-05 -4.7438263918e-05 0.00011396395724 -3.7856629767e-05 
-2.8352654747e-05 7.675620384e-05 -2.9636585747e-05 -5.135778446e-05 8.1926968049e-05 -2.7097805959e-05 -8.1781092465e-05 0.00014214831202 -2.5601509421e-05 
-7.2239613728e-05 0.00014366936798 -2.0812928472e-05 -6.7420117507e-05 0.00011201040049 -2.8007681557e-05 -1.8045975316e-05 5.2748232432e-05 -2.8055380648e-05 
-1.5121697536e-05 5.1192044908e-05 -7.2924484226e-05 -2.9814153424e-05 8.2621322618e-05 -0.00010243088897 -8.3392903359e-05 0.00017216695802 -0.00011224035087 
-7.1941722473e-05 0.0002480276694 -8.3966671412e-05 -7.8177623564e-05 0.00026377218205 -0.00045212824984 -9.151837344e-05 0.00026193366785 -4.7492647749e-05 
-0.011936896455 3.5649935498e-05 8.5126560849e-05 -0.00015290749241 -5.2100404575e-05 7.1520474564e-05 -0.0036612617909 -0.0035311862848 -0.0033598323432 
0.00034641073755 4.4783074666e-05 -8.8710246729e-05 -0.00013790025692 -0.00011478585449 0.00019627014326 -0.00010590751455 -5.1817691558e-05 0.00022228473532 
-0.00012062109887 -7.5443878643e-05 0.00013462254631 -9.8561227555e-05 -0.00017671005038 0.00017312190557 -5.7407608451e-05 -7.6391256762e-05 0.0001900454466 
-0.00012016108921 -0.00010466853323 0.00022390889975 -0.00013206606202 -0.00014109653752 0.00016512485028 5.2795811522e-06 -0.00015192533331 0.00013248334614 
-0.00074543908356 -0.00075628703452 -0.003402391919 -0.0031991882127 -0.0028332383762 -0.0031609645027 -0.00014784220464 -5.2639174139e-06 0.00016807506931 
-0.00030460652817 1.5725853535e-05 0.00010272647167 -0.00022504278091 -4.4616183099e-06 0.00024809691355 -0.00021482045865 -7.7807821841e-05 0.00010230606379 
-0.00012195124027 -0.00019525022964 6.7133505763e-05 -5.6000116794e-05 -0.00024878986794 0.00025972322064 -1.8040535014e-05 -0.0001649509709 0.00027267969704 
-4.3668654027e-05 -0.0002320192575 0.00027249913551 6.9429345114e-05 -0.00030820701621 0.00027584613073 5.8314646055e-05 0.00020183409501 -0.00016396986224 
-6.3305846791e-05 -0.00067364427694 -0.00070260952168 -0.00091575415915 -7.459800927e-05 -4.2166578645e-05 0.00015845164884 -0.0005188074863 -0.0043947191037 
0.00031979022977 -0.00020273368534 -1.9292800498e-05 0.0003161968317 -0.00021892004034 -0.00020424250241 -0.0015627029956 0.0003859676352 -4.4489727185e-05 
5.6448642901e-05 2.7743800663e-05 7.4053252611e-05 0.0001268959191 -0.015883618304 -0.00014272256996 -0.0018113386618 -0.0015059690495 -0.0020566427775 
-8.3209546309e-05 6.139797314e-06 0.00019887257797 5.9683662053e-05 -0.021888341962 -7.7571501513e-05 -0.0054391273373 -0.0011947639906 0.00015766773923 
-8.0556274578e-05 -8.6020012618e-05 -0.00081540705744 -5.6602925016e-05 4.5790127366e-05 9.5978482928e-05 3.2487219802e-05 -7.3527709502e-05 5.1227578034e-05 
-0.0024227819219 8.8650097781e-05 0.00023292906494 -5.251155768e-05 -0.00023060253145 6.9977532255e-05 0.00026393583017 -0.00021244064527 -0.0023990671935 
-0.0025177485507 -0.0022852680015 0.00018222465283 0.00022113223466 -9.1524670968e-05 -5.8940940196e-05 4.2428377595e-06 0.00010748012371 -0.00017344506456 
-1.0926542711e-05 0.00010191757094 -6.2732150892e-05 -0.00012407458171 -0.00010674945739 1.0865529873e-05 2.9896761913e-05 -0.0001609466847 -0.00025965305821 
0.00012346551858 2.1393802758e-05 -0.0031193072584 -0.0030524870334 -0.0033623276927 -0.0033699722442 -0.0032766729948 -0.0033366483707 -0.0030040574559 
-0.0030987399178 -0.0031854889532 -0.0028828058556 -0.0029044844935 -0.0030028770895 -0.0027118922081 -0.0026668382108 -0.0027931622916 -0.0025290081507 
-0.0023688629179 -0.0025160070912 -0.0023020157493 -0.0020386766162 -0.0022001169606 -0.0020242686763 -0.0017003828583 -0.0018712722601 -0.0017264892142 
-0.0013063643244 -0.0015006555355 -0.0014025412182 -0.001118172853 -0.00013977935372 -0.00020422867929 0.00014721090129 8.7319960196e-05 -0.00018404971467 
0.00030036435652 1.967185855e-05 2.6634201504e-05 -0.2183679559 -0.14901603634 -5.6833629724e-06 1.2790644918e-05 -1.9026720366e-05 -2.3786243247e-06 
-2.0709938286e-05 1.2497139365e-05 -9.1446727632e-06 -4.0767999751e-05 6.2380424546e-05 -0.00011040178953 3.0141059749e-05 -0.0033209656097 -0.0032979516948 
-0.0029751902456 -0.0032424140926 -0.0031852245206 -0.0028761376259 -0.0014183845126 -4.3381028314e-05 -7.7406722348e-05 -9.7086432895e-06 -4.8271508059e-06 
-5.1405658466e-06 -2.3366016826e-06 1.9464076036e-05 -4.1972364222e-07 -6.8332445015e-07 6.1239534044e-06 -7.784759986e-05 -1.5424109758e-07 -7.4340381188e-06 
-0.00047475150139 -0.00030389992808 -0.00025007465415 -0.00078386438867 -0.00065197497366 -0.0006815133889 -0.0010633589321 -0.00094464596612 -0.0010330819979 
-0.0013143962474 -0.0012050602423 -0.0013534874322 -0.0016230734551 -0.00010905926102 -0.00022305253914 7.8335586231e-06 -4.7534221923e-05 3.235562982e-05 
-0.00019423068869 -0.00035836785535 -0.00052681828642 -0.00067231686612 -0.00054574841689 -0.00011104259946 -0.00077409944523 -0.00087067218251 -0.00087122784418 
-5.8664052818e-06 -7.1537607441e-07 -0.00012392935203 -3.9488903513e-06 -4.6567620815e-06 -1.7351235131e-07 1.0752929113e-06 -1.3554993568e-05 1.3913837369e-05 
-5.8182882458e-07 -2.5396339052e-05 2.9878902922e-05 5.3669754888e-06 -2.1351835639e-05 3.7947295041e-05 1.3489453555e-05 -3.4710254785e-05 3.4461032166e-05 
-4.0176644955e-05 -6.9842365151e-05 3.2021549004e-05 4.0863246704e-05 -4.3070864005e-05 -8.8970318418e-05 -0.00011896811085 -0.00016751195744 -3.8224571346e-06 
-3.9462084065e-05 0.00046116163305 0.000239939276 -2.0362344176e-05 2.9417808328e-05 -1.6381745583e-06 6.2260375985e-06 5.7247046859e-06 8.7281058246e-06 
9.5111980652e-06 -3.2661296546e-05 5.1019312476e-05 1.783455675e-05 -6.1851886242e-05 7.1656603102e-05 -1.5830917061e-05 -4.7412620024e-05 0.00012564077441 
-3.5959550352e-07 -7.2716273098e-05 0.00016191875028 -3.9682817184e-05 -5.6774800777e-05 0.00019712926916 -7.8338438148e-05 -5.7424184087e-05 0.00027330584597 
-0.00013137909616 -6.6583980766e-05 -3.9272102368e-05 -3.2925121765e-05 -6.9340466679e-05 -5.8520068029e-05 -8.3158446461e-05 9.0820418241e-05 -0.00037603210526 
-8.2939413227e-05 -4.4502839364e-05 4.044989043e-05 2.4872503194e-05 2.8426663187e-05 -2.1173682301e-05 -8.9260965758e-06 2.2077187149e-05 -0.00012064292436 
-3.7266958029e-05 0.00019914388077 -4.9652386261e-05 -8.6619549831e-05 9.7108132714e-05 -2.9567119269e-05 -0.00010177229225 0.0002318404096 -4.1751880766e-05 
-0.00011163358772 0.00017045952741 -5.1251795291e-05 -9.5177075601e-05 7.2659881758e-05 -5.9135013091e-05 -9.451221778e-06 7.0099488679e-05 -0.00015332172687 
-3.0334479279e-05 9.0558763336e-05 -0.00016740380971 -7.3706509085e-05 0.00019661941048 -0.00016518153035 -6.255595827e-05 0.00030747644019 -0.00013975992589 
-7.984804281e-05 0.00029503552123 -2.0573099505e-05 -6.2589741249e-05 0.00025080041748 -6.5104043835e-05 -1.1321284634e-05 -3.2782244247e-06 -0.0029918263708 
-0.0029272288318 -0.002661999406 -3.6141911356e-05 -1.4112382418e-05 3.1637388667e-05 -8.7194222993e-05 -7.7785745309e-05 9.0235866658e-05 -0.0001487052376 
4.1443895107e-05 3.0029626461e-05 -6.8153570838e-05 5.9320287627e-05 -4.5416274128e-05 -7.4217574218e-05 -3.788209168e-05 0.00013884251407 -8.4906239151e-05 
1.9069916515e-05 8.6494041595e-05 -0.00012032196009 -6.2362652096e-05 5.2181942673e-05 -3.2669302336e-05 -0.22680522107 -0.15773441232 -3.6804600778e-05 
-7.3015362213e-05 6.0477674212e-05 -7.5489649559e-05 -9.840625561e-05 0.00010014993959 -9.3906423345e-06 -0.00013393770901 0.00011781320143 7.1190336184e-05 
0.00012002464019 4.6053116436e-05 -4.8989987777e-05 -0.0009761915983 -0.0010477382198 -7.0187190636e-05 4.4392795145e-05 -9.6401211465e-05 -2.1272977384e-05 
0.00020028973191 -4.0134314927e-05 -7.4089696067e-07 0.0002029885711 -7.0162418204e-05 -0.23487154381 -0.15980204848 -3.703805743e-05 -0.00023143319904 
0.00012583604548 -3.7160397152e-05 -0.00021367914202 0.0001918105759 5.0707614446e-06 -0.0001030826849 0.00019677968627 -5.0947127685e-05 -0.00020360740762 
5.6369648567e-05 -0.00015464832578 -4.4847214602e-05 0.00026433178445 0.00023857877397 0.00017249833395 -0.00026636878407 -5.5023773642e-05 3.6884214609e-05 
9.5457566617e-05 -0.0027662522611 -0.0019555766076 0.00028905625561 -7.9912103971e-05 -0.00011039601301 -0.00011860730804 0.00017449421352 -0.00023179905718 
-5.8289010586e-06 4.8669887385e-05 -9.9529670753e-06 -4.3870921942e-05 0.00019144753812 -6.3561121221e-05 -0.23302603939 -0.16578828056 5.8342566463e-05 
8.7293913258e-05 5.9456068942e-05 -5.1123206133e-05 -0.0001209931794 -0.00025153439071 0.00037401633391 1.303919391e-05 -0.0011230477572 0.00027293108952 
-0.0025806135589 -0.0028783706947 -0.0027767507759 -0.00013606022524 8.5854540164e-05 -8.1834795424e-05 3.1373592609e-05 -9.5059512928e-05 -0.0022517800686 
-0.0020340499764 -4.7015108447e-05 0.00011026527416 4.7177372822e-05 7.3822026836e-05 0.00021474604193 -7.9670216991e-05 2.1572900843e-05 0.00022889195966 
-0.0002324341382 -5.033709949e-06 0.00014771138156 -1.5845653398e-05 -0.0026987017611 -0.0025110229615 -0.0021410328911 -3.0915778362e-05 8.1015773209e-05 
-0.28552797639 -0.15328317787 -0.00015702906164 -3.4553115477e-05 -0.0021342990299 -0.0022089819025 -0.0019094605449 -0.0020151987835 -0.0017202670741 
-0.0016717551375 -0.0017965199868 -0.001535614207 -0.0014227283991 -0.0015472206273 -0.0013474477946 -0.001279895449 -3.7282704187e-05 -4.6884498667e-05 
-1.1751865456e-05 4.3614872554e-06 5.8373469323e-05 -3.4282748918e-05 3.3385418946e-05 -0.0017018576508 -0.0018258744386 1.0929299431e-05 1.8674383495e-05 
-2.0321700908e-05 1.6556685719e-05 8.0814409013e-05 -0.0024618811638 -0.0024199971649 3.1699726186e-06 -8.4529377583e-06 -0.0023369249608 -0.0022937663575 
-0.0019314122517 5.8828779184e-06 -5.4340564121e-06 -4.9110094552e-06 -0.00046397258345 -0.00021111989344 -0.00089799714457 -0.00069904157882 -0.00071548646678 
-0.0012919332712 -0.0011110284333 -0.0011719524752 -3.8581840577e-06 5.6765332545e-06 -3.2361104642e-05 9.6079403502e-06 2.5136667464e-05 -7.7936572673e-05 
-0.00032598346206 -8.7781191041e-07 3.791149267e-05 3.8314678772e-05 -0.00010337040373 -0.00097592893957 -0.0011246140588 -3.1460827751e-06 5.0073373144e-07 
-2.8652328949e-06 -2.3231342607e-06 -1.1227760811e-05 1.1993114701e-05 -5.7958020448e-06 -2.7181059634e-05 4.1427871725e-05 2.2396957586e-05 -6.3083835217e-05 
6.5056031388e-05 -6.5916708527e-05 -8.3325281424e-05 -2.0305399694e-05 4.777276082e-05 3.0351123278e-05 4.6386401281e-06 -2.2620933096e-07 -8.8561281946e-06 
-4.2493237448e-06 -0.0025726525629 -0.0025203076626 -0.0020708671276 1.2009644822e-05 1.2653871818e-05 4.0270043615e-05 1.8118645845e-06 4.6195693474e-05 
-2.1484543025e-05 5.274601434e-07 1.5943569703e-05 -0.22778114066 -0.14900699581 0.00011537089558 -2.009217567e-05 -0.0001089207815 0.0001551366607 
-7.3592660325e-05 -9.9789172189e-05 0.00023277828226 -0.00011547573465 -0.00014952930295 -1.4890961534e-05 -0.00016927448522 -6.323190319e-05 -6.6376169036e-05 
-3.1424714214e-06 0.00011254156983 -0.00010218167738 -6.2793079839e-05 -0.00013778521327 -6.1928536995e-05 8.7963435333e-05 0.00010179201539 2.162667217e-05 
-5.860648288e-05 0.00015009177954 -7.6706914224e-05 -5.8772579445e-05 -0.00015671684218 -4.7367918907e-05 0.00011179882516 -0.00016493475631 -7.1061751734e-05 
9.510759185e-05 -0.00021876225733 -4.8402065307e-05 0.00033277010183 2.6577077454e-05 -2.1897069039e-05 7.391679991e-07 -2.444385355e-05 2.4904030942e-06 
8.97618126e-05 -0.002167564994 -0.0021457782515 -0.001751307306 -0.0023038168994 -0.0023738031822 -0.0018975163535 -3.7293484279e-05 1.4936448418e-05 
1.0719463885e-05 -3.0335467404e-05 -5.8030520384e-05 9.8841650931e-05 2.0234399394e-05 -1.4925141622e-05 -1.7692372831e-05 -0.21688215001 -0.14149967975 
-4.3366817386e-05 1.097567294e-05 7.0266894113e-05 -8.9344584748e-05 2.582462324e-05 6.8056749481e-05 -0.19000717451 -0.18336593179 -0.17614912033 
-0.17514413896 -3.1460191974e-05 -5.193382032e-05 4.3894533168e-05 5.4320401182e-06 -0.00011089186086 4.0815398944e-05 -6.3585814395e-06 -5.233102756e-05 
0.00011098236905 2.2879141767e-05 4.574345998e-05 1.3762957495e-06 3.0149688198e-05 -5.1808460422e-05 -8.2127913865e-05 -0.17298871184 -3.87429749e-05 
-9.8467758669e-05 5.4299087498e-05 -3.5046247777e-05 -0.00017815112877 0.00018092788875 -6.3027090289e-06 -0.00011623161066 0.00021769518474 -7.9225960542e-06 
-1.5080552139e-05 0.000146222252 -0.00016420146332 -0.0024534219328 -0.002536354151 -0.0020466804813 0.00015677282796 -4.3030636495e-05 -0.00021884627347 
-0.0002104405534 -0.00262910392 -0.0026551229268 -0.0022211518812 -0.0018030949571 -0.0022414294458 -0.0022206249886 -9.5638915456e-05 -0.0015313730684 
-2.4553073508e-05 -5.8777920483e-05 3.0097026226e-05 4.6120130523e-05 2.7283162508e-05 -1.9446505082e-05 -3.9772931363e-05 3.0848370693e-05 8.0005742898e-05 
-0.0022147117926 -0.0024751177464 -0.00012234037075 0.00012078527011 -0.00010205678211 -0.0016330919455 -2.3286855382e-05 -6.5024107701e-05 -0.00012154828254 
-6.5358576282e-05 -0.00059093487706 -0.0007700095045 -0.00058124511576 -0.0010572631117 2.2510618005e-05 6.8138000222e-05 -4.5082560417e-05 2.3965947429e-05 
-9.1628893867e-05 0.00020147483908 -1.8645476946e-05 -2.8734202907e-05 4.634630065e-05 -3.8542938049e-06 -3.435090641e-05 9.7521327781e-05 -1.2032882418e-05 
-0.00016713574166 1.4845612437e-05 -1.8183689494e-05 -5.401552342e-05 3.9798569833e-05 -0.00010768679494 -3.6260355891e-05 -0.00012404019671 0.0001050523424 
-2.1538296651e-05 -4.4643919354e-05 0.00018882534671 4.2948531943e-05 -0.00013078358909 0.00012374880323 -0.0001358187154 -0.00013012460765 0.00024543123113 
8.980334278e-05 -7.8537322762e-05 -7.0053905419e-05 8.1744943119e-05 -0.0021776705288 -0.0019341190429 -0.0016510880035 -0.0022229499883 -7.5217901142e-05 
-0.00011532638591 0.00022630698833 5.226134086e-05 0.00021348911434 -0.0013350651498 -0.0014029457781 -0.00014232801435 -7.4732548831e-05 6.4132812683e-05 
-8.0299512722e-05 -2.3706192772e-05 -0.0016538801893 -0.0015860665633 2.4523183442e-05 -0.00019540712538 1.6336799608e-05 6.3491813641e-06 -0.0014173686895 
-0.001174589898 -0.0016963841344 -0.0010080074095 -0.00075356191029 -0.0012858755802 6.3873182871e-07 7.0366089243e-06 4.7681073734e-06 -0.00024370016334 
-2.2984261012e-06 6.9634595812e-06 -2.9742479576e-05 -2.2266378485e-05 2.8627392386e-05 4.4559137256e-05 -1.0840359029e-05 0.000106241449 -1.2941454097e-05 
-2.0333454628e-05 -4.0030605985e-05 -3.4279105255e-05 -1.5888551565e-05 -1.4250538981e-06 6.4190143026e-06 7.5709094341e-06 -1.3819900218e-05 -0.00016106760993 
0.00011930199763 -0.00012224555878 0.00019949591823 3.6104898584e-06 -4.4961355513e-06 0.00024354998026 -4.7891822836e-05 -0.00021840803826 -6.9036952704e-05 
-0.00011516266016 -7.6911962007e-05 0.00024503811555 -8.9349187303e-05 -4.7828265014e-05 -2.8455271396e-05 -3.5677055544e-05 0.00012996000826 -1.4178856512e-05 
-8.3702728672e-05 3.1122471821e-05 1.9453793214e-06 5.8546590507e-06 4.4105304262e-06 -3.1028076479e-06 -0.0018245653444 -0.0017130794772 -0.0012039104748 
8.7265458206e-07 -6.3346082331e-06 -3.5649756151e-06 -0.0014556951496 -0.00150782733 -0.0010142439532 -4.4044474087e-05 1.7424392548e-05 -9.7389334967e-06 
-0.00043336264785 -8.2790827543e-05 7.274983583e-06 -0.00079811438892 -6.0055516141e-05 -1.8135749779e-05 -0.19303865818 -5.8718733478e-05 3.2078164627e-06 
5.8343545079e-05 -2.1306376196e-05 8.3566351323e-07 6.6951464074e-05 -5.0386670464e-05 -1.9428868563e-05 2.5363167341e-05 -4.2599596049e-06 2.1364981072e-05 
2.8929302251e-05 8.5228941298e-06 0.00013975654705 -5.3688460785e-06 -0.0011368192451 -0.00087757004733 -0.0012026789948 -0.00011632796672 -1.2305016774e-05 
-0.00011086155941 -7.459774317e-05 0.00021619260383 -0.0012679311662 -7.6425060684e-06 -0.0012962400372 -0.0012176330575 -1.1977321614e-05 3.271414463e-05 
7.7634498977e-05 -0.001485408251 -0.0014319517877 -0.00080752808378 0.00017429214939 -2.2241546207e-05 -5.4124100969e-05 -3.5143761321e-05 2.9313639021e-05 
-1.4700742269e-05 1.0929388747e-05 -1.1978994932e-05 -4.7326378983e-05 -0.00010945517496 -1.7898773398e-05 -0.00060698861345 -4.0644030957e-06 -6.7956187442e-05 
1.6477798222e-05 1.9841432282e-05 -3.0827717396e-05 -3.2791904235e-06 4.2109971896e-05 -4.6303050626e-05 6.8894029052e-06 3.8591963729e-05 -0.0019387781512 
-5.0767215007e-05 -2.583899719e-05 -3.8583581923e-05 -0.00014178401475 0.00011194701327 -0.00017754826677 -1.6982688154e-05 7.1205927594e-05 1.7820117208e-05 
-7.2024173238e-05 0.00015085503977 -6.6988166702e-05 1.0288749851e-05 -0.00058678604942 -1.9651867554e-05 6.1658707312e-05 -4.3669448434e-05 0.00010375560889 
-1.6074723781e-05 -0.19314618274 0.00010542078192 -2.8619213606e-05 -0.00095692039231 3.128958267e-05 -0.00053961986982 -0.0010603887695 -4.1834224941e-06 
-1.9677312333e-05 -0.0017205403486 -0.00011008396582 8.0861007696e-05 3.2869519883e-05 0.00010015998122 -5.936746361e-05 -5.5615092294e-07 5.2659687956e-06 
0.00016516235597 -0.0015637258006 -0.0016166442168 -0.0010526717069 4.9095747825e-05 -0.14052177348 -0.45128866918 -0.42055043869 5.6525685536e-05 
-3.65634405e-05 -0.00016390567338 0.00011195865874 4.1068021689e-05 -3.5230863086e-05 -0.45237445356 -0.46970109133 2.023236697e-06 -5.8128725608e-05 
-0.0002591931032 -0.0010232290301 1.0801956046e-05 2.5869926964e-06 5.9204941003e-07 4.0064410094e-06 -9.2121821223e-05 -0.0016630993628 -3.4196363456e-05 
-0.00060268821563 -8.5353352557e-06 4.4916485069e-05 -2.0976360449e-05 -0.00024032665967 -0.00118616332 9.051055691e-06 -2.0684681984e-05 1.0382021212e-05 
-0.00011705022944 -0.00056444652591 -1.9165024165e-05 -5.6571209639e-05 -0.00011735235848 -0.36642903176 -0.39592841263 -2.8258763314e-08 -7.8210237378e-06 
3.1459227921e-06 0.00021565487371 -5.2440961499e-05 -0.00015954878856 0.00033422789954 -9.658381453e-05 -2.3196264651e-05 1.495730738e-05 1.419952078e-05 
-5.1441828675e-06 4.2688753291e-05 -3.1957277691e-05 -5.1167954952e-05 2.5956378069e-05 -0.0014842356504 8.0856210548e-05 -6.609350948e-05 -0.00054193909732 
-0.00046741466261 5.9277747273e-05 -1.1205465799e-05 0.00016921091576 -8.2170436331e-05 -1.3944278922e-05 -0.00048849254402 -0.00056761492293 -8.5424538166e-06 
-6.8162084434e-05 3.308284803e-05 5.7609852318e-06 -4.9696788544e-05 -2.0258859901e-05 -4.022119992e-05 -0.00061053144331 -0.00051691109283 1.2902056988e-05 
-6.5753568652e-06 -0.00055670173106 -2.02274572e-05 -2.8893617046e-05 1.1154375033e-05 0.00027186726187 -0.0001351098615 -0.00016004049642 -3.2542669122e-05 
-0.00051407395237 -0.00051354287441 3.7810885946e-05 2.4532890392e-05 -0.00022202947058 0.00021109614872 -9.4750316626e-05 -2.6541257417e-06 -1.3655418509e-05 
-0.30392636549 -9.8733745739e-05 0.00019458046446 -4.1590038281e-06 -1.3943413163e-06 -2.3007649322e-05 1.7642711872e-05 6.0164618463e-05 4.2699546623e-05 
-0.00010888491758 -3.9164263447e-06 0.00017583102646 -0.20464089621 -0.22169166326 -8.8410196685e-05 2.6808406617e-05 -3.2231484272e-06 -3.5797605683e-05 
-9.0356945966e-05 1.6889635269e-05 2.7456262569e-06 -0.4250217488 -0.43340311404 7.2686313157e-07 -2.9417740656e-05 3.8730351424e-05 -7.0085595951e-05 
-0.0013427372063 -4.1739896927e-05 4.7715810254e-06 -3.3181251343e-06 1.3572037469e-05 -2.8241297868e-05 -0.45240432829 -0.45983055429 7.973229699e-06 
9.0195362872e-05 -1.5205152522e-05 0.0001124587299 -0.47259757938 -0.47400133696 -5.1636178277e-06 -0.48526344197 -0.4817271028 1.8472420568e-05 
-0.49123871627 -0.49766016884 -3.7488914295e-06 0.053265424149 -4.0227093803e-06 1.5524188978e-05 8.4225175168e-06 2.1557122524e-05 9.8398867118e-06 
1.6707420103e-05 7.7137368639e-06 1.5911208523e-05 6.538030663e-06 1.3232120557e-05 4.3324959095e-06 1.1935301578e-05 3.8134404705e-06 1.0669689204e-05 
2.326583041e-06 7.7226225242e-06 -1.3393060399e-06 2.2578680825e-06 -5.8483531039e-06 -4.496589955e-06 -1.0921966831e-05 -2.9994826851e-05 -3.3490983467e-05 
-2.7161108175e-05 -2.7111714209e-05 -8.988540928e-05 -0.00011667196638 -0.00011281323653 -0.00020758451083 -0.00010854690161 -0.00014340425262 -5.1337412547e-05 
-0.00025713434715 -0.00018804935893 -0.00018660237489 -0.00012076181216 -9.37588553e-05 -1.5186137173e-05 2.0760279214e-05 4.0447687001e-05 0.00026959522016 
3.4483793356e-05 0.00050327088661 0.00012527468793 0.00052411096636 7.9185146655e-05 0.0001802806009 6.16561586e-05 6.986737352e-05 -1.9815741357e-05 
-2.4611739965e-05 -8.3145906541e-05 -0.0001957987849 -0.00014340325529 -0.00018398883277 -0.00011566127676 -5.1724195237e-05 -0.00016128292928 -9.6711286931e-05 
-9.2862087681e-05 -7.4916838528e-05 -6.4380151604e-05 -5.4616528965e-05 -6.3283228498e-05 -5.0721892909e-05 -5.3822483171e-05 -5.7094290303e-05 -8.9641423553e-05 
-6.1399587988e-06 -4.7339645215e-05 -0.00010802920332 -0.0001582895122 -0.00012944912562 -1.8068130219e-05 -0.00024882089049 -0.00037633141088 -0.00052728732424 
-0.00059710436472 -0.00083450344378 -0.0011684990205 -0.001647935747 -0.0026275259988 -0.0029610578933 -0.0039374630242 -0.028291761529 -8.9114721774e-05 
-8.7969244092e-05 -1.5297432429e-05 -0.053203170403 0.019048691657 -4.397365175e-06 5.5361684808e-06 -0.062051717103 -0.023054221437 -0.0091762061558 
-0.003143914087 -0.0025588865273 -0.0015910523597 -0.0012533620413 -0.00092339152833 -0.00070138299869 -0.00055968798738 -0.00041015519191 -0.00033579804539 
-0.00026931833408 -0.00024113714006 -0.00017869294978 -0.0001538188105 -0.00012995289028 -0.00010967036686 -8.3844957812e-05 -7.5551267202e-05 -6.8977215472e-05 
-6.8697547182e-05 -7.250605624e-05 -7.3588220459e-05 -8.1040287073e-05 -8.9620742449e-05 -0.00010060532774 -0.00011954426383 -0.00013375550428 -0.00015626600285 
-0.00017096414722 -0.00019392142168 -0.00019757731821 -0.00021024090115 -0.0001868676768 -0.00017703945279 -0.00013795930587 -8.3113368286e-05 -2.9371721355e-05 
4.5920292418e-05 4.5550988053e-05 0.00016245690503 0.00012690151864 0.00023616870809 0.00016192928632 0.00023314145597 0.00013283172725 0.00015537586636 
7.1802608545e-05 3.5888244724e-05 -2.4930460226e-05 -9.9024311227e-05 -0.00014076036756 -0.00020962415193 -0.00020782552232 -0.00022159524954 -0.00019025280601 
-0.00018895284819 -0.00016996007424 -0.00015139167018 -0.00012317497898 -0.00010926317881 -8.9450795897e-05 -7.6901093742e-05 -6.3901368881e-05 -4.9368313887e-05 
-3.8916261615e-05 -2.6614889067e-05 -2.262620413e-05 -1.2149417206e-05 -9.9523188333e-06 -2.1685780646e-06 -3.8876232766e-06 4.740239045e-06 -3.3147863411e-07 
8.9027754279e-06 1.9113518291e-06 1.3854441631e-05 3.6039620795e-06 1.7411431268e-05 5.4996736211e-06 2.0793134066e-05 7.8867794299e-06 2.2427875073e-05 
9.7365683049e-06 2.4259241321e-05 1.0336712102e-05 3.7301712848e-06 -4.0938536171e-06 1.4128209867e-06 5.9784277706e-06 1.0413345239e-05 3.681450785e-05 
-7.7152582199e-06 -0.00015875647395 -0.00041884168837 -0.00072802634211 -0.0011101401383 -0.0015299761963 -0.0019619646855 -0.0024252748563 -0.0029043435288 
-0.0034370614295 -0.0039577519533 -0.0044614511296 -0.0049663312653 -0.005443690872 -0.005901131263 -0.006398270922 -0.0071289627792 -0.007469704906 
-0.0077748441228 -0.0079698804717 -0.0081642725159 -0.0082840128932 -0.0083616451464 -0.0083903829591 -0.0083540153059 -0.0082720432667 -0.0081355762178 
-0.007955064662 -0.0077091443167 -0.0074090705838 -0.0071259420627 -0.0067563238085 -0.0063442924448 -0.0058972819954 -0.0054354322625 -0.0048799034545 
-0.0043880506398 -0.003896501314 -0.0033760416295 -0.0028453118528 -0.0023695333684 -0.0018967436307 -0.0014435882181 -0.0010238988052 -0.00067226424332 
-0.00039813300652 -0.00012598255628 7.4637658523e-06 5.140268886e-06 -0.0067711833793 -0.15078304392 -0.24659490772 -0.25450044056 -0.35493476069 
-0.38247173507 -0.41655120093 -0.42958161936 -0.44125274404 -0.45424094588 -0.47143019095 -0.4735475322 -0.48186568053 -0.47544326687 
-0.4605716183 -0.49328547428 -0.49375429999 -0.46822953241 -0.47743132436 -0.46150499438 -0.45531410078 -0.42799648846 -0.42392571028 
-0.39183308204 -0.36210358472 -0.26955373026 -0.15995236537 -0.26042042109 -0.47122928867 -0.46276508174 -0.41565489533 -0.34881517253 
-0.3776135252 -0.22964185028 -0.25911659286 -0.18756868813 -0.53484018515 -0.5397533585 -6.1973830806e-06 -4.4097795426e-05 -7.3578526098e-07 
2.1381479638e-06 -0.5115129843 -0.50933378168 -0.49540380359 -0.45449318282 -0.47568644897 -0.49441723204 -0.53807320342 -0.47799624434 
-0.45418713672 -0.22462759828 -0.54534143242 -0.5436241395 -0.54460362892 -0.24817978307 -0.31171501163 -0.29948376133 -0.52024495582 
-0.00077343606464 0.00019024238217 -7.7745221189e-05 -0.41974869122 -0.39634358179 -0.36463906134 -0.54522113852 -0.00012364991765 -0.42954512538 
-0.53186304935 -0.52095147742 -0.392931818 -0.013362438541 -0.0092531798575 -0.0072298852527 -0.53099028013 -0.42503982163 -0.40352721898 
-0.35087816258 -0.40888968623 -6.1879640682e-05 -3.8428360871e-05 -0.30605410452 -0.41477840871 -0.42482452215 0.00075262637163 -0.40201400211 
-0.40134966882 -0.37735446106 0.015315319181 -0.0064753481807 -0.019458345088 -0.0019596493692 0.0026077311971 -0.0066965121509 -0.00168214075 
-0.00022453543663 0.00024142427861 5.8061357359e-05 -6.1380395618e-06 0.00020953727539 8.9505890151e-05 -1.8509680729e-05 -0.000251743309 -0.017432345337 
-0.0018450766891 -0.0014799385748 -0.0059673486741 -0.016102320031 -0.0020321046929 -0.0023400594027 -0.0019464936394 6.9462509714e-06 2.1743486155e-05 
2.6181625317e-05 -3.3238922156e-05 -5.0572918162e-05 -8.01049406e-05 1.0335755273e-05 -2.0653186771e-05 -6.7573357238e-05 -0.0025431957918 -0.0026539790603 
-0.0028536262689 -0.0044851876518 -0.0041676553728 -0.0043070025117 -0.004025018827 -0.0008837837818 -0.00083275840794 -0.00068521048279 -5.4094948336e-06 
2.2023307511e-06 -1.8930341202e-06 -0.0033370424977 -0.0036161610669 -0.0031843992015 -0.0034268902788 -2.3836960348e-05 -0.00068809025875 0.00095942965591 
9.9630369546e-05 -0.0046683382572 -0.0040744228567 -0.0038253441675 -0.003868241236 -0.0036554586231 -0.0013878307912 -0.0018337099291 -0.0011538782143 
-0.0016201429869 0.000350515753 -0.00035732500005 1.1784356175e-06 -0.00035116514875 -0.00022095062681 -0.00017294009195 -5.9901811773e-05 1.5102980077e-05 
-8.329372673e-06 -1.0663384619e-05 2.4297819767e-05 -0.0011647705815 -0.0010278820623 -0.0013148155663 -5.1384336333e-05 -7.7264219072e-05 2.5831532981e-05 
0.00013824082058 -0.0030764822553 -0.0034694299885 -0.0034076784605 -0.0038005196223 0.011816832791 -0.0043891007553 -0.0047963900341 -0.00016499570548 
-0.00025641241572 -6.2115064598e-05 -0.00017763198232 0.00016585516226 -0.00020863551288 -3.312480572e-05 -0.0017002281595 -0.0019938767707 -0.0015018778571 
-0.0017846241867 -0.0015430943657 1.750822184e-05 4.8012259782e-05 2.4007131801e-05 -0.005267467956 -0.0046529546833 -0.0045901251792 -0.0041203988911 
-0.0044578241414 1.0892592045e-05 -6.1192105132e-05 0.00014901104993 -0.00011190233244 0.00014603971704 -0.00027263667554 -0.00028007551421 0.00055552984552 
0.0010120834588 -0.00055227912462 -0.00061467354584 -0.0023606904763 -0.0021256816357 -0.0024199224108 -0.00099428625658 -0.0028392338737 -0.00034054695312 
-0.0050652528129 -0.0049648067277 -0.001279880509 -0.0017133732919 -0.001208395613 2.1648330878e-06 -9.6981254581e-05 -1.4396671176e-05 -0.0022147497973 
-0.002204033995 -0.0021186212165 -0.0017680217654 -0.0023553453662 -0.0019792531715 -0.0024423793435 -0.00010560804193 -6.7395907593e-05 -0.0001318648924 
3.1886848646e-05 1.8439249405e-05 1.4857460114e-05 -6.701034472e-05 6.7655794262e-05 5.8123278051e-05 -9.7271261511e-05 -3.7698447737e-05 0.0011415577171 
-5.0651668653e-05 -0.00023439135721 0.00014795124669 -6.8215785847e-05 5.2237243633e-05 -2.5883709119e-05 -0.0004339684247 -0.00062151808604 -0.0009082843994 
-0.002168032919 -0.0018573207366 -0.0048418867364 -0.0050592930599 -5.4480911764e-05 -2.0007614802e-05 2.2969887894e-05 3.7087352599e-05 -7.9808209099e-06 
-3.1089889779e-05 -6.7336759943e-06 0.0019898137431 -0.00029011068886 0.00041157430577 -0.0030254323353 -0.0032401680424 -0.0060870603024 -0.011993423846 
-0.041413917169 -0.003484858407 -0.0030921864561 -0.0035151611796 0.016921007967 0.00046001640728 -0.00022608374862 0.001011569104 -1.4458187948e-05 
1.202159008e-05 2.1155682814e-06 1.106749641e-05 -5.2831749427e-05 -0.00026545698273 -0.00017659056127 -2.3254086136e-05 -6.2190871333e-06 -7.2277545932e-06 
-3.4463111279e-06 -0.00055032805236 -0.00041997216693 -0.00056605023377 0.010390964495 -0.006489656495 0.017325664158 -0.00021500667878 -0.00034477450941 
-0.00037479789387 -0.00049057323543 0.00031187391511 -5.2773072769e-05 -5.0554626374e-07 8.7433026845e-05 -1.8256881208e-05 -0.0022905993875 -0.0026186857045 
-0.0021216267023 -0.0024380129535 -0.016529038372 -0.0022601257077 -0.0088953221041 5.8622323627e-05 0.00039660917987 6.8556197488e-05 6.1447113096e-06 
2.3752560231e-06 7.6305125235e-07 -0.00017777726825 -1.8721087538e-05 -4.8511494772e-05 0.00017227845869 0.00017478975378 -1.0268835079e-05 -4.1163941419e-06 
8.5025868198e-05 -8.025708515e-06 -5.1311455418e-05 -9.5777966214e-06 3.3091177067e-05 -5.0955296116e-06 4.7164311951e-05 5.8719609277e-05 -1.3979521683e-05 
-1.8741019445e-05 -3.0854426339e-05 7.1572902112e-06 6.6778441817e-05 -0.0023318467416 -0.0031625013445 -0.00144027306 -0.00014843415889 -4.7055942077e-05 
7.1468276584e-05 -1.4165908827e-05 0.011095491055 -2.0969805265e-05 3.9151996052e-05 8.8005384567e-06 -2.4933834145e-05 -0.003198260639 -0.0035180248412 
-0.0031095549208 -0.00051213834004 -0.00053742646998 -0.00034516085286 0.00010691284207 -6.3064293524e-05 1.8848078703e-05 1.0785041167e-06 -0.00021629518256 
-5.0701060547e-05 -8.6839132421e-05 0.0002328914408 -0.004395091948 0.0011966833722 0.0030306261315 0.0006189573083 -0.0025532522975 1.2872438153e-05 
1.2849826281e-06 -4.2511184689e-05 -1.1053895446e-05 -2.8679276984e-05 -3.0133331963e-06 2.0550459865e-05 6.442235691e-05 -1.7402046647e-05 -0.0057960956492 
-0.0059421407622 -0.006411695808 -7.2435788698e-05 4.2369079183e-05 -1.7592241403e-05 3.4746787744e-05 -0.00049406448402 -0.00033110122339 -0.00031278150332 
0.0029743214684 -0.0015801433337 0.0006566584786 -0.0024421136761 -0.0018433514208 -0.0010041600175 -0.0029027834033 -0.00329157705 -0.0030065808706 
-0.0062290408023 -0.00018017331873 -2.3348340311e-05 0.00011501278419 0.00019947296869 -0.00013452886274 2.8560593283e-05 6.8288657562e-05 -1.5792730103e-05 
0.00015440136564 6.3514049448e-05 -0.00020421283963 3.4353037003e-06 -0.00018905961917 2.3558336029e-05 0.00010565630733 -1.8409456484e-05 6.737158492e-06 
-1.6313304659e-05 -0.00031920076984 0.00025660156116 5.6936977832e-05 5.6455582534e-05 -3.3389398815e-06 -6.6495103596e-06 -2.8442354881e-06 -0.002623865283 
-0.0029151298878 -0.0026770634322 -0.002986954284 -0.0073160114039 -0.0037215278446 -0.0090213746647 -0.020115816696 -0.00028529114913 -0.00067603094462 
8.302696259e-05 -0.00021528369181 2.3443400196e-06 -1.5117094603e-05 2.1796354564e-06 1.1728008548e-05 -2.8957787718e-07 4.9751838331e-05 3.7804403231e-07 
4.6755947429e-05 -0.0032893893715 -0.0021652025764 -6.7651380311e-05 -5.8169432507e-06 -1.1956988252e-05 -0.024070871386 -0.020792717343 -0.017195367511 
-0.018075133359 -1.4357801301e-07 -0.00010700504734 1.4066029584e-05 -0.0014814034349 -0.001764061517 -0.0013151025357 -0.0015696896535 0.0010512798481 
-0.0001430399454 -7.923731461e-05 2.6919621504e-05 -0.003423518628 -0.0012754495701 -0.0015719064734 -0.0013211735804 5.2762339629e-05 -3.7135725568e-05 
6.3226766885e-06 -2.3124125025e-05 -0.0027311275931 -0.003052637839 0.00011811763813 -0.00010614707233 -2.1490564907e-05 3.1660177186e-05 -0.005693306809 
-0.0078230960207 -0.0010072914613 0.027110127464 -0.00058697108703 -0.0043317344847 -1.422055658e-05 4.1856642454e-05 -9.2231370516e-05 -0.0036151740368 
-0.0033840183943 -0.0038133502063 0.033254947555 0.024412549029 -1.0505301247e-05 0.00038713230875 0.00043141227441 0.011507035445 -0.0089504214556 
0.0020188759438 0.00088928822481 -0.00021252613964 -1.4656951432e-06 -5.1193015946e-05 -0.017692764692 0.01319899986 -0.0075151026821 -9.446624446e-05 
-3.4997104977e-05 -0.00010953028076 0.0002369573118 -0.0066525719554 -0.0062507854168 -0.0059914873634 0.0010519212598 -0.00034552204029 0.00011713678576 
2.702867582e-05 9.5886141484e-05 -1.3254038394e-05 -3.8026558354e-05 -3.0775418494e-05 -1.3065119353e-05 -0.0012173890152 -9.2526156024e-06 -6.4124300402e-05 
4.67026017e-06 -1.2524727609e-05 1.295446514e-05 -1.1626937486e-05 0.0024880846205 -0.033267226497 0.016268310111 4.6101623687e-05 0.00019499665149 
-0.00014701549578 3.249909577e-05 0.0085414179936 -0.0001053634129 -0.012954861533 -0.0082131701991 -0.0016277319006 -0.015475645946 7.2525807689e-05 
-2.2822602799e-05 -6.4202888217e-05 2.9199627429e-05 -0.00049003103151 -0.00043544316271 -0.00063281023526 -0.00057881341615 -3.1083479892e-06 8.0684418831e-06 
-7.6215332694e-06 -0.00010495721538 -0.00555041629 -0.016663310003 0.0086384361028 -0.0026265419372 -0.002517449005 -0.0022586611726 1.3552750066e-05 
-8.8447332365e-05 4.4642644788e-05 0.00014193292007 -0.00027061870813 0.00025332471521 -1.1117010959e-05 -0.001431479589 -0.0056092429829 -0.018426810009 
1.3399982635e-05 -5.3656457903e-05 -9.2554242615e-07 -0.0096615164267 -0.013801921579 -0.0072584574534 -0.0098885310018 -0.0066524467441 0.013875595057 
-0.015860033221 0.013074589049 -0.0059802598632 0.0096868817458 -0.0013766402883 3.9849101839e-06 1.0988585096e-05 7.7330233824e-05 -2.4053530477e-05 
0.00094842055396 -0.010050557872 0.00027968551608 -5.1424133174e-07 -0.00025318825729 -0.014569418361 -0.024676976911 -0.0071590670125 -0.023574044608 
6.4943364909e-05 3.6619621225e-05 2.6549258215e-05 -7.2771056314e-06 9.0765736444e-05 -3.1510501232e-05 2.7622776701e-05 2.1237314994e-05 4.8155199001e-05 
-4.7735019931e-05 7.7357823648e-07 7.372741522e-05 3.3417771418e-05 -2.5205453417e-06 -1.7426126175e-06 2.7315378239e-05 6.5027094073e-07 -2.3802306221e-05 
8.0583062653e-05 -0.003508117053 -0.0034509810006 -0.0038273320402 -0.0037390362069 -1.2002308768e-06 -4.833875564e-06 3.0338407228e-06 -0.00099714809794 
-1.3861289049e-05 -3.4122473191e-05 3.2471409726e-05 -5.3622534381e-06 -4.0172958718e-06 -0.0014063347012 -0.0013767678378 -0.001166159023 -9.8621797697e-05 
-3.2274277059e-05 -0.00015948504197 -0.00011300260746 -0.0009585219132 -0.0011721602516 -0.0009532713495 -0.0001229363241 0.00024441458737 -0.00026862143595 
-0.0054781026502 4.3282292162e-05 0.00015522941473 -1.6368590239e-05 -0.00094716068088 -0.010266097797 -0.012941733732 -0.0015249470171 -0.0018082749738 
-0.0013283512487 -0.0015941318381 -3.3986525061e-05 1.5770229933e-05 4.3611723435e-05 -4.6422165991e-06 -0.0016537815849 -0.0014096989568 -0.0013530962097 
-0.0005355300733 8.6631552586e-05 -0.001276337832 -0.0016168203328 -0.00051643583715 -0.00016677263738 -0.00027877341956 5.1919031636e-06 -0.00056355310538 
-0.00079001770636 -0.00040324233195 -0.00061580878765 -0.0013983890504 -0.00081008267909 -0.00083400032621 -0.0016301533062 -0.0013716685509 -0.0020944185447 
-0.001960615715 -0.002308097736 -7.3578083991e-05 -1.5010017252e-05 4.3590947262e-05 5.7786282626e-05 6.2512326953e-06 8.2463418069e-05 -4.7369457178e-05 
-0.00013140736482 5.4728351689e-06 1.7419710287e-05 -1.6220409403e-05 -6.8935488085e-06 4.9622416026e-06 -0.00019332257398 -0.0067792239963 -0.020132733248 
1.4523311921e-05 4.6361974114e-06 2.1305691872e-05 -0.00010903951449 7.7850488096e-05 -8.2527219955e-06 1.8877176911e-05 5.0063699878e-05 -5.5283988962e-05 
-0.0018255388267 -0.0018782990119 0.011682359905 -0.014744506278 0.010110283936 1.6398747378e-05 -3.2225766053e-05 -3.1674398281e-05 -1.1593018355e-06 
4.4485623061e-06 -8.3484880819e-05 -7.6739981296e-06 1.085591191e-06 1.3125118292e-05 7.363449135e-07 -0.0012478020162 -0.001075900861 2.7081010688e-05 
9.0415549671e-06 -4.1110366661e-05 1.2489525129e-05 2.0624475492e-06 -0.00010990668603 -5.2796289166e-06 -1.5228477366e-05 -0.0015133092762 -0.0058408749026 
-0.0031805756164 -0.0028400349775 7.2438073218e-05 4.864767686e-06 1.1096040728e-05 0.00010056225955 -8.3570884507e-05 2.6010438638e-05 -3.2622882142e-05 
5.5282343869e-05 -3.2554430559e-05 2.1055440504e-05 -0.0016481431625 -0.0011219413632 -0.0013756103123 -0.0010373750682 -0.0012818013366 -0.00022508828552 
-0.00032396799786 -0.0003527447918 -4.4290604295e-05 -7.9357238043e-05 1.1281803907e-05 -1.9589676989e-05 3.3298209717e-05 -4.6822882428e-05 -9.5941997693e-05 
6.1300826663e-05 1.8098393328e-05 -3.7328208639e-06 -3.4551553565e-05 3.6093753536e-06 -0.073629228772 -3.8086129417e-06 9.5442204428e-06 1.4919492105e-05 
-3.310471902e-05 -5.9831568009e-05 -6.2926948349e-05 -0.0020738466046 -0.0023111872643 -0.0024148753735 0.025892434528 0.014669925678 -0.0035504020974 
3.968421219e-05 0.00010469561051 4.3036392883e-05 -0.00053064540953 -0.00072021809389 -2.7504834864e-05 -5.2721950872e-05 -4.1523988981e-05 -0.00017375201484 
-0.00015768951284 -0.00031761220064 -6.0117734139e-05 -1.2813009377e-05 0.00014498692209 -2.6792246983e-05 -3.4119417855e-05 0.0098869933359 -9.0648113547e-05 
0.00015271252115 7.7640281868e-06 5.7535818164e-06 -5.1791778116e-06 3.4654559291e-06 -0.00028348988914 -0.00023798126902 -0.0001714007523 -0.00013700997745 
-6.5622989367e-05 -9.7033772972e-05 -2.9065854354e-05 -2.7761596866e-05 -1.595835596e-05 -2.6122506832e-05 5.4582343735e-05 5.9839699561e-05 -0.0013820842669 
-0.0011110344724 3.0311854026e-05 -0.00022788718468 -0.004936700224 -0.0045551156468 -0.0050252493834 -0.0046042008639 -5.4828442802e-05 -0.00013570269499 
-2.0094307141e-05 -8.6252434129e-05 0.00015939123064 0.001140080204 0.0027001775782 2.5066987277e-05 9.3324908923e-06 9.7336441638e-06 -5.2949065703e-05 
-0.00025243660534 -0.00024873293345 -7.6263791512e-05 -9.2817098991e-05 -1.4359099034e-06 2.5095136032e-05 -2.2266104501e-05 -0.00012995982037 -2.2008335293e-05 
0.00024674535821 -1.9020154824e-05 -0.0063254579163 -0.0056759325705 -0.0063469363216 -0.0057489486389 0.0082634371502 1.5844793142e-05 -4.447419226e-06 
2.07596561e-06 1.6926564623e-05 -3.2763848513e-06 -4.0183550748e-05 9.823306674e-06 -6.6735244884e-05 5.6422904903e-05 -0.0039136542775 -0.0038913359051 
2.2520176305e-05 -5.6097070196e-06 -4.4004999637e-05 7.0306819269e-05 5.7722709597e-05 -8.010913958e-06 -4.643092473e-06 -0.00014272594568 -3.6969074566e-05 
-8.2235671675e-05 -0.0030294113787 0.00063076188779 0.00010542528569 0.00031991546775 4.4755451338e-05 -6.2619033222e-05 1.4387677931e-05 -0.0033078620086 
0.00028536967198 -0.0042308400478 -2.5739925189e-06 -0.0057219711781 -0.0042973876022 -0.0079567921371 -1.5857764468e-05 5.8565127534e-05 1.3561586929e-05 
-5.4347222969e-05 5.0734678374e-06 1.1871795771e-06 -1.5139761377e-05 -4.5784748546e-06 -7.2993372939e-05 6.6142766476e-06 2.702321356e-05 3.3296894817e-05 
-0.0079069232393 0.0001295830105 0.0020284013216 1.9504784223e-05 -0.00099152955299 -0.00071557402706 -0.00072691218534 0.00010045481558 2.0457782736e-05 
2.6300327886e-05 3.0862116056e-06 -8.9179384344e-07 5.6119217208e-05 -3.5233859106e-07 1.1117885161e-05 -2.7552498445e-05 8.7679352699e-06 -0.0040126460189 
-0.0042704065922 -3.0853601491e-07 -1.2044731581e-05 3.4952249941e-06 -1.3247419592e-05 -2.4383171018e-06 5.0241185778e-06 0.0010292819582 -3.8709270288e-05 
0.001912527111 -0.00014261248674 -0.0001576794924 -9.0024269767e-05 0.010151593038 0.021539594914 -0.0036191011156 -2.9718828259e-05 2.8115499077e-05 
-4.7462788204e-05 -0.00048612374855 -0.00068936144342 -0.00065038210224 -0.00089421798852 0.010952189637 5.3474573944e-05 -5.7110277943e-08 -8.3068721766e-05 
8.0594832125e-05 7.8225663041e-05 -2.8098046913e-05 1.3725028781e-05 7.5992435253e-06 -3.9341013828e-06 7.1857817856e-05 0.0001447820818 -1.1147634025e-06 
3.7624514844e-05 0.00010363559314 -0.00042115541842 -0.00011738097285 0.00029244262885 -0.00011800558061 3.4249312574e-05 0.00050407557047 -0.00040703442707 
-0.036567889855 -0.00011345878235 -0.00052156973858 2.3196000767e-05 -2.0787391172e-05 9.6700809864e-05 0.018291022787 -0.02251570093 -0.006965731917 
-9.8641074266e-05 0.00012661263267 -0.00021628514648 -7.2311209685e-05 -0.00072010039503 2.0162734195e-05 5.341566155e-05 -1.4437258453e-05 -0.015282074721 
-0.0098865761816 -3.8798186454e-05 -3.0976600906e-05 8.2645010623e-06 3.268264721e-06 4.4830373665e-05 -2.9459444187e-05 -1.3575011384e-06 1.43493231e-05 
2.9250439625e-06 -2.7267957747e-05 1.0013683736e-05 -3.5567668924e-06 0.011066921973 0.00093959123629 -0.00040729498724 0.0019845308218 -8.8861867901e-05 
0.00029646918295 -0.00030471581853 0.0013074913364 -3.341219434e-05 -0.00023836473871 -0.001245245173 -0.010549277238 0.0016599436681 -0.0019968816833 
3.8933778961e-05 1.6645172439e-05 -3.6759132427e-05 -0.0016430892246 3.3612156138e-05 -0.0041205105987 -0.0038055185144 -0.021140312212 0.0072170348995 
-0.0061626836651 -6.676668468e-05 -0.00019792018931 1.3946159812e-06 9.7737929558e-08 -0.0053338804654 -0.0059796608462 1.6384729312e-05 1.508318229e-05 
2.0527597134e-06 -0.013504212112 2.4714221623e-05 -2.2544153862e-05 3.5990282393e-05 0.00067563419551 2.5938660663e-05 1.7308679089e-05 1.7404794614e-06 
-0.0066385181196 0.0091013332813 -0.01746142257 0.014255303618 0.00014067806636 3.5611678861e-05 -0.00030138866402 -0.00054073558694 -0.0015399899826 
4.2413639678e-06 -6.3089897703e-05 -2.7612391472e-05 -0.00010863167361 0.0002394019208 9.8284576107e-05 0.0001204524189 0.00012419932009 0.00016059588125 
-1.9757402659e-05 2.1034725416e-05 -8.1948649018e-06 -6.9094049226e-05 1.6871054583e-05 -0.0015779848363 -1.6361076284e-06 6.8092319921e-05 -6.5232396813e-05 
0.00022544454081 -1.6438696691e-05 -6.8955095436e-05 -2.0905986155e-05 -0.00016959629353 0.0001252107922 0.0068783795972 0.0028173230822 0.00068192931914 
-0.0023699851209 -0.00025833512289 3.1917958807e-05 -0.0001114730602 4.4701264666e-05 0.0027614079693 -0.00011323196371 -0.00015819909725 -0.0004098193607 
0.00080735358215 -0.0025263692513 0.00038665811057 8.5176579518e-06 -5.2933860622e-06 -3.7411383377e-05 -6.6714556673e-05 0.00016429539934 -2.2390514481e-05 
0.016443056707 -0.0030076723277 0.015630547558 -0.0082723002413 -0.017298690391 -0.00040463682731 -0.00036104316173 -9.5379476044e-05 -6.4855268418e-05 
0.00013709906364 -0.00020197882905 -5.1739151532e-05 0.0040930446499 -2.3933086502e-05 -0.0016371258722 -0.0019149470298 -0.0019087613882 -0.0015886980268 
-0.0017854181002 5.5986086845e-05 -3.9531633729e-05 -1.5740367678e-05 4.506848533e-05 -0.0008487489029 -0.00060171414529 -0.00082889307458 -0.017095373532 
-0.0017379825287 -0.0063089227046 -0.0067222845836 0.018007273121 9.8332395488e-06 -3.6587123155e-05 -0.0015419159083 -0.00159999047 -0.00019102808386 
-8.422600916e-05 -0.0062208390056 -0.0056889211176 -0.006305017658 -0.0017806220702 -0.001668192559 -0.0012924163692 -0.0012105183017 -0.00013132758799 
4.5526869088e-06 -0.0029184727529 -0.0025730787498 -0.0026105364241 -0.0022015956213 -0.0019554147441 -0.0023051057523 -0.0001840905532 5.9692265876e-05 
4.1728096353e-06 -5.7400471248e-06 -4.9697244367e-06 -0.006248209155 -0.0069041931264 -0.0067762318352 -0.0042012433279 -0.0046455084448 -0.00017222757377 
0.00012854303469 2.6649979277e-05 -0.0014458074154 -0.0011651019811 -0.0016287280864 -0.0013246441818 -0.0017422399465 -0.0032801533666 -0.0035566375848 
-0.0033502494079 -0.0036570564071 -0.0044245238014 -1.9849869431e-05 -6.0854190598e-06 2.4011246291e-06 4.9194476132e-06 -1.8771249606e-05 7.2460504395e-06 
-5.5294926188e-07 -0.0019197525943 -0.00022082983659 -6.1413984408e-05 -0.00026495600619 0.00023529725686 -6.1215839269e-05 5.0381723544e-05 4.8292195204e-06 
4.3247099619e-07 -0.0020981894855 -0.00086588572344 0.0004286767799 4.7259149515e-05 4.0396427127e-05 -2.1639764465e-05 7.916081142e-05 0.00012062957265 
-6.4857062803e-05 1.4880198892e-05 -6.6351329051e-05 -7.5636019002e-05 -3.305732909e-05 -2.0578271898e-05 5.3368651967e-05 -0.004286922384 -0.0042605816435 
-0.0047287778188 -0.002032545828 -0.0022251558849 -0.00298998574 -0.0027744110166 -0.0031631511111 -0.00053003596801 -0.00032373765374 -0.0003463469079 
-0.000144066909 1.5713735577e-05 -1.7527301175e-05 1.7252592624e-05 0.00080126894883 0.0019756992033 0.011776285797 0.0010858529942 -8.4835321428e-05 
0.0018900535257 -7.4232874247e-06 4.8515440247e-05 -0.00021692881839 0.002454964331 -0.00047740000731 1.5649464109e-05 -0.00010563354694 -1.1238001503e-05 
-7.240192111e-06 0.00014640360998 -9.7137155063e-05 2.6648212139e-06 -1.4972603417e-05 -1.8405261856e-05 -0.00051775355876 -0.00072530322306 -0.00066386382068 
-0.00086978164101 8.6525453963e-05 8.0001735524e-05 -0.0027301554845 -0.0027734779527 -0.0024531960485 -0.0042454482447 -0.0038398172803 -5.9070460944e-05 
-0.00012080015771 -4.1874807849e-05 -9.3718613209e-05 -0.00017764684016 -0.00035379391615 -0.00029136927505 -0.0001782293059 0.00031666463867 5.2408594018e-06 
-8.0076263666e-05 3.3623250531e-05 0.010402992003 0.011675596697 -0.011611613021 -0.0011699462873 1.3617807578e-05 6.4119695876e-06 -2.3621586068e-05 
-8.2114791747e-05 -1.1252404258e-05 0.00015585840576 2.713679829e-05 -0.0051012785347 -0.0053950008894 -0.004813979622 -0.0024744060675 1.4811411891e-05 
8.1451899405e-05 -3.1560477741e-05 0.01381736448 -0.0092713525575 -0.012953166109 -0.01121416621 -0.00025863142568 -0.00016679737382 -0.00024759911801 
1.5510105779e-07 -2.1981665168e-06 3.6634411445e-07 1.2293992451e-05 -1.4469137768e-05 -3.7294968707e-05 0.010363100436 0.011712352955 -0.012175648963 
-3.1917327346e-06 -1.8164062249e-06 1.614697783e-05 -0.00069980285463 -0.00051349192061 0.00032794650357 -0.00035606904198 0.0033817022487 0.00019240823629 
-6.7016732185e-05 -9.2863104801e-06 -8.6416300457e-06 -2.2912234791e-05 -1.6660499397e-06 -3.1919835187e-05 1.8977243763e-05 2.6631133343e-05 -8.7210437903e-06 
-4.9667375533e-07 -0.00028505938348 -0.00034395815481 -0.072727600937 -0.013288165401 -0.048109944623 -4.9498370618e-05 0.013247935987 -0.0094450168226 
3.307805309e-06 -4.8495586095e-06 2.3033311899e-05 1.0747808444e-05 4.3230292735e-05 -3.7803521489e-06 -6.3975075909e-06 5.827236134e-06 7.1035001734e-06 
-6.8774897883e-05 -0.0044639471878 -0.0048082068721 -0.0050299628262 3.8788850573e-05 0.030099636583 -0.0065902041877 -0.0070421244637 -3.6346966158e-07 
-1.1408465456e-05 -1.6765936342e-05 -0.00016217504495 0.00018410589832 -2.7957410606e-05 2.8280675217e-06 4.4781457811e-06 6.8012208455e-06 -0.00050399133152 
-5.0942625436e-06 -2.1400687561e-05 -0.0024132696468 -0.0021671263577 -0.0021010050604 -0.0018697388311 0.00071118396289 -0.0017057605999 0.002337494375 
9.5404418821e-06 -1.8369105619e-05 3.7997137689e-05 3.8819274616e-05 1.4349015891e-05 -5.1860407363e-05 -3.0139971202e-05 -3.0281297515e-05 7.1691579068e-05 
-3.8672265274e-06 -0.0087960661481 0.038354141434 1.6517919255e-05 5.6890678979e-06 6.2449056601e-05 -2.1848425373e-05 -3.373290828e-05 -0.0024241107405 
0.00076005256196 -5.5826938305e-05 3.9291478023e-05 5.3754875897e-05 -0.0018623376391 0.028208180657 0.026065240513 7.0273177766e-06 -6.8878705839e-06 
2.4873498666e-05 0.00023480809509 -0.0002611230736 0.0043565000957 0.0064783576768 -0.00017111952243 -4.6330746242e-05 -3.9527013616e-05 -0.00019260378421 
-0.00021373170906 -7.1488646817e-05 9.7466345069e-05 1.2029694079e-05 -4.9146855291e-05 0.00033846320406 -0.0021697723576 0.0011801119935 -0.0034742277451 
0.037360816475 0.049738868723 1.8643411758e-06 -8.2135534088e-06 -0.00010249951219 0.00028191935764 1.7096478651e-05 -0.00018623682847 6.079587204e-05 
2.6395660083e-06 -1.5320771789e-05 -1.2531509919e-07 -2.2552853605e-05 -5.3133682857e-06 1.4572300542e-06 -9.3480786425e-06 -0.0024109679138 -3.5265041188e-05 
1.215214342e-05 4.3203466413e-07 5.2694461132e-06 5.8309052336e-07 -0.0051957531333 6.1835774917e-06 1.0404415893e-06 -0.005196447549 -0.0052528765201 
0.0017939705287 -0.00069461826169 0.0001169127879 -8.2810676542e-05 -0.00015166103605 -0.0005313145143 -4.6349043673e-05 -7.9285468959e-05 8.9060476833e-06 
1.4979690662e-05 -0.019965065419 -0.021610137326 -0.030699289498 0.0022530132651 -0.0017868808471 1.0438080229e-05 5.9800556613e-06 -0.016249002055 
-0.0069465499309 -0.0015084187423 -0.0036919193801 -1.5262771616e-05 3.2018276722e-05 6.9958789711e-05 -3.4734016982e-05 -0.0052427488713 -0.003736888968 
-0.0036779787551 -0.0012696969571 0.00040621805269 -0.0013446613136 -0.0070520312014 1.9471173446e-05 -2.6818861908e-05 -2.2252166785e-05 -2.4243727656e-05 
7.091908282e-06 5.0181254877e-05 3.9548170789e-06 0.00037677254452 3.3211209607e-05 -6.526779113e-05 1.1690716143e-05 1.326081312e-05 8.9035738603e-06 
-1.4379602997e-05 -4.3096531678e-05 0.00012165381743 -2.8210046032e-05 -2.7447402922e-05 -0.014038335074 -0.0028887117344 -0.00018122513019 -2.5922489801e-06 
6.1730511468e-05 -4.7713669137e-05 3.1527352176e-05 -8.8936437768e-06 -3.0137084914e-05 -0.0001710102898 7.4356061527e-05 0.0003829030061 -0.00057391517399 
-0.00057551521082 -0.00076475251533 5.01780662e-05 -0.00018675505409 1.1235294167e-06 4.5029725375e-07 6.3474287082e-06 -0.00035362554344 -0.00053558071666 
-0.0013123519296 -0.00015416322865 -1.4074773923e-05 -2.1913820144e-05 -0.0071854018465 -0.0064330393286 -0.0073480553608 -0.0066432415256 3.1369455334e-05 
-2.3065017804e-06 1.5148683269e-05 -4.08279875e-05 -3.7381131033e-05 -4.6819153757e-05 -1.353240064e-05 8.5663444179e-05 -0.0025740816662 -0.0021393431391 
7.8377768161e-06 3.3683907105e-06 -0.0047116922392 -0.005183887028 -0.0052259729825 3.0321134349e-06 -0.00043310860872 -0.0003951775057 0.00037787993638 
-3.1509501639e-05 -0.0030893797054 -0.0021179410318 -0.0022559411793 -0.0019256517074 0.01421274082 -0.00064162219952 0.0008363462104 0.0050051421624 
9.509354104e-06 -0.0074912389927 -0.0041114481539 0.00018102936536 -2.62291746e-05 -7.0172081357e-05 0.025167941726 -0.002392886403 0.019276700521 
-0.019995264654 -0.0074810614838 -0.0028053296211 -0.0029767136429 -0.0031917559671 -0.00023512541626 3.0889121193e-05 0.013275076952 7.0001393379e-07 
-0.00027321837738 -4.0960328502e-06 -2.1869398829e-06 7.6658285568e-05 4.1934576189e-05 -2.6473099633e-05 1.7614063557e-05 7.2115515036e-06 -0.00011380910855 
0.00011367608106 -9.4416197353e-05 -0.0047185065129 -6.3118061324e-05 -5.2512933635e-05 4.7861511875e-05 2.0681383026e-05 2.1965173629e-05 -2.4193121417e-05 
-0.00019164615328 -0.0043076647813 -0.0038429793381 -0.0039388833142 -0.0027254563857 -5.4735781151e-05 3.2399244381e-05 0.014795422212 3.6008974539e-07 
0.028338052148 -0.013058354827 -0.0017578762153 -0.0010365092037 0.00074670479081 -0.0055673551512 -0.005961188012 -0.0053711449206 -9.0102262042e-05 
-6.3119028549e-05 -0.004295817854 9.9019048727e-05 -0.0068801314941 -0.00042715620122 9.3060304007e-06 -2.9782951598e-05 1.5085563804e-05 7.7944118814e-06 
-0.00047667264741 -0.000355384688 -0.0045888305285 -0.0006041194654 -0.00076254179895 -0.0005689548509 -0.00067293924269 -0.0079441741038 -0.00069074122213 
-0.00071414609412 -0.0006408120085 -7.9190637157e-05 1.4627957937e-05 -5.4614142631e-06 2.5127267558e-05 5.1462140232e-05 4.1002634109e-05 3.3739867572e-06 
-1.3270819111e-06 2.5580713178e-05 -3.1802830934e-06 -0.00041359817054 -0.00046769519606 -0.00058261993126 5.0645894532e-06 5.9693389827e-06 -1.8810225433e-07 
-8.7973632235e-06 4.7683461687e-07 3.0700515512e-06 -0.0029236011428 -0.0010856286115 -0.0021369981343 -4.5231746734e-05 4.3736658908e-05 3.6234236004e-05 
-4.3934304766e-05 5.3720210473e-05 -2.6479392844e-05 -1.0753030919e-05 7.1895167563e-05 -1.632549091e-05 -1.053972704e-05 -3.6781903186e-05 -9.0824827502e-06 
7.1973089901e-06 -2.3311501062e-05 -3.968853037e-06 8.0695656586e-06 3.9903893781e-05 -0.0003640433996 -7.331651456e-06 -0.0054079048222 -0.0092758113435 
-0.0014353068841 -0.0012284211383 -0.00095749844524 -0.00099945378122 -0.0020056952379 0.00076676656259 0.0031035022668 -0.00055014991438 -0.00048380624278 
-0.00069212905898 -0.0022514939352 -0.0057787002439 -0.0018799360153 -2.3468977562e-06 1.1689521464e-06 -1.862328601e-06 -0.0060489007654 -0.0071167592977 
1.3244472356e-05 -9.967809827e-05 -0.00045389957399 -0.0066397894018 -0.0012543330555 4.8176581846e-05 -5.9335108092e-06 -1.4704202481e-05 -1.7843174374e-07 
-0.00011896920461 0.00016202743076 -9.4758681935e-06 -0.010701744513 -8.9721741941e-05 4.0130789651e-05 -4.9644651412e-05 -6.6078469223e-07 -5.2758689471e-07 
0.00026294921927 0.00020327269007 6.7785721576e-05 -0.00017892296046 -7.2289242474e-05 -0.00022830222041 1.9936667401e-05 -1.0227794218e-05 1.9871101738e-05 
-1.735773141e-05 0.00010858042483 9.8516238847e-05 -5.6043601831e-05 -0.00010193099271 -6.2970593604e-05 3.0466266327e-05 9.303463503e-05 -1.1257208448e-05 
0.017776124713 -0.0064882515285 -0.023543508567 -0.00099398557227 -1.3791654043e-05 0.017660007901 -8.9793674586e-05 -0.017041983189 -4.4575781023e-05 
-7.5038942049e-05 2.6502895846e-05 -0.00086829490431 3.1056165374e-05 5.5895006642e-05 -1.0777426121e-07 -4.9461729858e-05 6.0485757948e-06 -0.00018015964011 
-4.8007844226e-05 0.00032207005366 -0.00077298259941 -0.0010404180816 -8.2564415821e-05 -1.6829089396e-05 6.3458544358e-07 4.7353671098e-05 1.7651215595e-05 
-4.5344196047e-06 -3.9084333948e-06 -0.0015702746498 -0.0015721372409 -0.0014965397055 -0.0012930585691 -6.6402694262e-05 -1.1679095055e-05 2.5823954764e-05 
1.3793796438e-05 2.4794684122e-05 -0.0027535643531 -0.003435686936 -0.0031545463884 -4.8111313123e-06 -2.1588082573e-05 1.9614099426e-05 -2.8794547798e-05 
-0.001638101517 9.9524210506e-05 -0.002295536403 0.0024023509226 -4.6054616718e-05 6.289849655e-05 3.2164943815e-06 -0.00096035153688 -8.6421907313e-05 
2.4165742464e-05 -3.8732791156e-05 -1.3694566157e-06 0.00051960305859 -1.6563719833e-05 -2.8064718256e-06 -1.1108906295e-06 -0.017476556268 -0.023061680282 
-0.019310701058 8.5027379069e-07 8.3695031286e-07 -7.2992084981e-06 -0.0021590028812 -0.0016930467101 -0.0022742923048 0.009108730459 0.00012136787656 
-3.5994751617e-05 2.4620190995e-05 -0.00012767802233 1.5352403468e-05 0.0002511640122 -0.00013953976042 -9.8004094561e-05 0.00015387993163 -3.7017252107e-05 
-7.6267381348e-06 -2.2217077696e-05 -2.0521621153e-06 -5.4646108108e-06 -0.0024426763649 -0.0021668614541 -0.0019041725811 -3.6787318041e-07 -1.5707144563e-05 
-3.6010326168e-05 -2.1868336622e-05 -2.9997073288e-05 5.5776885363e-05 2.0406348924e-05 -6.013602456e-05 -4.4653456138e-06 5.9530892198e-05 0.020223429641 
-0.022169172946 -2.0564258087e-05 -7.0411984879e-05 5.5472012846e-05 -3.5833700199e-05 -0.0043641928331 6.0297081506e-06 5.8308653844e-06 -9.0567600203e-06 
-0.00010269745656 -0.041416432507 -0.0005313649057 -0.0055969844609 -7.5029747214e-05 0.00076600436204 0.0016900997263 0.0022257416057 0.0040119869603 
-7.8892171097e-05 -6.7520532153e-06 5.6262581533e-05 -6.2515092573e-06 -5.7489834311e-06 4.1046982673e-07 -8.5426615013e-06 -5.0075707928e-06 6.2293271128e-06 
-1.9248074885e-05 4.7781143061e-06 -0.0012028683482 -0.0012185908112 -0.0015168942957 -9.4711288359e-06 -0.0011169508415 2.9776532262e-06 7.2841609884e-05 
-6.8319332487e-05 -5.2437390093e-06 7.3076717148e-05 1.45961771e-05 -4.446146432e-07 -1.1329924226e-05 -1.5621971006e-05 -5.3594618351e-06 -0.15175705632 
1.4867687181e-05 4.2042675502e-08 1.2295863408e-05 -0.061024180782 -2.1103327435e-07 -4.3221968086e-06 -9.1287631048e-06 3.137227979e-05 1.2091432732e-05 
-2.1649626295e-05 -0.0047994229044 3.9760970347e-06 1.7389176741e-05 -1.0769997161e-05 -0.0082124566625 -0.0020735399684 0.027601054968 0.025904667818 
-0.007969485976 0.00027600138709 -2.9610575631e-05 1.0245503811e-05 0.00010200892733 -2.5927051227e-05 0.00067782672551 0.0029814445681 -0.0015295741715 
-2.2171963324e-05 -0.00034919349346 0.0010765001335 3.1771837273e-05 2.3060886821e-06 -2.438994175e-06 0.00023336807169 -0.00011239388586 7.8395336079e-06 
-0.00012244723661 4.1215954397e-06 4.2366078031e-05 6.5603928189e-05 0.011188334578 0.014209995193 -0.018858308939 -0.001093802598 -0.0008178696978 
-0.0013028369897 -3.5220688767e-06 3.8102153572e-05 -2.3354733186e-06 0.00068953670538 -0.00010169167104 0.0088609440799 0.016692451845 -8.438764417e-05 
-3.4304577868e-05 -0.00018977469722 -0.00026980094489 -0.00025105455876 9.9986708748e-06 5.2267149354e-06 -1.3621146648e-06 -0.00094176025741 -0.00069534905958 
-0.00042324845746 -0.00047436426826 -0.00058780491052 -0.0057237106729 -0.0060628974014 -0.005391280927 0.00018355204047 1.8173688065e-05 -0.00014196389852 
4.8529021122e-05 -5.2900865825e-05 1.8661678396e-05 -1.6975564023e-05 7.0611686241e-06 2.1135259606e-07 -3.2499561351e-06 2.8661268002e-05 -3.977715096e-05 
6.6847238775e-05 0.00013749586548 3.3485682719e-05 -2.8478166013e-05 0.00011113811213 -6.7287410842e-05 3.7961261563e-05 -4.0671677712e-05 -2.108164174e-05 
-0.00013915500049 0.00010628544112 -8.0029086292e-06 -9.8967332111e-06 5.2218655787e-07 -1.0074372359e-05 2.8876192341e-05 -2.532375763e-06 -0.00011451389358 
-4.0181686321e-07 -2.705738751e-05 2.6943303411e-06 4.346134079e-06 -1.7934605918e-05 0.0029053991583 -0.0019240101869 0.00059846197292 -5.1294239471e-06 
5.6355074349e-06 -0.014572508936 -0.010565678061 -0.0021428111618 -0.0025530166337 -0.0022162277731 -0.003279769637 0.001098355788 -0.004395603717 
-0.00097460464122 -0.00013848820521 5.578319391e-05 7.9675763868e-05 -1.6760671647e-05 0.042703518584 0.032209200631 -0.0024293893795 -0.0021066585179 
-0.0025043935096 -0.0032859175965 -0.0030076371121 -0.0034217966006 -4.0333575507e-05 7.3068651932e-05 7.1299171677e-06 9.3592400556e-07 -1.6090418507e-06 
1.8023200579e-05 3.1048069241e-06 -1.5853576669e-05 -0.00015326304893 0.00018922420278 1.2631501527e-05 -2.3453301955e-07 -0.0029899716345 1.0841882904e-05 
-2.8604694805e-05 -4.6139182109e-08 9.7614432131e-06 1.5197540061e-05 -1.5690395258e-05 -1.3333286284e-05 -1.0932073645e-05 -0.004158084487 -0.0026629430601 
1.6244917217e-06 -0.00045703936239 -0.00013267843492 -1.4873043606e-05 -0.00077637533196 -0.00020770049972 2.9050687485e-06 -4.1685285472e-06 -1.7566876308e-05 
-0.00022921168686 -0.0030234223364 -0.0034217232908 -0.0030570974705 -2.4523615087e-05 2.747404916e-05 -1.9398331333e-05 -0.00053454896221 1.7369875349e-05 
7.1065600758e-06 -1.9930948786e-05 0.016289428406 -0.0039092092949 -0.003056750047 -0.0011177872126 0.015683398714 0.0095278593513 -6.7234936816e-06 
4.4178504175e-05 4.7347191551e-05 1.4854870726e-05 -4.712478542e-05 -0.00010431608571 -9.2741855773e-05 -0.0001180952635 1.5203546873e-06 -1.537728287e-05 
0.00013348462412 0.0007001483447 0.0026148928854 3.3324346581e-05 -4.7285006571e-06 -0.0028046108193 -0.00044077691657 -0.00076958705324 0.013931143693 
-1.6683186767e-05 -0.0014602168719 -0.0011441445769 -0.00041274696029 -0.00059779102274 2.7207466124e-06 -1.810429733e-06 -8.6126391636e-06 -0.00011286347197 
-1.0836393186e-05 2.8081568919e-05 0.00015712676939 -0.0042763064539 -0.001091033927 6.7936772012e-06 -0.0001868859311 2.4466344737e-05 -4.6521080575e-05 
1.7468348248e-05 -2.1685107859e-05 8.7684980102e-05 -5.6608331844e-05 3.4929327477e-05 3.2964568343e-05 -1.5100671769e-05 -1.8470836033e-05 -4.5452184242e-05 
-3.4228049753e-05 0.00011566337512 -3.8680703262e-05 -0.00012920202608 -9.8508455389e-06 -0.00033597257575 -0.00028091404176 -0.00023236997228 -9.7544143913e-05 
-1.7603224535e-05 6.0675957424e-06 -1.8369558941e-06 4.9350744097e-05 -0.00022836655453 0.0002059574947 -1.5993904934e-05 0.00029953484246 -8.4830423971e-06 
-3.6457382362e-05 -9.425812981e-06 -0.0026300977847 -2.90006488e-05 -6.7339080853e-05 0.0006548852537 0.00044827102448 -0.00011558704569 -0.13211971959 
-0.00075546998494 -0.00095397797516 -0.00092449482694 -1.779183351e-05 -2.6504802175e-05 6.7646715952e-06 -3.0623207093e-06 1.9703487311e-06 1.0296126657e-05 
6.7465447324e-05 9.9953798762e-06 1.5808220619e-05 6.8970873249e-07 1.4963643939e-05 1.3257777524e-05 -9.1767653591e-06 -8.4180011921e-06 1.1642647453e-05 
1.5950781495e-06 -2.6664548714e-06 1.1752343248e-05 -3.1364642161e-05 6.6366824352e-05 -1.758600014e-05 -3.6212803615e-05 -0.10602545353 8.9314671188e-06 
-4.8145033403e-05 5.6603022373e-05 -2.6078256227e-05 -3.9505292646e-05 1.687753567e-06 -3.9771550431e-05 1.8293503147e-07 3.2596135077e-06 1.3818589108e-05 
-0.0021969992846 1.5690015732e-06 -0.00077463581009 6.805106861e-06 9.9837149191e-05 -6.4874600414e-06 -0.0008676025681 -0.00038534559774 -0.0010029445659 
-0.00047001635613 -0.001180606964 -0.001136564864 -0.0014691090476 -0.0020203539574 -0.0020659923679 -0.0025489719653 -0.0025953582336 -0.0031004993162 
-0.0030206408953 4.0032400494e-05 -5.5524392882e-05 -8.8426826077e-06 7.6308478172e-06 -0.0003961474417 -0.00044247042822 -0.0056402971713 -0.0033615891864 
-3.7239510133e-05 -5.6896008097e-06 -3.7009507907e-05 2.3054802135e-05 4.7779747605e-06 -1.4845763249e-05 -3.1425009342e-05 -6.4314533823e-06 4.1684735048e-06 
-2.2483072997e-05 -8.7807332685e-05 -7.6927568368e-05 2.0101564582e-05 -1.5538140921e-05 4.0889006946e-06 -9.3553174597e-05 -1.8515120891e-05 -5.8085246144e-06 
-1.4799760554e-05 9.2008868668e-05 2.3916296051e-05 -2.2478293712e-05 -0.0005813685901 -0.00051508053985 -2.6415208704e-05 -1.5243298103e-05 3.8212837978e-06 
-8.6064613376e-05 1.9465002878e-05 0.00046922213903 6.5331038692e-06 -0.00050137689575 8.1690358501e-05 -2.9197038707e-05 -0.012680721787 0.011614548111 
0.012162633763 2.261021079e-05 -5.3385326092e-05 -9.8999290787e-05 6.1190545643e-05 2.3347817036e-05 -4.4658730021e-06 2.2450907436e-05 2.1229303955e-05 
-3.1565452185e-05 -0.0023645015282 -0.0019052348355 -1.6299376467e-05 2.498674355e-05 4.2848547549e-05 -0.0010491664461 -0.00084109707914 -0.00089613373233 
-3.7237017183e-06 -3.9149691905e-05 -2.7780795233e-05 1.9718651331e-06 -0.0076396140345 0.01153676277 0.010644257451 -0.00011187475379 4.3805032826e-05 
-0.00021723602549 3.0671767953e-05 5.0429980976e-05 1.6791545953e-05 -5.0963029549e-05 -8.9342694276e-05 -5.5022400035e-05 -3.471339915e-05 -4.7081079199e-05 
2.813622245e-05 -0.0026081887981 -0.0030404379458 2.0456832972e-05 -0.002696044503 -0.0023970471924 -9.5384465746e-06 -0.0017732707958 -7.9160290537e-05 
-9.3535748218e-05 -3.7463322718e-05 -2.7245041117e-05 -1.3068898811e-05 -3.3599866973e-05 5.7767823659e-05 -6.315070827e-05 6.0782523154e-05 -3.8556832806e-05 
-0.0016169586831 -0.0014775982538 -0.0024527717399 -0.0027695035003 3.4027077406e-06 -9.563253649e-06 1.0765457721e-05 3.6758148174e-05 -4.5397765054e-05 
-0.00069019648634 -0.00079553214202 2.3907797806e-05 1.0309535206e-05 -2.0530139959e-05 -6.8738097895e-05 -9.4675693088e-05 0.00017886061621 6.4548089546e-05 
-3.3768624939e-05 1.751270331e-05 1.1507051508e-05 -1.7750727854e-05 -0.00021220941204 0.00019144087155 -1.0246433026e-05 -2.9213284381e-06 0.00011065730886 
-4.592362353e-05 -0.0060980414162 -0.0054712003237 -0.00091485645237 -0.001043425359 7.9940711019e-06 0.00025340176005 0.00014460359112 -6.0469688863e-05 
5.768965216e-05 -0.0038409276553 -0.0034286094623 -0.0038452303606 -0.0034529849292 -0.0040467406437 -0.0041336469088 0.00015598603923 -0.00042809794923 
-3.4159808409e-05 -0.00038981469749 -0.00036414194685 -1.3539705085e-05 1.4297452225e-05 9.071737958e-05 -0.018947660648 0.00082677215399 -0.00011671411368 
-0.00020262103172 1.6296820386e-05 -3.7220957042e-05 5.2757267781e-05 3.2622417689e-05 -0.00032928505298 -0.00021422877214 -8.2015978932e-05 -4.1473616314e-05 
-2.8166467252e-05 -4.0092672871e-05 -7.1916301422e-05 1.3858468982e-05 -0.00067779193255 -0.0004064345171 -0.001022070485 -3.4775000237e-06 3.5239065613e-05 
-7.5579597185e-06 -3.5402166403e-05 -0.016753442453 -0.0067551680951 -0.0068790837675 -7.4923795426e-05 9.6020075548e-05 -0.00039481658621 -0.022645388771 
-3.017729055e-05 7.7755560298e-06 -0.0017135286023 -0.0019591275611 -0.00023408652204 3.0543847482e-05 -4.4093602261e-05 -2.3352003355e-05 -6.3769048449e-05 
-5.2496882901e-05 -0.00016274574438 -6.2293518788e-05 0.00024338588723 5.4535748406e-05 6.3689515655e-06 1.9254511643e-05 -8.1222516982e-05 -0.00019277770825 
0.00010064075164 -4.8452168294e-05 -3.3403397552e-05 3.5571653692e-05 2.0999115774e-05 -4.828607541e-05 -1.2932118768e-05 -9.9541021598e-05 0.00128027386 
-3.2599813286e-05 -5.9165874568e-05 -4.4738567482e-05 0.00016248890907 0.031463511863 0.017080588173 -0.00029674369447 0.00085603699705 -1.0608686179e-05 
-3.6822924507e-05 -6.818051373e-05 -0.00027238409601 -6.2890641847e-06 -0.0028918988562 -9.2608018503e-05 3.7710601602e-05 6.056721549e-07 6.6105866932e-05 
-6.9531004359e-06 -3.6060624046e-05 -0.0029986010413 -0.0027197315874 -0.040642244525 1.4870491959e-05 2.8958273873e-05 5.617784239e-05 -0.00031310986526 
-0.0002033783671 -0.00012995798025 -0.00018398935355 -0.00021250196547 0.00036549032167 -3.2785827461e-05 7.4679732903e-05 0.00015799717424 9.1920361859e-05 
0.00013007469112 -5.5437730279e-05 1.3383043079e-05 2.7665877046e-05 -1.3488928638e-05 2.6159451883e-05 -0.00058563042374 -0.011556859338 -0.0024502093652 
-0.0006603984175 -0.0043736799443 -5.8779848477e-05 -3.0897130144e-05 0.00022781320419 0.00011902909702 -0.010563574297 -0.0139726727 -0.047036125316 
-0.0018208975379 -0.011899084565 0.0014705751991 -0.00085029843352 0.0012789994392 -0.00022560766525 5.1493458101e-05 -0.00010561128446 4.3546038481e-05 
1.3460058e-05 -0.066836487256 -0.00077182855 -0.00051787440176 -0.0007760813302 4.3046257535e-06 -2.7348656735e-05 -7.6071967363e-05 -1.5588200532e-05 
-1.7615060272e-05 -1.8979985783e-05 7.2283947627e-05 -0.015492600459 -0.0030174726254 0.0019924199992 -0.00028324972815 0.0012724739743 -0.049377873531 
-0.0040692953502 -0.0011236684102 6.0100056657e-05 0.00013455929145 -0.00050307423752 0.00031475323118 -0.11501858182 -0.031437724703 -0.036926429037 
-4.4328162524e-05 -0.0695694921 -0.01867352967 -0.0016969777359 -0.00061764345902 7.6825549744e-06 -0.0034291193334 -0.0025262200727 -0.12884987936 
-0.020952886932 -0.063269267376 -0.0020483090494 -0.00011204270425 6.621489562e-05 -7.4234018536e-05 0.012638436864 4.1234926942e-07 2.4968290442e-06 
-0.00012226626929 2.7782938495e-05 -2.4940676948e-05 -0.00055643832415 -0.00077588203014 -0.0046892149589 -0.0051202784867 0.0016322673069 0.0011399632951 
-0.028657587876 0.017555173313 -0.0066698293446 -0.0023147152139 -0.0026810768656 -0.0022963288162 -0.00011619744156 0.0018082859393 -0.0016258688596 
6.0061828283e-05 1.6139159885e-05 2.2753175092e-05 0.00029499862221 -0.0020939084519 -0.0024533717938 -2.1774974191e-05 1.5824918182e-05 1.4816485441e-05 
-4.8379559451e-05 -0.00012411796859 0.0001117485709 0.0033435724174 -0.00059355849805 -8.4923042181e-05 -7.2976769345e-06 -3.4048041626e-05 -9.8604791524e-05 
1.0407098223e-05 -2.6276427141e-05 -5.0558840522e-07 -0.0001217212079 2.6235015047e-06 4.8042043785e-05 5.3795649254e-05 0.0001275766599 9.289859482e-06 
-3.7680254851e-05 -0.0027312931948 -0.0026827779671 7.6269110936e-05 -1.9947982246e-05 -8.9670396725e-05 -2.8532772558e-05 6.6078412156e-05 5.827629333e-05 
-0.00010279337425 5.3709640361e-05 4.0989916387e-05 -6.817699938e-05 -9.400840069e-05 2.4351550119e-05 -9.704315682e-05 1.9972187445e-05 5.9854481764e-07 
8.5958768464e-05 2.9801714998e-05 -8.0971478301e-05 1.4704352322e-06 1.1157876792e-05 -8.7229205419e-05 -1.8631824816e-05 2.8387603852e-05 8.2471113233e-06 
7.2079395807e-05 3.969541384e-06 -0.00011306770955 -0.00030004892492 -0.00074364479462 4.6239457195e-05 -5.9058815628e-06 4.4146651678e-07 -8.7652413139e-07 
-0.0059764223497 -3.1218788835e-05 1.3063632663e-05 -0.00026064334852 -3.8698569744e-06 6.6738910373e-06 -1.6376486778e-05 -3.275920269e-05 2.8343676956e-05 
-5.2115076312e-06 -4.8471544939e-06 -0.0069514665377 0.00010247513642 4.3806104336e-05 6.2114688692e-05 1.1943864755e-05 -5.4582994389e-06 -0.00036819109786 
-0.00023512478593 -4.3394325592e-05 4.5215009225e-06 -1.2004351996e-05 -0.0016791590326 -0.0016560934686 -0.007251391053 -0.0015239532575 7.8856807719e-05 
-0.00042134382283 -1.6386223224e-06 -2.2443924684e-05 0.00014088522529 -1.3358472843e-05 -1.5794447065e-05 0.0014759032414 5.9861337688e-05 3.1204300165e-05 
-0.0021853426636 -3.5746484003e-05 -8.9588382578e-06 -0.0016288734112 -0.0013394551188 -1.5576458958e-05 2.3904198359e-05 2.2387287833e-05 -0.0063352633837 
-0.0069312788664 -0.0051611761853 -0.006387765894 -0.0031252190272 4.0341197442e-05 -0.00064112591294 -4.3801671279e-05 -5.8613751865e-06 8.2090467115e-06 
-6.6750220485e-06 -7.5519060825e-06 -0.00073834764365 1.1389524787e-05 -3.9148388067e-05 -8.4786608289e-06 3.916857089e-05 1.0188019611e-05 -3.9657594766e-05 
3.2788935231e-05 -7.5465436709e-05 -5.7064427988e-06 -7.1139912684e-07 8.9050268758e-06 -1.9510542376e-05 1.8067655372e-05 -0.00056813242543 -0.0002513774998 
-9.2849092961e-05 -7.8513470903e-05 -0.00014215495772 -0.00012146816984 -0.0013417092084 -0.0041966684103 -0.0012963684615 -4.2405882329e-05 -0.03940861702 
0.0019264166714 -0.029774774575 -0.035999676968 -0.0030700675414 -4.61194178e-05 -0.0025490083139 0.0017649597289 -0.00014768538008 0.011562021138 
3.9700919663e-05 -1.0339331589e-05 -0.00014645641639 -4.7100556141e-05 -0.012243991094 -0.0084639131871 1.1060965217e-05 -0.065520784569 2.821465495e-05 
-0.002305397771 -0.0026499764155 -8.1127720075e-05 4.1232698306e-05 -0.0027884738362 0.0008668412531 -0.0020506571634 0.014816171456 -0.00010903775861 
-9.8335077571e-05 -3.4325870391e-06 1.2178070731e-05 -0.00022047586115 0.009092036204 -1.1146487608e-05 -1.4979894533e-06 -3.377320312e-07 1.9806389619e-05 
-4.1185628931e-05 -0.0043158968649 -0.0014513238606 2.7704941119e-05 -0.0010234857842 -0.00074518752193 -0.0035120909758 -0.0014148809 -0.0012905620359 
-0.0016099008972 -0.0030533960862 -0.0031251462551 4.087596562e-05 0.00037431967816 -0.0023394783391 -1.0339777842e-06 -8.866944043e-05 -2.2174300865e-08 
1.6915098333e-05 1.1566677669e-05 9.4067465941e-06 -1.3107162088e-05 3.7109486593e-06 -1.9786539643e-05 -0.0027788732055 -0.0026062888281 -0.0022031115315 
-0.00088048183754 -0.0056481874458 -0.0053698430474 -6.0429637332e-05 9.0063059325e-05 3.7741675809e-06 3.6078603003e-05 -3.0152238193e-05 -0.0030622817459 
-9.8349696954e-06 -9.6762679795e-06 3.9246870002e-06 0.00047526855206 0.0058033906049 3.132004702e-05 7.6121639711e-06 1.3420208644e-05 -0.0034545227672 
-0.005015319198 8.842261768e-06 2.9025718637e-05 -4.8129311029e-05 -0.015210236657 0.0027358417917 -9.2353074421e-06 -0.00603551703 5.7166416259e-05 
-7.648416145e-05 5.9844106798e-05 2.6524451831e-05 8.2989638515e-05 -0.0042813311404 -0.0040086056781 -0.0044692240568 -0.0041632332324 1.3797895761e-05 
4.5353773718e-05 -1.4345625662e-05 -4.5241229885e-05 6.7059455218e-05 -0.00052677416692 -0.000698441024 -0.00058663761997 -0.00075680001908 2.8587364717e-05 
0.0061913606265 0.010090888215 -0.0018821473356 -0.00021185315942 -0.00015653717059 -0.0042671085701 -0.0047413800175 -5.6696722274e-06 1.3407570253e-05 
-0.0069434409367 -0.0045407421658 -0.0047886149821 -0.00043255352531 -0.00056858943922 -0.0011389723764 -0.0021479601679 -0.0024011265617 2.7166903563e-05 
-1.6175326423e-05 0.00021772978202 0.001369553245 -3.2072041568e-05 7.4394627734e-05 4.7418158765e-06 0.00053910976136 1.0130901803e-06 -1.8578531122e-05 
-2.5521858023e-05 6.0189382926e-06 9.9551126211e-06 1.742791391e-06 -0.005027655036 -0.0081036720265 4.2131157638e-05 3.2694571297e-05 3.4125514895e-05 
6.2987018999e-05 -1.6869146729e-05 0.00023263721854 -0.00042011296648 0.0002234335847 0.0004209935073 -6.0772659574e-06 -6.0917313663e-06 5.3185525593e-05 
-5.9412056652e-05 -0.00021774900734 1.6584455499e-05 -1.5579090096e-06 -6.4120462043e-05 1.8262772312e-05 0.0024754349428 -1.8742376267e-05 2.0866711431e-05 
0.00031595101307 0.00068987234771 5.1105466081e-05 -5.2233341375e-05 -0.00022339250487 1.4341815838e-05 0.00012699244204 -2.4700179159e-05 -0.0055401689247 
0.0016523686734 -0.00035627045047 -0.0012575494871 -0.00084664105736 -0.00074951570629 -6.2638591994e-06 2.5795750865e-06 0.00016257226616 -6.88115405e-05 
1.5642402848e-05 1.6946467707e-05 -0.00076398230205 8.6796060518e-05 -0.00059505797178 -2.7209602986e-05 -4.9482712491e-05 -0.0017681879204 -0.0010524996976 
-0.0080286515352 -0.00013990613384 2.3106559357e-08 -2.9394346236e-05 -0.00016152803807 1.3067050966e-05 -7.0291708719e-06 -1.3727788161e-05 6.5460880722e-05 
7.274814724e-05 -0.0033863672105 -1.4964344549e-07 -1.0587819718e-07 2.0641230771e-05 -0.013006479247 -0.0057569102601 1.3800688543e-05 -3.8145020548e-05 
-0.00015227695165 -0.00020044399141 -0.0002645633254 -6.9464980462e-05 1.0672956709e-05 6.7803766013e-06 1.2527481368e-05 -7.8503657781e-05 2.0873623203e-05 
8.1245149685e-05 9.7493876544e-05 -0.00013695009817 -0.0061790219981 -0.011231865811 -1.7313305911e-05 -3.3648366976e-05 -0.0017037860387 4.0617942459e-05 
-0.00015365649683 -1.4277171486e-05 0.0001405204934 -9.7368428294e-05 6.8333505789e-05 0.00064239517106 -6.3448068219e-06 -7.0999995156e-06 -0.00010148563582 
-0.0069107307313 -0.0066745711841 1.0028130293e-05 -3.0407479999e-06 6.0484489381e-07 -1.6200792005e-05 0.0035114603355 7.5223293571e-05 -2.991808315e-05 
2.8860347421e-05 2.1755805495e-05 2.2253043321e-05 -0.004250922104 -0.0064256931119 -0.0097120204597 -0.0064844789128 -9.1089304841e-05 -2.4076707691e-05 
-9.9574958539e-05 -5.5726713902e-06 -9.8018093416e-06 -1.4087043029e-06 7.9705580703e-05 -0.00011960259904 -0.0042073260645 -0.0047013489882 -0.0043525978226 
0.015505794471 -0.0011743568119 -0.00019589170693 -0.00016266526134 -0.00027486221308 -0.00048542963661 -0.00052298069732 -7.924965833e-05 -3.5499025907e-06 
8.5907917514e-06 2.3940239128e-05 -6.5595972771e-06 -4.279614615e-05 -4.9625311271e-05 -4.4414366309e-05 -3.0937637089e-05 -0.0021721143236 -2.4203067511e-05 
-0.0033062471031 -0.003737732191 -0.0034177971099 -5.3248626599e-05 8.1488522092e-05 1.2383365881e-06 0.0001965535888 5.9311921113e-06 0.0022724747593 
0.00077646656679 -4.1893751222e-05 0.00012497479415 0.00071812515092 0.0028320018343 -0.00010168888741 0.00011916106346 5.7061598548e-06 3.469489094e-05 
5.9879110132e-06 -2.887111367e-05 -1.3090482505e-06 -1.340366653e-05 2.7566113969e-06 -2.7224634189e-05 -7.6267830278e-05 -0.0052435643209 -0.0048203147062 
-0.00255216714 0.00010094213538 5.2787183759e-06 -0.0016604365971 -0.0020340846823 -0.0017562010535 -3.5891323429e-05 -0.0037494496799 -0.0039031659022 
6.306029367e-06 -1.5781984109e-08 -0.0019860902576 -0.001057064583 -0.00098594843618 -0.0048458627908 -0.00026529520109 -0.00099548595931 -0.0013396782931 
-0.0014130059954 -2.3365991243e-05 -0.00024750866562 -0.0076329531283 -0.0061472062255 -5.2973817492e-06 8.838019974e-08 -4.8525152762e-06 -0.0011983469853 
-0.00092546247258 -0.0069811205752 -1.0404153234e-05 -4.3393795573e-05 3.3707203731e-05 2.8734471591e-06 -0.00063177995303 -5.6922413039e-05 6.815182255e-05 
-0.00020819532781 5.9675149386e-05 1.7169486678e-05 -0.00010836246495 -4.0050719902e-05 3.2774199028e-06 2.2342321257e-05 -1.8104636394e-05 -2.6847129079e-05 
3.4484327351e-05 -0.011019792412 -0.015940299234 -0.0017757814388 -5.7442014767e-05 0.00014526345074 -0.00029122603297 -9.781738345e-05 0.01182527033 
0.0098758247295 -0.0012994471731 -0.00013662695555 -0.000332685391 -0.0021508225998 3.9425492202e-06 4.628453982e-07 -2.7057809085e-05 -5.7076461543e-05 
-0.0010338461618 -0.00078833857405 -9.9958389617e-05 -5.3324000557e-05 -0.0024007126094 -0.00012426248362 -6.1755941062e-05 -0.0019788723065 -7.4759296398e-05 
0.00015500411951 -7.3470129026e-05 -8.382816879e-06 7.5168702811e-05 6.277021337e-05 -7.3994049592e-05 0.014251068836 -1.6939578287e-05 8.6346746638e-06 
2.1528074693e-05 -0.0028123554541 -0.0016458588017 0.00017596777599 0.00010629968692 6.5536812499e-05 -3.4167562721e-05 -0.002880226362 -0.0028156241001 
-4.4404533379e-06 -0.00035300400989 -2.7600594039e-05 0.00010567874162 7.6261932146e-06 2.8073138215e-05 -9.1073868253e-06 4.5352500359e-05 1.5907879264e-05 
-0.0014172518358 -0.00050388508623 -0.00046857630929 1.30732789e-05 -7.4019599949e-06 -3.8679310584e-06 -0.00049005863175 -0.0010127275925 -1.7017289257e-05 
-1.1473994003e-05 1.1929423105e-05 -3.3575669858e-05 -8.4767456965e-06 -3.0723338141e-05 3.2717936427e-05 -3.8103954649e-05 2.7580531887e-05 6.3689810143e-06 
-1.0891238515e-05 1.7753213927e-05 -4.5776505543e-05 5.6099001849e-05 -3.7246995335e-05 1.0383066387e-05 2.6796517032e-05 -1.6830671883e-05 -5.5656606878e-06 
-1.906831316e-05 -0.0013635439048 0.00015548059928 -0.0011251834287 -0.00047144032294 6.8135018165e-05 -3.2028504117e-05 -0.0021878389343 -0.0033300980177 
-0.003008657867 -0.0033833933704 2.3870062887e-05 -3.8984564787e-05 -0.00093447199919 -3.3976358942e-06 4.1184485124e-06 3.4256697555e-05 -1.5048023829e-05 
-0.005615523035 2.8458181139e-06 -0.00041689525706 4.5837182125e-05 -6.0658135742e-05 2.5635456806e-05 0.000133503724 9.1437558163e-06 7.9957257394e-06 
5.1385230064e-05 -4.0314464021e-07 -6.2715089256e-06 2.8268361285e-05 5.0809128135e-05 -3.6558220359e-05 0.0002590717083 -0.00018356675183 1.7365695555e-05 
8.1310283405e-06 -1.1772393023e-05 -5.4173215466e-05 -0.00076498959998 -0.00083430063474 1.7458003251e-05 -0.00076775634672 -0.0042333680352 -0.0038412721499 
5.7885252044e-07 -0.0025627573029 -0.0022230971797 -2.3546358516e-05 -9.9733697958e-05 1.6349615427e-05 -8.4116004697e-06 -1.6893962277e-05 -0.0039413772723 
-1.0345140116e-05 -3.2091004851e-06 6.3014803126e-06 -1.1642983734e-05 4.633880806e-05 -4.6353895431e-05 0.0023299822818 -0.00021640462167 -0.00032165909624 
-0.00030767598233 1.4048683627e-05 -2.4644076183e-05 5.6265544445e-06 5.3220074847e-05 -0.0074833835322 7.1216398968e-06 -1.0278920073e-06 -1.4059479045e-05 
2.460406566e-05 -0.0012292215846 -0.0075845321775 -0.0037101441721 -0.0035595134482 -0.0013078400894 -0.001795437512 -0.0017330824046 -0.0021921763261 
-3.724753908e-05 0.00012885931229 2.2860305315e-07 -7.5110130116e-05 -3.7489036017e-05 -1.0895048007e-05 -8.1331629041e-05 -0.0062125296051 -7.289638403e-06 
-3.2406512543e-05 1.2713403443e-05 2.4299376121e-05 -1.3201195791e-06 -6.7157044128e-06 -2.4836819718e-05 0.00017442286566 -6.8604763997e-05 1.7896199787e-05 
-5.9544425987e-05 0.00024134765655 -0.0096196306155 -4.1335987873e-06 -0.00036297362895 -5.1606766932e-06 -0.00015565637984 1.0077251959e-05 7.4715601084e-05 
-7.3230417661e-06 -8.3147316333e-06 1.8771960988e-06 -3.6947082533e-06 -4.2411171086e-05 6.5764404079e-05 -1.7202213639e-05 -0.00016004560795 2.7125881677e-05 
-4.7412351877e-05 3.998367718e-05 -5.5159551209e-06 4.648350018e-06 -0.00047494744192 0.0043953916391 -5.2349677149e-05 -0.0032839776007 4.0456414078e-06 
2.3095659672e-05 -0.00079979804004 -6.4875842192e-07 -2.2617413273e-05 2.0061706036e-05 -2.2108586105e-06 0.00030167444554 0.00066270033725 -0.0023780747399 
-0.00015265461211 2.1457312502e-05 8.6696506436e-06 -0.029811028033 0.013089239828 -0.0037837612219 -0.0036907527798 -0.054094752336 -0.00018953920244 
4.8352137794e-05 -0.00025868344503 -0.00012647063854 -1.4664684159e-05 0.00019818820157 -5.2907808942e-06 -3.42747496e-05 -0.0099385383796 -0.060792987461 
-0.037108928624 -0.039014282563 -0.00036315061185 -0.00039851908099 3.0378496877e-05 2.4168709908e-07 4.2965100381e-05 -0.00010926150039 -0.003820024547 
-0.0040504204234 0.00013136767277 8.5204262816e-05 -0.0011897069541 -6.1299830726e-05 5.2780366337e-05 5.9716975927e-05 -0.0027205694642 -0.0013939080134 
-0.0030369115185 1.6416951901e-05 7.8011651375e-05 -1.9809944833e-05 3.2780654183e-05 4.711807358e-06 1.0817520448e-05 -7.9113862529e-05 1.1825534855e-05 
0.00015715212617 -0.0001182201668 -0.00014927510793 -3.6635811135e-05 -0.0018993812553 -0.0021633123739 -0.00032563735405 -0.00030682792159 -5.1888430325e-05 
-3.5618323905e-05 -0.032706050189 -0.01271342825 -2.8437962072e-05 -2.1730807956e-06 -0.00017603827365 -5.8828782908e-05 -4.8120639564e-05 -4.1847316596e-05 
-0.0013823041397 -0.0015555181068 -0.001697414571 -0.0011843231444 -5.6130527818e-05 -3.6062153765e-05 -9.6368138379e-05 -0.011864301511 -0.017697882988 
-0.016931406013 6.0516650862e-06 6.2829721883e-05 -0.0036394360554 -0.0039626627214 -2.2856485523e-05 9.8571642688e-05 -0.00010722578446 7.1850199417e-06 
-3.7597875596e-06 -0.017641577904 -0.0011327691964 -0.0073655496894 -4.509968383e-05 -0.0040096277891 -3.2860941178e-05 -2.2267841e-05 -1.6867181523e-05 
-9.7131698815e-06 4.1094677287e-05 -2.1061555796e-05 -4.6954073329e-05 -3.2717672486e-05 -0.0018578745628 2.1793897872e-05 -0.0014465389985 4.733220171e-05 
-3.1825380721e-05 1.1923213305e-05 -3.3598103834e-05 -0.016943447474 0.012440144615 -0.0091667531093 -7.9567344704e-05 -0.0037803009523 -0.0038029913108 
-0.0041898297654 -5.4437430512e-06 8.9268790358e-06 0.0084537437848 0.016382451815 -1.9151063727e-05 -0.0031451168339 -0.002758361979 7.1231502966e-05 
0.00013142329066 -1.1384847769e-05 -3.7418379949e-06 -0.0026120272912 6.7702661182e-07 -1.5794262609e-05 -0.0024573199243 -4.9047728334e-06 -1.9031525363e-05 
2.2979651774e-05 -2.7542672178e-05 0.011003281513 0.00039245767453 -7.4057454761e-05 9.4335311004e-05 -1.2789337001e-05 -4.6641079269e-05 0.00011368363446 
-0.0076177417192 -0.014663441603 -0.00027296460192 -1.9358006521e-06 -3.9559528932e-05 4.1185092745e-05 -1.7512294561e-05 8.3228572634e-06 -0.0063200106098 
-0.00011199423489 5.4464435576e-06 3.6880818938e-05 0.00010552876175 -0.0005135683786 -0.0010736246774 -4.1006258028e-07 4.6682692371e-05 -1.4022861853e-05 
-1.7430294932e-05 -1.6277663876e-05 0.017188262118 6.0965431329e-05 2.3521357315e-05 0.011549977465 0.019962794296 -0.0050916820879 -0.0068370444426 
-0.017980470863 6.3060824741e-05 5.4551632374e-05 -0.00031985486636 2.6038007335e-05 -0.0053992156289 -0.0027391664752 -0.0052030724183 -0.005026489493 
-0.0010871674984 5.3481874167e-05 -4.8731134927e-05 -0.0061068773688 -0.019873908702 0.0019683134579 0.0023194847187 -0.00028884544086 0.00016010168711 
-0.00021916985053 -0.00015210556813 3.0310495215e-05 1.2239916752e-05 -4.1781777107e-06 -0.0029296710097 -0.0027999856317 0.0032642310043 0.00025663100438 
0.00019304039507 -0.00074921686075 -2.0727941359e-05 -2.2794330172e-05 -1.4704955216e-05 -1.2806891052e-05 -2.0869791214e-05 -0.030338053523 0.011750301628 
-0.015719654934 0.012109439013 -0.002810443047 -0.0031270579525 -0.0015101657342 -2.5985144396e-06 0.00010227531076 -4.6035437962e-05 1.1852857595e-05 
1.7658828743e-06 4.1165021623e-05 -5.910283236e-05 3.3448361241e-05 -1.3475070055e-05 -2.8224533266e-05 1.5635564752e-05 -3.7440593124e-05 -9.5672119313e-05 
-2.5335368547e-05 -0.00037973132273 -0.0075489148661 0.001867811255 0.0011608004228 6.1321245561e-05 -5.087013664e-06 3.2824678666e-05 -0.0027059664379 
-9.6620783167e-05 -0.00073461064724 9.4969742313e-05 -6.0916038778e-05 1.1114269551e-05 5.700826382e-05 -0.00081049026551 -0.0010496719567 -7.4621346173e-05 
0.015716034747 3.8078478218e-05 -3.8620873022e-06 0.018513483715 -1.9779054521e-05 -0.0063751076854 -0.0031033457176 -0.00015139742222 0.0011654926753 
-0.0095468021484 -5.9463171632e-05 -1.6297787152e-05 -0.00026723995257 -0.0001205002702 -0.00028616401985 -2.7589827062e-05 -2.0739863051e-05 -0.0079168086337 
3.286265578e-05 -0.00090411990853 -0.00012227303832 -0.00048936659852 1.4082252367e-05 -8.8528154287e-05 1.1816843578e-05 8.1038716302e-05 -4.1339290617e-05 
-1.1101857222e-05 -1.512323064e-05 -0.0009987430052 -5.8437887166e-06 2.8135431037e-05 8.6088233784e-06 1.7952765926e-05 -0.0039640482192 -0.0044104446342 
3.8678523755e-05 -5.0132208495e-05 -0.0056903854385 5.4907975622e-05 1.6947928939e-05 -2.9901183315e-05 -8.4650496158e-05 0.00018018530918 -4.2639478789e-05 
3.4665074056e-06 7.6581395907e-07 -3.4328668818e-05 -0.004094955433 0.003845464403 -5.9879002268e-05 -0.0012816656177 -0.00033299430027 -0.00028358428453 
2.8419469633e-05 4.9078754283e-05 -9.2256553224e-06 -0.0027026720499 6.885378061e-05 1.9549381186e-05 6.0604987693e-05 -6.2287751254e-06 1.5125836333e-06 
5.9953364964e-06 -1.006897615e-05 -0.00033016656393 -0.00020240916126 -0.00022426982123 -6.5399129379e-06 1.2025443067e-05 -2.1329404578e-05 -0.0012498486412 
2.0428188864e-05 7.4488761038e-06 -8.0743314086e-06 -0.00040372650895 3.7574420613e-05 -0.00014950711769 0.00011881841961 7.4152791575e-05 -0.00014589790338 
-0.0016420186082 -0.00080521659637 -0.00080031055728 -2.0338434552e-05 -9.2693111712e-05 -0.00012428422152 6.1664734028e-05 7.5026002364e-06 -6.5116570472e-05 
-9.6472721131e-05 -3.4794953123e-05 -0.00046081135049 -4.9894910161e-05 -0.00087266445104 -5.0605020263e-05 2.0367779871e-06 -1.3931884517e-05 -0.00016578062598 
-3.3288791702e-05 -0.024526958126 -1.1683750584e-05 -0.0051293944337 -0.00090927460475 -0.00066958942919 0.00025796841504 -0.0021183160293 -0.00097936993523 
-0.00016534282619 -0.00014099233664 -0.00037132237005 0.0020950959277 -2.5684877873e-05 0.003790984806 -0.0054486584429 0.0035722019207 -0.00011922709116 
-0.0050874953847 -0.0050112314126 -2.2856894025e-07 7.2154505089e-06 0.0094284248739 6.9652905197e-06 -8.4040561079e-06 -0.0053929176531 0.016472279742 
-0.0018019452926 -0.0011420622535 2.0656523183e-05 9.7047872138e-06 -1.0046197994e-05 0.00089242172326 0.00015678886092 -4.115987981e-05 -1.3771500782e-05 
1.6001799213e-05 -0.0074426140082 -0.0027800781574 0.01170028742 -0.003330606161 0.00075136379853 -0.0027160564732 -7.1190894788e-05 3.7057766104e-06 
-5.2121925732e-05 9.316923836e-07 0.00031837607685 -8.4156472241e-05 3.1594051926e-05 3.8576223456e-05 4.5045730018e-06 -1.3920100625e-05 -0.001113631736 
-0.0014095209349 -2.6264647781e-05 -0.0051847363395 -0.0060405751907 4.6094658253e-06 -0.043098530014 -9.8997391472e-05 -5.4242191588e-05 5.058111383e-05 
2.4753565988e-05 3.9252398381e-05 1.6768835787e-05 -0.022966024724 2.7936717297e-05 4.2838405871e-05 -2.4080703683e-06 -7.4683767941e-06 4.9158955076e-05 
-6.1729599309e-05 -7.234054778e-05 -1.6594994489e-05 -0.00087628883536 -0.00037494071988 -0.0058194466677 -2.1147579106e-05 -2.5348679015e-06 3.6393702447e-06 
7.3549168124e-05 -0.38890519588 -0.0020553509019 -0.012872731378 -1.8593041515e-05 2.1702628747e-05 7.5216764297e-07 -2.0232303287e-05 -0.00080397862967 
1.8297544366e-05 -2.4079609113e-06 -6.8723209239e-06 6.7259572735e-06 3.369683765e-06 -0.00011051271132 -9.7765071478e-06 -7.1223635461e-05 -3.7672991681e-05 
-7.315883397e-07 -5.4369189537e-05 0.00018123737211 -4.1045906053e-06 -0.0016617555046 -0.0010175651175 1.6556262357e-05 -0.0018431586182 2.9122448634e-05 
-2.986006266e-06 -8.914409218e-05 -3.4027010819e-06 -3.7606664072e-06 -0.021666441938 -3.778666796e-05 -0.0012496620589 -0.0030491955535 -1.2826145211e-05 
-0.00010814470144 -1.2162961217e-05 -0.00022350149064 -3.6889073631e-06 -0.0039231076236 -0.021529736627 -0.00020147666238 -0.00018081627423 -5.741354198e-05 
-5.8750080953e-06 0.00014264027044 0.00016400928479 -6.5779311109e-05 0.00010146089225 0.00050723658505 1.1662043414e-05 -7.7892916834e-06 -0.0039010457739 
-0.0011361173848 -0.0071501440742 -2.7048127713e-05 -2.3849248446e-05 -1.3156054395e-05 -5.1001760311e-06 -3.937592752e-05 -0.00047179799791 4.2830831846e-05 
-0.0056532526348 -0.15272046616 -0.00065410691241 0.0027347263086 -0.0010972302847 -0.0005106696511 0.0028901581673 -0.023156923934 -2.2957260431e-05 
-0.0009350618648 -0.0073043588545 -0.019381375623 -0.014617198906 -3.4780554157e-05 -5.03651228e-05 0.00088828144109 -0.00029249912221 -4.4551730201e-05 
-0.0010440997079 4.8396875112e-05 -2.662889095e-06 -7.1189238229e-06 0.00012240883897 -6.4222445872e-05 4.1349057238e-05 -0.0022416168574 -0.00051853966294 
-7.452785232e-06 -7.0163857679e-06 2.3535364005e-05 2.2974391145e-05 -0.0013208219011 1.3101574971e-05 8.439659319e-05 -6.5079334848e-05 3.9724398182e-05 
-0.00029550367682 -0.00013025375488 0.00022450542293 -4.4513898692e-05 -0.00036821708989 -1.4684674736e-05 -0.0015839649763 2.2335145801e-06 1.0137620067e-05 
1.3580919535e-06 -2.8535312846e-05 3.3852762031e-05 -0.019333171804 0.0014053005048 -0.0016010102969 7.0132244834e-06 6.0404893845e-06 -4.6020011788e-05 
7.2239106616e-05 -0.0012782227791 -3.2142941791e-06 8.5170172715e-05 -2.1846587214e-05 0.00043144089504 -0.0034891970161 0.00017747886013 -0.0001434093942 
-3.1004107335e-05 -0.00010646608786 5.4610900197e-05 -2.3217355142e-06 -9.1769475382e-05 -0.0013411385474 -0.0012123479558 -0.00075411932423 -7.8985419694e-05 
6.7125470924e-05 -1.905918041e-05 -4.0543791808e-05 9.9578198296e-06 1.3230266373e-05 6.5362010374e-05 -3.1093263768e-06 -1.192577055e-05 -0.0056252775005 
-0.0004441367591 6.3340531103e-05 -0.0001369740049 -0.0028164142989 -0.0018586848107 -5.6255098266e-07 -0.0007700638653 4.8714647385e-06 -0.00029001500793 
-0.0017377121461 0.011202481611 -1.7622773778e-05 0.00024418758513 -3.0509209719e-05 -0.0023487757682 -5.2389704744e-05 -0.00011807377761 -0.005371472846 
1.0841837025e-05 3.7366441567e-05 -0.0035309448957 -0.00072664451598 -3.2413432332e-05 -3.3967095284e-05 3.9264977713e-05 -5.3742859275e-05 -0.00012651020925 
2.2075314649e-05 -0.00035299725098 -0.0034124414904 -0.0066182045964 0.0079872271845 -0.000446633511 -0.00064884235812 -3.2062740234e-05 0.032250064668 
-0.0052222134286 0.015368886493 -8.1154914096e-05 -2.5978952457e-05 3.6678917503e-05 -0.00091611177096 -8.0776173705e-05 -4.0252114626e-05 -0.00018753939822 
-0.012683320782 -0.0086463469243 0.031183027039 -0.00013066395319 1.2501967548e-05 -9.0308305562e-05 -6.3118965295e-05 -3.3068449257e-05 -0.00063526526996 
-0.0043280685495 -0.0067796729674 -0.0071778435574 -0.0010558807038 -0.0018322880158 -6.3265024279e-05 -0.0044213243764 -0.0026942214591 -0.0047069461867 
-0.0018086419494 -4.3036144875e-05 0.00011681640913 9.1687237949e-06 -0.0040406704728 -2.3744784151e-05 -0.004515179888 -0.0050417846357 -0.001394422891 
6.334932909e-06 0.0003270187178 0.00032240671212 -1.7175606121e-05 0.00012250227766 -9.2770993566e-05 -3.4734729912e-05 4.3384828483e-05 -0.003585712781 
-0.0031840883135 0.00029113659483 4.8404093209e-06 -0.0001446143691 -0.0046648146547 -2.2680216352e-05 2.5733933988e-05 -0.0017733024375 -0.0038384330111 
0.00012285077584 0.00044076749369 -1.596679822e-05 -0.00014554257688 0.000247375021 -0.0029818371428 2.6117414708e-05 -4.0467283543e-06 -2.579381331e-06 
1.1214424291e-05 4.8133534784e-05 1.1325044655e-06 1.9714596563e-05 -0.0017935138632 7.6262431082e-05 0.00012100908218 4.883973492e-05 -0.0031935001048 
0.012927979421 -0.0017799522298 5.2024624191e-05 0.000200406589 -9.5407353913e-05 -0.033061415692 -1.523557461e-05 1.9095796798e-06 -0.00082431828797 
-8.5374335275e-06 -6.0143237677e-05 2.5195055891e-05 -0.0019909987445 -0.0016404695731 -0.0018409263865 -1.6752897411e-05 -0.00037221393113 -1.0565872508e-05 
-0.0021250678658 -1.5684603034e-05 -0.00011684125235 -1.7935210456e-05 -7.4133199644e-05 -0.36433995045 -0.40764812691 
von%20Mises%20Stress 1 12526 double
0.59869692401 0.52999632804 0.52184305803 0.56757948971 0.33335501032 0.33333929152 0.33334491927 0.33333700207 0.48928225039 
0.45461293769 0.43881656363 0.44095012841 0.53662227869 0.43501293275 0.45909888036 0.45263237704 0.33230859747 0.26050109887 
0.22731899273 0.22681926481 0.19004266936 0.17776456975 0.17141542638 0.16795384585 0.16515589438 0.16414314302 0.16189568881 
0.16115267723 0.16190532195 0.16258568459 0.16322357541 0.16428844751 0.16560937457 0.16682508845 0.16990469587 0.17398399335 
0.17856923021 0.18323542488 0.18880605445 0.19595960439 0.20938449032 0.23415393245 0.30097728191 0.28180716785 0.23588458249 
0.21710202416 0.20014972425 0.19126396459 0.18486590693 0.1798837359 0.17495335887 0.17214061955 0.16943688337 0.16683203086 
0.16581386322 0.16476400923 0.1635689207 0.16403149685 0.16589911674 0.16822552073 0.17126461795 0.17493267858 0.17892146815 
0.18493781346 0.19238043826 0.20235162872 0.21727625024 0.239576084 0.2972421121 0.3332970394 0.33334393925 0.33358985467 
0.33395040021 0.33437597646 0.33484990273 0.33537175684 0.33588743199 0.33635607265 0.33676475129 0.3370904512 0.33739702229 
0.33752715207 0.33758712527 0.33752938385 0.33736751038 0.33711015792 0.33676107798 0.33633712665 0.33578559306 0.33529365461 
0.33476109337 0.33428028683 0.33385238212 0.33351997818 0.33332458203 0.33328328882 0.52994652219 0.34675556475 0.3180078534 
0.30322789019 0.2953123532 0.29122579489 0.28936646488 0.28896717796 0.28932034455 0.29027662513 0.29152348633 0.29302491978 
0.29481301275 0.29710837114 0.29990096605 0.30409908079 0.30928853574 0.31637254646 0.32405232266 0.33376653461 0.34192522102 
0.34832850961 0.35095410425 0.34908771605 0.34394069718 0.33699632363 0.3301514554 0.32541113155 0.32199222663 0.32001489614 
0.31931136424 0.31950559187 0.32022559768 0.32151034932 0.32293928782 0.32460178414 0.32608741542 0.32752730772 0.32894437976 
0.33013420839 0.33123532169 0.33215960532 0.33291522079 0.33333624734 0.33338400453 0.33342730059 0.33329999641 0.33293200596 
0.33221011547 0.33134174392 0.33009396896 0.32883985732 0.32747931975 0.32597634993 0.32435574684 0.32283215048 0.32149929064 
0.32022687345 0.31952646019 0.31935167306 0.32013109008 0.3222519399 0.32570696013 0.33133388948 0.33812507083 0.34453896351 
0.3494661044 0.35087236822 0.34760796813 0.34013568688 0.33053007073 0.32190860937 0.31356445493 0.3079005477 0.30297965232 
0.2996042878 0.29664695442 0.29450189825 0.2927509249 0.29119665222 0.28980866456 0.28903809299 0.28882810369 0.28914816403 
0.29141301715 0.29621910871 0.3054407291 0.32028637062 0.35429411906 0.45133954651 0.52866350941 0.48759722825 0.45207872952 
0.42210629264 0.46875269725 0.4726271437 0.50713497658 0.44907460954 0.49138270966 0.4752914774 0.45850777555 0.45612754544 
0.47727580544 0.4376365416 0.4533850383 0.42725402112 0.46467193541 0.46544811828 0.50899500157 0.46799585494 0.4864050742 
0.47887455699 0.48809989578 0.45569480246 0.46521435901 0.33996295887 0.33326678 0.3333427177 0.33354477297 0.33386116625 
0.33428202719 0.33474477609 0.33527518968 0.33577735715 0.33625025272 0.33673877514 0.33710991415 0.33735205549 0.33750623663 
0.33755984212 0.33749399542 0.33732879359 0.33706326239 0.33671148368 0.33628887376 0.33579619843 0.33529827272 0.33477647965 
0.3343096939 0.33387603351 0.33355710685 0.33334594687 0.33328185395 0.59026942869 0.3454736293 0.32033567006 0.30453235152 
0.29595324365 0.29162646014 0.28934455272 0.2887816799 0.28905083307 0.28989686316 0.2911874606 0.29273936969 0.29452037108 
0.29666234156 0.29933735663 0.30279364944 0.30732263115 0.31290439335 0.32051787979 0.32944223521 0.3386367389 0.34618662938 
0.35005361286 0.34971641134 0.3456845623 0.33920358539 0.33215250129 0.32675642947 0.32287660072 0.32032007895 0.31939079408 
0.31938384858 0.32005331778 0.32106547852 0.32249211867 0.32393494383 0.32561594316 0.32726356797 0.32864118717 0.32996687526 
0.33113986265 0.33208153566 0.33281008822 0.33330545687 0.33343207762 0.33345634091 0.33329100905 0.33281343759 0.33208079739 
0.33113440798 0.32989868918 0.32862138182 0.3273072916 0.32579052453 0.32424011187 0.32286435286 0.32130060466 0.32022466514 
0.31944702453 0.31930539005 0.32003625615 0.32177090986 0.32524366067 0.33065949261 0.33700921951 0.34395394727 0.34936638784 
0.3505947804 0.34706511091 0.3404852206 0.33094766765 0.32204769563 0.3144644753 0.30797567724 0.30281379409 0.29939915072 
0.29649473674 0.29413208991 0.29247254246 0.2910010886 0.28971801858 0.28889139993 0.28857239482 0.28946492529 0.29129098768 
0.29538849159 0.30413275009 0.31912163035 0.34802410191 0.57386010392 0.38932863947 0.4799198211 0.45619757603 0.47289134826 
0.48500613887 0.49010044483 0.49670066385 0.46852185572 0.46808760258 0.46018133028 0.45502431 0.48968156309 0.32870237975 
0.50677526271 0.4910437079 0.51716112641 0.46699353331 0.47886274335 0.48412026097 0.46635641627 0.46952476876 0.46636227035 
0.46315078956 0.4542742631 0.47910172165 0.4826542185 0.3333299307 0.33350899689 0.33380171363 0.33412871189 0.33452084172 
0.3349311902 0.3353663963 0.33576637004 0.33613715062 0.33643769812 0.33668411484 0.33685551301 0.33694875402 0.33695167761 
0.33686105844 0.33667388506 0.33644208623 0.33612141517 0.3357365836 0.33532386233 0.33487633187 0.33446148438 0.33407820613 
0.33375582051 0.33352801546 0.33334240227 0.33328926904 0.4179156162 0.3621096156 0.33477490049 0.31984606435 0.31168832509 
0.30630692378 0.30343112154 0.30210510793 0.30088769521 0.30106625306 0.30163157672 0.3023872211 0.30357222926 0.30549497797 
0.30811462117 0.31134089526 0.31533860997 0.32052385659 0.32652985307 0.33261525747 0.33790716203 0.34107845161 0.34166918363 
0.33955497998 0.33536736772 0.33110295941 0.32756552959 0.32492166532 0.32321328855 0.32237506625 0.32226640424 0.32262846523 
0.32326088908 0.32426849952 0.32535681841 0.32660011677 0.32779565082 0.32882225484 0.32985075892 0.33078009271 0.33161738212 
0.33232009914 0.33282408859 0.33314717544 0.33277346543 0.33229691763 0.33158441498 0.33072234766 0.32970489874 0.32863578062 
0.32751897335 0.32630318178 0.32513554719 0.32403795659 0.32309700822 0.32242594709 0.32213730496 0.3223996199 0.32344515143 
0.32534451973 0.32848805528 0.33240469189 0.33654299306 0.34018418285 0.34183522918 0.34081923529 0.33660604237 0.33028457191 
0.32419748211 0.31818647192 0.3133519283 0.30954325639 0.30670623138 0.30459047764 0.30281531709 0.30147541437 0.30054415679 
0.30023244379 0.30053055016 0.3013447971 0.30290314149 0.30629101713 0.31288220561 0.32222128028 0.33847436539 0.36688416947 
0.45525596569 0.42406456473 0.39071922309 0.36689576898 0.34850697218 0.32311242523 0.31514874447 0.31014736816 0.30737264888 
0.30533011668 0.30369126446 0.30312049188 0.30237655259 0.30331186189 0.30450270902 0.30451830095 0.30453813525 0.30458544359 
0.30677505945 0.30911402445 0.31337745766 0.31762170348 0.32421744022 0.33619620742 0.35766791187 0.39105695805 0.41680214881 
0.36699732992 0.3462502644 0.33837726577 0.33412967368 0.33303878205 0.33254400396 0.33376179489 0.33513264629 0.33607156434 
0.33816821326 0.34392844581 0.37664777965 0.40686060748 0.42234265116 0.35726627237 0.33755920838 0.320374028 0.33898231048 
0.33652105154 0.33699154533 0.33579103984 0.33604213924 0.33747937387 0.33844825754 0.3432383572 0.35021712484 0.37001818688 
0.38914287255 0.41613916831 0.27159346917 0.28049291187 0.28536329649 0.28484050012 0.31886496597 0.3335122268 0.33377969266 
0.33412089529 0.33451409797 0.33493688636 0.33534274638 0.33571701146 0.33603238753 0.33626991302 0.33645972242 0.33657505559 
0.33661118989 0.33657200653 0.33644141409 0.33625946593 0.33602011539 0.33568286261 0.3353096705 0.334909157 0.33449165913 
0.3340976743 0.3337513495 0.33347693485 0.33327825425 0.3269787628 0.37391087685 0.35171173331 0.33702608284 0.32769192344 
0.32158971524 0.31689003949 0.31367270672 0.31178924479 0.3107958129 0.31029285411 0.31007634937 0.31062092637 0.3111498511 
0.31204584166 0.3135387888 0.31543745852 0.31813678322 0.32188688728 0.3267317865 0.33181023724 0.33623133713 0.33819578915 
0.33694231284 0.33310758384 0.32905270903 0.32637657252 0.32469174785 0.32386168128 0.323652587 0.32387984701 0.32433776174 
0.3249223895 0.32572492879 0.32657626961 0.327543121 0.32848281355 0.32929098452 0.33004587191 0.33079397647 0.33149879559 
0.33215440372 0.33270716419 0.33316881944 0.35351747039 0.36458768724 0.33259524897 0.33205543185 0.3314072478 0.33065589399 
0.32981039486 0.32898332325 0.32804308963 0.32711978182 0.32622097628 0.3254076818 0.32463827863 0.32401340856 0.32367461005 
0.3236562032 0.32415681725 0.32541627778 0.3276470585 0.33070745416 0.33463279756 0.33776135622 0.33805845404 0.33478673219 
0.32934718279 0.32416050779 0.31991728697 0.31632807509 0.31390217897 0.31223387294 0.31103665048 0.31015497184 0.30955589251 
0.30934455671 0.30948608131 0.31022332877 0.31146904565 0.31368576808 0.31687898418 0.32256681059 0.32972388649 0.34065177608 
0.3572953526 0.34366665706 0.32072164871 0.30878261738 0.30066174596 0.29660514301 0.2922357533 0.28926692484 0.28674507624 
0.28557171631 0.28455941182 0.28373808351 0.28401407502 0.28401964257 0.28516173587 0.28634354088 0.28804910651 0.29035928922 
0.29422448436 0.29935905408 0.30672619219 0.31716136806 0.33338937878 0.33584809736 0.34559082159 0.34161367169 0.32272442018 
0.31992229805 0.31884249412 0.31826960971 0.31881418296 0.32055206675 0.32333840337 0.32917321382 0.33573138583 0.34090681926 
0.31369325688 0.34691945034 0.31785525126 0.35509169563 0.33968622092 0.32599628152 0.321540328 0.32013484659 0.32124827055 
0.32230751594 0.32441108541 0.32806765143 0.33393872355 0.34042538385 0.33606617108 0.30846034512 0.33928715671 0.33156911954 
0.3121659152 0.33303014532 0.32433150915 0.30782431477 0.30879515066 0.31665935102 0.32601793404 0.33357200059 0.33401519234 
0.33449412588 0.33496984878 0.33539326911 0.33576874492 0.33605913255 0.33627042038 0.3364220659 0.33650164272 0.33649997634 
0.33641240788 0.33626156135 0.3360321642 0.33573214581 0.33535621579 0.33493716714 0.33448416492 0.334019385 0.33358884667 
0.33323873611 0.32794128169 0.33105850855 0.33976127959 0.33471258415 0.33002122971 0.32670916261 0.32331448423 0.32094566911 
0.31967712378 0.31868683157 0.31790303141 0.31743361701 0.31711427074 0.3168301587 0.31661712263 0.31660472796 0.3170178388 
0.31807073426 0.32114961866 0.32692553289 0.3326534616 0.33878076203 0.33856065011 0.33284875651 0.326279698 0.32313175412 
0.32233817803 0.32243229385 0.32317594835 0.32424664888 0.32524558841 0.32618985027 0.32701823507 0.32785426577 0.32868322552 
0.32945932814 0.33009873477 0.3306650134 0.33120502076 0.33172424188 0.33231141264 0.33283304352 0.33322766247 0.34531009726 
0.31236558985 0.33610850042 0.33217278756 0.33164906618 0.33103179454 0.33038622194 0.32975459576 0.32897548847 0.32820286741 
0.32740754615 0.32657928046 0.32573444734 0.32483039301 0.32391386368 0.32303985022 0.32244441367 0.32320603803 0.32429312312 
0.3290888442 0.33577549966 0.33872788989 0.33602778534 0.32961193805 0.32250876006 0.31940003917 0.31735184274 0.31622374507 
0.31612588606 0.31618288055 0.31628884922 0.31645393426 0.31677455034 0.31740135554 0.31850629263 0.31979080627 0.32120072462 
0.32354893754 0.3280187332 0.33137264929 0.33656465429 0.3294681912 0.3321217155 0.33708480263 0.3217629805 0.31462311548 
0.30913310532 0.3045086924 0.30053978111 0.29762645154 0.29555114774 0.293953853 0.29299670377 0.29254586311 0.29257948755 
0.29328217327 0.29456006392 0.29611612721 0.29778253224 0.30066794921 0.305090402 0.31183915048 0.31998795175 0.33105646177 
0.33452335853 0.3253715858 0.32552477885 0.32629260988 0.32826609628 0.33151722464 0.33483123609 0.33485719245 0.32349491501 
0.32233758892 0.33702004878 0.31941582483 0.3114483797 0.3295004665 0.33227283416 0.33021894452 0.33171204362 0.33391748806 
0.33673154199 0.33830550125 0.3338978081 0.31046922886 0.33021931127 0.34606058 0.33036908925 0.33264585748 0.34368583076 
0.31875591639 0.33300029458 0.31912349376 0.3273263972 0.33852832064 0.3351683549 0.3440352828 0.32171880675 0.33538894152 
0.31601914811 0.3339152796 0.33453544062 0.33507657096 0.33557832772 0.33597156239 0.33625843979 0.33645066821 0.33658832912 
0.33666241247 0.33661827917 0.33646433461 0.33624156766 0.33592793673 0.33551449033 0.33503961961 0.33451579183 0.3339478264 
0.33340102996 0.3329249213 0.33256294786 0.33373208028 0.31520947924 0.33058093485 0.32980174044 0.3287583492 0.3275971121 
0.32658986337 0.32580636994 0.32499855528 0.32417719355 0.32327931142 0.32223587269 0.32086407763 0.3193466404 0.31798843863 
0.31639307855 0.31540544376 0.31854978897 0.31982088238 0.32180841089 0.32384049935 0.32562650008 0.32708970073 0.32819203822 
0.32919685723 0.33009893605 0.33077171253 0.33126327372 0.33164300409 0.33195832751 0.33228668657 0.33258180828 0.33326664537 
0.33289994807 0.33147758308 0.33177915291 0.33222405787 0.33178965035 0.33129253142 0.33078810322 0.33014954996 0.32941340826 
0.32854545354 0.32751011685 0.32633020303 0.32492442904 0.32304417035 0.32096036408 0.31744341442 0.31628961038 0.31689326782 
0.31704850776 0.31835376939 0.31999296659 0.32114961582 0.32201616173 0.32301645801 0.32397056364 0.32500518283 0.32587313369 
0.32674084212 0.32789358297 0.32892824403 0.32999149317 0.33234941713 0.33744622136 0.3308428798 0.3346969331 0.32608554467 
0.32105031372 0.31588386444 0.31201452683 0.30886338849 0.3065363669 0.30470456306 0.30284413042 0.30188813109 0.30162765408 
0.30240262522 0.30369944315 0.30502042772 0.30638516555 0.30850412966 0.31123100369 0.31678293936 0.32339896579 0.33164506164 
0.31389884338 0.33201189978 0.3335435782 0.33482607736 0.33410475928 0.3187204254 0.33257060585 0.33687583486 0.33945805839 
0.33911405536 0.33543107232 0.32557069618 0.33103410906 0.32843733109 0.33844677567 0.33426541604 0.33763439238 0.32177391095 
0.3359637638 0.33842117487 0.3164684279 0.33802186213 0.32230113387 0.33588730218 0.33468918772 0.33536436069 0.33595164428 
0.33635175999 0.33662694108 0.33676853634 0.33699443423 0.33704420336 0.33690159243 0.33664953835 0.33629436669 0.3358468689 
0.33527004884 0.3346497995 0.33396569521 0.33322790212 0.33056000146 0.32895560365 0.33020911888 0.33070291858 0.33073478408 
0.33053482239 0.33018603088 0.32917519851 0.3279443141 0.32638993051 0.32399877619 0.321066043 0.31932363461 0.32044660016 
0.32338499377 0.3261537125 0.32832388632 0.32980677857 0.3303871767 0.33159502862 0.33228042081 0.33263093858 0.33283667006 
0.33299296312 0.33313110818 0.33326881825 0.33313690944 0.3353200658 0.33274266317 0.33243620711 0.33204217269 0.33149645748 
0.33070300382 0.32964066409 0.32820692782 0.32705680578 0.32502866642 0.3223416672 0.33570165855 0.31748857444 0.32245788336 
0.32498314034 0.3266623739 0.3281112628 0.3293851496 0.33007458598 0.33037619491 0.33031547372 0.32985141218 0.329154079 
0.32475284965 0.33614098425 0.32154686048 0.31887056947 0.31713934706 0.3156616364 0.31399516846 0.31080012106 0.31238123057 
0.31067739864 0.31361991288 0.31468132584 0.315278861 0.31645978816 0.31790182058 0.319813789 0.33575804048 0.3347942688 
0.33980459637 0.32616634181 0.33253213846 0.33594359086 0.3420153541 0.33837448373 0.34139588843 0.33397711726 0.33571792213 
0.34238207858 0.32929664653 0.34216173381 0.33610153297 0.33467260316 0.3359881923 0.34264993836 0.31997656264 0.33150058175 
0.32263319235 0.32536829945 0.34106197428 0.32545018293 0.32503656228 0.33585910342 0.33687190292 0.33724614546 0.33763621077 
0.3375878418 0.33723914776 0.33681591211 0.33631079513 0.33562906554 0.33484980556 0.3341278647 0.32893259644 0.3368204615 
0.33179657181 0.33324631181 0.33420065479 0.3346821404 0.33440685867 0.33320321347 0.33185680149 0.32993984005 0.32704261134 
0.33000156295 0.33187772234 0.33285659021 0.33394782694 0.33431511079 0.33429760023 0.33415828793 0.33404610633 0.33659001455 
0.32516187801 0.33627692888 0.33811790729 0.33390120194 0.33379158217 0.3334609339 0.33296537486 0.33207707647 0.33041629061 
0.32843222353 0.34045891374 0.33111122526 0.33194888803 0.3340062569 0.33420315033 0.33380579581 0.33272790356 0.33074448378 
0.32786108147 0.33743174599 0.32660086362 0.32588348674 0.32520516246 0.32429772894 0.32254493644 0.32310713873 0.32441645892 
0.32429076115 0.32408454103 0.32419296157 0.34125482444 0.34222911362 0.3365378266 0.33229725913 0.33788404521 0.33498085787 
0.3278819392 0.33398223431 0.33543510197 0.33841055234 0.33378958147 0.34388961137 0.32849032837 0.3454165223 0.34469346908 
0.34414103818 0.33818103931 0.33841433247 0.33808456595 0.33744633399 0.33691275747 0.33604157562 0.33504247335 0.32972392622 
0.33348635809 0.335442076 0.33752917336 0.33854816496 0.33805230307 0.33642191778 0.33144522984 0.33411725641 0.33460595324 
0.33526369629 0.33587662962 0.33589817237 0.34483334318 0.33532692425 0.33485413323 0.33387817971 0.33553073948 0.33216933598 
0.32964680182 0.33843569425 0.3425158582 0.34557015688 0.33743154138 0.33853287137 0.33670555736 0.33490572894 0.33768098105 
0.33256852 0.33378192569 0.33282260951 0.33406945341 0.33896375093 0.33537193793 0.33733282806 0.34641137723 0.34518335801 
0.33211141893 0.3366261444 0.33931710309 0.33520395 0.33566829847 0.33715982787 0.33484032722 0.34044807499 0.33588068883 
0.33277334334 0.33120709685 0.34631398447 0.34382472288 0.3378636705 0.33682484389 0.33861884464 0.33837849785 0.33697059868 
0.33920609164 0.33894102253 0.3378881434 0.33655526236 0.33893723048 0.33670169193 0.33955750574 0.3404073048 0.34176100093 
0.33781317643 0.34049218693 0.3379042954 0.34555718748 0.33876060492 0.34157397517 0.33966930076 0.33664993197 0.34366391331 
0.33927844019 0.34377900496 0.33938210758 0.34560162287 0.33331281442 0.33345613801 0.33372497489 0.33406579955 0.33446170754 
0.33486917033 0.33529693332 0.3356802836 0.33607466932 0.3364046935 0.33664499254 0.33682338918 0.33690526486 0.33689278301 
0.3367973453 0.33662545036 0.33637251001 0.33606439016 0.33568862988 0.33529339559 0.33488988062 0.33447057181 0.3341109895 
0.33377068095 0.33350371844 0.33333667746 0.33331359105 0.4572683142 0.36794843015 0.34072841657 0.32401459693 0.31350196371 
0.30732997512 0.3039616233 0.30196869151 0.30155412869 0.30112238763 0.30153956071 0.30276108648 0.30421749465 0.30598598456 
0.30815954353 0.31089822726 0.31428948233 0.31863073897 0.32379327088 0.33007858443 0.33557779822 0.33946718905 0.34092722618 
0.33948745814 0.33629964062 0.33220299048 0.32830098768 0.3254685266 0.32366725605 0.32265716845 0.322365486 0.32260572249 
0.32330123094 0.32421409124 0.32525113277 0.32640727008 0.32756213334 0.32867033219 0.32979817046 0.33074372755 0.33158142715 
0.33228045435 0.33281652326 0.33314668181 0.3327664871 0.33218495373 0.33144178562 0.33058752067 0.3295418242 0.32847500093 
0.32739097533 0.32620061467 0.32507976236 0.32402337892 0.32306622502 0.32239752268 0.32210730184 0.32232847395 0.32331883419 
0.32507706068 0.32810568396 0.33193232611 0.33633170268 0.34012581423 0.34167321662 0.34040613481 0.3367304718 0.3308380987 
0.32468254049 0.31868665199 0.31366916003 0.30971951465 0.30675906676 0.30447660821 0.30250642377 0.30145446405 0.30060439099 
0.3000179037 0.30022642395 0.30137940683 0.30329061916 0.3067231595 0.31127593267 0.32037841892 0.33644981712 0.36638324539 
0.41676324069 0.36460793659 0.33740619136 0.31609262673 0.30210816974 0.32327049333 0.31911629211 0.31433129892 0.31237708848 
0.31089896841 0.30918975998 0.30860314307 0.30621000521 0.30551451283 0.30448301616 0.30538503788 0.30562694801 0.30760981825 
0.30984378215 0.31126692375 0.31275663362 0.31802856497 0.3254926188 0.33589025495 0.35053762401 0.37186175816 0.40497529695 
0.36117395942 0.35644188818 0.34350028546 0.33695979032 0.33553668856 0.33291777895 0.33406028303 0.331982568 0.33283948128 
0.33426440992 0.33795183506 0.34536564297 0.33367383712 0.35711895152 0.3847384394 0.39544545456 0.38526083587 0.36860738305 
0.34455020154 0.33815925599 0.33688547362 0.33528103124 0.3330402711 0.33506390939 0.33593343012 0.33939684503 0.34377327641 
0.36058720184 0.37883210969 0.38790040971 0.3067991075 0.33316598833 0.28940535108 0.28889577764 0.30070311969 0.33333067506 
0.333153923 0.33410187506 0.33450391683 0.3348903673 0.33528873321 0.33564314369 0.33596960277 0.3362249745 0.33639933664 
0.3365139217 0.33655938099 0.33651227892 0.33638774386 0.33619715996 0.33594072095 0.33563470291 0.33528222522 0.33489836337 
0.33449795388 0.33412372941 0.33374748642 0.33343940538 0.33322911652 0.34086747795 0.33288596858 0.34270472574 0.35374176812 
0.36911509801 0.33016774974 0.32235122563 0.31750157634 0.31476327046 0.31326779771 0.31220857171 0.31082546102 0.31063519608 
0.31138932235 0.31217382698 0.31308035368 0.31418709713 0.31546272466 0.31728700419 0.32017946468 0.32445715445 0.32933027203 
0.33447440903 0.33729727817 0.33679626719 0.33356779144 0.32970454907 0.32618112573 0.32430559622 0.32375298658 0.32364097299 
0.32385080573 0.32432193479 0.32506431652 0.32591124569 0.32677599584 0.32761271783 0.32846077227 0.32930442945 0.33014862014 
0.33088799435 0.33159943342 0.33224515689 0.33276710176 0.31556855986 0.31809268594 0.33247633875 0.33194126215 0.33126598401 
0.33052342126 0.32969820566 0.32888026932 0.32802165588 0.32712073197 0.3262668511 0.32542493107 0.32467989414 0.32401872038 
0.32364649542 0.32364085503 0.32413936214 0.32537963609 0.32763885633 0.33099148099 0.33457326647 0.33728370871 0.33782966556 
0.33511387623 0.3299006039 0.32492173306 0.32025954377 0.3167902236 0.31427190643 0.31249470834 0.31102507553 0.309988205 
0.30933855145 0.30907688251 0.30925636385 0.31021263516 0.31161902527 0.31381949433 0.31746664468 0.32225454902 0.3284475519 
0.34000748589 0.35661828008 0.37309632478 0.31805193424 0.32154275794 0.34412544919 0.31059850964 0.30276611517 0.29605904476 
0.29205393415 0.28972411482 0.28803803539 0.28701717413 0.28563296453 0.28490405288 0.28426777318 0.28454231952 0.28500059052 
0.28645273054 0.28840472525 0.29005730998 0.29290150036 0.29678030732 0.30270724469 0.31254263882 0.32462252668 0.34174696234 
0.33038953552 0.34065333518 0.33732550091 0.33648255086 0.32902804249 0.32344473844 0.32026566013 0.31835764681 0.31760692961 
0.31811258182 0.31956233973 0.32259031144 0.328008667 0.33669222583 0.33950113482 0.31575514911 0.34083004283 0.3407202564 
0.33314259185 0.32806633538 0.32527164032 0.32336596079 0.32133692603 0.32177766537 0.3231310082 0.32639363083 0.33104836663 
0.33910277843 0.34213937013 0.35496123642 0.33369347867 0.30778765055 0.31124711388 0.32925550919 0.30719480031 0.34517417481 
0.31001159162 0.31983074863 0.33490809152 0.33401488978 0.33532916906 0.33571059843 0.33601041089 0.33624693792 0.3364045147 
0.33648106997 0.33647622664 0.33638763351 0.33621587156 0.33598308736 0.33568543721 0.33532358437 0.33491765172 0.33449895964 
0.33404353884 0.33360352277 0.33321357711 0.33295584254 0.31489137513 0.3210078654 0.33079198417 0.32661289874 0.33571321967 
0.32653135119 0.32422505626 0.32270191879 0.32159738768 0.32005309203 0.31756992723 0.31871499255 0.31881087554 0.31854315874 
0.31809153522 0.31761281374 0.31715995038 0.31731342506 0.31992719957 0.32323140682 0.33819237616 0.3336762843 0.3227053777 
0.32080394443 0.32146772444 0.32280937941 0.32392293757 0.32511177455 0.32627668562 0.32728073476 0.32817396423 0.32891056493 
0.32960193462 0.33025203204 0.33085515294 0.33141194573 0.33194108028 0.33248538681 0.33306333917 0.34102347584 0.31338193887 
0.33208179132 0.33153123453 0.33093409155 0.33033531142 0.3297088588 0.32903300085 0.32825725168 0.32747914524 0.32660882858 
0.32568555556 0.3247490755 0.32377886654 0.32288040074 0.32240842192 0.32341800082 0.32572791363 0.32965145552 0.33364845974 
0.33820996027 0.33655373901 0.33071874638 0.32322719339 0.32030748215 0.31757182337 0.31661759423 0.31627528497 0.3162557107 
0.31627644066 0.31625525925 0.31634107297 0.31677357001 0.3180286934 0.31958234253 0.32156831047 0.32411564976 0.32755179549 
0.33215890225 0.33749159326 0.34409564765 0.31438739093 0.3244931733 0.31586181022 0.31438917079 0.32525638379 0.3267050688 
0.33447484897 0.30879204629 0.30396867612 0.30023822803 0.29793745818 0.29637021516 0.29519629799 0.29431313398 0.29351612514 
0.29325516494 0.29373905589 0.29476868661 0.29650563692 0.29827986627 0.30069281591 0.30402233118 0.30818490177 0.31596444786 
0.32755016588 0.3392544093 0.32657855968 0.33470785801 0.33154083287 0.32846151787 0.32616962706 0.32463023819 0.32483537946 
0.32613602007 0.32818918017 0.33106578425 0.33457724133 0.33254992856 0.337624671 0.33639133667 0.33368380747 0.33126168622 
0.3301859412 0.33062343975 0.3316060433 0.33317255805 0.33572131736 0.33803938882 0.33702602667 0.33508355068 0.33539942755 
0.33363391454 0.31453422303 0.31469293347 0.33057528403 0.33817014627 0.32802263412 0.31469058941 0.32576599365 0.31892771845 
0.33460936834 0.31341274068 0.33448289489 0.33499701943 0.33624574906 0.33649725296 0.33663600668 0.33667734661 0.33661472106 
0.33646287663 0.33621921808 0.33590003565 0.3354897861 0.33501589539 0.33450281295 0.33396493194 0.3333912492 0.33288763771 
0.32979138157 0.32203450035 0.32873695688 0.33055371868 0.34043928272 0.3287902905 0.32834334686 0.32590259984 0.32535378552 
0.32468545455 0.32334665916 0.3216512877 0.31978399118 0.31683425146 0.33435622087 0.32327822254 0.32529223514 0.32712287192 
0.32848480449 0.32955825256 0.33032340531 0.33091940259 0.33142119081 0.33186249107 0.33224521649 0.33262140525 0.3329868308 
0.33332380624 0.3181962865 0.31910650335 0.33213583375 0.33171986292 0.33130374649 0.33080862287 0.33022969178 0.32953716437 
0.32867050375 0.32759199166 0.32626169213 0.32474424836 0.32286471195 0.32038196761 0.31918520616 0.31678336634 0.31702820271 
0.31828777601 0.31996000183 0.32131206563 0.32192511384 0.32256324772 0.32336687317 0.32421368991 0.32570909248 0.3267976779 
0.32783650849 0.32934903574 0.33109520915 0.31749138117 0.31958578834 0.32733209657 0.31998643672 0.33911464376 0.30849163754 
0.30690399975 0.30553578589 0.30455592434 0.30392769659 0.30346597132 0.30298020735 0.30369359708 0.30550002162 0.3074759805 
0.30983980753 0.31203855046 0.31480245295 0.31768637884 0.33409852584 0.33486887243 0.33591034031 0.32890971167 0.3339627047 
0.33273685262 0.33157157998 0.3300042846 0.33141422107 0.33244062056 0.33344316971 0.33471234049 0.33549340315 0.31112879005 
0.33962514422 0.33866118601 0.33637581267 0.33763829867 0.33818801528 0.33875825262 0.33905222423 0.33923397688 0.32818697685 
0.33252470556 0.32118647973 0.32379068143 0.31451498663 0.33120411042 0.32195146052 0.33387877495 0.3209741091 0.33739554064 
0.33443749272 0.33605482091 0.32407980755 0.3339827385 0.32903957694 0.33127754836 0.33669735113 0.33703699709 0.33689287505 
0.33667568208 0.33631667461 0.33583996897 0.33524126369 0.3345824335 0.33392548892 0.33317260695 0.32765403318 0.32807179085 
0.33074817594 0.33388122399 0.32955505135 0.3275681493 0.32490210051 0.32213291923 0.33709405877 0.33697504305 0.33105028629 
0.33188278367 0.33241428671 0.33279376102 0.33306544815 0.33325164166 0.33348217292 0.33370139429 0.32141670207 0.31924796928 
0.33249409293 0.33274475455 0.33296067224 0.33213382404 0.33161582282 0.33096416823 0.32995616825 0.32858165225 0.32681179422 
0.32450751696 0.32043170618 0.31664868497 0.32552592183 0.32718250234 0.32706792258 0.32889755481 0.32889351834 0.33049232912 
0.33061825531 0.3302916466 0.32949485391 0.31462940276 0.31641235858 0.32262600125 0.32977867446 0.31702686609 0.31410187145 
0.31455586791 0.31409334866 0.31175824772 0.3140635419 0.31601986064 0.318365095 0.3200759104 0.32153259052 0.32358405901 
0.33473395779 0.33627350253 0.32791709779 0.33594715424 0.33098900655 0.33631506329 0.33613226798 0.3353328241 0.33582757981 
0.33601745459 0.33574206339 0.3294329783 0.34159394964 0.34314331504 0.34238224788 0.34262120187 0.3429204877 0.34240347032 
0.34104478163 0.31824278488 0.32617697026 0.32517566047 0.32859593716 0.33504952922 0.32973114361 0.32703028266 0.3225722952 
0.33576383674 0.33934201746 0.3345307094 0.33814415357 0.33295253501 0.33135343043 0.32360188108 0.33521542672 0.32484122379 
0.33636336511 0.33561772356 0.33475398683 0.33387387126 0.33725965477 0.3340996954 0.33445296798 0.33575486512 0.33768734216 
0.33409468436 0.3373692333 0.33369523722 0.33454163787 0.33437770498 0.3343699448 0.33360619393 0.33277669025 0.33379350183 
0.32688817805 0.33324924073 0.33259986105 0.33150613672 0.32964960532 0.32964174816 0.33244420826 0.33442014302 0.33769044137 
0.33288431381 0.3319099433 0.33456890392 0.33399734493 0.33233523808 0.32992980393 0.32488177763 0.32448478886 0.32687018642 
0.3222326579 0.32707373523 0.32296790298 0.32292961956 0.32576834865 0.32726666434 0.33322830829 0.33120437272 0.33678506293 
0.33693338594 0.3312977311 0.33578451222 0.33828678741 0.33854811714 0.33830993066 0.33803870066 0.33214163803 0.34577116979 
0.34529980489 0.34550831237 0.34474286337 0.33731773357 0.32779829428 0.33744964292 0.33601911461 0.33078204895 0.33695088068 
0.338602072 0.33594048813 0.32430204234 0.3338623188 0.32893112541 0.32521972976 0.34234106908 0.34081349748 0.33623111961 
0.3327178052 0.32814598634 0.34408755246 0.33524531809 0.32570698494 0.33609293646 0.34487902323 0.33381013769 0.33841973241 
0.33342428435 0.33605697994 0.33523367956 0.33578420684 0.33515475195 0.33516740999 0.33524150662 0.33560531672 0.33681340624 
0.33788732662 0.33605781105 0.33965517816 0.33446676212 0.3300327073 0.34223558153 0.33346684849 0.33207851919 0.33321185319 
0.33580088822 0.33819458205 0.33453335877 0.33706901081 0.33434576766 0.33633874423 0.33936410287 0.33960734747 0.33917168015 
0.33840763936 0.33465284503 0.34576717906 0.33499044125 0.34586566532 0.34385794065 0.33759507633 0.34006228088 0.33821930372 
0.33762759879 0.34003947111 0.33811096405 0.34189526305 0.33900249075 0.33641392045 0.33357692823 0.33510686678 0.33101141731 
0.34645733504 0.3378024174 0.33779935908 0.33633549319 0.34208466355 0.33739330006 0.33693704424 0.33800155215 0.33959822918 
0.33655614791 0.34118811468 0.34320520172 0.33872084564 0.33696291993 0.33828583451 0.34370125515 0.33899436968 0.33872364432 
0.33909748122 0.33781107996 0.33885781304 0.33833201925 0.33846227203 0.34528993675 0.33945525857 0.55070082301 0.54010777842 
0.33333524026 0.51594193082 0.52779259047 0.41982139191 0.2826796898 0.24779139301 0.22685893687 0.2087103407 0.19858739254 
0.18785009685 0.1842175188 0.18046713926 0.17915358396 0.17839986936 0.17617790961 0.17744447864 0.17860809651 0.17901394646 
0.17953852058 0.18078988718 0.18186729417 0.18361554061 0.1878090221 0.19235946283 0.19638131914 0.20059048258 0.20585422513 
0.2151189968 0.23680792695 0.27222703728 0.41240197378 0.44105436171 0.26081907914 0.2243350972 0.20816569195 0.20355734011 
0.20312006741 0.19831868556 0.19242250001 0.18932680033 0.18608253404 0.18214743543 0.18175627105 0.18156492624 0.18035885087 
0.17983368485 0.181215627 0.18362914797 0.18539571666 0.18918385478 0.19280536264 0.19794955598 0.204491467 0.21272521621 
0.22584228278 0.24478802994 0.27794516014 0.39195821066 0.33329558627 0.33331707363 0.33344878673 0.3337506596 0.33415395085 
0.33460632501 0.33510844429 0.33563153254 0.33612580818 0.33656726267 0.33694049678 0.33726158598 0.33746953248 0.33757716251 
0.33757616618 0.33746541552 0.33725291552 0.33693496236 0.33655703661 0.33606677131 0.3355450631 0.33502923204 0.33451674092 
0.33405666366 0.33367974993 0.33341216947 0.33328938851 0.33332563262 0.53430141737 0.37620239293 0.32818331223 0.3088895687 
0.29829103572 0.29270542472 0.28992319902 0.28892478481 0.28896367125 0.28966910071 0.290811985 0.29218568253 0.29382197175 
0.29583173873 0.29833989223 0.30176573435 0.30642857016 0.3125543536 0.32001673211 0.32885631021 0.33806377868 0.34563730947 
0.35033228398 0.35063870457 0.34691457461 0.34060398395 0.33342471825 0.3275492905 0.32345513488 0.3207760142 0.31948324463 
0.319284071 0.31977640148 0.32080284709 0.32219164835 0.32375570107 0.32534299904 0.32681001289 0.32824770965 0.32955330874 
0.33070608886 0.33172281997 0.33257364655 0.33316496727 0.33338769693 0.33339288742 0.33338074883 0.33339120707 0.3331613013 
0.33260219643 0.33180146456 0.3307435944 0.32948268196 0.32817232623 0.32673581547 0.32517107818 0.3235779334 0.32214644409 
0.32081785128 0.31982437878 0.31933971046 0.31953085766 0.32101765649 0.32362877342 0.32822213586 0.33454853979 0.34137316032 
0.34729106363 0.35082410461 0.34961545366 0.34432451434 0.33561629653 0.32622951262 0.3176281448 0.31062041243 0.30529959386 
0.30121256236 0.29799071112 0.29548391754 0.29356370249 0.29192221174 0.29040449927 0.289350167 0.28888311822 0.28891185679 
0.2900757186 0.29349029388 0.30002953401 0.31145208123 0.33541145088 0.3867172242 0.53546061221 0.52904140148 0.56666592838 
0.51043208474 0.53406396442 0.54484341843 0.54433555786 0.54494522768 0.52023359542 0.56439764946 0.53634606391 0.51953349004 
0.49430498478 0.51632461344 0.55003156781 0.62474638671 0.48149279613 0.47298037736 0.41726297594 0.53001333412 0.53727413369 
0.53266936589 0.54954092042 0.54344877046 0.53816108757 0.52693047335 0.5133262411 0.50335291073 0.52385234413 0.51952749195 
0.59480741611 0.33328552464 0.33329057457 0.33343057467 0.33369204402 0.33406504457 0.33450880145 0.33501121744 0.33553163347 
0.33602152528 0.33651069491 0.33693826805 0.33724433196 0.33744818499 0.3375524357 0.33754315906 0.33742876631 0.33720750534 
0.3369078568 0.3365070444 0.33605804359 0.33555261301 0.33503224139 0.33453535701 0.33408010101 0.33369685111 0.33342901851 
0.33329066267 0.33332766236 0.593332774 0.36475717542 0.33108012867 0.31073833011 0.29926509717 0.29318997471 0.29009216302 
0.28885280961 0.28875113164 0.28940227241 0.29048142156 0.29191991961 0.29358463579 0.29552091609 0.29789379862 0.3009120568 
0.30485041682 0.30987433197 0.31645329196 0.32485759281 0.33415207515 0.34283496756 0.34873876402 0.35055587643 0.34820122799 
0.34266184534 0.33556919012 0.3292043411 0.32452733349 0.32130497829 0.31965224018 0.31923677423 0.31961450648 0.32050053209 
0.32173876604 0.32319670262 0.32477298667 0.32645414673 0.3279754659 0.32933104788 0.33058811085 0.33164621121 0.33248570859 
0.33310339866 0.33341411183 0.33338474963 0.33337453094 0.33340604427 0.33308885934 0.33248025795 0.3316403309 0.33054845208 
0.32928944407 0.32799140655 0.32657373212 0.32502474954 0.3235659717 0.32206345276 0.32073666824 0.31975234214 0.31926692645 
0.3195401132 0.32074509537 0.3233896345 0.32773058444 0.33375377475 0.34055341962 0.34691544807 0.35037141352 0.34964377193 
0.34406467435 0.33588620208 0.32640596535 0.31810383858 0.3110155921 0.30523179774 0.30096001032 0.2978890781 0.29526754239 
0.29328445155 0.29173903665 0.29037414277 0.28933461355 0.28866797595 0.28883195422 0.29026869002 0.29287574812 0.29890988354 
0.31019837922 0.32974468628 0.36772555537 0.57399201727 0.48056937215 0.53441628236 0.4933583707 0.5168154279 0.53406776756 
0.54299644348 0.54785254441 0.53077480236 0.54127105695 0.53606096908 0.52830308549 0.52094442893 0.45080809372 0.50708138709 
0.48731994827 0.53836435429 0.52085934739 0.49946878265 0.50786975895 0.52627665253 0.5323058236 0.52463846883 0.54142866237 
0.54043822375 0.53621995062 0.52732289029 0.51949470241 0.586858608 0.56021030622 0.5593386587 0.33334434323 0.33334303125 
0.45849469738 0.46846693746 0.46534193888 0.46454104539 0.3724932268 0.382920305 0.26697054195 0.20355477254 0.1917687487 
0.1780215284 0.16230936254 0.17134994252 0.15526937407 0.14182765272 0.14758468332 0.15629919808 0.142980441 0.14935099864 
0.13704707558 0.14406349725 0.13314889538 0.13837483687 0.12959553727 0.13402029414 0.12675991056 0.13176959074 0.12464109874 
0.12978951234 0.12249667872 0.12779284495 0.12152278877 0.12710685447 0.12142742123 0.12699016746 0.12260960295 0.12735839682 
0.12443134231 0.12830386218 0.12766736442 0.1302572026 0.13115719474 0.13279999493 0.13462391254 0.13657479872 0.13975373571 
0.14155392001 0.14617071372 0.14746340999 0.15369989009 0.15528161617 0.1632412647 0.16405023693 0.17541243771 0.17704862635 
0.19128971353 0.19567452134 0.21868305028 0.26079402662 0.33332807027 0.3333252733 0.33334823105 0.33344338283 0.33355611465 
0.33341784443 0.3337025618 0.33387899204 0.33364483532 0.33404596347 0.33425360892 0.33396581642 0.33445293126 0.33468219305 
0.33432753557 0.33489037432 0.33514503697 0.33472840849 0.33536929295 0.33561925372 0.33514926808 0.33582270732 0.33604932585 
0.3355664845 0.3362413037 0.33644258447 0.33595211414 0.33659666691 0.33675680632 0.33629163054 0.33687937733 0.33702573964 
0.33657024576 0.33710977471 0.33717911095 0.33677674846 0.33722752722 0.33725789786 0.33690544639 0.33725767474 0.33723249591 
0.33695152675 0.33718272296 0.33710641948 0.33690819603 0.33700807801 0.3368786988 0.33677216799 0.33675993692 0.33659451573 
0.33655924834 0.3364293502 0.33621911609 0.33628516911 0.33602418538 0.33575842165 0.335930947 0.33555167899 0.33531011214 
0.33552983693 0.33508498293 0.33482361468 0.3351014888 0.3346107997 0.33437685108 0.33466900741 0.3341837637 0.33397556276 
0.33427070171 0.33381214609 0.3336506228 0.33391678192 0.33353947386 0.33344034175 0.33363570045 0.33335773886 0.33332264224 
0.3334242236 0.33330001969 0.33332406499 0.33335125487 0.33331076673 0.42542348925 0.43471592813 0.38432076446 0.35681085872 
0.34069161004 0.38501528458 0.32712929323 0.31931422587 0.34619163414 0.31193930021 0.30777355823 0.3261974991 0.30377875448 
0.30156248081 0.31515941779 0.29894124934 0.29787341783 0.30859485558 0.29652232013 0.29624127728 0.30459055773 0.29562894483 
0.29573616159 0.30257491793 0.29518692869 0.29559131138 0.30139811628 0.29569740946 0.29628341284 0.30088613452 0.29660928073 
0.29733373651 0.30126606925 0.2977589094 0.29862720534 0.30195643857 0.29924492386 0.3003715147 0.30291870949 0.30137153536 
0.30275074368 0.30445922551 0.30410027323 0.30616884071 0.30670610074 0.30783549406 0.3103833849 0.30959786214 0.31243215594 
0.31588508817 0.31320856107 0.31853045632 0.32226030087 0.31781525675 0.32530502326 0.33001502768 0.32344192502 0.33307149877 
0.33700680656 0.32962090055 0.33974376842 0.34280971328 0.33553258737 0.34441198952 0.34569429582 0.33985762539 0.3459901724 
0.34512610505 0.34176442452 0.34408377008 0.3416135344 0.34091695917 0.33952170581 0.33618239996 0.33760654794 0.33404344939 
0.33074606596 0.33321686346 0.32896618061 0.32666299511 0.32922718436 0.32527571257 0.32362328609 0.32608497647 0.32270846741 
0.3217431391 0.32392869945 0.32128073935 0.3209324974 0.32267710497 0.32086019028 0.32094481059 0.32223227684 0.32111459427 
0.32146504141 0.32237466462 0.32177703272 0.32239947437 0.32290455151 0.32290993705 0.32360419597 0.32373921879 0.32415760753 
0.32496983805 0.32479812519 0.32560027418 0.32632867187 0.32597749309 0.32693850426 0.32764437333 0.32720033789 0.32816622662 
0.32886229191 0.32831497934 0.32938496893 0.32997022378 0.32934849776 0.33044225815 0.33098462101 0.33032929463 0.33140893336 
0.33186233079 0.33121722848 0.33221950769 0.33259025735 0.33198924526 0.33284403267 0.33305930836 0.33259387018 0.33322291468 
0.33327561387 0.33299465981 0.45325681572 0.44402792625 0.33327647399 0.33302766839 0.33283249338 0.45162607264 0.40828463578 
0.33259603356 0.33223681709 0.33254404159 0.33187753129 0.33144521167 0.33195799508 0.33101227082 0.33039516889 0.3311706445 
0.32987999084 0.32925951661 0.33023057732 0.32871728217 0.32804516125 0.329183965 0.32747946232 0.32673755497 0.32808909372 
0.32612194062 0.32532707225 0.32692038147 0.3247356929 0.32399759787 0.32571866704 0.32343065365 0.32278394666 0.32457835525 
0.32230173993 0.32168883516 0.32354586828 0.32136461703 0.32102565588 0.32273785469 0.32088471087 0.32082490265 0.32223474485 
0.32094814341 0.32135400948 0.32220090752 0.32192858281 0.32295227401 0.32283166745 0.32389106016 0.32565046728 0.32426529127 
0.32720365817 0.32997825849 0.32679491863 0.33193171575 0.33518387536 0.33039220621 0.33729372713 0.34034010111 0.33451969337 
0.34228738784 0.34455135771 0.33847615232 0.34546529642 0.3459103321 0.34130476282 0.34553144119 0.3437895763 0.34160109004 
0.34186802943 0.33817232185 0.33892123367 0.33506128397 0.33038478456 0.33368074323 0.32731681782 0.32311830078 0.32731002667 
0.32001228916 0.31601702535 0.32115259529 0.31350707464 0.31073743997 0.3156901359 0.30875624991 0.3063514361 0.31141965251 
0.30491117595 0.30323192518 0.30804958832 0.30211589312 0.30066880474 0.30558656349 0.29974206997 0.29869206985 0.30365936858 
0.29799505144 0.29713062315 0.30212544397 0.29661402466 0.295879017 0.30094317835 0.29570106946 0.29503772649 0.30035998638 
0.29518194379 0.29479170102 0.3003205937 0.29515630397 0.2951651205 0.30079501922 0.29585428924 0.29625795272 0.30196074234 
0.29774039143 0.29916278668 0.30437716743 0.30221845374 0.30493344223 0.30919507469 0.30942853902 0.31443367575 0.31691456517 
0.32222303723 0.33063721031 0.32909631271 0.34522336988 0.36380263199 0.35089888297 0.39462787134 0.4512633521 0.39245327801 
0.36858783888 0.34662465713 0.32486330876 0.31231313768 0.30343268665 0.4049061377 0.29220250829 0.28396089449 0.37832989884 
0.27604457993 0.26916646221 0.3588237628 0.26256082581 0.25609568309 0.31106979151 0.25851572623 0.25374529751 0.30568910773 
0.25375130083 0.24994916945 0.29832073568 0.25157814859 0.24885552168 0.29460132312 0.25041329496 0.24768737111 0.29172497577 
0.2476551722 0.24562600707 0.29067392197 0.2468792746 0.24554122254 0.28886157332 0.24529630294 0.24428394385 0.28822306773 
0.24455943536 0.24451726102 0.28892061941 0.24465506569 0.24556160308 0.28948782286 0.24490655612 0.24689943613 0.29072904314 
0.24599265555 0.24840033299 0.29022689544 0.24645596708 0.2496346055 0.29031218778 0.24904142238 0.25255708207 0.29111369109 
0.25029153524 0.25491428241 0.29421345665 0.2539596513 0.25992322491 0.29692085916 0.25793012566 0.26547482661 0.30169389895 
0.26400586522 0.27319985539 0.30704770349 0.27435332444 0.28594921427 0.31520994526 0.28967120803 0.30436647624 0.33088114489 
0.31539814648 0.34491547967 0.35779671389 0.33745410144 0.38568197914 0.2981785583 0.30895350568 0.39070298831 0.28827032972 
0.29174411163 0.34077319455 0.28580385076 0.28755369447 0.32844140105 0.28584901625 0.28687734255 0.32294883118 0.28562957669 
0.28599315875 0.3227228799 0.28487940306 0.28595473263 0.32111799369 0.2837184772 0.28556296609 0.32109677477 0.28403250626 
0.28366406217 0.32343051731 0.28385404421 0.28319005719 0.32499503962 0.28547172314 0.28379678961 0.32676602341 0.28971689667 
0.2858927943 0.32956441766 0.30766888547 0.29925779548 0.34112050632 0.37859753169 0.32315546718 0.39335167457 0.33124022396 
0.36023862264 0.33511177344 0.37417561874 0.30737855643 0.31817441546 0.34853898334 0.29083986286 0.29934142667 0.32741603912 
0.28887182648 0.2954430454 0.32080587389 0.28440908719 0.28559319311 0.32442003679 0.2837928573 0.28460713096 0.32266158379 
0.28351358218 0.28364150472 0.32497375488 0.28311317514 0.28273882999 0.32572883441 0.28419937457 0.28317193143 0.32563016163 
0.28487539515 0.28292694228 0.32744689874 0.28886233293 0.28597292314 0.32922256281 0.29403076854 0.2890942839 0.33561728783 
0.31969632672 0.30014293623 0.34621320178 0.37369718466 0.32489262567 0.36824439692 0.33096827285 0.35808946427 0.33331844717 
0.37698970354 0.33523543836 0.28793915846 0.38860054714 0.33570441559 0.29137653889 0.33210062828 0.30741217966 0.3412267683 
0.3003261049 0.35250597419 0.28996327093 0.32040479328 0.32690014015 0.441557646 0.39503310085 0.33311872997 0.30579599538 
0.33351073102 0.33366687218 0.33379194879 0.33396047909 0.33364155345 0.33412169593 0.33432399729 0.33395551352 0.33451204473 
0.33472519191 0.33432295064 0.33493023531 0.33515416511 0.33472743211 0.33535042403 0.33555734906 0.33514204641 0.33573396075 
0.33592373324 0.33552765083 0.33607553563 0.33623131432 0.3358775525 0.33634673429 0.33647118964 0.33615970203 0.33656334587 
0.33664699929 0.33637759784 0.33670347818 0.33675141822 0.3365268156 0.33676827242 0.33676917444 0.33660262753 0.3367505195 
0.33670445257 0.33659978659 0.3366399838 0.33654959141 0.33651454586 0.33646210311 0.3363404411 0.33635629307 0.33622410094 
0.33606451299 0.33614348315 0.335901241 0.335702239 0.33585318811 0.33552323746 0.33531110432 0.33550057299 0.33511594202 
0.33488782112 0.33511352418 0.33468893128 0.33447462458 0.33470531788 0.33428364612 0.33408352891 0.3342928229 0.33392285972 
0.3337566028 0.33392806315 0.33362535274 0.33349898506 0.33360924672 0.33340520242 0.3333130663 0.33337097273 0.31992290745 
0.3236871987 0.40175484965 0.3734753529 0.36885178398 0.33323511148 0.35702935069 0.34410877232 0.33626380096 0.32909865314 
0.34320499879 0.32412130977 0.32017149456 0.33164918702 0.31693052125 0.31429404487 0.32413417358 0.31178700368 0.31039042961 
0.31885658933 0.30871615721 0.30806045351 0.31505787598 0.30705883459 0.30645484009 0.31256435177 0.30592619055 0.30602341541 
0.31121278777 0.30574181134 0.30602175547 0.31039565916 0.30592858548 0.30629566351 0.31010903871 0.30656391101 0.30714334546 
0.31030759005 0.30742609633 0.30836956321 0.3108025594 0.30883000805 0.31011323405 0.31151275478 0.31088429552 0.31246457335 
0.31269186299 0.31343866449 0.31539660322 0.31438520266 0.31676281044 0.31935269797 0.3166826292 0.32116649067 0.32425801407 
0.3198615793 0.32652489387 0.32966811577 0.3242375463 0.33211310843 0.33475715432 0.32930497452 0.33679873879 0.33846706583 
0.33426602971 0.33943121171 0.33967314932 0.3374824646 0.33920773034 0.33801771765 0.3378026675 0.33632000835 0.33402664066 
0.33517523565 0.33229220074 0.33003348514 0.3310444186 0.32877837908 0.32697059957 0.32765757953 0.32611969934 0.3248837766 
0.3254772265 0.32442995196 0.32361344639 0.32420146875 0.32347390288 0.32310436856 0.32367712071 0.3231626317 0.3231500654 
0.3237102199 0.32332391975 0.32353444487 0.32406895516 0.32379346706 0.32412693352 0.32459615977 0.32450300145 0.32501990374 
0.32530647782 0.32543148937 0.32597436213 0.32613293356 0.3264557545 0.32707319617 0.32704884141 0.32753921737 0.32813909773 
0.32800788785 0.32853937055 0.32905291835 0.32888942345 0.32943370467 0.32993193894 0.32967056474 0.33031723893 0.3307694977 
0.33042254476 0.33113714047 0.3315399963 0.33116029617 0.33188011323 0.33221486199 0.33184582555 0.332501893 0.33274892283 
0.33243768744 0.33298247154 0.33314127502 0.33294896825 0.33225670311 0.3666711687 0.38787661032 0.36526974291 0.35844418492 
0.33267807015 0.33243491369 0.33216624441 0.33180689996 0.33233501144 0.33148484927 0.33105112387 0.33174134096 0.33067923803 
0.33016711707 0.3310424027 0.32974990369 0.32921104533 0.33024441309 0.32880755694 0.32824246184 0.32940632914 0.3277810312 
0.32716852076 0.32851991819 0.32671577601 0.32612724138 0.32758220538 0.32569036394 0.32514067938 0.326664208 0.32475195986 
0.32426008706 0.3257988434 0.32390736755 0.32355311354 0.32499828643 0.32328142959 0.32309279315 0.32429088749 0.32297826389 
0.32309377787 0.32381580503 0.32311036759 0.32366607962 0.32359676659 0.32388183986 0.32482614389 0.32386099489 0.32549255508 
0.32699283964 0.32476298061 0.32813135385 0.33004703683 0.32646643099 0.33153275162 0.33359809272 0.3291474049 0.3354508502 
0.33731848036 0.33269489442 0.33869666499 0.33966655511 0.33638147314 0.33977474979 0.33923714209 0.33812586589 0.33770978579 
0.33550391659 0.33663538928 0.33296722984 0.32960162006 0.3321673939 0.32726862357 0.3241154299 0.32684394135 0.32207967115 
0.31900919479 0.32199256328 0.31727539389 0.31486598582 0.31805373574 0.31365386896 0.31176582152 0.3150453209 0.31089771867 
0.30954351766 0.31302746859 0.30890728261 0.30784325529 0.31159240004 0.30738892172 0.30653597678 0.31051248707 0.30619218054 
0.30555701458 0.3097849389 0.30544912004 0.30498234575 0.30941501027 0.30507888167 0.30490486171 0.30934887048 0.30529829577 
0.30542524523 0.30971734253 0.30606980443 0.30649200131 0.31067375095 0.30762098498 0.30835206321 0.3124308759 0.31012056425 
0.31190453849 0.31505297557 0.31464629705 0.31802456715 0.3193612678 0.32188201329 0.32635672553 0.32593482876 0.33229803156 
0.34022716739 0.33458459971 0.34897378813 0.36279615498 0.36451782137 0.34800368053 0.33326023084 0.35386530103 0.35670265666 
0.34226850829 0.32751379197 0.31912332333 0.30993167566 0.33126375477 0.30476373684 0.30529631963 0.31472508454 0.29755686744 
0.29823470726 0.30418245476 0.29137835291 0.29361188478 0.29919689306 0.2873361638 0.28851848597 0.29453512869 0.28386528148 
0.28492570231 0.29091357993 0.28116396209 0.283308616 0.28819647773 0.28044268394 0.28157855928 0.28627855114 0.27944562858 
0.28053370889 0.28526072864 0.27916650503 0.28033442409 0.28437851521 0.27990035931 0.28052556539 0.28389851962 0.28056148738 
0.28011029784 0.28405475658 0.28121904945 0.28036348804 0.28467044527 0.28209895048 0.28120573838 0.28578882081 0.28372922455 
0.28237686725 0.28734291612 0.28595591332 0.28506616175 0.28919624962 0.28983985245 0.28847899327 0.29233474916 0.29486331872 
0.29311461536 0.29664550158 0.30126340405 0.30022280881 0.30304721912 0.31070977454 0.31094595443 0.31196673785 0.32537934335 
0.32974311827 0.32505537498 0.35213213171 0.32881690257 0.33652915312 0.33134147164 0.36773143219 0.32408116155 0.34644798829 
0.34130406753 0.34273496052 0.32755975319 0.33930354085 0.31778890867 0.31799397573 0.3246013239 0.31574801218 0.31635410536 
0.32092760201 0.31451170667 0.31516064872 0.31913472209 0.31451246166 0.31458583748 0.31839109033 0.31583260574 0.31590128338 
0.31842479021 0.31750044621 0.31800376364 0.31932510574 0.31957744313 0.32026857306 0.32168528069 0.32565713743 0.32437819091 
0.3260834564 0.33618955984 0.33228449499 0.33259199471 0.34671144274 0.34328826045 0.33915178355 0.30362143307 0.32862762624 
0.32354596873 0.3209934267 0.36287950037 0.33356141678 0.3034501861 0.37416727601 0.33407653838 0.3399751468 0.34463492089 
0.32046519666 0.32117813392 0.31730200506 0.31693051019 0.32339566903 0.31759946563 0.31588936384 0.32072181761 0.31849889138 
0.31789318211 0.32114071032 0.31907092886 0.31874061844 0.32162296686 0.32077838532 0.32027145181 0.32322960717 0.32363832358 
0.32329233167 0.32621546934 0.32986234308 0.32839377469 0.33088159179 0.34006736843 0.33622059978 0.33723435607 0.33917077254 
0.34701302009 0.34126649978 0.29811564974 0.32027910293 0.33334739138 0.33068507711 0.33592187226 0.34082609733 0.3254023742 
0.32748546178 0.33512149445 0.32823151173 0.32793381985 0.3033188063 0.33319373816 0.3331656598 0.33311925661 0.33314727112 
0.35834510967 0.31667082927 0.34159643799 0.3328982754 0.31349500237 0.29870932096 0.33333265699 0.34730431739 0.34929565978 
0.32748427608 0.31322447349 0.32533189061 0.31391552758 0.3027002635 0.31201319549 0.33604133478 0.30852743225 0.31790147454 
0.31155170278 0.33282632757 0.32234264087 0.32304521723 0.35017365862 0.33367531382 0.33385502663 0.33406574311 0.33427403564 
0.33380001693 0.3344987997 0.33472200296 0.33425589347 0.33494580407 0.33516164893 0.33473183132 0.33536006439 0.33556025146 
0.33518889588 0.33573447627 0.33590207847 0.3355782821 0.33603900001 0.33616378384 0.33591745516 0.33626640445 0.33636074342 
0.33617212339 0.33643203485 0.3364913778 0.33635705341 0.33652975019 0.33654875612 0.33647009558 0.33654700756 0.33652566558 
0.33650769556 0.33648480599 0.33641741557 0.33646329936 0.33634740035 0.33625125345 0.33634254318 0.33614347397 0.33601634078 
0.33615094119 0.33587636673 0.33569831083 0.33588509017 0.33551846548 0.33532092119 0.33554565854 0.33512541936 0.33491376311 
0.33515255194 0.33470019591 0.33447843246 0.33471614304 0.33426261301 0.33405352687 0.33425667543 0.33385071917 0.33366318066 
0.33380521905 0.33349812307 0.33335313804 0.33341788905 0.32401898779 0.32536572503 0.32698809215 0.32738615925 0.32955899385 
0.32945669063 0.34531860652 0.33887193724 0.33597867303 0.33160872544 0.33680936979 0.32904220309 0.32620198528 0.33188254455 
0.3242976062 0.32204470587 0.32804105086 0.32023870388 0.31869586454 0.32468044331 0.317383549 0.31656782992 0.32200471791 
0.31583139662 0.31536954522 0.32018393985 0.31479511816 0.31460706756 0.31907263904 0.3141854326 0.31407208612 0.31817733142 
0.31381834137 0.3140864509 0.31761874685 0.31390772006 0.31416527533 0.31720581029 0.31402375544 0.31445279693 0.31690941835 
0.31436456636 0.31506596307 0.31666175911 0.31508866876 0.31599409769 0.31654567459 0.31624501165 0.31754622135 0.31675172336 
0.31809571354 0.3200250369 0.31745723359 0.32147953741 0.32401391682 0.31942788705 0.32682186354 0.32949418077 0.3238131657 
0.33201035077 0.33445943129 0.32988449493 0.3372809618 0.33833833557 0.3359730911 0.338163972 0.33740404607 0.33888993802 
0.33504735377 0.33266286411 0.33605978726 0.32986963718 0.32753539533 0.32914013495 0.32613278734 0.32476985605 0.32462831649 
0.32436409812 0.32354547053 0.32269639974 0.32354319984 0.32319526904 0.32235384487 0.32349685104 0.32347023705 0.32281503562 
0.32392983647 0.32409470766 0.32370631052 0.32454659895 0.32482594974 0.3247311135 0.32525274644 0.32559380009 0.325716253 
0.32597424269 0.32639389462 0.32660347575 0.32678804318 0.32722995532 0.327431616 0.32762878936 0.32811915573 0.32826518982 
0.32849993642 0.32897402003 0.32906684044 0.3292923094 0.32969244298 0.32977378231 0.32997993887 0.33035122224 0.33037818283 
0.33062319063 0.33099195136 0.33093400124 0.33125810613 0.33160523865 0.33146724312 0.33190407019 0.33223074895 0.3320285916 
0.33248480478 0.33276337498 0.33258017709 0.3329655408 0.33318476296 0.33337096075 0.33303302688 0.35422789597 0.34792772121 
0.34203966427 0.33954181339 0.31431014804 0.30909675959 0.33849092644 0.33720315473 0.3321098476 0.33178156873 0.33152561512 
0.33114437367 0.3319121553 0.33084396519 0.33041392411 0.33134352717 0.33010255288 0.3296769864 0.33071267305 0.32937079609 
0.3289000862 0.33007257378 0.32851308082 0.32804686777 0.32936551036 0.32767354245 0.32721272031 0.32858613092 0.32683150018 
0.32640623594 0.32780212956 0.32601952726 0.32560633205 0.32698608594 0.32522283819 0.32486864403 0.32614627418 0.32446800922 
0.32424937885 0.32526851243 0.32385275117 0.32378212277 0.32435852501 0.32343170956 0.32362176277 0.32346344047 0.32336912351 
0.32396833134 0.32266836522 0.32434032693 0.325465756 0.32273557012 0.32595833287 0.32759628241 0.32363666096 0.32978927404 
0.3319123454 0.32670529881 0.33496576609 0.3368464145 0.33249474079 0.33796892695 0.33806944681 0.33734924384 0.3370855323 
0.33526951879 0.33791451079 0.33232073393 0.32926830021 0.33272935492 0.32612621366 0.32327231179 0.32606854139 0.32174358167 
0.31965686318 0.32089948404 0.31862065408 0.3168580782 0.31839260017 0.31623337586 0.31512643944 0.31677499993 0.31500445181 
0.31423930738 0.31614766281 0.31421607687 0.31367222177 0.3161290194 0.31367673454 0.31325991379 0.31620753333 0.31332371864 
0.31306137515 0.31632873652 0.31321962019 0.31311451936 0.31657027611 0.3134423298 0.3134841843 0.31700696086 0.31409127833 
0.31445286053 0.31777713841 0.31514278603 0.31571778453 0.31896888282 0.31654682014 0.31753876232 0.32033473717 0.31886712445 
0.3203519087 0.32228581779 0.32257986265 0.32550716595 0.32527624711 0.32740104159 0.33113616936 0.32948531234 0.3336033099 
0.3388472531 0.33361790505 0.32541386575 0.32554622956 0.33717975768 0.32589961087 0.33208027416 0.34377536824 0.32042474081 
0.31533622153 0.32695681236 0.31177909749 0.30843772372 0.31822787079 0.30551548075 0.30265798067 0.31184858091 0.30052667317 
0.2982837196 0.3067733386 0.29632674971 0.29471945216 0.30248993639 0.29337182018 0.29213236431 0.29907050116 0.29116951533 
0.2905231625 0.29661895756 0.28981359125 0.28921053205 0.29477725351 0.28878974644 0.28842860823 0.29350782855 0.28822311109 
0.28828880958 0.29280634934 0.2882918681 0.28830730476 0.2925651859 0.28865100523 0.28917223542 0.29294260971 0.28974698669 
0.29039567544 0.29393234846 0.29112654777 0.29200042924 0.29535648584 0.29276926678 0.29401086915 0.29695364448 0.29540003489 
0.29733799306 0.2992671963 0.29941334183 0.30208718878 0.3028958653 0.30530845194 0.30914154539 0.30846610532 0.31306575762 
0.31832288032 0.31606179929 0.32369555132 0.33164269878 0.33822868603 0.32535499332 0.3319214853 0.33515034744 0.33277598111 
0.32173937096 0.32200098178 0.32570744527 0.32213655574 0.32187411985 0.32542023897 0.32348540601 0.32250921456 0.32581577927 
0.32586599842 0.32447550231 0.32721407882 0.33027906192 0.32758464961 0.32983877282 0.33521638625 0.33233511092 0.33326122212 
0.33703669485 0.33624630939 0.33511650454 0.32026369729 0.33081755623 0.3300377664 0.32051392899 0.34468784911 0.32816381816 
0.31572023157 0.3272741137 0.31036973787 0.3116450055 0.31979974224 0.3364907372 0.32798027524 0.32961733961 0.32637815947 
0.32588129291 0.32979896327 0.32818436821 0.32724752842 0.33090028192 0.3310456985 0.32937824903 0.33270553468 0.33519745583 
0.3327328468 0.33523093923 0.3389005951 0.33659478949 0.33777616909 0.3358431185 0.33801163771 0.33682758326 0.31191362014 
0.30837618986 0.32603896815 0.32684184065 0.33116712224 0.32967550068 0.3335065287 0.34680457178 0.35067618526 0.33656065142 
0.32289315984 0.33261496692 0.33234372005 0.33240975309 0.35011555469 0.34379480021 0.33724271367 0.34251984024 0.3138991137 
0.31971672611 0.33340051247 0.34202359543 0.33323794089 0.33314015996 0.31570328416 0.31523535544 0.32449855198 0.32468812598 
0.3197401022 0.33342818338 0.33311774804 0.33300924961 0.33279056955 0.31407801919 0.33855391302 0.33756790581 0.3356092906 
0.32964059081 0.33987951911 0.3277772264 0.33490761507 0.3363387731 0.33780731569 0.34734679061 0.34509042533 0.33721642431 
0.32854226856 0.31641540879 0.31442571148 0.32914183647 0.31946204927 0.31596562359 0.32652023179 0.33846203367 0.33368050101 
0.33114504136 0.33323920181 0.31415848043 0.31212396539 0.32160236185 0.33282466812 0.34132640123 0.3383748634 0.34109760378 
0.33395445406 0.33421401185 0.33450215031 0.33476006347 0.33422826488 0.33500828754 0.33524097303 0.33480889436 0.33547447048 
0.33568232545 0.33533509005 0.33586250812 0.33601773059 0.33577262666 0.33615171466 0.33626332364 0.33611826851 0.33635352523 
0.33643143295 0.33635908141 0.33649888082 0.33654043552 0.33652750978 0.33657292328 0.336574029 0.33663408416 0.3365543627 
0.33650787259 0.33664573277 0.33643743528 0.3363543272 0.33654803908 0.33625166393 0.33612726457 0.33635697521 0.33598253651 
0.33582081015 0.33608883746 0.33562971816 0.33542351737 0.33572521088 0.33520147105 0.33497482227 0.33527785098 0.33473112152 
0.33448747186 0.33478427304 0.33422214753 0.33397103575 0.33423827127 0.33371529387 0.33348761534 0.33368017037 0.33326307139 
0.33307681631 0.33316874043 0.32944908543 0.33027271817 0.33105217163 0.33231847339 0.33309020652 0.33588039531 0.31328744118 
0.31678893997 0.33270643079 0.33053836182 0.3300646522 0.32836223308 0.32992953341 0.32780030893 0.32627146515 0.32898463424 
0.3255262396 0.32448110942 0.32809068864 0.32381740832 0.32331599132 0.32699719623 0.32278082311 0.3223791979 0.32607408924 
0.32187579477 0.32156495418 0.32527504743 0.3210922756 0.32088099015 0.32454424888 0.320386947 0.32024803054 0.32366455527 
0.3197014862 0.31955124458 0.32272675625 0.31886255935 0.31871395492 0.32151974973 0.31798107814 0.31789895374 0.32008395225 
0.31728633916 0.31735950744 0.31867895239 0.31672848338 0.31711772157 0.31722585475 0.31681309353 0.31839691884 0.3157545715 
0.32139979934 0.32477038039 0.327734954 0.3345673123 0.33823703308 0.34227977064 0.34189028374 0.3312175818 0.32720704494 
0.32072261251 0.32033985953 0.32102350582 0.32111720298 0.31918771181 0.32208045812 0.32248309118 0.32089090223 0.32342886073 
0.32402580498 0.32286168293 0.32488889512 0.32543596863 0.32476716116 0.32614038686 0.32664602258 0.32639464762 0.32717496857 
0.32761436097 0.32766335557 0.32810017544 0.32853443292 0.32870891501 0.3289742063 0.32939751132 0.32965616808 0.32972746816 
0.33011915963 0.33043890726 0.33036247855 0.33068293677 0.33101479415 0.33087265643 0.33115424088 0.33144673637 0.33131257719 
0.3315808513 0.33179393652 0.33174711126 0.33200336013 0.33211753099 0.33215149861 0.33244479617 0.33243051773 0.33278899663 
0.33304930847 0.33293931829 0.33817720571 0.33234080472 0.3348960519 0.3285622539 0.32852027673 0.32864516869 0.32893519195 
0.33214776674 0.33162009389 0.3319386468 0.33162524695 0.33141802272 0.33108059352 0.33200496457 0.33084561996 0.33052085094 
0.3315390146 0.33027456625 0.32988109848 0.33103907377 0.32956951898 0.32917380324 0.33047006523 0.32881674734 0.32840757765 
0.3297841116 0.32798397121 0.32755223623 0.32898292021 0.32705303749 0.32660382432 0.32803604778 0.32603821032 0.32554815391 
0.3269380867 0.32487190866 0.32436565721 0.32565107723 0.3234647602 0.32297874636 0.3240158581 0.32193444472 0.32164190809 
0.32207431098 0.32016439549 0.32048707568 0.31933477233 0.32164833415 0.32424413783 0.32960126305 0.33370125746 0.33940428775 
0.33653567579 0.33308883015 0.32459758616 0.32082212887 0.31933801384 0.31801915882 0.31731667244 0.31789566336 0.31700604855 
0.31658609737 0.31720508593 0.31669750606 0.31708495256 0.31726087076 0.31728464048 0.31764957144 0.31803904871 0.31815540542 
0.31915769541 0.31866912259 0.31878117891 0.32057083277 0.31918207708 0.31929693675 0.32155245929 0.31977701599 0.31992890015 
0.32247719521 0.32045267158 0.32076299885 0.32341460045 0.32132388963 0.32182039759 0.32440245959 0.32233433581 0.3229118964 
0.32527018447 0.32343442232 0.3240950725 0.32610068866 0.32466285919 0.32586061039 0.32714539488 0.3263792607 0.32848309879 
0.32828197003 0.32928858914 0.33074983653 0.32932479482 0.33228401654 0.3347185635 0.33240671038 0.33087897322 0.33449013288 
0.33389971999 0.33318384501 0.32733107818 0.33312853256 0.33440384945 0.33418595594 0.32735419417 0.32401816698 0.32036208538 
0.32953155534 0.31760984926 0.31491046471 0.32355869711 0.31242133432 0.31011921758 0.30818548521 0.30625207344 0.31389020493 
0.3045999406 0.30317775931 0.31039153898 0.3020301614 0.30097377798 0.30766206916 0.30007778043 0.29929629693 0.30561217801 
0.29839548425 0.29790515963 0.30372228448 0.29744046905 0.29719305298 0.30230038939 0.29706673271 0.29706025977 0.3017273224 
0.29742565316 0.29778893519 0.30196839248 0.29842122737 0.29907013725 0.30304218236 0.29972126236 0.3004882827 0.30433935968 
0.30119952436 0.30206150117 0.30566362487 0.30313741695 0.30458043239 0.30736660113 0.3059573952 0.30816166891 0.30978851854 
0.31094742377 0.31421406128 0.31385083079 0.31763798164 0.32162140333 0.32024516955 0.32894586118 0.3286678367 0.33150885391 
0.31154659093 0.31457244825 0.31475529018 0.33010351568 0.32919877899 0.3317900109 0.33231910626 0.33101205724 0.33273238713 
0.33458939116 0.33330795136 0.33421772026 0.33449547792 0.33451930716 0.33442239824 0.31534760341 0.32052290847 0.33237601123 
0.33210831982 0.33238558488 0.31757775512 0.33350827376 0.33322701079 0.33706986588 0.33795316798 0.33688420343 0.33856599437 
0.33818577742 0.33932614819 0.33485877095 0.33706007945 0.33748393336 0.32313160722 0.32957404839 0.33059782751 0.33540863271 
0.33324638487 0.33055486375 0.33101124441 0.33341503211 0.33364958787 0.33294112327 0.32670158813 0.33146151155 0.33120883545 
0.32337483431 0.33616977091 0.33517044681 0.33788672734 0.33891932728 0.32144763306 0.33278690415 0.33320289368 0.33359410166 
0.31827300298 0.31797477571 0.31445339183 0.33065371474 0.3130623063 0.31491538652 0.31778361956 0.33505343081 0.31967328354 
0.33703484651 0.33442284674 0.33448291051 0.3347075027 0.33683625677 0.33427180003 0.32624197054 0.32182340089 0.31781744372 
0.31996776199 0.31735015999 0.32579367587 0.3363399506 0.33277449562 0.33321065994 0.31731685999 0.32702432331 0.3356023751 
0.33685577834 0.31452837786 0.31526036887 0.31735089442 0.33808295476 0.33428842162 0.33518070183 0.3382243679 0.33690663237 
0.3242618978 0.3177928119 0.31940596872 0.33254745287 0.33274028461 0.33378320062 0.33372189683 0.33459873711 0.3348921118 
0.33520515814 0.33548077302 0.33502979394 0.33575177067 0.33596992467 0.33565790937 0.33615612927 0.33630836246 0.33614913847 
0.3364371547 0.33653938653 0.33649175568 0.33660606598 0.3366809066 0.33669914151 0.33678339234 0.33682577195 0.3368908945 
0.33684848046 0.33682659046 0.33702392153 0.33676332976 0.33667800498 0.33697629764 0.33655997653 0.33643726406 0.33677857001 
0.33627410823 0.3361025279 0.33647613364 0.33589635065 0.33567006683 0.33607358562 0.3354045429 0.33514199503 0.33556178436 
0.33485393882 0.33456772788 0.3349608015 0.33424794028 0.33394000805 0.33431374989 0.33359562585 0.33330015827 0.33360468485 
0.33299056663 0.33280183547 0.32927991424 0.32640998678 0.3323543247 0.32942454569 0.32903787303 0.32951322435 0.32903970265 
0.32944763057 0.32914433445 0.32880672881 0.33041512308 0.3286744381 0.32839170971 0.33062410462 0.32822759814 0.32774591208 
0.33058165446 0.32768142777 0.32721075635 0.33026921873 0.32674161571 0.32624298296 0.32965013551 0.32565319302 0.32510951628 
0.32853670179 0.32431636224 0.32360830243 0.32717060553 0.32242502918 0.32159441973 0.32521006644 0.32016770774 0.31930743447 
0.32256037436 0.3186394724 0.31747174501 0.32031682057 0.31571575453 0.32001190133 0.3209946997 0.32251410026 0.32350584795 
0.32200393936 0.32492795048 0.32582186327 0.32483053271 0.326939415 0.32766414174 0.32732557781 0.32842068995 0.32897316195 
0.32911352001 0.32927045421 0.32978192811 0.33010191728 0.33038719146 0.33084357572 0.33101558074 0.33118566031 0.33152818673 
0.33194814491 0.33170299611 0.33195139843 0.33245583664 0.33205359137 0.33224441842 0.33272700673 0.33232148871 0.33247906361 
0.33290470217 0.33254954449 0.33271280277 0.33304909782 0.33279005685 0.33292505113 0.33318722987 0.33268312688 0.33246603641 
0.31805357206 0.33435454351 0.333749045 0.33227908073 0.33201905604 0.33293497446 0.3318679955 0.33161425694 0.33258897443 
0.33141768958 0.33109417459 0.3322403393 0.33082542119 0.33045312069 0.33177192051 0.33005446949 0.32961843921 0.33110949401 
0.32908126387 0.32856101157 0.33019055212 0.32784053549 0.32723675847 0.32895571592 0.32666794538 0.32596150604 0.32765800985 
0.32492625301 0.32394163879 0.32609593823 0.32260255934 0.32151713739 0.32377474301 0.32068284674 0.33381175727 0.33369537263 
0.33572829495 0.31722391684 0.31812498688 0.32038585017 0.32124161386 0.3199815003 0.32246092291 0.32305149542 0.32381286725 
0.32390592575 0.32436772191 0.32583289403 0.32510185355 0.32560304586 0.32738140932 0.32628003421 0.326732569 0.32867660904 
0.32713805632 0.32758861488 0.32965813202 0.32783682599 0.32820900786 0.33012327855 0.32825886707 0.32860531458 0.3302307077 
0.32851832772 0.32892552337 0.32991129522 0.32862796964 0.32894224401 0.32930533609 0.32922827428 0.32721159681 0.32740296968 
0.33678619845 0.33364522045 0.31866467391 0.31681604655 0.32897085934 0.31538029522 0.31385330766 0.3201579336 0.31286984277 
0.3117695982 0.31793818883 0.31099668439 0.31011181541 0.3163881138 0.30925953685 0.30836204605 0.31481423895 0.30679877742 
0.3063171811 0.31231745789 0.30707994973 0.30694093315 0.31154255889 0.30613305183 0.30648233788 0.3114953594 0.30794594884 
0.30855939606 0.31207271503 0.30910430802 0.30973222159 0.31413902763 0.31009298613 0.31076969572 0.31497499448 0.31141150573 
0.31243983423 0.31579442544 0.31320310291 0.31452650423 0.31710906471 0.31558746985 0.31824935874 0.31877893694 0.33518910496 
0.33472653082 0.33552944611 0.33442573958 0.33482573096 0.33527808997 0.33290653413 0.3327317267 0.3174447313 0.322221535 
0.3378795332 0.33897352518 0.33872465171 0.33914786385 0.32826054618 0.32810123218 0.32742036916 0.32930070604 0.33390053503 
0.33434751042 0.33476331509 0.33973691942 0.33949233568 0.33698568482 0.3388265701 0.33547798847 0.34022622899 0.34060816163 
0.33996366255 0.32719114559 0.33393203161 0.33426436689 0.33433700023 0.32289314786 0.32043483507 0.33482268585 0.33510130397 
0.33578773945 0.31873244095 0.32467592115 0.32305870408 0.33325098586 0.33360138889 0.3418937833 0.34088047927 0.34054406443 
0.33547946613 0.32156072378 0.32988343542 0.32574629796 0.33272069366 0.33316488506 0.33990207177 0.34200122512 0.3402797552 
0.31591624414 0.31619768863 0.33400000699 0.33428895752 0.33601367367 0.334720855 0.33438107212 0.33514984231 0.33378057572 
0.33388477186 0.33604114709 0.33589460808 0.34050191764 0.34117752206 0.3203538311 0.31813772638 0.31929140704 0.32123336091 
0.32294833476 0.34050430082 0.47134703508 0.41547802748 0.32569472152 0.3396342136 0.33916383099 0.34199799302 0.33274276102 
0.33310378838 0.33021979764 0.31956408718 0.32149126756 0.32235082671 0.33362514001 0.32229523851 0.32532613526 0.32902490642 
0.32314661821 0.34036505659 0.33937888305 0.34193551007 0.32251764719 0.32671096659 0.32843921257 0.32265123617 0.33865387528 
0.32237739207 0.32546515413 0.32695575867 0.33559603251 0.33591661193 0.33661228997 0.33675264903 0.33693101796 0.33699884584 
0.33706503746 0.33712701973 0.48202595919 0.42390021332 0.33730511974 0.33734154089 0.33744580286 0.33731481411 0.33724034228 
0.33761261428 0.33707530064 0.33693621551 0.33742293285 0.33674118268 0.33654874233 0.33703262899 0.33631502869 0.33606948226 
0.3365656384 0.33575452256 0.33543690981 0.33597314978 0.33507423205 0.33473717723 0.33525026431 0.33440210689 0.33403197275 
0.33449255715 0.33356456048 0.32884978185 0.32961138506 0.32691968081 0.33645861486 0.33623877207 0.33103785896 0.33131530148 
0.33029381891 0.33196954069 0.33209954124 0.33243239569 0.33249981136 0.33241503055 0.33368041247 0.33268534984 0.33245904225 
0.33437832116 0.33234796041 0.33180537553 0.33450615411 0.33122919209 0.33057553162 0.33378025308 0.32991325803 0.32910190432 
0.33251694498 0.32813688136 0.32694655129 0.33091618657 0.32466338059 0.32298270501 0.32802200496 0.32514527861 0.32655431427 
0.32497163665 0.32803805456 0.32912132516 0.33007114649 0.33083383201 0.33100946986 0.33134989276 0.33161228866 0.33238469817 
0.3322029655 0.48825252986 0.4319560936 0.33276538481 0.33311047511 0.33342969926 0.33330166303 0.33347442726 0.33413896827 
0.33347198366 0.33357627363 0.33429467125 0.33350805995 0.33358650214 0.33421273023 0.33352781816 0.33359502331 0.33408422683 
0.33461564156 0.33746651093 0.32374578198 0.32270711569 0.32523691603 0.33554478673 0.33606019645 0.33689786559 0.336987649 
0.33332951516 0.33316627848 0.33312005994 0.33291822541 0.33383848086 0.33275201064 0.33247976165 0.33362978317 0.33222647103 
0.33182604929 0.33322340184 0.33137842944 0.33085061911 0.33253925252 0.3299957754 0.32929064191 0.33128294238 0.3287299914 
0.46441650622 0.48487582859 0.3277124186 0.32667680931 0.32950199738 0.32504042498 0.34078669003 0.33836310455 0.31704028272 
0.32802922105 0.32887438977 0.32933160969 0.33006607732 0.33153422441 0.33113491013 0.33172502846 0.33298659084 0.33189337118 
0.33215650716 0.33405624031 0.33205867736 0.33207729634 0.33391032558 0.33167712833 0.33156278424 0.33321108036 0.33069972342 
0.3303506475 0.33164091793 0.32908578285 0.32861182962 0.32919923836 0.33659302541 0.33636257945 0.33685252845 0.32396249789 
0.32285435924 0.32231519523 0.32154207772 0.32618957177 0.32106969182 0.32041719175 0.32548807101 0.31989654554 0.31912790323 
0.32482511924 0.31818676549 0.31667023829 0.32327919421 0.31747438641 0.48713509528 0.42414485518 0.3176939609 0.31683720435 
0.32274601053 0.31827412565 0.48859516413 0.42171530272 0.31900079773 0.31945696287 0.32373376348 0.31952079109 0.31977923986 
0.32427836706 0.31972203736 0.32025501444 0.32412913942 0.32037313266 0.3210632797 0.32406947716 0.32147878343 0.33662160563 
0.33985447632 0.34138825732 0.33893412498 0.34014520846 0.34233457277 0.48237111019 0.41796200763 0.33399271779 0.33437534805 
0.33363757496 0.33623582053 0.33645067118 0.33670685435 0.33619425647 0.3333252475 0.33147157526 0.33347098795 0.33686733705 
0.33736810956 0.33704105115 0.34226752103 0.32777060471 0.33778261124 0.33481494813 0.33518755815 0.33451992026 0.32894158099 
0.32527027127 0.32526234932 0.33014777888 0.32860267372 0.33115427163 0.33325179963 0.33356046998 0.33542200335 0.33356195124 
0.33336095271 0.33393330843 0.33405498332 0.33563593232 0.3350123895 0.33612503712 0.33711530782 0.33720840969 0.33824303335 
0.33427992057 0.33502072692 0.33273686768 0.32692320686 0.32217988977 0.31964413781 0.34261214176 0.34267168688 0.34320596614 
0.32672788724 0.32979751805 0.32548186158 0.34382336239 0.34383412764 0.32486418569 0.32718088862 0.32457659949 0.3434825351 
0.34343561885 0.34505288885 0.34349101977 0.34265417742 0.32608409398 0.32885142641 0.32581758397 0.34226283988 0.41321970254 
0.46387155548 0.33769224283 0.33791982863 0.39730669194 0.48673695483 0.33802059079 0.33800081014 0.33829903758 0.33784228896 
0.33764772501 0.33826828726 0.33735275373 0.33712671085 0.33777572301 0.3368776922 0.33660020685 0.33717800514 0.33619581791 
0.33582246896 0.336486248 0.3353508072 0.3349334109 0.33555497745 0.32661976697 0.32742381348 0.32781206093 0.33053067547 
0.32902787563 0.33262231918 0.33339626248 0.33434954014 0.33494191085 0.33446376068 0.33589317253 0.33620185872 0.33645337079 
0.3366454293 0.33652926376 0.33799123483 0.33625638053 0.33563957698 0.33828077011 0.3348511554 0.33413203216 0.33727584807 
0.33420561934 0.32901835012 0.32876286697 0.33457819988 0.33204585284 0.33298708844 0.33533313312 0.33205427781 0.32740708417 
0.33357464095 0.33405816077 0.33472918307 0.39039691358 0.50150313373 0.39924753083 0.4400844244 0.33439822054 0.33490740772 
0.33556130521 0.33493139711 0.33512011348 0.33586964916 0.34362000501 0.34360279602 0.3447478766 0.34434519428 0.3345656805 
0.33440270193 0.33416178961 0.33392253712 0.33510451923 0.33296153014 0.33214886608 0.33306247658 0.33471017297 0.33385129581 
0.33127317894 0.33026064589 0.33105250292 0.32689556339 0.32927970086 0.33073160448 0.33724659517 0.33727078095 0.33814845628 
0.33841587433 0.34333136708 0.34158455739 0.34547219513 0.34399829205 0.33467434438 0.33570714171 0.33627917014 0.3364025822 
0.33794596561 0.33551196834 0.33529312072 0.33765431259 0.33447230818 0.3337926393 0.3357687527 0.33223995523 0.33103054901 
0.32882166033 0.33699337613 0.33758405648 0.32922997561 0.32901930166 0.33192312862 0.32941022547 0.32909850295 0.33320451846 
0.32863090501 0.3277864695 0.33319240341 0.32859158557 0.32923332523 0.34414663252 0.34479160518 0.3375071017 0.33819829696 
0.3385985029 0.33832640425 0.3364658454 0.33515380817 0.33562905043 0.33477245711 0.33709451911 0.33730706149 0.3377609086 
0.34600298214 0.34609134097 0.34543538001 0.34480591625 0.34384375631 0.34576680411 0.33442528836 0.32956795809 0.33099143102 
0.33601208908 0.33622783934 0.33916562242 0.3387422964 0.3388781664 0.33456410122 0.33450231314 0.3331842122 0.33012151733 
0.33428375299 0.32926551048 0.33499870797 0.33500298874 0.33575634309 0.33484850407 0.33550994285 0.3369492789 0.33630602362 
0.33525005416 0.33171453355 0.3338964544 0.33346286541 0.33437353825 0.3315349052 0.33452051608 0.33841255321 0.33865466757 
0.34087146376 0.33314528006 0.33593834602 0.33659458333 0.34005021044 0.33902300201 0.3365919077 0.32949595851 0.32867158125 
0.3285710253 0.33329521326 0.3278312767 0.32767488381 0.33193949998 0.32687790564 0.3360737811 0.34554519315 0.34587944535 
0.34641516072 0.33757337486 0.33155236876 0.33286719851 0.34211375885 0.34260887155 0.34385021468 0.33039435462 0.33435743436 
0.33484712946 0.33448021251 0.33491041357 0.3358423226 0.33587482634 0.33616787565 0.33510565919 0.33379737025 0.33480228867 
0.33205619593 0.33567264176 0.33626035312 0.33691515419 0.33690977851 0.33235436964 0.33471313901 0.33607032623 0.33694316287 
0.33344922735 0.33817666334 0.33880058707 0.33380487968 0.33662745095 0.3355356563 0.33634827559 0.33678318852 0.33647274805 
0.33698507288 0.33870118675 0.33880393513 0.3386944567 0.33849533712 0.33908401207 0.33802416357 0.33766415842 0.33842720092 
0.33676089749 0.33627511538 0.33874225379 0.33841632432 0.33807578489 0.33506859674 0.33605520759 0.33396423226 0.33945100669 
0.33899968113 0.33899313293 0.33720876411 0.33898848591 0.33956157889 0.33850830889 0.34014117779 0.33998050915 0.34106201997 
0.33925064074 0.33738561315 0.3429911319 0.34184809074 0.33755617026 0.33800259559 0.3366515719 0.33822053141 0.33937473092 
0.34056585151 0.33723030425 0.33660129363 0.33693652234 0.33783970373 0.34480215232 0.34522917477 0.34463745002 0.3358909803 
0.33594875392 0.33848489932 0.33899413918 0.33829496395 0.34053841927 0.3411915147 0.33873717853 0.33784630881 0.33918063215 
0.33933731466 0.3428518013 0.33748593538 0.3361040395 0.337159188 0.33766629007 0.34563774407 0.33575986747 0.33529302932 
0.34208228483 0.3397801186 0.33626112918 0.33672295611 0.3367640666 0.33603184708 0.33479901886 0.34033883571 0.34449016599 
0.33297387719 0.33709538529 0.33796916074 0.33563717332 0.33738288171 0.33722954535 0.33865180437 0.3375156535 0.3388324814 
0.33823286418 0.34254691358 0.3394716663 0.34270003578 0.34387677821 0.34467966774 0.34277117088 0.34159103816 0.33775066091 
0.50364603833 0.34590522057 0.3394580078 0.33930662267 0.33995968596 0.34210499475 0.33845069336 0.54570159694 0.33921994286 
0.33667303319 0.33963839275 0.3395730999 0.33949582521 0.33784423789 0.33738954548 0.34596570931 0.34600967965 0.33932438642 
0.33835010341 0.33866752434 0.33903950588 0.34567411818 0.43477178571 0.40595001343 0.33740950826 0.344634082 0.34469403706 
0.34359542759 0.33867770106 0.34511877499 0.33915990441 0.46215609036 0.40279251117 0.33333108438 0.33333333722 0.33330919535 
0.3335159798 0.3334223712 0.33338764774 0.33379860278 0.33365194535 0.33358587604 0.33417444505 0.33397300989 0.33388878667 
0.33460432542 0.33437853829 0.33426101346 0.33507057773 0.33481170541 0.3346660902 0.33553186673 0.33528735809 0.33508258675 
0.33595873845 0.33572945762 0.33548966138 0.33639933978 0.33616136847 0.33587849188 0.33674484749 0.33656564096 0.33624269429 
0.33698824963 0.33686651373 0.33652871741 0.33715486258 0.33708461667 0.3367420432 0.33722401961 0.33720152833 0.33687389375 
0.33718606793 0.33721833397 0.336906851 0.33705559737 0.33713880941 0.33685347401 0.33683628778 0.33696881492 0.33671754406 
0.33653644652 0.33671130397 0.3365050709 0.33617328967 0.33638138284 0.33622032043 0.33573783616 0.33598293754 0.33587957854 
0.33529221579 0.33553691914 0.33549047847 0.33483486521 0.33508817854 0.33509688943 0.33439631346 0.33462480307 0.33468357327 
0.33400069002 0.33421321224 0.33429115051 0.3336710407 0.33383149371 0.33393868255 0.33343927803 0.33354509836 0.33363753385 
0.33332588802 0.33335500557 0.33342210204 0.33332377625 0.33330885236 0.33331564008 0.33335981426 0.42524710414 0.38910919359 
0.46040451209 0.3458198751 0.36289630872 0.38879737687 0.32323161902 0.33190301558 0.35125947423 0.3103979394 0.31500247275 
0.33082248561 0.30281795966 0.30518179388 0.31787612121 0.29845139675 0.29974586957 0.30985636269 0.29645466767 0.29682690151 
0.30527070662 0.29556277893 0.29549643761 0.30270985688 0.29575317524 0.29536076383 0.30156468029 0.29617826904 0.29560450374 
0.30124139038 0.29715494866 0.2964069008 0.30123128097 0.29866604417 0.297785263 0.30205023162 0.30048414131 0.29943375662 
0.30340762056 0.30272354497 0.30141220932 0.30500007348 0.30555529572 0.30386276945 0.30694374872 0.30920836513 0.30699855194 
0.30936059798 0.31368862973 0.31097683448 0.31240946914 0.31963133721 0.31597152412 0.31629884623 0.32654072669 0.32224559526 
0.32107653273 0.33415395956 0.32974347981 0.32691064363 0.34052150805 0.33692009815 0.33295461093 0.34434706979 0.34247449795 
0.33781269332 0.34498582114 0.34510204657 0.34059662076 0.34234251883 0.34425929424 0.34061087135 0.33767577182 0.34076219435 
0.33815167144 0.33225395844 0.33562505164 0.33431313743 0.3276979555 0.33031027957 0.33017364224 0.32434535973 0.32622803088 
0.32676499012 0.32215056416 0.32339412589 0.32440951903 0.32114553959 0.3216097235 0.32301248571 0.3209544901 0.32096837488 
0.32239774747 0.32137829884 0.32106140711 0.32240011679 0.32221570829 0.32172181588 0.32288408428 0.32336709683 0.322678735 
0.32371416883 0.32459376671 0.32389428307 0.32470609147 0.32600332956 0.32518814759 0.32581620133 0.32740277785 0.32659487433 
0.32697802306 0.32864193919 0.32796278421 0.32812136826 0.32986794456 0.32921748333 0.32924289288 0.33092394057 0.33034871107 
0.33028201529 0.3318092218 0.33134914751 0.33118006738 0.33252029379 0.33216518081 0.33194716212 0.33303966864 0.3327891061 
0.33256062253 0.39905054549 0.33318893946 0.33328989635 0.33324251768 0.3327701057 0.33301476337 0.33298152922 0.33211715544 
0.33248363106 0.33249321748 0.33127398206 0.33174739828 0.33183251153 0.3302363262 0.33084937782 0.33103160862 0.32907638758 
0.32971026381 0.33008171659 0.3278866065 0.32853847926 0.32902042258 0.32659187716 0.32734147738 0.32794326614 0.32522799742 
0.32599254257 0.32679992654 0.32397945658 0.32466003 0.32563120819 0.32269149184 0.32343398701 0.3245345401 0.32167405988 
0.32220505691 0.32352032996 0.320986119 0.32132688481 0.32268379757 0.32078011764 0.32082340511 0.32218857454 0.32125590071 
0.3208843136 0.32210090319 0.32266197622 0.32179756316 0.32271089561 0.32529518403 0.32361084446 0.32412610222 0.32950477313 
0.32683029482 0.32644830456 0.33451508593 0.33143112198 0.32992350665 0.34007094942 0.33674660406 0.33413388412 0.34451520162 
0.34195384087 0.33838700896 0.34580623061 0.34520097145 0.34101388132 0.34346201997 0.34517171947 0.34140050067 0.3383187472 
0.34155308228 0.33881939271 0.33074819028 0.33537461483 0.33394515827 0.32334216352 0.32767709876 0.32786186811 0.31661557198 
0.32032858599 0.32163903759 0.31095514277 0.31407522132 0.31609316801 0.30639669024 0.3088813516 0.31157563929 0.30316066453 
0.30482248233 0.30819195023 0.30055409172 0.30197937965 0.30553562889 0.2983679994 0.29952589086 0.30344106545 0.29700367882 
0.29781389531 0.30192579276 0.2958539092 0.29655919464 0.30099716259 0.29492660571 0.29550127845 0.30023861249 0.29473456127 
0.29497990218 0.30003981621 0.29513970796 0.29513937957 0.30071534415 0.29635564369 0.29596282965 0.30218126851 0.29918771561 
0.29804087039 0.30470497418 0.30361460605 0.30132903461 0.30872551153 0.31268216908 0.30793536276 0.31542571037 0.32862488282 
0.32044819524 0.32758633533 0.35836290666 0.34310959653 0.3491710625 0.42537184399 0.38896425828 0.39128426131 0.45538086487 
0.33041104229 0.36174154227 0.30456766539 0.31593506821 0.35195774065 0.2865956176 0.29296360535 0.32567839133 0.26326997598 
0.2787463031 0.3076453796 0.2612156375 0.27138775318 0.30580202196 0.25319065978 0.26052084616 0.30766733852 0.24977195107 
0.25545795076 0.3039735175 0.24775116972 0.25291112919 0.30089688061 0.24707965096 0.25099625769 0.29879450102 0.24629256719 
0.24944266695 0.29680078931 0.24507425159 0.24811185937 0.2955125766 0.24396621879 0.24530880202 0.29436811232 0.24422844865 
0.24522095193 0.29222068716 0.24404345447 0.24433062824 0.2916483325 0.24493408704 0.24493877177 0.29074953031 0.24585009108 
0.24487432029 0.2916876103 0.24837385426 0.24631264128 0.29267128249 0.25080297859 0.2476984782 0.29498230016 0.25403811765 
0.24923127271 0.29693986673 0.25658717756 0.25121474296 0.29853084901 0.26183593034 0.25529429577 0.30161815359 0.26850281669 
0.26032717264 0.30833608955 0.27760407987 0.2678048923 0.31706413807 0.29226957695 0.27796342697 0.32981189069 0.31399477195 
0.29427401231 0.34544382551 0.34969198782 0.31879058687 0.3723191386 0.43794077549 0.36455133531 0.32170729678 0.31027241378 
0.29435106219 0.35395021717 0.29110975162 0.28609069179 0.33905531006 0.28583452474 0.28374332126 0.32983542055 0.28402404446 
0.28394171222 0.32583216876 0.2829407286 0.28202386727 0.32315051458 0.28288625021 0.28391427759 0.32269854929 0.28332600815 
0.28315771795 0.32266602387 0.28381123829 0.28492929659 0.32097035499 0.28422248958 0.28561343431 0.32245565525 0.28607834726 
0.28822223949 0.32505408222 0.28912677086 0.29587385327 0.33062585244 0.29154131737 0.31534530326 0.33089929458 0.33698758722 
0.35945866582 0.34655836692 0.34088694138 0.32469043931 0.3563474581 0.32304867377 0.31349282971 0.30178898489 0.39533102082 
0.29515882907 0.29590754953 0.37467502453 0.28890847012 0.28582931147 0.36164976196 0.28438036031 0.28409644809 0.33072795269 
0.28447275995 0.28611831236 0.32792890808 0.28444232016 0.28370175655 0.32545829806 0.28335204903 0.28403586257 0.32246874115 
0.28605121003 0.28558276332 0.32223889215 0.28573739185 0.28636364367 0.32431362658 0.28790362973 0.28917246117 0.32605985118 
0.28967598003 0.29363559525 0.33014999222 0.29932895309 0.30816367666 0.33916776762 0.32087619213 0.36192163421 0.3649818678 
0.3475121478 0.34402587206 0.33333349091 0.35147918808 0.29815827219 0.32850775434 0.33330128025 0.33321176721 0.33301227352 
0.40328652598 0.37848161582 0.30633003492 0.32557072656 0.31765829845 0.31140093703 0.33175875299 0.33353762338 0.32372929182 
0.31512408971 0.33942613868 0.3332280491 0.33354017606 0.33340202502 0.3333127071 0.3332471703 0.33315282359 0.33324706874 
0.33428892287 0.33408548901 0.33468809384 0.33447860806 0.33430661265 0.33509225917 0.33487145063 0.33470212476 0.33548234119 
0.33528546192 0.33508919952 0.33585613993 0.33565505157 0.33546951955 0.33618053246 0.33601437315 0.33580850306 0.33642018351 
0.33630171258 0.33609794484 0.33659457256 0.33650633403 0.33631605764 0.33669388135 0.3366527237 0.33646272876 0.33671253433 
0.33672022684 0.33654283652 0.3366432109 0.33669140502 0.33654290679 0.33649327989 0.33658331923 0.33645574563 0.336277181 
0.33640168871 0.33629641277 0.3359919057 0.3361507127 0.33607167128 0.33565360675 0.33584345517 0.33578988644 0.33528115353 
0.33547986262 0.33546682339 0.33488827009 0.33509507392 0.33509502839 0.33447751474 0.33469430376 0.33470181953 0.33411743717 
0.33430335076 0.33431561331 0.33375862797 0.33393632862 0.33393442854 0.33347995472 0.33361381383 0.33359744026 0.33329273035 
0.33337785335 0.33333240242 0.33320007613 0.34144667933 0.33281676311 0.33301485529 0.35031527944 0.34578914682 0.3486512313 
0.36148766433 0.34656971744 0.3672688732 0.39049281536 0.36586743995 0.36138136938 0.32230779383 0.32743471395 0.33459574602 
0.31515588594 0.31815580974 0.32559247864 0.31097712913 0.31259786515 0.31943993884 0.30854371527 0.30948419787 0.31572849687 
0.30756294873 0.30777121426 0.31379686961 0.30675713439 0.3069734345 0.31256008656 0.30627142087 0.30608596117 0.31142549235 
0.30675030214 0.30613809315 0.31057322537 0.30783840113 0.30712035475 0.31094057606 0.30912397603 0.30824539322 0.31171252915 
0.31066972777 0.30959745657 0.31255837867 0.31258112905 0.31125405536 0.31356211992 0.31491133128 0.31326475931 0.31472818618 
0.31800084469 0.31585476629 0.31624472942 0.3220612231 0.31944045956 0.31863894299 0.32727314579 0.32403411648 0.32215802906 
0.33238443121 0.32961943973 0.32695311109 0.33683410312 0.33480950789 0.33211373459 0.33889793331 0.33811156489 0.33600272398 
0.33784977075 0.33870100953 0.33743460291 0.33472732886 0.33646776289 0.33536364245 0.33082911835 0.3330642894 0.33172183483 
0.32729502764 0.32928239296 0.32788605716 0.32498415873 0.32635755448 0.3251618481 0.32379177289 0.32467707839 0.32401936569 
0.32321779287 0.32368696138 0.32364232691 0.32316925425 0.32328061265 0.32368497141 0.32352527564 0.32337522099 0.32403449529 
0.32423328495 0.3238668151 0.32465635279 0.32508878368 0.32462668404 0.32546080738 0.32602863492 0.32551017562 0.3263307589 
0.32702045909 0.32644377474 0.32718240494 0.32801265586 0.32743702207 0.3280270809 0.32897687323 0.32842738357 0.32887749988 
0.32995090406 0.3294054551 0.32972856313 0.33079648425 0.33033529885 0.33051929379 0.331576278 0.33116104531 0.33124804173 
0.33225261084 0.33189686551 0.33192936144 0.33278498198 0.33251126713 0.33251666373 0.30316181171 0.33103524915 0.30675547158 
0.33231127925 0.332973521 0.33231448645 0.33261182736 0.3326907536 0.33167598466 0.33205316088 0.33221853824 0.33091172631 
0.33134638274 0.3316146276 0.33001921723 0.33054844998 0.33090423997 0.32907513104 0.32961256489 0.33011815163 0.32812648192 
0.3286765142 0.32929455278 0.32710717043 0.32770605082 0.32844919899 0.32610637573 0.32666003036 0.32756581215 0.32515713243 
0.32568335023 0.32668628396 0.32427005406 0.3247436527 0.325831728 0.32356586487 0.32391254029 0.32503380398 0.32310823833 
0.32326770717 0.32432370847 0.32302685351 0.32295670667 0.32378193295 0.32348814189 0.3230736771 0.32359797903 0.32463377411 
0.32382756682 0.32377137765 0.32676943583 0.32533970734 0.32463086063 0.32980745752 0.32792819909 0.32642191348 0.33368729335 
0.33141092494 0.32925424743 0.33734929453 0.3352873967 0.33284558791 0.33933866546 0.33846902783 0.33598803193 0.33895382922 
0.33952172335 0.33777351483 0.33565437558 0.33760621211 0.33678220512 0.33028728545 0.33317713024 0.33253669793 0.3246600061 
0.3279222988 0.32753596779 0.31946225403 0.32253207653 0.3225938759 0.31527403175 0.31780377317 0.31849202615 0.31208341042 
0.31403506015 0.31550273869 0.30967520247 0.31113820123 0.31334963246 0.30783158929 0.30890727534 0.31167960612 0.3063447577 
0.30724079218 0.31046106263 0.30545748384 0.3059549985 0.30964237943 0.3048847463 0.30528707722 0.30910675136 0.30475337538 
0.30496581174 0.3090849469 0.30528012814 0.30515713363 0.30964929743 0.3066519796 0.3060342334 0.31080684585 0.30870305151 
0.30769490129 0.31249141719 0.31218983934 0.31051286292 0.31536180964 0.31691784366 0.31471378149 0.31949705523 0.32475131136 
0.32044349372 0.32487330275 0.33869231324 0.33106327721 0.3335511109 0.36155258121 0.34817229675 0.34761811197 0.39408998256 
0.37131526663 0.36454958248 0.36411610925 0.33119981385 0.30555944481 0.30773580582 0.3160386188 0.32612672353 0.33760571048 
0.33156534391 0.34930422595 0.2997670332 0.3038709152 0.31582466195 0.29657060977 0.29537313435 0.30638986702 0.29302284137 
0.29225996605 0.29967839032 0.28961970507 0.28877344483 0.29429400482 0.28703009761 0.28654997754 0.29096359166 0.28506697751 
0.28470244934 0.28873972569 0.28414802473 0.28336292357 0.28737010565 0.28269693733 0.28256438716 0.28597623023 0.28155137475 
0.28159903158 0.28522895323 0.28100280269 0.2809419655 0.28448847079 0.28122135066 0.28081283517 0.28451973484 0.28136389757 
0.28191359616 0.28481546843 0.28251374981 0.28323200797 0.28580511872 0.28442727487 0.28506009134 0.28719304317 0.28561010474 
0.28710129148 0.2889514314 0.28802584575 0.28938840043 0.29128213272 0.29222982172 0.29266132195 0.29470538626 0.29834273475 
0.29860928688 0.29951643673 0.30723807513 0.30765003707 0.30751316844 0.31948686378 0.31898215886 0.31852788864 0.33725641801 
0.33430393803 0.33290603019 0.35414018819 0.31139459296 0.34729748994 0.33929232528 0.32957682404 0.31843796729 0.35633928204 
0.33410137286 0.32919397111 0.33951791009 0.32422454961 0.32174734333 0.33251649729 0.31963772333 0.31924032107 0.32560376042 
0.31609895554 0.31649354982 0.321535832 0.31446032231 0.31582155192 0.31925272519 0.31475539028 0.31508583997 0.31783291776 
0.31469631758 0.31497229644 0.31777165149 0.31535205737 0.31650309958 0.31867914019 0.31793365346 0.31912628057 0.32105383374 
0.32233988507 0.32530673628 0.32495727735 0.32770726473 0.33652426798 0.33182858167 0.3406966857 0.34381772136 0.3281632266 
0.33912221962 0.32919900933 0.30611041631 0.32524925262 0.35663495215 0.33954674642 0.33388869318 0.34263598428 0.32824644084 
0.32734580852 0.3369025401 0.32550689862 0.32374347142 0.32985690918 0.32028919467 0.3190041224 0.32636433638 0.31766329592 
0.31731072809 0.32421997614 0.31766105544 0.31687432397 0.32239501112 0.31769985928 0.31717921375 0.32172521299 0.31911262351 
0.31893990564 0.32236232542 0.32180567948 0.32192564327 0.3247289575 0.32618845039 0.32660428537 0.3284239826 0.33336482453 
0.33785178944 0.33534516694 0.34558289378 0.35053449105 0.34190876586 0.36919490319 0.33858310834 0.33389120263 0.33371266737 
0.33350905486 0.3338940133 0.33323811363 0.33305847038 0.33317493109 0.32793330694 0.30136852419 0.31123932205 0.32522814684 
0.33297099217 0.30735470685 0.31435004345 0.34606207015 0.31572888447 0.32239975647 0.31925420659 0.34252647554 0.35793073664 
0.31101167885 0.29831441452 0.31927322937 0.36041897335 0.35580754375 0.35489539999 0.3396425188 0.34207292088 0.31263820338 
0.30751690787 0.31538261895 0.33002278911 0.31501212082 0.33510179885 0.33488948543 0.33426447767 0.33404915961 0.33548792203 
0.33530157404 0.33512012689 0.33584221324 0.33566953908 0.3355279463 0.33611297014 0.33597986999 0.33586181433 0.33631497735 
0.33622175986 0.33612850274 0.33644859378 0.3363902353 0.33633067869 0.33650791357 0.33648646818 0.33644668418 0.33648286852 
0.33650812283 0.33648318106 0.33637652831 0.33644332412 0.33643614103 0.3361965681 0.33629646762 0.33630677437 0.33595167435 
0.33608675665 0.33610150599 0.33565358982 0.33581267101 0.3358347925 0.33529377245 0.33548059197 0.33550726716 0.33489778853 
0.33510037503 0.33512830942 0.33448933738 0.33470084333 0.33471341997 0.33407292845 0.33427441654 0.33427611226 0.33367252669 
0.33386868237 0.33383005075 0.33332589489 0.33349020014 0.33341287388 0.33309424568 0.33320502951 0.33308784053 0.33292152106 
0.31508859208 0.31242649498 0.32462613062 0.31488306094 0.32689071088 0.3305713797 0.33312209003 0.32221649747 0.32070415347 
0.33333246099 0.33834572656 0.33279956258 0.34745901529 0.32163139487 0.33290980634 0.3197832717 0.32100500961 0.31821589674 
0.318870254 0.32321525831 0.31705867758 0.31751128098 0.32203389687 0.31552138996 0.31620580055 0.32066511013 0.31417080465 
0.31425644849 0.31872156444 0.31509848027 0.31471051447 0.31811154526 0.31553032534 0.31516008555 0.31871540993 0.31583036036 
0.31542072471 0.31863378393 0.3161353172 0.31564004895 0.31828034201 0.31651982756 0.31595521606 0.31782635118 0.31720743817 
0.31639053944 0.31735317413 0.31872821194 0.31737609691 0.31714290714 0.3222723869 0.32006033609 0.31834287474 0.32638338957 
0.32372048144 0.32142414584 0.3376782282 0.33607536785 0.33324321668 0.33538119592 0.3244324894 0.32634292628 0.32262946439 
0.32355250586 0.3216458386 0.3226776105 0.32289958973 0.32115907874 0.32324742413 0.32323819621 0.32218009542 0.32393301781 
0.32377482536 0.32340967631 0.32476633122 0.32448591027 0.32452204022 0.32570619101 0.32530551521 0.32569598493 0.32662431395 
0.32617278649 0.32678486046 0.32749372048 0.32705019367 0.32772996903 0.32827081456 0.3278482164 0.3285382571 0.32903240595 
0.32861046119 0.32925191291 0.32977460637 0.32935680583 0.32992337401 0.33049631091 0.33007941036 0.33055081773 0.3311396286 
0.33077701945 0.33113176593 0.33176157075 0.33140743494 0.33167521291 0.33236011014 0.33203464154 0.33221459283 0.33291113985 
0.33265179503 0.33278122151 0.34003211855 0.34772096855 0.31087072204 0.31372977716 0.32013816526 0.33166578585 0.33201206697 
0.33305395589 0.33101805108 0.33139690965 0.33180542182 0.33030710697 0.33072830663 0.33123389402 0.32960257018 0.33002207408 
0.33063521401 0.32886545242 0.32929526972 0.33001891331 0.32807972877 0.32852879724 0.32936642669 0.32726729775 0.3276982446 
0.32864258435 0.32646078735 0.32688867252 0.32786285771 0.3256578492 0.32604289511 0.32703999429 0.324871523 0.32522174647 
0.3261482254 0.32421662164 0.32443138723 0.32521717856 0.32373954031 0.32377271352 0.32426982689 0.32352326121 0.32331564165 
0.32331945775 0.32389937665 0.32333537959 0.32265096306 0.32555641018 0.32444288405 0.32279738611 0.32844658122 0.32667693425 
0.32443289052 0.33220020466 0.33021982114 0.32757076877 0.33548581473 0.33374058229 0.33152338636 0.33797238449 0.3374676139 
0.33604768287 0.3355611889 0.337200014 0.33799496167 0.3299665302 0.33291430994 0.33374700812 0.32399358047 0.32677244535 
0.32698875008 0.32025673641 0.32260014842 0.32162156245 0.31729563544 0.31896911098 0.31887099436 0.31553050752 0.31671884878 
0.31708762627 0.31442754414 0.31527726244 0.31646258486 0.31365579907 0.31439326342 0.31623577448 0.31317629813 0.3136743183 
0.31622623344 0.31287155865 0.31314625583 0.31620605476 0.31279653569 0.31286620133 0.31623284854 0.31306547768 0.31297720164 
0.31648795556 0.31418761621 0.3137264588 0.31733481901 0.31571226484 0.31503009895 0.31865945626 0.31788425517 0.31672521605 
0.32030497658 0.3211155895 0.31913129458 0.32255652105 0.32503926841 0.32275319329 0.32558965038 0.33022802489 0.32742925931 
0.32955981136 0.33859444085 0.33346557547 0.33452658113 0.35008075937 0.34213317755 0.34047764943 0.35041790825 0.31081587835 
0.31550453218 0.31720315166 0.32259482849 0.30892124732 0.3125805566 0.32009186406 0.31526515645 0.31048934862 0.31677886517 
0.32954358254 0.32356861477 0.3330475568 0.3201941425 0.33468872605 0.33447954554 0.33424797236 0.33469609986 0.30281667434 
0.30564128903 0.31216720283 0.29822311338 0.30042541849 0.30635080734 0.2950582004 0.29643289511 0.30204605183 0.29290831504 
0.29398349676 0.29908787355 0.29160480416 0.29224316297 0.29716201137 0.2903645257 0.29108554863 0.29576545712 0.28951432071 
0.29003739216 0.29473291134 0.2888427446 0.28919360187 0.29389562453 0.28893199008 0.28878231643 0.29338425471 0.28940742291 
0.28918916307 0.29351930685 0.29063814569 0.28992082367 0.29428225763 0.29241884233 0.2914532507 0.29565944909 0.29406612461 
0.29325921629 0.29740181661 0.29665275254 0.29524473401 0.2994622444 0.30031612087 0.29826486659 0.30229702521 0.30535919245 
0.30229152177 0.30604105001 0.31427278896 0.3091276042 0.31199395311 0.32605920734 0.32007560746 0.32142596438 0.34048652396 
0.33206049291 0.33327164009 0.34632449835 0.3223728638 0.3246395829 0.32826651012 0.33512428502 0.33213116182 0.32995516928 
0.32760377642 0.33307304022 0.32587079212 0.32425860455 0.32990521675 0.32315890695 0.32224161738 0.32724926835 0.32151959994 
0.32119536727 0.32538902158 0.32131731878 0.32154508946 0.32464325386 0.32218998996 0.32289332646 0.32544071945 0.32397111255 
0.32529956642 0.32702498976 0.3270175543 0.32932661511 0.32948118666 0.33174640141 0.33500754146 0.33283529903 0.33223822739 
0.33251222971 0.33231598925 0.33795352251 0.33607386983 0.33464076703 0.33258399122 0.33729959616 0.33103565312 0.32942303119 
0.33491399755 0.32814172172 0.32721324453 0.33238608094 0.32665546395 0.32596018413 0.3305775068 0.32609646901 0.32630749864 
0.33037708521 0.3267658822 0.32742592052 0.33102123835 0.32832046033 0.32986509953 0.33234434076 0.33124828538 0.33328109258 
0.33445659538 0.33500119838 0.33807124688 0.33705385383 0.33841401825 0.33904880781 0.33172351497 0.33799040856 0.34039131528 
0.33726304897 0.3364456332 0.3352083865 0.33761840189 0.3383259902 0.33674939686 0.33019319986 0.33319826816 0.34448155773 
0.33271218017 0.33382631022 0.33387582566 0.33365958831 0.33727407956 0.33271298209 0.32740972003 0.31662934709 0.31163469187 
0.31456571353 0.31201234893 0.32511758798 0.33413939719 0.33257310213 0.32980756653 0.32706013756 0.33723944562 0.33762383295 
0.32872627351 0.3310227153 0.33280736498 0.33920063701 0.34147800547 0.33061515472 0.33275406517 0.31424071321 0.31124536481 
0.3141346396 0.32292565003 0.31971335932 0.33182178446 0.33114505415 0.33851072521 0.32341315366 0.31497196923 0.33921016188 
0.31677114417 0.33339463653 0.31856708549 0.33491366472 0.32568139916 0.3349277776 0.33611514496 0.33674075069 0.31275161321 
0.31372465536 0.31564358966 0.32826482257 0.33895841033 0.32506503949 0.33888233377 0.32963766928 0.33516742219 0.33494040577 
0.3362430854 0.3361153843 0.33644424028 0.33635691527 0.33637499334 0.33654988129 0.33650914986 0.33656808067 0.33656719373 
0.33657160486 0.33665878628 0.33649237161 0.33654083907 0.33664816434 0.33632912554 0.33642167833 0.33654198257 0.33609028872 
0.33621673979 0.33634359852 0.3357809392 0.3359427479 0.33606005586 0.33539768299 0.33559087474 0.33569514549 0.33495532489 
0.33517548363 0.33525464154 0.33448702676 0.33471318014 0.33476651546 0.33399094542 0.3342360465 0.33423981383 0.33348486176 
0.33372424555 0.33368684652 0.33304475855 0.33324876359 0.33314810755 0.33288379167 0.31902557364 0.32165136997 0.33333955549 
0.32828869099 0.33031792715 0.32420443947 0.31860015593 0.32672602976 0.32774183457 0.32912888699 0.3308243608 0.33301464608 
0.32987833413 0.34596416591 0.33643277299 0.3254383691 0.32584402492 0.32584725851 0.32635780126 0.32824815741 0.32851647881 
0.32175638499 0.32316273319 0.32234801368 0.46443820318 0.41146307683 0.32213276107 0.3220743438 0.32553448066 0.32161812773 
0.32177308884 0.32499929358 0.3206711515 0.32095845313 0.32401329786 0.31950423545 0.31985848597 0.32250668172 0.31826776969 
0.31870714558 0.32082521802 0.31687586682 0.31708746894 0.31846312251 0.33632023961 0.33438167497 0.33895784801 0.33565105246 
0.33009970263 0.33671925097 0.31776767664 0.31872135563 0.32359484866 0.32296684885 0.32521359334 0.32458302659 0.32432722822 
0.32670847334 0.32609080206 0.32625155855 0.32789109797 0.32736309604 0.32783527742 0.32887446029 0.32841443899 0.32904433642 
0.32962382907 0.32924739414 0.32994697515 0.33026481328 0.32991470514 0.33062005673 0.33083845165 0.3305111031 0.33116712325 
0.33135742115 0.33105716502 0.33163781986 0.33182505653 0.3315492129 0.33204865135 0.33227549672 0.33201544529 0.33243107043 
0.33273639426 0.33246365496 0.33280012637 0.333189996 0.33290026078 0.33347848132 0.34146414785 0.32965234721 0.31978617056 
0.31936286608 0.31648899764 0.32511223613 0.31679381637 0.32222547065 0.33153379865 0.33183937485 0.33102415459 0.33133931063 
0.33192726748 0.33050605587 0.33082392071 0.33150505148 0.32991986175 0.33026217635 0.3310521257 0.32925061456 0.3296336758 
0.33051556663 0.32851046015 0.32890387373 0.32988633564 0.32763501858 0.32808335413 0.32910880619 0.32663208704 0.32711670457 
0.32814706941 0.32548923902 0.32599248276 0.32695701059 0.32423923021 0.32476328032 0.32552621043 0.32282581702 0.32333562713 
0.32389058151 0.32141983865 0.32170173167 0.32169217516 0.32126761702 0.32078098774 0.31977135788 0.33979155857 0.33778864123 
0.33928156784 0.32124750859 0.32494836461 0.31730898166 0.31867077452 0.31689714727 0.31731692858 0.31690047072 0.31732958155 
0.31741432797 0.31768120931 0.31814225687 0.318108001 0.31914761223 0.31881417125 0.31877443367 0.32063668532 0.31912455553 
0.31911859982 0.321624711 0.31950208396 0.31946185836 0.32217534278 0.3201123667 0.31994227051 0.32291236306 0.32123038624 
0.32059769385 0.32370778676 0.32272592661 0.32202708873 0.32485788226 0.32427823306 0.32338000055 0.32607644571 0.32620428934 
0.32484874805 0.32709690236 0.32866656418 0.32694363662 0.32836742704 0.33187550125 0.32957306421 0.32992423282 0.33345362453 
0.31592678086 0.31586950042 0.3160614435 0.31715534334 0.31810708791 0.32151423508 0.32557018455 0.31442276367 0.31776193447 
0.3236134626 0.33832610906 0.33801310712 0.30313382472 0.30426593247 0.30154463337 0.3023172116 0.30768473324 0.30027747658 
0.30086814008 0.30621375174 0.29938498697 0.29982463992 0.30502316402 0.29866779746 0.29908081965 0.30417006781 0.29831411689 
0.29845369426 0.30366374884 0.2982996264 0.29807865382 0.30317899011 0.29917403344 0.29866062562 0.30330005051 0.30092802856 
0.30006127484 0.30457616684 0.30280375357 0.30190998618 0.30647498534 0.30521672732 0.30401103252 0.30860121861 0.30799255512 
0.30633765125 0.31087310477 0.31139472574 0.30939589654 0.31334950557 0.3166667293 0.31289347426 0.31616167276 0.33182542222 
0.32979219308 0.33442533431 0.33472761864 0.33464498048 0.33344786215 0.3345891459 0.33596361929 0.33579863122 0.33607910735 
0.32782505928 0.33182744992 0.33166715759 0.33266709787 0.33137429946 0.33439417488 0.3305610389 0.32956026768 0.33328935395 
0.32887888544 0.32817904678 0.33209739829 0.32737020469 0.32746476925 0.33071244785 0.32813957923 0.32874854576 0.33061541201 
0.32940454239 0.33028665509 0.33185800406 0.33099849659 0.33220598298 0.33290805101 0.33313411485 0.33450278903 0.33408763694 
0.33248275256 0.33272236263 0.33560414554 0.33539890161 0.33525196964 0.33571088289 0.30560886325 0.30738162167 0.30975060331 
0.33793450674 0.33691607628 0.33949312315 0.33615561059 0.33511114537 0.33907891499 0.33390297303 0.33343033712 0.33744132056 
0.33398402157 0.33421587441 0.33699996347 0.33449146347 0.33496218908 0.33783804041 0.33529265811 0.33591424671 0.33836412811 
0.33631970868 0.33732158863 0.33888740769 0.33772093259 0.33845963817 0.33908443262 0.32425187324 0.32500446273 0.32835399561 
0.32697449116 0.33202594058 0.33230840079 0.3326985992 0.32194999154 0.32124615626 0.32228389849 0.31900438143 0.3242734387 
0.32164902435 0.30918539397 0.31158289543 0.31713839602 0.32263142566 0.32927842357 0.33367657428 0.32934416551 0.32642259957 
0.33397119827 0.31757608137 0.31878170792 0.31949303644 0.33567531531 0.32341034753 0.33393824568 0.33360673661 0.33418600869 
0.31929524368 0.3156311419 0.33076359284 0.31625589057 0.34094679423 0.3241867201 0.3287036599 0.33314838381 0.31993500028 
0.33009189651 0.31571335541 0.3323242868 0.3182502519 0.31720648826 0.31960267689 0.31785993232 0.32345095318 0.32217358317 
0.32686413818 0.3247951509 0.31274812096 0.31540425732 0.33219931116 0.33843979122 0.33787726785 0.33712527744 0.33471887234 
0.33467785812 0.33444430223 0.33719282003 0.33772460518 0.33571908937 0.32557088569 0.32018315985 0.32078766421 0.32716328367 
0.33443944766 0.33450552081 0.33420349805 0.31480188403 0.32767034852 0.33227624452 0.33242978731 0.32395741614 0.32248415284 
0.33024804793 0.33266246077 0.33659953133 0.33645738011 0.33681838563 0.33685434817 0.33666962119 0.33675233624 0.33696669717 
0.33643824124 0.33657030563 0.33678299291 0.33609691 0.33627186431 0.33649426812 0.33565185313 0.33587677417 0.33607797843 
0.33511820595 0.33537498403 0.33554135243 0.33452915064 0.33480848571 0.33491510332 0.33392813189 0.33421976205 0.33426021793 
0.33326861711 0.33357716449 0.33355784563 0.33296300687 0.32928794579 0.3286234723 0.32904301118 0.32580486025 0.32728275952 
0.32955644128 0.32772005693 0.32810682028 0.47908907298 0.41586500342 0.32643610924 0.3271238846 0.33012630243 0.32454020143 
0.32543887961 0.32857802892 0.32221886786 0.32322666959 0.3262705811 0.32185064374 0.31990864311 0.33687767755 0.33685491159 
0.33706562622 0.33680082111 0.33672534237 0.33703936756 0.3334356932 0.324985847 0.32397188747 0.33028973282 0.32974438351 
0.33110309891 0.33071830155 0.33147637409 0.33166993553 0.33136434996 0.33214661558 0.33211202044 0.33185512586 0.33259886691 
0.33246491001 0.33224302407 0.33292423777 0.33275092659 0.33255796683 0.33314971689 0.33305747455 0.33286590215 0.3333596732 
0.33334949766 0.33316579792 0.33358661973 0.33377651429 0.32110986447 0.31952847698 0.32052893831 0.31874584157 0.31797596323 
0.33165858712 0.33189786022 0.33203964443 0.33221356607 0.33261427492 0.31892418315 0.33235674683 0.33254977666 0.33284461267 
0.33118510492 0.33147158114 0.33230915192 0.33057306649 0.3309242924 0.33187903565 0.32980620414 0.33025302362 0.33129750793 
0.32875580083 0.32931179993 0.33047629203 0.3273849131 0.32806262357 0.32929341318 0.32573753836 0.32651546391 0.32775669062 
0.32357229342 0.32459366151 0.32573619023 0.32114321534 0.32241198117 0.3197845218 0.31580295162 0.31739954853 0.31674283954 
0.31637853058 0.31524443236 0.3180705679 0.32344350965 0.32271818711 0.32457718786 0.32422731608 0.32635468716 0.32482149412 
0.324536447 0.32714111036 0.32616849398 0.32577407749 0.32794961534 0.3266165314 0.32623195553 0.32883392218 0.32815811162 
0.32747754427 0.32968845978 0.32874232083 0.32831005588 0.33042385746 0.32909904013 0.32869803852 0.33029840682 0.32948476408 
0.32888758361 0.32971413784 0.32883143177 0.30952899026 0.30998622982 0.31087408811 0.31153953827 0.31550467724 0.31784981921 
0.32418654538 0.32130008962 0.32039364822 0.32096270037 0.32411636198 0.32910848624 0.32841715278 0.33044993397 0.31192734015 
0.31269609367 0.31672657234 0.30897926357 0.30928166387 0.31432630082 0.30895855335 0.30921161939 0.31425807259 0.30848685629 
0.30875498277 0.31432996088 0.30767739273 0.30733832919 0.31284192311 0.30969716941 0.30881026866 0.31289273938 0.31166557572 
0.31067771697 0.31498352314 0.31406469507 0.31289660323 0.31714580183 0.31601985502 0.31498585198 0.31915994875 0.31816890397 
0.31683987779 0.32073802346 0.32057833463 0.31924958825 0.32247464996 0.33438102583 0.33494343042 0.33307418708 0.33626984487 
0.33607970687 0.3364915113 0.32748346348 0.32655625014 0.32891590395 0.33533424372 0.33510670051 0.33534547851 0.31811432948 
0.32821276091 0.32856488333 0.33246882829 0.33003831271 0.33083658452 0.33508542187 0.33464340961 0.33610666574 0.3344054205 
0.33388096209 0.33620002876 0.33341018839 0.33270823651 0.33568447593 0.33335364742 0.48370688718 0.42047888348 0.33368231198 
0.33411635455 0.33552685874 0.33433866051 0.33468147368 0.33590605021 0.33472026616 0.3352096735 0.33587334779 0.33177442937 
0.32794434585 0.32555248556 0.33170589624 0.33266215527 0.33285864847 0.34027402353 0.34076261831 0.34129881414 0.34096839306 
0.34239686599 0.34055792686 0.33945093539 0.34270224665 0.34008318355 0.48855498196 0.42252971417 0.3402157266 0.34046723683 
0.34239248476 0.34068343015 0.34087353624 0.34272564629 0.3407145175 0.34067942133 0.34262380968 0.34017451446 0.34006853335 
0.34174934504 0.31336709697 0.31457763069 0.31925467644 0.31757179605 0.32326280016 0.32732698699 0.32859433233 0.32378729524 
0.32646014025 0.33683883825 0.33416921599 0.32365002343 0.32063962166 0.3221854172 0.32880538276 0.329150552 0.32801751663 
0.33539716212 0.33494566168 0.33450814982 0.32923705661 0.32930274518 0.32899002389 0.48666107431 0.42663508481 0.33121590849 
0.32476580592 0.32441826012 0.33437349734 0.31864269105 0.32117731231 0.32527732897 0.323418892 0.33305378674 0.32145473243 
0.3360338254 0.33584022989 0.33561496905 0.32850091842 0.33937126365 0.33832522164 0.34018591925 0.32800942261 0.33477378329 
0.3344691911 0.33705892394 0.33877126137 0.33991870775 0.33075567834 0.3309604124 0.33331530681 0.3303661256 0.3298575374 
0.33202562836 0.32367703375 0.32170922944 0.32611083964 0.33536531844 0.33509829592 0.33487573607 0.32279360523 0.32326112272 
0.51451279052 0.41609135891 0.3281160268 0.31989470827 0.33608884996 0.33635087845 0.33541267597 0.33574362421 0.33599180371 
0.33465445512 0.33501368926 0.33519864216 0.3338869813 0.33424265946 0.33431866365 0.33345508968 0.33657568798 0.33689527989 
0.33082959038 0.3318353632 0.33287003023 0.32984059849 0.33592474374 0.33412563725 0.3340796462 0.33269160188 0.33329718573 
0.33492588751 0.32501978693 0.32556883634 0.33738623214 0.33732300198 0.33325067174 0.33298587696 0.33718096918 0.33702228583 
0.3375261186 0.33277925492 0.33235156117 0.33389801418 0.33380562615 0.33366823047 0.33382208506 0.33372820947 0.33444291851 
0.33393745806 0.33381713048 0.3343615689 0.33261996319 0.33287260051 0.33189946429 0.33126012078 0.33325209534 0.33296777465 
0.33315233548 0.33368898785 0.32463574575 0.32569518118 0.32686964975 0.33331855322 0.33342201033 0.33210416708 0.33243064032 
0.3334303707 0.33125747071 0.33177577156 0.33293787645 0.33000935159 0.33071871146 0.33207839605 0.32817563322 0.32907139062 
0.33062372033 0.32681297895 0.32872800207 0.32716437781 0.33086995948 0.33423052376 0.3279451301 0.33360583745 0.33342455546 
0.33424073744 0.33735594193 0.33739322362 0.33769062302 0.33093685264 0.32998186131 0.32954057543 0.32871415676 0.33171814275 
0.33182840331 0.33372008734 0.33258018513 0.48340562813 0.41634410392 0.33233716556 0.33226210386 0.33425251858 0.33132883745 
0.33161613697 0.33312541054 0.32964223801 0.330203008 0.3310504924 0.31970920827 0.32059277544 0.31952613101 0.31928127218 
0.32464167344 0.32735020762 0.3281750051 0.32368564517 0.31820893922 0.31839808155 0.32348082437 0.32324697449 0.3217504014 
0.32200316846 0.32592855638 0.3184282635 0.31731860106 0.31943809731 0.31851835083 0.32287594535 0.32201462862 0.32088390338 
0.32423328789 0.32366994318 0.32292376671 0.32644969074 0.33230869196 0.33397501399 0.32809559536 0.32934641791 0.33266736387 
0.32836807802 0.33675750792 0.33651016095 0.33707871255 0.3366141607 0.33680857953 0.33664455026 0.33051363663 0.32954442228 
0.33209198207 0.33522930023 0.3359430064 0.33648831545 0.33455205001 0.33008532288 0.33238571421 0.47680708315 0.40833135692 
0.33729761269 0.33726651991 0.33777421287 0.33733334028 0.33697374311 0.33840975215 0.44671724879 0.44385994216 0.46855357788 
0.4493531869 0.33685684044 0.33708485468 0.33845076226 0.33697867222 0.33704263023 0.3381454296 0.33664205973 0.3362812133 
0.33749739072 0.33298224284 0.33092606904 0.33360174324 0.32954112376 0.34447898634 0.34421616566 0.4707268398 0.34387701376 
0.34404207865 0.3455380495 0.3441822444 0.3442749338 0.34532483788 0.34394994495 0.34353540911 0.34509550423 0.34248785132 
0.34163569679 0.34353960897 0.3262258144 0.33698787853 0.3371041431 0.33712386545 0.32818733545 0.32556503421 0.32478801325 
0.32876625037 0.33716679692 0.3372458352 0.33758079428 0.33640439124 0.33614680378 0.33588673593 0.33275242302 0.33401595082 
0.32130044731 0.33138747887 0.32908032181 0.32877855976 0.33601319248 0.32304518512 0.33578931572 0.33338907374 0.33344006523 
0.3373841373 0.33550045696 0.33447399196 0.32797508722 0.33033835981 0.33444714718 0.3369357238 0.32556145777 0.32065669328 
0.32117268706 0.33318355786 0.33331788366 0.33381416247 0.33385410494 0.32837881496 0.32643615372 0.3305853673 0.33050758264 
0.31986222239 0.32485679858 0.31963466038 0.32574191109 0.33529641541 0.33481721452 0.33741272993 0.33625167079 0.33142523106 
0.32539510262 0.33046046433 0.32718820646 0.3282471127 0.34083108565 0.33949387026 0.34130093316 0.33524302346 0.33462578075 
0.33735811083 0.33302161869 0.33203436293 0.33435715118 0.31852110301 0.32401457503 0.32476884543 0.3242236325 0.32763457955 
0.32796049124 0.34281781668 0.34371644866 0.34486235408 0.33522956948 0.33489136909 0.33481056504 0.33551362965 0.32199900818 
0.32300659356 0.32501086739 0.34246612129 0.32623348857 0.33583695503 0.3362462121 0.34455123173 0.34536727565 0.33176501147 
0.33348077871 0.33257082915 0.33804673433 0.3380565646 0.32920490822 0.33020294347 0.33506734755 0.33489700413 0.33482018496 
0.33482468388 0.33523760964 0.3350988227 0.33518503724 0.33549621605 0.33388251622 0.33418977872 0.33440175699 0.33449213653 
0.33426067844 0.33442795368 0.33518897346 0.33404204516 0.33694982406 0.33821668904 0.33228124963 0.3354451723 0.33594930692 
0.33376092243 0.33623112477 0.33456271582 0.33602740703 0.33863075283 0.33486340584 0.3344411885 0.33600903329 0.3382794946 
0.33710257808 0.32795081406 0.33333250047 0.33442214437 0.33564973486 0.32995947106 0.33140030163 0.33224303997 0.32772699523 
0.34151387951 0.34321397771 0.34347402155 0.330313711 0.32977054883 0.32888489058 0.32750352196 0.33279038032 0.3275185833 
0.33016990336 0.33208332737 0.33142063122 0.33511518343 0.3349576656 0.33589587882 0.33780836254 0.33794880233 0.3383170776 
0.33301137019 0.3335584199 0.3348469093 0.33670216655 0.33701266859 0.33659210762 0.33356114669 0.33281995464 0.33403057064 
0.33544938094 0.33539607348 0.33608059202 0.33604961887 0.33882055231 0.33901645153 0.4555858285 0.33909900882 0.33898116098 
0.33949114004 0.33877883278 0.33861485967 0.33937073481 0.3382603052 0.33769037925 0.33881451392 0.3348042958 0.33349354974 
0.33271690539 0.33584061562 0.34536292483 0.34585176088 0.33432261668 0.33443850819 0.33485343175 0.3457612879 0.3453731064 
0.34438837323 0.34309897561 0.34486498917 0.33532072958 0.33483443782 0.33751209292 0.33717403867 0.33044634692 0.33796236184 
0.33801740524 0.33796767299 0.33779126261 0.33790661196 0.33395770464 0.33103185369 0.3365707418 0.33928226178 0.33998060967 
0.33765464347 0.34005652278 0.33477700103 0.32726622198 0.33029995173 0.32987594238 0.33440699281 0.33518511184 0.3389407484 
0.33710774678 0.33795093635 0.33232774759 0.3296102531 0.34014666695 0.33767500779 0.33822582629 0.33877444995 0.33562926594 
0.33612701598 0.33535252646 0.33885103462 0.33015444381 0.34198111781 0.34294867682 0.34113647944 0.3330646652 0.33528320011 
0.33895216762 0.33754714886 0.34002298982 0.33525799268 0.33505917544 0.33692154785 0.33727072566 0.33606996866 0.3402793816 
0.34043332882 0.51222716181 0.33274515973 0.32824745195 0.33555528221 0.33389440341 0.33696428729 0.33661323448 0.33011750304 
0.32977460454 0.3377576732 0.32791296146 0.33217347708 0.32666496563 0.34611046764 0.34587252453 0.34620951733 0.34608342643 
0.3460989035 0.33735854163 0.33756327535 0.33743203872 0.33513426852 0.52757786021 0.73521335151 0.73615216402 0.33738246712 
0.33668745783 0.3294216494 0.33423270564 0.34122980631 0.32773291401 0.76324770239 0.75542659301 0.33292342173 0.34237362885 
0.34351443884 0.33832692734 0.33660040014 0.33675570165 0.33606670211 0.33610330156 0.3350367453 0.33563455506 0.33390617112 
0.33565279856 0.33705987034 0.33707349812 0.337644597 0.33624826173 0.3379992524 0.33950305654 0.3395981611 0.33592333518 
0.33588242129 0.33630761743 0.33672227557 0.33740184663 0.33821053052 0.66447187208 0.71160544241 0.33478716476 0.33544462726 
0.34202185149 0.32855565944 0.34415763658 0.34453767356 0.34249550689 0.33846897008 0.33813620259 0.33576847466 0.33605532856 
0.33690317782 0.33589873232 0.33631353706 0.33620081561 0.33539900935 0.33591918282 0.3427888865 0.34137037599 0.3387116719 
0.33862656314 0.33750830279 0.33911488063 0.34214601421 0.33932053691 0.33568489433 0.33825159055 0.33847442395 0.33806463428 
0.33752065611 0.33886278172 0.34432577033 0.34321920942 0.33713140974 0.33801996779 0.33864719745 0.33876090913 0.33904897107 
0.33682602916 0.33684335996 0.33903962848 0.338723634 0.33840541189 0.34080675055 0.34091391089 0.34483150714 0.34391156823 
0.3374348691 0.33784793479 0.33825312437 0.33719443938 0.34014781032 0.3389513637 0.3354686205 0.34131289537 0.33665037156 
0.68196488629 0.33577543458 0.33823787471 0.33623113846 0.3377211654 0.33840116038 0.33773785132 0.33670838948 0.33460412815 
0.34592754757 0.34570933676 0.34444502706 0.66790820354 0.59127394236 0.34040968323 0.33896470784 0.33897425512 0.34256377945 
0.33927660662 0.33890996108 0.3374099599 0.71230812498 0.74662476593 0.3395786776 0.33931010904 0.33953962057 0.34080403162 
0.33630377528 0.33906675202 0.33927496002 0.33937582861 0.33861544249 0.33809867799 0.74052687184 0.76590572548 0.33771276053 
0.34006921384 0.33929298207 0.34549085129 0.75629370996 0.77929981625 0.33919772276 0.76726532414 0.786596741 0.33554075415 
0.76934152675 0.74998919152 0.33337585811 0.60684456447 0.33343633883 0.33341924102 0.33331117222 0.333140908 0.3328849495 
0.33253532131 0.33215622385 0.33173231907 0.3312498314 0.33063400949 0.33000455277 0.32938446681 0.32873925021 0.32806249376 
0.32740003834 0.32665222716 0.32588740772 0.32508344822 0.32429654474 0.32360538106 0.32284531309 0.32215490008 0.32138717298 
0.32072176825 0.32022275474 0.31979896689 0.31931978826 0.31926498884 0.31956520537 0.32004528307 0.32074972282 0.32199752245 
0.3235308741 0.32537420657 0.32799675077 0.33092248643 0.33408311712 0.33753795839 0.34110801487 0.34423492639 0.34734333656 
0.34944380326 0.350592953 0.35097028103 0.34957588949 0.34733076055 0.34441546987 0.34041388165 0.33568508758 0.33078128041 
0.3262789181 0.32198668881 0.31801127154 0.31394477602 0.31068710027 0.30526217816 0.30287990518 0.30104742447 0.29945936267 
0.2979438515 0.2965443682 0.29544775794 0.29428693674 0.29340813068 0.29259334872 0.29180888382 0.29108264328 0.29034648615 
0.2897746654 0.28929231594 0.28871826249 0.28864622471 0.28882208114 0.28930180119 0.28992051676 0.2911717107 0.29310098756 
0.29553248322 0.29954659682 0.30426935077 0.31112936732 0.31859163753 0.32918451909 0.35012787299 0.38149545647 0.31945055466 
0.30790722239 0.28897336409 0.49941733039 0.56443689831 0.33338836696 0.33341101773 0.53080082361 0.38212494805 0.34501001511 
0.32930620822 0.31820086197 0.30997167816 0.30329625146 0.29892359389 0.29524046492 0.29310239824 0.29117174845 0.29005048519 
0.28921096385 0.28894146438 0.28875894143 0.28890715505 0.28912365759 0.289529169 0.29003629795 0.29069508488 0.29131787302 
0.29208792324 0.29285017079 0.29371751085 0.29462990768 0.29566628063 0.29683544208 0.2981319401 0.29955084587 0.30122052344 
0.30334987577 0.30556947701 0.3081894682 0.31095022781 0.31450360518 0.31834447789 0.32219837509 0.3266977032 0.33161961249 
0.33630209139 0.34042410114 0.34433843866 0.34752688601 0.34956509315 0.35083732198 0.35069408869 0.34966726439 0.34763786827 
0.34496246241 0.34166650494 0.3381098008 0.33449863037 0.33104809863 0.32832025892 0.32595717041 0.32399027436 0.32231075628 
0.3209974698 0.32007095124 0.31958916673 0.31927009138 0.31927043368 0.31938882333 0.31972230667 0.3201047226 0.32060479433 
0.32126183483 0.3219829537 0.32270253843 0.32342812875 0.3242637302 0.32511182694 0.32585271032 0.32668386552 0.3273998476 
0.32809586643 0.3288009174 0.32947101512 0.33005965218 0.33065814482 0.33119894753 0.33168207486 0.33213359609 0.33251164192 
0.33288097254 0.33313876308 0.33333697177 0.33342266214 0.33329189645 0.33331946912 0.33327670617 0.33328100801 0.33329819332 
0.33333983847 0.33341891824 0.33356383308 0.33371244092 0.33390172621 0.33411012949 0.33432633899 0.33455653092 0.33479584944 
0.33506292891 0.33532355989 0.33557741939 0.33583287688 0.33607397457 0.336304965 0.33655991276 0.33692787119 0.33710532202 
0.33727387773 0.33737720268 0.33746149621 0.33752058005 0.3375653402 0.33757769554 0.33756067722 0.33751565073 0.33744763154 
0.33735163853 0.33723983545 0.33708999209 0.33692986312 0.33674096309 0.33653903059 0.33631618525 0.33607481963 0.33579089267 
0.33554458352 0.33529477851 0.33503269101 0.33476823042 0.33452921711 0.33429352084 0.33406685696 0.33386115367 0.33368513316 
0.33353380135 0.33340100719 0.33333382218 0.33327730774 0.33675518096 0.50798916281 0.53595265422 0.67107967286 0.68772094938 
0.71755965633 0.70793171584 0.7453378439 0.73588592988 0.76732548197 0.75299015961 0.78090347805 0.76707140059 0.78419452569 
0.81704336205 0.76915877223 0.77065903905 0.77460186515 0.75949902824 0.77023485832 0.74326824611 0.7491974102 0.70841380608 
0.69320723806 0.66930993731 0.67297975161 0.56975891826 0.61102409801 0.75642738693 0.77646799242 0.71296584243 0.69351585427 
0.72814856809 0.53461823118 0.69119848738 0.5746433075 0.71993149011 0.70936564136 0.33330682758 0.33332420754 0.3333080828 
0.333302678 0.68855546778 0.69111318329 0.67714430976 0.63973550983 0.66141319642 0.67231839847 0.71114282631 0.65361272374 
0.63477596434 0.45909487122 0.71825431817 0.71936686581 0.73681693499 0.55313016753 0.44065160721 0.49229557643 0.69685598347 
0.32816283984 0.31343976996 0.32111330684 0.59402915988 0.64102034731 0.58886117031 0.71650279466 0.33333780717 0.60672259259 
0.70904057411 0.69496283276 0.62683332199 0.33382466702 0.33334977424 0.33007877838 0.71136203904 0.61728382338 0.5967142059 
0.60146894225 0.53198595007 0.33331638534 0.33330477504 0.60707523377 0.54850144152 0.54147323426 0.3419683727 0.6017316601 
0.62003843053 0.58202090917 0.28475183282 0.33787466412 0.34016678265 0.3157447052 0.31819934657 0.33062872482 0.316247058 
0.32231171929 0.32600890347 0.32379249276 0.32132895401 0.31769027499 0.31694121771 0.31707878075 0.31666924508 0.34460304847 
0.32679537715 0.32709597958 0.34266949813 0.34145894225 0.33662062169 0.33631861117 0.33633732325 0.3197269415 0.31769254952 
0.32039488464 0.31021163136 0.31415241302 0.31493316277 0.32220361646 0.32567475926 0.3252511408 0.33513911764 0.3350360549 
0.33529300819 0.33569118328 0.33551181727 0.33568554842 0.33549882381 0.33254563419 0.33236748782 0.33209442894 0.32758675119 
0.32647026521 0.32714893053 0.33594615207 0.33582621794 0.33574834312 0.3356443723 0.34010335974 0.3474076865 0.33928412255 
0.34797411025 0.33572608507 0.33569464143 0.33551816234 0.33574534039 0.33555742397 0.33776725699 0.33735594624 0.33820105363 
0.33776070808 0.31200750251 0.30447472483 0.30642810106 0.33186829926 0.33104107808 0.33162432507 0.33079870448 0.33608334 
0.33509281672 0.3390190413 0.33798330457 0.33331020706 0.33287902614 0.33341546215 0.32833169285 0.32877260685 0.32607029963 
0.32668877339 0.33490213531 0.33510462695 0.3351072265 0.3352960948 0.24461326603 0.33555464265 0.3357623383 0.33282692212 
0.3327468455 0.33277594963 0.33267530664 0.32072389454 0.31557205633 0.31702166268 0.33452679125 0.33496250793 0.33467864202 
0.3351121133 0.3351076688 0.31454539869 0.31465655657 0.31166344092 0.33600990881 0.33571741632 0.33634534808 0.3363416097 
0.33626362778 0.32969742494 0.32556728219 0.32890245968 0.32405700176 0.34680601906 0.33692240175 0.34538760546 0.33826665957 
0.33824297117 0.33605515311 0.34382718043 0.33528960747 0.33530684038 0.33556803292 0.36657747771 0.38818537916 0.3636994121 
0.33640666871 0.33633432023 0.33830494156 0.3380417339 0.33840990814 0.32234116259 0.32295658757 0.32616728269 0.33765968905 
0.33763850484 0.33431751798 0.33411349565 0.33448851259 0.33429199965 0.33450855874 0.32893619912 0.32846440269 0.3293118009 
0.32106201091 0.31796050452 0.32054005108 0.33723009545 0.29576185465 0.29615639036 0.3025401396 0.30356698217 0.29604217237 
0.29907223379 0.30093796372 0.30448024108 0.32419511935 0.3229629625 0.32336983289 0.34243570511 0.33803000558 0.3396607161 
0.3343107937 0.33410606628 0.33589380709 0.33592725135 0.3296537428 0.33163970354 0.32870595069 0.32641214676 0.32545901665 
0.32769875752 0.3267862312 0.32168994488 0.32565373753 0.32345436003 0.33520181617 0.33543564627 0.32207906372 0.29335923238 
0.29979515878 0.33508884425 0.33488164062 0.33510535005 0.28323546801 0.3288225547 0.32961853512 0.32579822554 0.32707794576 
0.32591614291 0.32757972848 0.32640534376 0.33254624968 0.3325405821 0.33237774212 0.33631196676 0.33592149013 0.33544807136 
0.33509194396 0.33212943997 0.33205010683 0.33236213672 0.28815627894 0.33406780021 0.28237151582 0.33096755427 0.33109514653 
0.33144757342 0.33159177977 0.33275744295 0.3312062572 0.32502326156 0.32417778008 0.32267192382 0.33484209763 0.33502751138 
0.33456661487 0.33477523351 0.30428963612 0.28230171182 0.29994254041 0.31329474333 0.30985425367 0.31362628597 0.32610724239 
0.32565367671 0.32510763404 0.32718073977 0.33292350313 0.33612152133 0.33430888579 0.33732059081 0.33815300077 0.33582191495 
0.32160490819 0.32455996717 0.32344049331 0.32341451247 0.3229060584 0.32293076061 0.31079463094 0.31362663296 0.3134611991 
0.32266094293 0.32192412304 0.32243594277 0.32161230925 0.33364224126 0.33057302549 0.33089512991 0.33406791558 0.33303790562 
0.33420495436 0.33302708289 0.26611547825 0.32229664612 0.32349363822 0.32371160791 0.32480988585 0.33642355345 0.33623505535 
0.33625911929 0.33202435997 0.33261078448 0.33246133306 0.32888436068 0.32953760859 0.32779669743 0.32882333918 0.33322678759 
0.33727228668 0.33490555815 0.33135799218 0.33089625733 0.33433554736 0.33028269189 0.32922782485 0.32361149533 0.32323275513 
0.3240065085 0.32429673756 0.32432774409 0.32484808739 0.32477646137 0.31877441452 0.31876905233 0.31744118834 0.33643740197 
0.33652234498 0.33665823209 0.31585498341 0.31745837811 0.31841426703 0.31641493741 0.33389652983 0.33524039934 0.33060526914 
0.29420958525 0.29003743394 0.29305372212 0.33560252791 0.33298857047 0.33669157749 0.33492628589 0.3351151882 0.33491115157 
0.33654614003 0.32047469587 0.31957540777 0.31579911935 0.32419223827 0.30971261431 0.31379939487 0.31443200599 0.31818457478 
0.30652496947 0.30757437904 0.31245308848 0.31369679734 0.3019475468 0.30305309624 0.30856078769 0.32640227453 0.32510672395 
0.32448910201 0.32507804709 0.32831103981 0.32671058169 0.29515378166 0.30132180248 0.32773362785 0.32672626662 0.33697119045 
0.33666292849 0.3371093258 0.33679951323 0.29787618774 0.28357377746 0.32328998552 0.32401181625 0.30983868836 0.30436308798 
0.3102228587 0.31505334433 0.31708649402 0.32706584483 0.32810053118 0.32756465473 0.32860464533 0.30601064465 0.3114844484 
0.30623317316 0.33240958482 0.32964653187 0.33985373288 0.33720373469 0.33997779486 0.33495228595 0.33880555183 0.32717876089 
0.33315164948 0.3338472467 0.32868629251 0.33187423089 0.33393917431 0.334100343 0.3337448124 0.33391914431 0.28494772591 
0.28853998372 0.28874801493 0.29285908398 0.33536151023 0.33329300763 0.33367909911 0.33344408695 0.32092467765 0.33780111953 
0.33686198879 0.3350105414 0.33540867949 0.33553525192 0.32914553096 0.32878817282 0.32725947402 0.32679809403 0.32499745041 
0.32364760262 0.3188616642 0.33450492471 0.36066662116 0.34785463126 0.31048919754 0.31479632029 0.31070054323 0.33552722096 
0.33534131344 0.33549865532 0.2878393345 0.27667635179 0.31013324325 0.31117649027 0.31224009063 0.24430712833 0.30072108227 
0.28878177853 0.28821852397 0.29288237943 0.31428779896 0.31362924002 0.30903670732 0.24607487707 0.30495898731 0.31171242517 
0.3151203992 0.31450341499 0.3176684088 0.33674221643 0.33655637929 0.33642675163 0.3239014094 0.3142817439 0.32085983924 
0.31366151352 0.31258919377 0.31239776577 0.3185205567 0.31827243795 0.31894420567 0.33051023588 0.30451243908 0.30558657261 
0.30785644715 0.33333608359 0.3032490351 0.30670292033 0.30150503341 0.31958220479 0.28638719022 0.3380829827 0.33736443999 
0.33838233211 0.31662168005 0.28733315582 0.33329935231 0.33412674274 0.33104461352 0.31671939317 0.30406757907 0.30688091512 
0.30171957178 0.30228874816 0.29718496241 0.33195002215 0.331656836 0.33213303528 0.33183599618 0.32622905888 0.32721538246 
0.30805391138 0.33228066388 0.33518353126 0.33723808735 0.28924446209 0.33608427523 0.33584507046 0.33605911673 0.30934751426 
0.30918757838 0.30492152565 0.31435741211 0.30846065689 0.31759903251 0.31195544033 0.31813480664 0.33142517919 0.33612077546 
0.31796917092 0.3211112739 0.32132336908 0.3331899668 0.33637797523 0.33513263082 0.33742133319 0.36171228697 0.29955658938 
0.35551821419 0.28409772341 0.33226047776 0.28566228747 0.31853288945 0.32415069666 0.32764907395 0.32460504904 0.33336459611 
0.30595923034 0.31228148486 0.31319647715 0.31513134635 0.31684492314 0.32840336683 0.3386888031 0.31815793236 0.32979659203 
0.31605155148 0.31712284424 0.3154445822 0.34381149162 0.34463371714 0.34382009175 0.29718520735 0.2992140585 0.29798204128 
0.30345059637 0.31475923122 0.31422136293 0.31190628983 0.32601652088 0.32658799451 0.3256248654 0.34533558489 0.34580195116 
0.34495975158 0.33670416769 0.33662902622 0.33655170618 0.33647706809 0.33208430828 0.33142277717 0.33113571565 0.33902624802 
0.32361578761 0.32370855213 0.32378916184 0.32407002566 0.32407185716 0.33349427325 0.33339181543 0.33314612622 0.32916657217 
0.32909656607 0.32975905284 0.32965783888 0.33306677855 0.33340234523 0.33322386503 0.32850063081 0.32448840949 0.32743910571 
0.3364337074 0.31690653004 0.31819335874 0.32057632578 0.28214331977 0.30162583421 0.30400770888 0.33361115763 0.33395144397 
0.33330091599 0.33367234758 0.31814696183 0.32065775933 0.31866097175 0.32121280097 0.33381122738 0.33359550768 0.33398232132 
0.34370625379 0.31501209468 0.33391591778 0.33409109683 0.33442005828 0.33440919181 0.3335550477 0.33354896013 0.33303128487 
0.33327563499 0.33273801722 0.33299195355 0.34046643982 0.34353455562 0.34523556299 0.33385505962 0.3336658664 0.3342956906 
0.33428101418 0.33446519002 0.34144424491 0.34023537422 0.34213446171 0.31716118428 0.31247669639 0.31645922098 0.31960655296 
0.32050617665 0.32201937081 0.32290117101 0.32342655731 0.32300529553 0.32357362381 0.32170620236 0.30711699765 0.31205761283 
0.32131029172 0.32015879799 0.32116317667 0.32380440257 0.32358136437 0.32339957982 0.31100605908 0.31443275996 0.3106490925 
0.33393574167 0.33401352085 0.24574095108 0.30626879581 0.25047634763 0.32394669933 0.3221271081 0.32511970883 0.32953385427 
0.33018556483 0.33043645644 0.32870036899 0.32567033675 0.32556994858 0.32254679068 0.33319488356 0.33287905596 0.32708203105 
0.32813570722 0.32567367145 0.32687676305 0.32581792524 0.33762290387 0.33759802587 0.33716020883 0.3335722249 0.33384770469 
0.33227337911 0.33462883306 0.30729579548 0.31005523121 0.30645306161 0.31838966458 0.31911026975 0.31772132597 0.31691667322 
0.31763614855 0.31950958813 0.32550475182 0.33382576633 0.33342425982 0.33370543324 0.33346569552 0.33373297026 0.33050099009 
0.33081090579 0.33129867224 0.31245405805 0.31131453583 0.31676334905 0.32196497 0.32194048474 0.32063354893 0.31856752979 
0.32498358681 0.32785139965 0.328392471 0.32664863578 0.32720914683 0.34578343746 0.3232639187 0.32179709044 0.32218606043 
0.33094072731 0.33120425882 0.33076847849 0.33419431431 0.33445396506 0.33448556359 0.33274093351 0.31283942167 0.33531140313 
0.31386977182 0.31223219142 0.31090612044 0.33157920665 0.33211141618 0.32936729098 0.32983048733 0.32932251942 0.33112359636 
0.3307601855 0.32214127296 0.32058642062 0.32283224198 0.33306516246 0.33238489784 0.33596344993 0.25146026776 0.30456225536 
0.30907293982 0.33715412683 0.33699508266 0.33583506499 0.33565080435 0.33040413957 0.32998916597 0.32972697095 0.3293026912 
0.33334138495 0.33589483534 0.32823575833 0.32767983371 0.32751607342 0.32511221974 0.32404006448 0.3255551909 0.3336017175 
0.33331473139 0.29629296715 0.29232146694 0.33632181903 0.3363361023 0.33639076766 0.33640563698 0.33332007637 0.33323170532 
0.33328830919 0.33316164161 0.3182087676 0.32165270725 0.32883906198 0.32506015986 0.32455556833 0.32276653187 0.32222094988 
0.33274908032 0.33248215819 0.33258714997 0.3323069861 0.32525202121 0.32242677118 0.32314397741 0.34066058788 0.34066621401 
0.33870513008 0.33853226439 0.33673083584 0.33654961842 0.33675264555 0.33657809135 0.28600194894 0.33050304021 0.32844436059 
0.33341181986 0.33148418525 0.30264168759 0.30357924573 0.31102845112 0.31156195585 0.30885428957 0.33530934807 0.33530963049 
0.33912466533 0.34145061033 0.33963944387 0.34199195912 0.33167607526 0.33214005332 0.33003431839 0.33309089632 0.33320755854 
0.33322179559 0.3200355509 0.32290715292 0.31222743327 0.31932214788 0.31514773941 0.31835559792 0.31724114366 0.40051051677 
0.40403788565 0.42893641931 0.3290858821 0.33539629104 0.33329503709 0.33354057875 0.32555334286 0.32445231507 0.32762335906 
0.32642417304 0.32860471531 0.32979481455 0.32915216841 0.32003095799 0.31928196974 0.32068233287 0.32337298625 0.32394310947 
0.36943450258 0.3308765428 0.34850609055 0.29779601607 0.33375992161 0.3336193043 0.33366206209 0.32212187799 0.31922964825 
0.33985379034 0.34231584483 0.3375377024 0.34014825002 0.33939197716 0.33923533706 0.33962950683 0.33943833701 0.3354862611 
0.33566176106 0.32756338178 0.34235572189 0.34098541229 0.32929585888 0.32873685367 0.32632056633 0.28516238584 0.28880902117 
0.28415383932 0.32461361924 0.32170226132 0.32039128416 0.29793959169 0.31800040177 0.35650103448 0.3209768355 0.3228538411 
0.32316685393 0.3334768733 0.33360280657 0.33348331787 0.3336229122 0.25921924404 0.3180814108 0.31996472775 0.33012321236 
0.32808916274 0.33740909206 0.33811741265 0.33720224099 0.30957452554 0.31233592398 0.31095447521 0.32719512493 0.30417774903 
0.30030050798 0.30642263062 0.34488487605 0.35039921248 0.34404881574 0.33366431562 0.33680902829 0.33086261313 0.33393689093 
0.34039481989 0.31928199071 0.33186528397 0.29777124827 0.29360959094 0.29916509569 0.28309214095 0.34007977936 0.33343132078 
0.31229347914 0.30177937959 0.30918129738 0.3095012948 0.33232420777 0.29595235159 0.29532973255 0.30047185535 0.32429016719 
0.31810757887 0.30678508563 0.30703963042 0.31233695762 0.32356054119 0.32462302712 0.32386125192 0.33933831168 0.33910452759 
0.33944016678 0.32536195279 0.32606376252 0.32516641251 0.24256850253 0.28595503651 0.28131894802 0.28568568341 0.33835041925 
0.33644881373 0.33300482235 0.28951442592 0.29316048205 0.29398530085 0.29231319737 0.31280710979 0.29845406919 0.29591396743 
0.32727384812 0.32901319424 0.3249816381 0.33804931606 0.30662491729 0.32967536544 0.32651088957 0.34470366797 0.29049224089 
0.34152927271 0.33523011534 0.33447748998 0.33447313487 0.33369218618 0.33693193217 0.33759644175 0.32169211843 0.32220814624 
0.32307809935 0.31639115566 0.30525958222 0.31043580283 0.30623029357 0.31857824669 0.32083968223 0.32641479793 0.32541256734 
0.33130299862 0.28617327062 0.33449612525 0.2828155721 0.31495393015 0.31005423175 0.31244312187 0.3256205958 0.3256045718 
0.32559128851 0.32212662552 0.32609624991 0.31957138958 0.317905203 0.3139180336 0.33667342406 0.3060326257 0.31111181421 
0.30835900883 0.33344668239 0.33506577036 0.33481527451 0.33645869914 0.32097212562 0.33466819438 0.33520929074 0.33502425396 
0.33165174495 0.33068898393 0.33466896472 0.33613703072 0.3336047486 0.33707398225 0.28814534261 0.32088732481 0.32285890816 
0.318596162 0.3300114871 0.2935018828 0.28929512928 0.29401662668 0.32925374359 0.33270528872 0.33185795419 0.33398037398 
0.32579917768 0.3232369973 0.32761813512 0.33545966411 0.3378351187 0.33376337725 0.33356943471 0.32996430251 0.32976089856 
0.28473814722 0.33611595207 0.30018361726 0.30214034526 0.3055884224 0.28283808707 0.33294016535 0.32836941594 0.32618149734 
0.3324843423 0.32990106164 0.34237303508 0.35100310723 0.33033363947 0.33554620444 0.33554379308 0.33421124327 0.33384300195 
0.33425530694 0.32993147741 0.32992310936 0.33025693192 0.33054230457 0.3331453911 0.33279644805 0.33294864847 0.3354414457 
0.31831101776 0.33255561777 0.33461337929 0.28323239028 0.32134027267 0.32269438123 0.33621347812 0.3366224532 0.31853957935 
0.31656618021 0.33667579138 0.33654912947 0.33672727307 0.33718343369 0.33692727082 0.337255367 0.33698482125 0.32106865489 
0.32179712602 0.33593017092 0.33585842574 0.3361137152 0.33495199021 0.33461357051 0.33484882527 0.32500121743 0.32369298555 
0.32933442366 0.32795468364 0.32943535092 0.33669281039 0.3369025477 0.33684344275 0.33642814874 0.33641727506 0.33580741436 
0.33236053346 0.33350809627 0.33357333042 0.33314196461 0.33394080305 0.3335490426 0.33395469297 0.33643085862 0.33625625581 
0.33656504033 0.3363834703 0.33624481432 0.32918571125 0.33316962971 0.33234793085 0.3333670759 0.32747977484 0.32834427892 
0.32592525076 0.33424523285 0.34007121957 0.32172321235 0.32459396043 0.31727906009 0.30212330719 0.30645183094 0.30619948415 
0.31034177459 0.34726706262 0.32499485344 0.33966570576 0.329379047 0.3322214905 0.32816703129 0.30428133821 0.31729865226 
0.32121913736 0.33187848463 0.329437872 0.33179944693 0.32151434751 0.32082133127 0.32063071306 0.33653267107 0.33656839418 
0.33649571266 0.33424371614 0.33450648122 0.33518843805 0.33496962128 0.33514076251 0.33295401239 0.33283468781 0.33213372347 
0.33202439983 0.31843551259 0.31905034172 0.32024770663 0.28704534384 0.28702719741 0.245456023 0.28499626952 0.28901805208 
0.28481192486 0.31413641449 0.31916630469 0.32239322174 0.31229497698 0.3164334946 0.32468404121 0.31878754503 0.31734912269 
0.33776791824 0.33741026544 0.34007829362 0.31507091806 0.34589023168 0.34636021956 0.33234866663 0.33303370644 0.33243062847 
0.33312627798 0.31718818769 0.31776615158 0.33469587091 0.33470173862 0.3344877519 0.33649331835 0.33661622734 0.32847270924 
0.32928433744 0.32895816595 0.3289738173 0.33017199792 0.33076505623 0.33047386737 0.32969941443 0.32714519763 0.33051386909 
0.32729917311 0.33043936032 0.2478686473 0.24511387529 0.30332451545 0.33651208397 0.32210019254 0.32487040957 0.32277115265 
0.34373201204 0.34227207156 0.34206539903 0.31947624254 0.33604454973 0.33621386353 0.33600630789 0.33450507212 0.32496461344 
0.32479467988 0.32123912434 0.24709796723 0.33770870374 0.33847657133 0.33679335197 0.3320035568 0.331755815 0.33168149741 
0.32795862222 0.32554835778 0.33183878587 0.33260752027 0.33344736355 0.33434821534 0.25260510901 0.24994115897 0.30801489802 
0.33195608687 0.33310047577 0.33278805883 0.32835106298 0.33137030947 0.33200638775 0.33490995376 0.33174476017 0.33698455145 
0.31145032078 0.30959892939 0.31188214799 0.32362109143 0.3263130832 0.32601116163 0.3260731864 0.32846474571 0.32824137895 
0.33594950889 0.3365469246 0.33587245991 0.35029665073 0.29565734519 0.33731361082 0.32254800283 0.26383969481 0.32571957602 
0.32586398449 0.32482874079 0.32563013766 0.32345122776 0.33749871375 0.33635258375 0.33577379282 0.33464139629 0.32537874579 
0.32466851976 0.33567768495 0.33587076007 0.33591195559 0.2946868046 0.34119627388 0.36477090988 0.37880747886 0.33070292337 
0.33136980017 0.3325810695 0.33049036037 0.33313636096 0.32395594423 0.32428376739 0.33447048263 0.3319779813 0.31955499117 
0.32228986552 0.32788618004 0.33448791598 0.33426491115 0.33423349744 0.33398767033 0.32784637798 0.32279753556 0.32525958132 
0.33232586671 0.33593019123 0.31971382666 0.31954596621 0.3165458844 0.31631318991 0.29766415227 0.29753024519 0.30262907221 
0.30251400449 0.3470693543 0.3274013059 0.33509365106 0.33238980349 0.32810222842 0.33042203498 0.33031624597 0.2865989095 
0.29029944446 0.31811118835 0.31399137008 0.32227273931 0.33410859712 0.34077363702 0.37792693227 0.33297090972 0.33380018681 
0.33685759997 0.33903726378 0.34100215002 0.35627476862 0.3736825872 0.33450526522 0.33332445556 0.3347138994 0.33134548486 
0.33075693226 0.31193105497 0.31671565934 0.30672962343 0.31135540014 0.3369146542 0.33423978994 0.33176911768 0.32643673666 
0.41035570536 0.36630353621 0.33436366871 0.33420096053 0.32855052009 0.3293598088 0.33259791392 0.3323114471 0.31310196946 
0.30918136968 0.33267418241 0.33095982037 0.33180568011 0.33017537031 0.33084819131 0.33108732955 0.2843368839 0.33681273731 
0.33575567083 0.33253864771 0.33182971427 0.33154888168 0.32511341766 0.33177795161 0.33159584373 0.33650522654 0.33652384041 
0.28491370389 0.28079109318 0.33449777811 0.33463474449 0.33452558787 0.32964907771 0.33179629484 0.33322333824 0.33798199121 
0.33823582363 0.33921620659 0.34133266556 0.34540536831 0.329246219 0.32436078154 0.33123639503 0.33051183023 0.33445588497 
0.33092578778 0.31602795799 0.33529539937 0.33420138939 0.32731000802 0.32936023806 0.32787453606 0.33789449789 0.33966337072 
0.33952500215 0.34190127674 0.33862617012 0.32964853407 0.34410604462 0.32949695197 0.32684644492 0.32773370491 0.32852544288 
0.33070078085 0.33147543306 0.33200558217 0.3313052716 0.33042563379 0.329544688 0.32681917062 0.32635787502 0.32416887194 
0.31151434588 0.30583321873 0.31013205616 0.30445054444 0.32989100063 0.33818110715 0.32647147347 0.32150203162 0.33050374654 
0.31512123212 0.30957559016 0.31430111643 0.32668208091 0.31714006112 0.31606302814 0.31737656025 0.31099081053 0.31339918029 
0.33259919467 0.33273608236 0.29321170933 0.28903075486 0.32551066097 0.3258810803 0.32464600446 0.33642413442 0.33853681309 
0.33548918579 0.33222531806 0.3334508345 0.33102007602 0.33700658654 0.33667209732 0.33709649852 0.33676709177 0.33966417387 
0.33937866006 0.30512567956 0.31050173846 0.30763269786 0.30734758283 0.30366605513 0.30330112897 0.3346162692 0.3343866268 
0.32967428139 0.32904039946 0.33649370238 0.33649725678 0.33652507018 0.33129994392 0.32787476939 0.32226589494 0.32900172133 
0.32365276622 0.33611942535 0.3349450733 0.33525777554 0.3350567454 0.25479645347 0.34179078284 0.36763600966 0.39184195325 
0.33304513367 0.33836975685 0.32877946743 0.32635875336 0.32355444694 0.32562555179 0.31700116592 0.33914295968 0.32075816186 
0.35412312442 0.33717161819 0.33526787105 0.33550526614 0.33540701751 0.33396340029 0.3361839131 0.29070444805 0.33021218635 
0.32514830119 0.32661227048 0.32366824793 0.3156131648 0.33573909317 0.33394575223 0.33422051512 0.34408366791 0.34285968537 
0.34239146776 0.32925304338 0.33646631757 0.34305497093 0.30927003742 0.31289799011 0.31286406565 0.31486003481 0.31515287126 
0.31773850228 0.33552773732 0.33532387817 0.33533249879 0.32247743945 0.31922653844 0.32102406161 0.28337469023 0.33506043647 
0.31581422782 0.33280525162 0.31533710512 0.31589317934 0.31919473848 0.33630835912 0.33641139983 0.33619450212 0.32143591557 
0.32182184711 0.32218059076 0.3143917985 0.31988574722 0.33124753566 0.32045106595 0.31966685059 0.32141615884 0.32048862036 
0.33175572957 0.33155477931 0.33585237624 0.33193948621 0.33217933505 0.33159215268 0.33195496222 0.30345232414 0.28359595685 
0.33273987416 0.33222801984 0.31312325098 0.33179667916 0.32908819564 0.33252603712 0.31631576464 0.31546013277 0.3413332925 
0.34060622431 0.3244935841 0.32468067013 0.3310618855 0.33150503268 0.33175612456 0.33583200612 0.33500281267 0.33299211695 
0.33436390061 0.33491217462 0.33422790732 0.33855467076 0.34017612232 0.33735445472 0.30704796437 0.3126458909 0.30302906565 
0.30856281983 0.31846103651 0.31886196536 0.32088124669 0.31513442716 0.31527970087 0.31404514043 0.3351605685 0.33541526936 
0.33571242141 0.33903971195 0.33889830873 0.32370206187 0.33479087801 0.33835129077 0.33469635871 0.33803050722 0.33796375092 
0.33372530203 0.33425130631 0.33370858561 0.33426916497 0.29410017338 0.29724094794 0.29840335975 0.33297873322 0.33311465103 
0.33322532963 0.33598507243 0.33658226723 0.33593709761 0.33496195985 0.33594728413 0.33477910451 0.33250031442 0.33538660587 
0.32515523877 0.31807244288 0.31684093353 0.33554526016 0.32838905296 0.31378250344 0.32845572643 0.32912661147 0.32979106469 
0.32154200363 0.31784425359 0.31847577718 0.30638340335 0.3207018581 0.31705853745 0.34002261425 0.33957970756 0.34127584355 
0.32147676039 0.31614340885 0.32319036327 0.29527001727 0.33197234941 0.33220992706 0.32110908823 0.32258123712 0.32137635025 
0.29739488056 0.32549674985 0.32053421542 0.3196651541 0.31730801804 0.31625006844 0.322749616 0.31886587865 0.31820082814 
0.28038476088 0.33425426096 0.34154743368 0.33270947169 0.33595425133 0.28176062863 0.31717339844 0.33613818012 0.33377842008 
0.333396271 0.3356195346 0.34935216808 0.32087742392 0.32040964292 0.31706930725 0.3218836759 0.32482772243 0.31865238478 
0.32163183601 0.312803326 0.31573512179 0.33307264621 0.3271051424 0.32662958037 0.30942503778 0.31296587343 0.33021601381 
0.32698894222 0.31017275408 0.33393755873 0.33479831683 0.33443610759 0.33437445998 0.33411944547 0.33034760322 0.32043753872 
0.31830485409 0.30674739904 0.33631859037 0.33611424754 0.3363000761 0.33955440891 0.33921124912 0.3390226386 0.33831248206 
0.33373388109 0.31889996339 0.28931901566 0.29099954423 0.31615789267 0.31422546717 0.31621361614 0.34114203076 0.31759866878 
0.30484708297 0.3009437035 0.30056752088 0.32158120332 0.33151082133 0.3309989094 0.33232714592 0.33908387405 0.34179240182 
0.34049875903 0.3390907022 0.339137613 0.33939853121 0.33766552757 0.33792882065 0.33745507231 0.28938117134 0.32458646828 
0.32098963871 0.32610377285 0.32991189705 0.33034229847 0.32299374774 0.31717235742 0.32093440489 0.32190273301 0.32424870831 
0.32090673328 0.33167780474 0.33078472495 0.33429516801 0.33448436808 0.33426777581 0.33402742699 0.33082668761 0.3307262414 
0.33191003054 0.3328053329 0.33449018574 0.33349243918 0.32099897187 0.32220274355 0.32239672072 0.32128211178 0.28949270746 
0.35514293907 0.3165201922 0.3183095476 0.32540316201 0.32371795957 0.32080671081 0.33326370616 0.33246504373 0.33894302472 
0.33719718024 0.44725215156 0.33368232459 0.33632955437 0.33271636578 0.3206155072 0.31969482218 0.34493511879 0.35090932865 
0.34219456402 0.32913313071 0.33664693758 0.33852265281 0.32754669793 0.32947209279 0.33011713665 0.32317317643 0.33765484202 
0.33685595826 0.33686964161 0.33312390743 0.33312586156 0.33357630594 0.31709425402 0.28103805646 0.30571615395 0.30857720744 
0.30469802049 0.33593577206 0.30943097458 0.31918303235 0.32194120968 0.3329774883 0.33085759938 0.33267699168 0.34288961045 
0.32540091633 0.32423385681 0.32497444194 0.32927490522 0.32900673734 0.32959242312 0.32861142369 0.33646482145 0.33810374002 
0.33587261385 0.33622012135 0.33160141164 0.33067007342 0.33268905947 0.29995039988 0.28141526494 0.37642128532 0.34196447704 
0.37056526732 0.33288206814 0.32848768046 0.32367363959 0.33292887817 0.32825688857 0.32368735116 0.32555073733 0.32068744197 
0.32304924739 0.35817814966 0.28575734374 0.29965451358 0.30061666313 0.33085859366 0.30992657925 0.31237875287 0.34225127502 
0.31801393578 0.31933877463 0.32131349425 0.32257794519 0.31358392766 0.32801332401 0.38133261506 0.34140602503 0.34531590484 
0.34070147819 0.32570089037 0.32486930962 0.3252296066 0.32441117866 0.3290145952 0.28592084897 0.28318569693 0.3312669726 
0.33376411416 0.33254296496 0.33121050705 0.33084751717 0.32512998184 0.32472426404 0.32402887775 0.3336298125 0.33349205077 
0.33104056022 0.33131360462 0.33168332524 0.33627929873 0.336429104 0.33610960553 0.32568106086 0.32606152907 0.32897625436 
0.30605858522 0.33707188521 0.33757674996 0.3366471044 0.33698892623 0.33182446598 0.33055430789 0.32840446112 0.32529402377 
0.32065472993 0.32620655573 0.32057387427 0.33933000467 0.330538832 0.32818778702 0.33835182694 0.33859020461 0.34373228388 
0.34436774075 0.3447315275 0.32625367761 0.32716930373 0.32665228915 0.32756435803 0.32443247617 0.32446426352 0.32751654344 
0.32994589388 0.33256560198 0.3266778812 0.32731835577 0.32622751334 0.32253633402 0.31906278058 0.32265717977 0.32874878717 
0.33201629113 0.33850632335 0.33790364335 0.33709027266 0.33694699026 0.33727480427 0.33724934316 0.3394336269 0.34501454538 
0.33000194342 0.30491141806 0.29676473325 0.29788217471 0.3345423889 0.39401240294 0.35180502249 0.336553419 0.33687477421 
0.33674860116 0.33591765311 0.33608475206 0.33607970947 0.32240941245 0.31964933382 0.33267604356 0.33515615373 0.32775828943 
0.32727774973 0.33059399969 0.33002577397 0.32848461628 0.32961093615 0.32654776707 0.33527569867 0.33482827317 0.31800974385 
0.31766783937 0.31706600175 0.33853241917 0.33805197697 0.33801432639 0.31436792679 0.31617854484 0.33550090227 0.33470182236 
0.31724626733 0.33600323341 0.33504622926 0.33572161088 0.33682844394 0.3371844728 0.33200501945 0.3309535137 0.32739464112 
0.33296360318 0.33707274524 0.33685686051 0.33704263888 0.32308655181 0.32337808085 0.32377588495 0.33385475582 0.33151467676 
0.33028451689 0.32953222797 0.29153449149 0.3389701508 0.33807191622 0.34079128622 0.28725711023 0.29252012928 0.3262944218 
0.31755825015 0.31710999077 0.31691932045 0.33446127266 0.33491087632 0.30959171778 0.30759601319 0.32796918906 0.32502983504 
0.3254127885 0.31903910692 0.31914472171 0.33695772213 0.33647139928 0.33566113979 0.33517403383 0.33630506746 0.273189722 
0.34369467137 0.33581438591 0.33605706482 0.33085466488 0.33380234619 0.33057193306 0.32937537601 0.32996262656 0.32679846324 
0.33156872534 0.32619236509 0.33077082008 0.3355136683 0.33552595933 0.33324382471 0.3301320519 0.33117928077 0.33478557386 
0.33759990208 0.33718910061 0.334404352 0.31879859955 0.31532231582 0.31433944362 0.32524790676 0.32601511032 0.31872699161 
0.32412936471 0.32382639389 0.31544849422 0.3153193433 0.32801587375 0.33066101615 0.33036239671 0.33003479572 0.33052851597 
0.32829455834 0.33149881542 0.32232649276 0.32347034492 0.33118358668 0.33279139398 0.33513219168 0.33727869925 0.3282934456 
0.33439554069 0.33224818644 0.33706330166 0.33081740898 0.33018119454 0.32350756526 0.33194633914 0.32449184558 0.33142461807 
0.33253635143 0.33290496873 0.33272540619 0.33790766431 0.33729397566 0.33803803353 0.33917968835 0.33886674815 0.32438323003 
0.32669800973 0.32331986906 0.33811832627 0.3387196686 0.33830875891 0.33233382677 0.33079473593 0.33562940323 0.32920133226 
0.32822964267 0.33401493279 0.33382076871 0.34416366932 0.34540716788 0.34342672172 0.34474796434 0.40105395489 0.33252498455 
0.32091602111 0.32251599931 0.32221854529 0.34642436657 0.34604719674 0.34609568135 0.33018746909 0.32984154614 0.3305317914 
0.33730931849 0.32465318424 0.3343212686 0.32959110433 0.33076710068 0.33174869229 0.33649194709 0.33663881501 0.33710296688 
0.33726717823 0.33620028329 0.33558119094 0.33582337046 0.33627532273 0.33683131112 0.33657362914 0.33678798698 0.3349135021 
0.33491580424 0.33625463457 0.33635946215 0.30143615467 0.29712418716 0.33098435898 0.33128302584 0.33072195794 0.32815721765 
0.34314950922 0.34427323323 0.34356770604 0.34470914274 0.34032960408 0.33881422735 0.34024900846 0.33606646259 0.33559967586 
0.33574450573 0.3189557808 0.32997358993 0.32851612484 0.33156295239 0.3301559525 0.31892569278 0.33578444907 0.32710613976 
0.3346782676 0.33549423079 0.33440224799 0.33472184012 0.33874580285 0.33879745457 0.33912084373 0.33904680856 0.33413180942 
0.33228741445 0.33309797595 0.31860791305 0.3163407118 0.33135526563 0.33616502117 0.33722953902 0.31096973897 0.25412689289 
0.25445956746 0.33066972326 0.33100154959 0.30939235519 0.30553555108 0.30761371338 0.33902593278 0.33817242338 0.33834511715 
0.33881019832 0.33639885233 0.33665649063 0.34012695304 0.34562940401 0.32188857886 0.33358893946 0.33345319178 0.33333842222 
0.32430224478 0.32962992704 0.3297848046 0.32690821617 0.30108665455 0.24260780996 0.24886022619 0.34039940236 0.33830396931 
0.32831627015 0.31257065924 0.31496137357 0.31489623458 0.33284486966 0.33283020478 0.3330436325 0.33323952845 0.31742573623 
0.31736352296 0.3373570981 0.33704474115 0.33774558207 0.33467145413 0.33447788091 0.32159534083 0.33419889161 0.33313443444 
0.33455445531 0.33518952488 0.34558212687 0.34568672405 0.34591461212 0.34596891904 0.3131259752 0.33191842066 0.33222552393 
0.33631412181 0.33670614861 0.33449117449 0.33469546873 0.33665367433 0.323835989 0.32317407706 0.32314649812 0.32229852292 
0.33210625611 0.33261908559 0.32693368909 0.32648625686 0.32398954598 0.31504268775 0.31623568875 0.31951484472 0.30481531403 
0.30035413757 0.33675183753 0.32735520078 0.32624700443 0.31922560075 0.32425973242 0.32227945038 0.32653371093 0.3346875392 
0.33657655425 0.33661472885 0.33642087449 0.33268859555 0.33323067914 0.32396139934 0.33257432522 0.31211491672 0.3066294864 
0.31469967543 0.33665854292 0.33681014134 0.33667388224 0.33683189325 0.33632987879 0.33642358373 0.33092888703 0.32850553547 
0.32803557538 0.34453517871 0.34231299587 0.32152356261 0.31769268833 0.31918152981 0.34064925296 0.32909798582 0.32984889578 
0.33017997037 0.30546554998 0.30194074556 0.30607879587 0.32044041866 0.33095130887 0.35203546811 0.32855050053 0.32875141365 
0.3254715829 0.31285271207 0.31355462333 0.32264577596 0.33858826428 0.33848365535 0.3327867478 0.31680485893 0.31739337804 
0.32329481885 0.32420453793 0.30453823697 0.33683405692 0.33689197929 0.32831913965 0.29943875953 0.33174558038 0.35758316342 
0.33590498308 0.33461406553 0.3370502847 0.33461373895 0.33134257741 0.32346334065 0.32370023377 0.32326005779 0.31804164147 
0.33152137649 0.33140901923 0.33215459394 0.32773452031 0.33525832946 0.33721178531 0.33809875275 0.33160590134 0.33153484248 
0.32088459911 0.33031344914 0.33043234073 0.30200886829 0.32319314331 0.32765506226 0.32459576649 0.33815069832 0.28871976887 
0.32292555839 0.32820525118 0.31294808037 0.31152998774 0.38127310062 0.33997635413 0.34087972713 0.33642638109 0.32685025747 
0.32770397224 0.32640964273 0.3303746881 0.32927131887 0.33587690975 0.33724152371 0.3168352089 0.33174408255 0.32963670904 
0.3282421693 0.33640074154 0.33699440988 0.33717468588 0.33040057532 0.32904286395 0.30626505259 0.30474912845 0.33076699814 
0.33059535669 0.32934450777 0.3296648362 0.33004402392 0.32110039607 0.33702405463 0.32892160285 0.30141146769 0.33771871654 
0.33878687464 0.33536217312 0.32009991151 0.32221536388 0.32007779544 0.32223657116 0.28516735874 0.30549966539 0.28579997081 
0.34399672462 0.33495404052 0.31921118403 0.3165706582 0.31564564536 0.30062349029 0.33636760014 0.317563291 0.35346750572 
0.29068895408 0.3085406961 0.2940332911 0.28837354811 0.29216261278 0.29679471644 0.29628583016 0.32410370349 0.3238573867 
0.32335134999 0.3645842598 0.33387201691 0.33320311595 0.3333008137 0.32962662371 0.32977454604 0.30617139487 0.32022809 
0.3214100595 0.32338760363 0.32220460027 0.3367364549 0.32090013647 0.31505533726 0.30624534734 0.31032214848 0.48304100722 
0.4285406475 0.33299279332 0.31318282924 0.32749220856 0.32496374339 0.32118084324 0.39789929774 0.31945640929 0.34070486731 
0.33109525024 0.36103920546 0.33680577464 0.31918360462 0.33855943902 0.33900677538 0.3154772112 0.30765489752 0.34476766989 
0.29075557755 0.3297747982 0.29276956362 0.31714167678 0.31694277697 0.33301264732 0.25213832138 0.32864442782 0.32899688855 
0.32897392444 0.29554754449 0.30194789772 0.33324541456 0.33341687372 0.33645746342 0.33645932718 0.28622996898 0.28690511143 
0.32604324307 0.25354440077 0.31870231013 0.33734510574 0.33717154569 0.33751613997 0.31441268254 0.28451311924 0.28126621902 
0.31916761169 0.32207951927 0.32275413195 0.32060699487 0.33452118968 0.33476788073 0.33572103274 0.33733558368 0.31602915147 
0.32019198876 0.32077643369 0.32504210469 0.35224725362 0.35904902195 0.34865494693 0.33612852572 0.33358422622 0.33596240222 
0.32282461381 0.32126450036 0.32060418568 0.30169696222 0.29547418348 0.29559853291 0.31643348009 0.32580265153 0.32521586772 
0.30770044961 0.33469823297 0.33472072447 0.33580899105 0.33559604221 0.33405019472 0.33397988127 0.3078273562 0.30674903398 
0.3227758664 0.30223920155 0.29626874497 0.2979561624 0.32833268792 0.29499335537 0.30012063429 0.29493585299 0.30010484265 
0.31011290324 0.30906669888 0.32801037674 0.30810079527 0.30412293301 0.3067318016 0.32371026645 0.31783471649 0.32793615765 
0.31386622348 0.3152832669 0.3293660326 0.33543005474 0.33425034259 0.3214399621 0.33194296389 0.3328124829 0.33327208132 
0.33654471615 0.32238231679 0.32350582896 0.33227386216 0.32849700981 0.32804922234 0.32616073967 0.32406829459 0.32333132373 
0.32430904505 0.30866541692 0.33688994078 0.33406483232 0.30543212399 0.30525152031 0.30036508468 0.32479744123 0.33316419041 
0.33298349366 0.30124361223 0.29655929825 0.30154177667 0.3254854201 0.3174553912 0.33272892773 0.31910825685 0.33461457161 
0.33230150796 0.30035619309 0.31145730923 0.33918921806 0.33937023465 0.29554870593 0.29070317363 0.32055817545 0.32352738823 
0.28758918647 0.30093125598 0.30118633176 0.33271036266 0.33012504559 0.30104524791 0.29611749485 0.29575128956 0.33674130904 
0.33692696617 0.3364650453 0.33129852461 0.32940768082 0.30015341798 0.34542152961 0.32895366869 0.3252749567 0.33335265289 
0.33228154693 0.29791790088 0.34539895046 0.31294462396 0.30970453554 0.3132572604 0.31318549261 0.32844668973 0.32561514046 
0.31401350672 0.31037023644 0.33309371806 0.33420663789 0.33482839652 0.31887887742 0.32317741763 0.35870626355 0.37389693034 
0.32352316222 0.3223368659 0.32314504531 0.32250022537 0.34149288982 0.33935148434 0.34123586269 0.33139857438 0.34693250578 
0.31838596777 0.34519769262 0.34779585458 0.33687079605 0.2998689009 0.30329942208 0.30509136039 0.32492914343 0.27628671741 
0.3219872108 0.34091780334 0.33099025613 0.33066251237 0.33782340032 0.33716992501 0.32411717674 0.36408543929 0.34556340507 
0.33755351248 0.33733159834 0.30326677506 0.33105461296 0.34098436714 0.34016649023 0.33500289135 0.28304505988 0.3362516168 
0.33425194468 0.33419223556 0.3335511146 0.33705907904 0.29814471246 0.32782312711 0.3268455455 0.32744003017 0.32384973485 
0.32131204977 0.33586938366 0.33392764614 0.31780195492 0.33359502818 0.33366517514 0.3351018474 0.3340118452 0.33392877366 
0.33409537592 0.33486066287 0.33489839543 0.32478076386 0.32000441655 0.33449942363 0.3360934642 0.31184790127 0.32563015837 
0.32602107108 0.3176371322 0.31805639529 0.31659429474 0.33695947684 0.33726864905 0.33470373535 0.33463250597 0.33442214428 
0.31543150909 0.33620010683 0.33610048631 0.3235767459 0.32307692973 0.32364999129 0.32308574905 0.33838723069 0.33759048926 
0.32296300109 0.3244468299 0.32514397846 0.38888232753 0.38716955848 0.31500186244 0.3257770886 0.32746654356 0.33911694041 
0.33672511256 0.31875784382 0.31847085513 0.31710399608 0.32502099076 0.30585370424 0.33583558234 0.33641049004 0.31541258174 
0.31129480716 0.30742728725 0.30773466211 0.31997974367 0.33583782102 0.33586579395 0.33597659813 0.33601299946 0.32471381322 
0.3174090622 0.31640728737 0.31687525968 0.31546763858 0.33227170629 0.33239606207 0.3325349331 0.33266545482 0.31429540715 
0.28947413173 0.28650100889 0.33406152859 0.32833951622 0.33180282028 0.33656204057 0.33650329882 0.3288376825 0.32844026126 
0.33693192767 0.33582035943 0.3359863817 0.3325574326 0.33280214351 0.3335033287 0.33574176201 0.335557751 0.33181052879 
0.339525344 0.3081094137 0.35828716861 0.33348664554 0.33296271339 0.32982754276 0.33001062854 0.33791559625 0.33798415433 
0.33283298203 0.328148035 0.32772824944 0.32879867105 0.33758298001 0.33643647064 0.30541121759 0.32010386245 0.29848089485 
0.3087309759 0.33295086762 0.3300234151 0.31603728443 0.32088709658 0.32542692877 0.32382036675 0.32363450813 0.32421939878 
0.33115891789 0.29131112542 0.29169233552 0.32298115923 0.32310401081 0.32598044918 0.34288479512 0.28950966735 0.2936394267 
0.33799460626 0.33803767331 0.29552316781 0.30067603476 0.33497509814 0.3375847621 0.34013541 0.34139827796 0.37582338893 
0.36915344339 0.31628065443 0.33746579563 0.33799328211 0.33770569532 0.33673417426 0.32653481565 0.33458620769 0.33850184126 
0.32805534346 0.34179238479 0.3336195654 0.32141583386 0.32286636547 0.32377911598 0.32457923548 0.32643814546 0.32723824794 
0.36792704589 0.33542690965 0.33914668985 0.33800405085 0.33334616405 0.32123271308 0.33938008327 0.33917148139 0.32694137109 
0.32541976676 0.33560336462 0.3241055004 0.32530047876 0.32859966889 0.30502974935 0.33659164603 0.32834238604 0.33034752625 
0.33332408616 0.33314235251 0.33325238012 0.32647727761 0.32698473547 0.32293336736 0.3234369923 0.32620410991 0.32522477048 
0.32858065956 0.32279878665 0.32973362884 0.32669976432 0.32783386394 0.33016347943 0.32212790469 0.32808458472 0.33919989366 
0.30567276994 0.30890001913 0.31168118725 0.32062910411 0.30288063256 0.30311695755 0.32947672209 0.33252867708 0.32889292283 
0.33686026876 0.3367454265 0.32779947896 0.3340539799 0.32624399307 0.32665586191 0.3306095467 0.29697517065 0.34358240816 
0.34129363479 0.29302045896 0.31854697977 0.33890784147 0.33787864755 0.33158849698 0.32879694052 0.31303286831 0.34564847816 
0.33447528071 0.33678956289 0.31625328992 0.32515824239 0.32537817694 0.32658045773 0.33603990458 0.3361400059 0.33616092013 
0.25187607636 0.33375872888 0.33333437663 0.33324050385 0.33343977306 0.3335512441 0.33350636705 0.33435668351 0.3282959861 
0.33005884561 0.29290709061 0.30286899601 0.30809038623 0.33428935603 0.2980622975 0.30785452356 0.33427314005 0.32581362869 
0.33513308213 0.33531664445 0.33511497075 0.3340032852 0.33531549437 0.33436618384 0.33005565625 0.32882917708 0.36182850068 
0.36983103371 0.36638000318 0.30780801789 0.32201098979 0.32138690838 0.32586674316 0.32560952411 0.32159044004 0.31940806125 
0.31917418918 0.32333124487 0.33658891669 0.33715954055 0.33650784981 0.33632334243 0.31854836432 0.33600221952 0.33578174225 
0.33472531817 0.33777446805 0.33822628256 0.33520423326 0.33542004901 0.33562096602 0.32352447465 0.33599063858 0.33612458096 
0.32277424503 0.31987111912 0.34959324712 0.33383712071 0.33375826862 0.33624150692 0.34249166532 0.33391379845 0.33488726492 
0.3353442506 0.33296608091 0.33378366634 0.33724935007 0.33663211343 0.33852241129 0.33867970329 0.33047637904 0.33392328217 
0.33336889378 0.3369418578 0.32277934266 0.32907388598 0.32640778615 0.32362531322 0.33335268675 0.30134648431 0.30599964717 
0.28993909486 0.29408513498 0.29456103991 0.3283144105 0.33727989919 0.33609934965 0.30267067102 0.29772811509 0.29799900929 
0.29314370953 0.33781593971 0.33846633951 0.33389848099 0.31941088259 0.32418362765 0.32617011113 0.31534915592 0.24822287303 
0.25041691488 0.33376749552 0.33336154226 0.3334125866 0.33425541655 0.32199043503 0.32918440019 0.32852978352 0.32012184421 
0.3338171065 0.33237782024 0.31832112884 0.31967944118 0.32393025542 0.32452656075 0.32284327855 0.31690217766 0.33304338875 
0.33077542155 0.33367857518 0.33148659382 0.32180846019 0.3228391755 0.32894067793 0.25830365031 0.34390823153 0.32387421986 
0.32425161362 0.29792947258 0.30095883722 0.33420520757 0.2989049144 0.33603328339 0.3372625394 0.33666502468 0.33648942024 
0.33279339116 0.32956735574 0.34283675833 0.34255583207 0.33710672178 0.33851035699 0.34180405712 0.34306301364 0.33168619188 
0.3226971248 0.33383950169 0.33450893128 0.33600092526 0.33499038988 0.33498388294 0.33851825938 0.33688363714 0.34019840651 
0.33342403421 0.33833129407 0.34058578484 0.33951465741 0.3417856969 0.34501304631 0.34378707387 0.3451200121 0.33532328939 
0.33522198278 0.34372218783 0.34480236742 0.34452889681 0.34574227787 0.34104695637 0.34278381378 0.34181585304 0.3454321736 
0.34600062044 0.28148692194 0.32890163445 0.333651092 0.31476223789 0.33216365882 0.33108805326 0.33710816771 0.33667275865 
0.33689856295 0.33675752426 0.32544491202 0.29853784809 0.32908880964 0.33332993367 0.33173657667 0.3209135614 0.3222729826 
0.3364926792 0.33750996107 0.33277184811 0.31365645508 0.31041786024 0.31116559484 0.34166997455 0.34115729643 0.34234563401 
0.34187286439 0.30255787661 0.33389276653 0.31343325207 0.31319546304 0.3283715397 0.32988404659 0.32794954742 0.30369607673 
0.31382016777 0.30881544494 0.3185333077 0.33225797013 0.33253219901 0.33864931266 0.34589260938 0.33654385661 0.33665734895 
0.29593532002 0.33472914744 0.33448574738 0.33817752581 0.32217224807 0.3229427323 0.3220947088 0.33002298426 0.33600795555 
0.32724287719 0.32868417074 0.32822875087 0.33393147031 0.33428756322 0.32701634113 0.35909114359 0.33186272723 0.33189252187 
0.33155268349 0.32983649855 0.32892150374 0.33168475424 0.33116995445 0.33717073427 0.33115510869 0.33071384856 0.33234890919 
0.31644834623 0.34573496067 0.33722145868 0.33595628732 0.3357946166 0.33813338591 0.33788074286 0.33768975624 0.3374569843 
0.33397068584 0.33217866001 0.33166977302 0.30805206872 0.33526067134 0.34055963685 0.33440170869 0.42607802684 0.34010901781 
0.33091122516 0.32321429759 0.33822140904 0.33830036187 0.33921647127 0.34579828976 0.34560620746 0.3452408774 0.34501811446 
0.32950033944 0.30840544064 0.33475525715 0.33961404295 0.32914955047 0.3315855614 0.33769178947 0.33956650732 0.32890190166 
0.33589805219 0.33678932153 0.33558994292 0.33948679285 0.33698112457 0.33577717497 0.33574404685 0.33872288567 0.34375768818 
0.3248641458 0.32394962728 0.32367631375 0.32480473465 0.34164409551 0.30774257559 0.32815299618 0.33655621945 0.32414112869 
0.32383737748 0.33229037427 0.32498300922 0.32467140327 0.32388219208 0.33023981225 0.33618999838 0.32067393096 0.32418147864 
0.33209182919 0.2964862564 0.32770634312 0.33473836379 0.26730246871 0.36060443388 0.33646802326 0.48411157195 0.32869005584 
0.3250334629 0.32674768074 0.33851979687 0.32814448401 0.32960046715 0.29843751673 0.29915443166 0.3363645624 0.35975110063 
0.34538265846 0.34886792795 0.33104253828 0.33130685426 0.29464910922 0.32801391734 0.33322842058 0.31968451531 0.3357130355 
0.33567475809 0.31965927074 0.31779150818 0.32125600075 0.33119672797 0.30247022475 0.33482206282 0.33338776739 0.33142179651 
0.33065446572 0.32451239705 0.32594171499 0.32245872555 0.3209697735 0.32288612103 0.32338789087 0.34041634749 0.32412924733 
0.3381680505 0.33520496479 0.33200420509 0.33253940573 0.33406566246 0.33430632714 0.33328698266 0.33312748971 0.33189999084 
0.33181548606 0.338745201 0.31776783996 0.33137942955 0.29853907563 0.33210813119 0.33224957283 0.33220630134 0.33182770636 
0.33400089957 0.33401586571 0.33436506573 0.3332722474 0.32918908584 0.3321678241 0.33008417418 0.33229349269 0.3350055553 
0.33773564671 0.31106995282 0.32377558229 0.33635992597 0.3362278844 0.34022596403 0.32358440387 0.32270551169 0.32888346289 
0.32833922604 0.33027584427 0.3153252048 0.32496986008 0.32379220823 0.33625152168 0.32856111663 0.3280034523 0.32797241673 
0.32682497914 0.32306735467 0.31371816752 0.33055547296 0.32751449049 0.31927812008 0.32705681767 0.32907826044 0.32440264573 
0.32702180887 0.33302691115 0.34431994185 0.30373351748 0.24374027798 0.29992814528 0.33594535265 0.33654984247 0.33662106967 
0.33649337677 0.32497775913 0.32853988592 0.28565724565 0.28518013254 0.32958431087 0.33571289807 0.33565253331 0.3286713719 
0.32351643666 0.33395258521 0.33189129536 0.33538679979 0.33269166054 0.33338220832 0.33512858997 0.32694372463 0.32757268351 
0.32596562036 0.32471510038 0.24500711438 0.32808507567 0.3288909134 0.33329872569 0.33350744806 0.32917147627 0.32920475176 
0.33724283099 0.33677551749 0.28358705618 0.33352567816 0.33350572302 0.33210930504 0.33212500462 0.33386847769 0.33656313214 
0.28869773857 0.32826057934 0.32823464793 0.3178460349 0.33339953885 0.33500773492 0.32942810153 0.29514951058 0.32701843252 
0.3340061818 0.33444722051 0.30986019563 0.31555635009 0.31621178911 0.24234382569 0.31648884264 0.33603257449 0.35961496216 
0.38072640653 0.3322875201 0.33547215644 0.33311020911 0.32088425563 0.33635488065 0.3346939537 0.33625419974 0.33612023345 
0.33346837579 0.31652089602 0.33254197536 0.3119800781 0.31553373236 0.32067856804 0.3417264745 0.31617288312 0.30467735214 
0.33927488146 0.33470093699 0.32644171245 0.32723519273 0.32975426481 0.33493820607 0.33497149502 0.34036166465 0.31309277843 
0.33035980133 0.3330942493 0.32871506605 0.32809132597 0.32878944856 0.3279930568 0.32753751596 0.34339318587 0.2454462421 
0.30342331416 0.24182985778 0.33471995532 0.33490675795 0.2814061223 0.32988233173 0.32925432704 0.32922047878 0.29049167092 
0.34029448809 0.32364328753 0.31524676186 0.32976429178 0.34338260697 0.34445578515 0.34227181317 0.31616726632 0.32951309858 
0.34313771484 0.32753610045 0.33720790705 0.36117088588 0.34348843775 0.3237473291 0.32382984148 0.32430272523 0.28359198415 
0.31079574884 0.32694999698 0.34354232575 0.31689517931 0.33901884945 0.33489851406 0.334964352 0.3348778294 0.34453454686 
0.2835872987 0.30610786911 0.33332382241 0.30921088121 0.32609109149 0.33658616117 0.33489506139 0.32143138417 0.30166425225 
0.31268542133 0.33776366985 0.33636584128 0.33344075542 0.33334325124 0.33338743084 0.31787496365 0.31309934813 0.32840532065 
0.3317108375 0.33259055871 0.32937839087 0.33253178504 0.33066346915 0.33379069543 0.33459524375 0.30458063522 0.29897355494 
0.32650087351 0.32708312412 0.33287845644 0.32609919995 0.32078292655 0.32698377948 0.32657623648 0.33533335747 0.33556847641 
0.32384659121 0.32086006243 0.33625889489 0.33804622791 0.3377133045 0.33848096858 0.34262483197 0.34175707457 0.30374253136 
0.29956386521 0.30388002862 0.3292799121 0.33535152892 0.38472845807 0.30322797985 0.33459406188 0.33590031921 0.33996174932 
0.32101670017 0.32148101612 0.31772488534 0.3372497496 0.30924515063 0.32839304674 0.32805159905 0.32837305206 0.32950360365 
0.33905528307 0.33866670415 0.33067732786 0.33010274007 0.33047693471 0.33371256293 0.33467715059 0.3274599129 0.33354820131 
0.32907136159 0.31698795375 0.33402746366 0.33293980503 0.29560359863 0.31625431666 0.31487838409 0.31627587932 0.3302958339 
0.33388786927 0.33445418366 0.33508277307 0.33321824866 0.32147834289 0.33011219205 0.31323519807 0.30161552161 0.32723691102 
0.34393503789 0.32229095265 0.33511319424 0.31777188585 0.34558442735 0.33331760791 0.3234404617 0.3245415242 0.3008186624 
0.32499688702 0.34229587246 0.32474351078 0.3038390085 0.33293692324 0.33226836445 0.36457279116 0.28394580361 0.29768496834 
0.29062363037 0.33618757179 0.33819367142 0.33631618505 0.33686605804 0.33664324681 0.3447668342 0.34263293909 0.32437879929 
0.33314621339 0.33025043714 0.3350404806 0.32762642675 0.28788340075 0.33641665228 0.33883306775 0.33274533025 0.28338625388 
0.33816582048 0.33374932341 0.30230690512 0.33044320741 0.32539024112 0.33320240207 0.32705141653 0.32411300561 0.33901097213 
0.3384640394 0.32650120896 0.3250536626 0.24369339824 0.33594650973 0.30849700903 0.33630847664 0.32930954152 0.32401389865 
0.34515029561 0.3390547886 0.31035219763 0.30806286212 0.31407455613 0.31430526532 0.32575550343 0.32668122982 0.33294623996 
0.33348753884 0.32496000799 0.3362343635 0.33684885416 0.31627383467 0.34865908282 0.33983793434 0.31131418367 0.31373538671 
0.35659168373 0.33340647238 0.33526824055 0.34188895341 0.32445185299 0.30225870858 0.32445690483 0.34091334103 0.32260476177 
0.32329059592 0.33450121109 0.32464838868 0.33245722961 0.33248919858 0.3364511556 0.31873050726 0.32911411797 0.32607382817 
0.34228392901 0.6082429981 0.3380086166 0.3316348183 0.32944012393 0.33780288266 0.33846919925 0.33731975393 0.33571684537 
0.33478601146 0.33190209166 0.33422567575 0.32553171133 0.32467870833 0.3302477638 0.32603171114 0.32720585184 0.33018879143 
0.31831302825 0.3182244322 0.32714875797 0.32662861784 0.3337990074 0.3344607136 0.32780307197 0.28181044173 0.32499889858 
0.33290794613 0.32779065008 0.32972257932 0.32697558428 0.33759320907 0.30919697302 0.33829371358 0.33697393744 0.3281469131 
0.31269943145 0.33434916217 0.33150887129 0.33866729155 0.33080416889 0.33283945448 0.32977432672 0.33572385169 0.3410332523 
0.3406816673 0.33842318191 0.33193918121 0.33362811009 0.34236900457 0.33711867271 0.33871359391 0.33789475187 0.33766144308 
0.3388933587 0.33699289422 0.34277828124 0.32654658651 0.33333439055 0.32566390569 0.33015840738 0.33353228178 0.31599677596 
0.33621293471 0.34471234508 0.33184911566 0.30546625482 0.28773735888 0.3314074117 0.3212826712 0.28727164837 0.32861069336 
0.33259688723 0.33707976147 0.33752424473 0.33338216559 0.32531898507 0.3280156729 0.32728362392 0.33817598749 0.32933729326 
0.33304649568 0.34211516963 0.30220570357 0.32358943784 0.31559770647 0.33996136436 0.33920108385 0.32696658399 0.33835353638 
0.33665741008 0.33203044904 0.31806334624 0.32908524739 0.3352883348 0.32911092523 0.32473603239 0.30998083085 0.30457788343 
0.325512013 0.32192422096 0.32948288263 0.2914615899 0.3321993094 0.334022332 0.32093892365 0.33127440501 0.33844936279 
0.32419317318 0.33705450547 0.33560197158 0.33829386963 0.28783277902 0.32021654626 0.3298418611 0.33529468577 0.31821650578 
0.32091534268 0.33468351387 0.33163784717 0.34256912884 0.34249508177 0.34944718024 0.3351179175 0.31313453875 0.33060493231 
0.3314161089 0.33580670399 0.33137233379 0.29996737061 0.32926116438 0.33761733074 0.33794541669 0.33785252357 0.3382916631 
0.3229870272 0.32919043423 0.33495946659 0.3369682401 0.33960906536 0.3105828514 0.31937623754 0.33688999214 0.33650089475 
0.33325282643 0.30795574918 0.31328483263 0.33652201535 0.33599394428 0.32766471409 0.33293445421 0.32990937378 0.30723941839 
0.28253418711 0.24597568464 0.33087889045 0.3140518983 0.32733279928 0.3364324942 0.3276257887 0.32645882376 0.33633695396 
0.33699228696 0.30594736766 0.33511495685 0.33745448674 0.33328691259 0.33302147329 0.29542239023 0.33384743708 0.33648330857 
0.31911016618 0.31266034565 0.33682039898 0.33675176631 0.2883197258 0.33332033474 0.33256992063 0.33218395526 0.29929394259 
0.3196967105 0.2879625956 0.3287168024 0.34406699052 0.32439851493 0.32798816752 0.31202386769 0.31620926566 0.3402486156 
0.33542036488 0.3255826616 0.30098115983 0.33479674148 0.3286505923 0.29000351443 0.31467153576 0.33283323999 0.33187267877 
0.33613368925 0.33853547094 0.32837738812 0.28624878707 0.35304913111 0.33174786929 0.39057481405 0.39944238153 0.36787843339 
0.33429185151 0.32771226536 0.33587491005 0.32697426161 0.33589860058 0.32635210984 0.33600435992 0.33613898083 0.33421169988 
0.32913099435 0.32538319668 0.32047878572 0.33687715146 0.33263678131 0.31665176917 0.3208612422 0.33920313259 0.33533144757 
0.33515448608 0.33730625864 0.33440024734 0.33785327687 0.33611354986 0.31734396666 0.33154945502 0.31716737909 0.33610198834 
0.33614291495 0.32531175412 0.3308039023 0.33030084167 0.31425784426 0.33677515193 0.31786859134 0.32528929494 0.33957268278 
0.3360236709 0.33256318794 0.32712114917 0.3238114043 0.33470271586 0.33538562581 0.33793749421 0.33233759871 0.31364692188 
0.25844135824 0.33420688116 0.29775470167 0.33493583165 0.32273612524 0.3423522022 0.32691150571 0.32976071833 0.3356628274 
0.31725650738 0.3205013591 0.3348248284 0.33418064607 0.33428778427 0.33738605276 0.32590863175 0.31038474653 0.33643386516 
0.33567720394 0.32929671309 0.32836779908 0.3350154805 0.33297948538 0.60595080997 0.65425830934 
