# vtk DataFile Version 4.2
vtk output
ASCII
DATASET UNSTRUCTURED_GRID
POINTS 13529 float
-6.78415 -49.2584 2 -6.78415 -49.2584 0 -71.7842 -49.2584 2 
-71.7842 -49.2584 0 -6.78415 50.7416 2 -6.78415 50.7416 0 
-71.7842 50.7416 2 -71.7842 50.7416 0 -42.0132 12 2 
-54.0132 0 2 -42.0132 0 2 -27.9984 0 2 
-39.9984 12 2 -39.9984 0 2 -54.0007 -2.00067 2 
-42.0007 -14.0007 2 -42.0007 -2.00067 2 -40.0038 -14.0372 2 
-28.0038 -2.03721 2 -40.0038 -2.03721 2 -42.0132 12 0 
-54.0132 0 0 -42.0132 0 0 -27.9984 0 0 
-39.9984 12 0 -39.9984 0 0 -54.0007 -2.00067 0 
-42.0007 -14.0007 0 -42.0007 -2.00067 0 -40.0038 -14.0372 0 
-28.0038 -2.03721 0 -40.0038 -2.03721 0 -57.2376 -1.0443 2 
-57.2376 -1.0443 0 -40.9748 15.2199 2 -40.9748 15.2199 0 
-40.9734 -17.307 2 -40.9734 -17.307 0 -24.7106 -1.04283 2 
-24.7106 -1.04283 0 -42.0132 2.076 2 -42.0132 3.996 2 
-42.0132 5.88 2 -42.0132 7.92 2 -42.0132 9.864 2 
-43.5972 10.416 2 -45.0372 8.976 2 -46.5012 7.512 2 
-48.0132 6 2 -49.5252 4.488 2 -51.0372 2.976 2 
-52.4652 1.548 2 -44.0052 0 2 -46.1652 0 2 
-48.0492 0 2 -49.9452 0 2 -51.9252 0 2 
-42.0132 2.448 0 -42.0132 5.004 0 -42.0132 7.416 0 
-42.0132 9.792 0 -43.4892 10.524 0 -45.0372 8.976 0 
-46.5012 7.512 0 -47.9412 6.072 0 -49.3692 4.644 0 
-50.8812 3.132 0 -52.5492 1.464 0 -44.2452 0 0 
-46.9452 0 0 -49.5492 0 0 -51.9012 0 0 
-37.5144 0 2 -34.9464 0 2 -32.6664 0 2 
-30.3504 0 2 -38.4624 10.464 2 -37.0224 9.024 2 
-35.4624 7.464 2 -34.0104 6.012 2 -32.5104 4.512 2 
-31.0224 3.024 2 -29.5584 1.56 2 -39.9984 2.076 2 
-39.9984 3.984 2 -39.9984 6 2 -39.9984 7.956 2 
-39.9984 9.972 2 -37.5504 0 0 -34.9944 0 0 
-32.7384 0 0 -30.2304 0 0 -38.4984 10.5 0 
-36.9504 8.952 0 -35.4864 7.488 0 -34.0224 6.024 0 
-32.5104 4.512 0 -30.9504 2.952 0 -29.4624 1.464 0 
-39.9984 2.148 0 -39.9984 3.996 0 -39.9984 5.988 0 
-39.9984 7.932 0 -39.9984 10.032 0 -43.9207 -2.00067 2 
-45.9967 -2.00067 2 -48.0487 -2.00067 2 -50.2447 -2.00067 2 
-52.1287 -2.00067 2 -52.4287 -3.57267 2 -50.9887 -5.01267 2 
-49.5607 -6.44067 2 -48.0607 -7.94067 2 -46.6087 -9.39267 2 
-45.1567 -10.8447 2 -43.4887 -12.5127 2 -42.0007 -4.06467 2 
-42.0007 -5.99667 2 -42.0007 -8.06067 2 -42.0007 -9.98067 2 
-42.0007 -12.0687 2 -44.4007 -2.00067 0 -46.9087 -2.00067 0 
-49.5727 -2.00067 0 -51.9247 -2.00067 0 -52.4767 -3.52467 0 
-50.9647 -5.03667 0 -49.3327 -6.66867 0 -47.8687 -8.13267 0 
-46.4047 -9.59667 0 -44.9287 -11.0727 0 -43.5007 -12.5007 0 
-42.0007 -3.94467 0 -42.0007 -6.00867 0 -42.0007 -7.98867 0 
-42.0007 -10.0647 0 -42.0007 -11.9967 0 -40.0038 -4.01721 2 
-40.0038 -6.04521 2 -40.0038 -8.20521 2 -40.0038 -10.1972 2 
-40.0038 -12.1172 2 -29.4918 -3.52521 2 -30.9798 -5.01321 2 
-32.4678 -6.50121 2 -34.0038 -8.03721 2 -35.4678 -9.50121 2 
-37.0158 -11.0492 2 -38.4798 -12.5132 2 -37.6158 -2.03721 2 
-35.0718 -2.03721 2 -32.5518 -2.03721 2 -30.1758 -2.03721 2 
-40.0038 -4.06521 0 -40.0038 -6.05721 0 -40.0038 -8.08521 0 
-40.0038 -10.0772 0 -40.0038 -12.1052 0 -29.4798 -3.51321 0 
-30.9798 -5.01321 0 -32.5158 -6.54921 0 -34.0878 -8.12121 0 
-35.6838 -9.71721 0 -37.1478 -11.1812 0 -38.5518 -12.5852 0 
-38.0358 -2.03721 0 -36.0198 -2.03721 0 -33.9438 -2.03721 0 
-31.9038 -2.03721 0 -29.9118 -2.03721 0 -8.86415 -49.2584 0 
-11.2042 -49.2584 0 -13.7392 -49.2584 0 -16.1442 -49.2584 0 
-18.8742 -49.2584 0 -21.6042 -49.2584 0 -24.3992 -49.2584 0 
-27.1942 -49.2584 0 -30.0542 -49.2584 0 -32.9792 -49.2584 0 
-35.5792 -49.2584 0 -38.2442 -49.2584 0 -40.8442 -49.2584 0 
-43.1842 -49.2584 0 -45.7842 -49.2584 0 -48.4492 -49.2584 0 
-51.2442 -49.2584 0 -54.0392 -49.2584 0 -56.7042 -49.2584 0 
-59.3692 -49.2584 0 -62.1642 -49.2584 0 -64.7642 -49.2584 0 
-67.2342 -49.2584 0 -69.7042 -49.2584 0 -9.12415 -49.2584 2 
-11.2042 -49.2584 2 -13.2842 -49.2584 2 -15.2992 -49.2584 2 
-17.4442 -49.2584 2 -19.7842 -49.2584 2 -21.7992 -49.2584 2 
-24.0742 -49.2584 2 -26.2192 -49.2584 2 -28.3642 -49.2584 2 
-30.7692 -49.2584 2 -32.9142 -49.2584 2 -35.0592 -49.2584 2 
-37.3342 -49.2584 2 -39.3492 -49.2584 2 -41.4942 -49.2584 2 
-43.5092 -49.2584 2 -45.8492 -49.2584 2 -47.9292 -49.2584 2 
-50.1392 -49.2584 2 -52.3492 -49.2584 2 -54.4292 -49.2584 2 
-56.7692 -49.2584 2 -59.0442 -49.2584 2 -61.1242 -49.2584 2 
-63.4642 -49.2584 2 -65.4792 -49.2584 2 -67.6242 -49.2584 2 
-69.7042 -49.2584 2 -69.6392 50.7416 2 -67.6242 50.7416 2 
-65.3492 50.7416 2 -63.2692 50.7416 2 -61.0592 50.7416 2 
-58.8492 50.7416 2 -56.7692 50.7416 2 -54.4942 50.7416 2 
-52.1542 50.7416 2 -50.0742 50.7416 2 -47.7992 50.7416 2 
-45.7192 50.7416 2 -43.6392 50.7416 2 -41.6242 50.7416 2 
-39.4142 50.7416 2 -37.2042 50.7416 2 -35.1242 50.7416 2 
-32.7842 50.7416 2 -30.7692 50.7416 2 -28.5592 50.7416 2 
-26.0892 50.7416 2 -24.0742 50.7416 2 -21.8642 50.7416 2 
-19.7192 50.7416 2 -17.6392 50.7416 2 -15.5592 50.7416 2 
-13.4142 50.7416 2 -11.3992 50.7416 2 -9.12415 50.7416 2 
-71.7842 -47.0584 2 -71.7842 -44.9585 2 -71.7842 -42.7584 2 
-71.7842 -40.7584 2 -71.7842 -38.6585 2 -71.7842 -36.2584 2 
-71.7842 -34.1585 2 -71.7842 -31.9585 2 -71.7842 -29.6585 2 
-71.7842 -27.6585 2 -71.7842 -25.5585 2 -71.7842 -23.2584 2 
-71.7842 -21.0585 2 -71.7842 -18.6585 2 -71.7842 -16.5585 2 
-71.7842 -14.5584 2 -71.7842 -12.3584 2 -71.7842 -10.1585 2 
-71.7842 -8.05845 2 -71.7842 -5.85845 2 -71.7842 -3.75845 2 
-71.7842 -1.55845 2 -71.7842 0.74155 2 -71.7842 2.94155 2 
-71.7842 5.24155 2 -71.7842 7.44155 2 -71.7842 9.54155 2 
-71.7842 11.7415 2 -71.7842 13.8415 2 -71.7842 16.0415 2 
-71.7842 18.0415 2 -71.7842 20.1416 2 -71.7842 22.4415 2 
-71.7842 24.5415 2 -71.7842 26.7416 2 -71.7842 29.2416 2 
-71.7842 31.3415 2 -71.7842 33.4416 2 -71.7842 35.7416 2 
-71.7842 37.8415 2 -71.7842 39.8415 2 -71.7842 42.1415 2 
-71.7842 44.2416 2 -71.7842 46.4416 2 -71.7842 48.4416 2 
-6.78415 48.5415 2 -6.78415 46.4416 2 -6.78415 44.3415 2 
-6.78415 42.2416 2 -6.78415 40.1415 2 -6.78415 37.7416 2 
-6.78415 35.5415 2 -6.78415 33.1415 2 -6.78415 31.1416 2 
-6.78415 29.0415 2 -6.78415 26.8415 2 -6.78415 24.4415 2 
-6.78415 22.3415 2 -6.78415 20.2416 2 -6.78415 18.1416 2 
-6.78415 15.7415 2 -6.78415 13.6416 2 -6.78415 11.5415 2 
-6.78415 9.44155 2 -6.78415 7.24155 2 -6.78415 5.14155 2 
-6.78415 2.94155 2 -6.78415 0.74155 2 -6.78415 -1.35845 2 
-6.78415 -3.65845 2 -6.78415 -5.75845 2 -6.78415 -7.75845 2 
-6.78415 -10.0584 2 -6.78415 -12.1585 2 -6.78415 -14.4585 2 
-6.78415 -16.5585 2 -6.78415 -18.6585 2 -6.78415 -20.8584 2 
-6.78415 -22.9585 2 -6.78415 -25.3584 2 -6.78415 -27.4585 2 
-6.78415 -29.5585 2 -6.78415 -31.7584 2 -6.78415 -33.9585 2 
-6.78415 -36.2584 2 -6.78415 -38.4585 2 -6.78415 -40.5584 2 
-6.78415 -42.6585 2 -6.78415 -44.8585 2 -6.78415 -46.8585 2 
-26.158 -2.49034 2 -27.6217 -3.95412 2 -29.1992 -5.53175 2 
-30.6465 -6.97926 2 -32.0939 -8.42677 2 -33.525 -9.85802 2 
-35.0212 -11.3543 2 -36.5011 -12.8344 2 -37.9485 -14.2819 2 
-39.3796 -15.7131 2 -42.4371 -15.8434 2 -43.9009 -14.3797 2 
-45.5273 -12.7535 2 -47.0399 -11.241 2 -48.5362 -9.74486 2 
-49.9837 -8.29748 2 -51.3824 -6.89888 2 -52.895 -5.38645 2 
-54.4076 -3.87402 2 -55.8226 -2.45916 2 -55.6601 0.533324 2 
-54.2777 1.91578 2 -52.7816 3.41209 2 -51.2854 4.90839 2 
-49.7567 6.43723 2 -48.2605 7.93353 2 -46.8457 9.34852 2 
-45.3983 10.796 2 -43.9997 12.1947 2 -42.5361 13.6585 2 
-39.5273 13.7725 2 -37.9497 12.195 2 -36.5022 10.7476 2 
-35.0547 9.30026 2 -33.5909 7.83661 2 -32.1271 6.37297 2 
-30.7284 4.97437 2 -29.1996 3.44568 2 -27.752 1.9983 2 
-26.1907 0.437076 2 -69.5742 50.7416 0 -66.9742 50.7416 0 
-64.1792 50.7416 0 -61.6442 50.7416 0 -58.9142 50.7416 0 
-56.1842 50.7416 0 -53.1942 50.7416 0 -50.0742 50.7416 0 
-47.4092 50.7416 0 -44.8742 50.7416 0 -41.7542 50.7416 0 
-38.8942 50.7416 0 -36.0992 50.7416 0 -33.4342 50.7416 0 
-30.7692 50.7416 0 -27.8442 50.7416 0 -24.9842 50.7416 0 
-22.2542 50.7416 0 -19.3942 50.7416 0 -16.6642 50.7416 0 
-13.9992 50.7416 0 -11.3992 50.7416 0 -8.86415 50.7416 0 
-71.7842 -46.9585 0 -71.7842 -44.2584 0 -71.7842 -41.5584 0 
-71.7842 -38.9585 0 -71.7842 -35.8585 0 -71.7842 -33.1585 0 
-71.7842 -30.3584 0 -71.7842 -27.8584 0 -71.7842 -25.2584 0 
-71.7842 -22.1585 0 -71.7842 -19.4585 0 -71.7842 -16.6585 0 
-71.7842 -14.0584 0 -71.7842 -11.7585 0 -71.7842 -9.35845 0 
-71.7842 -6.65845 0 -71.7842 -3.95845 0 -71.7842 -1.15845 0 
-71.7842 1.54155 0 -71.7842 4.14155 0 -71.7842 6.74155 0 
-71.7842 9.34155 0 -71.7842 12.4416 0 -71.7842 15.1416 0 
-71.7842 17.7416 0 -71.7842 20.3415 0 -71.7842 23.1416 0 
-71.7842 25.8415 0 -71.7842 28.7416 0 -71.7842 31.3415 0 
-71.7842 33.6415 0 -71.7842 36.3415 0 -71.7842 38.9416 0 
-71.7842 41.2416 0 -71.7842 43.8415 0 -71.7842 46.3415 0 
-71.7842 48.7416 0 -6.78415 48.5415 0 -6.78415 45.8415 0 
-6.78415 43.2416 0 -6.78415 40.7416 0 -6.78415 37.8415 0 
-6.78415 35.2416 0 -6.78415 32.3415 0 -6.78415 29.8415 0 
-6.78415 26.9415 0 -6.78415 24.2416 0 -6.78415 21.6416 0 
-6.78415 18.7416 0 -6.78415 15.9416 0 -6.78415 13.3415 0 
-6.78415 10.7415 0 -6.78415 8.34155 0 -6.78415 5.74155 0 
-6.78415 3.14155 0 -6.78415 0.14155 0 -6.78415 -2.35845 0 
-6.78415 -5.25845 0 -6.78415 -8.05845 0 -6.78415 -10.7585 0 
-6.78415 -13.5584 0 -6.78415 -16.4585 0 -6.78415 -19.2584 0 
-6.78415 -22.0585 0 -6.78415 -24.8584 0 -6.78415 -27.5585 0 
-6.78415 -30.3584 0 -6.78415 -33.2584 0 -6.78415 -36.0584 0 
-6.78415 -38.7584 0 -6.78415 -41.4585 0 -6.78415 -44.2584 0 
-6.78415 -46.7584 0 -26.158 -2.49034 0 -27.7355 -4.06797 0 
-29.1992 -5.53175 0 -30.7441 -7.07685 0 -32.1752 -8.5081 0 
-33.6551 -9.98814 0 -35.1025 -11.4356 0 -36.5336 -12.8669 0 
-37.9648 -14.2981 0 -39.3959 -15.7294 0 -42.4371 -15.8434 0 
-43.8521 -14.4285 0 -45.3972 -12.8836 0 -46.8447 -11.4362 0 
-48.3248 -9.95627 0 -49.7886 -8.49263 0 -51.3174 -6.96393 0 
-52.8137 -5.46776 0 -54.3425 -3.93907 0 -55.8063 -2.47542 0 
-55.6601 0.533324 0 -54.0013 2.19227 0 -52.4238 3.7699 0 
-50.7975 5.39632 0 -49.1875 7.00647 0 -47.4799 8.71421 0 
-45.8699 10.3244 0 -44.0973 12.0972 0 -42.5198 13.6748 0 
-39.5761 13.8213 0 -38.1937 12.439 0 -36.7461 10.9916 0 
-35.2336 9.47915 0 -33.7373 7.98298 0 -32.2898 6.5356 0 
-30.7934 5.03943 0 -29.1996 3.44568 0 -27.5894 1.83567 0 
-26.1907 0.437076 0 -43.6831 2.62183 2 -43.8443 4.7131 2 
-44.1464 6.86061 2 -47.6345 3.8498 2 -49.1599 2.05421 2 
-45.222 1.55558 2 -50.8554 1.3416 2 -45.9722 5.44782 2 
-47.1003 1.798 2 -45.582 3.36639 2 -44.3501 4.13458 0 
-44.224 6.58916 0 -47.0912 3.97794 0 -48.5535 2.21867 0 
-45.5367 2.06227 0 -46.0475 5.68537 0 -50.6551 1.34935 0 
-35.7448 1.93063 2 -33.3024 2.19385 2 -37.8533 7.09725 2 
-36.0835 5.65827 2 -38.6578 8.88736 2 -38.0937 2.67592 2 
-31.4352 1.42516 2 -34.5717 3.99078 2 -38.1579 4.94326 2 
-36.5106 3.8462 2 -36.0232 2.17004 0 -33.8059 2.04281 0 
-38.5087 8.57922 0 -37.1744 6.78487 0 -35.5937 5.7048 0 
-31.832 1.73997 0 -38.1512 2.92573 0 -38.4555 5.02346 0 
-34.6471 4.05048 0 -38.806 6.88721 0 -36.7334 4.28737 0 
-44.621 -3.67184 2 -46.8664 -3.88421 2 -49.1174 -4.12555 2 
-47.5975 -5.87656 2 -46.1004 -7.46567 2 -44.6397 -8.8983 2 
-43.6025 -5.19399 2 -50.9369 -3.35838 2 -43.5149 -10.2797 2 
-43.9452 -6.93894 2 -45.531 -5.50439 2 -45.4545 -4.63263 0 
-49.0171 -4.16104 0 -45.8417 -7.32473 0 -44.0929 -8.99265 0 
-43.5535 -4.0967 0 -50.7492 -3.30135 0 -43.3751 -10.8784 0 
-47.446 -5.58681 0 -43.8296 -6.62401 0 -37.9716 -4.9052 2 
-38.347 -7.03603 2 -37.797 -8.97659 2 -31.2803 -3.37331 2 
-33.2386 -4.24218 2 -34.3321 -6.01656 2 -35.8175 -4.27268 2 
-36.1695 -7.04421 2 -38.4325 -5.26737 0 -38.1611 -7.12196 0 
-37.9066 -9.16856 0 -31.6478 -3.4501 0 -33.1533 -4.53508 0 
-34.5781 -6.06983 0 -36.1799 -7.74676 0 -37.3521 -3.72799 0 
-35.193 -3.96003 0 -38.7288 -11.0467 0 -36.5582 -5.65124 0 
-68.9845 48.9774 2 -66.7956 48.8799 2 -64.4986 48.8544 2 
-62.3235 48.828 2 -60.0592 48.8487 2 -57.875 48.82 2 
-55.5928 48.8079 2 -53.2964 48.7473 2 -51.1603 48.7761 2 
-48.9769 48.769 2 -46.7712 48.7837 2 -44.7173 48.7965 2 
-42.577 48.7652 2 -40.4239 48.7411 2 -38.2686 48.7478 2 
-36.095 48.7685 2 -33.8951 48.7621 2 -31.7814 48.7693 2 
-29.5524 48.7729 2 -27.2681 48.763 2 -25.1381 48.7827 2 
-22.9497 48.7579 2 -20.7424 48.7907 2 -18.6674 48.7875 2 
-16.5307 48.8862 2 -14.3957 48.9539 2 -12.3103 49.0129 2 
-10.2568 49.0813 2 -8.3305 49.2587 2 -70.1589 -45.8423 2 
-69.8953 -43.8948 2 -69.7586 -41.8327 2 -69.6836 -39.7294 2 
-69.6647 -37.4843 2 -69.6265 -35.2592 2 -69.6481 -33.0371 2 
-69.6957 -30.7868 2 -69.645 -28.6741 2 -69.6039 -26.4708 2 
-69.6976 -24.3722 2 -69.755 -22.138 2 -69.7753 -19.9027 2 
-69.717 -17.6316 2 -69.7144 -15.4794 2 -69.773 -13.4039 2 
-69.7997 -11.2494 2 -69.8239 -9.08008 2 -69.7925 -6.84402 2 
-69.7503 -4.6664 2 -69.7124 -2.55973 2 -69.7352 -0.375052 2 
-69.7937 1.81375 2 -69.8019 4.07614 2 -69.7819 6.34769 2 
-69.787 8.52425 2 -69.8149 10.6414 2 -69.7893 12.8145 2 
-69.7773 14.9773 2 -69.762 17.0372 2 -69.7673 19.1697 2 
-69.7578 21.3801 2 -69.7216 23.5506 2 -69.7111 25.727 2 
-69.6497 28.117 2 -69.7078 30.33 2 -69.7659 32.4745 2 
-69.7969 34.6163 2 -69.7651 36.8675 2 -69.7401 39.0537 2 
-69.7726 41.1465 2 -69.8157 43.356 2 -69.9504 45.4107 2 
-70.1559 47.2944 2 -8.75771 47.3126 2 -8.4231 45.1193 2 
-8.53217 43.0186 2 -8.55904 40.8625 2 -8.57102 38.7014 2 
-8.59445 36.4273 2 -8.67371 34.1226 2 -8.70919 32.0268 2 
-8.68045 29.8642 2 -8.70529 27.5698 2 -8.73419 25.2815 2 
-8.71341 23.1413 2 -8.68768 20.9532 2 -8.64161 18.8907 2 
-8.68612 16.6914 2 -8.67724 14.3884 2 -8.68311 12.3509 2 
-8.6575 10.2683 2 -8.60852 8.09445 2 -8.56022 5.95619 2 
-8.59425 3.68946 2 -8.64088 1.52902 2 -8.61699 -0.523148 2 
-8.65421 -2.78052 2 -8.6424 -4.87536 2 -8.62927 -6.99697 2 
-8.65494 -9.21844 2 -8.64136 -11.4021 2 -8.58311 -13.541 2 
-8.5545 -15.7123 2 -8.57535 -17.8927 2 -8.6242 -20.1008 2 
-8.65319 -22.2219 2 -8.67595 -24.4804 2 -8.64866 -26.5942 2 
-8.69868 -28.7766 2 -8.69963 -30.9868 2 -8.69808 -33.2183 2 
-8.67779 -35.3686 2 -8.63015 -37.6018 2 -8.68656 -39.8344 2 
-8.69386 -42.0008 2 -8.63291 -44.1319 2 -8.55476 -46.3286 2 
-10.2323 -47.5867 2 -12.0655 -47.3529 2 -14.1297 -47.2607 2 
-16.311 -47.2668 2 -18.5074 -47.2475 2 -20.7914 -47.2576 2 
-22.9393 -47.2083 2 -25.148 -47.1848 2 -27.3482 -47.1649 2 
-29.6426 -47.2574 2 -31.7887 -47.2346 2 -34.0199 -47.2135 2 
-36.2239 -47.2152 2 -38.3374 -47.2265 2 -40.4269 -47.2414 2 
-42.5816 -47.1965 2 -44.7943 -47.1902 2 -47.0035 -47.2061 2 
-49.1724 -47.1829 2 -51.362 -47.1751 2 -53.5289 -47.2031 2 
-55.8408 -47.2485 2 -58.0339 -47.2454 2 -60.1307 -47.2709 2 
-62.4302 -47.3443 2 -64.644 -47.3551 2 -66.796 -47.3704 2 
-69.0283 -47.4788 2 -23.9837 -2.88159 2 -25.5051 -4.46125 2 
-27.0507 -5.98255 2 -28.5799 -7.57514 2 -30.0502 -9.05781 2 
-31.4898 -10.5355 2 -32.9097 -12.0197 2 -34.4358 -13.6219 2 
-35.942 -15.0799 2 -37.5175 -16.4461 2 -39.0352 -17.6871 2 
-43.0284 -18.0605 2 -44.5565 -16.6782 2 -46.0814 -15.2126 2 
-47.6718 -13.6059 2 -49.2513 -11.9526 2 -50.7777 -10.4334 2 
-52.1869 -8.99151 2 -53.7255 -7.45949 2 -55.2409 -5.9183 2 
-56.7547 -4.39916 2 -58.2828 -2.84458 2 -58.1431 0.795788 2 
-56.7171 2.45213 2 -55.269 4.00445 2 -53.7332 5.62785 2 
-52.1576 7.17124 2 -50.6069 8.67268 2 -49.0536 10.156 2 
-47.5949 11.6992 2 -46.0473 13.2459 2 -44.5073 14.7851 2 
-42.8078 16.3172 2 -38.9708 16.1732 2 -37.4114 14.615 2 
-35.7893 13.1898 2 -34.1909 11.6704 2 -32.6505 10.1271 2 
-31.1568 8.58887 2 -29.7298 7.13187 2 -28.1724 5.62737 2 
-26.7444 4.00771 2 -25.298 2.34133 2 -23.8607 0.573619 2 
-22.6363 -1.24575 2 -41.6645 -19.4331 2 -39.6082 -19.9247 2 
-59.6262 -0.960265 2 -40.7806 17.7521 2 -21.6545 -3.30798 2 
-65.9368 46.7554 2 -63.5732 46.8356 2 -61.3757 46.8107 2 
-59.0596 46.6939 2 -56.782 46.6652 2 -54.405 46.6272 2 
-52.2409 46.6096 2 -50.0514 46.6389 2 -47.8839 46.6512 2 
-45.7617 46.6431 2 -43.6016 46.5706 2 -41.4319 46.5974 2 
-39.3073 46.6069 2 -37.1128 46.6102 2 -34.9745 46.6294 2 
-32.8516 46.5916 2 -30.6404 46.5995 2 -28.3281 46.6328 2 
-26.179 46.6505 2 -24.0227 46.6577 2 -21.811 46.6426 2 
-19.6094 46.6098 2 -17.5331 46.5766 2 -15.354 46.6159 2 
-13.2343 46.9967 2 -11.0986 47.3305 2 -26.3603 -8.18363 2 
-67.7594 -43.2801 2 -67.5211 -40.9536 2 -67.4192 -38.7162 2 
-67.4419 -36.3771 2 -67.4372 -34.1997 2 -67.4471 -31.9378 2 
-67.4813 -29.7313 2 -67.4286 -27.4693 2 -67.4658 -25.3864 2 
-67.5143 -23.2359 2 -67.5598 -20.9943 2 -67.5463 -18.7487 2 
-67.5425 -16.4473 2 -67.6062 -14.3921 2 -67.7054 -12.2769 2 
-67.7587 -10.1238 2 -67.736 -7.8808 2 -67.7477 -5.65653 2 
-67.562 -3.54618 2 -67.4032 -1.47311 2 -67.5182 0.732352 2 
-67.5898 3.03787 2 -67.5261 5.24798 2 -67.6068 7.48992 2 
-67.6981 9.54105 2 -67.7187 11.6824 2 -67.708 13.9176 2 
-67.631 15.9532 2 -67.6205 18.096 2 -67.6023 20.4151 2 
-67.5689 22.5918 2 -67.5371 24.6886 2 -67.4833 27.0983 2 
-67.4707 29.2836 2 -67.5332 31.399 2 -67.5951 33.6009 2 
-67.5675 35.8479 2 -67.6338 38.1145 2 -67.6599 40.2669 2 
-67.6013 42.5136 2 -67.7429 44.7583 2 -68.2117 47.065 2 
-10.4791 -45.6081 2 -68.21 -45.4876 2 -10.059 45.7566 2 
-10.2312 43.8975 2 -10.3531 41.7365 2 -10.4264 39.6479 2 
-10.5145 37.3648 2 -10.6351 35.1073 2 -10.6895 32.8974 2 
-10.6549 30.7065 2 -10.7111 28.4016 2 -10.6901 26.1748 2 
-10.6591 23.961 2 -10.6174 21.8006 2 -10.6795 19.6274 2 
-10.7144 17.4909 2 -10.782 15.2421 2 -10.7704 13.1085 2 
-10.7143 11.057 2 -10.6474 8.89404 2 -10.5532 6.78347 2 
-10.5076 4.52632 2 -10.5522 2.34918 2 -10.5933 0.288138 2 
-10.6465 -1.86935 2 -10.5555 -4.0613 2 -10.5528 -6.14696 2 
-10.5806 -8.33613 2 -10.579 -10.5552 2 -10.5441 -12.6407 2 
-10.5451 -14.873 2 -10.5532 -17.0454 2 -10.554 -19.3318 2 
-10.5984 -21.4056 2 -10.6311 -23.6424 2 -10.6906 -25.7825 2 
-10.7078 -27.9821 2 -10.6771 -30.1255 2 -10.6837 -32.4031 2 
-10.6215 -34.5546 2 -10.6006 -36.8251 2 -10.5829 -39.064 2 
-10.6197 -41.2878 2 -10.6758 -43.3987 2 -21.5742 0.53609 2 
-12.619 -45.1612 2 -14.898 -45.0629 2 -17.2715 -45.1295 2 
-19.5198 -45.0933 2 -21.8992 -45.0812 2 -24.0828 -44.9805 2 
-26.2654 -44.9458 2 -28.4509 -44.9525 2 -30.7816 -45.0316 2 
-32.9286 -44.9761 2 -35.144 -44.9721 2 -37.2576 -45.0408 2 
-39.394 -45.0668 2 -41.638 -45.0166 2 -43.7654 -44.9709 2 
-45.9935 -44.9421 2 -48.2219 -44.9304 2 -50.3869 -44.9125 2 
-52.5682 -44.9262 2 -54.8418 -44.927 2 -57.1605 -45.0072 2 
-59.2299 -45.1345 2 -61.4172 -45.3189 2 -63.7694 -45.3138 2 
-66.0143 -45.2055 2 -24.7762 -6.61373 2 -43.5302 -20.426 2 
-23.2058 -5.00399 2 -27.8952 -9.70288 2 -29.338 -11.2498 2 
-30.8223 -12.809 2 -32.2649 -14.4149 2 -33.8212 -15.909 2 
-35.5287 -17.4474 2 -37.3549 -18.8648 2 -60.7556 1.02664 2 
-46.7333 -17.5169 2 -45.1524 -18.9992 2 -49.9585 -14.3809 2 
-51.5769 -12.7407 2 -53.0078 -11.1941 2 -54.5647 -9.69053 2 
-56.1893 -8.14997 2 -57.7727 -6.60575 2 -59.4562 -4.85224 2 
-61.0977 -2.93813 2 -38.3752 18.9337 2 -57.8928 4.66441 2 
-59.4036 2.89996 2 -54.7905 7.93713 2 -53.1443 9.53284 2 
-51.5953 11.0747 2 -49.9714 12.6878 2 -48.3501 14.2495 2 
-46.6604 15.8899 2 -44.8691 17.5838 2 -42.7722 19.2187 2 
-34.935 15.6494 2 -36.6231 17.2222 2 -31.7117 12.6315 2 
-30.1177 11.0728 2 -28.6561 9.53628 2 -27.073 7.88462 2 
-25.6577 6.17422 2 -24.2109 4.41649 2 -22.824 2.52929 2 
-48.3184 -15.9754 2 -56.363 6.32884 2 -33.3179 14.171 2 
-20.0392 -1.49528 2 -41.5583 -21.7182 2 -62.2941 -0.880825 2 
-40.4081 20.6884 2 -62.6052 44.975 2 -60.4916 44.6386 2 
-58.1014 44.4852 2 -55.695 44.3982 2 -53.2876 44.3616 2 
-51.0934 44.3335 2 -48.9413 44.4127 2 -46.81 44.3572 2 
-44.6786 44.174 2 -42.5203 44.0903 2 -40.3154 44.1847 2 
-38.2507 44.4347 2 -36.0833 44.5009 2 -33.8954 44.3239 2 
-31.6976 44.2631 2 -29.4667 44.3031 2 -27.2082 44.4233 2 
-25.0487 44.4646 2 -22.8842 44.4022 2 -20.6606 44.3871 2 
-18.4605 44.2897 2 -16.1763 44.31 2 -14.0406 44.6236 2 
-11.9158 45.1451 2 -22.3906 -7.30162 2 -27.096 -11.9969 2 
-19.0614 -4.06529 2 -65.1946 -42.7461 2 -43.8131 -23.0243 2 
-65.1666 -40.0117 2 -65.1074 -37.711 2 -65.1213 -35.3728 2 
-65.0784 -33.1154 2 -65.057 -30.8287 2 -65.0096 -28.5586 2 
-65.0574 -26.4383 2 -65.1518 -24.3193 2 -65.229 -22.1288 2 
-65.2645 -19.8331 2 -65.2128 -17.4523 2 -65.1974 -15.3149 2 
-65.3081 -13.1838 2 -65.5942 -11.0955 2 -65.6353 -8.92088 2 
-65.4451 -6.70498 2 -65.6544 -4.62229 2 -64.6127 -2.59944 2 
-65.0457 -0.296682 2 -65.137 1.98474 2 -65.2491 4.19896 2 
-65.3437 6.4275 2 -65.4483 8.43761 2 -65.5571 10.5887 2 
-65.45 12.7143 2 -65.4057 14.8902 2 -65.3389 16.9576 2 
-65.2939 19.3139 2 -65.2674 21.5276 2 -65.2761 23.7289 2 
-65.1774 25.9455 2 -65.1255 28.3016 2 -65.1736 30.4026 2 
-65.2392 32.5936 2 -65.3375 34.8449 2 -65.4456 37.1171 2 
-65.5705 39.2787 2 -65.4307 41.6055 2 -65.0926 44.2048 2 
-19.4119 0.534518 2 -12.3487 42.9699 2 -12.3412 40.6312 2 
-12.3605 38.4538 2 -12.6338 36.1745 2 -12.8086 33.8995 2 
-12.8952 31.766 2 -12.9119 29.4081 2 -12.8383 27.0445 2 
-12.8188 24.8531 2 -12.8204 22.6894 2 -12.8322 20.4443 2 
-12.8514 18.3548 2 -12.9563 16.1436 2 -12.9446 13.9601 2 
-12.9602 11.8135 2 -12.9326 9.73429 2 -12.7003 7.60416 2 
-12.441 5.49276 2 -12.443 3.27766 2 -12.6535 1.22227 2 
-12.798 -0.978956 2 -12.6289 -3.096 2 -12.5106 -5.23742 2 
-12.6351 -7.31363 2 -12.6469 -9.54454 2 -12.5829 -11.7658 2 
-12.657 -13.8995 2 -12.622 -16.1006 2 -12.6508 -18.3746 2 
-12.7152 -20.609 2 -12.7921 -22.6938 2 -12.7916 -24.897 2 
-12.8007 -27.0124 2 -12.8114 -29.2371 2 -12.87 -31.4539 2 
-12.8328 -33.7294 2 -12.8031 -36.0085 2 -12.7237 -38.4046 2 
-12.3745 -40.3925 2 -13.0494 -42.6082 2 -39.4606 -23.0331 2 
-25.6027 -10.4658 2 -15.8466 -42.9424 2 -18.2836 -43.0395 2 
-20.558 -42.8443 2 -22.9502 -42.7066 2 -25.1335 -42.6408 2 
-27.3091 -42.6152 2 -29.6218 -42.6146 2 -31.8957 -42.6413 2 
-34.0625 -42.5956 2 -36.1998 -42.6293 2 -38.378 -42.5856 2 
-40.553 -42.6146 2 -42.7744 -42.6755 2 -44.9751 -42.6382 2 
-47.1871 -42.5603 2 -49.4599 -42.5325 2 -51.5977 -42.5311 2 
-54.0014 -42.5121 2 -56.3684 -42.616 2 -58.5008 -42.8189 2 
-60.6684 -43.0933 2 -62.7407 -43.5113 2 -24.0409 -8.86624 2 
-53.8573 -13.514 2 -28.5778 -13.5907 2 -29.9798 -15.2576 2 
-31.5408 -16.8182 2 -33.2216 -18.4903 2 -35.1407 -20.1181 2 
-54.1423 11.9157 2 -62.6481 -5.15807 2 -55.3875 -11.9865 2 
-52.4013 -15.169 2 -57.124 -10.4708 2 -58.7553 -8.94269 2 
-60.4437 -7.15851 2 -37.6135 21.763 2 -37.3094 -21.5347 2 
-45.0385 20.6798 2 -52.4629 13.4837 2 -55.8187 10.3637 2 
-50.7729 15.1874 2 -49.1027 16.9641 2 -47.2523 18.7995 2 
-42.5646 22.4068 2 -20.6539 -5.71791 2 -25.6908 10.5325 2 
-29.1014 13.6851 2 -24.0828 8.71492 2 -22.7938 6.70747 2 
-27.4788 12.1359 2 -20.3804 2.52158 2 -17.5999 -2.51896 2 
-41.753 -24.5406 2 -49.1235 -18.4663 2 -17.4066 -0.483562 2 
-63.1236 1.00668 2 -57.5697 8.77683 2 -45.6422 -21.4592 2 
-59.2665 7.06628 2 -39.6381 23.9592 2 -60.66 5.12037 2 
-36.013 19.7462 2 -50.808 -16.8607 2 -32.4611 16.6783 2 
-62.4469 3.1263 2 -30.7756 15.2648 2 -21.5822 4.65391 2 
-47.4442 -19.9361 2 -34.2225 18.0565 2 -62.591 42.5247 2 
-17.376 1.98028 2 -59.7339 42.1805 2 -57.2011 41.9686 2 
-54.6248 41.8495 2 -52.1671 41.7701 2 -49.8161 41.7266 2 
-47.8456 42.1604 2 -45.8934 41.671 2 -43.6609 41.4913 2 
-41.3171 41.3857 2 -39.1727 41.7019 2 -37.2063 42.352 2 
-35.2318 41.7094 2 -32.9092 41.479 2 -30.5497 41.5608 2 
-28.3093 41.8764 2 -26.0603 41.962 2 -23.9167 42.0021 2 
-21.7071 41.8897 2 -19.461 41.7525 2 -17.1807 41.8503 2 
-14.6948 41.9232 2 -27.5565 -16.1013 2 -16.4417 -4.43388 2 
-62.7907 -41.3361 2 -62.7153 -39.0779 2 -62.5578 -36.7385 2 
-62.4062 -34.4019 2 -62.3133 -32.0759 2 -62.322 -29.7749 2 
-62.3663 -27.5311 2 -62.4481 -25.4393 2 -62.6038 -23.2977 2 
-62.7468 -20.975 2 -62.7058 -18.5771 2 -62.6283 -16.1664 2 
-62.5763 -13.9286 2 -62.9746 -11.7763 2 -63.1862 5.29734 2 
-62.5172 7.45464 2 -63.4106 9.46191 2 -63.2255 11.4186 2 
-63.0516 13.6042 2 -62.9265 15.7638 2 -62.9099 17.9815 2 
-62.8356 20.413 2 -62.7283 22.6305 2 -62.6273 24.925 2 
-62.537 27.2626 2 -62.5756 29.4401 2 -62.6707 31.5838 2 
-62.8034 33.864 2 -62.9722 36.2479 2 -63.2345 38.3514 2 
-63.5791 40.4066 2 -14.0469 39.6277 2 -14.523 37.5282 2 
-14.9779 35.2268 2 -15.2365 32.9194 2 -15.3174 30.6035 2 
-15.2324 28.2092 2 -15.152 25.8447 2 -15.2341 23.6093 2 
-15.2466 21.4188 2 -15.1206 19.2423 2 -15.1581 17.1152 2 
-15.3867 14.9362 2 -15.4697 12.6634 2 -15.3529 10.5248 2 
-15.0748 8.35387 2 -14.654 6.2424 2 -14.1071 4.3159 2 
-14.6966 2.42088 2 -15.1412 -2.17716 2 -14.7345 -6.16922 2 
-14.8883 -8.31285 2 -14.7865 -10.6567 2 -14.7388 -12.9523 2 
-14.6813 -15.0392 2 -14.75 -17.3269 2 -14.8688 -19.5915 2 
-14.9833 -21.6389 2 -15.0726 -23.8123 2 -15.1472 -25.981 2 
-15.2476 -28.1974 2 -15.3063 -30.5016 2 -15.2837 -32.7755 2 
-15.196 -35.1062 2 -14.9962 -37.6312 2 -14.6494 -40.2507 2 
-44.2248 -25.8711 2 -57.7 -12.6631 2 -59.9742 -11.774 2 
-17.0687 -41.1676 2 -19.1869 -40.7291 2 -21.5505 -40.3843 2 
-23.7897 -40.1942 2 -26.1136 -40.1107 2 -28.4139 -40.1013 2 
-30.7455 -40.1036 2 -33.0096 -40.0303 2 -35.1299 -39.9767 2 
-37.3355 -39.9506 2 -39.4813 -39.9495 2 -41.6511 -40.064 2 
-43.9258 -40.1321 2 -46.2524 -40.042 2 -48.497 -39.9722 2 
-50.7217 -39.9932 2 -53.1221 -39.9869 2 -55.5586 -40.1143 2 
-57.934 -40.4138 2 -60.28 -40.7744 2 -47.6436 21.9002 2 
-29.0495 -17.8047 2 -26.1429 -14.412 2 -45.043 23.9473 2 
-30.7157 -19.5897 2 -32.6234 -21.3266 2 -53.3121 15.99 2 
-56.3743 -14.2452 2 -36.3254 25.0163 2 -54.7484 -15.7974 2 
-41.9828 26.0567 2 -51.6904 17.8831 2 -55.0559 14.3542 2 
-56.8679 12.8293 2 -49.9408 19.9065 2 -20.7745 9.25249 2 
-21.6694 11.7973 2 -24.2088 13.3138 2 -39.5489 -26.0842 2 
-24.672 -12.7799 2 -26.399 14.7345 2 -63.0016 -7.70501 2 
-18.9113 4.51632 2 -19.6984 -8.09193 2 -58.5682 11.2542 2 
-28.1733 16.323 2 -63.6813 -9.86949 2 -46.1148 -24.1598 2 
-37.1253 -24.5266 2 -42.0785 -27.628 2 -15.0693 0.223184 2 
-14.2936 -4.23224 2 -38.1629 27.7509 2 -51.7188 -19.3456 2 
-21.6725 -9.55626 2 -49.9266 -20.8665 2 -23.2676 -11.2418 2 
-34.7856 -23.0003 2 -60.7633 9.55711 2 -34.7904 22.5046 2 
-53.2599 -17.557 2 -61.2527 -9.59792 2 -29.764 18.0137 2 
-17.4854 -6.66849 2 -19.8907 6.85991 2 -31.572 19.38 2 
-58.8024 39.7794 2 -56.2278 39.5133 2 -53.5582 39.3512 2 
-50.7204 38.8402 2 -47.7826 38.6103 2 -45.0639 39.1873 2 
-42.637 38.518 2 -39.7749 38.5055 2 -37.2639 39.5253 2 
-34.7917 38.3243 2 -31.9155 38.3129 2 -29.2182 38.6411 2 
-27.0719 39.412 2 -24.892 38.9884 2 -22.8389 39.6072 2 
-20.7535 39.1648 2 -18.389 39.2788 2 -16.128 39.5697 2 
-33.5996 20.3633 2 -59.9654 -38.4612 2 -59.7425 -36.0073 2 
-59.5737 -33.5711 2 -59.5143 -31.169 2 -59.4969 -28.8128 2 
-59.5553 -26.5873 2 -59.615 -24.4074 2 -59.9038 -22.2776 2 
-60.1705 -19.8114 2 -60.0312 -17.3066 2 -59.5929 -14.6883 2 
-60.0269 14.0809 2 -60.5314 16.5597 2 -60.3989 19.1502 2 
-60.1055 21.3841 2 -59.9803 23.7373 2 -59.9457 26.1208 2 
-59.814 28.4902 2 -59.7357 30.6679 2 -59.8245 32.9716 2 
-60.2328 35.4575 2 -60.7138 37.78 2 -61.3309 40.1555 2 
-44.7018 -28.8417 2 -17.0308 36.9485 2 -17.66 34.4511 2 
-18.0222 31.9039 2 -17.7555 29.5052 2 -17.549 27.0404 2 
-17.7221 24.6562 2 -17.9585 22.3916 2 -17.8049 20.0943 2 
-17.221 18.1488 2 -17.8654 16.0927 2 -18.2036 13.7136 2 
-18.1602 11.2888 2 -17.7608 8.95718 2 -17.1096 6.65755 2 
-17.1241 -9.25221 2 -16.9224 -11.788 2 -16.96 -13.9746 2 
-16.9679 -16.1837 2 -17.0627 -18.447 2 -17.3382 -20.5858 2 
-17.3715 -22.6193 2 -17.5256 -24.8087 2 -17.8767 -27.0208 2 
-18.0107 -29.3607 2 -17.943 -31.7036 2 -17.8145 -34.0798 2 
-17.5722 -36.5513 2 -17.2465 -38.9785 2 -33.6688 28.362 2 
-22.2873 -37.8231 2 -24.6044 -37.5322 2 -26.9963 -37.3813 2 
-29.5138 -37.319 2 -31.9351 -37.3553 2 -34.1174 -37.218 2 
-36.1433 -37.0568 2 -38.4537 -37.012 2 -40.493 -37.0945 2 
-42.8543 -37.2955 2 -45.1695 -37.4058 2 -47.4759 -37.3149 2 
-49.7604 -37.2177 2 -52.2617 -37.3628 2 -54.8009 -37.6108 2 
-57.3604 -38.0248 2 -29.6611 -22.4923 2 -26.1997 -18.7353 2 
-24.7097 -16.9356 2 -27.9124 -20.5888 2 -53.3872 20.8149 2 
-61.0379 12.0223 2 -48.0603 -22.4612 2 -55.9097 16.8576 2 
-54.2402 18.3904 2 -50.6848 22.884 2 -23.7725 -14.9804 2 
-44.9348 27.845 2 -23.216 16.3562 2 -48.0534 25.3133 2 
-40.6864 30.6478 2 -39.7768 -29.3355 2 -25.528 17.2357 2 
-42.4184 -31.1614 2 -57.4128 -16.3829 2 -46.84 -27.0379 2 
-37.1411 -27.648 2 -16.262 4.30591 2 -52.8509 -21.7663 2 
-35.8713 31.561 2 -19.6831 -38.2629 2 -21.836 -13.8397 2 
-31.9623 -24.5023 2 -44.6901 31.7975 2 -26.7253 19.4948 2 
-55.5476 -17.8579 2 -20.816 15.0121 2 -57.7737 15.2637 2 
-54.8837 -20.168 2 -28.6248 21.6128 2 -19.2444 -10.5367 2 
-32.8496 25.0565 2 -55.2356 36.7333 2 -52.574 36.6885 2 
-50.3842 35.2843 2 -47.9079 33.4999 2 -45.0326 35.9489 2 
-41.4371 34.9581 2 -37.5673 35.4697 2 -33.5818 34.9716 2 
-30.1824 35.5928 2 -26.8031 35.6524 2 -22.9662 36.2547 2 
-19.6806 36.3944 2 -57.6953 -18.82 2 -20.1908 18.0784 2 
-56.6466 -32.9309 2 -56.6176 -30.3018 2 -56.6715 -27.8969 2 
-56.6632 -25.4839 2 -57.6869 -20.9995 2 -57.0384 19.7698 2 
-56.951 22.3166 2 -57.1327 24.8312 2 -56.9783 27.4159 2 
-56.5951 29.7615 2 -56.6752 32.1375 2 -57.198 34.59 2 
-21.1096 30.6152 2 -19.9801 28.1227 2 -19.9003 25.9181 2 
-20.9254 23.6777 2 -20.7839 20.9484 2 -50.6393 -23.2931 2 
-31.5185 22.5402 2 -19.1598 -12.9695 2 -19.3789 -15.1115 2 
-19.0686 -17.1955 2 -19.8274 -19.24 2 -20.0578 -21.4014 2 
-19.6948 -23.5482 2 -20.986 -27.9548 2 -20.7984 -30.5688 2 
-20.5707 -33.1224 2 -20.162 -35.7421 2 -22.7426 -19.7406 2 
-22.8761 -35.114 2 -25.4 -34.7003 2 -28.0966 -34.3367 2 
-30.7077 -34.3488 2 -32.9465 -34.7666 2 -34.9797 -33.5852 2 
-37.3151 -34.3413 2 -39.6184 -33.3119 2 -41.7081 -34.4633 2 
-43.9409 -34.3536 2 -46.1822 -34.8947 2 -48.4797 -33.7936 2 
-51.3956 -34.4678 2 -54.0893 -34.9887 2 -56.8936 -35.5013 2 
-34.4927 -26.1805 2 -21.0772 -11.7566 2 -58.0424 37.2731 2 
-58.3355 17.6208 2 -56.406 -22.9783 2 -47.6766 -30.0729 2 
-20.7923 33.5736 2 -37.2342 -31.0317 2 -30.1733 31.7162 2 
-20.6694 -25.5481 2 -28.4554 -25.666 2 -24.9774 -21.1826 2 
-26.2404 -23.4295 2 -48.8537 29.2195 2 -53.9868 23.5861 2 
-21.6809 -16.8497 2 -51.4275 25.9996 2 -48.6843 -25.1524 2 
-53.6917 -24.3416 2 -45.5215 -31.9397 2 -50.1021 -28.1493 2 
-53.6187 -26.9516 2 -23.3524 19.2907 2 -34.5289 -29.5322 2 
-53.5456 28.5635 2 -52.5318 31.4797 2 -53.9332 34.0802 2 
-28.5482 26.494 2 -24.9074 31.7412 2 -24.2427 -26.1151 2 
-23.3975 27.051 2 -24.5961 22.787 2 -54.634 26.1255 2 
-53.5659 -32.2666 2 -31.2692 -28.1674 2 -23.3672 -32.3729 2 
-22.6744 -23.0908 2 -53.3237 -29.4539 2 -23.8466 -29.3277 2 
-50.5664 -31.2345 2 -26.3512 -31.6159 2 -29.4483 -31.188 2 
-32.4038 -31.7412 2 -51.2811 -25.6811 2 -27.3777 -28.4983 2 
-68.7935 48.1489 0 -65.7035 48.6163 0 -62.9975 48.6939 0 
-60.2255 48.5234 0 -57.5762 48.4551 0 -54.5384 48.4285 0 
-51.6786 48.4086 0 -48.743 48.4447 0 -46.0445 48.4135 0 
-43.1748 48.3537 0 -40.3701 48.3909 0 -37.5049 48.3783 0 
-34.7241 48.4013 0 -32.0262 48.4173 0 -29.1649 48.4007 0 
-26.3703 48.4068 0 -23.5973 48.4875 0 -20.7286 48.5183 0 
-17.9385 48.515 0 -15.2413 48.4959 0 -12.5352 48.5805 0 
-9.94886 48.7561 0 -68.9676 -46.3503 0 -69.4674 -43.0401 0 
-69.5224 -40.2522 0 -69.4666 -37.3992 0 -69.3992 -34.6081 0 
-69.3102 -31.9368 0 -69.2307 -29.2378 0 -69.2109 -26.4881 0 
-69.247 -23.8283 0 -69.3363 -20.8884 0 -69.3245 -18.197 0 
-69.3846 -15.5489 0 -69.3709 -12.9984 0 -69.356 -10.4922 0 
-69.2854 -7.83319 0 -69.1914 -5.14626 0 -69.3294 -2.51963 0 
-69.4298 0.209561 0 -69.4185 2.84908 0 -69.4059 5.48889 0 
-69.393 8.09504 0 -69.3108 10.8202 0 -69.3405 13.7042 0 
-69.3256 16.3827 0 -69.2459 18.9702 0 -69.314 21.7097 0 
-69.302 24.4807 0 -69.2467 27.1544 0 -69.1996 29.7601 0 
-69.2879 32.3385 0 -69.3786 34.97 0 -69.4492 37.4835 0 
-69.5075 39.9855 0 -69.4013 42.5024 0 -69.2323 45.1205 0 
-8.71141 46.8668 0 -9.06761 44.6138 0 -9.22956 42.0878 0 
-9.10488 39.286 0 -9.11393 36.6043 0 -9.10917 33.7701 0 
-9.18684 31.1799 0 -9.17407 28.395 0 -9.11076 25.6392 0 
-9.15481 23.0166 0 -9.14902 20.2337 0 -9.09563 17.4776 0 
-9.12668 14.7888 0 -9.09963 12.1631 0 -9.08081 9.55269 0 
-9.21426 7.01383 0 -9.18364 4.36685 0 -9.0967 1.52903 0 
-9.0847 -1.00848 0 -8.97111 -3.86447 0 -8.97431 -6.56806 0 
-9.06644 -9.45872 0 -9.11946 -12.116 0 -9.1327 -14.8984 0 
-9.23511 -17.7719 0 -9.20175 -20.7038 0 -9.27369 -23.5225 0 
-9.21709 -26.2272 0 -9.21267 -29.0259 0 -9.26741 -31.8608 0 
-9.2199 -34.7286 0 -9.21916 -37.542 0 -9.21052 -40.2602 0 
-8.99883 -42.8679 0 -8.62391 -45.2083 0 -9.77993 -47.134 0 
-12.3822 -46.9268 0 -14.8865 -46.8744 0 -17.51 -46.8705 0 
-20.2892 -47.0278 0 -23.0908 -47.0378 0 -25.7867 -47.0412 0 
-28.5931 -46.9528 0 -31.4899 -46.9438 0 -34.1984 -46.9481 0 
-36.8652 -46.9546 0 -39.4609 -46.9461 0 -42.1229 -46.903 0 
-44.6415 -46.872 0 -47.2828 -46.7981 0 -49.9747 -46.8831 0 
-52.6571 -46.9662 0 -55.3923 -46.9072 0 -58.1546 -47.0038 0 
-60.6819 -47.0875 0 -63.4052 -47.0197 0 -66.0517 -46.8459 0 
-23.999 -2.93887 0 -25.5341 -4.52359 0 -27.0839 -6.07995 0 
-28.6274 -7.56981 0 -30.0329 -9.0885 0 -31.5415 -10.5617 0 
-33.0446 -12.0608 0 -34.5014 -13.4828 0 -35.9854 -15.0514 0 
-37.5279 -16.518 0 -39.0901 -18.0398 0 -42.6225 -18.1276 0 
-44.2438 -16.6913 0 -45.8156 -15.2677 0 -47.384 -13.6894 0 
-48.9806 -12.1149 0 -50.4486 -10.5873 0 -51.9643 -9.09265 0 
-53.492 -7.5023 0 -54.9724 -5.91723 0 -56.5273 -4.41835 0 
-58.2542 -2.8879 0 -57.9795 0.827446 0 -56.3404 2.49072 0 
-54.7094 4.13315 0 -53.1529 5.84343 0 -51.5814 7.5848 0 
-49.9231 9.2973 0 -48.2139 10.9807 0 -46.4388 12.7768 0 
-44.7507 14.4069 0 -43.1969 15.8771 0 -38.9725 16.0205 0 
-37.6178 14.4621 0 -36.1021 13.1292 0 -34.5848 11.6137 0 
-33.0306 10.17 0 -31.4436 8.66748 0 -29.9169 7.08729 0 
-28.4074 5.53514 0 -26.8304 3.86864 0 -25.3515 2.24169 0 
-23.915 0.655331 0 -40.8089 -19.3731 0 -22.5921 -1.16775 0 
-59.7588 -1.13331 0 -41.8892 17.2971 0 -40.0436 17.8639 0 
-64.2522 46.8891 0 -66.5542 46.1779 0 -59.0815 46.0048 0 
-56.1196 46.0234 0 -53.0371 46.0268 0 -50.1992 46.0315 0 
-47.2756 46.0081 0 -44.5712 45.9402 0 -41.7366 45.9821 0 
-38.8751 45.9968 0 -36.1272 45.97 0 -33.3002 46.0438 0 
-30.5492 46.0525 0 -27.692 46.1555 0 -24.9427 46.1502 0 
-22.0335 46.1617 0 -19.2143 46.1079 0 -16.4729 46.2352 0 
-13.6739 46.2575 0 -23.1779 -5.097 0 -67.0526 -38.8953 0 
-67.2891 -41.5408 0 -67.0087 -44.3489 0 -66.9789 -36.0924 0 
-66.9099 -33.3982 0 -66.7537 -30.6293 0 -66.6166 -27.9958 0 
-66.68 -25.2555 0 -66.7364 -22.4825 0 -66.8704 -19.6307 0 
-66.9126 -16.9309 0 -66.9444 -14.3616 0 -66.9251 -11.7443 0 
-66.8293 -9.11691 0 -66.6741 -6.32793 0 -66.5847 -3.60484 0 
-66.8441 -1.06098 0 -67.2026 1.56294 0 -67.1461 4.16445 0 
-66.9762 6.77678 0 -66.8008 9.45767 0 -66.783 12.1586 0 
-66.6535 14.9778 0 -66.6829 17.6212 0 -66.7672 20.2367 0 
-66.76 23.0418 0 -66.7729 25.7527 0 -66.7099 28.4192 0 
-66.6772 30.9678 0 -66.7203 33.5673 0 -66.8528 36.1777 0 
-67.0397 38.6178 0 -66.9701 41.1203 0 -66.7813 43.6081 0 
-11.493 40.681 0 -11.7921 43.7635 0 -11.021 46.4201 0 
-11.5573 38.0188 0 -11.5386 35.2839 0 -11.5291 32.4443 0 
-11.5512 29.8285 0 -11.5962 27.0937 0 -11.5772 24.3559 0 
-11.5109 21.7681 0 -11.4781 18.9658 0 -11.4579 16.2288 0 
-11.4953 13.5633 0 -11.6318 10.8965 0 -11.6068 8.29362 0 
-11.6143 5.64187 0 -11.7098 2.8504 0 -11.5439 0.227546 0 
-11.363 -2.43481 0 -11.2571 -5.09397 0 -11.3991 -7.90531 0 
-11.4454 -10.7265 0 -11.5476 -13.4165 0 -11.6429 -16.2804 0 
-11.7455 -19.2322 0 -11.7891 -22.1145 0 -11.735 -24.8616 0 
-11.7289 -27.7221 0 -11.6955 -30.4247 0 -11.7472 -33.3966 0 
-11.7489 -36.2427 0 -11.6876 -39.1839 0 -11.5012 -42.0597 0 
-10.9085 -44.7298 0 -60.6606 0.993491 0 -38.6966 -20.4271 0 
-16.0795 -44.3291 0 -13.385 -44.2781 0 -18.8948 -44.628 0 
-21.7531 -44.7197 0 -24.4184 -44.6501 0 -27.1789 -44.549 0 
-30.0348 -44.5037 0 -32.7708 -44.5115 0 -35.554 -44.4725 0 
-38.1122 -44.5138 0 -40.8361 -44.5082 0 -43.4275 -44.4756 0 
-46.0907 -44.467 0 -48.6651 -44.4531 0 -51.4227 -44.4669 0 
-54.1566 -44.4168 0 -56.9604 -44.4534 0 -59.3873 -44.7999 0 
-62.0475 -44.8705 0 -64.4604 -44.8042 0 -21.5301 -3.34597 0 
-60.9992 -3.39443 0 -42.6199 -20.5478 0 -24.8223 -6.69067 0 
-26.3714 -8.20632 0 -27.9298 -9.71221 0 -29.3961 -11.221 0 
-30.8204 -12.7436 0 -32.2635 -14.2881 0 -33.7697 -15.8498 0 
-35.3716 -17.3856 0 -36.9763 -18.9336 0 -46.276 -17.6045 0 
-47.9086 -16.0982 0 -49.5886 -14.4093 0 -51.1259 -12.816 0 
-52.7457 -11.2339 0 -54.3107 -9.68462 0 -55.7431 -8.08981 0 
-57.238 -6.46851 0 -59.0315 -4.9284 0 -43.6445 18.2895 0 
-56.9948 4.47575 0 -55.4425 6.20147 0 -54.0717 8.05274 0 
-52.5255 9.89838 0 -50.7223 11.6745 0 -48.8829 13.5224 0 
-47.1149 15.164 0 -45.3292 16.7185 0 -21.3998 0.734825 0 
-35.5137 15.3705 0 -33.92 13.949 0 -32.2918 12.4493 0 
-30.6454 10.94 0 -29.0103 9.36015 0 -27.4889 7.73668 0 
-25.9605 6.03605 0 -24.453 4.27781 0 -23.0095 2.57526 0 
-61.8473 46.2616 0 -44.5438 -19.0668 0 -58.8847 2.92506 0 
-37.013 16.531 0 -63.1946 -1.50864 0 -40.5856 -21.8783 0 
-19.8757 -1.31488 0 -41.6664 19.5629 0 -37.8151 18.5117 0 
-20.6905 -5.78708 0 -63.9695 -4.66218 0 -57.7026 43.592 0 
-61.7742 3.56053 0 -51.6061 43.636 0 -43.1471 43.4942 0 
-45.8329 43.5077 0 -37.4677 43.6353 0 -34.6492 43.639 0 
-31.8444 43.6835 0 -29.0847 43.6146 0 -26.2406 43.6672 0 
-23.3592 43.7533 0 -20.4431 43.7544 0 -17.7644 43.8194 0 
-14.9208 43.9772 0 -20.6309 2.78513 0 -64.7204 -40.3731 0 
-64.1347 44.6075 0 -64.5324 -37.7902 0 -65.3035 -42.7249 0 
-64.2617 -32.1816 0 -64.0955 -29.4089 0 -64.0567 -26.7735 0 
-64.0601 -23.949 0 -64.0745 -21.1793 0 -64.208 -18.2968 0 
-64.2896 -15.7265 0 -64.3359 -13.0958 0 -64.2707 -10.3927 0 
-64.1949 -7.60681 0 -64.7034 2.81606 0 -64.5088 5.31421 0 
-64.4245 8.10012 0 -64.2152 10.7401 0 -64.1021 13.53 0 
-64.0676 16.1765 0 -63.9794 18.8202 0 -63.9569 21.5804 0 
-64.0366 24.32 0 -63.8901 27.0727 0 -63.8605 29.662 0 
-63.89 32.3208 0 -64.0202 35.0144 0 -64.2516 37.5441 0 
-64.8391 39.7913 0 -20.337 -42.4177 0 -14.3961 -41.3659 0 
-48.6663 43.5563 0 -14.005 36.7657 0 -13.8803 33.8324 0 
-64.5206 -34.9103 0 -13.6231 41.8261 0 -59.4615 5.23004 0 
-13.888 31.1869 0 -13.9564 28.4959 0 -13.9933 25.7502 0 
-14.0416 23.2066 0 -14.0227 20.4251 0 -13.9174 17.7405 0 
-13.9413 14.9671 0 -14.0265 12.2367 0 -14.1109 9.69246 0 
-14.1888 6.96373 0 -14.0948 4.23604 0 -14.4267 1.17184 0 
-13.4798 -1.20678 0 -13.6679 -3.67583 0 -13.4736 -6.40122 0 
-13.6945 -9.16301 0 -14.0283 -11.8509 0 -14.1224 -14.71 0 
-14.2212 -17.6733 0 -14.286 -20.6494 0 -14.3434 -23.4859 0 
-14.3386 -26.2843 0 -14.3511 -29.1597 0 -14.3309 -32.0334 0 
-14.2111 -34.8006 0 -14.1781 -37.8194 0 -38.2453 -23.1233 0 
-18.8487 -3.8765 0 -17.4728 -42.1408 0 -57.5367 6.42127 0 
-22.4431 -7.39664 0 -23.1296 -42.2353 0 -25.7179 -42.0637 0 
-28.5474 -41.8725 0 -31.3386 -41.8026 0 -34.1552 -41.8313 0 
-36.8216 -41.8778 0 -39.3808 -41.9335 0 -42.1848 -41.9029 0 
-44.7758 -41.8676 0 -47.4786 -41.8759 0 -50.1568 -41.762 0 
-53.0113 -41.6835 0 -55.8655 -41.7237 0 -58.4638 -41.9995 0 
-60.7505 -42.7266 0 -42.566 -23.2063 0 -46.7648 -20.0913 0 
-18.3086 0.89562 0 -13.9485 39.444 0 -24.1135 -8.86493 0 
-25.6927 -10.4314 0 -27.0655 -11.9836 0 -28.5016 -13.5149 0 
-30.0166 -15.0877 0 -31.473 -16.6889 0 -33.0478 -18.2055 0 
-48.549 -18.5321 0 -40.3221 43.5569 0 -43.8013 20.9327 0 
-50.2507 -16.9692 0 -51.8755 -15.1958 0 -53.5697 -13.5433 0 
-55.3084 -11.9401 0 -56.7423 -10.3879 0 -58.1574 -8.64399 0 
-35.2981 18.1743 0 -56.6079 8.35401 0 -55.3897 10.4163 0 
-53.6991 12.3881 0 -51.6462 14.3126 0 -49.643 16.0147 0 
-54.5934 43.5624 0 -61.0438 43.4409 0 -31.6449 14.8528 0 
-29.8662 13.4149 0 -28.1593 11.7849 0 -26.4056 10.0977 0 
-24.8884 8.3693 0 -23.3614 6.46967 0 -22.0505 4.7001 0 
-44.7291 -21.6487 0 -33.4668 16.5753 0 -39.2023 20.593 0 
-34.7094 -19.7604 0 -61.6152 -6.03799 0 -64.9762 0.456694 0 
-64.2418 42.0169 0 -40.2375 -24.652 0 -41.3986 22.3925 0 
-62.9505 1.24122 0 -63.1075 -42.4763 0 -16.4658 -1.68586 0 
-36.4507 -21.4025 0 -45.7974 19.3432 0 -59.4787 -7.04369 0 
-47.7498 17.6366 0 -16.2763 32.4349 0 -38.9141 40.9099 0 
-33.1786 41.069 0 -36.0188 41.0379 0 -27.5275 40.9611 0 
-24.7913 41.1187 0 -21.7918 41.2613 0 -18.8509 41.2634 0 
-16.167 41.3766 0 -30.3611 40.9675 0 -21.742 -9.7001 0 
-44.524 40.8562 0 -61.1135 -25.5343 0 -61.4126 -31.0847 0 
-60.9626 -22.5501 0 -61.0829 -19.7701 0 -61.4805 -16.9735 0 
-61.6211 -14.3852 0 -61.6389 -11.8208 0 -61.3391 -8.94095 0 
-61.2211 11.9876 0 -61.0157 14.7497 0 -61.0979 17.4362 0 
-61.1035 20.0882 0 -61.0024 22.789 0 -60.9149 25.7024 0 
-60.8497 28.39 0 -60.8746 31.0502 0 -60.9354 33.8319 0 
-61.3371 36.751 0 -61.9459 39.784 0 -24.1725 -39.4647 0 
-61.3032 -39.6914 0 -16.4228 29.8959 0 -16.4261 35.3613 0 
-16.5567 27.2028 0 -16.6553 24.4807 0 -16.7564 21.9393 0 
-16.7655 19.1763 0 -16.6488 16.496 0 -16.6758 13.6566 0 
-16.7715 10.992 0 -17.0106 8.37698 0 -17.1229 5.64167 0 
-16.326 2.99869 0 -16.0569 -4.87424 0 -15.6657 -7.48327 0 
-16.6955 -9.94007 0 -16.7284 -13.0004 0 -16.9476 -15.9946 0 
-17.1249 -19.107 0 -17.2548 -21.9638 0 -17.1962 -24.88 0 
-17.1613 -27.8463 0 -17.0558 -30.5741 0 -16.8444 -33.4237 0 
-16.695 -36.2872 0 -16.698 -39.2416 0 -20.3452 7.06683 0 
-35.9221 21.3384 0 -61.8168 6.51499 0 -44.9869 -24.5806 0 
-19.7889 -8.42156 0 -26.9749 -39.0631 0 -29.7863 -38.887 0 
-32.6878 -38.9261 0 -35.4539 -39.0655 0 -38.0368 -39.0836 0 
-40.7816 -39.116 0 -43.4624 -39.1416 0 -46.1522 -39.0171 0 
-48.8626 -38.936 0 -51.8138 -38.8136 0 -54.7152 -38.8898 0 
-57.7934 -39.1561 0 -41.7634 40.8349 0 -61.2874 -28.3329 0 
-59.1091 41.2661 0 -50.9828 -19.3962 0 -23.4844 -11.0786 0 
-24.864 -12.7637 0 -26.0858 -14.3576 0 -27.4421 -16.0232 0 
-28.8436 -17.6873 0 -30.5226 -19.1455 0 -49.149 -21.0868 0 
-18.4703 3.40549 0 -46.2365 22.102 0 -37.6046 -26.1429 0 
-52.7731 -17.8043 0 -54.3105 -16.0348 0 -56.1993 -14.2593 0 
-58.4162 -12.7949 0 -59.2676 -10.6292 0 -50.2802 18.4508 0 
-43.9648 23.9023 0 -58.526 10.3229 0 -57.371 13.0483 0 
-54.6651 14.984 0 -52.3321 16.6902 0 -38.5392 23.6805 0 
-29.1426 16.0646 0 -27.2869 14.5047 0 -25.2543 12.7319 0 
-23.0499 10.9249 0 -22.3448 8.5981 0 -42.6422 -26.3016 0 
-21.624 -39.8247 0 -19.8255 4.88606 0 -61.7133 9.27951 0 
-47.1435 -22.7905 0 -48.3063 20.279 0 -32.2594 -20.5617 0 
-56.2388 40.8972 0 -47.2235 40.9631 0 -61.6231 -33.9025 0 
-50.0503 41.0992 0 -39.8422 -27.8023 0 -59.2688 7.7801 0 
-18.0769 -6.74758 0 -19.0791 -40.2864 0 -62.2287 -36.5898 0 
-16.9939 38.4881 0 -35.6867 -24.321 0 -41.4309 25.7386 0 
-32.551 20.0207 0 -31.145 17.4273 0 -53.1474 40.997 0 
-20.1801 38.7862 0 -26.0926 38.1849 0 -58.5654 -18.2728 0 
-49.6529 -23.7191 0 -57.4176 -20.9708 0 -46.9682 25.2622 0 
-57.8949 -24.0802 0 -57.8875 15.9679 0 -58.2548 18.6109 0 
-58.1212 21.3584 0 -57.6811 24.0234 0 -57.7148 26.8589 0 
-57.6539 29.6674 0 -57.6301 32.5621 0 -57.8569 35.5401 0 
-58.5057 38.5276 0 -28.1234 -35.9219 0 -26.5108 17.5147 0 
-18.9937 31.3334 0 -18.5244 33.6739 0 -19.5613 23.328 0 
-19.081 28.6932 0 -19.7355 20.553 0 -19.4178 17.953 0 
-19.3018 15.0546 0 -19.6532 12.3543 0 -19.892 9.79871 0 
-43.154 37.9532 0 -42.5319 -29.9092 0 -19.6608 -14.3895 0 
-19.9361 -17.3336 0 -20.1565 -20.4087 0 -20.3778 -23.2735 0 
-20.233 -26.3562 0 -20.0807 -29.2822 0 -19.8365 -32.1053 0 
-19.5464 -35.013 0 -47.5784 -25.7863 0 -53.8432 -20.28 0 
-31.0919 -35.492 0 -33.9675 -35.7221 0 -36.7884 -36.1162 0 
-39.4006 -36.1516 0 -42.0092 -36.2608 0 -44.852 -36.0279 0 
-47.4586 -35.8133 0 -50.4511 -35.7036 0 -53.3962 -35.5562 0 
-56.4882 -35.8285 0 -21.2093 -11.9411 0 -34.0369 -22.3138 0 
-48.9569 23.0698 0 -40.3948 37.9474 0 -51.7252 -22.0794 0 
-19.2255 25.8921 0 -23.0302 -15.6105 0 -25.1083 -16.6318 0 
-26.041 -18.5776 0 -27.4674 -20.3804 0 -59.017 -15.5631 0 
-32.4764 23.6785 0 -35.5391 25.2046 0 -45.4542 -27.9709 0 
-25.0501 -36.4648 0 -23.2099 38.6298 0 -24.4244 15.6792 0 
-22.2372 13.7471 0 -22.278 -37.0458 0 -36.776 -29.6593 0 
-51.0036 21.0272 0 -29.5842 -21.8062 0 -37.4806 38.1242 0 
-28.8225 37.9826 0 -44.4224 27.4764 0 -45.9372 38.1046 0 
-58.4912 -30.039 0 -58.6586 -33.2089 0 -58.3644 -27.1383 0 
-31.6629 38.1854 0 -34.5822 38.2344 0 -48.78 38.222 0 
-38.4413 27.3097 0 -39.6391 -30.5333 0 -19.0216 -11.1994 0 
-59.4407 -36.438 0 -19.2968 -37.7939 0 -29.08 19.1578 0 
-55.2202 17.41 0 -56.7187 -16.5701 0 -22.5357 -13.4013 0 
-55.47 -18.5136 0 -29.2303 22.3397 0 -19.1301 36.1759 0 
-52.9403 19.2381 0 -51.5241 38.6567 0 -34.5692 -27.6354 0 
-22.8859 18.8941 0 -47.7694 28.632 0 -54.3042 22.1542 0 
-41.7965 34.0984 0 -54.7592 -22.9924 0 -55.7386 19.7704 0 
-54.1578 27.9624 0 -54.2146 31.0711 0 -54.2663 34.1743 0 
-54.6958 37.6779 0 -32.9393 -31.6249 0 -21.4562 33.3923 0 
-23.9379 -21.3904 0 -32.7779 -25.2423 0 -32.3617 27.5936 0 
-31.6339 -22.9296 0 -23.4261 -24.7222 0 -23.1892 -28.0306 0 
-22.9425 -30.9542 0 -22.7227 -34.0321 0 -50.1729 -26.4822 0 
-41.5979 29.5785 0 -29.3838 -32.397 0 -38.1672 -33.1261 0 
-43.3282 -33.2922 0 -46.0017 -31.9544 0 -48.7923 -32.8853 0 
-51.6809 -32.1837 0 -55.2614 -32.0568 0 -21.9506 30.3158 0 
-28.933 26.0072 0 -25.7258 24.0788 0 -25.8623 -33.2509 0 
-48.7673 -29.317 0 -21.6985 16.4108 0 -45.3815 31.7541 0 
-27.2577 34.6878 0 -44.7352 35.3095 0 -35.5781 28.7191 0 
-55.8657 -28.8111 0 -38.8523 35.1856 0 -55.196 -25.9395 0 
-24.3111 35.4067 0 -54.21 25.1314 0 -30.3329 34.5354 0 
-33.1428 35.3933 0 -35.5741 -33.0965 0 -47.596 35.1063 0 
-22.6311 22.0701 0 -23.0334 -18.5134 0 -22.3836 24.8913 0 
-40.7368 -33.1461 0 -51.0342 35.7912 0 -21.6357 27.5012 0 
-26.0135 20.7617 0 -50.4422 26.0762 0 -52.3836 -24.8557 0 
-51.6796 23.515 0 -21.6918 36.4443 0 -30.5098 -28.4354 0 
-26.5495 -23.3021 0 -26.3957 -29.8541 0 -28.8574 30.6802 0 
-52.6301 -28.5491 0 -35.9699 34.7383 0 -37.9744 31.489 0 
-51.1101 29.1584 0 -24.9932 31.9201 0 -25.1228 27.8851 0 
-26.5169 -26.5478 0 -33.4198 31.6463 0 -49.8761 32.2805 0 
-29.4908 -25.0307 0 -40.987 -15.3885 2 -55.3804 -1.00836 2 
-40.9511 -15.3868 0 -55.364 -0.9793 0 -53.1898 -4.26803 0.996631 
-41.0057 10.9531 0.995539 -27.9152 -3.09002 0.893485 -40.9938 -9.10579 1.00796 
-41.005 -3.03242 0.994581 -35.4054 -16.007 0.977139 -42.0132 1.038 2 
-42.0132 3.036 2 -42.0132 4.938 2 -42.0132 6.9 2 
-42.0132 8.892 2 -42.0132 10.932 2 -42.8052 11.208 2 
-44.3172 9.696 2 -45.7692 8.244 2 -47.2572 6.756 2 
-48.7692 5.244 2 -50.2812 3.732 2 -51.7512 2.262 2 
-53.2392 0.774 2 -43.0092 0 2 -45.0852 0 2 
-47.1072 0 2 -48.9972 0 2 -50.9352 0 2 
-52.9692 0 2 -42.0132 1.224 0 -42.0132 3.726 0 
-42.0132 6.21 0 -42.0132 8.604 0 -42.0132 10.896 0 
-42.7512 11.262 0 -44.2632 9.75 0 -45.7692 8.244 0 
-47.2212 6.792 0 -48.6552 5.358 0 -50.1252 3.888 0 
-51.7152 2.298 0 -53.2812 0.732 0 -43.1292 0 0 
-45.5952 0 0 -48.2472 0 0 -50.7252 0 0 
-52.9572 0 0 -38.7564 0 2 -36.2304 0 2 
-33.8064 0 2 -31.5084 0 2 -29.1744 0 2 
-39.2304 11.232 2 -37.7424 9.744 2 -36.2424 8.244 2 
-34.7364 6.738 2 -33.2604 5.262 2 -31.7664 3.768 2 
-30.2904 2.292 2 -28.7784 0.78 2 -39.9984 1.038 2 
-39.9984 3.03 2 -39.9984 4.992 2 -39.9984 6.978 2 
-39.9984 8.964 2 -39.9984 10.986 2 -38.7744 0 0 
-36.2724 0 0 -33.8664 0 0 -31.4844 0 0 
-29.1144 0 0 -39.2484 11.25 0 -37.7244 9.726 0 
-36.2184 8.22 0 -34.7544 6.756 0 -33.2664 5.268 0 
-31.7304 3.732 0 -30.2064 2.208 0 -28.7304 0.732 0 
-39.9984 1.074 0 -39.9984 3.072 0 -39.9984 4.992 0 
-39.9984 6.96 0 -39.9984 8.982 0 -39.9984 11.016 0 
-42.9607 -2.00067 2 -44.9587 -2.00067 2 -47.0227 -2.00067 2 
-49.1467 -2.00067 2 -51.1867 -2.00067 2 -53.0647 -2.00067 2 
-53.2147 -2.78667 2 -51.7087 -4.29267 2 -50.2747 -5.72667 2 
-48.8107 -7.19067 2 -47.3347 -8.66667 2 -45.8827 -10.1187 2 
-44.3227 -11.6787 2 -42.7447 -13.2567 2 -42.0007 -3.03267 2 
-42.0007 -5.03067 2 -42.0007 -7.02867 2 -42.0007 -9.02067 2 
-42.0007 -11.0247 2 -42.0007 -13.0347 2 -43.2007 -2.00067 0 
-45.6547 -2.00067 0 -48.2407 -2.00067 0 -50.7487 -2.00067 0 
-52.9627 -2.00067 0 -53.2387 -2.76267 0 -51.7207 -4.28067 0 
-50.1487 -5.85267 0 -48.6007 -7.40067 0 -47.1367 -8.86467 0 
-45.6667 -10.3347 0 -44.2147 -11.7867 0 -42.7507 -13.2507 0 
-42.0007 -2.97267 0 -42.0007 -4.97667 0 -42.0007 -6.99867 0 
-42.0007 -9.02667 0 -42.0007 -11.0307 0 -42.0007 -12.9987 0 
-40.0038 -3.02721 2 -40.0038 -5.03121 2 -40.0038 -7.12521 2 
-40.0038 -9.20121 2 -40.0038 -11.1572 2 -40.0038 -13.0772 2 
-28.7478 -2.78121 2 -30.2358 -4.26921 2 -31.7238 -5.75721 2 
-33.2358 -7.26921 2 -34.7358 -8.76921 2 -36.2418 -10.2752 2 
-37.7478 -11.7812 2 -39.2418 -13.2752 2 -38.8098 -2.03721 2 
-36.3438 -2.03721 2 -33.8118 -2.03721 2 -31.3638 -2.03721 2 
-29.0898 -2.03721 2 -40.0038 -3.05121 0 -40.0038 -5.06121 0 
-40.0038 -7.07121 0 -40.0038 -9.08121 0 -40.0038 -11.0912 0 
-40.0038 -13.0712 0 -28.7418 -2.77521 0 -30.2298 -4.26321 0 
-31.7478 -5.78121 0 -33.3018 -7.33521 0 -34.8858 -8.91921 0 
-36.4158 -10.4492 0 -37.8498 -11.8832 0 -39.2778 -13.3112 0 
-39.0198 -2.03721 0 -37.0278 -2.03721 0 -34.9818 -2.03721 0 
-32.9238 -2.03721 0 -30.9078 -2.03721 0 -28.9578 -2.03721 0 
-6.78415 -49.2584 1 -71.7842 -49.2584 1 -7.82415 -49.2584 0 
-10.0342 -49.2584 0 -12.4717 -49.2584 0 -14.9417 -49.2584 0 
-17.5092 -49.2584 0 -20.2392 -49.2584 0 -23.0017 -49.2584 0 
-25.7967 -49.2584 0 -28.6242 -49.2584 0 -31.5167 -49.2584 0 
-34.2792 -49.2584 0 -36.9117 -49.2584 0 -39.5442 -49.2584 0 
-42.0142 -49.2584 0 -44.4842 -49.2584 0 -47.1167 -49.2584 0 
-49.8467 -49.2584 0 -52.6417 -49.2584 0 -55.3717 -49.2584 0 
-58.0367 -49.2584 0 -60.7667 -49.2584 0 -63.4642 -49.2584 0 
-65.9992 -49.2584 0 -68.4692 -49.2584 0 -70.7442 -49.2584 0 
-7.95415 -49.2584 2 -10.1642 -49.2584 2 -12.2442 -49.2584 2 
-14.2917 -49.2584 2 -16.3717 -49.2584 2 -18.6142 -49.2584 2 
-20.7917 -49.2584 2 -22.9367 -49.2584 2 -25.1467 -49.2584 2 
-27.2917 -49.2584 2 -29.5667 -49.2584 2 -31.8417 -49.2584 2 
-33.9867 -49.2584 2 -36.1967 -49.2584 2 -38.3417 -49.2584 2 
-40.4217 -49.2584 2 -42.5017 -49.2584 2 -44.6792 -49.2584 2 
-46.8892 -49.2584 2 -49.0342 -49.2584 2 -51.2442 -49.2584 2 
-53.3892 -49.2584 2 -55.5992 -49.2584 2 -57.9067 -49.2584 2 
-60.0842 -49.2584 2 -62.2942 -49.2584 2 -64.4717 -49.2584 2 
-66.5517 -49.2584 2 -68.6642 -49.2584 2 -70.7442 -49.2584 2 
-70.7117 50.7416 2 -68.6317 50.7416 2 -66.4867 50.7416 2 
-64.3092 50.7416 2 -62.1642 50.7416 2 -59.9542 50.7416 2 
-57.8092 50.7416 2 -55.6317 50.7416 2 -53.3242 50.7416 2 
-51.1142 50.7416 2 -48.9367 50.7416 2 -46.7592 50.7416 2 
-44.6792 50.7416 2 -42.6317 50.7416 2 -40.5192 50.7416 2 
-38.3092 50.7416 2 -36.1642 50.7416 2 -33.9542 50.7416 2 
-31.7767 50.7416 2 -29.6642 50.7416 2 -27.3242 50.7416 2 
-25.0817 50.7416 2 -22.9692 50.7416 2 -20.7917 50.7416 2 
-18.6792 50.7416 2 -16.5992 50.7416 2 -14.4867 50.7416 2 
-12.4067 50.7416 2 -10.2617 50.7416 2 -7.95415 50.7416 2 
-71.7842 -48.1585 2 -71.7842 -46.0084 2 -71.7842 -43.8585 2 
-71.7842 -41.7584 2 -71.7842 -39.7085 2 -71.7842 -37.4585 2 
-71.7842 -35.2085 2 -71.7842 -33.0584 2 -71.7842 -30.8085 2 
-71.7842 -28.6585 2 -71.7842 -26.6084 2 -71.7842 -24.4085 2 
-71.7842 -22.1585 2 -71.7842 -19.8584 2 -71.7842 -17.6084 2 
-71.7842 -15.5584 2 -71.7842 -13.4585 2 -71.7842 -11.2585 2 
-71.7842 -9.10845 2 -71.7842 -6.95845 2 -71.7842 -4.80845 2 
-71.7842 -2.65845 2 -71.7842 -0.40845 2 -71.7842 1.84155 2 
-71.7842 4.09155 2 -71.7842 6.34155 2 -71.7842 8.49155 2 
-71.7842 10.6416 2 -71.7842 12.7915 2 -71.7842 14.9416 2 
-71.7842 17.0415 2 -71.7842 19.0915 2 -71.7842 21.2915 2 
-71.7842 23.4916 2 -71.7842 25.6416 2 -71.7842 27.9916 2 
-71.7842 30.2915 2 -71.7842 32.3915 2 -71.7842 34.5915 2 
-71.7842 36.7915 2 -71.7842 38.8415 2 -71.7842 40.9916 2 
-71.7842 43.1916 2 -71.7842 45.3415 2 -71.7842 47.4416 2 
-71.7842 49.5915 2 -6.78415 49.6415 2 -6.78415 47.4916 2 
-6.78415 45.3915 2 -6.78415 43.2915 2 -6.78415 41.1916 2 
-6.78415 38.9416 2 -6.78415 36.6415 2 -6.78415 34.3415 2 
-6.78415 32.1415 2 -6.78415 30.0915 2 -6.78415 27.9415 2 
-6.78415 25.6416 2 -6.78415 23.3916 2 -6.78415 21.2915 2 
-6.78415 19.1915 2 -6.78415 16.9415 2 -6.78415 14.6916 2 
-6.78415 12.5915 2 -6.78415 10.4915 2 -6.78415 8.34155 2 
-6.78415 6.19155 2 -6.78415 4.04155 2 -6.78415 1.84155 2 
-6.78415 -0.30845 2 -6.78415 -2.50845 2 -6.78415 -4.70845 2 
-6.78415 -6.75845 2 -6.78415 -8.90845 2 -6.78415 -11.1084 2 
-6.78415 -13.3084 2 -6.78415 -15.5085 2 -6.78415 -17.6084 2 
-6.78415 -19.7584 2 -6.78415 -21.9085 2 -6.78415 -24.1585 2 
-6.78415 -26.4085 2 -6.78415 -28.5084 2 -6.78415 -30.6585 2 
-6.78415 -32.8585 2 -6.78415 -35.1085 2 -6.78415 -37.3585 2 
-6.78415 -39.5084 2 -6.78415 -41.6085 2 -6.78415 -43.7584 2 
-6.78415 -45.8585 2 -6.78415 -48.0584 2 -25.4343 -1.76659 2 
-26.8898 -3.22223 2 -28.4104 -4.74294 2 -29.9228 -6.25551 2 
-31.3702 -7.70302 2 -32.8095 -9.1424 2 -34.2731 -10.6062 2 
-35.7612 -12.0943 2 -37.2248 -13.5581 2 -38.6641 -14.9975 2 
-40.1765 -16.5101 2 -41.7052 -16.5752 2 -43.169 -15.1116 2 
-44.7141 -13.5666 2 -46.2836 -11.9972 2 -47.7881 -10.4929 2 
-49.26 -9.02117 2 -50.6831 -7.59818 2 -52.1387 -6.14266 2 
-53.6513 -4.63023 2 -55.1151 -3.16659 2 -56.5301 -1.75173 2 
-56.4488 -0.255489 2 -54.9689 1.22455 2 -53.5297 2.66393 2 
-52.0335 4.16024 2 -50.521 5.67281 2 -49.0086 7.18538 2 
-47.5531 8.64102 2 -46.122 10.0723 2 -44.699 11.4954 2 
-43.2679 12.9266 2 -41.7554 14.4392 2 -40.2511 14.4962 2 
-38.7385 12.9838 2 -37.2259 11.4713 2 -35.7784 10.0239 2 
-34.3228 8.56844 2 -32.859 7.10479 2 -31.4278 5.67367 2 
-29.964 4.21003 2 -28.4758 2.72199 2 -26.9714 1.21769 2 
-25.4507 -0.302878 2 -70.6792 50.7416 0 -68.2742 50.7416 0 
-65.5767 50.7416 0 -62.9117 50.7416 0 -60.2792 50.7416 0 
-57.5492 50.7416 0 -54.6892 50.7416 0 -51.6342 50.7416 0 
-48.7417 50.7416 0 -46.1417 50.7416 0 -43.3142 50.7416 0 
-40.3242 50.7416 0 -37.4967 50.7416 0 -34.7667 50.7416 0 
-32.1017 50.7416 0 -29.3067 50.7416 0 -26.4142 50.7416 0 
-23.6192 50.7416 0 -20.8242 50.7416 0 -18.0292 50.7416 0 
-15.3317 50.7416 0 -12.6992 50.7416 0 -10.1317 50.7416 0 
-7.82415 50.7416 0 -71.7842 -48.1085 0 -71.7842 -45.6085 0 
-71.7842 -42.9085 0 -71.7842 -40.2584 0 -71.7842 -37.4085 0 
-71.7842 -34.5084 0 -71.7842 -31.7584 0 -71.7842 -29.1084 0 
-71.7842 -26.5585 0 -71.7842 -23.7085 0 -71.7842 -20.8085 0 
-71.7842 -18.0585 0 -71.7842 -15.3584 0 -71.7842 -12.9085 0 
-71.7842 -10.5584 0 -71.7842 -8.00845 0 -71.7842 -5.30845 0 
-71.7842 -2.55845 0 -71.7842 0.19155 0 -71.7842 2.84155 0 
-71.7842 5.44155 0 -71.7842 8.04155 0 -71.7842 10.8916 0 
-71.7842 13.7915 0 -71.7842 16.4415 0 -71.7842 19.0415 0 
-71.7842 21.7416 0 -71.7842 24.4916 0 -71.7842 27.2915 0 
-71.7842 30.0415 0 -71.7842 32.4916 0 -71.7842 34.9916 0 
-71.7842 37.6415 0 -71.7842 40.0915 0 -71.7842 42.5415 0 
-71.7842 45.0915 0 -71.7842 47.5415 0 -71.7842 49.7416 0 
-6.78415 49.6415 0 -6.78415 47.1916 0 -6.78415 44.5415 0 
-6.78415 41.9916 0 -6.78415 39.2915 0 -6.78415 36.5415 0 
-6.78415 33.7915 0 -6.78415 31.0915 0 -6.78415 28.3916 0 
-6.78415 25.5915 0 -6.78415 22.9415 0 -6.78415 20.1915 0 
-6.78415 17.3415 0 -6.78415 14.6416 0 -6.78415 12.0415 0 
-6.78415 9.54155 0 -6.78415 7.04155 0 -6.78415 4.44155 0 
-6.78415 1.64155 0 -6.78415 -1.10845 0 -6.78415 -3.80845 0 
-6.78415 -6.65845 0 -6.78415 -9.40845 0 -6.78415 -12.1585 0 
-6.78415 -15.0085 0 -6.78415 -17.8584 0 -6.78415 -20.6585 0 
-6.78415 -23.4585 0 -6.78415 -26.2085 0 -6.78415 -28.9585 0 
-6.78415 -31.8085 0 -6.78415 -34.6585 0 -6.78415 -37.4085 0 
-6.78415 -40.1085 0 -6.78415 -42.8585 0 -6.78415 -45.5084 0 
-6.78415 -48.0084 0 -25.4343 -1.76659 0 -26.9468 -3.27916 0 
-28.4673 -4.79986 0 -29.9716 -6.3043 0 -31.4597 -7.79247 0 
-32.9152 -9.24812 0 -34.3788 -10.7119 0 -35.8181 -12.1513 0 
-37.2492 -13.5825 0 -38.6803 -15.0138 0 -40.1846 -16.5182 0 
-41.7052 -16.5752 0 -43.1446 -15.136 0 -44.6247 -13.656 0 
-46.121 -12.1599 0 -47.5848 -10.6962 0 -49.0567 -9.22445 0 
-50.553 -7.72828 0 -52.0655 -6.21585 0 -53.5781 -4.70341 0 
-55.0744 -3.20724 0 -56.5219 -1.75986 0 -56.4488 -0.255489 0 
-54.8307 1.3628 0 -53.2125 2.98109 0 -51.6106 4.58311 0 
-49.9925 6.2014 0 -48.3337 7.86034 0 -46.6749 9.51929 0 
-44.9836 11.2108 0 -43.3085 12.886 0 -41.7473 14.4473 0 
-40.2755 14.5206 0 -38.8849 13.1301 0 -37.4699 11.7153 0 
-35.9899 10.2354 0 -34.4854 8.73106 0 -33.0135 7.25929 0 
-31.5416 5.78751 0 -29.9965 4.24255 0 -28.3945 2.64067 0 
-26.89 1.13637 0 -25.4507 -0.302878 0 -6.78415 50.7416 1 
-71.7842 50.7416 1 -42.0132 0 1 -42.0132 12 1 
-54.0132 0 1 -39.9984 0 1 -27.9984 0 1 
-39.9984 12 1 -42.0007 -2.00067 1 -54.0007 -2.00067 1 
-42.0007 -14.0007 1 -40.0038 -2.03721 1 -40.0038 -14.0372 1 
-28.0038 -2.03721 1 -57.2376 -1.0443 1 -40.9748 15.2199 1 
-40.9734 -17.307 1 -24.7106 -1.04283 1 -43.0092 1.038 2 
-42.8481 3.30892 2 -42.8481 2.34892 2 -42.9287 5.29655 2 
-42.9287 4.35455 2 -43.7637 3.66747 2 -43.0798 7.3903 2 
-43.0798 6.3703 2 -43.9953 5.78686 2 -42.8052 10.14 2 
-45.3238 7.1863 2 -44.5918 7.9183 2 -48.5799 4.1689 2 
-47.8239 4.9249 2 -50.0985 2.5151 2 -49.3425 3.2711 2 
-48.3972 2.95201 2 -52.1952 0.774 2 -44.6136 0.777788 2 
-45.6936 0.777788 2 -48.6045 1.0271 2 -49.5525 1.0271 2 
-43.5252 8.448 2 -51.3903 0.670802 2 -51.6603 1.4448 2 
-42.8052 9.168 2 -46.2367 6.47991 2 -45.0593 6.15422 2 
-44.9083 5.08046 2 -46.9927 5.72391 2 -50.9463 2.1588 2 
-46.8034 4.64881 2 -47.5747 0.899001 2 -48.1301 1.9261 2 
-47.3674 2.8239 2 -46.6327 0.899001 2 -50.4003 0.670802 2 
-46.1611 1.67679 2 -43.8441 1.31092 2 -46.3411 2.5822 2 
-46.6083 3.6081 2 -45.7771 4.40711 2 -45.402 2.46098 2 
-50.0076 1.69791 2 -44.7132 4.03975 2 -44.6326 2.99411 2 
-44.4525 2.0887 2 -43.1292 1.224 0 -43.1816 3.29129 0 
-43.1816 4.56929 0 -43.1186 5.79658 0 -43.1186 7.00258 0 
-44.2871 5.36187 0 -42.7512 10.158 0 -44.6306 7.78258 0 
-45.3626 7.05058 0 -47.5162 5.02497 0 -48.2302 4.31097 0 
-48.9613 3.43133 0 -49.7173 2.67533 0 -47.8223 3.0983 0 
-52.2252 0.732 0 -46.241 1.03113 0 -44.891 1.03113 0 
-49.0513 1.10933 0 -47.7493 1.10933 0 -43.5252 8.196 0 
-43.5252 9.384 0 -45.1358 6.13726 0 -46.2743 6.59868 0 
-46.9944 5.87868 0 -45.1988 4.90998 0 -51.6022 1.40667 0 
-51.2782 0.674675 0 -50.7682 2.24067 0 -49.6043 1.78401 0 
-47.0451 2.14047 0 -46.5694 4.83165 0 -50.1022 0.674675 0 
-43.775 2.25513 0 -44.9434 3.09842 0 -45.7206 4.05626 0 
-46.314 3.0201 0 -38.7564 1.038 2 -35.3456 0.965317 2 
-36.6296 0.965317 2 -32.9844 1.09693 2 -34.1244 1.09693 2 
-34.5236 2.06224 2 -29.9544 0.78 2 -39.2304 10.218 2 
-37.4378 8.06063 2 -36.6578 7.28062 2 -35.7729 6.56113 2 
-35.0469 5.83513 2 -36.9684 6.37776 2 -32.9064 3.35293 2 
-32.1624 2.60893 2 -39.3281 9.42968 2 -38.5601 9.67568 2 
-37.8401 8.95568 2 -39.3281 8.42168 2 -39.046 2.37596 2 
-39.046 3.32996 2 -38.9258 6.54862 2 -38.9258 7.52662 2 
-37.804 1.33796 2 -30.4968 1.49258 2 -30.8928 0.712582 2 
-32.0508 0.712582 2 -31.2288 2.22458 2 -33.541 4.25139 2 
-33.937 3.09232 2 -35.1582 2.96071 2 -34.291 5.00139 2 
-39.0781 5.47163 2 -38.0056 6.02025 2 -37.1207 5.30076 2 
-39.0781 4.46363 2 -36.9192 2.30328 2 -38.1258 3.80959 2 
-35.3276 4.82452 2 -38.2556 7.9923 2 -32.3688 1.80951 2 
-37.3342 4.39473 2 -36.2971 4.75223 2 -35.5412 3.91849 2 
-37.3021 3.26106 2 -36.1277 2.88842 2 -38.7744 1.074 0 
-36.7868 1.08502 0 -35.5088 1.08502 0 -34.4001 1.0214 0 
-33.2721 1.0214 0 -34.9145 2.10642 0 -29.8464 0.732 0 
-39.2484 10.266 0 -37.7296 8.76561 0 -38.5036 9.53961 0 
-39.2536 9.30561 0 -36.3304 7.13644 0 -37.0624 7.86844 0 
-37.8416 7.68205 0 -34.808 5.8644 0 -35.54 6.5964 0 
-36.384 6.24483 0 -32.1712 3.12598 0 -31.3912 2.34598 0 
-31.0312 0.869985 0 -30.6472 1.60198 0 -32.2852 0.869985 0 
-39.0748 3.46087 0 -39.0748 2.53687 0 -39.2269 5.50573 0 
-39.2269 4.50973 0 -38.3033 3.9746 0 -39.2536 8.25561 0 
-37.8508 1.46287 0 -37.0872 2.54788 0 -34.2265 3.04665 0 
-33.5787 4.28124 0 -33.1581 3.27741 0 -34.3347 5.03724 0 
-35.3351 3.11026 0 -35.1204 4.87764 0 -38.6573 7.73322 0 
-39.4022 7.40961 0 -39.4022 6.43761 0 -37.9902 6.83604 0 
-38.6307 5.95534 0 -36.3783 3.2287 0 -35.6903 4.16893 0 
-36.1636 4.99608 0 -37.4423 3.60655 0 -32.8189 1.89139 0 
-36.9539 5.53612 0 -37.8149 5.90417 0 -37.5945 4.65542 0 
-42.9607 -3.03267 2 -45.3088 -2.83626 2 -44.2708 -2.83626 2 
-47.4576 -2.94244 2 -46.4316 -2.94244 2 -45.7437 -3.77803 2 
-52.2787 -2.78667 2 -49.3391 -5.28311 2 -50.0531 -4.56911 2 
-47.8291 -6.90861 2 -48.5791 -6.15861 2 -48.3574 -5.00105 2 
-46.3545 -8.42917 2 -47.0805 -7.70317 2 -46.8489 -6.67111 2 
-44.8982 -9.87149 2 -45.6242 -9.14549 2 -45.37 -8.18199 2 
-42.7447 -12.2907 2 -42.8016 -4.62933 2 -42.8016 -5.59533 2 
-42.7578 -9.17017 2 -43.3202 -8.47949 2 -44.0773 -9.58899 2 
-51.6828 -3.46553 2 -51.5328 -2.67953 2 -50.5908 -2.67953 2 
-50.9628 -4.18553 2 -49.6811 -3.06311 2 -48.583 -3.06311 2 
-47.9919 -4.00488 2 -42.7578 -11.1742 2 -43.5018 -11.3962 2 
-42.973 -7.49981 2 -44.2925 -7.91862 2 -45.0228 -7.2023 2 
-42.973 -6.46781 2 -44.3358 -10.5622 2 -42.7578 -10.1302 2 
-43.7738 -6.06646 2 -43.3108 -3.86826 2 -44.1117 -4.43292 2 
-46.1987 -4.6943 2 -45.076 -4.58812 2 -44.5667 -5.34919 2 
-47.232 -4.88038 2 -50.0272 -3.74197 2 -45.8157 -6.48503 2 
-46.5642 -5.69047 2 -44.7381 -6.22166 2 -42.7771 -3.04869 0 
-42.7771 -4.02069 0 -44.9276 -3.31665 0 -46.1816 -3.31665 0 
-52.2007 -2.76267 0 -49.9909 -4.59886 0 -49.1749 -5.41486 0 
-46.8552 -7.7287 0 -46.1232 -8.4607 0 -45.2488 -9.29466 0 
-44.5108 -10.0327 0 -44.9673 -8.15869 0 -42.7507 -12.2487 0 
-42.7771 -5.05269 0 -43.0468 -9.52866 0 -43.0468 -8.49066 0 
-43.9771 -3.04869 0 -44.504 -4.36467 0 -51.337 -2.65101 0 
-51.613 -3.41301 0 -47.9629 -3.08086 0 -49.2949 -3.08086 0 
-50.161 -2.65101 0 -50.857 -4.16901 0 -43.4379 -11.6895 0 
-42.6879 -11.4375 0 -48.3894 -6.12774 0 -47.6574 -6.85974 0 
-44.1519 -10.9755 0 -47.1774 -3.79374 0 -46.4503 -5.10972 0 
-43.9613 -7.80833 0 -42.9152 -7.30634 0 -42.9152 -6.31634 0 
-44.8357 -6.97437 0 -42.6879 -10.4715 0 -46.6439 -6.45577 0 
-43.6916 -5.36036 0 -48.2315 -4.87392 0 -49.8831 -3.7312 0 
-43.734 -9.93554 0 -45.6481 -5.97868 0 -44.6421 -5.62832 0 
-38.8098 -3.02721 2 -38.9877 -5.47521 2 -38.9877 -4.46121 2 
-39.1754 -7.62062 2 -39.1754 -6.54062 2 -38.1593 -5.97062 2 
-38.9004 -9.5869 2 -38.9004 -8.5909 2 -38.072 -8.00631 2 
-39.2418 -12.3152 2 -29.8338 -2.78121 2 -30.3861 -3.44926 2 
-31.1301 -4.19326 2 -30.7281 -2.70526 2 -32.1092 -4.62769 2 
-32.8532 -5.37169 2 -32.2595 -3.80775 2 -33.4 -6.25888 2 
-34.168 -7.02688 2 -33.7854 -5.12937 2 -36.6324 -9.2389 2 
-37.4064 -10.0129 2 -36.7167 -3.15495 2 -35.4447 -3.15495 2 
-31.9161 -2.70526 2 -37.7937 -3.47121 2 -38.5098 -10.6232 2 
-39.2418 -11.3552 2 -36.8946 -4.58894 2 -35.8187 -8.27271 2 
-36.9833 -8.0104 2 -37.2582 -7.04012 2 -35.0867 -7.54071 2 
-34.5281 -4.25743 2 -34.1552 -3.13969 2 -35.2508 -6.53038 2 
-32.8952 -3.13969 2 -35.0748 -5.14462 2 -37.0706 -5.97471 2 
-35.9935 -5.65845 2 -39.0198 -3.05121 0 -39.2181 -4.66629 0 
-39.2181 -5.66229 0 -39.0824 -6.58958 0 -39.0824 -7.60358 0 
-38.2968 -6.19466 0 -38.9552 -8.62688 0 -38.9552 -9.62288 0 
-38.0338 -8.14526 0 -39.2778 -12.3452 0 -29.6958 -2.77521 0 
-31.3138 -4.23165 0 -30.5638 -3.48165 0 -30.7798 -2.74365 0 
-32.8346 -5.54214 0 -32.0666 -4.77414 0 -32.4006 -3.99259 0 
-34.3329 -7.09552 0 -33.5469 -6.30952 0 -33.8657 -5.30245 0 
-35.9319 -8.73199 0 -35.1339 -7.93399 0 -35.379 -6.9083 0 
-37.5272 -10.1749 0 -36.7952 -9.44288 0 -36.686 -2.8826 0 
-37.694 -2.8826 0 -34.5684 -2.99862 0 -35.6064 -2.99862 0 
-36.2726 -3.84401 0 -31.7758 -2.74365 0 -39.3663 -11.576 0 
-38.6403 -11.816 0 -33.5486 -3.28614 0 -34.1732 -4.24755 0 
-39.3663 -10.562 0 -37.0433 -8.45766 0 -37.9383 -11.114 0 
-32.7958 -2.74365 0 -38.678 -3.8966 0 -37.8923 -4.49768 0 
-34.8855 -5.01493 0 -37.1705 -7.43436 0 -38.3177 -10.1077 0 
-37.3596 -6.3866 0 -36.3691 -6.699 0 -35.5681 -5.86053 0 
-37.4953 -5.45931 0 -36.9552 -4.68962 0 -35.8756 -4.80564 0 
-7.82415 -49.2584 1 -70.7442 -49.2584 1 -69.7042 -49.2584 1 
-8.99415 -49.2584 1 -10.1642 -49.2584 1 -12.2442 -49.2584 1 
-13.5117 -49.2584 1 -14.5192 -49.2584 1 -15.7217 -49.2584 1 
-16.7942 -49.2584 1 -18.1592 -49.2584 1 -19.3292 -49.2584 1 
-20.6942 -49.2584 1 -22.8392 -49.2584 1 -24.2367 -49.2584 1 
-25.3092 -49.2584 1 -26.7067 -49.2584 1 -27.7792 -49.2584 1 
-29.2092 -49.2584 1 -30.4117 -49.2584 1 -31.8742 -49.2584 1 
-34.0192 -49.2584 1 -35.3192 -49.2584 1 -36.4567 -49.2584 1 
-37.7892 -49.2584 1 -38.7967 -49.2584 1 -40.0967 -49.2584 1 
-41.1692 -49.2584 1 -42.3392 -49.2584 1 -43.3467 -49.2584 1 
-44.6467 -49.2584 1 -46.8567 -49.2584 1 -48.1892 -49.2584 1 
-49.2942 -49.2584 1 -50.6917 -49.2584 1 -51.7967 -49.2584 1 
-53.1942 -49.2584 1 -54.2342 -49.2584 1 -55.5667 -49.2584 1 
-57.8742 -49.2584 1 -59.2067 -49.2584 1 -62.8142 -49.2584 1 
-64.1142 -49.2584 1 -65.1217 -49.2584 1 -66.3567 -49.2584 1 
-67.4292 -49.2584 1 -68.6642 -49.2584 1 -60.2467 -49.2584 1 
-61.6442 -49.2584 1 -11.2042 -49.2584 1 -21.7017 -49.2584 1 
-32.9467 -49.2584 1 -45.8167 -49.2584 1 -56.7367 -49.2584 1 
-70.7117 49.5915 2 -69.3118 49.8595 2 -68.3043 49.8595 2 
-67.2099 49.8107 2 -66.0724 49.8107 2 -67.89 48.9287 2 
-64.9239 49.798 2 -63.8839 49.798 2 -65.6471 48.8672 2 
-62.7963 49.7848 2 -61.6913 49.7848 2 -63.411 48.8412 2 
-60.5592 49.7951 2 -59.4542 49.7951 2 -61.1914 48.8384 2 
-58.3621 49.7808 2 -57.3221 49.7808 2 -58.9671 48.8344 2 
-56.181 49.7747 2 -55.0435 49.7747 2 -56.7339 48.8139 2 
-53.8953 49.7444 2 -52.7253 49.7444 2 -54.4446 48.7776 2 
-51.6572 49.7588 2 -50.6172 49.7588 2 -52.2284 48.7617 2 
-49.5255 49.7553 2 -48.388 49.7553 2 -50.0686 48.7726 2 
-47.2852 49.7626 2 -46.2452 49.7626 2 -47.874 48.7764 2 
-45.2182 49.769 2 -44.1782 49.769 2 -45.7443 48.7901 2 
-43.1081 49.7534 2 -42.1006 49.7534 2 -43.6472 48.7808 2 
-41.024 49.7413 2 -39.919 49.7413 2 -41.5004 48.7532 2 
-38.8414 49.7447 2 -37.7364 49.7447 2 -39.3463 48.7444 2 
-36.6496 49.755 2 -35.6096 49.755 2 -37.1818 48.7581 2 
-34.5096 49.7518 2 -33.3396 49.7518 2 -34.995 48.7653 2 
-32.2828 49.7554 2 -31.2753 49.7554 2 -32.8383 48.7657 2 
-30.1608 49.7572 2 -29.0558 49.7572 2 -30.6669 48.7711 2 
-27.9136 49.7523 2 -26.6786 49.7523 2 -28.4103 48.768 2 
-25.6136 49.7621 2 -24.6061 49.7621 2 -26.2031 48.7728 2 
-23.5119 49.7497 2 -22.4069 49.7497 2 -24.0439 48.7703 2 
-21.3033 49.7661 2 -20.2308 49.7661 2 -21.8461 48.7743 2 
-19.1933 49.7645 2 -18.1533 49.7645 2 -19.7049 48.7891 2 
-17.0849 49.8139 2 -16.0449 49.8139 2 -17.599 48.8368 2 
-14.9774 49.8477 2 -13.9049 49.8477 2 -15.4632 48.9201 2 
-12.8622 49.8772 2 -11.8547 49.8772 2 -13.353 48.9834 2 
-10.828 49.9114 2 -9.69047 49.9114 2 -11.2835 49.0471 2 
-8.72733 50.0001 2 -7.55733 50.0001 2 -7.55733 48.9001 2 
-9.29365 49.17 2 -70.7442 -48.1585 2 -70.9715 -46.4504 2 
-70.9715 -45.4004 2 -70.8397 -44.4266 2 -70.8397 -43.3266 2 
-70.0271 -44.8686 2 -70.7714 -42.2956 2 -70.7714 -41.2956 2 
-69.8269 -42.8637 2 -70.7339 -40.2439 2 -70.7339 -39.1939 2 
-69.7211 -40.7811 2 -70.7244 -38.0714 2 -70.7244 -36.8714 2 
-69.6742 -38.6069 2 -70.7053 -35.7588 2 -70.7053 -34.7088 2 
-69.6456 -36.3718 2 -70.7161 -33.5978 2 -70.7161 -32.4978 2 
-69.6373 -34.1481 2 -70.7399 -31.3726 2 -70.7399 -30.2226 2 
-69.6719 -31.9119 2 -70.7146 -29.1663 2 -70.7146 -28.1663 2 
-69.6703 -29.7304 2 -70.694 -27.0646 2 -70.694 -26.0146 2 
-69.6245 -27.5724 2 -70.7409 -24.9653 2 -70.7409 -23.8153 2 
-69.6508 -25.4215 2 -70.7696 -22.6982 2 -70.7696 -21.5982 2 
-69.7263 -23.2551 2 -70.7797 -20.4806 2 -70.7797 -19.2806 2 
-69.7651 -21.0204 2 -70.7506 -18.145 2 -70.7506 -17.095 2 
-69.7462 -18.7672 2 -70.7493 -16.0189 2 -70.7493 -15.0189 2 
-69.7157 -16.5555 2 -70.7786 -13.9812 2 -70.7786 -12.8812 2 
-69.7437 -14.4417 2 -70.7919 -11.8039 2 -70.7919 -10.7039 2 
-69.7863 -12.3267 2 -70.804 -9.61926 2 -70.804 -8.56926 2 
-69.8118 -10.1648 2 -70.7883 -7.45123 2 -70.7883 -6.35123 2 
-69.8082 -7.96205 2 -70.7672 -5.26242 2 -70.7672 -4.21242 2 
-69.7714 -5.75521 2 -70.7483 -3.15909 2 -70.7483 -2.05909 2 
-69.7313 -3.61306 2 -70.7597 -0.966751 2 -70.7597 0.183249 2 
-69.7238 -1.46739 2 -70.7889 1.27765 2 -70.7889 2.37765 2 
-69.7644 0.719349 2 -70.793 3.50884 2 -70.793 4.65884 2 
-69.7978 2.94495 2 -70.783 5.79462 2 -70.783 6.89462 2 
-69.7919 5.21191 2 -70.7856 7.9829 2 -70.7856 9.0329 2 
-69.7844 7.43597 2 -70.7995 10.0915 2 -70.7995 11.1915 2 
-69.8009 9.58284 2 -70.7867 12.278 2 -70.7867 13.328 2 
-69.8021 11.728 2 -70.7807 14.4094 2 -70.7807 15.5094 2 
-69.7833 13.8959 2 -70.7731 16.5394 2 -70.7731 17.5394 2 
-69.7697 16.0073 2 -70.7757 18.6056 2 -70.7757 19.6556 2 
-69.7647 18.1035 2 -70.771 20.7608 2 -70.771 21.9108 2 
-69.7626 20.2749 2 -70.7529 22.9961 2 -70.7529 24.0461 2 
-69.7397 22.4654 2 -70.7476 25.1343 2 -70.7476 26.2343 2 
-69.7163 24.6388 2 -70.7169 27.4293 2 -70.7169 28.6793 2 
-69.6804 26.922 2 -70.746 29.7858 2 -70.746 30.8358 2 
-69.6787 29.2235 2 -70.775 31.908 2 -70.775 32.958 2 
-69.7368 31.4022 2 -70.7905 34.0289 2 -70.7905 35.1789 2 
-69.7814 33.5454 2 -70.7746 36.3045 2 -70.7746 37.3545 2 
-69.781 35.7419 2 -70.7621 38.4476 2 -70.7621 39.4476 2 
-69.7526 37.9606 2 -70.7784 40.494 2 -70.7784 41.644 2 
-69.7563 40.1001 2 -70.7999 42.7488 2 -70.7999 43.7988 2 
-69.7941 42.2512 2 -70.8673 44.8261 2 -70.8673 45.9261 2 
-69.883 44.3833 2 -70.97 46.868 2 -70.97 47.868 2 
-70.0531 46.3525 2 -7.77093 47.9271 2 -7.77093 46.8771 2 
-8.54411 48.2857 2 -7.60362 45.7804 2 -7.60362 44.7304 2 
-8.5904 46.2159 2 -7.65816 43.6801 2 -7.65816 42.6301 2 
-8.47763 44.0689 2 -7.6716 41.552 2 -7.6716 40.502 2 
-8.5456 41.9405 2 -7.67759 39.4215 2 -7.67759 38.2215 2 
-8.56503 39.782 2 -7.6893 37.0844 2 -7.6893 35.9844 2 
-8.58274 37.5644 2 -7.72893 34.8321 2 -7.72893 33.6321 2 
-8.63408 35.2749 2 -7.74667 32.5842 2 -7.74667 31.5842 2 
-8.69145 33.0747 2 -7.7323 30.5029 2 -7.7323 29.4529 2 
-8.69482 30.9455 2 -7.74472 28.3057 2 -7.74472 27.2057 2 
-8.69287 28.717 2 -7.75917 26.0615 2 -7.75917 24.8615 2 
-8.71974 26.4256 2 -7.74878 23.7914 2 -7.74878 22.7414 2 
-8.7238 24.2114 2 -7.73592 21.6474 2 -7.73592 20.5974 2 
-8.70055 22.0472 2 -7.71288 19.5661 2 -7.71288 18.5161 2 
-8.66465 19.922 2 -7.73514 17.4165 2 -7.73514 16.2165 2 
-8.66387 17.7911 2 -7.7307 15.065 2 -7.7307 14.015 2 
-8.68168 15.5399 2 -7.73363 12.9962 2 -7.73363 11.9462 2 
-8.68017 13.3696 2 -7.72083 10.9049 2 -7.72083 9.85491 2 
-8.6703 11.3096 2 -7.69634 8.768 2 -7.69634 7.668 2 
-8.63301 9.18135 2 -7.67219 6.59887 2 -7.67219 5.54887 2 
-8.58437 7.02532 2 -7.6892 4.4155 2 -7.6892 3.3155 2 
-8.57724 4.82282 2 -7.71252 2.23529 2 -7.71252 1.13529 2 
-8.61756 2.60924 2 -7.70057 0.109201 2 -7.70057 -0.940799 2 
-8.62894 0.502937 2 -7.71918 -2.06948 2 -7.71918 -3.21948 2 
-8.6356 -1.65183 2 -7.71327 -4.26691 2 -7.71327 -5.31691 2 
-8.6483 -3.82794 2 -7.70671 -6.37771 2 -7.70671 -7.37771 2 
-8.63583 -5.93616 2 -7.71955 -8.48844 2 -7.71955 -9.63844 2 
-8.64211 -8.1077 2 -7.71276 -10.7303 2 -7.71276 -11.7803 2 
-8.64815 -10.3103 2 -7.68363 -12.8497 2 -7.68363 -13.9997 2 
-8.61224 -12.4716 2 -7.66933 -15.0854 2 -7.66933 -16.1354 2 
-8.56881 -14.6267 2 -7.67975 -17.2256 2 -7.67975 -18.2756 2 
-8.56493 -16.8025 2 -7.70418 -19.3796 2 -7.70418 -20.4796 2 
-8.59978 -18.9967 2 -7.71867 -21.5402 2 -7.71867 -22.5902 2 
-8.6387 -21.1613 2 -7.73005 -23.7194 2 -7.73005 -24.9194 2 
-8.66457 -23.3512 2 -7.71641 -25.9763 2 -7.71641 -27.0263 2 
-8.66231 -25.5373 2 -7.74141 -28.1175 2 -7.74141 -29.1675 2 
-8.67367 -27.6854 2 -7.74189 -30.2726 2 -7.74189 -31.3726 2 
-8.69915 -29.8817 2 -7.74112 -32.4884 2 -7.74112 -33.5884 2 
-8.69886 -32.1026 2 -7.73097 -34.6635 2 -7.73097 -35.8135 2 
-8.68794 -34.2935 2 -7.70715 -36.9301 2 -7.70715 -38.0301 2 
-8.65397 -36.4852 2 -7.73536 -39.1464 2 -7.73536 -40.1964 2 
-8.65835 -38.7181 2 -7.73901 -41.2796 2 -7.73901 -42.3296 2 
-8.69021 -40.9176 2 -7.70853 -43.3952 2 -7.70853 -44.4952 2 
-8.66339 -43.0663 2 -7.66945 -45.5935 2 -7.66945 -46.5935 2 
-8.59383 -45.2303 2 -7.95415 -48.0584 2 -9.67825 -48.4226 2 
-10.7182 -48.4226 2 -11.6348 -48.3057 2 -12.6748 -48.3057 2 
-11.1489 -47.4698 2 -13.7069 -48.2596 2 -14.7144 -48.2596 2 
-13.0976 -47.3068 2 -15.8051 -48.2626 2 -16.8776 -48.2626 2 
-15.2204 -47.2637 2 -17.9758 -48.253 2 -19.1458 -48.253 2 
-17.4092 -47.2571 2 -20.2878 -48.258 2 -21.2953 -48.258 2 
-19.6494 -47.2525 2 -22.3692 -48.2334 2 -23.5067 -48.2334 2 
-21.8653 -47.2329 2 -24.6111 -48.2216 2 -25.6836 -48.2216 2 
-24.0436 -47.1965 2 -26.7837 -48.2117 2 -27.8562 -48.2117 2 
-26.2481 -47.1749 2 -29.0034 -48.2579 2 -30.2059 -48.2579 2 
-28.4954 -47.2112 2 -31.2789 -48.2465 2 -32.3514 -48.2465 2 
-30.7156 -47.246 2 -33.467 -48.236 2 -34.5395 -48.236 2 
-32.9043 -47.224 2 -35.6415 -48.2368 2 -36.779 -48.2368 2 
-35.1219 -47.2144 2 -37.8358 -48.2425 2 -38.8433 -48.2425 2 
-37.2806 -47.2209 2 -39.888 -48.2499 2 -40.9605 -48.2499 2 
-39.3822 -47.234 2 -42.0379 -48.2275 2 -43.0454 -48.2275 2 
-41.5042 -47.2189 2 -44.1517 -48.2243 2 -45.3217 -48.2243 2 
-43.688 -47.1933 2 -46.4263 -48.2323 2 -47.4663 -48.2323 2 
-45.8989 -47.1982 2 -48.5508 -48.2207 2 -49.6558 -48.2207 2 
-48.088 -47.1945 2 -50.7506 -48.2168 2 -51.8556 -48.2168 2 
-50.2672 -47.179 2 -52.939 -48.2308 2 -53.979 -48.2308 2 
-52.4454 -47.1891 2 -55.135 -48.2535 2 -56.305 -48.2535 2 
-54.6848 -47.2258 2 -57.4015 -48.2519 2 -58.539 -48.2519 2 
-56.9373 -47.247 2 -59.5874 -48.2647 2 -60.6274 -48.2647 2 
-59.0823 -47.2582 2 -61.7772 -48.3014 2 -62.9472 -48.3014 2 
-61.2805 -47.3076 2 -64.0541 -48.3068 2 -65.0616 -48.3068 2 
-63.5371 -47.3497 2 -66.1376 -48.3144 2 -67.2101 -48.3144 2 
-65.72 -47.3628 2 -68.3262 -48.3686 2 -69.3662 -48.3686 2 
-67.9121 -47.4246 2 -25.0709 -2.68597 2 -24.3472 -1.96221 2 
-26.5634 -4.20769 2 -25.8316 -3.4758 2 -24.7444 -3.67142 2 
-28.1249 -5.75715 2 -27.3362 -4.96834 2 -26.2779 -5.2219 2 
-29.6132 -7.2772 2 -28.8895 -6.55345 2 -27.8153 -6.77885 2 
-31.0721 -8.74229 2 -30.3484 -8.01854 2 -29.315 -8.31648 2 
-32.5074 -10.1968 2 -31.7918 -9.48116 2 -30.77 -9.79668 2 
-33.9654 -11.687 2 -33.2173 -10.9388 2 -32.1997 -11.2776 2 
-35.4685 -13.2282 2 -34.7285 -12.4881 2 -33.6727 -12.8208 2 
-36.9453 -14.6809 2 -36.2216 -13.9571 2 -35.1889 -14.3509 2 
-38.4486 -16.0796 2 -37.733 -15.364 2 -36.7298 -15.763 2 
-40.0043 -17.497 2 -39.2074 -16.7001 2 -38.2764 -17.0666 2 
-42.7328 -16.9519 2 -42.0009 -17.6838 2 -44.2287 -15.529 2 
-43.4968 -16.2608 2 -43.7925 -17.3694 2 -45.8043 -13.983 2 
-44.9911 -14.7962 2 -45.319 -15.9454 2 -47.3558 -12.4235 2 
-46.5995 -13.1797 2 -46.8766 -14.4093 2 -48.8938 -10.8487 2 
-48.1456 -11.5968 2 -48.4615 -12.7792 2 -50.3807 -9.36546 2 
-49.657 -10.0891 2 -50.0145 -11.193 2 -51.7847 -7.9452 2 
-51.0853 -8.64449 2 -51.4823 -9.71247 2 -53.3103 -6.42297 2 
-52.554 -7.17919 2 -52.9562 -8.2255 2 -54.8242 -4.89616 2 
-54.068 -5.65237 2 -54.4832 -6.68889 2 -56.2886 -3.42916 2 
-55.5811 -4.13659 2 -55.9978 -5.15873 2 -57.7602 -1.94444 2 
-57.0527 -2.65187 2 -57.5187 -3.62187 2 -56.9016 0.664556 2 
-57.6903 -0.124257 2 -55.4974 2.18395 2 -56.1886 1.49273 2 
-57.4301 1.62396 2 -54.0253 3.70827 2 -54.7734 2.96011 2 
-55.9931 3.22829 2 -52.5093 5.26812 2 -53.2574 4.51997 2 
-54.5011 4.81615 2 -50.9572 6.80423 2 -51.7215 6.03982 2 
-52.9454 6.39954 2 -49.4337 8.3031 2 -50.1818 7.55495 2 
-51.3823 7.92196 2 -47.9496 9.75223 2 -48.6571 9.04474 2 
-49.8303 9.41432 2 -46.4966 11.2476 2 -47.2203 10.5239 2 
-48.3242 10.9276 2 -45.0235 12.7203 2 -45.7228 12.021 2 
-46.8211 12.4726 2 -43.5217 14.2218 2 -44.2535 13.4899 2 
-45.2773 14.0155 2 -41.8913 15.7686 2 -42.6719 14.9879 2 
-43.6575 15.5511 2 -39.249 14.9728 2 -39.9728 15.6965 2 
-37.6805 13.405 2 -38.4694 14.1937 2 -38.1911 15.3941 2 
-36.1457 11.9687 2 -36.8695 12.6924 2 -36.6003 13.9024 2 
-34.6228 10.4853 2 -35.3466 11.209 2 -34.9901 12.4301 2 
-33.1207 8.98185 2 -33.8526 9.71367 2 -33.4207 10.8988 2 
-31.642 7.48092 2 -32.3739 8.21274 2 -31.9036 9.35798 2 
-30.2291 6.05312 2 -30.9285 6.75242 2 -30.4433 7.86037 2 
-28.686 4.53652 2 -29.4504 5.30087 2 -28.9511 6.37962 2 
-27.2482 3.003 2 -27.972 3.72669 2 -27.4584 4.81754 2 
-25.7443 1.3892 2 -26.525 2.16981 2 -26.0212 3.17452 2 
-24.2857 -0.234606 2 -25.0257 0.505348 2 -24.5793 1.45748 2 
-70.4062 -47.2686 2 -23.31 -2.06367 2 -23.6735 -1.14429 2 
-23.2485 -0.336064 2 -8.83945 -47.7935 2 -42.3464 -18.7468 2 
-41.3189 -18.37 2 -40.2908 -18.6159 2 -39.3217 -18.8059 2 
-40.6363 -19.6789 2 -58.8846 -0.0822386 2 -58.4319 -1.00228 2 
-58.9545 -1.90243 2 -39.8757 16.9626 2 -40.8777 16.486 2 
-41.7942 17.0347 2 -9.39355 -46.9577 2 -70.3843 48.7095 2 
-22.8191 -3.09478 2 -22.1454 -2.27686 2 -66.3662 47.8177 2 
-65.2177 47.8049 2 -64.0359 47.845 2 -62.9483 47.8318 2 
-64.755 46.7955 2 -61.8496 47.8194 2 -60.7175 47.8297 2 
-62.4744 46.8232 2 -59.5594 47.7713 2 -58.4673 47.757 2 
-60.2177 46.7523 2 -57.3285 47.7426 2 -56.1874 47.7365 2 
-57.9208 46.6795 2 -54.9989 47.7176 2 -53.8507 47.6873 2 
-55.5935 46.6462 2 -52.7686 47.6784 2 -51.7006 47.6929 2 
-53.323 46.6184 2 -50.6059 47.7075 2 -49.5141 47.704 2 
-51.1461 46.6243 2 -48.4304 47.7101 2 -47.3275 47.7175 2 
-48.9676 46.6451 2 -46.2665 47.7134 2 -45.2395 47.7198 2 
-46.8228 46.6471 2 -44.1595 47.6836 2 -43.0893 47.6679 2 
-44.6817 46.6068 2 -42.0044 47.6813 2 -40.9279 47.6693 2 
-42.5168 46.584 2 -39.8656 47.674 2 -38.788 47.6773 2 
-40.3696 46.6022 2 -37.6907 47.679 2 -36.6039 47.6893 2 
-38.21 46.6086 2 -35.5347 47.6989 2 -34.4348 47.6957 2 
-36.0437 46.6198 2 -33.3733 47.6768 2 -32.3165 47.6804 2 
-33.913 46.6105 2 -31.2109 47.6844 2 -30.0964 47.6862 2 
-31.746 46.5955 2 -28.9403 47.7029 2 -27.7981 47.6979 2 
-29.4842 46.6161 2 -26.7236 47.7067 2 -25.6585 47.7166 2 
-27.2536 46.6416 2 -24.5804 47.7202 2 -23.4862 47.7078 2 
-25.1008 46.6541 2 -22.3803 47.7002 2 -21.2767 47.7167 2 
-22.9168 46.6501 2 -20.1759 47.7003 2 -19.1384 47.6986 2 
-20.7102 46.6262 2 -18.1002 47.682 2 -17.0319 47.7314 2 
-18.5713 46.5932 2 -15.9424 47.751 2 -14.8749 47.7849 2 
-16.4436 46.5962 2 -13.815 47.9753 2 -12.7723 48.0048 2 
-14.2941 46.8063 2 -11.7044 48.1717 2 -10.6777 48.2059 2 
-12.1664 47.1636 2 -9.50725 48.197 2 -27.4701 -7.87938 2 
-26.7055 -7.08309 2 -69.5936 -46.6606 2 -69.5702 48.1359 2 
-68.8274 -43.5874 2 -68.759 -42.5564 2 -68.6399 -41.3932 2 
-68.6024 -40.3415 2 -67.6403 -42.1168 2 -68.5514 -39.2228 2 
-68.5419 -38.1003 2 -67.4702 -39.8349 2 -68.5533 -36.9307 2 
-68.5342 -35.8182 2 -67.4305 -37.5466 2 -68.5318 -34.7295 2 
-68.5427 -33.6184 2 -67.4395 -35.2884 2 -68.5476 -32.4874 2 
-68.5714 -31.3623 2 -67.4422 -33.0688 2 -68.5885 -30.259 2 
-68.5631 -29.2027 2 -67.4642 -30.8345 2 -68.5368 -28.0717 2 
-68.5163 -26.9701 2 -67.4549 -28.6003 2 -68.5349 -25.9286 2 
-68.5817 -24.8793 2 -67.4472 -26.4279 2 -68.6059 -23.804 2 
-68.6346 -22.687 2 -67.4901 -24.3112 2 -68.6574 -21.5661 2 
-68.6675 -20.4485 2 -67.5371 -22.1151 2 -68.6608 -19.3257 2 
-68.6317 -18.1901 2 -67.553 -19.8715 2 -68.6297 -17.0395 2 
-68.6284 -15.9634 2 -67.5444 -17.598 2 -68.6603 -14.9357 2 
-68.6896 -13.898 2 -67.5743 -15.4197 2 -68.7392 -12.8404 2 
-68.7526 -11.7632 2 -67.6558 -13.3345 2 -68.7792 -10.6866 2 
-68.7913 -9.60195 2 -67.7321 -11.2004 2 -68.78 -8.48044 2 
-68.7642 -7.36241 2 -67.7474 -9.00231 2 -68.7701 -6.25027 2 
-68.749 -5.16146 2 -67.7419 -6.76867 2 -68.6562 -4.10629 2 
-68.6372 -3.05295 2 -67.6549 -4.60136 2 -68.5578 -2.01642 2 
-68.5692 -0.92408 2 -67.4826 -2.50964 2 -68.6267 0.17865 2 
-68.6559 1.27305 2 -67.4607 -0.370378 2 -68.6917 2.42581 2 
-68.6958 3.557 2 -67.554 1.88511 2 -68.664 4.66206 2 
-68.654 5.79783 2 -67.5579 4.14292 2 -68.6943 6.9188 2 
-68.6969 8.00708 2 -67.5664 6.36895 2 -68.7425 9.03265 2 
-68.7565 10.0912 2 -67.6525 8.51548 2 -68.7668 11.1619 2 
-68.754 12.2484 2 -67.7084 10.6117 2 -68.7486 13.366 2 
-68.7426 14.4475 2 -67.7133 12.8 2 -68.7042 15.4653 2 
-68.6965 16.4952 2 -67.6695 14.9354 2 -68.6913 17.5666 2 
-68.6939 18.6329 2 -67.6258 17.0246 2 -68.6848 19.7924 2 
-68.6801 20.8976 2 -67.6114 19.2555 2 -68.6634 21.986 2 
-68.6452 23.0712 2 -67.5856 21.5034 2 -68.6294 24.1196 2 
-68.6241 25.2078 2 -67.553 23.6402 2 -68.5972 26.4126 2 
-68.5665 27.6076 2 -67.5102 25.8935 2 -68.5602 28.7003 2 
-68.5892 29.8068 2 -67.477 28.1909 2 -68.6205 30.8645 2 
-68.6496 31.9367 2 -67.502 30.3413 2 -68.6805 33.0377 2 
-68.696 34.1086 2 -67.5642 32.4999 2 -68.6822 35.2321 2 
-68.6663 36.3577 2 -67.5813 34.7244 2 -68.6995 37.491 2 
-68.687 38.5841 2 -67.6007 36.9812 2 -68.7 39.6603 2 
-68.7162 40.7067 2 -67.6468 39.1907 2 -68.6869 41.8301 2 
-68.7085 42.9348 2 -67.6306 41.3903 2 -68.7793 44.0571 2 
-68.8466 45.0845 2 -67.6721 43.636 2 -69.081 46.2379 2 
-69.1838 47.1797 2 -68.5981 48.0212 2 -67.9773 45.9117 2 
-9.51691 -45.9683 2 -10.3557 -46.5974 2 -9.55598 -44.87 2 
-69.1844 -45.665 2 -69.0526 -44.6912 2 -67.9847 -44.3839 2 
-9.40834 46.5346 2 -9.24103 45.4379 2 -9.32715 44.5084 2 
-9.38169 43.458 2 -10.1451 44.8271 2 -9.44262 42.3775 2 
-9.45605 41.2995 2 -10.2921 42.817 2 -9.49273 40.2552 2 
-9.49872 39.1747 2 -10.3897 40.6922 2 -9.54274 38.0331 2 
-9.55445 36.8961 2 -10.4704 38.5063 2 -9.61476 35.7673 2 
-9.65439 34.6149 2 -10.5748 36.236 2 -9.68162 33.51 2 
-9.69936 32.4621 2 -10.6623 34.0023 2 -9.68205 31.3666 2 
-9.66768 30.2854 2 -10.6722 31.8019 2 -9.69578 29.1329 2 
-9.7082 27.9857 2 -10.683 29.554 2 -9.69771 26.8723 2 
-9.71216 25.7282 2 -10.7006 27.2882 2 -9.69663 24.6212 2 
-9.68624 23.5511 2 -10.6746 25.0679 2 -9.66539 22.4709 2 
-9.65252 21.3769 2 -10.6382 22.8808 2 -9.68358 20.2903 2 
-9.66055 19.2591 2 -10.6484 20.714 2 -9.67802 18.1908 2 
-9.70027 17.0912 2 -10.6969 18.5592 2 -9.73407 15.9667 2 
-9.72963 14.8152 2 -10.7482 16.3665 2 -9.72383 13.7484 2 
-9.72676 12.7297 2 -10.7762 14.1753 2 -9.69869 11.704 2 
-9.68588 10.6627 2 -10.7423 12.0828 2 -9.65243 9.58115 2 
-9.62794 8.49424 2 -10.6808 9.97554 2 -9.58086 7.43896 2 
-9.55671 6.36983 2 -10.6003 7.83875 2 -9.5339 5.24126 2 
-9.55092 4.10789 2 -10.5304 5.6549 2 -9.57321 3.01932 2 
-9.59652 1.9391 2 -10.5299 3.43775 2 -9.61709 0.90858 2 
-9.60514 -0.117505 2 -10.5727 1.31866 2 -9.63174 -1.19625 2 
-9.65034 -2.32493 2 -10.6199 -0.790606 2 -9.60485 -3.42091 2 
-9.59894 -4.46833 2 -10.601 -2.96533 2 -9.59762 -5.51116 2 
-9.59106 -6.57196 2 -10.5542 -5.10413 2 -9.60492 -7.66655 2 
-9.61776 -8.77728 2 -10.5667 -7.24155 2 -9.61697 -9.8868 2 
-9.61018 -10.9786 2 -10.5798 -9.44565 2 -9.59273 -12.0214 2 
-9.5636 -13.0909 2 -10.5615 -11.5979 2 -9.56411 -14.207 2 
-9.54981 -15.2927 2 -10.5446 -13.7568 2 -9.55384 -16.3789 2 
-9.56426 -17.4691 2 -10.5491 -15.9592 2 -9.56465 -18.6122 2 
-9.58908 -19.7163 2 -10.5536 -18.1886 2 -9.61133 -20.7532 2 
-9.62582 -21.8138 2 -10.5762 -20.3687 2 -9.64217 -22.9322 2 
-9.65355 -24.0614 2 -10.6148 -22.524 2 -9.68328 -25.1315 2 
-9.66964 -26.1884 2 -10.6609 -24.7124 2 -9.67821 -27.2882 2 
-9.70321 -28.3794 2 -10.6992 -26.8823 2 -9.6879 -29.4511 2 
-9.68837 -30.5562 2 -10.6924 -29.0538 2 -9.69166 -31.695 2 
-9.69089 -32.8107 2 -10.6804 -31.2643 2 -9.65979 -33.8864 2 
-9.64964 -34.9616 2 -10.6526 -33.4788 2 -9.63919 -36.0969 2 
-9.61537 -37.2134 2 -10.611 -35.6898 2 -9.60651 -38.3329 2 
-9.63471 -39.4492 2 -10.5917 -37.9445 2 -9.65311 -40.5611 2 
-9.65676 -41.6443 2 -10.6013 -40.1759 2 -9.68481 -42.6997 2 
-9.65434 -43.7653 2 -10.5774 -44.5034 2 -10.6477 -42.3432 2 
-11.2723 -46.4805 2 -22.1052 -0.354829 2 -22.7175 0.554855 2 
-12.3422 -46.2571 2 -13.3743 -46.2109 2 -14.5139 -46.1618 2 
-15.6045 -46.1648 2 -13.7585 -45.112 2 -16.7912 -46.1981 2 
-17.8894 -46.1885 2 -16.0847 -45.0962 2 -19.0136 -46.1704 2 
-20.1556 -46.1754 2 -18.3956 -45.1114 2 -21.3453 -46.1694 2 
-22.4192 -46.1447 2 -20.7095 -45.0872 2 -23.5111 -46.0944 2 
-24.6154 -46.0826 2 -22.991 -45.0308 2 -25.7067 -46.0653 2 
-26.8068 -46.0554 2 -25.1741 -44.9632 2 -27.8996 -46.0587 2 
-29.0467 -46.105 2 -27.3582 -44.9492 2 -30.2121 -46.1445 2 
-31.2852 -46.1331 2 -29.6163 -44.9921 2 -32.3587 -46.1054 2 
-33.4743 -46.0948 2 -31.8551 -45.0038 2 -34.582 -46.0928 2 
-35.6839 -46.0937 2 -34.0363 -44.9741 2 -36.7407 -46.128 2 
-37.7975 -46.1337 2 -36.2008 -45.0065 2 -38.8657 -46.1466 2 
-39.9104 -46.1541 2 -38.3258 -45.0538 2 -41.0324 -46.129 2 
-42.1098 -46.1065 2 -40.516 -45.0417 2 -43.1735 -46.0837 2 
-44.2799 -46.0806 2 -42.7017 -44.9938 2 -45.3939 -46.0661 2 
-46.4985 -46.0741 2 -44.8794 -44.9565 2 -47.6127 -46.0683 2 
-48.6972 -46.0567 2 -47.1077 -44.9363 2 -49.7797 -46.0477 2 
-50.8744 -46.0438 2 -49.3044 -44.9215 2 -51.9651 -46.0507 2 
-53.0485 -46.0647 2 -51.4775 -44.9193 2 -54.1853 -46.0651 2 
-55.3413 -46.0878 2 -53.705 -44.9266 2 -56.5007 -46.1279 2 
-57.5972 -46.1263 2 -56.0011 -44.9671 2 -58.6319 -46.19 2 
-59.6803 -46.2027 2 -58.1952 -45.0708 2 -60.7739 -46.2949 2 
-61.9237 -46.3316 2 -60.3235 -45.2267 2 -63.0998 -46.3291 2 
-64.2067 -46.3345 2 -62.5933 -45.3163 2 -65.3291 -46.2803 2 
-66.4051 -46.288 2 -64.8918 -45.2597 2 -25.9134 -6.29814 2 
-25.1407 -5.53749 2 -25.5683 -7.39868 2 -43.2793 -19.2432 2 
-42.5973 -19.9295 2 -24.3555 -4.73262 2 -23.5948 -3.94279 2 
-23.991 -5.80886 2 -28.9727 -9.38034 2 -28.2375 -8.63901 2 
-27.1278 -8.94325 2 -30.4139 -10.8927 2 -29.6941 -10.1538 2 
-28.6166 -10.4764 2 -31.866 -12.4143 2 -31.156 -11.6723 2 
-30.0802 -12.0294 2 -33.3503 -14.0184 2 -32.5873 -13.2173 2 
-31.5436 -13.6119 2 -34.8816 -15.4945 2 -34.1285 -14.7655 2 
-33.043 -15.1619 2 -36.5231 -16.9467 2 -35.7354 -16.2636 2 
-34.675 -16.6782 2 -38.1951 -18.2759 2 -37.4362 -17.6555 2 
-36.4418 -18.1561 2 -59.4494 0.911213 2 -60.1909 0.033186 2 
-46.4073 -16.3648 2 -45.6449 -17.0976 2 -44.8545 -17.8387 2 
-44.0904 -18.5298 2 -44.3413 -19.7126 2 -45.9428 -18.2581 2 
-49.6049 -13.1667 2 -48.8151 -13.9934 2 -51.1773 -11.5871 2 
-50.4141 -12.3466 2 -50.7677 -13.5608 2 -52.5973 -10.0928 2 
-51.8928 -10.8137 2 -52.2924 -11.9674 2 -54.1451 -8.57501 2 
-53.3758 -9.34102 2 -53.7862 -10.4423 2 -55.7151 -7.03413 2 
-54.9574 -7.80473 2 -55.377 -8.92025 2 -57.2637 -5.50246 2 
-56.5068 -6.26202 2 -56.981 -7.37786 2 -58.8695 -3.84841 2 
-58.1054 -4.6257 2 -58.6144 -5.729 2 -60.3619 -1.9492 2 
-59.6902 -2.89136 2 -38.673 17.5535 2 -39.5779 18.3429 2 
-56.5809 4.33443 2 -57.305 3.55827 2 -58.0603 2.67604 2 
-58.7733 1.84787 2 -60.0796 1.9633 2 -58.6482 3.78219 2 
-53.474 7.55418 2 -54.2618 6.78249 2 -51.8756 9.10276 2 
-52.6509 8.35204 2 -53.9674 8.73498 2 -50.3244 10.6153 2 
-51.1011 9.8737 2 -52.3698 10.3038 2 -48.7831 12.1935 2 
-49.5125 11.4219 2 -50.7833 11.8812 2 -47.1987 13.7477 2 
-47.9725 12.9743 2 -49.1608 13.4686 2 -45.5838 15.3375 2 
-46.3538 14.5679 2 -47.5053 15.0697 2 -43.8384 16.9505 2 
-44.6882 16.1844 2 -45.7648 16.7369 2 -41.7764 18.4854 2 
-42.79 17.768 2 -35.3622 14.4196 2 -36.1732 15.1322 2 
-37.0172 15.9186 2 -37.7969 16.6977 2 -37.4991 18.078 2 
-35.7791 16.4358 2 -32.1811 11.3793 2 -32.9513 12.1509 2 
-30.6373 9.83084 2 -31.3841 10.6 2 -30.9147 11.8521 2 
-29.193 8.33408 2 -29.9065 9.06257 2 -29.3869 10.3045 2 
-27.6227 6.75599 2 -28.4014 7.50825 2 -27.8646 8.71045 2 
-26.201 5.09096 2 -26.915 5.90079 2 -26.3653 7.02942 2 
-24.7544 3.37891 2 -25.4777 4.2121 2 -24.9343 5.29535 2 
-23.3424 1.55145 2 -24.061 2.43531 2 -23.5174 3.47289 2 
-22.1991 1.53269 2 -67.5036 47.9725 2 -47.9951 -14.7906 2 
-47.1999 -15.594 2 -47.5258 -16.7462 2 -49.1384 -15.1781 2 
-55.0481 5.97834 2 -55.816 5.16664 2 -57.1279 5.49662 2 
-55.5767 7.13298 2 -33.7544 12.9207 2 -34.5536 13.6804 2 
-34.1265 14.9102 2 -32.5148 13.4012 2 -68.6191 -46.4832 2 
-20.8468 -2.40163 2 -21.3377 -1.37051 2 -9.92816 47.3216 2 
-11.549 -45.3847 2 -42.5442 -21.0721 2 -41.6114 -20.5756 2 
-20.8067 -0.479595 2 -67.0743 46.9102 2 -67.1121 -45.3466 2 
-67.503 -46.429 2 -40.5832 -20.8214 2 -22.4302 -4.15598 2 
-61.5249 0.072906 2 -60.9601 -0.920545 2 -61.6959 -1.90948 2 
-38.4815 -19.3948 2 -60.2769 -3.89518 2 -39.3917 19.8111 2 
-40.5944 19.2203 2 -43.8206 18.4013 2 -41.5901 19.9536 2 
-10.5788 46.5435 2 -11.6474 -44.28 2 -63.0892 45.9053 2 
-61.9904 45.8929 2 -60.9336 45.7247 2 -59.7756 45.6663 2 
-61.5484 44.8068 2 -58.5805 45.5895 2 -57.4417 45.5752 2 
-59.2965 44.5619 2 -56.2385 45.5317 2 -55.05 45.5127 2 
-56.8982 44.4417 2 -53.8463 45.4944 2 -52.7643 45.4856 2 
-54.4913 44.3799 2 -51.6671 45.4716 2 -50.5724 45.4862 2 
-52.1905 44.3476 2 -49.4963 45.5258 2 -48.4126 45.532 2 
-50.0173 44.3731 2 -47.3469 45.5042 2 -46.2858 45.5001 2 
-47.8756 44.385 2 -45.2202 45.4085 2 -44.1401 45.3723 2 
-45.7443 44.2656 2 -43.061 45.3305 2 -41.9761 45.3438 2 
-43.5995 44.1321 2 -40.8736 45.391 2 -39.8114 45.3958 2 
-41.4179 44.1375 2 -38.779 45.5208 2 -37.6817 45.5224 2 
-39.2831 44.3097 2 -36.598 45.5556 2 -35.5289 45.5651 2 
-37.167 44.4678 2 -34.4349 45.4766 2 -33.3735 45.4577 2 
-34.9893 44.4124 2 -32.2746 45.4273 2 -31.169 45.4313 2 
-32.7965 44.2935 2 -30.0535 45.4513 2 -28.8974 45.468 2 
-30.5822 44.2831 2 -27.7681 45.528 2 -26.6936 45.5369 2 
-28.3374 44.3632 2 -25.6138 45.5575 2 -24.5357 45.5611 2 
-26.1284 44.4439 2 -23.4534 45.5299 2 -22.3476 45.5224 2 
-23.9664 44.4334 2 -21.2358 45.5148 2 -20.135 45.4984 2 
-21.7724 44.3946 2 -19.0349 45.4497 2 -17.9968 45.4331 2 
-19.5605 44.3384 2 -16.8547 45.4433 2 -15.7652 45.463 2 
-17.3184 44.2998 2 -14.6973 45.6198 2 -13.6374 45.8102 2 
-15.1084 44.4668 2 -12.575 46.0709 2 -11.5072 46.2378 2 
-10.9874 45.4509 2 -12.9782 44.8844 2 -23.5834 -6.95768 2 
-22.7982 -6.1528 2 -28.217 -11.6234 2 -27.4956 -10.8499 2 
-20.358 -3.68664 2 -19.5503 -2.78029 2 -66.477 -43.0131 2 
-66.3579 -41.8498 2 -43.6716 -21.7252 2 -42.6857 -22.3713 2 
-66.3439 -40.4827 2 -66.2929 -39.3639 2 -65.1806 -41.3789 2 
-66.2633 -38.2136 2 -66.2746 -37.0441 2 -65.137 -38.8613 2 
-66.2816 -35.8749 2 -66.2792 -34.7862 2 -65.1143 -36.5419 2 
-66.2578 -33.6575 2 -66.2627 -32.5266 2 -65.0998 -34.2441 2 
-66.2521 -31.3833 2 -66.2692 -30.28 2 -65.0677 -31.972 2 
-66.2455 -29.1449 2 -66.2191 -28.014 2 -65.0333 -29.6937 2 
-66.243 -26.9538 2 -66.2616 -25.9123 2 -65.0335 -27.4984 2 
-66.3088 -24.8528 2 -66.3331 -23.7776 2 -65.1046 -25.3788 2 
-66.3716 -22.6824 2 -66.3944 -21.5616 2 -65.1904 -23.224 2 
-66.4121 -20.4137 2 -66.4054 -19.2909 2 -65.2467 -20.9809 2 
-66.3795 -18.1005 2 -66.3776 -16.9498 2 -65.2386 -18.6427 2 
-66.3699 -15.8811 2 -66.4018 -14.8535 2 -65.2051 -16.3836 2 
-66.4572 -13.7879 2 -66.5068 -12.7303 2 -65.2527 -14.2493 2 
-66.6498 -11.6862 2 -66.6765 -10.6097 2 -65.4511 -12.1396 2 
-66.697 -9.52236 2 -66.6856 -8.40084 2 -65.6147 -10.0082 2 
-66.5905 -7.29289 2 -66.5964 -6.18076 2 -65.5402 -7.81293 2 
-66.7011 -5.13941 2 -66.6082 -4.08423 2 -65.5498 -5.66364 2 
-66.0873 -3.07281 2 -66.0079 -2.03627 2 -65.1335 -3.61086 2 
-66.2244 -0.884895 2 -66.282 0.217835 2 -64.8292 -1.44806 2 
-66.3276 1.35855 2 -66.3634 2.5113 2 -65.0913 0.84403 2 
-66.4194 3.61841 2 -66.3876 4.72347 2 -65.193 3.09185 2 
-66.4349 5.83774 2 -66.4753 6.95871 2 -65.2964 5.31323 2 
-66.5275 7.96376 2 -66.5732 8.98933 2 -65.396 7.43255 2 
-66.6276 10.0649 2 -66.6379 11.1355 2 -65.5027 9.51313 2 
-66.5843 12.1983 2 -66.579 13.3159 2 -65.5035 11.6515 2 
-66.5569 14.4039 2 -66.5184 15.4217 2 -65.4279 13.8023 2 
-66.4849 16.4554 2 -66.4797 17.5268 2 -65.3723 15.9239 2 
-66.4572 18.705 2 -66.4481 19.8645 2 -65.3164 18.1358 2 
-66.4348 20.9713 2 -66.4181 22.0597 2 -65.2806 20.4208 2 
-66.4225 23.1603 2 -66.4066 24.2088 2 -65.2717 22.6283 2 
-66.3573 25.3171 2 -66.3303 26.5219 2 -65.2268 24.8372 2 
-66.3044 27.6999 2 -66.2981 28.7926 2 -65.1515 27.1236 2 
-66.3221 29.8431 2 -66.3534 30.9008 2 -65.1496 29.3521 2 
-66.3862 31.9963 2 -66.4172 33.0972 2 -65.2064 31.4981 2 
-66.4663 34.2229 2 -66.4525 35.3464 2 -65.2883 33.7192 2 
-66.5065 36.4825 2 -66.5397 37.6158 2 -65.3915 35.981 2 
-66.6021 38.6966 2 -66.6152 39.7728 2 -65.508 38.1979 2 
-66.5453 40.9362 2 -66.516 42.0596 2 -65.5006 40.4421 2 
-66.3469 43.3592 2 -66.4177 44.4815 2 -65.2617 42.9052 2 
-66.8399 45.7568 2 -11.0735 44.5213 2 -19.7255 -0.480381 2 
-20.4931 0.535304 2 -11.2899 43.4337 2 -11.3509 42.3532 2 
-12.1323 44.0575 2 -11.3471 41.1839 2 -11.3838 40.1395 2 
-11.3934 39.0508 2 -11.4375 37.9093 2 -12.3508 39.5425 2 
-11.5741 36.7697 2 -11.6345 35.6409 2 -12.4972 37.3141 2 
-11.7218 34.5034 2 -11.7491 33.3984 2 -12.7212 35.037 2 
-11.7923 32.3317 2 -11.775 31.2362 2 -12.8519 32.8328 2 
-11.7834 30.0573 2 -11.8115 28.9048 2 -12.9035 30.5871 2 
-11.7747 27.723 2 -11.7642 26.6097 2 -12.8751 28.2263 2 
-11.7545 25.5139 2 -11.7389 24.407 2 -12.8285 25.9488 2 
-11.7397 23.3252 2 -11.7189 22.245 2 -12.8196 23.7712 2 
-11.7248 21.1225 2 -11.7559 20.0358 2 -12.8263 21.5668 2 
-11.7655 18.9911 2 -11.7829 17.9228 2 -12.8418 19.3995 2 
-11.8354 16.8173 2 -11.8692 15.6929 2 -12.9039 17.2492 2 
-11.8633 14.6011 2 -11.8575 13.5343 2 -12.9505 15.0519 2 
-11.8653 12.461 2 -11.8372 11.4353 2 -12.9524 12.8868 2 
-11.8234 10.3957 2 -11.79 9.31416 2 -12.9464 10.7739 2 
-11.6738 8.2491 2 -11.6268 7.19381 2 -12.8164 8.66922 2 
-11.4971 6.13812 2 -11.4743 5.00954 2 -12.5707 6.54846 2 
-11.4753 3.90199 2 -11.4976 2.81342 2 -12.442 4.38521 2 
-11.6028 1.78573 2 -11.6234 0.755204 2 -12.5482 2.24996 2 
-11.6957 -0.345409 2 -11.7222 -1.42415 2 -12.7258 0.121657 2 
-11.6377 -2.48268 2 -11.5922 -3.57865 2 -12.7134 -2.03748 2 
-11.5331 -4.64936 2 -11.5317 -5.69219 2 -12.5698 -4.16671 2 
-11.594 -6.7303 2 -11.6078 -7.82488 2 -12.5729 -6.27553 2 
-11.6137 -8.94033 2 -11.6129 -10.0498 2 -12.641 -8.42908 2 
-11.581 -11.1605 2 -11.5635 -12.2032 2 -12.6149 -10.6552 2 
-11.6005 -13.2701 2 -11.601 -14.3863 2 -12.62 -12.8326 2 
-11.5836 -15.4868 2 -11.5876 -16.573 2 -12.6395 -15.0001 2 
-11.602 -17.71 2 -11.6024 -18.8532 2 -12.6364 -17.2376 2 
-11.6346 -19.9704 2 -11.6568 -21.0073 2 -12.683 -19.4918 2 
-11.6953 -22.0497 2 -11.7116 -23.1681 2 -12.7536 -21.6514 2 
-11.7114 -24.2697 2 -11.7411 -25.3398 2 -12.7919 -23.7954 2 
-11.7456 -26.3974 2 -11.7542 -27.4973 2 -12.7962 -25.9547 2 
-11.7596 -28.6096 2 -11.7442 -29.6813 2 -12.806 -28.1248 2 
-11.7736 -30.7897 2 -11.7768 -31.9285 2 -12.8407 -30.3455 2 
-11.7582 -33.0662 2 -11.7271 -34.142 2 -12.8514 -32.5917 2 
-11.7123 -35.2816 2 -11.7018 -36.4168 2 -12.8179 -34.869 2 
-11.6622 -37.6149 2 -11.6533 -38.7343 2 -12.7634 -37.2066 2 
-11.4787 -39.7282 2 -11.4971 -40.8401 2 -12.5491 -39.3986 2 
-12.8342 -43.8847 2 -13.9737 -43.8355 2 -66.8869 -44.2428 2 
-40.5094 -22.3756 2 -39.5344 -21.4789 2 -26.749 -10.0843 2 
-25.9815 -9.32471 2 -26.3493 -11.2313 2 -15.3723 -44.0026 2 
-16.559 -44.0359 2 -14.448 -42.7753 2 -17.7775 -44.0845 2 
-18.9017 -44.0664 2 -17.0651 -42.9909 2 -20.0389 -43.9688 2 
-21.2286 -43.9627 2 -19.4208 -42.9419 2 -22.4247 -43.8939 2 
-23.5165 -43.8436 2 -21.7541 -42.7755 2 -24.6082 -43.8107 2 
-25.6995 -43.7933 2 -24.0418 -42.6737 2 -26.7873 -43.7805 2 
-27.88 -43.7838 2 -26.2213 -42.628 2 -29.0363 -43.7835 2 
-30.2017 -43.8231 2 -28.4654 -42.6149 2 -31.3386 -43.8364 2 
-32.4121 -43.8087 2 -30.7587 -42.6279 2 -33.4956 -43.7858 2 
-34.6033 -43.7838 2 -32.9791 -42.6184 2 -35.6719 -43.8007 2 
-36.7287 -43.835 2 -35.1312 -42.6124 2 -37.8178 -43.8132 2 
-38.886 -43.8262 2 -37.2889 -42.6074 2 -39.9735 -43.8407 2 
-41.0955 -43.8156 2 -39.4655 -42.6001 2 -42.2062 -43.8461 2 
-43.2699 -43.8232 2 -41.6637 -42.645 2 -44.3702 -43.8046 2 
-45.4843 -43.7901 2 -43.8747 -42.6569 2 -46.5903 -43.7512 2 
-47.7045 -43.7454 2 -46.0811 -42.5993 2 -48.8409 -43.7315 2 
-49.9234 -43.7225 2 -48.3235 -42.5464 2 -50.9923 -43.7218 2 
-52.0829 -43.7286 2 -50.5288 -42.5318 2 -53.2848 -43.7191 2 
-54.4216 -43.7196 2 -52.7996 -42.5216 2 -55.6051 -43.7715 2 
-56.7645 -43.8116 2 -55.1849 -42.564 2 -57.8307 -43.9131 2 
-58.8653 -43.9767 2 -57.4346 -42.7175 2 -59.9491 -44.1139 2 
-61.0428 -44.2061 2 -59.5846 -42.9561 2 -62.0789 -44.4151 2 
-63.255 -44.4125 2 -61.7045 -43.3023 2 -64.482 -44.0299 2 
-65.6044 -43.9758 2 -25.2006 -8.52493 2 -24.4085 -7.73999 2 
-23.2157 -8.08393 2 -24.8218 -9.66602 2 -53.4326 -12.354 2 
-52.7171 -13.1273 2 -29.7001 -13.1998 2 -28.9579 -12.4203 2 
-27.8369 -12.7938 2 -31.1223 -14.8363 2 -30.4011 -14.0333 2 
-29.2788 -14.4242 2 -32.681 -16.3636 2 -31.9028 -15.6165 2 
-30.7603 -16.0379 2 -34.3752 -17.9688 2 -33.5214 -17.1997 2 
-32.3812 -17.6542 2 -36.2478 -19.4914 2 -35.3347 -18.7827 2 
-34.1811 -19.3042 2 -52.8688 11.4952 2 -53.6433 10.7243 2 
-61.8729 -4.0481 2 -61.0521 -5.00515 2 -54.9761 -10.8385 2 
-54.1977 -11.5903 2 -54.6224 -12.7502 2 -51.9891 -13.9548 2 
-51.1799 -14.7749 2 -53.1293 -14.3415 2 -56.6567 -9.31039 2 
-55.8443 -10.0807 2 -56.2558 -11.2286 2 -58.264 -7.77422 2 
-57.4723 -8.54633 2 -57.9396 -9.70675 2 -59.9499 -6.00538 2 
-59.1082 -6.88213 2 -59.5995 -8.0506 2 -37.9944 20.3484 2 
-39.0108 21.2257 2 -38.4588 -20.7297 2 -37.3322 -20.1998 2 
-36.225 -20.8264 2 -38.385 -22.2839 2 -43.9053 19.9492 2 
-44.9538 19.1318 2 -51.2172 13.0857 2 -52.0291 12.2792 2 
-53.3026 12.6997 2 -54.4815 9.94826 2 -55.3046 9.1504 2 
-54.9805 11.1397 2 -49.5615 14.7184 2 -50.3721 13.9376 2 
-51.6179 14.3355 2 -47.8816 16.427 2 -48.7264 15.6068 2 
-49.9378 16.0757 2 -46.0607 18.1917 2 -46.9564 17.3447 2 
-48.1775 17.8818 2 -41.4864 21.5476 2 -42.6684 20.8128 2 
-21.9298 -5.36095 2 -21.1542 -4.51294 2 -19.8577 -4.8916 2 
-21.5222 -6.50976 2 -65.5147 45.4801 2 -64.3329 45.5202 2 
-26.3819 9.20854 2 -27.1735 10.0344 2 -29.6096 12.379 2 
-30.4066 13.1583 2 -24.8702 7.44457 2 -25.5779 8.29977 2 
-24.8868 9.62369 2 -23.5024 5.56198 2 -24.2257 6.44084 2 
-23.4383 7.7112 2 -28.0675 10.8361 2 -28.7983 11.6044 2 
-26.5848 11.3342 2 -63.8489 44.5899 2 -19.8962 1.52805 2 
-20.9773 1.52884 2 -18.3307 -3.29213 2 -18.8195 -2.00712 2 
-42.7831 -23.7824 2 -41.6556 -23.1294 2 -48.721 -17.2208 2 
-47.9284 -17.9916 2 -18.7229 -0.989421 2 -18.4092 0.0254777 2 
-17.5033 -1.50126 2 -12.3449 41.8005 2 -11.8626 -43.0035 2 
-21.6022 2.52544 2 -40.6068 -23.7868 2 -63.9677 -43.1287 2 
-46.1454 19.7396 2 -61.9396 1.01666 2 -62.7088 0.0629276 2 
-43.8015 21.5433 2 -56.6942 9.57026 2 -56.1801 8.35698 2 
-56.9663 7.55283 2 -44.5862 -20.9426 2 -44.7277 -22.2418 2 
-45.3973 -20.2292 2 -61.5459 -6.15829 2 -57.8148 6.69756 2 
-58.5797 5.86535 2 -58.4181 7.92155 2 -38.6258 22.8611 2 
-40.0231 22.3238 2 -59.9633 6.09332 2 -59.2764 4.89239 2 
-60.0318 4.01017 2 -37.1941 19.3399 2 -36.8133 20.7546 2 
-36.3181 18.4842 2 -51.6046 -16.0149 2 -50.3832 -15.6208 2 
-49.5632 -16.4181 2 -32.8895 15.4246 2 -33.6981 16.1638 2 
-60.9252 3.01313 2 -61.6013 2.07647 2 -61.5535 4.12333 2 
-41.1013 23.183 2 -29.9385 14.4749 2 -31.2437 13.9481 2 
-32.0468 14.7179 2 -22.8965 4.5352 2 -22.188 5.68069 2 
-22.2031 3.5916 2 -63.4534 -1.74013 2 -62.8552 -2.76878 2 
-28.2901 12.9105 2 -47.0887 -18.7265 2 -46.2983 -19.4676 2 
-48.2839 -19.2012 2 -34.5788 16.8529 2 -35.4228 17.6394 2 
-35.1178 18.9013 2 -33.3418 17.3674 2 -62.7852 2.06649 2 
-62.5981 43.7499 2 -61.5413 43.5817 2 -18.394 1.2574 2 
-18.8782 2.25093 2 -60.1128 43.4096 2 -58.9177 43.3328 2 
-61.1625 42.3526 2 -57.6513 43.2269 2 -56.4481 43.1834 2 
-58.4675 42.0746 2 -55.1599 43.1239 2 -53.9562 43.1055 2 
-55.913 41.9091 2 -52.7274 43.0658 2 -51.6302 43.0518 2 
-53.396 41.8098 2 -50.4547 43.0301 2 -49.3787 43.0697 2 
-50.9916 41.7483 2 -48.3935 43.2866 2 -47.3278 43.2588 2 
-48.8309 41.9435 2 -46.3517 43.0141 2 -45.286 42.9225 2 
-46.8695 41.9157 2 -44.1698 42.8327 2 -43.0906 42.7908 2 
-44.7771 41.5812 2 -41.9187 42.738 2 -40.8162 42.7852 2 
-42.489 41.4385 2 -39.7441 42.9433 2 -38.7117 43.0683 2 
-40.2449 41.5438 2 -37.7285 43.3933 2 -36.6448 43.4264 2 
-38.1895 42.0269 2 -35.6575 43.1051 2 -34.5636 43.0167 2 
-36.219 42.0307 2 -33.4023 42.9015 2 -32.3034 42.8711 2 
-34.0705 41.5942 2 -31.1237 42.912 2 -30.0082 42.932 2 
-31.7295 41.5199 2 -28.888 43.0898 2 -27.7587 43.1498 2 
-29.4295 41.7186 2 -26.6342 43.1927 2 -25.5545 43.2133 2 
-27.1848 41.9192 2 -24.4827 43.2333 2 -23.4004 43.2021 2 
-24.9885 41.9821 2 -22.2956 43.1459 2 -21.1839 43.1384 2 
-22.8119 41.9459 2 -20.0608 43.0698 2 -18.9607 43.0211 2 
-20.584 41.8211 2 -17.8206 43.07 2 -16.6785 43.0802 2 
-18.3208 41.8014 2 -15.4355 43.1166 2 -14.3677 43.2734 2 
-15.9377 41.8868 2 -13.1946 43.7968 2 -28.7682 -15.6795 2 
-28.0672 -14.846 2 -17.7516 -4.24959 2 -17.0208 -3.47642 2 
-62.7657 -42.4237 2 -63.9926 -42.0411 2 -63.9786 -40.6739 2 
-63.9409 -39.5448 2 -63.9113 -38.3945 2 -62.753 -40.207 2 
-63.8326 -37.2248 2 -63.8395 -36.0556 2 -62.6365 -37.9082 2 
-63.7637 -34.8873 2 -63.7423 -33.7586 2 -62.482 -35.5702 2 
-63.6958 -32.5957 2 -63.6852 -31.4523 2 -62.3597 -33.2389 2 
-63.6895 -30.3018 2 -63.6658 -29.1668 2 -62.3176 -30.9254 2 
-63.688 -28.0448 2 -63.7118 -26.9847 2 -62.3441 -28.653 2 
-63.7528 -25.9388 2 -63.8 -24.8793 2 -62.4072 -26.4852 2 
-63.8778 -23.8085 2 -63.9164 -22.7133 2 -62.526 -24.3685 2 
-63.9879 -21.5519 2 -64.0056 -20.404 2 -62.6753 -22.1364 2 
-63.9851 -19.2051 2 -63.9593 -18.0147 2 -62.7263 -19.776 2 
-63.9205 -16.8094 2 -63.9128 -15.7407 2 -62.667 -17.3717 2 
-63.8868 -14.6218 2 -63.9422 -13.5562 2 -62.6023 -15.0475 2 
-64.1413 -12.48 2 -64.2844 -11.4359 2 -62.7754 -12.8525 2 
-64.0466 -5.93153 2 -64.1512 -4.89018 2 -63.6699 -0.588754 2 
-64.0846 0.354999 2 -64.1303 1.49571 2 -64.2176 4.74815 2 
-64.265 5.86242 2 -63.9305 6.94107 2 -63.9828 7.94613 2 
-62.8517 6.37599 2 -64.4295 8.94976 2 -64.4839 10.0253 2 
-62.9639 8.45828 2 -64.3913 11.0037 2 -64.3377 12.0665 2 
-63.3181 10.4403 2 -64.2508 13.1592 2 -64.2287 14.2472 2 
-63.1385 12.5114 2 -64.1661 15.327 2 -64.1327 16.3607 2 
-62.989 14.684 2 -64.1244 17.4696 2 -64.1019 18.6477 2 
-62.9182 16.8726 2 -64.0648 19.8634 2 -64.0515 20.9703 2 
-62.8728 19.1972 2 -63.9978 22.079 2 -64.0022 23.1797 2 
-62.7819 21.5217 2 -63.9517 24.3269 2 -63.9023 25.4352 2 
-62.6778 23.7777 2 -63.8572 26.604 2 -63.8313 27.7821 2 
-62.5822 26.0938 2 -63.8506 28.8709 2 -63.8746 29.9213 2 
-62.5563 28.3513 2 -63.9222 30.9932 2 -63.955 32.0887 2 
-62.6232 30.512 2 -64.0213 33.2288 2 -64.0704 34.3545 2 
-62.7371 32.7239 2 -64.1548 35.5464 2 -64.2089 36.6825 2 
-62.8878 35.056 2 -64.34 37.7343 2 -64.4025 38.815 2 
-63.1033 37.2997 2 -64.5748 39.8426 2 -64.5049 41.0061 2 
-63.4068 39.379 2 -13.194 40.1295 2 -13.2037 39.0408 2 
-12.712 -41.5004 2 -11.8345 -41.948 2 -13.4417 37.991 2 
-13.5784 36.8513 2 -14.2849 38.578 2 -13.8059 35.7007 2 
-13.8933 34.5632 2 -14.7504 36.3775 2 -14.0226 33.4094 2 
-14.0658 32.3427 2 -15.1072 34.0731 2 -14.1063 31.1848 2 
-14.1146 30.0058 2 -15.2769 31.7614 2 -14.0721 28.8086 2 
-14.0353 27.6269 2 -15.2749 29.4064 2 -13.9951 26.4446 2 
-13.9854 25.3489 2 -15.1922 27.0269 2 -14.0264 24.2312 2 
-14.0273 23.1494 2 -15.1931 24.727 2 -14.0335 22.0541 2 
-14.0394 20.9316 2 -15.2404 22.5141 2 -13.9764 19.8433 2 
-13.986 18.7985 2 -15.1836 20.3306 2 -14.0048 17.735 2 
-14.0572 16.6294 2 -15.1394 18.1788 2 -14.1715 15.5399 2 
-14.1657 14.4482 2 -15.2724 16.0257 2 -14.2072 13.3117 2 
-14.215 12.2384 2 -15.4282 13.7998 2 -14.1566 11.1691 2 
-14.1427 10.1295 2 -15.4113 11.5941 2 -14.0037 9.04408 2 
-13.8876 7.97901 2 -15.2138 9.43931 2 -13.6771 6.92328 2 
-13.5475 5.86758 2 -14.8644 7.29813 2 -13.2741 4.90433 2 
-13.275 3.79678 2 -14.3805 5.27915 2 -13.5698 2.84927 2 
-13.675 1.82158 2 -14.4018 3.36839 2 -13.9696 -1.57806 2 
-13.885 -2.63658 2 -13.6226 -5.70332 2 -13.6848 -6.74143 2 
-13.7617 -7.81324 2 -13.7676 -8.92869 2 -14.8114 -7.24104 2 
-13.7167 -10.1006 2 -13.6847 -11.2112 2 -14.8374 -9.48479 2 
-13.6609 -12.3591 2 -13.6979 -13.4259 2 -14.7627 -11.8045 2 
-13.6691 -14.4693 2 -13.6516 -15.5699 2 -14.71 -13.9958 2 
-13.686 -16.7138 2 -13.7004 -17.8508 2 -14.7156 -16.1831 2 
-13.7598 -18.9831 2 -13.792 -20.1003 2 -14.8094 -18.4592 2 
-13.8492 -21.1239 2 -13.8877 -22.1663 2 -14.926 -20.6152 2 
-13.9323 -23.253 2 -13.9321 -24.3547 2 -15.0279 -22.7256 2 
-13.9694 -25.439 2 -13.9739 -26.4967 2 -15.1099 -24.8966 2 
-14.0241 -27.6049 2 -14.0295 -28.7173 2 -15.1974 -27.0892 2 
-14.0588 -29.8693 2 -14.0881 -30.9777 2 -15.2769 -29.3495 2 
-14.0768 -32.1147 2 -14.0582 -33.2524 2 -15.295 -31.6385 2 
-14.0144 -34.4178 2 -13.9996 -35.5574 2 -15.2398 -33.9408 2 
-13.8996 -36.8199 2 -13.8599 -38.0179 2 -15.0961 -36.3687 2 
-13.6866 -39.3276 2 -13.5119 -40.3216 2 -14.8228 -38.9409 2 
-20.9813 3.58775 2 -44.019 -24.4477 2 -42.9889 -25.2058 2 
-57.412 -11.567 2 -56.5438 -12.3248 2 -59.3647 -10.3583 2 
-58.5491 -11.1224 2 -58.8371 -12.2186 2 -16.4577 -42.055 2 
-17.6762 -42.1035 2 -18.7353 -41.8843 2 -19.8724 -41.7867 2 
-18.1278 -40.9484 2 -21.0542 -41.6143 2 -22.2503 -41.5455 2 
-20.3687 -40.5567 2 -23.3699 -41.4504 2 -24.4616 -41.4175 2 
-22.6701 -40.2892 2 -25.6235 -41.3758 2 -26.7113 -41.3629 2 
-24.9516 -40.1525 2 -27.8615 -41.3582 2 -29.0179 -41.3579 2 
-27.2638 -40.106 2 -30.1836 -41.3591 2 -31.3206 -41.3725 2 
-29.5797 -40.1024 2 -32.4526 -41.3358 2 -33.536 -41.3129 2 
-31.8775 -40.0669 2 -34.5962 -41.2861 2 -35.6648 -41.303 2 
-34.0697 -40.0035 2 -36.7676 -41.2899 2 -37.8568 -41.2681 2 
-36.2327 -39.9637 2 -38.9296 -41.2676 2 -40.0172 -41.282 2 
-38.4084 -39.95 2 -41.1021 -41.3393 2 -42.2127 -41.3697 2 
-40.5662 -40.0067 2 -43.3501 -41.4038 2 -44.4504 -41.3851 2 
-42.7884 -40.098 2 -45.6138 -41.3401 2 -46.7198 -41.3012 2 
-45.0891 -40.087 2 -47.8421 -41.2663 2 -48.9785 -41.2524 2 
-47.3747 -40.0071 2 -50.0908 -41.2629 2 -51.1597 -41.2621 2 
-49.6093 -39.9827 2 -52.3599 -41.259 2 -53.5618 -41.2495 2 
-51.9219 -39.99 2 -54.78 -41.3132 2 -55.9635 -41.3652 2 
-54.3404 -40.0506 2 -57.1512 -41.5149 2 -58.2174 -41.6164 2 
-56.7463 -40.2641 2 -59.3904 -41.7967 2 -60.4742 -41.9339 2 
-59.107 -40.5941 2 -61.7295 -42.2147 2 -46.3411 21.29 2 
-47.448 20.3499 2 -30.2952 -17.3114 2 -29.5147 -16.5311 2 
-28.303 -16.953 2 -27.3603 -14.0013 2 -26.6194 -13.2045 2 
-26.8497 -15.2566 2 -43.8038 23.177 2 -45.0407 22.3135 2 
-31.9686 -19.04 2 -31.1283 -18.204 2 -29.8826 -18.6972 2 
-33.8821 -20.7223 2 -32.9225 -19.9085 2 -31.6696 -20.4582 2 
-52.0425 15.5887 2 -52.8875 14.7368 2 -55.8809 -13.1158 2 
-55.1158 -13.8796 2 -57.0371 -13.4542 2 -36.9694 23.3896 2 
-37.9817 24.4878 2 -54.3029 -14.6557 2 -53.5749 -15.4832 2 
-55.5614 -15.0213 2 -40.8104 25.008 2 -42.2737 24.2317 2 
-31.6184 15.9715 2 -50.3966 17.4236 2 -51.2317 16.5353 2 
-52.5013 16.9366 2 -53.7594 13.9189 2 -54.5991 13.135 2 
-54.184 15.1721 2 -13.5217 42.4466 2 -55.5051 12.3725 2 
-56.3433 11.5965 2 -55.9619 13.5918 2 -48.5966 19.353 2 
-49.5218 18.4353 2 -50.8156 18.8948 2 -63.8418 43.3648 2 
-49.9657 -17.6635 2 -21.7842 7.97998 2 -22.4286 8.98371 2 
-22.8761 10.2561 2 -23.6801 11.1649 2 -21.2219 10.5249 2 
-24.9498 11.9231 2 -25.8438 12.7249 2 -22.9391 12.5555 2 
-63.6304 -3.87875 2 -40.6509 -25.3124 2 -39.5047 -24.5587 2 
-25.884 -12.3884 2 -25.1373 -11.6228 2 -25.4074 -13.5959 2 
-26.9389 13.4352 2 -27.7502 14.2098 2 -25.3039 14.0242 2 
-64.2233 -7.20499 2 -62.8248 -6.43154 2 -61.7226 -7.43176 2 
-64.3184 -8.31294 2 -13.8494 -41.4294 2 -18.1437 3.2483 2 
-19.6459 3.51895 2 -20.2468 4.58512 2 -21.0445 -7.69678 2 
-20.1762 -6.90492 2 -57.718 12.0418 2 -57.1935 10.8089 2 
-58.069 10.0155 2 -13.518 41.2772 2 -27.2862 15.5287 2 
-28.6374 15.004 2 -29.4745 15.7939 2 -15.7914 -3.30552 2 
-16.3705 -2.34806 2 -16.2739 -1.33036 2 -17.3913 0.748357 2 
-64.6377 -10.4825 2 -64.6583 -9.39519 2 -15.248 -41.5965 2 
-63.7919 2.55552 2 -63.848 3.66263 2 -14.3708 40.7755 2 
-64.0109 42.0651 2 -44.964 -23.5921 2 -45.1698 -25.0155 2 
-45.8785 -22.8095 2 -46.3433 22.9237 2 -38.2929 -23.7799 2 
-37.2174 -23.0307 2 -38.3371 -25.3054 2 -43.1516 -26.7496 2 
-41.9157 -26.0843 2 -13.9336 -0.377886 2 -15.1052 -0.976987 2 
-16.2379 -0.130189 2 -13.8614 0.722727 2 -13.4612 -3.66412 2 
-13.4021 -4.73483 2 -61.5353 -41.0552 2 -37.2441 26.3836 2 
-38.9005 25.8551 2 -51.2634 -18.1032 2 -50.4212 -18.9059 2 
-15.8591 -40.7091 2 -22.0315 -8.42894 2 -20.6855 -8.8241 2 
-22.8567 -9.21125 2 -63.3279 -10.8229 2 -14.8829 1.32203 2 
-14.5141 -5.20073 2 -50.8227 -20.1061 2 -49.5251 -19.6664 2 
-48.6854 -20.4013 2 -40.0728 26.9038 2 -24.4352 -10.8538 2 
-23.6543 -10.054 2 -22.4701 -10.399 2 -23.9698 -12.0108 2 
-43.5129 25.002 2 -34.9631 -21.5592 2 -33.7045 -22.1634 2 
-36.0475 -22.2675 2 -46.5432 -20.6976 2 -59.1665 9.16697 2 
-60.0149 8.31169 2 -59.6658 10.4056 2 -36.202 22.1338 2 
-35.5579 23.7604 2 -35.4017 21.1254 2 -54.0042 -16.6772 2 
-52.8306 -16.363 2 -52.0339 -17.2089 2 -60.8482 -8.37822 2 
-60.004 -9.27031 2 -30.2698 16.6392 2 -31.1125 17.346 2 
-28.9686 17.1683 2 -60.6135 -10.686 2 -48.7922 20.9033 2 
-19.0697 -6.1932 2 -18.2734 -5.36689 2 -16.9636 -5.55119 2 
-18.5919 -7.38021 2 -21.3423 6.78369 2 -20.3326 8.0562 2 
-20.7365 5.75691 2 -40.8137 -26.8561 2 -32.0166 18.0291 2 
-32.8973 18.7183 2 -30.668 18.6968 2 -59.2682 40.9799 2 
-58.0018 40.874 2 -56.7145 40.741 2 -55.4263 40.6814 2 
-57.5151 39.6463 2 -54.0915 40.6004 2 -52.8626 40.5606 2 
-54.893 39.4323 2 -51.4437 40.3051 2 -50.2683 40.2834 2 
-52.1393 39.0957 2 -48.7994 40.1684 2 -47.8141 40.3853 2 
-49.2515 38.7252 2 -46.838 40.1406 2 -38.6722 -15.0056 1 
-37.9566 -14.29 1 -45.4786 40.4292 2 -44.3624 40.3393 2 
-46.4233 38.8988 2 -43.149 40.0046 2 -41.977 39.9518 2 
-43.8505 38.8527 2 -40.546 39.9456 2 -39.4738 40.1037 2 
-41.2059 38.5117 2 -38.2183 40.6136 2 -37.2351 40.9386 2 
-38.5194 39.0154 2 -36.2478 40.6174 2 -37.2411 -13.5744 1 
-36.5174 -12.8506 1 -35.0117 40.0168 2 -33.8504 39.9016 2 
-36.0278 38.9248 2 -32.4123 39.896 2 -31.2326 39.9368 2 
-33.3536 38.3186 2 -29.884 40.1009 2 -28.7638 40.2587 2 
-30.5668 38.477 2 -27.6906 40.6442 2 -26.5661 40.687 2 
-28.145 39.0265 2 -25.4762 40.4752 2 -24.4043 40.4953 2 
-25.9819 39.2002 2 -23.3778 40.8047 2 -22.273 40.7485 2 
-23.8655 39.2978 2 -21.2303 40.5272 2 -20.1072 40.4587 2 
-21.7962 39.386 2 -18.925 40.5157 2 -17.7849 40.5646 2 
-19.5713 39.2218 2 -16.6544 40.71 2 -15.4114 40.7464 2 
-15.0874 39.5987 2 -17.2585 39.4242 2 -14.7174 -3.2047 2 
-61.4976 -39.9262 2 -33.9111 19.2099 2 -34.8063 20.0547 2 
-34.195 21.4339 2 -61.3403 -38.7696 2 -61.2616 -37.5999 2 
-60.1227 -39.6178 2 -61.1502 -36.3729 2 -61.0744 -35.2046 2 
-59.854 -37.2343 2 -60.99 -33.9865 2 -60.9435 -32.8235 2 
-59.6581 -34.7892 2 -60.9138 -31.6225 2 -60.9181 -30.472 2 
-59.544 -32.3701 2 -60.9095 -29.2939 2 -60.9316 -28.172 2 
-59.5056 -29.9909 2 -60.9608 -27.0592 2 -61.0017 -26.0133 2 
-59.5261 -27.7 2 -61.0316 -24.9234 2 -61.1094 -23.8526 2 
-59.5851 -25.4973 2 -61.2538 -22.7876 2 -61.3253 -21.6263 2 
-59.7594 -23.3425 2 -61.4587 -20.3932 2 -61.4382 -19.1942 2 
-60.0372 -21.0445 2 -61.3685 -17.9419 2 -61.3297 -16.7365 2 
-60.1009 -18.559 2 -61.1106 -15.4274 2 -61.0846 -14.3085 2 
-59.8121 -15.9975 2 -63.0851 41.4657 2 -62.087 9.50951 2 
-61.9944 10.4879 2 -61.5392 13.8425 2 -61.4767 14.9223 2 
-61.7289 16.1617 2 -61.7206 17.2706 2 -60.2791 15.3203 2 
-61.6544 18.5659 2 -61.6172 19.7816 2 -60.4651 17.855 2 
-61.4706 20.8985 2 -61.4169 22.0073 2 -60.2522 20.2672 2 
-61.3543 23.1839 2 -61.3038 24.3311 2 -60.0429 22.5607 2 
-61.2865 25.5229 2 -61.2414 26.6917 2 -59.963 24.929 2 
-61.1755 27.8764 2 -61.1948 28.9652 2 -59.8799 27.3055 2 
-61.1557 30.054 2 -61.2032 31.1259 2 -59.7749 29.5791 2 
-61.2476 32.2777 2 -61.3139 33.4178 2 -59.7801 31.8197 2 
-61.5181 34.6608 2 -61.6025 35.8527 2 -60.0287 34.2145 2 
-61.843 37.0139 2 -61.9741 38.0657 2 -60.4733 36.6187 2 
-62.2827 39.2534 2 -62.455 40.281 2 -61.9609 41.3401 2 
-61.0223 38.9677 2 -15.3255 38.5489 2 -44.4633 -27.3564 2 
-43.3902 -28.2348 2 -16.2226 1.10173 2 -15.7769 37.2383 2 
-16.0044 36.0877 2 -16.3189 34.8389 2 -16.4482 33.6852 2 
-17.3454 35.6998 2 -16.6294 32.4116 2 -16.6698 31.2537 2 
-17.8411 33.1775 2 -16.5364 30.0544 2 -16.4939 28.8572 2 
-17.8889 30.7046 2 -16.3907 27.6248 2 -16.3505 26.4425 2 
-17.6522 28.2728 2 -16.4371 25.2504 2 -16.4781 24.1328 2 
-17.6355 25.8483 2 -16.5963 23.0005 2 -16.6026 21.9052 2 
-17.8403 23.5239 2 -16.5258 20.7566 2 -16.4628 19.6683 2 
-17.8817 21.243 2 -16.1708 18.6955 2 -16.1895 17.632 2 
-17.513 19.1216 2 -16.5118 16.6039 2 -16.6261 15.5144 2 
-17.5432 17.1207 2 -16.7951 14.3249 2 -16.8366 13.1885 2 
-18.0345 14.9031 2 -16.8149 11.9761 2 -16.7565 10.9068 2 
-18.1819 12.5012 2 -16.5568 9.74097 2 -16.4178 8.65552 2 
-17.9605 10.123 2 -16.0922 7.50571 2 -15.8818 6.44997 2 
-17.4352 7.80736 2 -52.4894 -18.4513 2 -16.0062 -8.78253 2 
-15.9553 -9.95447 2 -15.8545 -11.2223 2 -15.8306 -12.3702 2 
-17.0233 -10.5201 2 -15.8494 -13.4635 2 -15.8206 -14.5069 2 
-16.9412 -12.8813 2 -15.8246 -15.6114 2 -15.8589 -16.7553 2 
-16.9639 -15.0791 2 -15.9064 -17.887 2 -15.9658 -19.0193 2 
-17.0153 -17.3154 2 -16.1035 -20.0887 2 -16.1607 -21.1124 2 
-17.2004 -19.5164 2 -16.1774 -22.1291 2 -16.222 -23.2158 2 
-17.3548 -21.6026 2 -16.2991 -24.3105 2 -16.3364 -25.3948 2 
-17.4485 -23.714 2 -16.512 -26.5009 2 -16.5622 -27.6091 2 
-17.7012 -25.9148 2 -16.6291 -28.7791 2 -16.6585 -29.9311 2 
-17.9437 -28.1908 2 -16.6246 -31.1026 2 -16.6133 -32.2395 2 
-17.9768 -30.5322 2 -16.5491 -33.4277 2 -16.5052 -34.593 2 
-17.8787 -32.8917 2 -16.3841 -35.8288 2 -16.2842 -37.0913 2 
-17.6934 -35.3156 2 -16.1213 -38.3049 2 -15.9479 -39.6146 2 
-17.1576 -40.0731 2 -17.4093 -37.7649 2 -18.2167 -39.8538 2 
-34.9971 26.6891 2 -35.9159 28.0564 2 -61.9231 5.20886 2 
-62.8166 4.21182 2 -61.5886 6.28751 2 -21.9189 -39.1037 2 
-23.0385 -39.0086 2 -24.197 -38.8632 2 -25.359 -38.8215 2 
-23.4459 -37.6777 2 -26.5549 -38.746 2 -27.7051 -38.7413 2 
-25.8003 -37.4567 2 -28.9639 -38.7101 2 -30.1297 -38.7113 2 
-28.2551 -37.3501 2 -31.3403 -38.7294 2 -32.4723 -38.6928 2 
-30.7245 -37.3371 2 -33.5635 -38.6241 2 -34.6236 -38.5974 2 
-33.0262 -37.2866 2 -35.6366 -38.5167 2 -36.7394 -38.5037 2 
-35.1304 -37.1374 2 -37.8946 -38.4813 2 -38.9675 -38.4807 2 
-37.2985 -37.0344 2 -39.9871 -38.522 2 -41.0721 -38.5792 2 
-39.4734 -37.0532 2 -42.2527 -38.6797 2 -43.39 -38.7138 2 
-41.6737 -37.195 2 -44.5476 -38.7689 2 -45.7109 -38.7239 2 
-44.0119 -37.3506 2 -46.8642 -38.6784 2 -47.9865 -38.6436 2 
-46.3227 -37.3604 2 -49.1287 -38.595 2 -50.241 -38.6054 2 
-48.6182 -37.2663 2 -51.4917 -38.678 2 -52.6919 -38.6749 2 
-51.0111 -37.2903 2 -53.9615 -38.7988 2 -55.1798 -38.8625 2 
-53.5313 -37.4868 2 -56.4595 -39.0695 2 -57.6472 -39.2193 2 
-56.0807 -37.8178 2 -58.9497 -39.4375 2 -31.1423 -21.9094 2 
-30.1884 -21.041 2 -27.6246 -18.27 2 -26.8781 -17.4183 2 
-62.1137 -10.6871 2 -62.467 -9.7337 2 -26.1331 -16.5184 2 
-25.4263 -15.6738 2 -25.4547 -17.8354 2 -29.3141 -20.0893 2 
-28.481 -19.1967 2 -27.0561 -19.6621 2 -28.7867 -21.5405 2 
-51.664 20.3607 2 -52.5388 19.349 2 -60.9006 10.7897 2 
-62.1317 11.7205 2 -62.0447 12.8132 2 -59.803 11.6382 2 
-60.8919 7.26046 2 -62.1272 -8.65146 2 -63.3414 -8.78725 2 
-47.7523 -21.1986 2 -46.8512 -21.9602 2 -47.0876 -23.3105 2 
-48.9935 -21.6639 2 -54.6109 16.4238 2 -55.4828 15.6059 2 
-52.9653 18.1368 2 -53.7762 17.1902 2 -55.075 17.624 2 
-53.8137 19.6027 2 -58.6464 -13.6757 2 -57.9836 -14.4667 2 
-49.1642 22.3921 2 -50.3128 21.3953 2 -52.036 21.8495 2 
-24.9577 -14.6962 2 -24.2223 -13.8802 2 -24.2411 -15.958 2 
-43.4588 26.9508 2 -44.9889 25.8961 2 -23.7124 14.835 2 
-24.8075 15.5454 2 -46.5482 24.6303 2 -47.8485 23.6067 2 
-49.3691 24.0986 2 -46.4941 26.5791 2 -39.4247 29.1993 2 
-41.3346 28.3522 2 -40.9276 -28.4817 2 -39.6628 -27.7099 2 
-61.6403 8.50588 2 -60.5324 41.168 2 -61.4744 -11.7752 2 
-61.2752 -12.8513 2 -25.9635 15.9851 2 -26.8507 16.7793 2 
-24.372 16.7959 2 -43.5601 -30.0015 2 -42.2484 -29.3947 2 
-41.0976 -30.2484 2 -19.401 5.68812 2 -32.5858 19.8717 2 
-16.11 -6.41885 2 -16.1869 -7.49067 2 -58.5029 -15.5356 2 
-56.8936 -15.314 2 -56.0806 -16.0902 2 -58.722 -16.8448 2 
-46.4774 -25.5989 2 -45.5324 -26.4545 2 -45.7709 -27.9398 2 
-16.5794 38.2591 2 -38.345 -26.8661 2 -37.1332 -26.0873 2 
-38.4589 -28.4917 2 -15.3676 -4.33306 2 -15.5881 -5.30155 2 
-15.458 5.27415 2 -15.1845 4.3109 2 -52.2849 -20.556 2 
-51.3888 -21.3164 2 -34.7701 29.9615 2 -37.0171 29.6559 2 
-59.7835 -13.2311 2 -20.6168 -39.3236 2 -20.9852 -38.043 2 
-19.435 -39.496 2 -58.6629 -38.243 2 -23.254 -13.3098 2 
-22.5518 -12.5408 2 -22.8043 -14.4101 2 -32.2929 -22.9145 2 
-30.8117 -23.4973 2 -33.3739 -23.7513 2 -35.9554 -23.7634 2 
-42.8106 29.2464 2 -42.6883 31.2226 2 -44.8124 29.8213 2 
-27.4493 17.9089 2 -28.2447 18.7543 2 -26.1267 18.3653 2 
-60.5324 13.0516 2 -60.0666 39.9674 2 -55.148 -16.8277 2 
-54.4038 -17.7075 2 -56.4802 -17.1204 2 -22.5124 14.163 2 
-22.016 15.6842 2 -21.2427 13.4047 2 -56.4148 14.8089 2 
-57.3208 14.0465 2 -18.4113 -8.67207 2 -17.3048 -7.96035 2 
-54.0718 -18.8625 2 -53.3013 -19.7568 2 -53.8673 -20.9671 2 
-38.2789 31.1044 2 -27.6751 20.5538 2 -29.1944 19.8132 2 
-30.0984 20.4964 2 -16.6858 5.48173 2 -18.4648 -38.6207 2 
-19.4714 -9.31431 2 -18.1843 -9.89445 2 -18.0834 -11.1623 2 
-20.4584 -10.0465 2 -56.8417 16.0606 2 -33.82 23.7805 2 
-34.5875 25.0364 2 -33.2592 26.7092 2 -55.7317 38.1233 2 
-54.3969 38.0423 2 -53.0661 38.0198 2 -51.6472 37.7643 2 
-53.9048 36.7109 2 -50.5523 37.0622 2 -49.0834 36.9473 2 
-51.4791 35.9864 2 -35.8018 -12.135 1 -35.0619 -11.395 1 
-49.146 34.3921 2 -47.8453 36.0551 2 -46.4076 37.2796 2 
-45.0483 37.5681 2 -46.4703 34.7244 2 -43.8348 37.2334 2 
-34.3382 -10.6712 1 -33.5901 -9.92308 1 -42.0371 36.738 2 
-40.606 36.7318 2 -43.2349 35.4535 2 -38.6711 36.9876 2 
-37.4156 37.4975 2 -39.5022 35.2139 2 -32.8501 -9.18306 1 
-32.1346 -8.46743 1 -31.419 -7.75181 1 -30.6953 -7.02805 1 
-36.1795 36.897 2 -29.9228 -6.25551 1 -29.1992 -5.53175 1 
-34.1867 36.6479 2 -32.7486 36.6422 2 -35.5745 35.2206 2 
-31.0489 36.9528 2 -29.7003 37.1169 2 -31.8821 35.2822 2 
-28.0107 37.1467 2 -26.9375 37.5322 2 -28.4927 35.6226 2 
-25.8476 37.3204 2 -28.4673 -4.79986 1 -27.6786 -4.01105 1 
-23.9291 37.6215 2 -22.9025 37.9309 2 -24.8846 35.9535 2 
-21.8598 37.7097 2 -39.3877 -15.7213 1 -40.1846 -16.5182 1 
-20.217 37.7796 2 -19.0348 37.8366 2 -21.3234 36.3245 2 
-17.7099 38.1137 2 -58.8633 -18.0633 2 -57.5541 -17.6015 2 
-56.6215 -18.339 2 -58.9329 -19.3157 2 -20.5034 16.5453 2 
-21.7034 17.2173 2 -58.5515 -37.0161 2 -58.1102 -33.251 2 
-58.0804 -32.0499 2 -58.0659 -30.7354 2 -58.0572 -29.5573 2 
-56.6321 -31.6164 2 -58.0842 -28.3549 2 -58.1134 -27.2421 2 
-56.6445 -29.0994 2 -58.1092 -26.0356 2 -58.1391 -24.9457 2 
-56.6673 -26.6904 2 -58.7953 -21.6385 2 -58.9287 -20.4054 2 
-57.6911 -19.9098 2 -58.9003 14.6723 2 -59.1525 15.9117 2 
-58.7186 19.46 2 -58.5719 20.577 2 -58.5283 21.8503 2 
-58.4657 23.0269 2 -56.9947 21.0432 2 -58.5565 24.2842 2 
-58.5392 25.476 2 -57.0419 23.5739 2 -58.462 26.7683 2 
-58.3961 27.9531 2 -57.0555 26.1235 2 -58.2046 29.1258 2 
-58.1654 30.2147 2 -56.7867 28.5887 2 -58.2055 31.4027 2 
-58.2499 32.5545 2 -56.6352 30.9495 2 -58.5112 33.7808 2 
-58.7154 35.0237 2 -56.9366 33.3637 2 -59.7581 38.7797 2 
-16.0363 2.20058 2 -16.819 3.14309 2 -17.5866 4.41111 2 
-15.4793 3.3634 2 -18.6277 -37.4071 2 -19.5659 31.2596 2 
-19.4326 30.0602 2 -18.8678 28.8139 2 -18.7645 27.5815 2 
-20.5448 29.3689 2 -18.7247 26.4792 2 -18.8112 25.2871 2 
-19.9402 27.0204 2 -19.3238 24.167 2 -19.442 23.0347 2 
-20.4129 24.7979 2 -19.3712 21.67 2 -19.2944 20.5214 2 
-20.8547 22.3131 2 -18.9979 19.0863 2 -18.7059 18.1136 2 
-19.0281 17.0855 2 -51.7451 -22.5297 2 -50.283 -22.0798 2 
-49.3498 -22.8772 2 -19.2676 9.10483 2 -18.8257 7.90854 2 
-32.559 21.4518 2 -33.1544 22.5224 2 -32.1841 23.7984 2 
-31.5453 20.9601 2 -18.0411 -12.3787 2 -18.0599 -13.472 2 
-19.2021 -11.7531 2 -18.1695 -14.543 2 -18.1734 -15.6476 2 
-19.2693 -14.0405 2 -18.0183 -16.6896 2 -18.0657 -17.8213 2 
-19.2238 -16.1535 2 -18.445 -18.8435 2 -18.5828 -19.9129 2 
-19.448 -18.2178 2 -18.698 -20.9936 2 -18.7147 -22.0104 2 
-19.9426 -20.3207 2 -18.5331 -23.0838 2 -18.6102 -24.1785 2 
-19.8763 -22.4748 2 -19.4314 -27.4878 2 -19.4984 -28.6578 2 
-19.4045 -29.9647 2 -19.3707 -31.1362 2 -20.8922 -29.2618 2 
-19.2568 -32.413 2 -19.1926 -33.6011 2 -20.6845 -31.8456 2 
-18.9883 -34.911 2 -18.8671 -36.1467 2 -19.9226 -37.0025 2 
-24.4712 -19.238 2 -23.7261 -18.3381 2 -22.5817 -36.4685 2 
-23.7402 -36.3231 2 -25.0022 -36.1163 2 -26.1982 -36.0408 2 
-24.1381 -34.9072 2 -27.5464 -35.859 2 -28.8052 -35.8278 2 
-26.7483 -34.5185 2 -30.1108 -35.8339 2 -31.3214 -35.852 2 
-29.4021 -34.3427 2 -32.4408 -36.061 2 -33.5319 -35.9923 2 
-31.8271 -34.5577 2 -34.5485 -35.4016 2 -35.5615 -35.321 2 
-33.9631 -34.1759 2 -36.7292 -35.699 2 -37.8844 -35.6766 2 
-36.1474 -33.9632 2 -39.0361 -35.1619 2 -40.0557 -35.2032 2 
-38.4668 -33.8266 2 -41.1006 -35.7789 2 -42.2812 -35.8794 2 
-40.6633 -33.8876 2 -43.3976 -35.8245 2 -44.5552 -35.8797 2 
-42.8245 -34.4085 2 -45.6758 -36.1503 2 -46.829 -36.1048 2 
-45.0615 -34.6241 2 -47.9778 -35.5542 2 -49.1201 -35.5057 2 
-47.3309 -34.3442 2 -50.578 -35.8428 2 -51.8287 -35.9153 2 
-49.9377 -34.1307 2 -53.1755 -36.1758 2 -54.4451 -36.2997 2 
-52.7425 -34.7283 2 -55.8473 -36.556 2 -57.127 -36.763 2 
-58.3181 -35.7543 2 -55.4915 -35.245 2 -35.809 -25.3536 2 
-34.6391 -24.5904 2 -33.2275 -25.3414 2 -21.2247 -36.7826 2 
-19.9365 12.7554 2 -19.5098 14.3629 2 -58.4474 13.4551 2 
-59.2975 12.6676 2 -22.1724 -11.4992 2 -21.3748 -10.6564 2 
-20.1608 -11.1467 2 -21.4566 -12.7982 2 -58.4224 38.5262 2 
-57.1351 38.3932 2 -56.639 37.0032 2 -59.3781 37.5265 2 
-18.3557 36.6714 2 -58.0546 16.4422 2 -59.4334 17.0902 2 
-59.3672 18.3855 2 -57.1226 17.2392 2 -18.6703 35.4227 2 
-35.8169 -26.9143 2 -58.2337 -34.5362 2 -56.7701 -34.2161 2 
-58.0105 -23.6929 2 -58.1549 -22.6279 2 -47.2583 -28.5554 2 
-46.1892 -29.4573 2 -20.2364 34.984 2 -19.2261 34.0124 2 
-19.4073 32.7388 2 -57.6202 35.9315 2 -59.1376 36.3653 2 
-36.7193 33.5153 2 -39.1269 33.0587 2 -38.5055 -30.1836 2 
-37.1877 -29.3399 2 -56.5346 -24.2311 2 -31.9211 30.0391 2 
-33.0223 31.6386 2 -20.951 32.0944 2 -20.4873 19.5134 2 
-19.3407 15.5524 2 -18.5001 6.75873 2 -30.0717 22.0765 2 
-18.0104 5.58693 2 -31.8775 33.3439 2 -34.7266 33.2663 2 
-41.0618 32.8029 2 -20.3664 -34.4322 2 -21.5191 -35.428 2 
-19.2731 -26.2845 2 -20.8277 -26.7515 2 -19.0975 -25.1784 2 
-30.2089 -25.0841 2 -29.0582 -24.0791 2 -26.4449 -20.8857 2 
-25.5886 -19.9589 2 -23.86 -20.4616 2 -27.9508 -22.9609 2 
-27.0764 -22.0092 2 -25.6089 -22.306 2 -46.7719 30.5085 2 
-46.8942 28.5323 2 -55.2157 -19.0129 2 -48.4535 27.2664 2 
-19.9148 11.543 2 -55.6393 19.0801 2 -56.474 18.3137 2 
-55.6449 -21.5731 2 -54.6285 -22.3723 2 -19.4673 10.2707 2 
-52.3358 23.2351 2 -53.687 22.2005 2 -23.1953 -16.8927 2 
-22.7267 -15.9151 2 -21.7585 -15.3447 2 -22.2118 -18.2952 2 
-51.0562 24.4418 2 -52.7072 24.7929 2 -49.7405 25.6564 2 
-41.0184 -32.2367 2 -39.6976 -31.3237 2 -48.3723 -23.8068 2 
-47.3996 -24.6561 2 -47.7621 -26.0952 2 -49.6618 -24.2228 2 
-27.3479 -24.5477 2 -55.0489 -23.66 2 -53.2713 -23.054 2 
-52.1655 -23.8174 2 -55.1775 -24.9128 2 -45.1117 -30.3907 2 
-43.9699 -31.5505 2 -57.6869 18.6953 2 -21.8792 34.9141 2 
-57.0465 -21.9889 2 -48.471 -27.5936 2 -48.8893 -29.1111 2 
-49.3932 -26.6509 2 -55.1451 -27.4243 2 -55.1409 -26.2178 2 
-53.6552 -25.6466 2 -46.599 -31.0063 2 -21.7716 18.6845 2 
-23.2842 17.8235 2 -38.4263 -32.1718 2 -56.2168 35.6617 2 
-35.8816 -30.282 2 -35.835 -28.5901 2 -34.5108 -27.8564 2 
-24.4402 18.2632 2 -55.4689 22.9514 2 -55.5597 24.2086 2 
-55.2619 27.9897 2 -55.0703 29.1625 2 -54.5635 30.6206 2 
-54.6035 31.8086 2 -53.0387 30.0216 2 -55.3042 33.1088 2 
-55.5656 34.3351 2 -53.2325 32.7799 2 -31.1085 27.428 2 
-29.3608 29.1051 2 -22.8498 32.6574 2 -23.0085 31.1782 2 
-26.8898 -3.22223 1 -26.158 -2.49034 1 -55.368 -33.9598 2 
-26.3491 -25.8905 2 -25.2416 -24.7723 2 -21.6489 26.4845 2 
-22.1614 25.3644 2 -22.7608 23.2324 2 -22.69 21.8677 2 
-23.9968 24.919 2 -54.3104 24.8558 2 -55.8833 25.4783 2 
-55.8061 26.7707 2 -53.0308 26.0626 2 -53.8276 -33.6276 2 
-55.1062 -32.5987 2 -55.0917 -31.2842 2 -28.5865 24.0534 2 
-30.0333 24.5171 2 -54.5844 35.4067 2 -53.2536 35.3843 2 
-55.1691 21.5658 2 -20.5299 -15.9806 2 -20.3748 -17.0226 2 
-20.7541 -18.0449 2 -21.285 -19.4903 2 -21.4002 -20.571 2 
-31.6158 -26.3348 2 -29.8623 -26.9167 2 -32.881 -27.1739 2 
-21.7234 -34.1182 2 -21.9689 -32.7476 2 -23.1216 -33.7435 2 
-22.0828 -31.4708 2 -22.4561 -25.8316 2 -22.6144 -27.0349 2 
-44.7312 -33.1466 2 -45.8518 -33.4172 2 -25.0389 19.3928 2 
-46.299 32.6487 2 -48.3808 31.3597 2 -56.2895 -19.494 2 
-50.2199 32.4898 2 -50.6927 30.3496 2 -55.2128 20.2924 2 
-25.6607 21.1409 2 -26.6105 22.1999 2 -50.1406 27.6096 2 
-26.7278 29.1176 2 -27.5404 31.7287 2 -26.5721 24.6405 2 
-23.9742 21.0388 2 -22.7085 -21.4157 2 -21.3661 -22.2461 2 
-21.1846 -23.3195 2 -23.8259 -22.1367 2 -43.1796 -32.7575 2 
-56.2853 -20.5837 2 -22.0681 20.1195 2 -30.1779 33.6545 2 
-28.4882 33.6843 2 -23.9368 33.9979 2 -54.9706 -29.8778 2 
-54.9976 -28.6754 2 -53.4712 -28.2027 2 -53.4448 -30.8602 2 
-25.8552 33.6968 2 -37.2747 -32.6865 2 -20.6075 -14.4756 2 
-22.4163 -28.6413 2 -22.3225 -29.9482 2 -23.6069 -30.8503 2 
-20.1821 -24.5482 2 -20.4979 -13.4046 2 -48.0782 -31.9332 2 
-47.0006 -32.8666 2 -24.0446 -27.7214 2 -21.6719 -24.3195 2 
-49.1215 -30.6537 2 -49.5231 -32.5141 2 -50.981 -32.8512 2 
-50.3342 -29.6919 2 -32.8991 -28.8498 2 -24.3836 -33.5366 2 
-23.4586 -24.6029 2 -25.8756 -33.1581 2 -27.2239 -32.9763 2 
-24.8592 -31.9944 2 -28.7725 -32.7624 2 -30.078 -32.7684 2 
-27.8998 -31.402 2 -31.5557 -33.045 2 -32.6751 -33.2539 2 
-36.107 -32.3085 2 -42.0633 -32.8124 2 -52.0661 -31.7505 2 
-52.4808 -33.3672 2 -52.4864 -25.0114 2 -50.9602 -24.4871 2 
-49.9827 -25.4168 2 -52.4499 -26.3164 2 -34.7543 -31.5587 2 
-30.9261 -31.4646 2 -24.4574 -23.2602 2 -20.1185 -12.363 2 
-44.8614 33.8732 2 -43.0636 33.3778 2 -30.6989 25.7752 2 
-50.6916 -26.9152 2 -54.0898 27.3445 2 -25.9728 26.7725 2 
-27.9165 -27.0822 2 -25.8102 -27.3067 2 -24.1524 29.3961 2 
-29.3235 -28.3328 2 -52.4865 27.2816 2 -21.6888 27.5868 2 
-51.1996 28.8915 2 -51.7129 -28.8016 2 -51.9451 -30.3442 2 
-33.6918 -32.6632 2 -52.1587 34.6822 2 -51.8604 -27.5504 2 
-33.4664 -30.6367 2 -31.8365 -29.9543 2 -30.3588 -29.6777 2 
-22.2535 28.8331 2 -25.0989 -30.4718 2 -28.413 -29.8432 2 
-26.8645 -30.0571 2 -25.6121 -28.913 2 -51.458 33.382 2 
-70.6792 49.7416 0 -67.8838 49.4452 0 -69.1838 49.4452 0 
-64.9413 49.6789 0 -66.3388 49.6789 0 -67.2485 48.3826 0 
-62.3208 49.7177 0 -63.5883 49.7177 0 -64.3505 48.6551 0 
-59.5698 49.6325 0 -60.9348 49.6325 0 -61.6115 48.6087 0 
-56.8802 49.5983 0 -58.2452 49.5983 0 -58.9009 48.4892 0 
-53.8663 49.585 0 -55.3613 49.585 0 -56.0573 48.4418 0 
-50.8764 49.5751 0 -52.4364 49.5751 0 -53.1085 48.4186 0 
-48.0761 49.5931 0 -49.4086 49.5931 0 -50.2108 48.4267 0 
-45.4593 49.5775 0 -46.7268 49.5775 0 -47.3937 48.4291 0 
-42.4645 49.5476 0 -44.0245 49.5476 0 -44.6097 48.3836 0 
-39.6321 49.5662 0 -41.0621 49.5662 0 -41.7725 48.3723 0 
-36.802 49.5599 0 -38.1995 49.5599 0 -38.9375 48.3846 0 
-34.0791 49.5714 0 -35.4116 49.5714 0 -36.1145 48.3898 0 
-31.3977 49.5794 0 -32.7302 49.5794 0 -33.3751 48.4093 0 
-28.5045 49.5711 0 -29.967 49.5711 0 -30.5956 48.409 0 
-25.6772 49.5742 0 -27.1072 49.5742 0 -27.7676 48.4037 0 
-22.9257 49.6145 0 -24.2907 49.6145 0 -24.9838 48.4471 0 
-20.0614 49.6299 0 -21.4914 49.6299 0 -22.163 48.5029 0 
-17.3013 49.6283 0 -18.6663 49.6283 0 -19.3335 48.5166 0 
-14.6202 49.6187 0 -15.9527 49.6187 0 -16.5899 48.5055 0 
-11.9672 49.661 0 -13.2672 49.661 0 -13.8883 48.5382 0 
-9.40651 49.7488 0 -10.674 49.7488 0 -11.242 48.6683 0 
-7.82415 49.6415 0 -70.7442 -48.1085 0 -70.3759 -45.3044 0 
-70.3759 -46.6544 0 -70.6258 -42.2993 0 -70.6258 -43.6493 0 
-69.2175 -44.6952 0 -70.6533 -39.6053 0 -70.6533 -40.9053 0 
-69.4949 -41.6462 0 -70.6254 -36.6288 0 -70.6254 -38.1788 0 
-69.4945 -38.8257 0 -70.5917 -33.8833 0 -70.5917 -35.2333 0 
-69.4329 -36.0037 0 -70.5472 -31.1476 0 -70.5472 -32.5476 0 
-69.3547 -33.2725 0 -70.5074 -28.5481 0 -70.5074 -29.7981 0 
-69.2704 -30.5873 0 -70.4975 -25.8733 0 -70.4975 -27.1733 0 
-69.2208 -27.863 0 -70.5156 -22.9934 0 -70.5156 -24.5434 0 
-69.229 -25.1582 0 -70.5602 -20.1734 0 -70.5602 -21.5234 0 
-69.2917 -22.3583 0 -70.5543 -17.4277 0 -70.5543 -18.8277 0 
-69.3304 -19.5427 0 -70.5844 -14.8037 0 -70.5844 -16.1037 0 
-69.3545 -16.873 0 -70.5775 -12.3784 0 -70.5775 -13.5284 0 
-69.3778 -14.2736 0 -70.5701 -9.92534 0 -70.5701 -11.1253 0 
-69.3634 -11.7453 0 -70.5348 -7.24582 0 -70.5348 -8.59582 0 
-69.3207 -9.16271 0 -70.4878 -4.55236 0 -70.4878 -5.90236 0 
-69.2384 -6.48972 0 -70.5568 -1.83904 0 -70.5568 -3.23904 0 
-69.2604 -3.83294 0 -70.607 0.875555 0 -70.607 -0.474445 0 
-69.3796 -1.15503 0 -70.6013 3.49531 0 -70.6013 2.19531 0 
-69.4242 1.52932 0 -70.595 6.11522 0 -70.595 4.81522 0 
-69.4122 4.16899 0 -70.5886 8.7183 0 -70.5886 7.4183 0 
-69.3994 6.79197 0 -70.5475 11.6309 0 -70.5475 10.0809 0 
-69.3519 9.45761 0 -70.5623 14.4229 0 -70.5623 13.0729 0 
-69.3257 12.2622 0 -70.5549 17.0621 0 -70.5549 15.7621 0 
-69.3331 15.0435 0 -70.515 19.6559 0 -70.515 18.3559 0 
-69.2858 17.6765 0 -70.5491 22.4256 0 -70.5491 21.0256 0 
-69.2799 20.3399 0 -70.5431 25.1611 0 -70.5431 23.8111 0 
-69.308 23.0952 0 -70.5154 27.948 0 -70.5154 26.498 0 
-69.2744 25.8175 0 -70.4919 30.5508 0 -70.4919 29.2508 0 
-69.2232 28.4572 0 -70.536 32.99 0 -70.536 31.84 0 
-69.2438 31.0493 0 -70.5814 35.6558 0 -70.5814 34.3058 0 
-69.3333 33.6543 0 -70.6167 38.2125 0 -70.6167 36.9125 0 
-69.4139 36.2267 0 -70.6458 40.6135 0 -70.6458 39.4635 0 
-69.4783 38.7345 0 -70.5927 43.172 0 -70.5927 41.872 0 
-69.4544 41.2439 0 -70.5082 45.731 0 -70.5082 44.481 0 
-69.3168 43.8114 0 -69.3359 -47.8044 0 -7.74778 46.3542 0 
-7.74778 47.7042 0 -7.92588 43.9277 0 -7.92588 45.2277 0 
-8.88951 45.7403 0 -8.00685 41.4147 0 -8.00685 42.6647 0 
-9.14858 43.3508 0 -7.94452 38.5638 0 -7.94452 40.0138 0 
-9.16722 40.6869 0 -7.94904 35.9229 0 -7.94904 37.2229 0 
-9.10941 37.9452 0 -7.94666 33.0558 0 -7.94666 34.5058 0 
-9.11155 35.1872 0 -7.9855 30.5107 0 -7.9855 31.7607 0 
-9.148 32.475 0 -7.97911 27.6683 0 -7.97911 29.1183 0 
-9.18045 29.7874 0 -7.94746 24.9404 0 -7.94746 26.2904 0 
-9.14241 27.0171 0 -7.96948 22.3291 0 -7.96948 23.6291 0 
-9.13278 24.3279 0 -7.96658 19.4876 0 -7.96658 20.9376 0 
-9.15191 21.6251 0 -7.93989 16.7096 0 -7.93989 18.1096 0 
-9.12232 18.8556 0 -7.95542 14.0652 0 -7.95542 15.3652 0 
-9.11115 16.1332 0 -7.94189 11.4523 0 -7.94189 12.7523 0 
-9.11315 13.4759 0 -7.93248 8.94712 0 -7.93248 10.1471 0 
-9.09022 10.8579 0 -7.99921 6.37769 0 -7.99921 7.67769 0 
-9.14754 8.28326 0 -7.9839 3.7542 0 -7.9839 5.0542 0 
-9.19895 5.69034 0 -7.94042 0.835291 0 -7.94042 2.33529 0 
-9.14017 2.94794 0 -7.93443 -1.68346 0 -7.93443 -0.433464 0 
-9.0907 0.260277 0 -7.87763 -4.56146 0 -7.87763 -3.11146 0 
-9.0279 -2.43647 0 -7.87923 -7.31325 0 -7.87923 -5.91325 0 
-8.97271 -5.21627 0 -7.9253 -10.1086 0 -7.9253 -8.75858 0 
-9.02038 -8.01339 0 -7.95181 -12.8372 0 -7.95181 -11.4372 0 
-9.09295 -10.7874 0 -7.95842 -15.6784 0 -7.95842 -14.2284 0 
-9.12608 -13.5072 0 -8.00963 -18.5152 0 -8.00963 -17.1152 0 
-9.1839 -16.3351 0 -7.99295 -21.3811 0 -7.99295 -19.9811 0 
-9.21843 -19.2378 0 -8.02892 -24.1905 0 -8.02892 -22.7905 0 
-9.23772 -22.1132 0 -8.00062 -26.8928 0 -8.00062 -25.5428 0 
-9.24539 -24.8749 0 -7.99841 -29.6922 0 -7.99841 -28.2922 0 
-9.21488 -27.6265 0 -8.02578 -32.5596 0 -8.02578 -31.1096 0 
-9.24004 -30.4433 0 -8.00203 -35.3935 0 -8.00203 -33.9935 0 
-9.24365 -33.2947 0 -8.00166 -38.1502 0 -8.00166 -36.8002 0 
-9.21953 -36.1353 0 -7.99734 -40.8593 0 -7.99734 -39.5093 0 
-9.21484 -38.9011 0 -7.89149 -43.5632 0 -7.89149 -42.1632 0 
-9.10468 -41.564 0 -7.70403 -45.9834 0 -7.70403 -44.7334 0 
-8.81137 -44.0381 0 -7.82415 -48.0084 0 -10.492 -48.1962 0 
-9.32204 -48.1962 0 -13.0607 -48.0926 0 -11.7932 -48.0926 0 
-11.081 -47.0304 0 -15.5153 -48.0664 0 -14.3128 -48.0664 0 
-13.6343 -46.9006 0 -18.1921 -48.0645 0 -16.8271 -48.0645 0 
-16.1982 -46.8725 0 -20.9467 -48.1431 0 -19.5817 -48.1431 0 
-18.8996 -46.9492 0 -23.745 -48.1481 0 -22.3475 -48.1481 0 
-21.69 -47.0328 0 -26.4904 -48.1498 0 -25.0929 -48.1498 0 
-24.4387 -47.0395 0 -29.3236 -48.1056 0 -27.8936 -48.1056 0 
-27.1899 -46.997 0 -32.2345 -48.1011 0 -30.772 -48.1011 0 
-30.0415 -46.9483 0 -34.8888 -48.1033 0 -33.5888 -48.1033 0 
-32.8442 -46.9459 0 -37.5547 -48.1065 0 -36.2222 -48.1065 0 
-35.5318 -46.9513 0 -40.1525 -48.1023 0 -38.8525 -48.1023 0 
-38.163 -46.9503 0 -42.6535 -48.0807 0 -41.4835 -48.0807 0 
-40.7919 -46.9245 0 -45.2128 -48.0652 0 -43.9128 -48.0652 0 
-43.3822 -46.8875 0 -47.866 -48.0283 0 -46.5335 -48.0283 0 
-45.9622 -46.8351 0 -50.6094 -48.0708 0 -49.2119 -48.0708 0 
-48.6288 -46.8406 0 -53.3481 -48.1123 0 -51.9506 -48.1123 0 
-51.3159 -46.9247 0 -56.0482 -48.0828 0 -54.7157 -48.0828 0 
-54.0247 -46.9367 0 -58.7619 -48.1311 0 -57.4294 -48.1311 0 
-56.7735 -46.9555 0 -61.423 -48.173 0 -60.0255 -48.173 0 
-59.4182 -47.0457 0 -64.0847 -48.1391 0 -62.7847 -48.1391 0 
-62.0435 -47.0536 0 -66.6429 -48.0522 0 -65.4079 -48.0522 0 
-64.7284 -46.9328 0 -24.3548 -1.99085 0 -25.0785 -2.71461 0 
-25.8461 -3.50697 0 -26.6348 -4.29578 0 -24.7666 -3.73123 0 
-27.4097 -5.07396 0 -28.1415 -5.80585 0 -26.309 -5.30177 0 
-28.9133 -6.55078 0 -29.6858 -7.32333 0 -27.8557 -6.82488 0 
-30.3885 -8.08267 0 -31.1041 -8.7983 0 -29.3302 -8.32915 0 
-31.8584 -9.53489 0 -32.5983 -10.2749 0 -30.7872 -9.82509 0 
-33.3499 -11.0245 0 -34.0736 -11.7482 0 -32.293 -11.3112 0 
-34.802 -12.4592 0 -35.5175 -13.1749 0 -33.773 -12.7718 0 
-36.2595 -13.9592 0 -36.9751 -14.6748 0 -35.2434 -14.2671 0 
-37.7463 -15.4081 0 -38.4619 -16.1237 0 -36.7566 -15.7847 0 
-39.243 -16.8846 0 -40.0317 -17.6734 0 -38.309 -17.2789 0 
-41.7979 -17.7173 0 -42.5298 -16.9855 0 -43.3405 -16.2673 0 
-44.048 -15.5599 0 -43.4331 -17.4094 0 -44.8338 -14.8481 0 
-45.6064 -14.0756 0 -45.0297 -15.9795 0 -46.3906 -13.2865 0 
-47.1144 -12.5628 0 -46.5998 -14.4785 0 -47.9126 -11.7756 0 
-48.6527 -11.0356 0 -48.1823 -12.9022 0 -49.3867 -10.2718 0 
-50.1186 -9.53996 0 -49.7146 -11.3511 0 -50.8764 -8.79264 0 
-51.6408 -8.02829 0 -51.2065 -9.83997 0 -52.4047 -7.23311 0 
-53.1528 -6.48503 0 -52.7281 -8.29747 0 -53.893 -5.69249 0 
-54.6574 -4.92815 0 -54.2322 -6.70976 0 -55.4349 -4.17871 0 
-56.1668 -3.44689 0 -55.7499 -5.16779 0 -57.0302 -2.68166 0 
-57.7459 -1.9661 0 -57.3908 -3.65313 0 -57.6085 -0.108428 0 
-56.8198 0.680385 0 -56.0002 1.51202 0 -55.1708 2.3415 0 
-57.1599 1.65908 0 -54.3553 3.16271 0 -53.5666 3.95152 0 
-55.5249 3.31193 0 -52.7883 4.80666 0 -51.9752 5.61987 0 
-53.9311 4.98829 0 -51.1895 6.49056 0 -50.3845 7.29563 0 
-52.3672 6.71411 0 -49.5553 8.15189 0 -48.7015 9.00576 0 
-50.7523 8.44105 0 -47.8469 9.84747 0 -47.0419 10.6525 0 
-49.0685 10.139 0 -46.1544 11.5506 0 -45.268 12.437 0 
-47.3263 11.8788 0 -44.424 13.252 0 -43.6352 14.0408 0 
-45.5947 13.5919 0 -42.8583 14.776 0 -42.0859 15.5485 0 
-43.9738 15.142 0 -39.9737 15.6202 0 -39.2743 14.9209 0 
-38.597 14.1417 0 -37.9057 13.4505 0 -38.2952 15.2413 0 
-37.1479 12.7841 0 -36.4241 12.0604 0 -36.86 13.7957 0 
-35.6655 11.3026 0 -34.9092 10.5464 0 -35.3435 12.3715 0 
-34.1321 9.82459 0 -33.384 9.0765 0 -33.8077 10.8919 0 
-32.5904 8.32523 0 -31.8667 7.60154 0 -32.2371 9.41875 0 
-31.1033 6.81144 0 -30.3552 6.06336 0 -30.6802 7.87738 0 
-29.6004 5.28728 0 -28.8035 4.49041 0 -29.1621 6.31121 0 
-28.015 3.65716 0 -27.2099 2.85215 0 -27.6189 4.70189 0 
-26.4705 2.03868 0 -25.7711 1.33938 0 -26.091 3.05516 0 
-25.0529 0.546204 0 -24.3128 -0.19375 0 -24.6333 1.44851 0 
-70.2888 48.4452 0 -8.36651 48.6488 0 -70.2888 47.2452 0 
-8.28204 -46.9462 0 -9.20192 -46.1712 0 -39.9495 -18.7065 0 
-40.8911 -18.3401 0 -23.6514 -1.10529 0 -23.2956 -2.05331 0 
-68.1009 -47.8044 0 -59.0065 -2.01061 0 -58.4982 -1.08881 0 
-41.7157 -18.7504 0 -23.2536 -0.256207 0 -58.8691 -0.152933 0 
-42.5431 16.5871 0 -41.432 16.2585 0 -40.5092 16.5419 0 
-39.508 16.9422 0 -40.9664 17.5805 0 -69.0129 46.6347 0 
-67.5096 -46.5981 0 -63.6248 47.7915 0 -64.9779 47.7527 0 
-66.1289 47.3971 0 -67.6738 47.1634 0 -67.8932 45.6492 0 
-65.4032 46.5335 0 -58.3289 47.2299 0 -59.6535 47.2641 0 
-55.329 47.2259 0 -56.8479 47.2392 0 -57.6005 46.0141 0 
-52.3578 47.2177 0 -53.7878 47.2277 0 -49.4711 47.2381 0 
-50.9389 47.2201 0 -51.6182 46.0292 0 -46.6601 47.2108 0 
-48.0093 47.2264 0 -43.873 47.1469 0 -45.3079 47.1768 0 
-45.9234 45.9741 0 -41.0533 47.1865 0 -42.4557 47.1679 0 
-43.1539 45.9611 0 -38.19 47.1876 0 -39.6226 47.1938 0 
-40.3059 45.9894 0 -35.4257 47.1857 0 -36.8161 47.1742 0 
-37.5012 45.9834 0 -32.6632 47.2306 0 -34.0121 47.2226 0 
-34.7137 46.0069 0 -29.8571 47.2266 0 -31.2877 47.2349 0 
-31.9247 46.0482 0 -27.0311 47.2812 0 -28.4284 47.2781 0 
-29.1206 46.104 0 -24.27 47.3188 0 -25.6565 47.2785 0 
-26.3173 46.1529 0 -21.3811 47.34 0 -22.8154 47.3246 0 
-23.4881 46.156 0 -18.5764 47.3115 0 -19.9714 47.3131 0 
-20.6239 46.1348 0 -15.8571 47.3656 0 -17.2057 47.3751 0 
-17.8436 46.1716 0 -13.1045 47.419 0 -14.4576 47.3767 0 
-15.0734 46.2464 0 -23.5885 -4.01793 0 -24.356 -4.81029 0 
-68.2596 -38.1472 0 -68.2875 -39.5737 0 -68.4057 -40.8965 0 
-68.3783 -42.2905 0 -67.1708 -40.218 0 -68.2381 -43.6945 0 
-67.9881 -45.3496 0 -67.1489 -42.9448 0 -68.1891 -35.3503 0 
-68.2227 -36.7458 0 -67.0157 -37.4938 0 -68.11 -32.6675 0 
-68.1545 -34.0032 0 -66.9444 -34.7453 0 -67.9922 -29.9336 0 
-68.032 -31.283 0 -66.8318 -32.0138 0 -67.9137 -27.2419 0 
-67.9236 -28.6168 0 -66.6852 -29.3125 0 -67.9635 -24.5419 0 
-67.9454 -25.8718 0 -66.6483 -26.6256 0 -68.0364 -21.6854 0 
-67.9917 -23.1554 0 -66.7082 -23.869 0 -68.0975 -18.9138 0 
-68.1034 -20.2595 0 -66.8034 -21.0566 0 -68.1486 -16.2399 0 
-68.1185 -17.564 0 -66.8915 -18.2808 0 -68.1577 -13.68 0 
-68.1645 -14.9552 0 -66.9285 -15.6462 0 -68.1405 -11.1183 0 
-68.148 -12.3714 0 -66.9348 -13.053 0 -68.0573 -8.47505 0 
-68.0926 -9.80457 0 -66.8772 -10.4306 0 -67.9328 -5.7371 0 
-67.9798 -7.08056 0 -66.7517 -7.72242 0 -67.9571 -3.06223 0 
-67.888 -4.37555 0 -66.6294 -4.96639 0 -68.137 -0.425707 0 
-68.0868 -1.7903 0 -66.7144 -2.33291 0 -68.3106 2.20601 0 
-68.3162 0.886248 0 -67.0234 0.25098 0 -68.276 4.82667 0 
-68.2823 3.50676 0 -67.1743 2.86369 0 -68.1846 7.43591 0 
-68.1911 6.13284 0 -67.0612 5.47062 0 -68.0558 10.1389 0 
-68.0969 8.77636 0 -66.8885 8.11723 0 -68.0618 12.9314 0 
-68.0469 11.4894 0 -66.7919 10.8081 0 -67.9896 15.6803 0 
-67.997 14.341 0 -66.7183 13.5682 0 -67.9644 18.2957 0 
-68.0042 17.002 0 -66.6682 16.2995 0 -68.0406 20.9732 0 
-68.0065 19.6034 0 -66.725 18.9289 0 -68.031 23.7612 0 
-68.037 22.3757 0 -66.7636 21.6392 0 -68.0098 26.4535 0 
-68.0374 25.1167 0 -66.7664 24.3973 0 -67.9548 29.0896 0 
-67.9783 27.7868 0 -66.7414 27.0859 0 -67.9826 31.6532 0 
-67.9384 30.3639 0 -66.6935 29.6935 0 -68.0495 34.2687 0 
-68.0041 32.9529 0 -66.6987 32.2676 0 -68.151 36.8306 0 
-68.1157 35.5739 0 -66.7865 34.8725 0 -68.2736 39.3017 0 
-68.2444 38.0506 0 -66.9462 37.3978 0 -68.1857 41.8113 0 
-68.2388 40.5529 0 -67.0049 39.869 0 -68.0068 44.3643 0 
-68.0913 43.0552 0 -66.8757 42.3642 0 -66.6677 44.893 0 
-66.5302 -45.5974 0 -10.299 39.9835 0 -10.3613 41.3844 0 
-9.33014 47.8115 0 -10.5108 42.9257 0 -10.4298 44.1887 0 
-11.6426 42.2223 0 -10.0443 45.5169 0 -9.8662 46.6434 0 
-10.4849 47.5881 0 -11.4065 45.0918 0 -10.3356 37.3115 0 
-10.3311 38.6524 0 -11.5252 39.3499 0 -10.3239 34.527 0 
-10.3263 35.9441 0 -11.5479 36.6513 0 -10.358 31.8121 0 
-10.3191 33.1072 0 -11.5338 33.8641 0 -10.3626 29.1118 0 
-10.369 30.5042 0 -11.5402 31.1364 0 -10.3535 26.3664 0 
-10.3851 27.7444 0 -11.5737 28.4611 0 -10.366 23.6863 0 
-10.344 24.9975 0 -11.5867 25.7248 0 -10.33 21.0009 0 
-10.3329 22.3924 0 -11.544 23.062 0 -10.2869 18.2217 0 
-10.3136 19.5998 0 -11.4945 20.367 0 -10.2923 15.5088 0 
-10.2767 16.8532 0 -11.468 17.5973 0 -10.2975 12.8632 0 
-10.311 14.176 0 -11.4766 14.896 0 -10.3563 10.2246 0 
-10.3657 11.5298 0 -11.5636 12.2299 0 -10.4105 7.65372 0 
-10.3438 8.92316 0 -11.6193 9.59506 0 -10.399 5.00436 0 
-10.4143 6.32785 0 -11.6105 6.96775 0 -10.4032 2.18972 0 
-10.4467 3.60863 0 -11.662 4.24614 0 -10.3143 -0.390466 0 
-10.3203 0.878289 0 -11.6269 1.53897 0 -10.1671 -3.14964 0 
-10.2239 -1.72164 0 -11.4535 -1.10363 0 -10.1157 -5.83101 0 
-10.1141 -4.47922 0 -11.31 -3.76439 0 -10.2328 -8.68201 0 
-10.1867 -7.23668 0 -11.3281 -6.49964 0 -10.2824 -11.4213 0 
-10.2559 -10.0926 0 -11.4222 -9.31591 0 -10.3402 -14.1574 0 
-10.3335 -12.7663 0 -11.4965 -12.0715 0 -10.439 -17.0262 0 
-10.3878 -15.5894 0 -11.5953 -14.8485 0 -10.4736 -19.968 0 
-10.4903 -18.502 0 -11.6942 -17.7563 0 -10.5314 -22.8185 0 
-10.4954 -21.4091 0 -11.7673 -20.6733 0 -10.4761 -25.5444 0 
-10.5044 -24.1921 0 -11.7621 -23.4881 0 -10.4708 -28.374 0 
-10.473 -26.9746 0 -11.732 -26.2919 0 -10.4814 -31.1427 0 
-10.4541 -29.7253 0 -11.7122 -29.0734 0 -10.4835 -34.0626 0 
-10.5073 -32.6287 0 -11.7213 -31.9106 0 -10.484 -36.8923 0 
-10.4844 -35.4856 0 -11.748 -34.8196 0 -10.4491 -39.722 0 
-10.4534 -38.3629 0 -11.7183 -37.7133 0 -10.25 -42.4638 0 
-10.3558 -41.1599 0 -11.5944 -40.6218 0 -9.76621 -44.969 0 
-9.95368 -43.7988 0 -11.2048 -43.3947 0 -60.2097 -0.0699103 0 
-59.32 0.910468 0 -38.8934 -19.2335 0 -39.7528 -19.9001 0 
-16.7947 -45.5998 0 -15.483 -45.6018 0 -14.1357 -45.5763 0 
-12.8836 -45.6025 0 -14.7322 -44.3036 0 -10.3442 -45.9319 0 
-11.6453 -45.8283 0 -19.592 -45.8279 0 -18.2024 -45.7492 0 
-17.4872 -44.4785 0 -22.4219 -45.8787 0 -21.0211 -45.8738 0 
-20.324 -44.6738 0 -25.1026 -45.8457 0 -23.7546 -45.8439 0 
-23.0857 -44.6849 0 -27.886 -45.7509 0 -26.4828 -45.7951 0 
-25.7986 -44.5996 0 -30.7624 -45.7238 0 -29.314 -45.7283 0 
-28.6068 -44.5264 0 -33.4846 -45.7298 0 -32.1304 -45.7277 0 
-31.4028 -44.5076 0 -36.2096 -45.7135 0 -34.8762 -45.7103 0 
-34.1624 -44.492 0 -38.7865 -45.73 0 -37.4887 -45.7342 0 
-36.8331 -44.4932 0 -41.4795 -45.7056 0 -40.1485 -45.7272 0 
-39.4741 -44.511 0 -44.0345 -45.6738 0 -42.7752 -45.6893 0 
-42.1318 -44.4919 0 -46.6867 -45.6325 0 -45.3661 -45.6695 0 
-44.7591 -44.4713 0 -49.3199 -45.6681 0 -47.974 -45.6256 0 
-47.3779 -44.4601 0 -52.0399 -45.7166 0 -50.6987 -45.675 0 
-50.0439 -44.46 0 -54.7745 -45.662 0 -53.4069 -45.6915 0 
-52.7897 -44.4418 0 -57.5575 -45.7286 0 -56.1763 -45.6803 0 
-55.5585 -44.4351 0 -60.0346 -45.9437 0 -58.7709 -45.9018 0 
-58.1738 -44.6266 0 -62.7263 -45.9451 0 -61.3647 -45.979 0 
-60.7174 -44.8352 0 -65.256 -45.8251 0 -63.9328 -45.912 0 
-63.2539 -44.8374 0 -65.7345 -44.5765 0 -22.0611 -2.25686 0 
-22.7646 -3.14242 0 -22.354 -4.22148 0 -59.6267 -3.14117 0 
-60.379 -2.26387 0 -41.7144 -19.9605 0 -42.6212 -19.3377 0 
-25.1782 -5.60713 0 -25.9531 -6.38531 0 -24.0001 -5.89383 0 
-26.7277 -7.14313 0 -27.4994 -7.88806 0 -25.5969 -7.44849 0 
-28.2786 -8.64101 0 -28.9814 -9.40036 0 -27.1506 -8.95926 0 
-29.7145 -10.1548 0 -30.4688 -10.8914 0 -28.663 -10.4666 0 
-31.1809 -11.6527 0 -31.9325 -12.4022 0 -30.1083 -11.9823 0 
-32.6541 -13.1745 0 -33.3825 -13.8855 0 -31.542 -13.5159 0 
-34.1356 -14.6663 0 -34.8776 -15.4506 0 -33.0166 -15.069 0 
-35.6785 -16.2185 0 -36.4498 -16.9518 0 -34.5707 -16.6177 0 
-37.2521 -17.7258 0 -38.0332 -18.4867 0 -37.8365 -19.6804 0 
-36.174 -18.1596 0 -45.2599 -17.1479 0 -46.0458 -16.4361 0 
-46.8621 -15.6829 0 -47.6463 -14.8938 0 -47.0923 -16.8513 0 
-48.4863 -14.0494 0 -49.2846 -13.2621 0 -48.7486 -15.2538 0 
-50.0532 -12.4655 0 -50.7872 -11.7016 0 -50.3572 -13.6127 0 
-51.5971 -10.9106 0 -52.355 -10.1633 0 -51.9358 -12.0249 0 
-53.1375 -9.38863 0 -53.9014 -8.59346 0 -53.5282 -10.4592 0 
-54.6176 -7.79605 0 -55.3578 -7.00352 0 -55.0269 -8.88721 0 
-56.1052 -6.19287 0 -56.8827 -5.44343 0 -56.4906 -7.27916 0 
-57.7794 -4.67338 0 -58.6428 -3.90815 0 -60.0154 -4.16142 0 
-58.1347 -5.69845 0 -43.4207 17.0833 0 -42.7669 17.7933 0 
-56.6676 3.48323 0 -55.8521 4.30445 0 -55.0759 5.16731 0 
-54.2977 6.02245 0 -56.2187 5.33861 0 -53.6123 6.94808 0 
-52.8266 7.81877 0 -54.7571 7.12711 0 -52.0535 8.74159 0 
-51.2243 9.59784 0 -53.2986 8.97556 0 -50.3227 10.4859 0 
-49.4681 11.3276 0 -51.6239 10.7864 0 -48.5484 12.2516 0 
-47.6609 13.1496 0 -49.8026 12.5985 0 -46.7768 13.9704 0 
-45.9328 14.7854 0 -47.9989 14.3432 0 -45.0399 15.5627 0 
-44.263 16.2978 0 -44.4868 17.504 0 -46.222 15.9413 0 
-22.6574 0.695078 0 -21.996 -0.21646 0 -36.5657 14.9163 0 
-35.8079 14.2499 0 -35.0111 13.5391 0 -34.2524 12.7813 0 
-34.7168 14.6597 0 -33.4383 12.0315 0 -32.6612 11.3096 0 
-33.1059 13.1991 0 -31.838 10.555 0 -31.0445 9.80373 0 
-31.4686 11.6946 0 -30.2269 9.01381 0 -29.4636 8.22372 0 
-29.8279 10.1501 0 -28.7029 7.41198 0 -27.9481 6.63591 0 
-28.2496 8.54841 0 -27.1839 5.78559 0 -26.3955 4.95234 0 
-26.7247 6.88636 0 -25.6417 4.07322 0 -24.9023 3.25975 0 
-25.2068 5.15693 0 -24.1805 2.40848 0 -23.4623 1.6153 0 
-23.7313 3.42654 0 -61.0364 47.3925 0 -62.4224 47.4777 0 
-63.0498 46.5753 0 -43.5832 -18.5972 0 -44.3938 -17.8791 0 
-45.4099 -18.3357 0 -58.4321 1.87625 0 -57.6125 2.70789 0 
-57.9398 3.7004 0 -37.9927 16.2757 0 -37.3154 15.4965 0 
-36.2633 15.9508 0 -54.5783 46.0251 0 -48.7374 46.0198 0 
-11.7781 47.5003 0 -12.3475 46.3388 0 -62.0969 -2.45154 0 
-61.4767 -1.32098 0 -59.7726 1.95928 0 -12.1467 -44.5039 0 
-61.9276 -0.257576 0 -39.6411 -21.1527 0 -40.6972 -20.6257 0 
-21.2339 -1.24131 0 -20.7029 -2.33043 0 -41.6027 -21.2131 0 
-22.2047 1.65504 0 -60.4644 46.1332 0 -43.5819 -19.8073 0 
-41.7778 18.43 0 -40.855 18.7134 0 -42.6554 18.9262 0 
-20.6377 -0.290027 0 -38.9293 18.1878 0 -38.3938 17.2661 0 
-37.414 17.5213 0 -21.1103 -4.56653 0 -21.9342 -5.44204 0 
-62.4844 -4.0283 0 -63.5821 -3.08541 0 -56.9111 44.8077 0 
-58.392 44.7984 0 -61.2174 2.27701 0 -60.3295 3.24279 0 
-50.9027 44.8338 0 -52.3216 44.8314 0 -42.4418 44.7381 0 
-43.8591 44.7172 0 -45.2021 44.7239 0 -46.5543 44.7579 0 
-44.49 43.5009 0 -36.7975 44.8026 0 -38.1714 44.816 0 
-33.9747 44.8414 0 -35.3882 44.8045 0 -36.0584 43.6371 0 
-31.1968 44.868 0 -32.5723 44.8636 0 -33.2468 43.6612 0 
-28.3883 44.8851 0 -29.817 44.8336 0 -30.4646 43.649 0 
-25.5917 44.9087 0 -26.9663 44.9114 0 -27.6627 43.6409 0 
-22.6964 44.9575 0 -24.151 44.9517 0 -24.7999 43.7102 0 
-19.8287 44.9312 0 -21.2383 44.9581 0 -21.9012 43.7538 0 
-17.1186 45.0273 0 -18.4893 44.9637 0 -19.1038 43.7869 0 
-14.2973 45.1174 0 -15.6968 45.1062 0 -16.3426 43.8983 0 
-21.8202 2.6802 0 -21.0153 1.75998 0 -65.8865 -39.6342 0 
-66.0047 -40.9569 0 -64.1935 45.7483 0 -65.3445 45.3927 0 
-65.458 44.1078 0 -65.7557 -36.9413 0 -65.7925 -38.3427 0 
-64.6264 -39.0816 0 -66.2963 -42.1329 0 -66.1561 -43.5369 0 
-64.882 -43.7645 0 -65.0119 -41.549 0 -65.5077 -31.4055 0 
-65.5858 -32.7899 0 -65.3561 -28.7023 0 -65.4246 -30.0191 0 
-64.1786 -30.7952 0 -65.3683 -26.0145 0 -65.3366 -27.3847 0 
-64.0761 -28.0912 0 -65.3982 -23.2157 0 -65.37 -24.6022 0 
-64.0584 -25.3612 0 -65.4725 -20.405 0 -65.4055 -21.8309 0 
-64.0673 -22.5641 0 -65.5603 -17.6139 0 -65.5392 -18.9638 0 
-64.1413 -19.7381 0 -65.617 -15.044 0 -65.6011 -16.3287 0 
-64.2488 -17.0117 0 -65.6305 -12.42 0 -65.6402 -13.7287 0 
-64.3128 -14.4111 0 -65.55 -9.75479 0 -65.5979 -11.0685 0 
-64.3033 -11.7442 0 -65.4345 -6.96737 0 -65.5121 -8.36186 0 
-64.2328 -8.99974 0 -65.2771 -4.13351 0 -65.3218 -5.49505 0 
-65.0194 -1.28481 0 -64.8897 -2.55674 0 -65.9248 3.49025 0 
-65.953 2.1895 0 -65.7425 6.0455 0 -65.8274 4.73933 0 
-64.6061 4.06513 0 -65.6126 8.77889 0 -65.7004 7.43845 0 
-64.4667 6.70716 0 -65.4991 11.4494 0 -65.508 10.0989 0 
-64.3198 9.42012 0 -65.3778 14.2539 0 -65.4425 12.8443 0 
-64.1586 12.1351 0 -65.3752 16.8989 0 -65.3606 15.5771 0 
-64.0848 14.8533 0 -65.3733 19.5284 0 -65.3311 18.2207 0 
-64.0235 17.4983 0 -65.3584 22.3111 0 -65.3621 20.9085 0 
-63.9681 20.2003 0 -65.4048 25.0364 0 -65.3983 23.6809 0 
-63.9968 22.9502 0 -65.3 27.7459 0 -65.3315 26.4127 0 
-63.9634 25.6964 0 -65.2688 30.3149 0 -65.2852 29.0406 0 
-63.8753 28.3673 0 -65.3051 32.9441 0 -65.2836 31.6443 0 
-63.8752 30.9914 0 -65.4365 35.596 0 -65.3702 34.2909 0 
-63.9551 33.6676 0 -65.6456 38.081 0 -65.5522 36.8609 0 
-64.1359 36.2792 0 -65.9046 40.4558 0 -65.9394 39.2046 0 
-64.5454 38.6677 0 -21.0451 -43.5687 0 -19.6159 -43.5228 0 
-15.2378 -42.8475 0 -13.8905 -42.822 0 -47.971 44.7822 0 
-49.4328 44.7939 0 -50.1362 43.5961 0 -47.2496 43.532 0 
-12.7718 36.0248 0 -12.7811 37.3923 0 -12.7047 33.1383 0 
-12.7095 34.5581 0 -13.9426 35.299 0 -65.7152 -34.1543 0 
-65.7497 -35.5014 0 -64.5265 -36.3503 0 -64.3911 -33.546 0 
-12.5581 41.2535 0 -12.7076 42.7948 0 -12.733 45.0105 0 
-59.1731 4.07755 0 -58.2282 4.85289 0 -60.6179 4.39529 0 
-12.7196 30.5077 0 -12.7085 31.8156 0 -13.8842 32.5097 0 
-12.7763 27.7948 0 -12.7538 29.1622 0 -13.9222 29.8414 0 
-12.7852 25.0531 0 -12.7947 26.422 0 -13.9749 27.1231 0 
-12.7763 22.4874 0 -12.8094 23.7813 0 -14.0175 24.4784 0 
-12.7504 19.6955 0 -12.7668 21.0966 0 -14.0322 21.8159 0 
-12.6876 16.9846 0 -12.6978 18.3532 0 -13.9701 19.0828 0 
-12.7183 14.2652 0 -12.6996 15.5979 0 -13.9293 16.3538 0 
-12.8292 11.5666 0 -12.7609 12.9 0 -13.9839 13.6019 0 
-12.8588 8.99304 0 -12.8714 10.2945 0 -14.0687 10.9646 0 
-12.9015 6.3028 0 -12.8978 7.62867 0 -14.1498 8.32809 0 
-12.9023 3.54322 0 -12.8546 4.93896 0 -14.1418 5.59989 0 
-12.9853 0.699692 0 -13.0683 2.01112 0 -14.2608 2.70394 0 
-12.4214 -1.82079 0 -12.5118 -0.489617 0 -13.9532 -0.0174709 0 
-12.4625 -4.3849 0 -12.5155 -3.05532 0 -13.5738 -2.44131 0 
-12.4363 -7.15326 0 -12.3653 -5.74759 0 -13.5707 -5.03853 0 
-12.5699 -9.94476 0 -12.5468 -8.53416 0 -13.584 -7.78211 0 
-12.788 -12.6337 0 -12.7368 -11.2887 0 -13.8614 -10.507 0 
-12.8826 -15.4952 0 -12.835 -14.0632 0 -14.0753 -13.2805 0 
-12.9834 -18.4527 0 -12.932 -16.9769 0 -14.1718 -16.1916 0 
-13.0375 -21.3819 0 -13.0158 -19.9408 0 -14.2536 -19.1613 0 
-13.0392 -24.1738 0 -13.0662 -22.8002 0 -14.3147 -22.0676 0 
-13.0337 -27.0032 0 -13.0368 -25.573 0 -14.341 -24.8851 0 
-13.0233 -29.7922 0 -13.04 -28.4409 0 -14.3448 -27.722 0 
-13.039 -32.715 0 -13.0132 -31.2291 0 -14.341 -30.5966 0 
-12.98 -35.5216 0 -12.9791 -34.0986 0 -14.271 -33.417 0 
-12.9329 -38.5017 0 -12.9635 -37.031 0 -14.1946 -36.31 0 
-38.471 -21.7752 0 -39.4154 -22.5008 0 -19.3622 -2.59569 0 
-20.1894 -3.61124 0 -19.7696 -4.83179 0 -18.1838 -43.3844 0 
-16.7762 -43.2349 0 -15.9344 -41.7534 0 -18.9049 -42.2792 0 
-57.2658 5.44851 0 -56.4896 6.31137 0 -58.4991 5.82566 0 
-22.8105 -6.24682 0 -23.6327 -7.04365 0 -21.5668 -6.59186 0 
-23.774 -43.4427 0 -22.4413 -43.4775 0 -21.7333 -42.3265 0 
-26.4484 -43.3064 0 -25.0682 -43.3569 0 -24.4237 -42.1495 0 
-29.2911 -43.1881 0 -27.8631 -43.2108 0 -27.1327 -41.9681 0 
-32.0547 -43.157 0 -30.6867 -43.1532 0 -29.943 -41.8375 0 
-34.8546 -43.1519 0 -33.463 -43.1714 0 -32.7469 -41.8169 0 
-37.4669 -43.1958 0 -36.1878 -43.1752 0 -35.4884 -41.8545 0 
-40.1085 -43.2209 0 -38.7465 -43.2237 0 -38.1012 -41.9056 0 
-42.8061 -43.1892 0 -41.5104 -43.2056 0 -40.7828 -41.9182 0 
-45.4332 -43.1673 0 -44.1016 -43.1716 0 -43.4803 -41.8852 0 
-48.0719 -43.1645 0 -46.7846 -43.1715 0 -46.1272 -41.8718 0 
-50.7898 -43.1145 0 -49.411 -43.1076 0 -48.8177 -41.819 0 
-53.5839 -43.0501 0 -52.217 -43.0752 0 -51.584 -41.7228 0 
-56.4129 -43.0886 0 -55.011 -43.0702 0 -54.4384 -41.7036 0 
-58.9256 -43.3997 0 -57.7121 -43.2265 0 -57.1646 -41.8616 0 
-61.399 -43.7985 0 -60.0689 -43.7632 0 -59.6072 -42.363 0 
-41.5758 -22.5423 0 -42.593 -21.8771 0 -45.6543 -19.5791 0 
-46.5204 -18.8479 0 -19.8542 0.815223 0 -19.0922 -0.209629 0 
-12.7529 38.7314 0 -12.7208 40.0625 0 -13.7858 40.6351 0 
-13.9767 38.1049 0 -24.4679 -7.7778 0 -25.2425 -8.53562 0 
-23.2783 -8.13078 0 -26.0321 -9.31885 0 -26.8113 -10.0718 0 
-24.9031 -9.64815 0 -27.4977 -10.8479 0 -28.2308 -11.6023 0 
-26.3791 -11.2075 0 -28.9489 -12.368 0 -29.661 -13.1293 0 
-27.7836 -12.7493 0 -30.4185 -13.9157 0 -31.1401 -14.6879 0 
-29.2591 -14.3013 0 -31.8683 -15.4885 0 -32.6214 -16.2694 0 
-30.7448 -15.8883 0 -33.4087 -17.0277 0 -34.2097 -17.7955 0 
-32.2604 -17.4472 0 -47.4125 -18.0683 0 -48.2288 -17.3152 0 
-47.6569 -19.3117 0 -39.5986 44.7769 0 -41.0293 44.7695 0 
-41.7346 43.5255 0 -43.7229 19.6111 0 -42.7339 20.2478 0 
-49.0796 -16.5337 0 -49.9196 -15.6893 0 -49.3998 -17.7507 0 
-50.7321 -14.8026 0 -51.5007 -14.0059 0 -51.0631 -16.0825 0 
-52.3478 -13.1796 0 -53.1577 -12.3886 0 -52.7226 -14.3695 0 
-54.027 -11.587 0 -54.8095 -10.8124 0 -54.439 -12.7417 0 
-55.5265 -10.0362 0 -56.2427 -9.23883 0 -56.0253 -11.164 0 
-56.9502 -8.3669 0 -57.6977 -7.55625 0 -57.4498 -9.51592 0 
-36.1556 17.3527 0 -35.4059 16.7724 0 -56.0252 7.27774 0 
-55.3398 8.20338 0 -57.0723 7.38764 0 -54.7307 9.23454 0 
-53.9576 10.1574 0 -55.9988 9.38517 0 -53.1123 11.1432 0 
-52.2107 12.0313 0 -54.5444 11.4022 0 -51.1842 12.9935 0 
-50.2646 13.9175 0 -52.6726 13.3503 0 -49.2629 14.7685 0 
-48.3789 15.5894 0 -50.6446 15.1636 0 -53.8152 44.7946 0 
-55.3565 44.7929 0 -56.148 43.5772 0 -53.0997 43.5992 0 
-60.0626 44.7229 0 -61.4456 44.8513 0 -59.3732 43.5165 0 
-62.991 45.4345 0 -32.7825 14.4009 0 -31.9684 13.651 0 
-31.079 12.9321 0 -30.2558 12.1774 0 -30.7556 14.1338 0 
-29.4024 11.3624 0 -28.5848 10.5725 0 -29.0128 12.5999 0 
-27.708 9.72894 0 -26.9473 8.9172 0 -27.2825 10.9413 0 
-26.1886 8.05299 0 -25.4245 7.20267 0 -25.647 9.23351 0 
-24.661 6.25286 0 -23.9072 5.37374 0 -24.1249 7.41949 0 
-23.2518 4.48895 0 -22.53 3.63768 0 -21.3407 3.74262 0 
-43.6745 -21.0983 0 -44.6365 -20.3578 0 -34.4902 15.9729 0 
-33.6934 15.2621 0 -32.5559 15.7141 0 -34.3825 17.3748 0 
-40.4344 20.0779 0 -39.6229 19.2284 0 -38.5087 19.5523 0 
-12.4431 -43.1689 0 -12.9486 -41.7128 0 -62.5893 44.0242 0 
-38.8949 43.5961 0 -33.8786 -18.9829 0 -35.0405 -18.573 0 
-35.8429 -19.347 0 -19.4698 1.84038 0 -45.7469 -20.87 0 
-60.3233 -5.48319 0 -61.3072 -4.71621 0 -62.7924 -5.35008 0 
-14.2719 42.9016 0 -13.3564 43.8704 0 -64.0822 -6.1345 0 
-66.0894 1.00982 0 -65.9102 -0.302141 0 -65.5115 42.8125 0 
-65.6059 41.5686 0 -64.5404 40.9041 0 -64.1882 43.3122 0 
-39.2414 -23.8877 0 -40.4115 -23.2652 0 -13.0419 -40.2749 0 
-14.2871 -39.5927 0 -42.5999 21.6626 0 -41.5325 20.9777 0 
-36.5566 18.343 0 -63.0726 -0.13371 0 -61.8055 1.11736 0 
-43.6476 -22.4275 0 -41.4018 -23.9292 0 -63.784 -43.6402 0 
-62.5775 -43.6734 0 -61.929 -42.6014 0 -64.2055 -42.6006 0 
-62.3624 2.40088 0 -17.3872 -0.395119 0 -18.1707 -1.50037 0 
-36.7135 -20.168 0 -37.5737 -20.9148 0 -37.348 -22.2629 0 
-35.5801 -20.5814 0 -44.7209 18.8163 0 -44.7993 20.138 0 
-63.827 2.02864 0 -63.2388 3.18829 0 -58.3583 -6.7561 0 
-59.2551 -5.98605 0 -58.818 -7.84384 0 -48.6964 16.8256 0 
-47.4323 16.4003 0 -45.5633 18.0308 0 -46.5395 17.1775 0 
-40.3004 21.4927 0 -22.706 5.58489 0 -17.6572 -2.78118 0 
-15.0821 31.8109 0 -15.0783 33.1336 0 -38.1909 42.2726 0 
-39.6181 42.2334 0 -32.5115 42.3762 0 -33.9139 42.354 0 
-35.334 42.3385 0 -36.7432 42.3366 0 -37.4665 40.9739 0 
-34.5987 41.0535 0 -26.884 42.3141 0 -28.3061 42.2878 0 
-24.0753 42.436 0 -25.516 42.3929 0 -26.1594 41.0399 0 
-21.1175 42.5078 0 -22.5755 42.5073 0 -23.2916 41.19 0 
-18.3077 42.5414 0 -19.647 42.5089 0 -20.3214 41.2623 0 
-15.5439 42.6769 0 -16.9657 42.598 0 -17.509 41.32 0 
-14.8951 41.6013 0 -62.9051 -6.8224 0 -63.1415 4.43737 0 
-29.7229 42.2911 0 -31.1027 42.3255 0 -31.7698 41.0182 0 
-28.9443 40.9643 0 -22.0926 -8.54837 0 -22.9278 -9.28251 0 
-43.8355 42.1752 0 -45.1785 42.182 0 -62.5868 -24.7416 0 
-62.5851 -26.1539 0 -62.7541 -30.2468 0 -62.8371 -31.6331 0 
-62.5186 -21.8647 0 -62.5113 -23.2495 0 -61.0381 -24.0422 0 
-62.6454 -19.0335 0 -62.5787 -20.4747 0 -61.0227 -21.1601 0 
-62.8851 -16.35 0 -62.8442 -17.6352 0 -61.2817 -18.3718 0 
-62.9785 -13.7405 0 -62.9554 -15.0558 0 -61.5508 -15.6793 0 
-62.9548 -11.1068 0 -62.9874 -12.4583 0 -61.63 -13.103 0 
-62.767 -8.27388 0 -62.8049 -9.66681 0 -61.489 -10.3809 0 
-61.4772 -7.48947 0 -62.6616 12.7588 0 -62.7181 11.3638 0 
-62.5416 15.4631 0 -62.5589 14.1398 0 -61.1184 13.3686 0 
-62.5387 18.1282 0 -62.5828 16.8064 0 -61.0568 16.093 0 
-62.5302 20.8343 0 -62.5414 19.4542 0 -61.1007 18.7622 0 
-62.5195 23.5545 0 -62.4796 22.1847 0 -61.0529 21.4386 0 
-62.4025 26.3876 0 -62.4757 25.0112 0 -60.9586 24.2457 0 
-62.3551 29.026 0 -62.3699 27.7314 0 -60.8823 27.0462 0 
-62.3823 31.6855 0 -62.3675 30.3561 0 -60.8621 29.7201 0 
-62.4778 34.4231 0 -62.4127 33.0764 0 -60.905 32.4411 0 
-62.7943 37.1476 0 -62.6786 35.8827 0 -61.1363 35.2915 0 
-63.3925 39.7877 0 -63.0988 38.664 0 -61.6415 38.2675 0 
-24.9452 -40.7642 0 -23.651 -40.85 0 -62.9178 -38.7408 0 
-63.0118 -40.0322 0 -15.1896 29.1959 0 -15.1554 30.5414 0 
-16.3495 31.1654 0 -15.1532 34.5968 0 -15.2155 36.0635 0 
-16.3512 33.8981 0 -15.275 26.4765 0 -15.2566 27.8494 0 
-16.4897 28.5494 0 -15.3485 23.8437 0 -15.3243 25.1155 0 
-16.606 25.8418 0 -15.3896 21.1822 0 -15.399 22.573 0 
-16.7058 23.21 0 -15.3415 18.4584 0 -15.3941 19.8007 0 
-16.7609 20.5578 0 -15.2951 15.7315 0 -15.2831 17.1183 0 
-16.7072 17.8361 0 -15.3512 12.9466 0 -15.3085 14.3118 0 
-16.6623 15.0763 0 -15.4412 10.3422 0 -15.399 11.6143 0 
-16.7236 12.3243 0 -15.5997 7.67035 0 -15.5607 9.03472 0 
-16.891 9.68447 0 -15.6089 4.93886 0 -15.6558 6.3027 0 
-17.0667 7.00933 0 -15.3763 2.08526 0 -15.2104 3.61737 0 
-16.7244 4.32018 0 -14.9728 -1.44632 0 -15.4462 -0.25701 0 
-15.0668 -2.68085 0 -14.7652 -5.63773 0 -14.8624 -4.27504 0 
-14.6801 -8.32314 0 -14.5696 -6.94224 0 -15.8613 -6.17875 0 
-15.3619 -10.8955 0 -15.195 -9.55154 0 -16.1806 -8.71167 0 
-15.4254 -13.8552 0 -15.3784 -12.4257 0 -16.712 -11.4702 0 
-15.5844 -16.8339 0 -15.535 -15.3523 0 -16.838 -14.4975 0 
-15.7054 -19.8782 0 -15.673 -18.3902 0 -17.0362 -17.5508 0 
-15.7991 -22.7248 0 -15.7704 -21.3066 0 -17.1898 -20.5354 0 
-15.7674 -25.5821 0 -15.7698 -24.1829 0 -17.2255 -23.4219 0 
-15.7562 -28.503 0 -15.75 -27.0653 0 -17.1788 -26.3631 0 
-15.6934 -31.3038 0 -15.7035 -29.8669 0 -17.1086 -29.2102 0 
-15.5277 -34.1122 0 -15.5877 -32.7286 0 -16.9501 -31.9989 0 
-15.4366 -37.0533 0 -15.453 -35.5439 0 -16.7697 -34.8555 0 
-15.5471 -40.3038 0 -15.4381 -38.5305 0 -16.6965 -37.7644 0 
-17.0854 -40.6912 0 -21.8533 6.76825 0 -21.1979 5.88347 0 
-46.7736 18.4899 0 -36.8686 19.925 0 -35.6101 19.7564 0 
-63.1628 5.9146 0 -61.7955 5.03776 0 -60.6391 5.87252 0 
-63.1206 7.30755 0 -43.7765 -23.8935 0 -44.858 -23.1147 0 
-20.2397 -7.10432 0 -21.116 -7.9091 0 -20.7655 -9.06083 0 
-27.7612 -40.4678 0 -26.3464 -40.5634 0 -25.5737 -39.2639 0 
-30.5624 -40.3448 0 -29.1669 -40.3797 0 -28.3806 -38.975 0 
-33.4215 -40.3787 0 -32.0132 -40.3643 0 -31.2371 -38.9065 0 
-36.1377 -40.4717 0 -34.8045 -40.4484 0 -34.0708 -38.9958 0 
-38.7088 -40.5085 0 -37.4292 -40.4807 0 -36.7453 -39.0746 0 
-41.4832 -40.5095 0 -40.0812 -40.5248 0 -39.4092 -39.0998 0 
-44.1191 -40.5046 0 -42.8236 -40.5223 0 -42.122 -39.1288 0 
-46.8154 -40.4465 0 -45.464 -40.4423 0 -44.8073 -39.0794 0 
-49.5097 -40.349 0 -48.1706 -40.406 0 -47.5074 -38.9765 0 
-52.4125 -40.2486 0 -50.9853 -40.2878 0 -50.3382 -38.8748 0 
-55.2903 -40.3067 0 -53.8633 -40.2866 0 -53.2645 -38.8517 0 
-58.1286 -40.5778 0 -56.8294 -40.4399 0 -56.2543 -39.0229 0 
-16.3677 1.03373 0 -41.0427 42.1959 0 -42.4552 42.1645 0 
-43.1437 40.8456 0 -62.6721 -27.5532 0 -62.6915 -28.8709 0 
-61.35 -29.7088 0 -61.2005 -26.9336 0 -58.4059 42.4291 0 
-60.0765 42.3535 0 -49.7659 -18.9642 0 -50.6167 -18.1827 0 
-23.799 -9.97175 0 -24.5886 -10.755 0 -22.6132 -10.3893 0 
-25.2784 -11.5976 0 -25.9648 -12.3737 0 -24.1742 -11.9212 0 
-26.5757 -13.1706 0 -27.2937 -13.9362 0 -25.4749 -13.5607 0 
-27.9719 -14.7691 0 -28.7294 -15.5555 0 -26.764 -15.1904 0 
-29.4301 -16.3875 0 -30.1583 -17.1881 0 -28.1429 -16.8553 0 
-30.9978 -17.9172 0 -31.7852 -18.6755 0 -29.6831 -18.4164 0 
-47.9569 -20.589 0 -48.849 -19.8094 0 -50.0659 -20.2415 0 
-19.5506 3.09531 0 -18.3894 2.15056 0 -46.0169 20.7226 0 
-45.0189 21.5174 0 -37.5622 20.9657 0 -37.925 -24.6331 0 
-38.9211 -25.3975 0 -51.5119 -17.3867 0 -52.3243 -16.5 0 
-51.878 -18.6003 0 -53.093 -15.6153 0 -53.9401 -14.7891 0 
-53.5418 -16.9196 0 -54.8845 -13.9013 0 -55.7538 -13.0997 0 
-55.2549 -15.147 0 -56.8623 -12.3675 0 -57.5792 -11.5914 0 
-57.3077 -13.5271 0 -58.0049 -10.5085 0 -58.7125 -9.6366 0 
-58.8419 -11.7121 0 -49.9616 17.2327 0 -49.015 18.0437 0 
-43.883 22.4175 0 -42.6817 23.1474 0 -45.1006 23.0022 0 
-57.5669 9.33845 0 -56.9578 10.3696 0 -56.3804 11.7323 0 
-55.5351 12.7182 0 -57.9485 11.6856 0 -54.1821 13.686 0 
-53.1557 14.6483 0 -56.0181 14.0161 0 -51.9891 15.5014 0 
-50.9875 16.3524 0 -51.3061 17.5705 0 -53.4986 15.8371 0 
-39.9689 23.0365 0 -38.8708 22.1367 0 -30.3938 15.4587 0 
-29.5044 14.7398 0 -28.5765 13.9598 0 -27.7231 13.1448 0 
-28.2148 15.2847 0 -26.7068 12.2584 0 -25.8299 11.4148 0 
-26.2706 13.6183 0 -24.7278 10.5113 0 -23.9692 9.64712 0 
-24.1521 11.8284 0 -23.6166 8.4837 0 -22.8531 7.53389 0 
-21.345 7.83247 0 -22.6974 9.76152 0 -41.4399 -25.4768 0 
-42.6041 -24.7539 0 -43.8146 -25.4411 0 -64.0854 -0.525974 0 
-22.3768 -41.03 0 -20.9805 -41.1212 0 -22.8982 -39.6447 0 
-20.938 4.79308 0 -20.2282 3.8356 0 -19.1479 4.14578 0 
-20.0854 5.97645 0 -62.9643 10.0098 0 -63.0689 8.68981 0 
-61.765 7.89725 0 -61.4672 10.6335 0 -45.9363 -22.2196 0 
-46.9541 -21.4409 0 -48.1463 -21.9386 0 -48.0281 18.9578 0 
-47.0519 19.8111 0 -49.2933 19.3649 0 -40.3387 40.8724 0 
-31.391 -19.8536 0 -32.6536 -19.3836 0 -33.4844 -20.1611 0 
-56.9707 42.2446 0 -57.674 41.0816 0 -55.4161 42.2298 0 
-15.0578 40.4103 0 -60.5469 -6.54084 0 -45.8738 40.9096 0 
-46.5282 42.2354 0 -47.9449 42.2597 0 -63.914 -41.4247 0 
-61.5178 -32.4936 0 -62.9424 -33.0421 0 -63.0718 -34.4064 0 
-64.8398 1.63638 0 -62.6428 42.7289 0 -61.4949 41.6125 0 
-63.0938 40.9005 0 -62.2054 -41.0838 0 -49.3583 42.3278 0 
-50.8282 42.3676 0 -48.6369 41.0311 0 -47.2714 21.1905 0 
-63.9633 0.848958 0 -16.2613 -3.28005 0 -40.0399 -26.2271 0 
-41.2422 -27.0519 0 -46.0652 -23.6856 0 -38.7234 -26.9726 0 
-60.5428 7.14754 0 -59.3652 6.50507 0 -58.4028 7.10068 0 
-60.4911 8.5298 0 -17.4528 -4.37537 0 -18.4628 -5.31204 0 
-19.3837 -6.26733 0 -19.7081 -41.3521 0 -18.276 -41.2136 0 
-17.8886 -39.764 0 -20.3516 -40.0556 0 -18.9329 -7.58457 0 
-17.3173 1.94715 0 -59.8835 -40.8455 0 -59.5483 -39.4237 0 
-61.0268 -41.209 0 -17.3981 3.20209 0 -63.3746 -35.7501 0 
-63.3806 -37.19 0 -61.766 -38.1406 0 -61.9259 -35.2461 0 
-16.71 36.9247 0 -15.4994 37.6269 0 -15.4712 38.9661 0 
-36.0687 -22.8617 0 -36.966 -23.7222 0 -36.6457 -25.2319 0 
-57.9384 8.06705 0 -17.0669 -5.81091 0 -37.2306 22.5094 0 
-58.8974 9.0515 0 -41.4147 24.0655 0 -39.9851 24.7095 0 
-42.6978 24.8204 0 -34.2365 20.6795 0 -33.9246 19.0975 0 
-31.395 16.1401 0 -30.1438 16.746 0 -32.3059 17.0013 0 
-52.3767 42.3165 0 -53.8704 42.2797 0 -54.6931 40.9471 0 
-51.5988 41.0481 0 -33.0089 18.298 0 -19.5155 40.0248 0 
-20.986 40.0237 0 -25.442 39.6518 0 -26.8101 39.573 0 
-16.5805 39.9323 0 -17.9224 39.8757 0 -60.023 -17.6231 0 
-59.8242 -19.0215 0 -48.3982 -23.2548 0 -49.401 -22.4029 0 
-59.2502 -20.3704 0 -59.1901 -21.7604 0 -57.9915 -19.6218 0 
-46.6023 23.6821 0 -45.4665 24.5822 0 -60.5275 40.525 0 
-59.4287 -23.3151 0 -59.5042 -24.8073 0 -57.6562 -22.5255 0 
-59.4927 16.7021 0 -59.4516 15.3588 0 -59.6791 19.3496 0 
-59.6764 18.0236 0 -58.0711 17.2894 0 -59.5618 22.0737 0 
-59.6123 20.7233 0 -58.188 19.9847 0 -59.298 24.8629 0 
-59.3417 23.4062 0 -57.9011 22.6909 0 -59.2823 27.6245 0 
-59.3149 26.2806 0 -57.698 25.4411 0 -59.2643 30.3588 0 
-59.2518 29.0287 0 -57.6844 28.2631 0 -59.2828 33.197 0 
-59.2524 31.8062 0 -57.642 31.1148 0 -59.597 36.1456 0 
-59.3962 34.686 0 -57.7435 34.0511 0 -60.2258 39.1558 0 
-59.9214 37.6393 0 -58.1813 37.0338 0 -58.8074 39.8968 0 
-28.9549 -37.4044 0 -27.5491 -37.4925 0 -27.8267 16.7897 0 
-26.8989 16.0097 0 -17.7082 30.6147 0 -17.635 31.8841 0 
-17.4004 33.0544 0 -17.4753 34.5176 0 -18.759 32.5037 0 
-18.1588 22.6337 0 -18.1083 23.9044 0 -17.8188 27.948 0 
-17.7519 29.2946 0 -19.0373 30.0133 0 -18.2505 19.8646 0 
-18.246 21.2461 0 -19.6484 21.9405 0 -18.0333 17.2245 0 
-18.0916 18.5646 0 -19.5767 19.253 0 -17.9888 14.3556 0 
-17.9753 15.7753 0 -19.3598 16.5038 0 -18.2123 11.6731 0 
-18.1645 13.0054 0 -19.4775 13.7045 0 -18.4513 9.08784 0 
-18.3317 10.3953 0 -19.7726 11.0765 0 -17.7966 4.52358 0 
-42.4587 39.3941 0 -43.839 39.4047 0 -41.1871 -28.8557 0 
-42.5871 -28.1054 0 -18.3042 -15.192 0 -18.1946 -13.6949 0 
-18.5305 -18.2203 0 -18.4418 -16.6641 0 -19.7984 -15.8616 0 
-18.7056 -21.1863 0 -18.6407 -19.7579 0 -20.0463 -18.8712 0 
-18.787 -24.0768 0 -18.8163 -22.6187 0 -20.2672 -21.8411 0 
-18.6972 -27.1012 0 -18.7146 -25.6181 0 -20.3054 -24.8149 0 
-18.5683 -29.9282 0 -18.621 -28.5642 0 -20.1569 -27.8192 0 
-18.3405 -32.7645 0 -18.4462 -31.3397 0 -19.9586 -30.6938 0 
-18.1207 -35.6501 0 -18.1954 -34.2184 0 -19.6914 -33.5591 0 
-46.2827 -25.1835 0 -47.361 -24.2884 0 -48.6157 -24.7527 0 
-52.413 -19.8381 0 -53.3082 -19.0421 0 -31.8899 -37.209 0 
-30.4391 -37.1895 0 -29.6076 -35.7069 0 -34.7107 -37.3938 0 
-33.3276 -37.3241 0 -32.5297 -35.6071 0 -37.4126 -37.5999 0 
-36.1212 -37.5908 0 -35.378 -35.9192 0 -40.0911 -37.6338 0 
-38.7187 -37.6176 0 -38.0945 -36.1339 0 -42.7358 -37.7012 0 
-41.3954 -37.6884 0 -40.7049 -36.2062 0 -45.5021 -37.5225 0 
-44.1572 -37.5848 0 -43.4306 -36.1444 0 -48.1606 -37.3746 0 
-46.8054 -37.4152 0 -46.1553 -35.9206 0 -51.1324 -37.2586 0 
-49.6569 -37.3198 0 -48.9549 -35.7584 0 -54.0557 -37.223 0 
-52.605 -37.1849 0 -51.9237 -35.6299 0 -57.1408 -37.4923 0 
-55.6017 -37.3591 0 -54.9422 -35.6923 0 -21.4757 -10.8206 0 
-22.3469 -11.5098 0 -34.3732 -21.0371 0 -35.2438 -21.8581 0 
-33.1481 -21.4378 0 -48.6316 21.6744 0 -47.5967 22.5859 0 
-47.9625 24.166 0 -39.6545 39.4287 0 -41.0791 39.3912 0 
-41.7744 37.9503 0 -60.4089 -7.99232 0 -50.4371 -21.5831 0 
-51.354 -20.7378 0 -52.7842 -21.1797 0 -50.6891 -22.8993 0 
-17.9404 25.1864 0 -17.8911 26.5475 0 -19.1532 27.2926 0 
-19.3934 24.6101 0 -23.9471 -14.1871 0 -24.558 -14.984 0 
-25.5971 -15.4947 0 -26.2752 -16.3275 0 -24.0692 -16.1211 0 
-26.7416 -17.3004 0 -27.4423 -18.1324 0 -25.5746 -17.6047 0 
-28.1555 -19.0338 0 -28.995 -19.763 0 -26.7542 -19.479 0 
-60.3034 -9.78508 0 -59.7483 -8.79247 0 -57.6081 -14.9112 0 
-58.7166 -14.179 0 -34.1992 22.5085 0 -32.5137 21.8496 0 
-37.0391 24.4426 0 -35.7306 23.2715 0 -34.0077 24.4416 0 
-57.6292 14.5081 0 -56.2763 15.4759 0 -44.0482 -27.1362 0 
-45.2206 -26.2757 0 -43.9931 -28.94 0 -26.0125 -37.7639 0 
-24.6113 -37.9648 0 -26.5868 -36.1933 0 -22.5009 39.9455 0 
-24.0006 39.8742 0 -24.6513 38.4073 0 -21.695 38.708 0 
-25.8557 15.092 0 -24.8393 14.2056 0 -25.4676 16.597 0 
-23.7457 13.2395 0 -22.6435 12.336 0 -23.3308 14.7132 0 
-23.2253 -38.2552 0 -21.951 -38.4352 0 -23.6641 -36.7553 0 
-37.1903 -27.9011 0 -38.3091 -28.7308 0 -31.848 18.724 0 
-50.6419 19.739 0 -49.6549 20.6531 0 -49.9802 22.0485 0 
-60.4532 -11.225 0 -18.4742 5.26387 0 -30.0534 -20.4759 0 
-30.9218 -21.184 0 -28.5258 -21.0933 0 -57.3723 39.7124 0 
-36.7497 39.5811 0 -38.1973 39.517 0 -38.9377 38.0358 0 
-27.4576 38.0837 0 -28.175 39.4718 0 -29.5918 39.4751 0 
-18.587 38.6371 0 -45.6953 26.3693 0 -44.1936 25.6894 0 
-45.2306 39.4804 0 -46.5804 39.5339 0 -44.5456 38.0289 0 
-59.1934 13.899 0 -59.8893 -29.1859 0 -59.9519 -30.5618 0 
-60.0356 -32.1468 0 -60.1408 -33.5557 0 -58.5749 -31.6239 0 
-60.3191 -14.9742 0 -60.2488 -16.2683 0 -60.0275 -12.3079 0 
-60.0187 -13.5901 0 -58.1297 -25.6092 0 -59.739 -26.3363 0 
-59.8259 -27.7356 0 -17.3862 -8.34383 0 -18.2422 -9.18082 0 
-31.012 39.5764 0 -32.4207 39.6272 0 -30.2427 38.084 0 
-59.296 12.5179 0 -33.1225 38.2099 0 -33.8804 39.6517 0 
-35.3005 39.6361 0 -48.0018 39.5925 0 -49.4151 39.6606 0 
-47.3586 38.1633 0 -38.4903 25.4951 0 -36.9902 26.2572 0 
-39.9361 26.5241 0 -39.7407 -29.1678 0 -41.0855 -30.2213 0 
-38.2075 -30.0963 0 -18.7341 6.35425 0 -18.6779 7.7219 0 
-17.8586 -10.5698 0 -19.4053 -9.8105 0 -20.3818 -10.4498 0 
-17.875 -12.0999 0 -19.3412 -12.7945 0 -20.1186 8.43277 0 
-60.3719 -38.0647 0 -58.6171 -37.7971 0 -21.1184 9.19841 0 
-16.8713 -7.11543 0 -46.5163 -26.8786 0 -17.9974 -38.5177 0 
-17.9959 -37.0405 0 -19.4216 -36.4034 0 -19.188 -39.0402 0 
-58.7912 -16.918 0 -57.9644 -36.1333 0 -34.8618 -23.3174 0 
-29.1113 17.6112 0 -27.7954 18.3362 0 -30.1125 18.2925 0 
-56.5539 16.689 0 -54.9427 16.197 0 -53.7762 17.0501 0 
-56.7375 18.0105 0 -56.459 -15.4147 0 -57.8679 -16.0666 0 
-57.6421 -17.4215 0 -55.5146 -16.3025 0 -23.0101 -12.2399 0 
-23.6999 -13.0825 0 -22.783 -14.5059 0 -21.8725 -12.6712 0 
-60.1196 9.8012 0 -42.9266 26.6075 0 -54.1216 -18.1589 0 
-54.8902 -17.2742 0 -56.0944 -17.5418 0 -54.6566 -19.3968 0 
-30.8534 23.0091 0 -30.8907 21.1802 0 -20.7874 -37.4198 0 
-20.9122 -36.0294 0 -17.7781 35.7686 0 -18.062 37.332 0 
-19.6551 37.481 0 -18.8272 34.9249 0 -52.6362 17.9641 0 
-51.6103 18.8444 0 -51.9719 20.1326 0 -50.7872 39.878 0 
-52.3357 39.8269 0 -50.1521 38.4394 0 -29.1552 20.7488 0 
-30.8155 19.5892 0 -60.8347 -36.5139 0 -36.0869 -26.8892 0 
-35.6726 -28.6473 0 -35.128 -25.9782 0 -24.6983 18.2044 0 
-23.6551 17.2867 0 -47.3688 26.9471 0 -46.0959 28.0542 0 
-55.9927 23.0888 0 -56.2127 21.7563 0 -58.4278 -28.5886 0 
-41.0957 36.0229 0 -42.4753 36.0258 0 -56.0884 -21.9816 0 
-56.327 -23.5363 0 -56.9299 20.5644 0 -56.9967 19.1907 0 
-55.4794 18.5902 0 -55.0214 20.9623 0 -57.0177 -18.3932 0 
-60.5319 -35.1703 0 -55.9059 28.8149 0 -55.9363 27.4106 0 
-55.9224 31.8166 0 -55.9342 30.3692 0 -54.1862 29.5167 0 
-56.0616 34.8572 0 -55.9482 33.3682 0 -54.2404 32.6227 0 
-56.6007 38.1027 0 -56.2763 36.609 0 -54.481 35.9261 0 
-55.4673 39.2875 0 -33.4534 -33.6735 0 -32.0156 -33.5584 0 
-20.2249 32.3629 0 -19.9903 33.5331 0 -21.1518 18.4235 0 
-21.3107 19.7235 0 -22.1578 -22.332 0 -22.0472 -20.8996 0 
-20.9452 13.0507 0 -20.7695 14.4009 0 -33.4074 -23.778 0 
-34.2323 -24.7816 0 -33.6736 -26.4388 0 -33.9504 26.3991 0 
-32.4191 25.6361 0 -31.9466 -21.7457 0 -32.8354 -22.6217 0 
-32.2059 -24.086 0 -30.6091 -22.3679 0 -59.0496 -34.8234 0 
-21.8295 -25.5392 0 -21.9019 -23.9979 0 -23.682 -23.0563 0 
-21.6349 -28.6564 0 -21.7111 -27.1934 0 -23.3076 -26.3764 0 
-21.3895 -31.5298 0 -21.5116 -30.1182 0 -23.0658 -29.4924 0 
-21.1346 -34.5226 0 -21.2796 -33.0687 0 -22.8326 -32.4932 0 
-22.5004 -35.539 0 -48.8757 -26.1343 0 -49.9129 -25.1007 0 
-43.0101 28.5275 0 -41.5144 27.6585 0 -40.0196 28.4441 0 
-30.2378 -33.9445 0 -28.7536 -34.1594 0 -31.1615 -32.0109 0 
-38.7839 -34.6388 0 -37.4778 -34.6211 0 -44.0901 -34.66 0 
-42.6687 -34.7765 0 -46.7302 -33.8838 0 -45.4268 -33.9912 0 
-44.6649 -32.6233 0 -49.6217 -34.2944 0 -48.1255 -34.3493 0 
-47.397 -32.4199 0 -52.5385 -33.87 0 -51.066 -33.9436 0 
-50.2366 -32.5345 0 -55.8748 -33.9426 0 -54.3288 -33.8065 0 
-53.4711 -32.1202 0 -59.8735 11.1552 0 -20.5158 29.5045 0 
-20.4721 30.8246 0 -21.7034 31.854 0 -57.5734 -34.5187 0 
-30.7047 24.8429 0 -29.0817 24.1735 0 -30.6474 26.8004 0 
-27.6219 21.5507 0 -27.4781 23.2093 0 -25.8696 22.4202 0 
-27.3294 25.043 0 -21.3516 11.6396 0 -26.9928 -34.5864 0 
-25.4562 -34.8579 0 -27.623 -32.824 0 -23.8864 -35.2485 0 
-53.9216 39.3374 0 -33.7542 -29.6301 0 -34.8576 -30.6421 0 
-20.4604 -38.8093 0 -47.1107 -28.6439 0 -48.1728 -27.5516 0 
-49.4701 -27.8996 0 -21.4709 10.3618 0 -21.9678 15.079 0 
-20.5002 15.7327 0 -20.5581 17.1819 0 -23.0615 16.045 0 
-46.5754 30.193 0 -44.9019 29.6153 0 -43.4897 30.6663 0 
-36.0314 38.1793 0 -26.6752 36.4363 0 -28.0401 36.3352 0 
-43.9446 36.6314 0 -45.3362 36.7071 0 -43.2659 34.7039 0 
-56.4438 -19.7422 0 -37.0097 28.0144 0 -35.5586 26.9619 0 
-33.9699 28.1563 0 -57.1151 -27.9747 0 -57.1785 -29.425 0 
-39.6236 36.5665 0 -40.3244 34.642 0 -38.1664 36.6549 0 
-54.9776 -24.4659 0 -56.5454 -25.0099 0 -56.7802 -26.5389 0 
-23.7605 37.0182 0 -25.2019 36.7958 0 -25.7844 35.0473 0 
-24.2925 -33.6415 0 -53.2422 -22.5359 0 -54.3012 -21.6362 0 
-55.9624 25.9951 0 -55.9455 24.5774 0 -54.1839 26.5469 0 
-29.5777 36.259 0 -30.9979 36.3604 0 -28.7953 34.6116 0 
-32.4029 36.7893 0 -33.8625 36.8138 0 -31.7379 34.9643 0 
-56.96 -32.6328 0 -20.2931 34.7841 0 -36.1813 -34.6063 0 
-34.7708 -34.4093 0 -46.7666 36.6054 0 -48.188 36.6641 0 
-46.1656 35.2079 0 -22.7585 20.4821 0 -21.1833 21.3115 0 
-21.0962 22.6991 0 -37.4716 -31.3927 0 -38.9031 -31.8297 0 
-21.595 -19.461 0 -21.4848 -17.9235 0 -20.1155 -11.5703 0 
-21.4831 -16.4721 0 -21.3455 -15 0 -53.1099 38.1673 0 
-20.9724 24.1097 0 -20.8045 25.3917 0 -22.5073 23.4807 0 
-40.0687 -34.6488 0 -39.452 -33.1361 0 -40.188 -31.8397 0 
-41.373 -34.7034 0 -42.0325 -33.2191 0 -54.2571 23.6428 0 
-36.8706 -33.1113 0 -49.3151 35.4487 0 -49.9071 37.0066 0 
-51.2792 37.224 0 -23.4857 -19.9519 0 -23.0318 -17.0619 0 
-20.4306 26.6966 0 -20.3583 28.0972 0 -21.7931 28.9085 0 
-22.0096 26.1962 0 -26.2622 19.1382 0 -24.4497 19.8279 0 
-24.3223 21.4159 0 -27.5468 19.9597 0 -49.6995 24.573 0 
-48.7052 25.6692 0 -49.1058 27.3541 0 -51.0183 -24.2874 0 
-52.0544 -23.4676 0 -53.5714 -23.9241 0 -51.2782 -25.669 0 
-24.0709 -17.5726 0 -24.5372 -18.5455 0 -24.9894 -19.984 0 
-25.7027 -20.8854 0 -51.3416 22.2711 0 -50.3182 23.2924 0 
-44.2668 -30.9318 0 -45.728 -29.9626 0 -20.4109 36.3101 0 
-20.936 37.6153 0 -22.4509 37.537 0 -21.574 34.9183 0 
-41.6344 -31.5276 0 -32.5395 -28.0354 0 -31.7245 -30.0301 0 
-29.9468 -30.4162 0 -31.6438 -26.8389 0 -47.3845 -30.6357 0 
-51.0609 24.7956 0 -25.2437 -22.3463 0 -27.0085 -21.8413 0 
-28.0669 -22.5542 0 -24.9878 -24.0122 0 -24.4024 -32.1026 0 
-55.5309 -27.3753 0 -56.8763 -31.0479 0 -54.0803 18.3241 0 
-26.129 -31.5525 0 -24.6691 -30.4042 0 -24.7924 -28.9423 0 
-55.6304 -20.6254 0 -28.0575 32.684 0 -29.5952 32.6078 0 
-22.2922 17.6525 0 -55.5635 -30.434 0 -34.2567 -32.3607 0 
-53.6223 20.6962 0 -52.6539 21.5907 0 -24.1784 23.0744 0 
-54.2479 -28.6801 0 -53.9457 -30.3029 0 -52.1555 -30.3664 0 
-53.913 -27.2443 0 -52.865 36.7345 0 -35.276 36.4863 0 
-36.7252 36.4313 0 -34.5564 35.0658 0 -39.7861 30.5338 0 
-38.2079 29.3994 0 -36.7762 30.1041 0 -20.435 -13.1653 0 
-21.0983 -13.8954 0 -36.175 -31.3779 0 -42.9301 -31.6007 0 
-48.7798 -31.1012 0 -50.7761 27.6173 0 -49.4397 28.8952 0 
-23.4719 31.118 0 -23.2247 32.6562 0 -24.0547 24.485 0 
-50.2241 -30.7504 0 -30.6096 29.1369 0 -28.8952 28.3437 0 
-27.0279 26.9462 0 -25.4243 25.9819 0 -23.7532 26.3882 0 
-26.9901 29.2827 0 -27.8897 -31.1255 0 -24.853 -27.2892 0 
-24.9715 -25.635 0 -26.5332 -24.9249 0 -26.4563 -28.2009 0 
-52.6503 34.9827 0 -50.6987 -28.933 0 -53.7898 -25.3976 0 
-28.4527 -29.1448 0 -37.4111 34.962 0 -34.4989 30.1827 0 
-32.8907 29.6199 0 -31.1386 31.1633 0 -35.6971 31.5677 0 
-23.0014 35.9255 0 -52.3 27.0193 0 -52.3261 25.6038 0 
-26.1254 33.304 0 -26.9253 31.3002 0 -24.6521 33.6634 0 
-22.8836 34.3995 0 -52.0712 33.2274 0 -52.0453 31.6758 0 
-50.4551 34.0359 0 -52.6623 30.1147 0 -52.6339 28.5604 0 
-45.0584 33.5318 0 -46.4887 33.4302 0 -48.8227 30.4563 0 
-47.6288 32.0173 0 -51.4015 -27.5157 0 -41.6972 31.8384 0 
-39.8854 32.7937 0 -52.9919 22.8346 0 -54.3395 19.5043 0 
-52.5068 -26.7024 0 -28.0202 -24.1664 0 -29.5375 -23.4185 0 
-30.5624 -23.9802 0 -28.0039 -25.7892 0 -31.8763 33.0908 0 
-43.589 32.9262 0 -36.9721 33.1137 0 -34.6948 33.1923 0 
-28.5133 -27.4916 0 -33.2813 33.5198 0 -25.058 29.9026 0 
-50.4931 30.7195 0 -48.736 33.6934 0 -23.3793 27.6931 0 
-23.5367 29.1004 0 -31.1344 -25.1365 0 -52.9448 24.3232 0 
-30.0003 -26.7331 0 -38.4133 33.3373 0 -6.78415 49.6415 1 
-6.78415 -48.0584 1 -6.78415 48.5415 1 -6.78415 47.4916 1 
-6.78415 46.1415 1 -6.78415 45.0915 1 -6.78415 43.7915 1 
-6.78415 42.7416 1 -6.78415 41.4916 1 -6.78415 38.9916 1 
-6.78415 40.4416 1 -6.78415 36.6916 1 -6.78415 35.3915 1 
-6.78415 34.1916 1 -6.78415 32.7416 1 -6.78415 31.7416 1 
-6.78415 30.4916 1 -6.78415 27.9916 1 -6.78415 29.4415 1 
-6.78415 25.6915 1 -6.78415 24.3415 1 -6.78415 23.2915 1 
-6.78415 21.9916 1 -6.78415 18.4415 1 -6.78415 17.0415 1 
-6.78415 14.7915 1 -6.78415 13.4915 1 -6.78415 12.4416 1 
-6.78415 11.1416 1 -6.78415 10.0915 1 -6.78415 8.89155 1 
-6.78415 7.79155 1 -6.78415 6.49155 1 -6.78415 5.44155 1 
-6.78415 4.14155 1 -6.78415 1.94155 1 -6.78415 0.44155 1 
-6.78415 -0.60845 1 -6.78415 -1.85845 1 -6.78415 -3.00845 1 
-6.78415 -4.45845 1 -6.78415 -5.50845 1 -6.78415 -6.90845 1 
-6.78415 -9.05845 1 -6.78415 -10.4085 1 -6.78415 -11.4585 1 
-6.78415 -12.8584 1 -6.78415 -14.0085 1 -6.78415 -15.4585 1 
-6.78415 -17.5585 1 -6.78415 -18.9585 1 -6.78415 -20.0585 1 
-6.78415 -21.4585 1 -6.78415 -22.5084 1 -6.78415 -23.9085 1 
-6.78415 -25.1084 1 -6.78415 -26.4585 1 -6.78415 -28.5585 1 
-6.78415 -29.9585 1 -6.78415 -31.0585 1 -6.78415 -32.5084 1 
-6.78415 -33.6085 1 -6.78415 -35.0084 1 -6.78415 -37.2584 1 
-6.78415 -38.6085 1 -6.78415 -39.6585 1 -6.78415 -41.0084 1 
-6.78415 -42.0584 1 -6.78415 -43.4585 1 -6.78415 -44.5584 1 
-6.78415 -45.8084 1 -6.78415 -46.8084 1 -6.78415 37.7915 1 
-6.78415 26.8916 1 -6.78415 20.9415 1 -6.78415 19.4916 1 
-6.78415 15.8415 1 -6.78415 3.04155 1 -6.78415 -7.90845 1 
-6.78415 -16.5084 1 -6.78415 -27.5084 1 -6.78415 -36.1585 1 
-71.7842 -48.1585 1 -71.7842 49.7416 1 -71.7842 -47.0084 1 
-71.7842 -45.9585 1 -71.7842 -44.6085 1 -71.7842 -43.5084 1 
-71.7842 -42.1585 1 -71.7842 -41.1585 1 -71.7842 -39.8585 1 
-71.7842 -37.6085 1 -71.7842 -36.0584 1 -71.7842 -35.0084 1 
-71.7842 -33.6585 1 -71.7842 -32.5584 1 -71.7842 -31.1585 1 
-71.7842 -30.0084 1 -71.7842 -28.7584 1 -71.7842 -26.7085 1 
-71.7842 -25.4085 1 -71.7842 -21.6084 1 -71.7842 -20.2584 1 
-71.7842 -19.0585 1 -71.7842 -17.6585 1 -71.7842 -15.6084 1 
-71.7842 -14.3084 1 -71.7842 -13.2085 1 -71.7842 -12.0584 1 
-71.7842 -10.9585 1 -71.7842 -9.75845 1 -71.7842 -8.70845 1 
-71.7842 -7.35845 1 -71.7842 -6.25845 1 -71.7842 -4.90845 1 
-71.7842 -2.75845 1 -71.7842 -1.35845 1 -71.7842 -0.20845 1 
-71.7842 1.14155 1 -71.7842 2.24155 1 -71.7842 3.54155 1 
-71.7842 4.69155 1 -71.7842 5.99155 1 -71.7842 7.09155 1 
-71.7842 8.39155 1 -71.7842 10.5415 1 -71.7842 12.0915 1 
-71.7842 13.1416 1 -71.7842 14.4915 1 -71.7842 15.5915 1 
-71.7842 16.8916 1 -71.7842 17.8916 1 -71.7842 19.1915 1 
-71.7842 21.3916 1 -71.7842 22.7915 1 -71.7842 23.8415 1 
-71.7842 25.1915 1 -71.7842 26.2915 1 -71.7842 27.7416 1 
-71.7842 28.9916 1 -71.7842 30.2915 1 -71.7842 32.3915 1 
-71.7842 33.5415 1 -71.7842 34.6916 1 -71.7842 36.0415 1 
-71.7842 37.0915 1 -71.7842 38.3915 1 -71.7842 39.3915 1 
-71.7842 40.5415 1 -71.7842 41.6916 1 -71.7842 42.9916 1 
-71.7842 44.0415 1 -71.7842 45.2915 1 -71.7842 47.3915 1 
-71.7842 48.5915 1 -71.7842 -24.2584 1 -71.7842 -22.7085 1 
-71.7842 -38.8084 1 -71.7842 -27.7584 1 -71.7842 -16.6084 1 
-71.7842 -3.85845 1 -71.7842 9.44155 1 -71.7842 20.2416 1 
-71.7842 31.3415 1 -71.7842 46.3915 1 -70.7117 50.7416 1 
-7.82415 50.7416 1 -69.6067 50.7416 1 -68.5992 50.7416 1 
-67.2992 50.7416 1 -66.1617 50.7416 1 -64.7642 50.7416 1 
-63.7242 50.7416 1 -62.4567 50.7416 1 -61.3517 50.7416 1 
-59.9867 50.7416 1 -57.8417 50.7416 1 -56.4767 50.7416 1 
-55.3392 50.7416 1 -53.8442 50.7416 1 -52.6742 50.7416 1 
-51.1142 50.7416 1 -48.9367 50.7416 1 -47.6042 50.7416 1 
-46.5642 50.7416 1 -45.2967 50.7416 1 -40.5842 50.7416 1 
-39.1542 50.7416 1 -38.0492 50.7416 1 -36.6517 50.7416 1 
-35.6117 50.7416 1 -34.2792 50.7416 1 -33.1092 50.7416 1 
-31.7767 50.7416 1 -29.6642 50.7416 1 -28.2017 50.7416 1 
-26.9667 50.7416 1 -25.5367 50.7416 1 -22.0592 50.7416 1 
-20.6292 50.7416 1 -18.5167 50.7416 1 -17.1517 50.7416 1 
-16.1117 50.7416 1 -14.7792 50.7416 1 -13.7067 50.7416 1 
-12.4067 50.7416 1 -10.2617 50.7416 1 -8.99415 50.7416 1 
-44.2567 50.7416 1 -41.6892 50.7416 1 -24.5292 50.7416 1 
-23.1642 50.7416 1 -42.6967 50.7416 1 -58.8817 50.7416 1 
-50.0742 50.7416 1 -30.7692 50.7416 1 -19.5567 50.7416 1 
-11.3992 50.7416 1 -42.0132 1.038 1 -42.0132 10.932 1 
-42.0132 2.262 1 -42.0132 3.222 1 -42.0132 4.5 1 
-42.0132 5.442 1 -42.0132 6.648 1 -42.0132 7.668 1 
-42.0132 8.856 1 -42.0132 9.828 1 -42.7512 11.262 1 
-53.2812 0.732 1 -52.5072 1.506 1 -43.5432 10.47 1 
-44.3172 9.696 1 -45.0372 8.976 1 -45.7692 8.244 1 
-46.5012 7.512 1 -47.2212 6.792 1 -47.9772 6.036 1 
-48.6912 5.322 1 -49.4472 4.566 1 -50.2032 3.81 1 
-50.9592 3.054 1 -51.7932 2.22 1 -43.0092 0 1 
-52.9692 0 1 -44.1252 0 1 -46.5552 0 1 
-45.2052 0 1 -50.9232 0 1 -49.7472 0 1 
-51.9132 0 1 -47.4972 0 1 -48.7992 0 1 
-38.7744 0 1 -29.1144 0 1 -30.2904 0 1 
-37.5324 0 1 -36.2544 0 1 -34.9704 0 1 
-33.8424 0 1 -31.5444 0 1 -32.7024 0 1 
-39.2484 11.25 1 -38.4804 10.482 1 -28.7304 0.732 1 
-29.5104 1.512 1 -36.9864 8.988 1 -37.7604 9.762 1 
-35.4744 7.476 1 -36.2064 8.208 1 -34.7424 6.744 1 
-33.2604 5.262 1 -34.0164 6.018 1 -30.9864 2.988 1 
-31.7664 3.768 1 -30.2544 2.256 1 -32.5104 4.512 1 
-39.9984 1.038 1 -39.9984 11.016 1 -39.9984 10.002 1 
-39.9984 2.112 1 -39.9984 3.99 1 -39.9984 3.066 1 
-39.9984 4.998 1 -39.9984 5.994 1 -39.9984 6.966 1 
-39.9984 8.952 1 -39.9984 7.944 1 -42.9607 -2.00067 1 
-53.0647 -2.00067 1 -44.1607 -2.00067 1 -45.1987 -2.00067 1 
-46.4527 -2.00067 1 -47.4787 -2.00067 1 -48.8107 -2.00067 1 
-49.9087 -2.00067 1 -51.0847 -2.00067 1 -52.0267 -2.00067 1 
-53.2387 -2.76267 1 -42.7447 -13.2567 1 -43.4947 -12.5067 1 
-52.4527 -3.54867 1 -51.6967 -4.30467 1 -50.2627 -5.73867 1 
-49.4467 -6.55467 1 -48.6967 -7.30467 1 -47.9647 -8.03667 1 
-47.2387 -8.76267 1 -46.5067 -9.49467 1 -45.7807 -10.2207 1 
-45.0427 -10.9587 1 -44.2087 -11.7927 1 -50.9767 -5.02467 1 
-42.0007 -2.97267 1 -42.0007 -13.0347 1 -42.0007 -12.0327 1 
-42.0007 -5.03667 1 -42.0007 -4.00467 1 -42.0007 -6.99267 1 
-42.0007 -6.00267 1 -42.0007 -10.0227 1 -42.0007 -8.98467 1 
-42.0007 -11.0667 1 -42.0007 -8.02467 1 -40.0038 -3.02721 1 
-40.0038 -13.0772 1 -40.0038 -12.1112 1 -40.0038 -4.04121 1 
-40.0038 -5.05521 1 -40.0038 -6.05121 1 -40.0038 -7.06521 1 
-40.0038 -8.14521 1 -40.0038 -9.14121 1 -40.0038 -10.1372 1 
-40.0038 -11.1512 1 -28.7418 -2.77521 1 -39.2778 -13.3112 1 
-38.5158 -12.5492 1 -30.2358 -4.26921 1 -29.4858 -3.51921 1 
-32.4918 -6.52521 1 -31.7238 -5.75721 1 -34.0458 -8.07921 1 
-33.2598 -7.29321 1 -35.5758 -9.60921 1 -34.7778 -8.81121 1 
-37.0818 -11.1152 1 -36.3498 -10.3832 1 -37.8138 -11.8472 1 
-30.9798 -5.01321 1 -39.0198 -2.03721 1 -28.9578 -2.03721 1 
-30.0438 -2.03721 1 -36.8178 -2.03721 1 -37.8258 -2.03721 1 
-34.5078 -2.03721 1 -35.5458 -2.03721 1 -32.2278 -2.03721 1 
-33.2478 -2.03721 1 -31.0398 -2.03721 1 -56.4488 -0.255489 1 
-41.7473 14.4473 1 -42.5279 13.6667 1 -55.6601 0.533324 1 
-54.9689 1.22455 1 -54.1395 2.05403 1 -53.3914 2.80218 1 
-52.6027 3.59099 1 -51.8546 4.33915 1 -51.0415 5.15235 1 
-50.2771 5.91677 1 -49.4721 6.72185 1 -48.724 7.47 1 
-47.8702 8.32387 1 -47.1628 9.03136 1 -46.3578 9.83644 1 
-45.6341 10.5602 1 -44.7478 11.4466 1 -44.0485 12.146 1 
-43.2597 12.9348 1 -26.1744 -1.02663 2 -27.0809 -2.26378 2 
-27.8127 -2.99567 2 -28.5567 -3.73967 2 -29.3455 -4.52848 2 
-30.0895 -5.27248 2 -30.8132 -5.99623 2 -31.5572 -6.74023 2 
-32.2809 -7.46399 2 -33.0489 -8.23199 2 -33.7644 -8.94762 2 
-34.4964 -9.67962 2 -35.2445 -10.4278 2 -36.0185 -11.2018 2 
-36.7585 -11.9418 2 -37.4905 -12.6738 2 -38.2142 -13.3975 2 
-38.9762 -14.1595 2 -39.6917 -14.8752 2 -40.1833 -15.5508 2 
-40.9802 -16.3478 2 -41.7121 -15.6159 2 -40.4954 -14.7129 2 
-41.0317 13.7155 2 -39.7628 12.8863 2 -38.974 12.0975 2 
-38.206 11.3295 2 -37.4823 10.6058 2 -36.7623 9.88582 2 
-36.0385 9.16213 2 -35.2585 8.38213 2 -34.5266 7.65031 2 
-33.8006 6.92431 2 -33.0687 6.19248 2 -32.3187 5.44248 2 
-31.6194 4.74319 2 -30.8754 3.99919 2 -30.111 3.23484 2 
-29.379 2.50284 2 -28.6552 1.77915 2 -27.8752 0.999148 2 
-27.0945 0.218538 2 -43.6948 -13.4462 2 -44.508 -12.6331 2 
-45.342 -11.7991 2 -46.0983 -11.0429 2 -46.8243 -10.3169 2 
-47.5725 -9.56877 2 -48.2985 -8.84277 2 -49.0222 -8.11907 2 
-49.7722 -7.36907 2 -50.4716 -6.66978 2 -51.1856 -5.95578 2 
-51.9419 -5.19956 2 -52.6619 -4.47956 2 -53.4182 -3.72334 2 
-54.2042 -2.93734 2 -54.9116 -2.22992 2 -55.6015 -1.73376 2 
-56.309 -1.02633 2 -55.5202 -0.237516 2 -54.6906 -1.50452 2 
-53.3715 1.73189 2 -52.6234 2.48004 2 -51.9094 3.19404 2 
-51.1613 3.9422 2 -50.4053 4.6982 2 -49.641 5.46261 2 
-48.885 6.21861 2 -48.1369 6.96677 2 -47.3809 7.72277 2 
-46.6734 8.43026 2 -45.9414 9.16226 2 -45.2177 9.88601 2 
-44.4977 10.606 2 -43.7985 11.3054 2 -43.0065 12.0974 2 
-42.2746 12.8293 2 -42.9508 -14.1902 2 -38.8071 -1.0186 2 
-40.0011 -1.0186 2 -36.2931 -1.0186 2 -37.5651 -1.0186 2 
-33.7491 -1.0186 2 -35.0091 -1.0186 2 -30.2631 -1.0186 2 
-31.4511 -1.0186 2 -28.0011 -1.0186 2 -29.0871 -1.0186 2 
-41.0023 -2.01894 2 -41.0023 -3.00894 2 -41.0023 -5.00694 2 
-41.0023 -4.04094 2 -41.0023 -7.05294 2 -41.0023 -8.13294 2 
-41.0023 -9.09294 2 -41.0023 -10.0889 2 -41.0023 -11.1329 2 
-41.0023 -12.0929 2 -41.0023 -13.0589 2 -41.0023 -14.0189 2 
-40.9995 -1.00034 2 -41.0058 0 2 -42.007 -1.00034 2 
-42.967 -1.00034 2 -43.963 -1.00034 2 -45.001 -1.00034 2 
-46.081 -1.00034 2 -47.107 -1.00034 2 -48.997 -1.00034 2 
-50.095 -1.00034 2 -51.085 -1.00034 2 -52.027 -1.00034 2 
-53.071 -1.00034 2 -41.0058 2.076 2 -41.0058 1.038 2 
-41.0058 3.03 2 -41.0058 3.99 2 -41.0058 5.94 2 
-41.0058 4.932 2 -41.0058 7.938 2 -41.0058 6.96 2 
-41.0058 9.918 2 -41.0058 8.91 2 -41.0058 12 2 
-41.0058 10.986 2 -54.1455 0.95789 2 -27.0972 -0.800066 2 
-40.7703 12.8863 2 -41.4939 -14.6946 2 -41.0023 -6.02094 2 
-42.2189 -14.922 2 -48.049 -1.00034 2 -54.8366 0.266662 2 
-54.6968 -0.504178 2 -32.6091 -1.0186 2 -54.007 -1.00034 2 
-26.1744 -1.02663 0 -27.8697 -3.05259 0 -27.0809 -2.26378 0 
-29.3395 -4.52248 0 -28.6077 -3.79059 0 -30.862 -6.04503 0 
-30.0895 -5.27248 0 -32.3455 -7.52865 0 -31.63 -6.81303 0 
-33.8715 -9.05467 0 -33.1315 -8.31465 0 -35.3932 -10.5764 0 
-34.6695 -9.85267 0 -36.8407 -12.0241 0 -36.1252 -11.3084 0 
-38.2583 -13.4417 0 -37.5427 -12.7261 0 -39.6998 -14.8833 0 
-38.9843 -14.1677 0 -40.9622 -16.3469 0 -40.1735 -15.5581 0 
-40.4774 -14.712 0 -41.6941 -15.6151 0 -41.048 13.748 0 
-39.096 12.2195 0 -39.7872 12.9106 0 -37.6222 10.7458 0 
-38.346 11.4695 0 -36.092 9.21557 0 -36.8483 9.97179 0 
-34.6118 7.73549 0 -35.36 8.48357 0 -33.1561 6.2798 0 
-33.8798 7.00349 0 -31.6519 4.77571 0 -32.4001 5.5238 0 
-30.075 3.19884 0 -30.8719 3.99571 0 -28.5259 1.64983 0 
-29.331 2.45484 0 -27.0945 0.218538 0 -27.7939 0.917835 0 
-27.0972 -0.800066 0 -40.7947 12.9106 0 -41.0058 12 0 
-44.449 -12.6921 0 -43.6764 -13.4646 0 -45.8867 -11.2544 0 
-45.163 -11.9781 0 -47.3647 -9.77647 0 -46.6247 -10.5164 0 
-48.8286 -8.31265 0 -48.0967 -9.04447 0 -50.3251 -6.8163 0 
-49.5606 -7.58065 0 -51.8892 -5.25222 0 -51.1411 -6.0003 0 
-53.4096 -3.73187 0 -52.6452 -4.49622 0 -54.9035 -2.23805 0 
-54.1716 -2.96987 0 -56.3008 -1.0118 0 -55.5852 -1.72736 0 
-54.6824 -1.48999 0 -55.5121 -0.222988 0 -52.4865 2.61695 0 
-53.2752 1.82814 0 -50.8394 4.26416 0 -51.6525 3.45095 0 
-49.2784 5.82524 0 -50.0834 5.02016 0 -47.7106 7.39311 0 
-48.5644 6.53924 0 -45.4536 9.65018 0 -46.2586 8.84511 0 
-43.7932 11.3106 0 -44.6796 10.4242 0 -42.9264 -14.2146 0 
-40.0011 -1.0186 0 -39.0171 -1.0186 0 -37.7931 -1.0186 0 
-36.7851 -1.0186 0 -35.5071 -1.0186 0 -34.4691 -1.0186 0 
-33.3411 -1.0186 0 -32.3211 -1.0186 0 -31.0671 -1.0186 0 
-30.0711 -1.0186 0 -28.9551 -1.0186 0 -28.0011 -1.0186 0 
-41.0023 -4.00494 0 -41.0023 -2.99094 0 -41.0023 -6.03294 0 
-41.0023 -5.03694 0 -41.0023 -8.03694 0 -41.0023 -7.02294 0 
-41.0023 -10.0709 0 -41.0023 -9.07494 0 -41.0023 -12.0509 0 
-41.0023 -11.0369 0 -41.0023 -14.0189 0 -41.0023 -13.0529 0 
-41.0023 -2.01894 0 -44.323 -1.00034 0 -43.123 -1.00034 0 
-46.927 -1.00034 0 -45.673 -1.00034 0 -48.259 -1.00034 0 
-49.561 -1.00034 0 -51.913 -1.00034 0 -50.737 -1.00034 0 
-52.969 -1.00034 0 -54.007 -1.00034 0 -41.0058 0 0 
-41.0058 1.074 0 -41.0058 2.298 0 -41.0058 3.222 0 
-41.0058 4.5 0 -41.0058 5.496 0 -41.0058 6.702 0 
-41.0058 7.674 0 -41.0058 8.862 0 -41.0058 9.912 0 
-41.0058 11.016 0 -42.007 -1.00034 0 -43.0552 12.0486 0 
-54.0072 1.09614 0 -41.4759 -14.6937 0 -40.9995 -1.00034 0 
-42.2189 -14.922 0 -54.8366 0.266662 0 -46.9906 8.11311 0 
-54.6886 -0.48965 0 -42.2665 12.8374 0 -41.7052 -16.5752 1 
-42.4371 -15.8434 1 -56.5301 -1.75173 1 -55.8144 -2.46729 1 
-43.1446 -15.136 1 -43.8765 -14.4041 1 -44.6491 -13.6316 1 
-45.4623 -12.8185 1 -46.186 -12.0948 1 -46.9423 -11.3386 1 
-47.6823 -10.5987 1 -48.4305 -9.85056 1 -49.1624 -9.11874 1 
-49.8861 -8.39505 1 -50.6506 -7.6307 1 -51.3499 -6.93141 1 
-52.0981 -6.18332 1 -52.8544 -5.42711 1 -53.6188 -4.66276 1 
-54.3751 -3.90654 1 -55.1069 -3.17472 1 -40.2755 14.5206 1 
-39.5517 13.7969 1 -25.4507 -0.302878 1 -38.8605 13.1057 1 
-38.0717 12.317 1 -37.3479 11.5933 1 -36.6242 10.8696 1 
-35.8679 10.1134 1 -35.1441 9.3897 1 -34.396 8.64162 1 
-33.6641 7.9098 1 -32.9403 7.1861 1 -32.2084 6.45428 1 
-31.4603 5.7062 1 -30.7609 5.0069 1 -29.964 4.21003 1 
-28.4758 2.72199 1 -27.6707 1.91698 1 -26.89 1.13637 1 
-26.1907 0.437076 1 -29.1996 3.44568 1 -25.4343 -1.76659 1 
-37.7751 -1.0186 1 -39.0171 -1.0186 1 -34.5998 7.72349 1 
-35.2705 8.39413 1 -41.0058 8.874 1 -41.0058 9.882 1 
-33.1501 6.2738 1 -32.3187 5.44248 1 -41.0023 -4.06494 1 
-41.0023 -5.03094 1 -52.6654 2.43804 1 -48.9246 -8.21665 1 
-53.4422 -3.69934 1 -52.8333 -3.89635 0.498316 -53.7987 -4.07102 1.49832 
-53.7662 -4.10355 0.498316 -44.203 -1.00034 1 -54.8366 0.266662 1 
-41.0058 4.494 1 -41.0058 3.216 1 -29.379 2.50284 1 
-50.4391 -6.7023 1 -38.9843 -14.1677 1 -41.7121 -15.6159 1 
-42.2189 -14.922 1 -41.4939 -14.6946 1 -44.083 -1.00034 1 
-36.7263 9.84982 1 -38.224 11.3475 1 -49.563 5.54061 1 
-41.0023 -14.0189 1 -41.0023 -13.0589 1 -45.2177 9.88601 1 
-45.9414 9.16226 1 -51.0833 4.0202 1 -32.2851 -1.0186 1 
-33.3051 -1.0186 1 -31.606 -6.78903 1 -36.0025 9.12613 1 
-28.0011 -1.0186 1 -27.0972 -0.800066 1 -47.497 -1.00034 1 
-41.0023 -10.1309 1 -48.6004 6.50324 1 -27.0809 -2.26378 1 
-26.1744 -1.02663 1 -41.0023 -7.01694 1 -43.6704 -13.4706 1 
-42.9264 -14.2146 1 -39.096 12.2195 1 -51.7305 3.37295 1 
-54.9035 -2.23805 1 -54.6824 -1.48999 1 -55.5933 -1.74189 1 
-55.3722 -0.993828 1 -41.0058 5.502 1 -30.1311 -1.0186 1 
-31.1271 -1.0186 1 -48.2025 -8.93877 1 -55.5121 -0.222988 1 
-54.6886 -0.48965 1 -28.9551 -1.0186 1 -52.8093 -3.92035 1.49832 
-28.6072 1.73115 1 -54.007 -1.00034 1 -53.071 -1.00034 1 
-45.228 -11.9131 1 -30.0895 -5.27248 1 -30.8132 -5.99623 1 
-37.6042 10.7278 1 -38.2502 -13.4335 1 -34.5615 -9.74467 1 
-47.4667 -9.67447 1 -33.0895 -8.27265 1 -40.969 -15.3876 1 
-40.4774 -14.712 1 -50.1614 4.94216 1 -31.6519 4.77571 1 
-32.3049 -7.48799 1 -28.6137 -3.79659 1 -26.4437 2.0885 1 
-25.7443 1.3892 1 -49.897 -1.00034 1 -48.799 -1.00034 1 
-44.4437 10.66 1 -41.0023 -2.01894 1 -40.9995 -1.00034 1 
-40.0011 -1.0186 1 -41.0561 13.7399 1 -38.7744 1.038 1 
-33.8066 6.93031 1 -40.1653 -15.5499 1 -40.9622 -16.3469 1 
-41.0058 2.262 1 -41.0058 1.038 1 -36.629 6.22157 1 
-36.3184 7.12444 1 -37.5139 6.94106 1 -42.2665 12.8374 1 
-40.7947 12.9106 1 -52.6212 -4.52022 1 -33.541 4.25139 1 
-34.1888 3.0168 1 -32.9064 3.35293 1 -33.5541 2.11833 1 
-44.443 -12.6981 1 -42.007 -1.00034 1 -41.0058 0 1 
-51.073 -1.00034 1 -52.015 -1.00034 1 -41.4972 -9.54323 1.50398 
-40.4988 -9.6515 1.50398 -40.4988 -8.6555 1.50398 -42.967 -1.00034 1 
-41.5029 -3.48855 0.49729 -40.5044 -3.54881 0.49729 -40.5044 -2.53481 0.49729 
-56.309 -1.02633 1 -27.0945 0.218538 1 -27.7939 0.917835 1 
-41.5029 -2.51655 1.49729 -41.5029 -3.54855 1.49729 -53.4135 1.68989 1 
-54.1455 0.95789 1 -39.7628 12.8863 1 -41.0058 12 1 
-50.8462 2.16267 1 -50.7552 1.34548 1 -51.7023 1.4028 1 
-45.283 -1.00034 1 -48.1009 7.00277 1 -43.7445 11.3594 1 
-34.4451 -1.0186 1 -46.0007 -11.1404 1 -41.5095 10.4085 1.49777 
-41.5095 11.4765 1.49777 -40.502 10.4625 1.49777 -36.0592 -11.2424 1 
-35.3525 -10.5358 1 -51.9012 -5.24022 1 -47.3809 7.72277 1 
-36.8843 10.0078 1 -53.0018 -4.8679 0.498316 -46.6734 8.43026 1 
-49.6582 -7.48307 1 -36.8245 -12.0078 1 -28.6975 -3.30161 0.446743 
-27.9595 -2.56361 0.446743 -27.9595 -2.56361 1.44674 -41.0058 7.686 1 
-41.0058 6.708 1 -51.1736 -5.96778 1 -41.5029 -2.51655 0.49729 
-30.9079 4.03171 1 -45.0969 6.27299 1 -46.2743 6.59868 1 
-45.3238 7.1863 1 -46.7223 -10.4189 1 -39.6917 -14.8752 1 
-37.5067 -12.6901 1 -41.0023 -12.0569 1 -43.0065 12.0974 1 
-50.3002 0.674675 1 -49.9075 1.70178 1 -44.5918 7.9183 1 
-44.1852 6.72488 1 -42.8481 2.53492 1 -47.3629 3.91387 1 
-47.0957 2.88797 1 -48.094 3.03424 1 -47.8269 2.00833 1 
-36.7671 -1.0186 1 -41.0023 -11.0969 1 -35.3885 -16.6963 0.48857 
-36.4666 -16.2625 0.48857 -35.4671 -16.7272 1.48857 -35.4502 -17.4165 1 
-36.5283 -16.9827 1 -50.0205 2.5931 1 -48.8567 2.13644 1 
-40.5044 -2.53481 1.49729 -47.7879 4.9609 1 -48.5019 4.2469 1 
-35.6954 -15.5292 0.48857 -41.0023 -8.09694 1 -36.4615 -16.2266 1.48857 
-37.5227 -16.4821 1 -41.5095 11.4765 0.497769 -41.5095 10.3725 0.497769 
-25.3248 2.29151 1 -24.6065 1.49833 1 -25.0257 0.505348 1 
-35.4831 -1.0186 1 -42.7512 9.222 1 -42.7512 10.194 1 
-43.1816 4.06529 1 -46.0099 5.5666 1 -27.0366 -2.79018 0.446743 
-27.7684 -3.52207 1.44674 -49.0393 3.35333 1 -47.0227 0.899001 1 
-45.851 1.03113 1 -46.3185 1.93013 1 -47.0303 5.84268 1 
-45.3793 1.80892 1 -45.5594 2.71433 1 -36.7515 -15.7488 1 
-46.537 -1.00034 1 -27.8254 -3.57899 0.446743 -28.7035 -3.30761 1.44674 
-51.3783 0.670802 1 -54.2042 -2.93734 1 -44.9661 3.75049 1 
-44.0166 3.37821 1 -44.0972 4.42384 1 -33.8064 -8.98962 1 
-43.1292 1.038 1 -43.9641 1.31092 1 -43.5252 8.448 1 
-43.0798 7.1383 1 -29.3455 -4.52848 1 -52.2372 0.732 1 
-40.502 10.4925 0.497769 -41.4972 -9.58523 0.503982 -30.111 3.23484 1 
-43.1186 6.23458 1 -41.0023 -6.02694 1 -35.6737 -15.5435 1.48857 
-46.3366 3.67216 1 -42.9287 4.85855 1 -40.502 11.4765 1.49777 
-44.0342 5.65113 1 -67.1486 23.8652 1 -68.4196 24.5847 1 
-67.1644 22.8168 1 -68.4354 23.5362 1 -30.8214 -12.7763 1 
-31.1551 -11.6396 1 -31.865 -12.3816 1 -54.7343 -7.77465 1 
-55.9662 -8.11989 1 -55.1539 -8.89017 1 -12.1573 6.62302 1 
-12.0277 5.56732 1 -11.0837 6.21267 1 -55.6042 10.39 1 
-57.1724 10.3433 1 -56.2133 9.35884 1 -60.9922 10.7723 1 
-61.2383 9.41831 1 -62.2233 11.7031 1 -62.4694 10.3491 1 
-53.608 8.79279 1 -54.4311 7.99494 1 -54.267 9.97459 1 
-55.0901 9.17673 1 -49.8084 -42.1473 1 -49.0625 -43.4928 1 
-50.4413 -43.4997 1 -48.4693 -42.2042 1 -47.3328 -42.2181 1 
-47.9261 -43.5067 1 -47.9044 11.34 1 -48.2389 12.6108 1 
-49.0926 11.8343 1 -49.4272 13.1051 1 -57.0384 -2.67353 1 
-57.5044 -3.64353 1 -56.175 -3.43876 1 -56.641 -4.40876 1 
-23.6096 -7.00519 1 -22.4168 -7.34913 1 -23.242 -8.13144 1 
-61.8629 -31.5803 1 -60.4634 -31.1268 1 -60.4932 -32.3279 1 
-43.0553 -41.0175 1 -43.6941 -39.6368 1 -41.9179 -40.9834 1 
-42.5567 -39.6028 1 -44.3508 -40.9998 1 -45.039 -39.5746 1 
-45.5141 -40.9548 1 -46.2023 -39.5295 1 -52.0378 -38.0882 1 
-52.468 -39.4003 1 -51.2677 -39.4034 1 -59.3086 -44.9672 1 
-60.4022 -45.0594 1 -59.9559 -46.111 1 -61.0495 -46.2032 1 
-8.84547 2.60924 1 -9.82443 1.93911 1 -8.86879 1.52903 1 
-48.2276 -46.9905 1 -47.1432 -47.0021 1 -47.7524 -45.8643 1 
-29.8387 -45.8806 1 -30.5663 -47.1006 1 -30.4082 -44.7677 1 
-31.1358 -45.9877 1 -28.711 -15.6404 1 -29.9982 -15.1727 1 
-28.01 -14.807 1 -29.2972 -14.3392 1 -33.3108 9.00332 1 
-32.8405 10.1486 1 -32.5172 8.25204 1 -32.047 9.39728 1 
-28.6304 12.735 1 -29.1385 11.4288 1 -29.4838 13.55 1 
-29.992 12.2439 1 -30.0836 8.97451 1 -28.8332 9.44821 1 
-29.564 10.2165 1 -68.4954 -14.9705 1 -67.2753 -14.3768 1 
-68.4886 -13.6952 1 -20.0683 49.7661 1 -21.4983 49.7661 1 
-20.7355 48.6545 1 -69.5878 34.7932 1 -69.5424 33.4774 1 
-68.4869 34.2855 1 -68.4415 32.9697 1 -30.7614 -9.81202 1 
-31.0634 -8.75764 1 -30.0416 -9.07315 1 -21.7495 41.5755 1 
-22.5332 42.8215 1 -22.8542 41.6317 1 -23.6379 42.8777 1 
-53.1637 20.0265 1 -53.8457 21.4846 1 -52.1954 20.9211 1 
-31.8325 -9.52182 1 -27.9125 -9.70754 1 -27.1333 -8.9546 1 
-28.2548 -8.64368 1 -27.4757 -7.89073 1 -27.4804 -10.8433 1 
-26.794 -10.0671 1 -68.889 48.5632 1 -68.5026 47.6069 1 
-67.7945 48.5144 1 -54.3489 -6.68836 1 -55.1066 -5.91776 1 
-53.9337 -5.65184 1 -57.2211 -11.5255 1 -58.4838 -11.6462 1 
-58.0581 -12.729 1 -7.9253 -9.75858 1 -8.86069 -9.33858 1 
-7.71955 -8.63844 1 -55.0283 -13.8866 1 -56.2868 -14.2522 1 
-55.7934 -13.1229 1 -41.8587 -35.3621 1 -42.5182 -33.8777 1 
-41.2225 -33.8047 1 -64.1202 -0.902663 1 -63.9036 -2.05404 1 
-62.7443 -1.19473 1 -30.9011 9.76442 1 -30.3816 11.0064 1 
-64.2091 40.099 1 -62.7625 40.0953 1 -64.0368 39.0714 1 
-62.5902 39.0677 1 -61.8531 1.13393 1 -62.6223 0.180198 1 
-60.7081 1.01006 1 -61.4773 0.0563327 1 -46.6447 32.627 1 
-47.7519 34.3031 1 -46.3216 34.4047 1 -42.3033 47.4755 1 
-43.3882 47.4622 1 -42.8759 48.5594 1 -57.1727 49.5983 1 
-57.7256 48.6375 1 -58.3946 49.7808 1 -11.0598 46.8753 1 
-11.4684 45.7826 1 -10.54 46.0883 1 -27.4501 45.2894 1 
-28.1465 44.019 1 -28.5793 45.2293 1 -29.2757 43.9589 1 
-13.5356 10.753 1 -13.4934 12.0251 1 -14.7319 10.1086 1 
-14.6897 11.3807 1 -27.5562 49.7523 1 -25.3048 21.7743 1 
-25.1609 23.4329 1 -27.3192 21.1873 1 -27.1753 22.8458 1 
-22.7994 -34.5731 1 -23.9631 -35.7894 1 -22.5771 -36.0799 1 
-63.4164 42.2708 1 -62.2685 41.1544 1 -63.9104 41.2118 1 
-28.8035 4.49041 1 -29.5679 5.25476 1 -23.8357 49.6145 1 
-7.60362 45.4804 1 -8.74535 44.8665 1 -7.92588 44.4777 1 
-63.037 1.12395 1 -33.9655 -19.1254 1 -33.1347 -18.3479 1 
-32.7405 -19.526 1 -11.9589 38.2363 1 -13.1545 38.9489 1 
-11.9267 39.5674 1 -31.4875 -20.0757 1 -31.8817 -18.8976 1 
-22.3154 40.4343 1 -21.2727 40.213 1 -23.0244 39.1185 1 
-21.9817 38.8973 1 -66.08 -38.3031 1 -67.2359 -38.8057 1 
-66.1096 -39.4535 1 -62.9213 -3.33336 1 -63.3088 -4.91012 1 
-64.2911 -3.63081 1 -64.6517 -21.654 1 -63.3392 -22.2385 1 
-64.6445 -23.0389 1 -63.332 -23.6233 1 -12.2534 -29.8309 1 
-11.1863 -30.2751 1 -12.2827 -30.9393 1 -53.1935 -6.44437 1 
-53.6088 -7.48089 1 -35.6181 -22.2014 1 -35.2361 -23.6606 1 
-34.4112 -22.657 1 -69.5389 -7.3386 1 -69.5547 -8.45663 1 
-68.5107 -7.85699 1 -19.9303 37.5903 1 -19.2846 39.0325 1 
-20.4668 38.9755 1 -70.5348 -7.94582 1 -70.7883 -6.75123 1 
-37.7774 -22.329 1 -36.4981 -22.9278 1 -36.88 -21.4686 1 
-7.9839 4.7542 1 -7.6892 3.4155 1 -8.88894 4.02815 1 
-11.2154 -32.8998 1 -11.1843 -33.9756 1 -12.29 -33.563 1 
-58.4563 -8.79334 1 -60.0472 -8.94182 1 -59.0114 -9.78595 1 
-12.2363 -37.3237 1 -11.1747 -36.5339 1 -12.276 -36.1256 1 
-66.0173 20.8821 1 -66.0137 22.2847 1 -67.168 21.4142 1 
-60.2602 -10.1136 1 -61.4458 -10.7094 1 -61.2959 -9.26944 1 
-66.0501 -35.7326 1 -67.2081 -35.1461 1 -66.0156 -34.3855 1 
-67.1735 -33.799 1 -69.5207 -17.9143 1 -70.5543 -18.4277 1 
-69.5499 -19.0499 1 -8.90523 -17.8323 1 -9.89414 -17.4087 1 
-8.89481 -16.7421 1 -26.8192 48.5849 1 -26.2297 49.5742 1 
-62.1461 -2.22339 1 -9.79131 41.9122 1 -8.88086 42.5532 1 
-9.73038 42.9927 1 -57.369 -48.2519 1 -58.7015 -48.2519 1 
-58.0942 -47.1246 1 -33.6646 49.7518 1 -34.3096 48.5817 1 
-34.9241 49.5714 1 -14.6369 29.5497 1 -14.6027 30.8952 1 
-13.4342 28.952 1 -13.3999 30.2975 1 -59.117 -7.99319 1 
-19.0308 49.7645 1 -12.1988 23.5226 1 -12.198 24.6045 1 
-11.1181 24.1584 1 -47.5108 25.2877 1 -49.2478 25.6947 1 
-47.9114 26.9726 1 -20.5519 44.0707 1 -21.3471 45.2744 1 
-21.6637 44.0783 1 -22.4589 45.2819 1 -39.659 49.7413 1 
-41.089 49.7413 1 -7.75917 24.7615 1 -7.75917 26.1115 1 
-28.01 46.3942 1 -7.74878 22.3914 1 -7.74878 23.6914 1 
-8.93411 23.0789 1 -12.9859 42.398 1 -11.9209 41.8255 1 
-12.0704 43.3667 1 -17.003 46.4059 1 -16.5018 47.5607 1 
-17.7358 47.5458 1 -17.2346 48.7006 1 -7.67975 -17.1756 1 
-58.1551 41.6174 1 -57.4519 42.7803 1 -56.72 41.4329 1 
-24.8272 -36.9985 1 -25.2251 -35.5826 1 -14.4362 -16.0185 1 
-15.8488 -16.6608 1 -14.4856 -17.5001 1 -8.8579 -14.2197 1 
-9.8384 -13.7695 1 -8.85128 -12.8285 1 -9.83178 -12.3784 1 
-7.66933 -16.0854 1 -8.8436 -15.3053 1 -9.8389 -14.8857 1 
-11.0464 -14.1447 1 -11.0459 -13.0286 1 -19.3654 -6.23275 1 
-17.7812 -6.70804 1 -18.8877 -7.41976 1 -29.7896 39.8043 1 
-31.1383 39.6402 1 -30.4554 41.2641 1 -12.2822 10.3154 1 
-12.296 11.355 1 -11.1731 10.9768 1 -28.697 42.7455 1 
-29.8172 42.5877 1 -68.474 0.470957 1 -69.5825 -0.0827455 1 
-69.6117 1.01166 1 -30.008 45.1778 1 -66.0416 -18.5415 1 
-66.0675 -19.7319 1 -67.2084 -19.1897 1 -20.5236 -24.4108 1 
-22.0477 -25.1352 1 -21.5261 -23.1822 1 -23.0502 -23.9065 1 
-18.3737 46.3423 1 -33.0753 20.192 1 -33.3867 19.0386 1 
-32.0615 19.7003 1 -8.92465 -37.5719 1 -9.90987 -37.1835 1 
-8.94848 -36.4553 1 -28.7483 -21.1975 1 -30.1499 -20.698 1 
-29.6226 -22.1492 1 -42.3522 -47.0497 1 -41.8085 -48.0807 1 
-41.2749 -47.0722 1 -60.5213 14.4153 1 -58.699 13.5646 1 
-60.624 13.0342 1 -8.62841 -44.6701 1 -9.77072 -44.4308 1 
-9.55148 -45.4082 1 -10.6938 -45.1689 1 -55.2835 12.6087 1 
-56.1288 11.6228 1 -57.1194 12.9388 1 -31.771 43.9733 1 
-31.1234 45.1578 1 -30.6555 43.9933 1 -66.2703 40.1995 1 
-66.3051 38.9482 1 -65.2048 39.535 1 -67.3367 38.3661 1 
-68.5415 37.799 1 -67.2433 37.1461 1 -14.1974 49.8477 1 
-42.4796 -42.2892 1 -52.2881 -21.9228 1 -53.347 -21.0231 1 
-53.8051 -22.3793 1 -13.3844 18.0476 1 -14.5378 17.4279 1 
-13.4369 16.9421 1 -10.7921 -44.0642 1 -24.4827 46.4039 1 
-23.9134 45.2762 1 -24.9957 45.3074 1 -44.6059 -25.2259 1 
-43.3954 -24.5387 1 -44.4 -23.8025 1 -43.1896 -23.1153 1 
-60.7484 18.2932 1 -60.8147 16.998 1 -59.7167 17.5285 1 
-44.2711 -22.3365 1 -38.9717 16.0968 1 -38.3929 17.3424 1 
-37.9919 16.3521 1 -66.1789 10.0232 1 -67.2495 9.49936 1 
-66.1245 8.94764 1 -31.5069 -16.7535 1 -31.8689 -15.5519 1 
-30.7264 -15.9733 1 -41.1836 -20.5457 1 -40.2085 -19.6489 1 
-41.2367 -19.4031 1 -39.2155 -16.7082 1 -57.0823 17.7343 1 
-58.2951 18.1159 1 -56.8986 16.4128 1 -58.1115 16.7944 1 
-51.7521 -7.97772 1 -52.8394 -8.2469 1 -52.0756 -9.04208 1 
-32.0236 -26.7048 1 -32.9192 -27.9014 1 -33.6353 -25.7114 1 
-34.531 -26.908 1 -60.4282 -2.03572 1 -61.0264 -1.00707 1 
-26.7925 -15.2176 1 -25.6256 -15.5219 1 -26.1143 -14.3848 1 
-70.6254 -36.8288 1 -69.5465 -36.3292 1 -70.7053 -35.5588 1 
-28.6036 -7.57247 1 -70.5475 11.2809 1 -69.5629 10.7308 1 
-70.7995 9.99149 1 -26.0232 -36.923 1 -26.9856 -38.2222 1 
-25.7896 -38.2977 1 -32.8487 -39.4782 1 -32.1741 -40.9164 1 
-31.7166 -39.5148 1 -31.042 -40.9531 1 -64.6724 45.5469 1 
-65.8234 45.1913 1 -64.6136 44.4061 1 -37.7838 13.3286 1 
-37.5146 14.5385 1 -37.0259 12.6621 1 -36.7568 13.8721 1 
-30.4802 -42.2086 1 -29.0846 -42.2435 1 -29.6465 -40.988 1 
-11.8838 -5.16569 1 -11.9461 -6.2038 1 -12.9921 -5.81932 1 
-13.0543 -6.85742 1 -69.5632 -46.0963 1 -70.9715 -45.0504 1 
-70.9715 -46.4004 1 -69.5656 -37.4418 1 -17.2661 9.97457 1 
-17.3857 8.66708 1 -16.0622 10.7584 1 -16.1817 9.45087 1 
-57.6466 19.1904 1 -65.0945 46.8222 1 -63.9127 46.8623 1 
-64.3754 47.8717 1 -69.2793 49.8595 1 -70.3843 48.8595 1 
-59.0503 48.6717 1 -59.6426 47.6087 1 -60.1424 48.6861 1 
-66.2455 46.4666 1 -66.6749 47.5289 1 -65.8202 47.6858 1 
-66.2495 48.7481 1 -16.4537 -3.05987 1 -17.6452 -4.15519 1 
-16.2493 -4.65406 1 -34.2317 -39.5479 1 -33.5824 -40.9308 1 
-60.8006 47.6671 1 -61.2745 48.6757 1 -7.71252 2.33529 1 
-18.8255 -33.0926 1 -18.8897 -31.9044 1 -20.2036 -32.6138 1 
-19.952 42.7535 1 -21.0751 42.822 1 -27.3931 -5.02526 1 
-28.1415 -5.80585 1 -27.0673 -6.03125 1 -60.4063 -47.1792 1 
-61.5561 -47.2159 1 -17.3294 -33.7518 1 -17.3937 -32.5637 1 
-23.7159 -27.0728 1 -23.5179 -28.6791 1 -22.0876 -27.9927 1 
-13.5812 -29.1984 1 -13.6105 -30.3068 1 -15.9134 46.4256 1 
-16.3246 45.2726 1 -68.4206 -35.4926 1 -67.2104 -36.2348 1 
-68.4182 -34.4039 1 -18.1124 44.0546 1 -19.4518 44.022 1 
-18.8374 45.1988 1 -63.9448 4.0567 1 -64.9762 3.50751 1 
-63.8475 5.30578 1 -64.8789 4.75658 1 -70.7919 -11.5039 1 
-69.4378 -28.956 1 -69.4632 -30.0123 1 -68.356 -29.4846 1 
-64.7995 -34.0129 1 -65.9941 -33.2568 1 -64.67 -32.6485 1 
-68.3296 -28.3536 1 -67.1175 -30.1803 1 -68.3958 -30.834 1 
-49.6871 -17.7177 1 -49.2845 -16.4723 1 -48.8362 -18.4992 1 
-48.4337 -17.2538 1 -10.976 -7.02613 1 -12.0171 -7.60947 1 
-10.905 -5.62046 1 -66.2117 -10.1062 1 -64.9325 -10.7441 1 
-66.2597 -11.4199 1 -70.5917 -34.3833 1 -69.5129 -34.9337 1 
-69.5029 -31.3618 1 -65.8817 -29.594 1 -65.9054 -30.729 1 
-21.4495 -20.0747 1 -21.4154 -21.7498 1 -23.3402 -20.5655 1 
-23.3061 -22.2406 1 -9.76358 -6.35751 1 -8.80836 -5.72171 1 
-9.94973 -4.98466 1 -9.90044 25.907 1 -8.92248 25.4603 1 
-9.88491 24.8001 1 -30.38 -26.599 1 -32.3701 -24.8723 1 
-30.7266 -24.7665 1 -60.8914 -8.04973 1 -59.9612 -7.1011 1 
-63.5982 -7.65591 1 -64.82 -7.1559 1 -64.9151 -8.26385 1 
-66.1196 -4.11356 1 -67.1662 -4.63068 1 -66.1643 -5.47511 1 
-67.2109 -5.99223 1 -15.3957 -5.52173 1 -14.104 -6.28522 1 
-15.1752 -4.55324 1 -13.8836 -5.31673 1 -69.4709 -4.90633 1 
-68.4696 -5.4014 1 -69.4919 -5.99514 1 -55.9073 45.2108 1 
-56.4508 46.3443 1 -55.2623 46.3253 1 -62.2388 -46.1074 1 
-61.7323 -45.0947 1 -30.0457 -33.3729 1 -31.8235 -32.9868 1 
-30.8998 -34.9204 1 -10.1295 -46.371 1 -10.0061 -47.3604 1 
-9.16735 -46.7313 1 -21.7566 -32.0383 1 -21.8704 -30.7615 1 
-23.1548 -31.6636 1 -42.1284 45.0362 1 -43.5458 45.0152 1 
-42.8337 43.7922 1 -27.5598 -36.6516 1 -28.8186 -36.6204 1 
-28.11 -35.1293 1 -44.0864 46.2554 1 -42.6691 46.2763 1 
-44.7469 42.4995 1 -45.2558 43.8408 1 -45.8632 42.5894 1 
-8.90918 32.8984 1 -8.89144 33.9463 1 -7.94666 33.4558 1 
-40.8196 42.4713 1 -42.2321 42.4399 1 -41.4212 43.8236 1 
-17.0892 29.7006 1 -15.8701 30.2497 1 -15.8276 29.0526 1 
-67.1577 33.5841 1 -67.1268 32.4832 1 -68.4106 31.8687 1 
-16.6925 4.97379 1 -16.294 3.6523 1 -17.3661 3.8557 1 
-68.4332 18.5331 1 -67.1939 19.1663 1 -68.4241 19.6926 1 
-67.1848 20.3259 1 -44.6249 45.0571 1 -43.9128 43.8341 1 
-68.5306 41.3846 1 -68.5837 40.1262 1 -67.315 40.6936 1 
-67.2621 44.1832 1 -65.9369 43.9064 1 -67.1913 43.0609 1 
-17.1816 -43.6843 1 -15.9631 -43.6357 1 -16.6755 -44.7293 1 
-70.7714 -41.6956 1 -69.613 -42.4364 1 -69.6405 -41.0425 1 
-58.3179 47.5745 1 -18.3872 26.4663 1 -18.315 27.8668 1 
-19.6028 27.0074 1 -19.5305 28.4079 1 -41.6168 34.5282 1 
-40.1447 35.0718 1 -40.916 36.4528 1 -68.5296 12.6933 1 
-67.2508 11.9205 1 -68.5242 13.8109 1 -67.2455 13.0381 1 
-66.106 42.6068 1 -40.3188 43.8708 1 -58.1989 -41.2067 1 
-59.3719 -41.387 1 -58.4823 -42.4092 1 -46.995 -15.6554 1 
-46.1787 -16.4086 1 -45.9485 -15.2401 1 -39.1524 -20.1759 1 
-40.0969 -20.9015 1 -35.3662 44.07 1 -36.7755 44.0681 1 
-35.9277 42.9955 1 -37.337 42.9936 1 -42.9738 24.9795 1 
-43.2647 23.1545 1 -44.5039 23.9248 1 -17.2571 16.2943 1 
-18.6416 17.0228 1 -16.9349 17.3224 1 -18.3194 18.0509 1 
-36.4446 -33.7189 1 -37.7411 -33.7337 1 -37.0518 -35.2287 1 
-19.4053 36.2851 1 -18.7595 37.7273 1 -39.8095 -28.5689 1 
-39.7079 -29.9344 1 -41.1544 -29.6223 1 -61.9538 35.0399 1 
-63.4962 35.6311 1 -61.8694 33.848 1 -63.4118 34.4392 1 
-64.812 -4.64223 1 -64.7073 -5.68358 1 -41.5842 46.2897 1 
-7.7323 29.8529 1 -8.93364 30.5221 1 -8.92726 29.1296 1 
-60.1434 0.0166127 1 -59.6925 -1.04679 1 -16.2276 -48.2626 1 
-17.2706 14.8746 1 -17.4397 13.6851 1 -18.5836 15.5737 1 
-18.7527 14.3841 1 -16.0312 14.2964 1 -16.0178 15.7161 1 
-9.86408 9.22337 1 -8.84467 8.82357 1 -9.93081 7.95393 1 
-8.91139 7.55414 1 -29.7232 -10.1394 1 -28.99 -9.38501 1 
-12.0142 -11.2461 1 -12.0653 -12.5911 1 -10.9947 -11.6836 1 
-50.9349 26.0379 1 -49.6479 27.6479 1 -13.3426 -12.8752 1 
-12.1023 -13.658 1 -13.3897 -14.3047 1 -15.4754 -11.8194 1 
-16.8254 -12.3942 1 -14.3836 -12.4016 1 -15.7336 -12.9764 1 
-21.5596 8.92529 1 -20.3332 9.5256 1 -20.5598 8.15966 1 
-62.1704 -8.32298 1 -62.5102 -9.40522 1 -8.95286 -38.6882 1 
-8.94854 -40.0473 1 -9.90101 -38.303 1 -9.89669 -39.6621 1 
-18.8603 0.715069 1 -19.6438 -0.39018 1 -17.8576 0.206029 1 
-18.6411 -0.89922 1 -9.76565 39.467 1 -9.82799 40.8678 1 
-10.9597 40.1644 1 -12.2057 -38.7943 1 -11.1441 -38.0045 1 
-43.1829 21.6698 1 -44.4222 22.44 1 -70.7483 -1.85909 1 
-70.7597 -0.766751 1 -68.5147 11.2513 1 -68.5721 43.6303 1 
-68.4876 44.9394 1 -16.561 39.0289 1 -17.6915 38.8834 1 
-16.1475 40.4731 1 -17.278 40.3277 1 -7.70418 -19.6796 1 
-8.91297 -20.4023 1 -7.99295 -20.7811 1 -23.4596 -41.2148 1 
-23.9811 -39.8295 1 -22.7068 -40.0095 1 -36.4042 -32.0641 1 
-37.7007 -32.0789 1 -8.95567 -28.9013 1 -9.94489 -29.5757 1 
-9.96021 -28.504 1 -24.1315 -42.4381 1 -23.0399 -42.471 1 
-24.776 -43.6455 1 -23.6843 -43.6784 1 -18.6908 -48.253 1 
-18.0087 -47.059 1 -19.3983 -47.1377 1 -26.0642 3.10498 1 
-26.7874 3.93817 1 -24.8755 3.30957 1 -25.5987 4.14276 1 
-59.1441 2.91251 1 -60.5889 3.23024 1 -60.0321 1.94672 1 
-24.7832 -45.9174 1 -24.2506 -44.8153 1 -25.3419 -44.798 1 
-21.1433 -11.8488 1 -22.2385 -11.5914 1 -21.4096 -10.7284 1 
-22.5048 -10.4709 1 -63.4287 45.9321 1 -63.37 44.7912 1 
-56.2394 -6.1934 1 -57.5053 -6.53713 1 -56.7136 -7.30924 1 
-26.9473 -27.523 1 -28.9437 -28.4669 1 -27.4862 -26.1069 1 
-29.4826 -27.0507 1 -25.6312 -33.9756 1 -24.6147 -32.8119 1 
-24.0614 -34.3662 1 -23.045 -33.2025 1 -59.0027 -30.604 1 
-59.0864 -32.1889 1 -21.1066 3.71952 1 -21.8164 4.677 1 
-21.7274 2.65721 1 -22.4373 3.61469 1 -15.1784 4.27098 1 
-54.4992 -44.6719 1 -53.8428 -45.8099 1 -53.3624 -44.6715 1 
-17.2593 -5.59073 1 -48.6798 -39.4541 1 -47.3246 -39.4947 1 
-48.1693 -38.1254 1 -46.8141 -38.166 1 -53.5063 -42.0978 1 
-54.2849 -40.8989 1 -53.0667 -40.8352 1 -46.0421 -44.7045 1 
-45.5329 -43.5526 1 -46.6389 -43.5137 1 -16.851 2.48948 1 
-17.8423 1.43795 1 -17.9231 2.69289 1 -44.8754 -42.2529 1 
-18.9411 1.97001 1 -42.1155 20.9848 1 -42.2193 19.3908 1 
-41.0373 20.1257 1 -67.1808 14.4477 1 -21.9159 -5.40745 1 
-22.7842 -6.19931 1 -23.1918 -5.05049 1 -61.8269 -27.932 1 
-63.2309 -28.47 1 -61.8047 -29.0539 1 -63.2088 -29.5919 1 
-23.977 -5.85537 1 -46.5584 41.317 1 -47.5346 41.5618 1 
-46.8393 42.8341 1 -22.0832 -0.315828 1 -21.3157 -1.33151 1 
-22.6142 -1.20675 1 -53.0785 4.69887 1 -61.2901 8.03605 1 
-60.5417 6.79063 1 -60.0161 8.6686 1 -59.2677 7.42319 1 
-43.6361 -17.3759 1 -43.7861 -18.5637 1 -42.8255 -18.094 1 
-57.6969 11.5761 1 -46.749 -18.8041 1 -47.6411 -18.0245 1 
-46.5047 -17.5607 1 -38.3579 -35.2464 1 -44.8481 -19.033 1 
-44.5502 -17.8725 1 -14.5227 -40.8083 1 -15.1213 -42.1541 1 
-13.7228 -41.9871 1 -39.3491 -18.9823 1 -39.0627 -17.8634 1 
-38.2225 -18.4523 1 -41.7979 -17.7173 1 -42.1435 -18.7803 1 
-40.8911 -18.3401 1 -58.5471 10.7885 1 -57.9696 12.1512 1 
-13.4541 46.6271 1 -12.1276 46.7084 1 -12.8847 47.7886 1 
-20.8901 1.6282 1 -20.5057 2.65336 1 -22.1119 1.63206 1 
-14.101 4.27597 1 -14.3744 5.23922 1 -18.0171 5.079 1 
-18.6908 3.96091 1 -19.3684 4.70119 1 -56.8198 0.680385 1 
-57.6085 -0.108428 1 -58.0613 0.811617 1 -15.7919 -9.12646 1 
-14.2914 -8.73793 1 -15.277 -7.89806 1 -55.3091 2.20325 1 
-55.8047 3.24758 1 -56.5288 2.47143 1 -70.7672 -4.31242 1 
-56.0002 1.51202 1 -67.3419 -10.9341 1 -67.294 -9.62037 1 
-13.5219 -34.265 1 -13.5819 -32.8814 1 -21.0708 -7.74429 1 
-19.7437 -8.25675 1 -22.0578 -8.47645 1 -20.7307 -8.98891 1 
-21.092 -4.53194 1 -20.6722 -5.75249 1 -37.4323 24.3484 1 
-36.1237 23.1773 1 -35.9322 25.1105 1 -31.5429 -13.5486 1 
-30.4195 -13.9483 1 -52.8772 -43.4739 1 -54.079 -43.4644 1 
-58.8303 26.4898 1 -58.8134 25.0721 1 -57.4238 25.845 1 
-57.4069 24.4273 1 -70.5431 24.5111 1 -69.5065 25.1038 1 
-70.7476 25.7843 1 -33.0173 -15.1324 1 -32.2642 -14.3515 1 
-21.5405 -6.54435 1 -20.1945 -6.93951 1 -16.1811 -30.5378 1 
-17.4994 -31.1389 1 -16.1697 -31.6748 1 -53.9405 43.962 1 
-53.1623 45.1942 1 -54.4992 45.0948 1 -53.721 46.327 1 
-47.0902 49.7626 1 -46.4079 48.5986 1 -45.8818 49.5775 1 
-32.964 16.6268 1 -31.803 17.0528 1 -32.053 15.7655 1 
-34.2009 16.1123 1 -35.1166 16.9118 1 -33.8447 17.3159 1 
-34.7603 18.1154 1 -59.5241 -16.4349 1 -60.7559 -17.1401 1 
-59.2983 -17.7897 1 -22.1233 -2.23786 1 -20.7846 -2.42063 1 
-21.5923 -3.32698 1 -19.0457 -29.3215 1 -20.4395 -29.9255 1 
-20.5334 -28.6185 1 -16.9704 44.0647 1 -17.4726 42.8349 1 
-58.7273 32.7669 1 -57.1527 32.3498 1 -58.6829 31.615 1 
-58.7251 -25.3337 1 -57.279 -24.782 1 -58.9599 -26.8628 1 
-57.5138 -26.3111 1 -8.97482 -24.0015 1 -9.95242 -23.5825 1 
-8.96344 -22.8722 1 -18.6127 42.786 1 -43.3405 -16.2673 1 
-42.5298 -16.9855 1 -50.865 47.5238 1 -50.1253 46.3352 1 
-49.3972 47.5418 1 -60.3319 28.4401 1 -60.2927 29.529 1 
-58.734 29.0788 1 -58.6948 30.1676 1 -54.5163 49.585 1 
-55.0656 48.6182 1 -53.9174 48.5879 1 -66.1701 11.3736 1 
-66.1165 12.4365 1 -64.8861 10.6644 1 -64.8326 11.7272 1 
-28.2899 5.58125 1 -53.2453 49.7444 1 -32.3839 -48.2465 1 
-55.4048 30.4163 1 -55.3764 28.8619 1 -57.1245 29.7144 1 
-12.9821 41.2286 1 -11.9171 40.6561 1 -63.6638 12.4743 1 
-63.7203 11.0794 1 -64.776 13.1222 1 -42.0891 -21.133 1 
-43.075 -20.4869 1 -42.1422 -19.9904 1 -35.0113 45.147 1 
-33.5978 45.1839 1 -35.5509 46.2997 1 -34.1373 46.3366 1 
-66.2426 37.8675 1 -67.0151 -48.3144 1 -68.1312 -48.3686 1 
-59.1426 -47.1374 1 -59.7499 -48.2647 1 -18.6114 19.0237 1 
-19.8043 18.0157 1 -65.7654 -48.0522 1 -65.3478 -47.1005 1 
-64.7041 -48.3068 1 -66.4238 -47.1082 1 -68.4165 -0.631774 1 
-67.1812 -0.164311 1 -67.1237 -1.26704 1 -65.6589 -43.9652 1 
-66.5115 -44.7772 1 -66.5315 -43.0025 1 -67.3841 -43.8145 1 
-61.0254 37.2655 1 -59.6097 38.1538 1 -61.3299 38.782 1 
-12.7949 45.7013 1 -64.6695 -20.5062 1 -64.7362 -19.065 1 
-58.1304 -18.5464 1 -57.207 -17.6951 1 -56.5826 -18.6668 1 
-13.9807 -3.95404 1 -13.0893 -4.45663 1 -16.9932 18.6625 1 
-17.2852 19.6353 1 -69.5946 38.2686 1 -69.6071 37.1755 1 
-35.2919 -39.5211 1 -34.6425 -40.904 1 -68.4335 -17.3222 1 
-68.4635 -15.9981 1 -69.5508 -16.5903 1 -67.2275 -16.6891 1 
-69.6238 39.5196 1 -68.5707 39.05 1 -69.5875 7.22136 1 
-69.5939 5.91829 1 -68.4999 7.79248 1 -68.5063 6.48941 1 
-28.015 3.65716 1 -27.2912 2.93347 1 -15.9014 1.57606 1 
-14.5617 1.79636 1 -14.748 0.697511 1 -13.2559 -47.0937 1 
-14.5081 -47.0675 1 -13.9344 -48.2596 1 -12.254 28.2509 1 
-12.2316 29.6183 1 -31.5156 -10.5486 1 -32.2256 -11.2907 1 
-62.1106 3.34341 1 -61.2171 4.34045 1 -35.3562 21.9215 1 
-35.1647 23.8546 1 -8.88041 -11.7591 1 -17.519 -27.4335 1 
-19.0549 -26.6885 1 -18.9787 -28.1515 1 -35.9637 -15.0657 1 
-53.2488 -9.33806 1 -54.4377 -9.68757 1 -53.6593 -10.4393 1 
-49.3115 -38.0768 1 -50.1057 -36.4606 1 -48.6095 -36.5155 1 
-68.3664 30.5795 1 -67.1052 31.1834 1 -68.5083 36.6657 1 
-67.2102 36.0128 1 -68.4731 35.409 1 -11.9378 -41.2261 1 
-12.031 -39.7882 1 -11.0604 -41.6737 1 -11.1536 -40.2358 1 
-20.8085 -17.0917 1 -20.6708 -15.6196 1 -19.6575 -16.2225 1 
-19.5199 -14.7505 1 -47.4673 -36.5641 1 -17.9441 -12.9849 1 
-16.8442 -13.4875 1 -37.7411 -15.3721 1 -54.4136 -32.1617 1 
-54.2926 -30.7553 1 -52.6234 -32.2252 1 -52.5023 -30.8188 1 
-27.6899 -20.4846 1 -26.2224 -20.7815 1 -26.8336 -19.5579 1 
-17.0528 27.1216 1 -7.65816 43.1301 1 -8.79989 43.8162 1 
-31.3002 8.62817 1 -41.4972 -8.54723 0.503982 -16.1637 -22.888 1 
-14.708 -23.6491 1 -16.1344 -24.3461 1 -51.1236 -31.7091 1 
-7.73514 16.3165 1 -8.89087 17.0845 1 -8.9064 15.7401 1 
-48.4263 17.3004 1 -49.3728 16.4894 1 -48.1088 16.0641 1 
-11.1432 26.6343 1 -12.2075 25.9734 1 -12.2172 27.0691 1 
-68.474 4.12029 1 -69.6102 3.46261 1 -67.3679 3.60116 1 
-68.5042 2.94347 1 -11.0641 21.7844 1 -11.085 22.8645 1 
-9.88608 22.4086 1 -9.90693 23.4888 1 -12.1648 18.6603 1 
-11.0963 18.2284 1 -11.0788 19.2966 1 -12.1552 19.7051 1 
-10.5237 48.0433 1 -11.8169 47.9555 1 -40.4988 -8.5955 0.503982 
-64.7032 16.5671 1 -64.7367 15.5334 1 -65.9962 15.9677 1 
-66.0296 14.934 1 -8.02892 -23.2405 1 -8.95219 -41.1305 1 
-7.99734 -40.4093 1 -54.6352 3.09836 1 -28.5397 -13.5528 1 
-27.3222 -13.9635 1 -23.376 -11.1602 1 -23.7626 -9.9724 1 
-24.5436 -10.7722 1 -11.0609 5.0841 1 -9.84561 4.44659 1 
-11.1087 3.68836 1 -13.2689 3.75685 1 -12.0764 3.06403 1 
-13.4348 2.22475 1 -43.4335 -26.0864 1 -44.8395 -26.921 1 
-52.829 -36.4595 1 -53.7428 -35.2724 1 -52.3959 -35.012 1 
-21.142 25.4047 1 -19.7308 24.623 1 -19.5629 25.9051 1 
-13.5217 9.71337 1 -24.4576 -21.2865 1 -25.5092 -19.8801 1 
-12.0987 0.724908 1 -11.048 1.28836 1 -11.0686 0.257842 1 
-58.2685 -2.86625 1 -59.4325 4.065 1 -60.0607 5.17521 1 
-58.6772 4.94723 1 -26.1203 -18.6564 1 -23.8699 -16.273 1 
-23.8716 -17.7245 1 -22.3555 -16.2301 1 -22.3572 -17.6816 1 
-37.3545 49.5599 1 -63.6351 -0.212066 1 -8.95615 -30.0064 1 
-37.0997 -48.1065 1 -9.88373 6.89865 1 -11.08 7.53854 1 
-24.6166 -18.6243 1 -24.0054 -19.848 1 -39.7057 33.2236 1 
-39.3304 31.0684 1 -41.2415 32.3731 1 -69.5269 32.4065 1 
-69.4978 31.3342 1 -7.73005 -24.6694 1 -26.7939 41.4616 1 
-27.2997 40.1865 1 -27.9184 41.4187 1 -8.83795 38.9937 1 
-9.80967 38.3254 1 -36.0487 -26.1617 1 -37.3729 -26.8955 1 
-35.8552 -27.6417 1 -34.549 -28.5838 1 -14.6158 -43.6102 1 
-14.1415 -44.6705 1 -15.4887 -44.696 1 -38.0258 -19.646 1 
-12.2238 -47.1399 1 -12.5006 -46.044 1 -13.002 -44.7197 1 
-14.8922 -45.9686 1 -13.7527 -46.0178 1 -35.9015 -48.2368 1 
-35.2111 -47.0817 1 -36.5445 -47.0849 1 -46.8391 -31.0136 1 
-46.5654 -29.0219 1 -45.3518 -30.398 1 -45.078 -28.4063 1 
-53.0165 -17.6807 1 -52.246 -18.575 1 -53.5515 -18.9185 1 
-52.781 -19.8128 1 -42.9441 -45.9369 1 -41.8804 -45.9598 1 
-43.5964 -44.7232 1 -42.5327 -44.7461 1 -41.8052 -43.5919 1 
-40.6946 -43.5614 1 -41.237 -44.7624 1 -64.8199 -37.7506 1 
-64.8495 -38.901 1 -52.9769 -29.0015 1 -43.2165 -21.7861 1 
-40.6315 -45.8748 1 -67.1004 -31.2836 1 -65.9161 -31.8723 1 
-67.1785 -32.668 1 -37.0051 -30.3455 1 -41.3689 -42.2587 1 
-39.9669 -42.274 1 -55.492 -7.00405 1 -63.5873 -46.1668 1 
-64.1149 -45.059 1 -64.0246 -47.1874 1 -64.5522 -46.0797 1 
-38.4367 -30.7825 1 -34.9405 42.6742 1 -34.2052 41.3892 1 
-35.6253 41.3737 1 -49.0416 46.3414 1 -49.5703 45.2221 1 
-39.6955 -26.9432 1 -40.9603 -27.7151 1 -42.3604 -26.9648 1 
-42.3052 -28.7686 1 -43.672 -27.5716 1 -43.6169 -29.3754 1 
-10.9919 38.8333 1 -11.0359 37.6918 1 -38.3021 27.5303 1 
-39.0397 25.6345 1 -37.3834 26.163 1 -66.033 -46.0257 1 
-65.2374 -45.0049 1 -36.1361 38.2242 1 -35.4052 39.6811 1 
-34.6869 38.2793 1 -67.3498 39.4423 1 -8.84248 37.6529 1 
-9.81419 36.9845 1 -8.85419 36.5158 1 -59.4867 49.7951 1 
-31.6626 35.4931 1 -32.5291 36.8531 1 -30.9226 36.8891 1 
-31.7892 38.2491 1 -67.155 25.2207 1 -66.0245 24.7408 1 
-66.0181 23.3854 1 -34.9206 -14.8145 1.48857 -34.5875 -15.9284 0.48857 
-35.2106 -14.3367 1 -34.1028 -14.7359 1 -9.82351 -8.89742 1 
-9.82272 -10.0069 1 -67.1517 17.8586 1 -68.4731 17.2394 1 
-67.1569 16.7872 1 -68.4783 16.168 1 -64.0499 0.731687 1 
-16.0641 -33.0996 1 -8.9445 24.1491 1 -38.2098 35.3276 1 
-37.5239 36.7969 1 -36.7686 35.104 1 -57.7602 -1.94444 1 
-34.6133 -15.958 1.48857 -33.7955 -15.8794 1 -11.0265 36.3243 1 
-34.1943 25.1306 1 -55.8562 47.4156 1 -54.4717 47.5279 1 
-9.77745 -7.4521 1 -8.80179 -6.78251 1 -8.84785 -8.22784 1 
-21.7073 -9.62818 1 -53.3528 40.1741 1 -53.8861 41.4232 1 
-52.6572 41.3835 1 -37.6076 20.1696 1 -36.914 19.1289 1 
-35.9675 20.5423 1 -7.94189 11.8523 1 -8.89137 12.257 1 
-7.73363 12.8462 1 -27.3829 13.3203 1 -26.8429 14.6196 1 
-28.1942 14.0949 1 -29.6501 -38.103 1 -30.3029 -36.4055 1 
-33.3924 15.3732 1 -34.4275 14.7992 1 -33.619 14.06 1 
-7.71918 -2.56948 1 -8.81266 -3.3225 1 -8.86945 -1.8945 1 
-32.0347 21.2804 1 -44.6099 2.34205 1 -21.1978 -48.258 1 
-32.4814 14.5119 1 -32.8049 13.3101 1 -33.2414 12.0598 1 
-34.0555 12.8097 1 -50.727 -26.0817 1 -49.4286 -25.8173 1 
-50.1375 -27.3157 1 -8.80675 -4.36992 1 -7.87763 -3.76146 1 
-35.6515 14.2801 1 -35.9457 13.1595 1 -34.8547 13.5694 1 
-46.3938 -48.2323 1 -30.789 13.0232 1 -32.0018 12.5404 1 
-31.6783 13.7421 1 -51.0942 8.12874 1 -50.265 8.98499 1 
-49.8972 7.83957 1 -61.2649 2.29358 1 -35.7957 -20.7603 1 
-34.5888 -21.2159 1 -49.7502 38.5311 1 -48.2813 38.4161 1 
-49.5821 36.7531 1 -44.0924 41.1738 1 -45.2087 41.2636 1 
-30.443 -10.8783 1 -41.432 16.2585 1 -42.3485 16.8071 1 
-42.0859 15.5485 1 -43.0023 16.0972 1 -48.256 42.8584 1 
-69.4074 -26.4794 1 -68.3383 -25.9372 1 -69.4542 -25.4301 1 
-7.74112 -33.2384 1 -30.2659 -39.4953 1 -15.886 48.691 1 
-14.8185 48.7249 1 -15.4002 49.6187 1 -49.2412 42.6415 1 
-48.5198 41.3448 1 -49.9332 41.4129 1 -12.0461 -10.1355 1 
-13.3376 -10.6977 1 -13.3056 -11.8083 1 -35.2243 15.5099 1 
-47.6893 36.8583 1 -48.9901 35.1953 1 -25.9316 40.2653 1 
-24.8417 40.0536 1 -25.4258 41.5404 1 -34.2723 43.9815 1 
-36.1053 45.2354 1 -19.9574 -1.40508 1 -18.7378 -1.91692 1 
-35.9606 17.6982 1 -14.6347 20.922 1 -16.0061 20.2976 1 
-16.0015 21.6791 1 -13.3445 33.866 1 -14.4291 34.5296 1 
-13.2571 35.0035 1 -56.1293 18.5899 1 -56.3885 19.7701 1 
-54.7302 17.9002 1 -54.9894 19.0804 1 -35.0897 -25.2507 1 
-36.406 -24.4238 1 -38.2764 -29.4974 1 -36.9586 -28.6536 1 
-55.565 17.1338 1 -58.8307 23.8804 1 -7.95181 -12.1372 1 
-25.4117 15.2069 1 -25.8266 13.7332 1 -63.976 -10.1311 1 
-63.6227 -11.0845 1 -58.2149 -15.973 1 -57.9891 -17.3279 1 
-29.2175 -19.8672 1 -30.6191 -19.3676 1 -29.786 -18.4751 1 
-14.7429 -26.1326 1 -16.1717 -25.4305 1 -16.1543 -26.9136 1 
-69.5438 16.71 1 -63.2115 -27.1523 1 -64.557 -26.6059 1 
-63.2524 -26.1064 1 -29.576 -23.7615 1 -28.1053 -22.8972 1 
-57.1105 45.2543 1 -49.6668 -30.2757 1 -49.6793 -32.0599 1 
-48.2219 -29.6949 1 -48.2345 -31.4791 1 -24.7538 -41.1289 1 
-56.2333 40.2052 1 -57.5206 40.3383 1 -52.2191 5.37591 1 
-70.607 0.475555 1 -49.4654 -34.7486 1 -48.636 -33.3395 1 
-50.9234 -35.0857 1 -50.094 -33.6766 1 -63.5768 13.5671 1 
-62.1363 12.7959 1 -38.4917 -27.7251 1 -47.9692 -34.8034 1 
-62.4802 4.42894 1 -66.1976 4.1817 1 -67.3361 4.70621 1 
-66.2472 0.594523 1 -67.3604 1.14764 1 -43.2261 17.3033 1 
-44.033 16.7305 1 -44.2568 17.9366 1 -27.231 -21.9455 1 
-26.395 -23.3658 1 -25.7635 -22.2423 1 -21.4424 -34.8871 1 
-21.6467 -33.5773 1 -19.8542 -35.3775 1 -20.0585 -34.0677 1 
-7.71276 -11.0803 1 -15.1374 45.2965 1 -14.514 46.4367 1 
-63.4215 -6.38244 1 -62.3084 -6.8715 1 -62.1316 -5.59803 1 
-50.4722 20.4668 1 -49.4488 21.4881 1 -50.8442 21.9556 1 
-49.8208 22.9769 1 -63.2329 28.2564 1 -63.2136 27.1676 1 
-61.7126 28.9151 1 -61.6934 27.8263 1 -60.4913 23.2631 1 
-60.4476 24.7199 1 -39.8804 28.6647 1 -41.7903 27.8176 1 
-40.2121 26.6832 1 -7.70715 -36.8301 1 -18.7599 22.8598 1 
-17.3069 23.4362 1 -18.6417 23.9921 1 -17.1887 24.5685 1 
-11.1271 8.59383 1 -11.1396 9.89527 1 -44.1296 -21.0374 1 
-45.1856 -21.554 1 -12.1535 7.94889 1 -22.674 28.6834 1 
-24.2601 27.468 1 -22.5166 27.2761 1 -36.0684 16.2963 1 
-36.818 16.8766 1 -62.0039 17.7089 1 -62.0122 16.6 1 
-63.4887 17.079 1 -63.497 15.9701 1 -12.1499 -15.09 1 
-11.094 -15.5767 1 -14.2357 38.4861 1 -13.9977 39.5359 1 
-56.1319 4.2401 1 -57.4438 4.57008 1 -56.6789 5.40229 1 
-7.71252 0.835286 1 -11.1852 -35.3986 1 -9.9207 -34.6416 1 
-70.97 46.818 1 -69.4747 47.7216 1 -70.97 48.018 1 
-55.8841 -5.16832 1 -12.3086 -32.4253 1 -61.9838 49.7848 1 
-62.3067 -11.7986 1 -60.8065 -11.7974 1 -62.1076 -12.8747 1 
-20.2597 20.7507 1 -21.8349 19.9213 1 -19.9632 19.3157 1 
-21.5383 18.4862 1 -21.9411 -47.1477 1 -20.5403 -47.1427 1 
-11.1352 -39.1239 1 -14.1589 41.8747 1 -27.9027 19.3263 1 
-26.3694 20.1283 1 -28.8524 20.3853 1 -26.7987 -17.3394 1 
-26.3324 -16.3665 1 -25.3753 -17.7566 1 -24.909 -16.7837 1 
-8.87193 5.16152 1 -33.2488 38.2736 1 -32.547 39.6909 1 
-11.943 -4.09498 1 -13.1484 -3.38592 1 -11.996 -2.76541 1 
-22.888 -19.127 1 -51.5102 -43.499 1 -51.9955 -44.6966 1 
-50.9048 -44.6897 1 -40.901 47.4941 1 -44.4199 20.8063 1 
-44.3415 19.4846 1 -45.4179 20.0115 1 -29.0686 6.33351 1 
-30.3226 6.03083 1 -29.8233 7.10958 1 -55.7336 -16.1838 1 
-56.1332 -17.214 1 -54.5295 -15.9161 1 -54.9291 -16.9464 1 
-21.6436 -42.5621 1 -22.3516 -43.7132 1 -21.5266 14.3796 1 
-21.2573 15.7115 1 -22.7266 15.0517 1 -22.4572 16.3835 1 
-42.2956 36.4557 1 -42.8955 38.2356 1 -44.0933 36.9511 1 
-15.5987 -47.0706 1 -16.9105 -47.0686 1 -69.64 40.566 1 
-50.7871 -38.0157 1 -49.7921 -39.4646 1 -35.9757 -40.9273 1 
-36.3947 -39.5081 1 -37.0786 -40.9142 1 -7.82415 -48.0584 1 
-8.70945 -47.7935 1 -50.8773 -42.1465 1 -50.4392 -40.8776 1 
-43.7751 -42.2715 1 -22.2717 -48.2334 1 -23.015 -47.123 1 
-11.2016 -29.2034 1 -11.2183 -27.8521 1 -12.2701 -28.4796 1 
-44.2013 -43.5569 1 -43.1009 -43.5755 1 -47.3945 13.5131 1 
-48.6165 13.8859 1 -47.7325 14.7067 1 -70.5623 13.7729 1 
-69.5589 14.3408 1 -69.5649 13.2593 1 -49.3269 -40.8671 1 
-51.8665 -40.8383 1 -33.4345 -17.0572 1 -32.2943 -17.5118 1 
-31.0317 -17.9819 1 -26.0482 10.3151 1 -26.7393 8.99117 1 
-27.5309 9.817 1 -43.2867 20.0757 1 -43.2083 18.7541 1 
-8.95899 -33.9734 1 -8.98275 -32.5395 1 -24.2017 -22.9524 1 
-38.4079 21.178 1 -36.7678 21.5507 1 -24.8332 -24.0759 1 
-42.3307 18.2579 1 -36.4659 -36.5865 1 -35.8841 -34.8507 1 
-54.4606 -47.0551 1 -53.093 -47.0847 1 -26.3787 -24.9886 1 
-25.3798 -26.3314 1 -23.8344 -25.4186 1 -44.109 38.5703 1 
-14.519 18.4914 1 -14.5717 19.8337 1 -15.9431 19.2093 1 
-70.7757 18.4556 1 -70.7731 17.3894 1 -69.5066 19.07 1 
-69.504 18.0037 1 -48.892 32.8902 1 -66.0518 13.846 1 
-45.3175 -45.907 1 -45.8225 -47.0391 1 -44.7179 -47.0311 1 
-41.9816 22.3996 1 -40.9034 21.5405 1 -53.1147 7.61199 1 
-44.5562 29.637 1 -46.2297 30.2148 1 -45.0358 31.7758 1 
-22.329 36.3495 1 -23.6386 35.8307 1 -23.088 37.4422 1 
-44.2035 -45.9215 1 -43.2433 32.948 1 -43.144 30.688 1 
-53.1244 -27.7504 1 -54.4074 -26.4456 1 -54.7422 -27.8814 1 
-27.281 7.81065 1 -28.0725 8.63648 1 -37.3088 47.4943 1 
-37.8868 48.563 1 -36.7999 48.5734 1 -11.0885 -42.7292 1 
-9.8373 -43.1333 1 -43.6345 -33.8229 1 -44.4248 -32.6159 1 
-42.8733 -32.2268 1 -28.4077 10.6606 1 -12.2232 30.7973 1 
-13.3916 31.4765 1 -18.0158 41.5569 1 -16.6739 41.6135 1 
-9.8745 35.8558 1 -68.998 -46.9145 1 -70.4062 -47.2186 1 
-18.395 35.3135 1 -17.043 34.9062 1 -18.0922 34.0625 1 
-39.3445 39.7077 1 -40.7691 39.6702 1 -40.1156 41.1478 1 
-41.5402 41.1103 1 -30.3209 14.3398 1 -29.9591 15.6647 1 
-29.122 14.8749 1 -58.3888 3.79474 1 -33.4995 -48.236 1 
-31.1407 -14.7513 1 -15.8884 5.94204 1 -58.5139 1.86042 1 
-59.4018 0.894639 1 -34.9251 -19.9392 1 -28.2001 -16.8943 1 
-29.4117 -16.4725 1 -28.9465 -17.746 1 -11.4306 -46.2675 1 
-36.0585 -19.5258 1 -36.2525 -18.1905 1 -35.1191 -18.6039 1 
-61.8236 -4.27625 1 -49.4695 -13.2479 1 -49.7735 -14.3951 1 
-48.3262 -12.8604 1 -48.6302 -14.0076 1 -51.9556 -27.1151 1 
-51.3661 -28.3492 1 -70.7493 -14.7689 1 -70.7786 -13.7312 1 
-65.9441 -23.4009 1 -67.1254 -22.8592 1 -65.9827 -22.3056 1 
-34.4736 -34.6537 1 -33.9595 -32.605 1 -35.2769 -33.3409 1 
-13.2172 -43.4431 1 -69.5558 -20.3956 1 -68.4481 -20.9414 1 
-68.4413 -19.8185 1 -12.2753 -42.3339 1 -26.7244 44.0452 1 
-27.275 42.7718 1 -44.3752 13.3008 1 -63.3902 -19.8782 1 
-63.4569 -18.437 1 -21.8392 48.6381 1 -23.2735 48.6227 1 
-21.2698 47.5804 1 -22.7041 47.565 1 -60.6423 49.6325 1 
-31.7004 46.322 1 -32.4989 45.1535 1 -33.0759 46.3177 1 
-48.3134 47.548 1 -48.8599 48.6069 1 -70.7409 -24.8153 1 
-69.3662 -48.3686 1 -10.923 41.2088 1 -70.7807 15.0594 1 
-57.3668 39.0205 1 -58.654 39.1535 1 -61.6384 39.9697 1 
-63.3824 23.4753 1 -63.332 24.6225 1 -61.8653 22.7097 1 
-61.8148 23.857 1 -7.70671 -7.52771 1 -13.8572 45.4406 1 
-20.0494 -11.478 1 -14.3957 3.32846 1 -66.0951 35.5113 1 
-66.1492 36.6474 1 -25.0404 47.4665 1 -25.5609 46.4003 1 
-10.9255 44.7601 1 -11.854 44.4543 1 -54.3634 -20.224 1 
-56.1506 -20.5694 1 -54.8215 -21.5802 1 -15.7585 38.0081 1 
-17.0124 37.7183 1 -24.051 38.8091 1 -15.4745 36.4447 1 
-15.702 35.294 1 -14.264 37.1469 1 -14.4914 35.9962 1 
-16.0727 13.16 1 -14.7055 13.8152 1 -14.664 14.9516 1 
-59.6256 -42.7727 1 -58.944 -43.8094 1 -52.5412 39.004 1 
-54.127 38.5145 1 -7.96658 20.2376 1 -25.1817 -27.9378 1 
-43.6434 14.0327 1 -42.8665 14.7678 1 -44.629 14.596 1 
-43.8521 15.3311 1 -16.9098 -9.59614 1 -16.3949 -8.36774 1 
-9.9518 -33.5658 1 -9.97555 -32.1319 1 -45.7616 -31.947 1 
-19.0907 -12.0844 1 -17.972 -11.4937 1 -39.9221 -18.5301 1 
-40.0043 -17.497 1 -9.93607 -22.4641 1 -69.5495 -15.5141 1 
-60.22 40.7108 1 -61.1874 41.7982 1 -16.809 -10.864 1 
-40.5159 -40.9987 1 -40.5544 -35.3075 1 -14.5774 -20.1204 1 
-15.9969 -19.3493 1 -14.545 -18.6324 1 -15.7324 -41.2668 1 
-17.2708 -41.6542 1 -16.8834 -40.2046 1 -57.8931 -4.66378 1 
-58.4021 -5.76708 1 -59.2438 -4.89032 1 -27.5216 -18.2113 1 
-18.1628 -39.6325 1 -18.2716 -38.3862 1 -16.9723 -39.1101 1 
-27.6944 -39.5822 1 -26.5443 -39.5869 1 -57.5564 -19.8954 1 
-60.0646 -3.93327 1 -59.6759 -2.91302 1 -61.0484 -3.16628 1 
-39.9439 -47.0938 1 -39.4275 -46.0065 1 -40.1151 -44.7875 1 
-31.6171 -42.2219 1 -38.8928 -33.219 1 -32.9429 -33.1957 1 
-32.0192 -35.1293 1 -24.3884 -38.4985 1 -23.2299 -38.6439 1 
-11.0726 42.75 1 -60.7916 -40.2329 1 -59.0367 -39.9652 1 
-60.6343 -39.0763 1 -58.8794 -38.8087 1 -54.9892 4.0688 1 
-68.5307 -11.3846 1 -67.3153 -12.0106 1 -68.5382 -12.6376 1 
-58.8028 -0.0664097 1 -56.1169 -42.1698 1 -54.9334 -42.1179 1 
-55.712 -40.919 1 -52.3045 -42.1073 1 -69.6085 42.9292 1 
-70.5927 42.322 1 -69.5869 41.8244 1 -63.3629 43.5661 1 
-69.5913 45.2656 1 -68.722 46.0927 1 -57.3466 27.1374 1 
-55.1369 -39.502 1 -70.7999 43.5988 1 -13.4216 -16.887 1 
-13.436 -18.0239 1 -18.5692 -5.40644 1 -23.1307 4.55829 1 
-22.4222 5.70378 1 -23.7861 5.44308 1 -23.0776 6.58857 1 
-35.9517 26.8677 1 -34.6234 28.5405 1 -34.604 26.7833 1 
-61.3564 -4.48806 1 -8.88724 6.48501 1 -7.67219 5.84887 1 
-53.2887 -12.3687 1 -52.8767 -11.214 1 -52.5733 -13.142 1 
-52.1613 -11.9873 1 -67.5243 -42.4105 1 -65.249 -42.7355 1 
-66.2418 -42.1435 1 -58.6571 -3.88649 1 -23.6039 -13.0906 1 
-24.768 -12.7718 1 -23.1541 -14.1908 1 -24.3183 -13.8721 1 
-18.62 40.2711 1 -22.1859 -13.6205 1 -68.242 25.7399 1 
-69.4789 26.4407 1 -24.8581 -9.66536 1 -24.0772 -8.86558 1 
-58.9941 -29.4259 1 -60.4548 -29.9488 1 -60.3922 -28.5729 1 
-59.0706 46.3493 1 -60.2286 46.4077 1 -7.73097 -35.7135 1 
-12.1816 2.03633 1 -13.5401 1.19705 1 -18.4738 25.2741 1 
-22.9917 20.6804 1 -21.7075 21.5093 1 -23.6136 22.4285 1 
-63.4589 -15.9465 1 -64.7435 -15.5207 1 -63.4329 -14.8276 1 
-55.3479 -11.9633 1 -56.5042 -12.3016 1 -56.0649 -11.1872 1 
-15.4309 41.6499 1 -64.6591 17.8889 1 -63.4446 18.4008 1 
-60.607 -14.5367 1 -60.7977 -13.0796 1 -62.0987 -14.1569 1 
-61.8673 -30.4298 1 -29.4155 -35.1353 1 -26.3665 12.4339 1 
-24.7315 13.0229 1 -66.9939 -2.53897 1 -65.7284 -1.83021 1 
-65.5987 -3.10214 1 -38.8529 -23.0782 1 -37.6853 -23.825 1 
-39.849 -23.8426 1 -38.6814 -24.5893 1 -38.6277 38.3149 1 
-39.3136 36.8456 1 -40.0848 38.2265 1 -43.5805 39.6871 1 
-42.2002 39.6764 1 -19.1559 41.508 1 -19.8022 40.2141 1 
-65.837 -27.217 1 -65.8687 -25.8469 1 -67.0226 -27.7325 1 
-67.0543 -26.3624 1 -13.8318 43.2249 1 -12.9163 44.1936 1 
-14.4807 44.3004 1 -46.841 4.76759 1 -38.2815 -17.1025 1 
-38.4567 -16.0878 1 -15.8035 -1.93151 1 -16.9362 -1.08471 1 
-15.7675 -0.731337 1 -12.1657 22.2288 1 -13.5697 -26.6483 1 
-13.5651 -25.5907 1 -10.9899 -8.12072 1 -12.023 -8.72492 1 
-69.5899 -9.78615 1 -70.804 -9.21926 1 -47.2582 -12.521 1 
-48.0102 -11.678 1 -65.8131 -28.2772 1 -67.049 -28.8635 1 
-39.8932 -25.3681 1 -24.7992 -6.6522 1 -25.1552 -5.56866 1 
-25.9365 -6.33661 1 -26.2924 -5.25307 1 -52.7927 26.981 1 
-52.8188 25.5655 1 -26.5822 38.7984 1 -39.0887 23.8199 1 
-40.5183 23.1759 1 -39.4202 22.2761 1 -58.6607 -21.6242 1 
-56.9118 -21.9745 1 -58.8993 -23.1789 1 -57.1504 -23.5292 1 
-43.407 49.5476 1 -42.1656 49.7534 1 -45.5509 -24.3702 1 
-45.9134 -25.8093 1 -60.3344 -26.0608 1 -47.8512 -14.8324 1 
-48.1135 -16.0368 1 -46.7327 -14.451 1 -63.5451 -37.2644 1 
-62.3933 -36.6642 1 -63.5392 -35.8244 1 -52.7085 -23.2105 1 
-53.0377 -24.5987 1 -54.2255 -23.667 1 -45.093 -20.263 1 
-46.2035 -20.7753 1 -53.4202 35.4314 1 -51.8041 36.2398 1 
-53.6349 37.1832 1 -59.6897 37.0121 1 -58.274 37.9004 1 
-57.9496 36.4066 1 -14.7931 -27.2408 1 -13.5759 -28.0861 1 
-14.7993 -28.6786 1 -48.5051 24.1915 1 -48.3003 22.485 1 
-44.037 -19.7464 1 -16.7285 36.1549 1 -23.8879 0.614475 1 
-65.9449 -0.678829 1 -43.404 42.4927 1 -64.6788 34.9296 1 
-64.6297 33.804 1 -32.6057 26.325 1 -30.455 27.0438 1 
-30.8913 25.5319 1 -28.7406 26.2506 1 -59.4215 41.7233 1 
-58.9558 40.5227 1 -13.3722 -15.4053 1 -12.1324 -16.1905 1 
-23.4898 23.8391 1 -21.6545 24.2845 1 -21.7783 22.8739 1 
-20.169 47.564 1 -20.8215 46.3857 1 -21.9223 46.4022 1 
-25.9807 8.12696 1 -25.273 7.27176 1 -24.4856 8.54211 1 
-41.3349 17.5246 1 -41.2235 18.6575 1 -64.6594 -31.5052 1 
-63.2875 -32.1288 1 -50.8773 37.3157 1 -51.1223 38.7485 1 
-17.3907 -46 1 -40.0231 -22.4557 1 -41.1693 -23.2094 1 
-40.9953 -24.5963 1 -17.0052 -17.2208 1 -16.9577 -16.0891 1 
-18.0081 -16.595 1 -18.3298 -41.4349 1 -17.8782 -42.5901 1 
-17.2547 -35.1835 1 -18.6804 -34.5464 1 -68.5221 -8.97851 1 
-68.5573 -10.308 1 -16.6597 -42.5416 1 -67.0734 -3.57551 1 
-10.9063 -4.57763 1 -9.7633 -3.96289 1 -10.9593 -3.24805 1 
-23.3695 1.59231 1 -22.9168 2.55228 1 -24.1538 2.4583 1 
-14.7481 12.45 1 -13.4429 14.4636 1 -13.4856 13.0984 1 
-47.1045 -20.0137 1 -47.4126 -21.2762 1 -58.7549 -24.2438 1 
-42.1595 -23.8734 1 -20.8477 -13.1854 1 -20.1845 -12.4553 1 
-21.8065 -12.5789 1 -45.9586 -19.5452 1 -46.3928 -22.1249 1 
-30.2613 -17.2468 1 -56.2725 -48.2535 1 -70.5156 -23.5434 1 
-51.3031 -48.2168 1 -16.2045 -28.0218 1 -44.7552 -34.0934 1 
-46.0919 -33.4245 1 -41.5776 -32.1537 1 -42.4752 -30.5353 1 
-58.5914 45.245 1 -57.9317 46.335 1 -55.8885 49.7747 1 
-14.4214 6.60306 1 -13.3149 6.22825 1 -13.2679 4.8644 1 
-69.4723 -24.1002 1 -12.1736 34.5917 1 -12.0862 35.7292 1 
-23.8884 17.485 1 -24.9316 18.4027 1 -23.1191 19.0924 1 
-54.8985 40.1242 1 -55.4618 38.5956 1 -64.8486 37.3306 1 
-64.7329 36.0657 1 -60.3643 -24.9709 1 -60.2888 -23.4787 1 
-46.6292 -23.4752 1 -47.6019 -22.6258 1 -57.0658 -16.4765 1 
-68.3564 -24.6073 1 -67.0729 -25.3209 1 -68.3807 -23.5321 1 
-67.0971 -24.2457 1 -33.457 -35.2444 1 -26.8867 -29.1762 1 
-25.1211 -29.5909 1 -52.639 46.3182 1 -52.0652 45.1802 1 
-70.7696 -22.1482 1 -27.2635 -45.857 1 -26.7221 -44.7474 1 
-27.8149 -44.7508 1 -18.9551 -3.9709 1 -54.3959 27.044 1 
-53.8517 28.2629 1 -11.098 -16.6629 1 -12.1468 -17.3275 1 
-51.2688 27.579 1 -57.1733 -8.39698 1 -69.5457 -21.5132 1 
-64.3389 49.798 1 -20.0589 15.0334 1 -20.2346 13.6832 1 
-32.9606 48.5897 1 -32.4052 49.5794 1 -31.9038 48.5933 1 
-54.9657 37.2056 1 -36.4625 14.9927 1 -56.9963 -5.43383 1 
-63.4107 -21.0771 1 -61.6115 46.5361 1 -62.1866 47.7523 1 
-64.6059 -24.1341 1 -25.5196 -4.49242 1 -25.8316 -3.4758 1 
-24.7521 -3.70006 1 -9.87785 -20.0178 1 -9.89454 -18.5519 1 
-11.1498 -19.282 1 -11.1896 -31.4139 1 -9.97226 -30.9932 1 
-68.4414 22.1507 1 -8.00203 -34.3435 1 -8.94884 -35.0486 1 
-38.2908 -48.2425 1 -34.7856 -38.1418 1 -35.7986 -38.0611 1 
-41.0956 -26.1929 1 -17.1163 6.14961 1 -51.3564 -36.5332 1 
-31.4568 -30.0883 1 -30.8895 -28.3014 1 -32.5193 -28.9838 1 
-51.3497 43.9847 1 -52.4469 43.9988 1 -63.4634 -34.6561 1 
-64.8209 -35.1415 1 -31.2753 49.7554 1 -54.422 25.6285 1 
-54.0984 24.3588 1 -14.8186 -31.2675 1 -14.8287 -29.8306 1 
-55.8339 23.8048 1 -57.3161 23.17 1 -54.0739 32.5756 1 
-51.9047 33.1803 1 -54.0998 34.1272 1 -23.8202 16.0177 1 
-24.3166 14.4965 1 -27.8319 -6.82755 1 -26.7221 -7.13179 1 
-58.6257 -6.82472 1 -57.3483 1.63979 1 -45.7055 15.1484 1 
-45.399 13.8264 1 -39.2499 14.8965 1 -38.192 15.3177 1 
-38.5726 14.1173 1 -67.2051 -7.10437 1 -67.2826 -8.49886 1 
-9.56047 49.9114 1 -10.1028 48.9187 1 -8.59733 50.0001 1 
-9.13968 49.0074 1 -57.1646 30.9024 1 -37.8592 44.035 1 
-38.3202 42.6686 1 -24.9762 16.4574 1 -58.7644 27.6745 1 
-56.1744 26.4922 1 -55.568 27.6891 1 -17.2315 -19.8464 1 
-18.4761 -19.1735 1 -17.0938 -18.777 1 -18.7473 -20.4973 1 
-19.9919 -19.8244 1 -36.3022 11.9384 1 -23.4014 -15.2954 1 
-47.9966 -19.2341 1 -12.1982 -18.8034 1 -18.4182 29.0992 1 
-20.0953 29.6542 1 -44.4002 -16.6847 1 -15.599 -3.5257 1 
-13.3853 -40.8792 1 -20.103 3.70382 1 -19.4253 2.96354 1 
-8.85085 -0.765813 1 -7.70057 -0.190799 1 -8.85684 0.502942 1 
-34.0424 -36.4701 1 -24.354 41.5604 1 -19.4118 46.3589 1 
-18.7739 47.5624 1 -67.2151 -20.3125 1 -25.0786 42.8347 1 
-26.1504 42.8146 1 -35.0515 -31.3144 1 -33.7341 -30.5786 1 
-62.0336 14.1769 1 -67.1481 -21.7384 1 -37.156 -43.5715 1 
-37.6849 -44.7773 1 -35.8769 -43.5509 1 -36.4058 -44.7567 1 
-21.9533 12.7722 1 -22.3596 11.3611 1 -20.6613 12.0758 1 
-68.4253 -22.0622 1 -53.9025 6.8403 1 -54.5878 5.91466 1 
-55.1165 7.0693 1 -33.7817 -24.1213 1 -64.5526 -28.9837 1 
-64.5763 -30.1188 1 -59.7865 45.3217 1 -70.6013 2.89531 1 
-65.0566 1.22072 1 -66.1698 1.77384 1 -46.3521 28.2385 1 
-48.3115 28.9257 1 -28.9731 -25.3484 1 -27.5025 -24.4841 1 
-31.1038 -21.5664 1 -47.5279 -13.6476 1 -64.9202 2.4004 1 
-54.4439 -25.1406 1 -53.0011 -25.9037 1 -57.5522 -20.9852 1 
-61.8943 -19.1736 1 -60.5571 -18.5384 1 -60.6267 -19.7907 1 
-39.8052 20.6407 1 -38.7887 19.7634 1 -57.518 -27.5176 1 
-55.9338 -26.9182 1 -56.2686 -28.354 1 -64.7104 -17.8746 1 
-22.9179 -44.8501 1 -54.751 35.4538 1 -53.3732 31.2754 1 
-51.8209 30.3191 1 -51.2039 31.8801 1 -51.7905 -17.3325 1 
-61.9682 -32.9892 1 -62.0146 -34.1522 1 -63.3339 -33.2918 1 
-22.8915 -9.28317 1 -60.0278 -43.9466 1 -61.3579 -43.9819 1 
-60.7094 -42.91 1 -49.4883 9.72663 1 -50.7592 10.186 1 
-54.3649 -18.0353 1 -63.6552 -12.436 1 -63.2656 30.6229 1 
-64.517 30.0323 1 -63.218 29.5511 1 -47.975 21.0896 1 
-46.9401 22.0011 1 -69.5209 -2.53968 1 -68.4457 -3.0329 1 
-69.5399 -3.59301 1 -70.771 20.8608 1 -69.5359 21.5449 1 
-70.5491 22.0756 1 -56.3691 37.4755 1 -41.2164 -39.59 1 
-43.1584 -38.2185 1 -41.818 -38.2057 1 -51.8323 -25.2684 1 
-51.5115 -24.0744 1 -19.9375 45.2475 1 -44.6443 47.3683 1 
-43.9461 48.5751 1 -45.3809 48.605 1 -66.0497 -20.8797 1 
-45.1664 46.2916 1 -45.9031 47.5283 1 -34.1088 -42.2134 1 
-51.4194 48.5924 1 -49.9516 48.6104 1 -65.9159 -24.7874 1 
-7.74141 -28.1675 1 -7.71641 -27.0763 1 -8.93067 -27.8101 1 
-62.1546 36.4995 1 -63.6119 36.896 1 -69.4482 27.6357 1 
-68.365 27.1263 1 -45.4849 37.0268 1 -45.5006 38.646 1 
-67.1423 15.4655 1 -66.0109 17.2894 1 -67.1281 26.4255 1 
-15.6492 6.81064 1 -17.0601 7.51726 1 -68.5888 -45.919 1 
-67.1308 -46.1668 1 -67.6093 -44.9183 1 -69.4315 -45.1225 1 
-20.2434 23.5029 1 -32.8497 -44.7438 1 -32.2093 -45.96 1 
-33.5635 -45.9621 1 -26.9422 11.1168 1 -57.8009 2.68859 1 
-48.8403 -26.9678 1 -48.1314 -25.4694 1 -62.2858 37.5512 1 
-63.7431 37.9478 1 -45.9948 16.3042 1 -47.2051 16.7633 1 
-46.8876 15.527 1 -59.6209 -11.2016 1 -56.9496 -13.4612 1 
-70.6258 -42.8993 1 -34.3879 11.6421 1 -33.6108 10.9202 1 
-34.8197 10.457 1 -34.0427 9.73514 1 -62.6601 -10.8452 1 
-68.8387 -44.2639 1 -35.3808 36.5313 1 -34.7758 34.855 1 
-68.4581 21.0624 1 -61.7832 -22.9239 1 -60.4332 -22.4138 1 
-69.5178 22.6301 1 -47.2092 -26.4121 1 -70.6167 37.6625 1 
-54.1455 22.8702 1 -69.6039 4.78252 1 -70.793 4.10884 1 
-11.1336 25.2654 1 -70.7856 8.9329 1 -26.2746 47.5286 1 
-25.7542 48.5947 1 -69.5489 9.67221 1 -19.3103 -42.7286 1 
-20.4475 -42.631 1 -19.762 -41.5734 1 -19.133 -10.8681 1 
-31.6351 41.2233 1 -32.3768 42.5812 1 -33.0439 41.274 1 
-41.0719 -21.7982 1 -68.3197 -26.9787 1 -11.0952 -0.820902 1 
-12.171 -0.375705 1 -67.2472 -37.6362 1 -66.0432 -36.9017 1 
-11.1938 -21.76 1 -9.9001 -21.0547 1 -20.4932 -10.1184 1 
-7.70403 -45.0334 1 -64.911 38.4114 1 -11.1494 -18.1388 1 
-19.698 48.6529 1 -14.5727 25.7974 1 -14.6128 26.9797 1 
-13.4158 26.3974 1 -30.9652 -43.5725 1 -29.8283 -43.5592 1 
-23.5825 -48.1481 1 -7.70853 -44.1952 1 -9.93818 32.0386 1 
-9.89935 33.3337 1 -11.1093 32.6708 1 -68.6134 -43.1601 1 
-28.9133 -6.55078 1 -29.637 -7.27453 1 -15.5485 44.1436 1 
-9.86842 5.57516 1 -62.0932 -17.7753 1 -20.6862 36.4193 1 
-57.4161 -42.3078 1 -56.8997 -41.0687 1 -15.5113 2.70979 1 
-13.1827 37.6097 1 -13.0666 0.00774531 1 -14.7474 -33.788 1 
-14.7035 -34.9534 1 -16.0202 -34.265 1 -52.4372 -7.20059 1 
-60.5152 -41.7505 1 -13.4906 -36.914 1 -13.5071 -35.4046 1 
-24.7736 -48.2216 1 -25.4673 -47.113 1 -24.1194 -47.1113 1 
-46.8466 -24.9731 1 -25.4257 -42.3523 1 -31.5135 -36.4236 1 
-12.2633 -24.8793 1 -11.2128 -25.3221 1 -11.1831 -24.252 1 
-12.2635 -23.7777 1 -59.703 -37.4496 1 -11.2101 -22.8785 1 
-12.2906 -22.4041 1 -32.5866 -13.1539 1 -70.7117 49.7416 1 
-49.4924 -10.1661 1 -50.2831 -9.46303 1 -50.6132 -10.5104 1 
-45.6608 -38.2115 1 -46.314 -36.6096 1 -58.6922 -46.0692 1 
-41.026 45.0834 1 -52.0546 13.8981 1 -50.8088 13.5002 1 
-51.2096 14.75 1 -11.6348 -48.3057 1 -12.8332 -48.0926 1 
-70.7889 1.67765 1 -24.6015 37.1976 1 -40.5219 46.2945 1 
-39.5953 45.0908 1 -39.0912 46.3019 1 -50.6172 49.7588 1 
-9.54825 -48.4226 1 -10.7182 -48.4226 1 -38.7531 -44.7903 1 
-38.2451 -43.5497 1 -22.8905 25.9712 1 -20.768 26.7096 1 
-17.7888 49.6283 1 -18.3029 48.6512 1 -46.4557 -13.2214 1 
-8.92125 21.9849 1 -7.73592 21.2974 1 -7.7307 13.865 1 
-8.90196 14.5886 1 -8.88844 13.2757 1 -31.022 6.73013 1 
-28.7402 -33.3668 1 -26.9794 -33.7938 1 -59.0208 -1.98895 1 
-20.9653 29.2192 1 -20.8079 27.8119 1 -63.4561 -13.5122 1 
-21.5301 30.4655 1 -13.4445 7.28394 1 -14.6318 7.6588 1 
-48.8108 -48.2207 1 -47.7263 -48.2323 1 -43.6115 -47.0342 1 
-42.8829 -48.2275 1 -59.1133 21.3713 1 -60.6045 20.7361 1 
-60.5539 22.0865 1 -67.0903 28.8514 1 -68.3352 29.5218 1 
-67.0739 30.1257 1 -66.16 6.60214 1 -66.2449 5.29597 1 
-67.2512 6.01238 1 -15.0382 39.5069 1 -29.6991 -13.1672 1 
-34.2966 -17.938 1 -34.5964 -16.6473 1 -8.8943 41.4751 1 
-55.4449 31.6043 1 -10.9227 -47.2435 1 -14.6137 24.6798 1 
-13.406 25.3016 1 -7.67975 -18.5756 1 -20.9446 17.2446 1 
-29.9026 47.5001 1 -30.5948 46.326 1 -31.3333 47.5084 1 
-7.71641 -25.7263 1 -8.93288 -26.4107 1 -12.2648 -27.3672 1 
-19.0119 -30.4929 1 -59.4674 -5.94796 1 -50.6691 7.01101 1 
-51.8695 7.37802 1 -51.4776 6.28378 1 -34.4686 -13.5524 1 
-50.974 -8.69506 1 -51.371 -9.76305 1 -70.7244 -38.2214 1 
-60.5357 -5.44511 1 -55.4675 -4.14618 1 -54.69 -4.89562 1 
-61.0295 -6.59825 1 -57.6576 -46.0055 1 -53.2862 17.5403 1 
-52.0113 17.2867 1 -52.8221 16.3401 1 -69.59 8.30965 1 
-70.5886 7.7683 1 -66.1263 -13.7727 1 -66.1166 -12.4641 1 
-64.822 -13.1398 1 -51.5525 15.9388 1 -52.4791 15.1513 1 
-46.2907 17.759 1 -47.5011 18.2181 1 -45.0991 17.1511 1 
-62.1247 -15.2758 1 -62.0544 -16.5699 1 -46.5249 19.0713 1 
-46.7205 20.6217 1 -64.953 -9.65677 1 -66.2323 -9.0189 1 
-48.3013 1.10933 1 -60.4303 25.9116 1 -61.726 26.4825 1 
-61.7711 25.3137 1 -60.3977 27.2554 1 -64.6366 19.067 1 
-66.0306 19.7753 1 -64.6254 20.4472 1 -50.2079 15.601 1 
-63.748 48.7742 1 -63.1333 49.7177 1 -66.2123 7.60719 1 
-67.2915 7.13335 1 -61.1695 45.4501 1 -62.2263 45.6183 1 
-60.7677 44.0398 1 -61.8245 44.208 1 -62.6987 2.18376 1 
-70.8673 44.6261 1 -31.9573 34.7535 1 -30.2531 33.1258 1 
-33.5008 33.3089 1 -31.7965 31.6813 1 -8.83196 40.0743 1 
-16.9681 33.443 1 -12.2697 9.01395 1 -44.9182 15.7518 1 
-8.87856 11.2157 1 -9.90695 11.6101 1 -17.0328 -2.10241 1 
-13.1648 -8.23832 1 -13.1707 -9.35377 1 -11.0861 16.8598 1 
-11.1199 15.7354 1 -12.2071 16.1862 1 -7.95542 14.2152 1 
-23.6102 3.49587 1 -20.7039 4.76999 1 -19.8581 5.87299 1 
-20.9637 5.86037 1 -20.1179 6.96337 1 -17.2965 -21.2748 1 
-15.8121 -20.6176 1 -66.1466 2.92696 1 -67.3962 2.3004 1 
-18.2243 -3.19773 1 -15.7048 -14.0198 1 -14.4018 -14.8746 1 
-14.4306 -13.8312 1 -9.84293 -15.9719 1 -17.418 12.4727 1 
-18.9067 11.8216 1 -17.4658 11.1404 1 -48.9535 -15.1924 1 
-61.919 21.601 1 -37.1428 -20.2342 1 -38.003 -20.9809 1 
-55.1442 43.9803 1 -56.6988 43.9951 1 -56.5845 48.6315 1 
-50.7111 42.6813 1 -29.0204 38.3118 1 -30.4406 38.4132 1 
-29.5024 36.7877 1 -7.6893 35.8344 1 -7.6893 37.1344 1 
-37.4414 -17.6914 1 -18.0805 36.5622 1 -27.8128 36.8175 1 
-27.9472 38.6973 1 -7.67759 38.2715 1 -16.5974 49.8139 1 
-68.4354 -18.4728 1 -61.9696 20.2506 1 -55.1768 -19.3408 1 
-51.3417 -16.0283 1 -50.917 -14.7883 1 -50.5293 -16.915 1 
-50.1046 -15.675 1 -65.011 0.0800058 1 -69.5788 -14.4764 1 
-64.6564 24.0245 1 -64.6165 22.6546 1 -63.3426 22.1054 1 
-64.6121 21.554 1 -55.5826 -22.9853 1 -37.6013 -47.0905 1 
-38.8992 -47.0863 1 -50.0532 -18.9312 1 -59.0971 44.1153 1 
-63.2853 47.7648 1 -62.6605 48.761 1 -35.5435 11.1807 1 
-41.9977 24.0727 1 -9.93882 16.3598 1 -9.90502 17.4843 1 
-51.1823 -22.6863 1 -27.137 25.2864 1 -8.86915 9.91048 1 
-19.8817 -18.2868 1 -53.443 5.73564 1 -52.6552 6.50733 1 
-15.8144 -15.5169 1 -52.3628 8.55882 1 -9.98215 -24.6525 1 
-9.95385 -26.0048 1 -57.5532 7.59905 1 -58.4193 8.27846 1 
-57.0888 8.56542 1 -28.7789 23.81 1 -28.9276 21.9763 1 
-29.3352 41.4219 1 -36.0046 -45.9633 1 -34.6712 -45.9601 1 
-35.349 -44.7223 1 -27.7988 -12.7559 1 -27.0808 -11.9903 1 
-28.9198 -12.3824 1 -28.2018 -11.6167 1 -15.7968 31.5192 1 
-15.7564 32.6771 1 -14.5623 32.0531 1 -28.6093 7.43428 1 
-42.0622 -22.4622 1 -19.4439 -2.68589 1 -20.2958 -3.70563 1 
-63.9381 -8.73815 1 -19.876 -4.92619 1 -68.4857 14.8287 1 
-36.6413 40.2816 1 -37.3722 38.8247 1 -47.7793 19.5393 1 
-13.3877 32.7992 1 -14.5584 33.3759 1 -70.6458 39.9135 1 
-70.7784 41.194 1 -12.1689 33.1719 1 -7.72083 10.5049 1 
-49.3545 1.0271 1 -36.6125 41.6949 1 -67.3249 -13.3192 1 
-47.0169 12.238 1 -63.4075 19.6166 1 -63.3963 20.9967 1 
-64.5331 -27.6661 1 -7.6716 40.802 1 -7.94452 39.7138 1 
-64.1511 -42.6112 1 -64.9575 -41.5596 1 -58.9307 -27.9756 1 
-66.1372 -7.91095 1 -66.0596 -6.51646 1 -63.9135 1.91137 1 
-63.5752 2.97118 1 -64.7539 14.2101 1 -67.2038 8.47379 1 
-68.466 5.36844 1 -66.0289 34.2061 1 -64.9651 -12.0956 1 
-60.3889 42.8107 1 -13.4056 8.64831 1 -16.1717 42.8433 1 
-13.835 40.7269 1 -13.1448 40.0376 1 -55.4318 41.3733 1 
-36.8705 28.235 1 -35.7247 30.14 1 -37.994 46.3035 1 
-36.62 46.2901 1 -38.5629 45.2157 1 -37.189 45.2023 1 
-14.7056 -25.0483 1 -7.95542 15.2652 1 -13.5675 -24.1915 1 
-13.5677 -23.0898 1 -14.6633 -22.5624 1 -16.119 -21.8013 1 
-14.6346 -21.1441 1 -11.172 -20.3189 1 -22.2827 -37.4344 1 
-21.9557 -38.8239 1 -54.6091 42.706 1 -7.68363 -13.5497 1 
-7.87923 -6.16325 1 -65.9177 28.3604 1 -67.0966 27.7587 1 
-65.9436 27.1823 1 -21.9938 -29.2997 1 -47.1563 -44.6987 1 
-46.6381 -45.8701 1 -65.9751 25.8491 1 -26.3735 -30.735 1 
-27.8675 -32.0065 1 -27.922 -30.5211 1 -29.4161 -31.7925 1 
-47.8036 -28.1775 1 -46.1471 -27.5044 1 -35.6524 -29.5958 1 
-37.1656 -18.8992 1 -52.6126 -45.9462 1 -55.8973 42.7655 1 
-30.0792 -11.9967 1 -34.7613 -12.4186 1 -33.7402 -12.8414 1 
-34.0329 -11.7076 1 -69.5118 24.0156 1 -57.6956 -14.9042 1 
-56.5465 -15.4076 1 -31.1971 42.6221 1 -31.2103 15.0588 1 
-11.1141 34.0906 1 -58.1958 -10.55 1 -55.6535 -10.0392 1 
-54.9365 -10.8153 1 -15.8543 26.5238 1 -15.9037 25.1627 1 
-17.1021 25.7606 1 -40.397 48.566 1 -41.4735 48.578 1 
-14.2745 -0.491797 1 -31.1786 11.7857 1 -61.9148 -20.3725 1 
-17.6488 45.198 1 -12.1716 21.1062 1 -13.4275 20.4347 1 
-62.0469 -40.5137 1 -62.0092 -39.3847 1 -9.35329 48.0344 1 
-45.9185 11.7864 1 -16.689 0.559402 1 -59.1161 -33.39 1 
-63.2918 -30.9783 1 -62.472 -37.8339 1 -63.6239 -38.4341 1 
-51.5662 9.28553 1 -46.5811 14.205 1 -70.6533 -40.5053 1 
-15.741 -10.2984 1 -67.2597 10.57 1 -65.9417 29.4109 1 
-65.9254 30.6852 1 -26.3659 -8.19497 1 -7.74472 27.2557 1 
-8.93968 27.9824 1 -7.97911 28.7183 1 -26.3341 -11.2247 1 
-25.6477 -10.4486 1 -25.2334 -11.6148 1 -23.0281 46.4097 1 
-11.0952 20.6978 1 -23.223 13.5305 1 -24.9292 -14.669 1 
-25.5034 -13.5879 1 -25.5913 -7.43715 1 -24.4316 -7.77845 1 
-15.8945 27.706 1 -22.7446 0.595711 1 -56.9498 6.37505 1 
-57.7148 5.54284 1 -58.4016 6.74377 1 -58.0479 9.54986 1 
-63.5143 14.6469 1 -56.5674 -34.3797 1 -55.2888 -35.4086 1 
-56.6909 -35.6649 1 -59.6446 9.94 1 -70.5814 35.3558 1 
-11.2097 -26.7523 1 -9.96242 -27.1047 1 -54.7581 -38.2503 1 
-56.0378 -38.4573 1 -55.6446 -36.7196 1 -56.9243 -36.9266 1 
-57.5275 35.065 1 -59.0449 35.4988 1 -60.5984 -33.7368 1 
-60.6828 -34.9549 1 -13.6005 -31.7437 1 -21.5695 6.88715 1 
-32.663 24.3675 1 -13.3194 36.4701 1 -24.5616 25.5649 1 
-33.9673 36.8588 1 -16.1517 -29.3858 1 -70.7621 38.9976 1 
-52.4875 48.578 1 -18.5892 -43.8337 1 -19.2073 -44.8606 1 
-18.0831 -44.8787 1 -38.089 40.2176 1 -30.2257 24.2737 1 
-33.9851 39.6966 1 -21.2227 37.8045 1 -33.4026 -38.072 1 
-62.9084 -45.0922 1 -70.694 -27.1646 1 -70.694 -25.8646 1 
-70.746 30.8358 1 -22.34 -41.3098 1 -20.0516 30.9743 1 
-19.893 32.4535 1 -18.5079 31.6187 1 -22.2112 34.8235 1 
-12.4227 48.7967 1 -13.4654 48.7672 1 -45.3332 18.4635 1 
-12.22 13.7617 1 -12.2278 12.6884 1 -11.1329 13.3359 1 
-59.2044 12.5353 1 -61.1295 12.0049 1 -53.9207 12.1519 1 
-54.766 11.166 1 -7.74141 -29.5675 1 -58.9572 15.0244 1 
-59.2094 16.2638 1 -57.8306 15.6158 1 -9.91024 -35.7768 1 
-54.5947 -29.1325 1 -69.6061 2.33141 1 -19.7264 -43.7361 1 
-48.4435 -44.6918 1 -41.2511 -36.6776 1 -42.4318 -36.7781 1 
-49.5736 -47.033 1 -49.0983 -45.9068 1 -50.1808 -45.8978 1 
-53.3339 10.9071 1 -33.0254 -42.2363 1 -16.5756 -7.07588 1 
-15.2001 -6.82624 1 -21.22 -36.3939 1 -20.9806 -37.6543 1 
-19.3811 -39.2747 1 -19.49 -38.0284 1 -20.6536 -39.0438 1 
-26.1068 -32.4334 1 -52.5031 -48.1123 1 -61.7399 -26.5327 1 
-60.4214 -27.4601 1 -18.5593 -35.7821 1 -49.1686 -24.4358 1 
-50.467 -24.7001 1 -16.0537 -5.95858 1 -23.9914 -2.91023 1 
-23.3177 -2.09231 1 -24.3472 -1.96221 1 -23.6735 -1.14429 1 
-58.4319 -1.00228 1 -38.0764 22.7217 1 -17.1336 -36.4193 1 
-60.38 33.4017 1 -60.3495 32.0109 1 -32.4389 47.5044 1 
-26.5779 -4.23885 1 -7.74667 32.1842 1 -44.794 40.0218 1 
-20.7807 10.798 1 -19.0261 10.5438 1 -18.9284 13.0339 1 
-11.0868 35.1956 1 -9.87212 34.4387 1 -25.0785 -2.71461 1 
-20.3174 -31.337 1 -43.2663 28.7117 1 -44.6786 27.6607 1 
-10.828 49.9114 1 -7.72893 34.6821 1 -64.8275 -43.7751 1 
-39.8387 47.4989 1 -48.9965 15.1321 1 -59.9183 39.3415 1 
-64.8362 41.8112 1 -65.1349 40.6984 1 -7.69634 8.218 1 
-7.99921 7.12769 1 -19.7294 -36.768 1 -32.6553 -16.334 1 
-57.5544 -30.1704 1 -55.9395 -31.1793 1 -57.5689 -31.4849 1 
-55.954 -32.4938 1 -57.5814 -28.9679 1 -45.5171 -35.4613 1 
-46.8204 -35.354 1 -28.2585 -19.0925 1 -62.0067 19.0349 1 
-58.1671 -35.9697 1 -58.4005 -37.2314 1 -9.92087 30.9432 1 
-9.91449 29.5507 1 -23.81 47.5726 1 -24.3677 48.6351 1 
-51.1822 23.1995 1 -27.8191 11.9604 1 -23.0509 17.6252 1 
-41.5159 38.2327 1 -8.92747 -21.4628 1 -59.3049 -15.1257 1 
-15.0928 -48.0664 1 -31.6479 10.5335 1 -15.9035 16.8056 1 
-19.7463 16.5665 1 -20.4512 -25.9522 1 -50.7092 35.5377 1 
-42.1976 -25.4211 1 -46.1437 40.0752 1 -68.5166 -6.74486 1 
-27.4993 -16.0623 1 -26.8355 27.1895 1 -20.1072 -20.9051 1 
-7.93989 17.8096 1 -46.3214 43.9325 1 -18.7702 20.3236 1 
-51.7262 -13.9682 1 -51.3514 -12.7783 1 -49.9819 29.1889 1 
-49.3649 30.75 1 -51.5536 24.7573 1 -52.8332 23.5506 1 
-67.1485 45.4681 1 -70.746 29.5358 1 -40.6355 -48.2499 1 
-29.4387 46.3427 1 -20.0363 -23.4109 1 -20.2178 -22.3375 1 
-26.9355 46.403 1 -69.5778 -10.8708 1 -69.5853 -12.1239 1 
-68.3787 -31.9373 1 -27.2712 -48.2117 1 -59.0045 -13.7416 1 
-69.5515 15.68 1 -51.5982 -29.8918 1 -57.6526 -33.0699 1 
-39.405 -48.1023 1 -44.8582 -14.8237 1 -51.5382 -33.3258 1 
-34.4489 19.2688 1 -70.7442 -48.1585 1 -12.9747 49.661 1 
-13.4371 19.3899 1 -13.4302 24.0298 1 -13.5006 -20.6292 1 
-13.4684 -19.512 1 -13.1685 -39.7173 1 -47.7381 43.9568 1 
-48.8038 43.9845 1 -47.0428 45.1826 1 -48.1085 45.2104 1 
-21.2421 35.009 1 -19.9612 34.8748 1 -25.98 -12.3803 1 
-17.3609 -24.8443 1 -16.9707 -37.6329 1 -18.4345 -37.1726 1 
-59.2005 -34.6081 1 -57.7761 -34.3551 1 -59.5916 -36.2227 1 
-32.9513 -36.5387 1 -30.8938 -32.0691 1 -32.6715 -31.6831 1 
-29.9791 -29.8117 1 -58.3585 -14.1131 1 -58.2739 -44.9035 1 
-30.1608 49.7572 1 -30.7893 48.5951 1 -59.1952 -12.2845 1 
-67.8818 -46.8603 1 -31.1295 -48.1011 1 -31.6393 -47.0892 1 
-64.5587 -25.1936 1 -69.501 -22.9831 1 -49.1363 -19.7765 1 
-70.7493 -16.0689 1 -70.7506 -17.145 1 -9.91425 19.9305 1 
-9.88755 18.5525 1 -8.89531 19.5622 1 -8.86862 18.1841 1 
-63.2541 -24.6942 1 -21.487 0.635457 1 -20.7249 -0.389394 1 
-36.9229 31.525 1 -37.7708 33.4794 1 -35.9206 33.1497 1 
-70.7146 -28.2663 1 -68.3663 -1.99637 1 -69.5323 -1.44734 1 
-33.7792 42.559 1 -47.5797 46.3296 1 -58.7941 -20.3911 1 
-69.5237 -33.8226 1 -9.80879 -2.86691 1 -9.86559 -1.43891 1 
-64.5646 32.4572 1 -64.5318 31.3617 1 -63.2804 31.9523 1 
-22.4162 -4.20249 1 -22.8268 -3.12342 1 -32.9936 -47.0913 1 
-14.6441 22.3127 1 -14.6379 23.408 1 -13.431 22.948 1 
-70.7529 23.3461 1 -9.90501 47.0987 1 -9.38519 46.3117 1 
-20.4058 0.634671 1 -56.2764 -45.9572 1 -55.6166 -47.0779 1 
-55.117 -45.9171 1 -53.784 -48.2308 1 -54.9107 -48.0828 1 
-8.81587 -43.4999 1 -56.9331 -10.4293 1 -46.8655 -40.959 1 
-47.9878 -40.9241 1 -44.9459 5.19924 1 -39.9737 15.6202 1 
-39.8766 16.8863 1 -53.081 12.9359 1 -51.5926 12.5791 1 
-52.6472 11.7314 1 -51.1588 11.3746 1 -70.5472 -31.9476 1 
-69.4792 -32.4869 1 -70.7161 -33.0978 1 -7.66945 -46.5435 1 
-8.58933 -45.7685 1 -14.5929 9.02316 1 -9.89754 10.3049 1 
-50.8954 -18.1285 1 -70.4878 -5.50236 1 -38.5814 49.7447 1 
-34.1092 -47.0808 1 -52.0095 -47.0707 1 -53.564 14.2338 1 
-54.3775 13.3711 1 -54.8605 14.6691 1 -14.2405 -9.90987 1 
-68.5045 10.1806 1 -68.5456 8.81805 1 -38.8794 -42.2596 1 
-38.3582 -40.942 1 -39.431 -40.9415 1 -56.9977 -47.1262 1 
-67.1439 34.7076 1 -37.5998 -42.2317 1 -36.5107 -42.2535 1 
-33.2824 -11.0039 1 -61.2384 5.81768 1 -59.364 6.14816 1 
-40.1776 -33.229 1 -39.5095 -34.7318 1 -69.6941 46.2074 1 
-23.5663 9.81993 1 -23.2138 8.65651 1 -70.5154 26.948 1 
-27.7301 15.4138 1 -14.8073 -32.4044 1 -69.4537 30.045 1 
-48.788 -10.9544 1 -49.1159 -12.0338 1 -52.4663 -10.1127 1 
-13.4509 -38.112 1 -14.4137 -39.035 1 -14.5871 -37.7253 1 
-7.71867 -22.1402 1 -17.2807 21.0168 1 -55.9027 6.26515 1 
-55.6992 8.14557 1 -49.0918 8.61542 1 -45.0107 -36.7169 1 
-53.4811 -33.9114 1 -25.4725 11.6322 1 -7.71327 -5.06691 1 
-13.0543 -2.15139 1 -28.6339 -10.481 1 -24.2857 -0.234606 1 
-24.3704 10.7287 1 -29.3701 8.24601 1 -68.279 -33.2176 1 
-24.37 -4.76379 1 -23.6024 -3.97143 1 -64.5078 27.6871 1 
-21.9122 10.0887 1 -49.1236 20.0927 1 -59.0508 22.5479 1 
-57.5361 21.8375 1 -28.4807 -40.9869 1 -27.3305 -40.9916 1 
-26.5135 -42.3394 1 -25.9157 -41.0872 1 -47.3059 23.5812 1 
-45.6906 45.1487 1 -23.8151 40.363 1 -46.5187 46.3256 1 
-24.6829 20.0262 1 -26.6181 18.5048 1 -66.055 -16.1229 1 
-66.0709 -14.8382 1 -67.2435 -15.4044 1 -45.6397 23.0247 1 
-20.6364 -44.9065 1 -21.1555 -43.782 1 -18.7011 -45.9377 1 
-23.1217 44.0777 1 -54.1581 -11.5671 1 -43.9892 -48.2243 1 
-8.8539 -10.4304 1 -26.8824 31.2107 1 -29.5154 31.1982 1 
-28.7028 28.5871 1 -12.2304 -19.9206 1 -45.2892 -48.2243 1 
-7.73536 -39.2964 1 -7.70715 -38.1801 1 -23.4412 -37.289 1 
-32.3114 -38.1407 1 -37.09 -38.0702 1 -39.3194 48.5693 1 
-43.0763 -19.2768 1 -51.7617 -10.8336 1 -45.6375 21.3909 1 
-52.4837 34.9357 1 -64.8268 -36.5815 1 -47.5298 10.1646 1 
-46.7324 11.0118 1 -22.6019 49.7497 1 -55.2874 15.9208 1 
-53.9886 15.487 1 -54.2662 16.7 1 -35.4095 48.5849 1 
-56.4658 -9.26891 1 -30.5369 7.83808 1 -27.5014 4.748 1 
-27.0665 5.83171 1 -49.8942 -22.1899 1 -50.1461 -23.5061 1 
-32.5333 -10.2098 1 -60.4933 -21.0238 1 -18.3746 30.4193 1 
-23.6294 12.1194 1 -51.4406 19.5723 1 -52.3154 18.5606 1 
-70.5074 -29.4481 1 -37.365 -25.3348 1 -31.7233 7.56223 1 
-50.9853 18.167 1 -56.3448 21.0435 1 -54.5629 20.2927 1 
-57.902 44.0386 1 -58.7183 42.8863 1 -32.1287 -22.1281 1 
-32.4414 -20.9442 1 -33.3302 -21.8202 1 -8.89382 35.3634 1 
-20.3148 -40.3354 1 -21.5872 -40.1045 1 -11.1387 14.4027 1 
-9.93502 12.6358 1 -11.2011 12.0025 1 -61.8174 42.9828 1 
-9.95435 15.0154 1 -9.94854 13.9486 1 -54.0986 -36.5835 1 
-33.6664 -20.5435 1 -11.0122 -10.6408 1 -9.84923 -11.3356 1 
-62.3941 -44.1909 1 -62.9241 -42.9938 1 -61.7456 -43.1189 1 
-11.013 -9.53132 1 -61.0971 -37.5255 1 -32.9996 -23.408 1 
-57.6407 -9.5574 1 -57.965 -7.62487 1 -34.7608 20.8509 1 
-48.7663 18.6252 1 -33.038 22.0209 1 -26.5675 -47.1031 1 
-26.0261 -45.9935 1 -67.9793 49.8595 1 -66.8849 49.8107 1 
-33.6334 23.0916 1 -53.5903 18.8143 1 -50.6667 16.9489 1 
-60.3051 30.8591 1 -36.0971 49.755 1 -49.526 -44.6828 1 
-45.7142 -18.3018 1 -45.4163 -17.1413 1 -25.2369 -8.52428 1 
-45.422 -22.9043 1 -26.0265 -9.3075 1 -24.6469 -31.2851 1 
-23.3945 -30.141 1 -52.9855 -14.3562 1 -53.7135 -13.5286 1 
-44.7957 49.769 1 -52.8349 9.71561 1 -56.856 3.46394 1 
-54.2213 4.8805 1 -55.3558 5.10296 1 -50.3853 39.9697 1 
-51.1087 41.4346 1 -40.1314 -39.5328 1 -38.759 -39.5165 1 
-64.9364 8.26886 1 -30.4545 17.7205 1 -29.422 18.5857 1 
-29.4533 17.0392 1 -70.5602 -20.9734 1 -66.2004 41.3629 1 
-67.2857 41.817 1 -40.2258 19.2762 1 -61.7251 30.2452 1 
-39.0434 41.3059 1 -39.7474 42.6294 1 -61.7727 31.317 1 
-67.3829 46.6215 1 -70.8673 45.8761 1 -41.1421 30.1131 1 
-8.90802 26.6045 1 -17.5333 -29.9674 1 -52.1384 -15.1824 1 
-51.722 -20.7125 1 -51.3508 -19.3709 1 -70.775 31.908 1 
-70.775 33.058 1 -52.0604 10.4866 1 -19.8913 8.32931 1 
-15.9447 24.045 1 -26.0029 -48.1498 1 -29.1178 -47.1051 1 
-29.8484 -48.2579 1 -28.4786 -48.1056 1 -7.74189 -30.6726 1 
-7.9855 31.1607 1 -18.4506 7.61844 1 -8.94801 31.6033 1 
-50.6683 -47.0291 1 -9.8679 3.35802 1 -37.0614 -45.9977 1 
-29.3671 -11.2354 1 -18.3104 -14.182 1 -18.1633 -15.553 1 
-16.9538 -14.9846 1 -9.84499 0.908585 1 -19.5024 -17.2646 1 
-8.94652 -25.3538 1 -14.4074 -11.2538 1 -19.4103 -13.6795 1 
-19.133 -40.5078 1 -62.9491 -41.9062 1 -63.7555 -40.8546 1 
-61.9711 15.2567 1 -18.5068 6.25079 1 -70.8397 -44.0766 1 
-35.5013 -13.1586 1 -18.8264 9.37795 1 -40.6373 -38.1053 1 
-39.6177 -38.064 1 -44.3159 -38.2737 1 -11.131 2.59979 1 
-52.3278 28.8609 1 -51.9164 49.5751 1 -25.8091 6.10513 1 
-26.5168 6.96033 1 -46.9642 47.5324 1 -69.5719 35.9187 1 
-53.3802 42.6662 1 -49.8798 43.9449 1 -15.8313 34.1403 1 
-33.3623 35.1824 1 -55.6276 22.2354 1 -27.4801 47.4593 1 
-28.2165 48.5818 1 -28.862 49.5711 1 -29.3587 48.5868 1 
-48.2668 9.43508 1 -18.4565 -8.83688 1 -17.6005 -7.9999 1 
-12.2522 -21.3618 1 -28.7465 47.5167 1 -34.6288 -48.1033 1 
-17.3131 -22.2915 1 -32.9771 -12.0402 1 -70.7483 -3.25909 1 
-30.3744 22.44 1 -24.6092 33.5739 1 -25.5571 35.5296 1 
-39.0786 -21.7301 1 -49.8279 14.3549 1 -37.2191 17.8669 1 
-35.1775 -42.2303 1 -67.2294 -17.8398 1 -66.0627 -17.1916 1 
-62.5015 5.90617 1 -18.2733 32.7889 1 -19.6584 33.6238 1 
-34.6456 31.6036 1 -63.9176 8.78102 1 -63.8129 10.101 1 
-64.8318 9.58886 1 -32.3332 -43.5764 1 -33.4167 -43.5535 1 
-70.595 5.36522 1 -34.8083 -43.534 1 -64.493 28.9818 1 
-64.5338 26.5091 1 -33.9574 -44.7418 1 -69.4247 28.9385 1 
-70.7169 28.4293 1 -68.3587 28.219 1 -52.5334 22.165 1 
-63.2587 25.9988 1 -8.56725 45.993 1 -8.73456 47.0897 1 
-47.5031 39.7867 1 -56.6644 -43.5347 1 -57.7306 -43.6362 1 
-70.7746 36.6045 1 -61.7706 -42.0313 1 -65.1011 48.7354 1 
-57.8637 -39.7849 1 -57.0605 -44.7303 1 -11.1536 27.7476 1 
-11.1312 29.115 1 -13.1389 -1.09287 1 -21.1242 33.483 1 
-21.2829 32.0037 1 -11.0048 -2.15208 1 -21.4304 -18.8767 1 
-48.6337 10.5683 1 -54.5828 -12.7271 1 -49.85 -11.2699 1 
-53.7455 3.77262 1 -40.4121 17.808 1 -19.5166 -9.47913 1 
-12.2679 -25.937 1 -27.8306 6.68202 1 -45.8148 4.52588 1 
-49.6915 17.7075 1 -50.9518 -11.6247 1 -50.1886 -12.3843 1 
-38.5768 -26.1136 1 -44.7127 33.5535 1 -41.0287 -30.8474 1 
-39.6288 -31.9226 1 -11.1031 30.2675 1 -38.2248 -45.8702 1 
-53.1667 47.3871 1 -63.4181 -17.2316 1 -25.6446 44.0659 1 
-24.204 44.1089 1 -65.5263 49.6789 1 -43.0862 35.1338 1 
-52.0491 37.6726 1 -15.9618 18.1457 1 -56.4854 7.34142 1 
-26.0754 45.2868 1 -64.9435 -40.1924 1 -63.7178 -39.7255 1 
-57.1791 47.5601 1 -32.8699 44.0037 1 -26.0825 33.2145 1 
-28.7155 33.202 1 -39.2864 43.9958 1 -15.2977 47.5559 1 
-14.2378 47.7463 1 -51.8456 40.2134 1 -69.5019 20.1752 1 
-62.3175 -35.4958 1 -60.9856 -36.2986 1 -68.3767 -4.34622 1 
-69.5501 11.8173 1 -12.0304 -43.8384 1 -11.7637 -44.9455 1 
-7.73901 -41.7296 1 -68.5013 42.508 1 -20.0367 -48.1431 1 
-56.676 -39.6352 1 -57.5769 -38.5904 1 -38.2453 -38.0478 1 
-13.3974 27.7702 1 -63.513 6.38443 1 -63.4708 7.77738 1 
-64.9263 5.87085 1 -64.8841 7.26381 1 -26.3525 5.02188 1 
-25.2896 9.45088 1 -16.0427 8.36542 1 -50.1105 19.1786 1 
-7.93248 9.49712 1 -20.6264 41.5069 1 -9.94259 28.3983 1 
-14.1809 -7.35704 1 -62.562 9.37071 1 -62.1153 8.36708 1 
-9.80924 -42.0778 1 -9.91508 -40.774 1 -26.1562 -43.5949 1 
-21.8261 -44.9004 1 -51.3923 -45.821 1 -44.928 -44.7189 1 
-46.243 13.0114 1 -60.5367 -15.8309 1 -54.0181 -8.57205 1 
-49.8879 10.9152 1 -50.3468 12.1811 1 -25.0553 5.22601 1 
-15.642 -18.0602 1 -24.3319 4.34715 1 -24.5095 6.32194 1 
-64.6672 43.1109 1 -42.7121 41.1631 1 -37.6861 -39.5171 1 
-57.3161 28.5416 1 -61.8587 -24.416 1 -61.7808 -25.4868 1 
-27.3421 16.9188 1 -26.0194 17.3752 1 -37.2122 15.573 1 
-14.5944 28.3525 1 -14.8078 42.9502 1 -28.522 -45.9527 1 
-29.2429 -44.7281 1 -45.0723 12.6715 1 -43.8532 -36.6617 1 
-44.7336 0.777788 1 -18.6563 -21.6826 1 -46.3143 35.5276 1 
-24.9503 31.8307 1 -60.7735 15.6547 1 -31.9974 23.1094 1 
-39.5072 17.0185 1 -39.2094 18.3988 1 -54.6754 -33.5227 1 
-56.2194 15.1238 1 -17.1493 32.1694 1 -17.2225 30.8999 1 
-26.4479 36.9186 1 -25.4923 38.5866 1 -17.9699 -10.2384 1 
-12.0805 -1.70688 1 -15.8456 -36.9592 1 -15.8471 -38.4364 1 
-30.8607 -38.1211 1 -18.0968 -18.1513 1 -44.8839 35.6292 1 
-25.143 -39.7877 1 -27.244 -43.5821 1 -18.0739 -40.727 1 
-33.0153 27.9778 1 -8.91835 20.5935 1 -30.4012 20.8599 1 
-30.326 19.2689 1 -68.4429 -38.0577 1 -68.4708 -39.4842 1 
-47.3209 -16.8076 1 -55.5088 -18.1857 1 -47.1569 -32.4125 1 
-47.4872 -33.89 1 -27.0304 35.1701 1 -28.3729 39.8011 1 
-46.0056 24.6047 1 -38.4061 47.4926 1 -47.9139 -23.9715 1 
-49.4347 -28.7331 1 -56.2416 -29.5565 1 -50.8259 -21.4729 1 
-49.5378 -20.9766 1 -48.6047 -21.774 1 -48.8566 -23.0902 1 
-51.8866 42.703 1 -50.4547 -20.1314 1 -45.9515 26.5536 1 
-70.783 6.54462 1 -62.167 6.98482 1 -51.9597 47.5091 1 
-57.5724 14.156 1 -8.92966 -18.9363 1 -7.95842 -14.6784 1 
-16.1206 11.8277 1 -38.0951 18.7227 1 -17.5365 -25.9504 1 
-17.2838 -23.7496 1 -24.0782 -11.9292 1 -19.9639 -24.9522 1 
-18.4455 -24.2141 1 -18.8793 -25.5825 1 -13.539 -21.6716 1 
-28.2444 -38.191 1 -15.6737 -39.7461 1 -45.9814 -42.214 1 
-22.4331 -14.7251 1 -53.4885 -38.1263 1 -16.1952 -45.7979 1 
-36.2433 -13.9429 1 -20.0214 1.65983 1 -61.8547 -21.7625 1 
-60.785 36.1043 1 -28.72 35.1403 1 -31.2675 29.6549 1 
-30.2577 35.0641 1 -59.368 -19.0421 1 -22.9017 -12.3215 1 
-60.7512 19.6192 1 -59.3268 18.8806 1 -56.2135 13.7013 1 
-57.5798 20.5641 1 -59.26 20.2543 1 -9.88319 21.0171 1 
-29.1001 -39.4941 1 -17.586 -28.6035 1 -28.6267 17.7404 1 
-28.658 16.1938 1 -43.2026 26.7666 1 -48.2966 -20.5114 1 
-37.6211 -36.5641 1 -53.9187 -39.4383 1 -7.71288 18.8161 1 
-49.5255 49.7553 1 -48.2711 49.5931 1 -64.7512 -16.5894 1 
-65.9797 33.0805 1 -32.6838 17.7419 1 -31.3585 18.4037 1 
-47.7571 48.6142 1 -30.9603 16.346 1 -20.7484 -14.1146 1 
-38.0602 41.6309 1 -18.4748 -22.756 1 -31.7981 -23.716 1 
-33.5443 30.0041 1 -17.1561 28.354 1 -39.9468 -36.623 1 
-9.9321 27.2849 1 -38.9272 -36.5818 1 -42.975 -35.3072 1 
-69.4279 -27.5811 1 -22.5693 7.65278 1 -23.7221 7.5923 1 
-70.7399 -30.5726 1 -50.1301 33.7824 1 -56.5463 36.1367 1 
-55.7322 34.3821 1 -61.8031 32.7079 1 -50.5635 24.4801 1 
-25.0611 49.7621 1 -67.2868 -39.9244 1 -67.4051 -41.2472 1 
-68.5218 -40.6029 1 -66.2278 -40.7763 1 -68.5238 -41.6868 1 
-69.6814 -43.4674 1 -70.5701 -10.3253 1 -69.5719 -13.2011 1 
-36.967 -14.6666 1 -11.0116 43.8305 1 -65.9884 18.4676 1 
-68.4981 1.68834 1 -9.56328 45.1852 1 -63.6006 -44.1577 1 
-63.4347 -48.1391 1 -70.7905 34.1289 1 -12.1547 17.2918 1 
-12.2012 15.0944 1 -27.9707 -47.0589 1 -7.89149 -42.7632 1 
-8.84635 -42.4344 1 -31.7762 -44.7715 1 -12.0286 4.45977 1 
-45.7393 -14.0481 1 -8.98352 -31.4238 1 -60.903 -48.173 1 
-21.0942 -46.0545 1 -19.9045 -46.0606 1 -55.9011 -44.6902 1 
-55.2625 -43.5164 1 -53.7852 -16.7959 1 -33.3497 -13.955 1 
-50.6463 45.1825 1 -51.2201 46.3206 1 -23.2264 -0.297063 1 
-70.7797 -19.6806 1 -11.8547 49.8772 1 -35.1871 12.4017 1 
-14.4045 -2.9265 1 -23.429 31.0285 1 -25.0151 29.8131 1 
-9.64941 44.2557 1 -14.6871 -36.4628 1 -65.9582 31.7807 1 
-70.7757 19.7556 1 -44.0267 -30.9244 1 -62.7103 46.5486 1 
-17.4771 -48.0645 1 -12.2908 -34.986 1 -54.159 -14.6704 1 
-55.4738 -15.0284 1 -29.3388 -8.31381 1 -23.1818 32.5667 1 
-55.4708 33.1559 1 -57.4141 33.5761 1 -8.00685 42.1647 1 
-55.9296 -25.7117 1 -39.4022 6.44361 1 -15.9952 22.7743 1 
-17.3574 22.1655 1 -40.8777 16.486 1 -18.847 21.4723 1 
-20.1726 22.1382 1 -39.2304 10.248 1 -39.3281 9.45968 1 
-38.5781 9.69368 1 -35.6556 18.9602 1 -14.3105 -1.69197 1 
-44.3964 -35.1908 1 -26.5909 -13.1772 1 -38.5833 8.73329 1 
-20.9438 -41.401 1 -34.6094 4.02063 1 -39.3281 8.40968 1 
-64.607 25.1328 1 -59.7819 11.1726 1 -55.7112 -24.2381 1 
-41.7068 25.8976 1 -33.7878 47.4964 1 -50.5422 -13.5984 1 
-36.0521 4.7755 1 -36.622 4.06679 1 -35.5789 3.94834 1 
-39.2269 5.51173 1 -9.839 -0.36017 1 -38.181 7.83823 1 
-37.4018 8.02462 1 -60.5841 34.6447 1 -48.9164 39.8547 1 
-39.2269 4.50373 1 -52.5872 -16.4867 1 -53.3559 -15.6019 1 
-53.8801 29.8173 1 -36.2669 3.00812 1 -20.6095 -27.1555 1 
-63.3467 33.0924 1 -21.9293 -26.7893 1 -37.0584 2.42298 1 
-35.884 2.05033 1 -40.502 11.4765 0.497769 -70.5775 -12.6784 1 
-70.5549 16.2121 1 -70.7867 12.628 1 -26.7617 -35.3111 1 
-13.4488 15.5554 1 -14.5497 16.0411 1 -68.4542 -36.8881 1 
-69.5751 -38.5643 1 -34.297 5.00739 1 -12.0956 37.0967 1 
-12.2121 32.1051 1 -22.495 -46.0595 1 -45.1861 -15.9729 1 
-36.1111 47.3692 1 -11.396 48.8309 1 -47.8387 31.066 1 
-64.7667 -14.2053 1 -34.3761 1.0214 1 -62.9177 -47.182 1 
-62.2972 -48.3014 1 -13.4216 21.5572 1 -30.8328 0.712582 1 
-32.0868 0.712582 1 -23.5868 -46.0092 1 -8.02578 -31.8096 1 
-40.5345 24.8489 1 -69.603 -39.9908 1 -70.7339 -39.3439 1 
-32.1264 2.57293 1 -32.5672 1.96691 1 -24.4404 -15.8061 1 
-38.1224 2.80083 1 -37.3309 3.38597 1 -35.0554 -36.3894 1 
-44.7327 25.7118 1 -39.046 2.41196 1 -37.822 1.33796 1 
-29.8944 0.78 1 -30.4488 1.44458 1 -38.0686 29.62 1 
-34.8493 47.5153 1 -35.0827 4.84779 1 -55.6713 24.9813 1 
-7.74778 46.6542 1 -37.6661 5.86407 1 -35.528 6.5844 1 
-34.802 5.8584 1 -38.4819 5.91524 1 -38.3296 6.99223 1 
-30.3972 -8.06733 1 -69.524 44.2382 1 -36.7688 1.08502 1 
-35.2974 3.08041 1 -37.7656 8.80161 1 -32.4711 11.2882 1 
-15.107 40.5022 1 -36.8758 5.32403 1 -37.4456 4.61531 1 
-38.7319 7.88729 1 -39.4022 7.42161 1 -34.7753 1.98672 1 
-27.9283 -42.2438 1 -31.1928 2.18858 1 -26.4549 16.1246 1 
-7.93443 -1.18346 1 -11.092 31.5754 1 -15.9455 -35.6967 1 
-35.3696 0.965317 1 -46.8599 38.3574 1 -35.8386 5.68153 1 
-58.8407 34.2558 1 -28.4992 -43.4125 1 -39.0748 3.45487 1 
-38.1545 3.9345 1 -38.3067 4.98336 1 -30.6475 -22.7109 1 
-44.0723 -15.5355 1 -33.0204 1.09693 1 -31.6336 1.58257 1 
-50.0569 -48.0708 1 -39.3326 -43.5642 1 -41.4972 -8.58323 1.50398 
-7.77093 47.9271 1 -7.82415 49.6415 1 -8.36651 48.6488 1 
-39.0198 -3.02721 1 -34.2909 -7.05352 1 -35.3738 -6.55702 1 
-34.4551 -6.04319 1 -39.2181 -4.64229 1 -38.202 -5.08629 1 
-39.2181 -5.65629 1 -29.7018 -2.78121 1 -30.5961 -2.70526 1 
-30.3801 -3.44326 1 -36.5848 -4.00034 1 -35.5053 -4.11636 1 
-36.1879 -4.96196 1 -35.0919 -7.89199 1 -35.8239 -8.62399 1 
-36.1747 -7.39549 1 -36.7404 -9.3469 1 -37.484 -2.8826 1 
-34.7626 -4.98829 1 -33.7427 -5.27582 1 -34.2158 -4.10111 1 
-33.196 -4.38863 1 -37.2635 -7.3914 1 -37.4526 -6.34363 1 
-38.254 -7.07899 1 -38.1268 -8.10229 1 -38.678 -3.8726 1 
-37.6619 -4.3166 1 -39.1754 -7.56062 1 -38.3897 -6.1517 1 
-37.2649 -5.27822 1 -33.424 -6.28288 1 -35.9187 -3.15495 1 
-35.1324 -2.99862 1 -32.8526 -3.28614 1 -32.0998 -2.74365 1 
-39.2778 -12.3512 1 -32.0666 -4.77414 1 -32.8106 -5.51814 1 
-38.9552 -8.68688 1 -33.5912 -3.13969 1 -31.4641 -3.41171 1 
-36.9885 -8.36168 1 -32.2168 -3.9542 1 -35.4452 -5.8339 1 
-39.3663 -10.622 1 -38.9552 -9.68288 1 -31.1301 -4.19326 1 
-31.5921 -2.70526 1 -36.3639 -6.34773 1 -38.6043 -11.78 1 
-37.8723 -11.048 1 -37.4612 -10.1089 1 -39.1754 -6.54662 1 
-39.3663 -11.582 1 -37.8518 -9.07257 1 -42.6879 -10.4295 1 
-43.0468 -9.48666 1 -43.445 -10.579 1 -43.8039 -9.63616 1 
-51.4308 -2.67953 1 -51.7068 -3.44153 1 -50.8431 -3.32986 1 
-50.497 -2.65101 1 -44.2218 -10.6762 1 -43.4319 -11.6955 1 
-52.3027 -2.76267 1 -42.6879 -11.4735 1 -44.0191 -7.96579 1 
-42.973 -7.46381 1 -43.8874 -6.78148 1 -42.8016 -5.60133 1 
-44.3663 -8.94548 1 -43.0468 -8.52666 1 -42.7771 -4.08069 1 
-43.578 -4.64535 1 -43.7371 -3.04869 1 -44.0872 -3.88427 1 
-48.4651 -6.27261 1 -44.8935 -7.13183 1 -45.6864 -6.41456 1 
-44.6803 -6.0642 1 -48.5329 -3.08086 1 -46.9845 -7.79917 1 
-46.2525 -8.53117 1 -49.0672 -4.1433 1 -47.9417 -4.02263 1 
-49.9333 -3.71345 1 -49.3451 -3.06311 1 -42.9152 -6.31034 1 
-45.971 -7.3952 1 -45.2407 -8.11152 1 -47.7331 -7.00461 1 
-46.8876 -2.94244 1 -46.1605 -4.25842 1 -45.7256 -3.31665 1 
-45.4927 -5.06851 1 -47.1562 -4.73551 1 -46.4885 -5.5456 1 
-42.7507 -12.2847 1 -47.5218 -5.73168 1 -50.041 -4.58111 1 
-50.9508 -4.19753 1 -45.0377 -4.15224 1 -45.5222 -9.24749 1 
-42.7771 -3.04869 1 -44.5108 -2.83626 1 -48.3073 -5.0188 1 
-43.716 -5.909 1 -46.7196 -6.60064 1 -44.5285 -4.91331 1 
-49.2889 -5.30086 1 -44.7842 -9.98549 1 -53.0424 -4.82724 1.49832 
-40.4988 -9.5915 0.503982 -40.5044 -3.52481 1.49729 
CELLS 6566 72226
10 72 165 88 13 9513 9416 9075 2362 9514 9072 
10 78 375 94 511 9229 9516 9087 9515 9500 9366 
10 60 102 86 87 9457 9106 9517 9518 9105 2379 
10 79 512 96 377 9519 9371 9090 9232 9503 9520 
10 103 102 60 87 2398 9457 9458 9098 9105 9518 
10 116 137 153 117 9291 9146 9521 2415 9290 9522 
10 67 364 499 500 9523 9185 9402 9401 9186 2824 
10 356 112 357 493 9247 9248 2673 9482 9524 9483 
10 125 360 2318 496 9525 9527 9526 9393 9489 9528 
10 121 52 104 105 9529 9304 9109 9110 9305 2401 
10 498 9 362 363 9530 9332 9182 9183 9325 2680 
10 84 58 57 100 9531 2345 9532 9100 9453 9452 
10 82 514 97 98 9533 9372 9094 9084 9375 2392 
10 357 111 358 494 9249 9250 2674 9484 9534 9485 
10 127 112 128 493 9124 9125 2428 9390 9524 9387 
10 486 17 29 164 9535 2855 9354 9351 9155 2471 
10 488 352 27 2314 9471 9537 9465 9536 9220 9538 
10 352 15 27 2314 9330 2853 9537 9220 9328 9538 
10 68 121 104 28 9439 9109 9539 9440 2420 9107 
10 93 374 509 510 9540 9497 9365 9364 9498 2835 
10 12 92 76 373 9081 9082 2367 9224 9541 9225 
10 48 366 49 65 9267 9266 2334 9057 9542 9058 
10 27 17 141 29 9543 2444 9544 9436 2855 9144 
10 27 157 29 141 9437 2463 9436 9544 9145 9144 
10 62 369 368 504 9545 2686 9546 9409 9195 9194 
10 365 66 50 49 9547 9060 9264 9265 9059 2335 
10 74 168 90 167 9548 9421 9080 9549 2475 9420 
10 144 345 481 346 9206 5909 9550 9207 2661 5908 
10 74 168 167 151 9548 2475 9549 9334 9176 9177 
10 375 510 93 94 9499 9364 9551 9516 9367 2388 
10 18 23 30 516 9552 9425 2856 9553 9376 9378 
10 69 106 54 53 9554 9331 9070 9065 9307 2340 
10 135 140 120 119 9555 9296 9141 9139 9295 2418 
10 65 502 48 366 9405 9556 9057 9542 9190 9267 
10 478 18 516 342 9557 9553 9336 6214 9200 9558 
10 155 154 138 134 2460 9148 9149 9430 9431 9559 
10 489 115 15 353 9560 2413 9561 9475 9241 9277 
10 12 508 92 373 9562 9363 9081 9224 9495 9541 
10 365 66 500 50 9547 9404 9187 9264 9060 9563 
10 14 497 2317 2315 9564 9398 9565 9260 9566 9567 
10 84 58 85 42 9531 9568 2377 9318 9042 9317 
10 75 169 168 152 9569 2476 9570 9284 9171 9178 
10 356 128 493 492 9571 9387 9482 9481 9388 2816 
10 501 366 502 65 9189 9190 2826 9406 9542 9405 
10 34 506 507 35 9180 9359 9491 2858 2831 2832 
10 2317 2315 362 9 9567 9259 9572 9573 9333 9332 
10 169 11 18 152 9574 9286 9170 9171 9287 2457 
10 2318 360 125 109 9527 9525 9526 9575 9254 9120 
10 75 169 152 11 9569 9171 9284 2366 9574 9287 
10 11 82 98 380 2374 9084 9083 9239 9238 9576 
10 165 88 13 25 9416 9072 9514 9415 2381 2848 
10 26 14 21 108 2852 9577 9448 9108 2405 9578 
10 486 17 350 351 9535 9216 5487 5486 9217 2666 
10 490 354 491 130 9477 9478 2814 9384 9579 9383 
10 75 169 11 91 9569 9574 2366 9074 9423 9073 
10 75 169 91 168 9569 9423 9074 9570 2476 9422 
10 2317 497 14 26 9398 9564 9565 9399 9395 2852 
10 159 344 480 345 9580 5912 9342 9581 2660 5911 
10 159 144 481 160 9160 9550 9341 2466 9159 9344 
10 159 344 345 143 9580 2660 9581 9168 9204 9205 
10 509 374 76 373 9497 9226 9582 9496 2692 9225 
10 485 486 164 350 2808 9351 9352 5501 5487 9583 
10 48 502 65 64 9556 9405 9057 9056 9408 2353 
10 151 168 152 75 9176 9178 2456 9285 9570 9284 
10 347 146 348 483 9210 9211 2663 5899 9584 5898 
10 356 113 128 492 9246 9126 9571 9481 9585 9388 
10 92 509 76 373 9362 9582 9082 9541 9496 9225 
10 145 346 482 347 9208 5907 9586 9209 2662 5906 
10 113 112 356 128 2410 9247 9246 9126 9125 9571 
10 508 509 92 373 2834 9362 9363 9495 9496 9541 
10 2314 17 27 2316 9221 9543 9538 9587 9588 9463 
10 365 366 501 49 2683 9189 9188 9265 9266 9589 
10 78 375 93 94 9229 9551 9088 9087 9516 2388 
10 66 365 501 49 9547 9188 9403 9059 9265 9589 
10 352 36 2314 488 2668 9219 9220 9471 9470 9536 
10 513 80 377 378 9590 9233 9504 9505 9234 2696 
10 144 346 481 160 9207 5908 9550 9159 9591 9344 
10 343 344 479 142 2659 5923 5924 9202 9203 9592 
10 40 57 84 41 9039 9532 9315 2325 9040 9316 
10 515 516 381 781 2841 9510 9509 9593 9594 3834 
10 79 512 377 376 9519 9503 9232 9231 9502 2695 
10 58 84 41 42 9531 9316 9041 9042 9318 2326 
10 107 106 70 123 2403 9596 9595 9114 9113 9444 
10 61 369 504 505 9597 9195 9412 9411 9196 2829 
10 19 28 31 13 9598 9438 2854 9279 9599 9600 
10 507 34 372 371 9491 2690 9492 9601 2689 9222 
10 99 88 25 83 2990 2381 2394 9099 9602 9096 
10 79 78 95 376 2370 9089 9091 9231 9230 9603 
10 377 512 96 513 9503 9371 9520 9504 2838 9370 
10 2314 17 2316 351 9221 9588 9587 9218 9217 9604 
10 486 17 164 350 9535 9155 9351 5487 9216 9583 
10 2316 36 488 2314 9605 9470 9358 9587 9219 9536 
10 100 58 85 84 9453 9568 9102 9100 9531 2377 
10 15 115 489 27 2413 9560 9561 2853 9118 9413 
10 24 12 508 92 2850 9562 9360 2386 9081 9363 
10 12 508 373 372 9562 9495 9224 9223 9494 2691 
10 36 2316 351 2314 9605 9604 2667 9219 9587 9218 
10 57 83 99 22 9606 9099 9451 2344 9607 9450 
10 487 36 37 2316 5930 2859 2810 9356 9605 9355 
10 376 511 95 512 9501 9369 9603 9502 2837 9368 
10 57 58 84 41 2345 9531 9532 9040 9041 9316 
10 351 2316 36 487 9604 9605 2667 5929 9356 5930 
10 537 78 536 547 2954 2953 2956 9608 9609 9610 
10 506 8 371 507 9611 9276 9181 9359 9612 9601 
10 495 125 126 109 9394 2426 9391 9613 9120 9121 
10 541 96 545 535 9614 3022 9615 2973 9616 9617 
10 489 490 115 353 2813 9618 9560 9475 9476 9241 
10 16 22 13 10 9619 9620 9300 9302 2845 9301 
10 22 13 10 40 9620 9301 2845 9037 9314 2324 
10 107 71 108 124 9621 9622 2404 9115 9445 9116 
10 119 2321 140 139 9623 9624 9295 9294 9625 2442 
10 16 22 10 104 9619 2845 9302 2400 9626 9303 
10 2322 132 153 31 9627 9426 9628 9629 9427 2458 
10 55 56 107 71 2342 9310 9309 9067 9069 9621 
10 16 22 104 28 9619 9626 2400 2851 9460 9107 
10 15 352 27 489 9330 9537 2853 9561 9474 9413 
10 93 374 510 375 9540 9498 9364 9551 2693 9499 
10 33 497 361 2315 2821 9473 9472 9630 9566 9257 
10 381 11 516 515 9240 9631 9510 9509 9632 2841 
10 14 497 361 360 9564 9473 9256 9255 9490 2677 
10 124 123 107 71 2423 9114 9115 9445 9446 9621 
10 16 132 116 2322 9132 9136 2414 9633 9627 9634 
10 72 165 13 149 9513 9514 2362 9281 9173 9278 
10 497 14 361 2315 9564 9256 9473 9566 9260 9257 
10 342 38 381 516 2657 2700 9199 9558 9493 9510 
10 363 67 499 21 9635 9402 9184 9636 2356 9462 
10 372 24 508 507 9637 9360 9494 9492 9361 2833 
10 342 478 39 516 6214 2800 9512 9558 9336 2842 
10 354 115 130 490 9242 9130 9579 9477 9618 9384 
10 372 24 507 8 9637 9361 9492 9327 9638 9612 
10 354 114 130 115 9243 9129 9579 9242 2412 9130 
10 533 67 50 523 2933 9061 9639 9640 9641 2891 
10 159 345 480 481 9581 5911 9342 9341 5909 2803 
10 513 80 96 377 9590 9095 9370 9504 9233 9520 
10 68 22 104 52 2357 9626 9539 9064 9062 9304 
10 8 507 372 371 9612 9492 9327 9276 9601 9222 
10 60 44 86 43 9046 9322 9517 9045 2328 9319 
10 49 366 501 65 9266 9189 9589 9058 9542 9406 
10 121 52 105 53 9529 9305 9110 9642 2339 9306 
10 372 24 8 12 9637 9638 9327 9223 2850 9323 
10 18 23 516 11 9552 9376 9553 9286 2849 9631 
10 144 145 346 160 2448 9208 9207 9159 9162 9591 
10 83 22 40 13 9607 9037 9313 2375 9620 9314 
10 48 367 502 64 9268 9191 9556 9056 9643 9408 
10 22 13 25 28 9620 2848 9449 9460 9599 9464 
10 61 370 369 505 9644 2687 9597 9411 9197 9196 
10 167 73 151 150 9645 9282 9177 9174 9283 2455 
10 354 114 491 130 9243 9646 9478 9579 9129 9383 
10 2319 44 8 87 9647 2329 9648 9649 9321 9324 
10 484 147 162 348 9650 9166 9347 5891 9212 9651 
10 353 352 15 489 2669 9330 9277 9475 9474 9561 
10 110 495 126 109 9652 9391 9131 2407 9613 9121 
10 16 22 28 13 9619 9460 2851 9300 9620 9599 
10 22 104 52 10 9626 9304 9062 2845 9303 2338 
10 498 363 499 21 9183 9184 2823 9466 9636 9462 
10 348 146 162 483 9211 9163 9651 5898 9584 9348 
10 367 63 503 64 9653 9467 9192 9643 2352 9407 
10 77 509 76 92 9654 9582 2368 9086 9362 9082 
10 121 52 53 68 9529 2339 9642 9439 9064 9066 
10 126 111 127 494 9122 9123 2427 9392 9534 9389 
10 375 78 376 511 9229 9230 2694 9500 9515 9501 
10 488 2314 27 2316 9536 9538 9465 9358 9587 9463 
10 496 495 2318 125 2819 9655 9528 9393 9394 9526 
10 368 46 62 63 9271 9052 9546 9656 9053 2351 
10 47 46 368 63 2332 9271 9270 9054 9053 9656 
10 18 23 11 169 9552 2849 9286 9170 9424 9574 
10 357 127 494 493 9657 9389 9484 9483 9390 2817 
10 61 45 370 8 9050 9274 9644 9047 2330 9275 
10 90 89 73 167 2383 9077 9078 9420 9419 9645 
10 352 488 27 489 9471 9465 9537 9474 2812 9413 
10 485 484 349 163 2807 5890 5502 9349 9350 9658 
10 74 168 151 75 9548 9176 9334 2365 9570 9285 
10 2320 158 30 18 9659 2464 9660 9661 9154 2856 
10 27 15 120 141 2853 2419 9133 9544 9298 9297 
10 86 59 85 102 9662 9663 2378 9106 9456 9104 
10 85 59 43 42 9663 9044 9320 9317 9043 2327 
10 111 126 358 494 9122 9664 9250 9534 9392 9485 
10 147 484 162 163 9650 9347 9166 9165 9350 2469 
10 506 8 507 20 9611 9612 9359 9469 2846 9379 
10 93 374 375 77 9540 2693 9551 9085 9227 9228 
10 17 148 164 350 2452 9156 9155 9216 9215 9583 
10 2322 28 132 31 9665 2433 9627 9629 9438 9427 
10 81 513 96 97 9666 9370 9093 9092 9373 2391 
10 27 17 29 2316 9543 2855 9436 9463 9588 9357 
10 532 519 47 63 9667 2871 9668 2930 9669 9054 
10 128 113 129 492 9126 9127 2429 9388 9585 9385 
10 113 355 114 129 9245 9244 2411 9127 9670 9128 
10 346 160 482 481 9591 9343 5907 5908 9344 2804 
10 8 24 507 20 9638 9361 9612 2846 9380 9379 
10 509 77 93 92 9654 9085 9365 9362 9086 2387 
10 486 17 351 29 9535 9217 5486 9354 2855 9671 
10 83 22 13 25 9607 9620 2375 9096 9449 2848 
10 83 22 25 99 9607 9449 9096 9099 9450 2394 
10 148 485 349 163 9672 5502 9214 9167 9349 9658 
10 487 486 351 29 2809 5486 5929 9353 9354 9671 
10 27 141 136 157 9544 9673 2438 9437 9145 9434 
10 506 370 20 505 9198 9674 9469 2830 9197 9461 
10 123 70 107 71 9444 9595 9114 9446 2360 9621 
10 70 55 107 71 9068 9309 9595 2360 9067 9621 
10 365 66 501 500 9547 9403 9188 9187 9404 2825 
10 70 106 107 55 9596 2403 9595 9068 9308 9309 
10 533 55 523 521 9675 2897 9640 9676 2882 2904 
10 62 528 63 519 2915 2916 2351 9677 9678 9669 
10 90 167 73 74 9420 9645 9078 9080 9549 2364 
10 11 18 381 516 9286 9326 9240 9631 9553 9510 
10 67 364 363 499 9523 2681 9635 9402 9185 9184 
10 363 364 67 51 2681 9523 9635 9261 9262 9049 
10 533 66 50 67 2935 9060 9639 2933 2355 9061 
10 495 110 359 109 9652 9252 9487 9613 2407 9253 
10 368 369 62 46 2686 9545 9546 9271 9272 9052 
10 366 48 367 502 9267 9268 2684 9190 9556 9191 
10 40 517 57 41 2863 9679 9039 2325 2862 9040 
10 2317 14 9 21 9565 9335 9573 9468 9577 2847 
10 45 61 369 62 9050 9597 9273 9051 2350 9545 
10 46 45 369 62 2331 9273 9272 9052 9051 9545 
10 136 141 27 120 9673 9544 2438 9134 9297 9133 
10 529 520 525 530 9680 2895 9681 2921 9682 9683 
10 89 88 72 166 2382 9075 9076 9418 9417 9684 
10 136 157 141 140 9434 9145 9673 9685 9153 2443 
10 2323 1827 1668 936 9686 7192 9687 9688 9689 9690 
10 66 533 521 530 2935 9676 9691 2920 2936 9692 
10 495 110 358 359 9652 9251 9486 9487 9252 2675 
10 33 2315 361 32 9630 9257 9472 2857 9258 2678 
10 364 365 500 50 2682 9187 9186 9263 9264 9563 
10 18 23 169 30 9552 9424 9170 2856 9425 2477 
10 2322 28 31 19 9665 9438 9629 9693 9598 2854 
10 57 83 22 40 9606 9607 2344 9039 9313 9037 
10 57 83 40 84 9606 9313 9039 9532 2376 9315 
10 62 368 63 503 9546 9656 2351 9410 9193 9467 
10 33 497 2315 2317 2821 9566 9630 9397 9398 9567 
10 2315 14 9 2317 9260 9335 9333 9567 9565 9573 
10 520 64 48 65 9694 9056 2874 9695 2353 9057 
10 100 99 57 84 2395 9451 9452 9100 9101 9532 
10 148 485 163 164 9672 9349 9167 9156 9352 2470 
10 57 83 84 99 9606 2376 9532 9451 9099 9101 
10 26 124 108 21 2424 9116 9108 9448 9447 9578 
10 2323 1668 1827 1667 9687 7192 9686 9696 6716 7191 
10 26 14 2317 21 2852 9565 9399 9448 9577 9468 
10 101 102 85 59 2397 9104 9103 9455 9456 9663 
10 478 18 342 343 9557 9200 6214 6213 9201 2658 
10 125 495 2318 109 9394 9655 9526 9120 9613 9575 
10 139 134 155 138 9697 9430 9150 2441 9559 9149 
10 2323 1668 748 936 9687 9699 9698 9688 9690 4300 
10 79 512 376 95 9519 9502 9231 9091 9368 9603 
10 139 134 138 118 9697 9559 2441 9293 9142 9292 
10 115 490 489 131 9618 2813 9560 9119 9381 9382 
10 484 348 162 483 5891 9651 9347 2806 5898 9348 
10 143 144 345 159 2447 9206 9205 9168 9160 9581 
10 80 79 96 377 2371 9090 9095 9233 9232 9520 
10 22 68 104 28 2357 9539 9626 9460 9440 9107 
10 78 77 93 375 2369 9085 9088 9229 9228 9551 
10 14 9 21 108 9335 2847 9577 2405 9312 9578 
10 369 370 61 45 2687 9644 9597 9273 9274 9050 
10 2319 44 20 8 9647 9038 9700 9648 2329 2846 
10 44 2319 20 60 9647 9700 9038 9046 9701 2348 
10 498 9 363 21 9530 9325 9183 9466 2847 9636 
10 516 1700 1701 781 6808 6812 6810 9594 9702 9703 
10 516 38 381 782 9493 2700 9510 9704 3837 3838 
10 146 161 162 483 9164 2468 9163 9584 9345 9348 
10 367 63 64 47 9653 2352 9643 9269 9054 9055 
10 166 73 150 72 9705 9283 9175 9684 2363 9280 
10 33 2315 362 2317 9630 9259 9179 9397 9567 9572 
10 362 2315 33 32 9259 9630 9179 2679 9258 2857 
10 484 147 349 163 9650 9213 5890 9350 9165 9658 
10 123 122 106 69 2422 9112 9113 9443 9441 9554 
10 357 112 127 493 9248 9124 9657 9483 9524 9390 
10 13 25 28 31 2848 9464 9599 9600 9414 9438 
10 69 123 70 106 9443 9444 2359 9554 9113 9596 
10 61 43 45 44 9706 2886 9050 9707 2328 2870 
10 527 58 57 41 2910 2345 2909 9708 9041 9040 
10 135 136 120 140 2437 9134 9141 9555 9685 9296 
10 165 13 19 31 9514 9279 9169 2472 9600 2854 
10 532 519 524 47 9667 2888 9709 9668 2871 2887 
10 13 165 25 31 9514 9415 2848 9600 2472 9414 
10 19 28 13 16 9598 9599 9279 9288 2851 9300 
10 2322 28 19 16 9665 9598 9693 9633 2851 9288 
10 85 59 58 101 9663 2346 9568 9103 9455 9454 
10 27 17 2314 15 9543 9221 9538 2853 9299 9328 
10 73 167 151 74 9645 9177 9282 2364 9549 9334 
10 58 59 85 42 2346 9663 9568 9042 9043 9317 
10 355 491 129 492 9479 9386 9670 9480 2815 9385 
10 61 370 20 8 9644 9674 2349 9047 9275 2846 
10 491 114 129 130 9646 9128 9386 9383 9129 2430 
10 372 24 12 508 9637 2850 9223 9494 9360 9562 
10 125 14 109 360 9117 2406 9120 9525 9255 9254 
10 355 113 356 492 9245 9246 2672 9480 9585 9481 
10 478 2320 18 343 9710 9661 9557 6213 9711 9201 
10 49 520 65 530 2873 9695 9058 9712 9682 2919 
10 2322 28 16 132 9665 2851 9633 9627 2433 9132 
10 380 11 381 515 9239 9240 2699 9508 9632 9509 
10 69 53 525 531 9065 2896 9713 2923 9714 9715 
10 64 47 532 48 9055 9668 2931 9056 2333 9716 
10 113 355 129 492 9245 9670 9127 9585 9480 9385 
10 522 526 525 531 2903 2900 2898 9717 9718 9715 
10 23 11 98 515 2849 9083 2393 9377 9632 9374 
10 86 59 43 85 9662 9044 9319 2378 9663 9320 
10 2323 748 1668 1667 9698 9699 9687 9696 9719 6716 
10 140 136 120 141 9685 9134 9296 2443 9673 9297 
10 156 135 140 136 9432 9555 9152 9435 2437 9685 
10 11 380 98 515 9239 9576 9083 9632 9508 9374 
10 27 115 489 131 9118 9560 9413 2432 9119 9382 
10 121 53 105 122 9642 9306 9110 2421 9720 9111 
10 72 166 149 150 9684 9172 9281 9280 9175 2454 
10 100 101 85 58 2396 9103 9102 9453 9454 9568 
10 166 73 72 89 9705 2363 9684 9418 9077 9076 
10 166 73 89 167 9705 9077 9418 2474 9645 9419 
10 166 73 167 150 9705 9645 2474 9175 9283 9174 
10 47 524 532 48 2887 9709 9668 2333 2890 9716 
10 17 2316 351 29 9588 9604 9217 2855 9357 9671 
10 108 71 107 56 9622 9621 2404 9311 9069 9310 
10 122 105 106 53 9111 2402 9112 9720 9306 9307 
10 90 91 168 75 2384 9422 9421 9079 9074 9570 
10 69 122 106 53 9441 9112 9554 9065 9720 9307 
10 62 368 503 504 9546 9193 9410 9409 9194 2828 
10 121 53 122 69 9642 9720 2421 9442 9065 9441 
10 27 17 15 141 9543 9299 2853 9544 2444 9298 
10 11 23 516 515 2849 9376 9631 9632 9377 2841 
10 2316 487 351 29 9356 5929 9604 9357 9353 9671 
10 86 59 102 60 9662 9456 9106 9517 2347 9457 
10 485 148 349 350 9672 9214 5502 5501 9215 2665 
10 364 67 50 500 9523 9061 9263 9186 9401 9563 
10 67 66 50 500 2355 9060 9061 9401 9404 9563 
10 506 8 370 371 9611 9275 9198 9181 9276 2688 
10 158 2320 479 142 9659 9721 9340 9158 9722 9592 
10 506 34 507 371 9180 9491 9359 9181 2689 9601 
10 71 55 523 533 9067 2897 9723 2934 9675 9640 
10 86 59 60 43 9662 2347 9517 9319 9044 9045 
10 14 497 360 26 9564 9490 9255 2852 9395 9724 
10 497 496 360 26 2820 9489 9490 9395 9396 9724 
10 74 168 75 90 9548 9570 2365 9080 9421 9079 
10 496 26 125 360 9396 2425 9393 9489 9724 9525 
10 26 14 125 360 2852 9117 2425 9724 9255 9525 
10 526 517 518 527 2906 2866 2905 9725 9726 9727 
10 156 157 136 140 2462 9434 9435 9152 9153 9685 
10 72 165 149 166 9513 9173 9281 9684 2473 9172 
10 67 363 9 21 9635 9325 9048 2356 9636 2847 
10 511 78 95 94 9515 9089 9369 9366 9087 2389 
10 72 165 166 88 9513 2473 9684 9075 9416 9417 
10 165 13 149 19 9514 9278 9173 9169 9279 2453 
10 33 498 2317 362 2822 9400 9397 9179 9182 9572 
10 367 502 64 503 9191 9408 9643 9192 2827 9407 
10 145 146 347 161 2449 9210 9209 9161 9164 9728 
10 110 111 126 358 2408 9122 9131 9251 9250 9664 
10 112 356 128 493 9247 9571 9125 9524 9482 9387 
10 495 110 126 358 9652 9131 9391 9486 9251 9664 
10 77 374 76 509 9227 9226 2368 9654 9497 9582 
10 112 111 357 127 2409 9249 9248 9124 9123 9657 
10 66 49 501 65 9059 9589 9403 2354 9058 9406 
10 111 357 127 494 9249 9657 9123 9534 9484 9389 
10 158 2320 142 18 9659 9722 9158 9154 9661 2445 
10 48 47 367 64 2333 9269 9268 9056 9055 9643 
10 40 517 52 68 2863 2899 2861 9729 9730 9064 
10 370 61 20 505 9644 2349 9674 9197 9411 9461 
10 62 43 59 519 9731 9044 2927 9677 2867 9732 
10 93 374 77 509 9540 9227 9085 9365 9497 9654 
10 38 342 39 516 2657 9512 2860 9493 9558 2842 
10 158 2320 30 479 9659 9660 2464 9340 9721 9337 
10 478 2320 343 479 9710 9711 6213 2801 9721 5924 
10 490 115 130 131 9618 9130 9384 9381 9119 2431 
10 69 70 54 106 2359 9071 9070 9554 9596 9331 
10 160 145 482 161 9162 9586 9343 2467 9161 9346 
10 513 80 378 81 9590 9234 9505 9666 2372 9235 
10 49 66 521 530 9059 9691 2876 9712 2920 9692 
10 70 55 54 106 9068 2341 9071 9596 9308 9331 
10 134 138 118 117 9559 9292 9142 9137 9329 2416 
10 478 18 30 516 9557 2856 9338 9336 9553 9378 
10 62 43 519 46 9731 2867 9677 9052 2883 2872 
10 161 347 482 483 9728 5906 9346 9345 5899 2805 
10 18 342 381 516 9200 9199 9326 9553 9558 9510 
10 114 355 491 129 9244 9479 9646 9128 9670 9386 
10 159 344 143 142 9580 9204 9168 9157 9203 2446 
10 346 145 482 160 9208 9586 5907 9591 9162 9343 
10 158 479 480 142 9340 2802 9339 9158 9592 9733 
10 479 344 480 142 5923 5912 2802 9592 9203 9733 
10 147 146 162 348 2450 9163 9166 9212 9211 9651 
10 369 61 504 62 9597 9412 9195 9545 2350 9409 
10 498 9 21 2317 9530 2847 9466 9400 9573 9468 
10 488 36 2316 37 9470 9605 9358 2811 2859 9355 
10 495 126 494 358 9391 9392 2818 9486 9664 9485 
10 71 56 21 67 9069 9063 2361 2922 9734 2356 
10 354 355 491 114 2671 9479 9478 9243 9244 9646 
10 498 9 2317 362 9530 9573 9400 9182 9332 9572 
10 159 344 142 480 9580 9203 9157 9342 5912 9733 
10 367 63 47 368 9653 9054 9269 2685 9656 9270 
10 367 63 368 503 9653 9656 2685 9192 9467 9193 
10 159 158 480 142 2465 9339 9342 9157 9158 9733 
10 514 380 515 98 9507 9508 2840 9375 9576 9374 
10 82 380 514 98 9238 9507 9533 9084 9576 9375 
10 148 485 164 350 9672 9352 9156 9215 5501 9583 
10 2319 103 60 87 9735 9458 9701 9649 9098 9518 
10 354 353 115 490 2670 9241 9242 9477 9476 9618 
10 2319 103 20 60 9735 9459 9700 9701 9458 2348 
10 375 510 94 511 9499 9367 9516 9500 2836 9366 
10 506 8 20 370 9611 2846 9469 9198 9275 9674 
10 379 82 380 514 9237 9238 2698 9511 9533 9507 
10 376 78 95 511 9230 9089 9603 9501 9515 9369 
10 119 2321 135 140 9623 9736 9139 9295 9624 9555 
10 513 80 81 96 9590 2372 9666 9370 9095 9093 
10 345 144 481 159 9206 9550 5909 9581 9160 9341 
10 79 512 95 96 9519 9368 9091 9090 9371 2390 
10 514 81 97 513 9737 9092 9372 2839 9666 9373 
10 42 528 59 519 9738 2912 9043 2868 9678 9732 
10 44 60 86 87 9046 9517 9322 9321 9518 2379 
10 154 133 138 134 9428 9739 9148 9431 2435 9559 
10 2323 748 747 936 9698 3740 9740 9688 4300 4301 
10 528 62 59 519 2915 2927 2912 9678 9677 9732 
10 514 82 97 81 9533 9094 9372 9737 2373 9092 
10 55 71 523 56 9067 9723 2897 2342 9069 2884 
10 363 67 9 51 9635 9048 9325 9261 9049 2337 
10 121 53 69 68 9642 9065 9442 9439 9066 2358 
10 514 82 81 379 9533 2373 9737 9511 9237 9236 
10 133 154 138 153 9428 9148 9739 9429 2459 9147 
10 526 531 529 525 9718 2943 9741 2900 9715 9681 
10 56 9 108 21 2343 9312 9311 9063 2847 9578 
10 58 518 41 527 9742 2865 9041 2910 9727 9708 
10 121 52 68 104 9529 9064 9439 9109 9304 9539 
10 2319 87 12 103 9649 2380 9743 9735 9098 9097 
10 71 56 108 21 9069 9311 9622 2361 9063 9578 
10 42 528 518 58 9738 9744 2864 9042 2911 9742 
10 2322 132 116 153 9627 9136 9634 9628 9426 9521 
10 145 347 482 161 9209 5906 9586 9161 9728 9346 
10 147 148 349 163 2451 9214 9213 9165 9167 9658 
10 364 67 51 50 9523 9049 9262 9263 9061 2336 
10 132 133 116 153 2434 9135 9136 9426 9429 9521 
10 44 2319 60 87 9647 9701 9046 9321 9649 9518 
10 137 138 153 117 2440 9147 9146 9290 9329 9522 
10 146 347 161 483 9210 9728 9164 9584 5899 9345 
10 124 71 108 21 9445 9622 9116 9447 2361 9578 
10 134 133 138 117 2435 9739 9559 9137 9138 9329 
10 138 133 153 117 9739 9429 9147 9329 9138 9522 
10 23 11 169 91 2849 9574 9424 2385 9073 9423 
10 133 116 153 117 9135 9521 9429 9138 2415 9522 
10 147 484 349 348 9650 5890 9213 9212 5891 2664 
10 847 846 1752 1593 4036 9747 9745 9746 9748 6965 
10 933 1824 744 745 9749 9750 4292 4291 9751 3731 
10 757 945 944 1835 4326 4327 4322 9752 9753 9754 
10 1061 1776 1062 878 9755 9756 4685 4681 9757 4683 
10 1127 1988 2113 1987 9758 8059 9759 9760 7672 8058 
10 1309 2037 1199 2126 9761 9763 5571 9762 8101 9764 
10 1841 1988 953 952 7670 9767 9765 9766 9768 4348 
10 1961 1102 1810 1811 9769 9770 7594 7593 9771 7146 
10 1102 1960 1810 1101 9772 7590 9770 4804 9773 9774 
10 768 1687 1844 955 9775 7241 9776 4352 9777 9778 
10 1680 361 1679 759 9779 9781 6751 9780 3770 9782 
10 928 1000 1950 1109 4502 9784 9783 4826 4827 9785 
10 1186 1339 2030 1338 5545 9787 9786 5543 5547 9788 
10 1263 1958 1262 2086 9789 9791 5292 9790 7981 9792 
10 1263 1264 1959 2087 5295 9795 9793 9794 9796 7984 
10 1402 2089 1267 1266 9797 9798 5741 5740 9799 5304 
10 1814 924 1656 925 9800 9802 7153 9801 4270 9803 
10 687 880 688 1619 4133 4134 3561 9804 9805 9806 
10 729 728 919 1651 3684 4250 4251 9807 9808 9809 
10 720 1803 911 1645 9810 9812 4226 9811 7120 9813 
10 1112 2099 1111 1974 9814 9816 4836 9815 8020 9817 
10 1695 1696 376 776 6797 9820 9818 9819 9821 3819 
10 1996 1995 1134 963 7697 9824 9822 9823 9825 4898 
10 777 1852 964 963 9826 9827 4378 4374 9828 4379 
10 1578 1738 829 1579 6924 9830 9829 6450 6923 9831 
10 616 400 399 1562 9832 2719 9833 9834 6396 6397 
10 660 851 1597 1596 4047 9837 9835 9836 9838 6504 
10 1663 744 346 743 9839 3727 9840 9841 3728 3723 
10 1176 2023 1878 1175 9842 7792 9843 5031 9844 9845 
10 2238 2243 2214 1409 8733 8734 8488 9846 9847 9848 
10 346 744 1663 482 3727 9839 9840 5907 9849 6700 
10 931 742 1822 1821 4286 9852 9850 9851 9853 7178 
10 1972 931 1822 1971 9854 9850 7624 7626 9855 7622 
10 594 1545 857 595 9856 9857 4066 3281 9858 4393 
10 757 758 1678 359 3769 9860 9859 3764 3768 9861 
10 1249 1984 2110 2109 9862 8050 9863 9864 8048 8052 
10 1623 324 693 463 9865 3575 9866 6581 8862 9867 
10 1110 1278 2108 1118 5334 9869 9868 4852 5333 9870 
10 2188 2265 2292 1493 8571 8674 8673 9871 9872 9873 
10 1023 1022 974 1861 4568 4963 5090 9874 9875 9876 
10 1851 1852 777 963 7266 9826 9877 9878 9828 4374 
10 1212 1911 1211 2047 9879 9881 5142 9880 7863 9882 
10 2010 938 1795 974 9883 9885 7748 9884 4419 9886 
10 2276 2288 2278 1444 8791 8655 8790 9887 9888 9889 
10 1554 800 799 606 9890 3894 9891 9892 3892 3890 
10 229 599 1549 386 3292 9894 9893 8995 9895 6358 
10 814 999 860 1763 4499 4500 4428 9896 9897 9898 
10 992 1720 991 1876 9899 9901 4479 9900 7338 9902 
10 1059 1226 1928 1927 5183 9905 9903 9904 9906 7496 
10 613 242 397 243 3333 9014 9907 3334 2555 9015 
10 1531 1438 2295 2272 6259 9910 9908 9909 9911 8594 
10 1485 2260 2208 2212 9912 8600 9913 9914 8559 8381 
10 1157 2007 1212 2047 9915 9917 5569 9916 8127 9880 
10 379 378 514 1698 2697 9506 9511 9918 9919 6802 
10 399 1561 398 244 6393 6394 2718 9030 9920 9029 
10 668 443 1603 299 9921 6521 9922 3500 8824 9923 
10 1143 938 2010 974 4927 9883 9924 4928 4419 9884 
10 2004 1114 1976 2129 9925 9926 7723 8111 9927 8110 
10 1764 1969 1761 1047 7614 7615 7006 9928 9929 9930 
10 1275 1114 2129 1976 5325 9927 9931 9932 9926 8110 
10 2023 1331 1332 2209 9933 5523 9934 8369 9935 9936 
10 1006 1727 818 1005 9937 9938 4515 4517 9939 4513 
10 1117 1861 1022 1867 9940 9875 5367 9941 7318 9942 
10 1891 1890 1013 1190 7383 9945 9943 9944 9946 5071 
10 1078 895 1789 1079 4732 9948 9947 4736 4734 9949 
10 359 1677 1678 757 9950 6745 9861 3764 9951 9859 
10 1308 2013 2140 2195 9952 8163 9953 9954 8324 8456 
10 641 1581 640 832 9955 9956 3420 3990 9957 3989 
10 1452 2145 1333 1332 9958 9959 5932 5931 9960 5526 
10 1581 641 270 420 9955 3418 9961 6454 9962 8931 
10 1946 2140 1124 2013 8164 9964 9963 7760 8163 9965 
10 317 687 459 1618 3556 9967 8853 9966 9968 6565 
10 1790 896 897 1080 9969 4186 9970 9971 4737 4738 
10 1121 1985 2036 2110 9972 8353 9973 9974 8051 8352 
10 1082 1791 898 1081 9975 9976 4743 4745 9977 4741 
10 1033 846 1751 1752 4597 9980 9978 9979 9747 6967 
10 2110 2035 2036 1312 8388 7832 8352 9981 9982 9983 
10 1730 1731 1007 820 6904 9986 9984 9985 9987 4519 
10 636 1577 265 635 9988 9989 3403 3405 9990 3401 
10 697 889 1626 696 4161 9992 9991 3588 4160 9993 
10 1560 613 397 243 9994 9907 6391 9995 3334 9015 
10 1861 948 1022 974 9996 4964 9875 9876 4421 4963 
10 862 669 861 1604 4079 4077 4081 9997 9998 9999 
10 188 733 189 1655 10000 10001 2499 6677 10002 6676 
10 610 395 239 1557 10003 9010 3324 10004 6381 10005 
10 1217 1921 1051 1920 10006 10008 5157 10007 7475 10009 
10 1985 1121 2036 2015 9972 9973 8353 7768 10010 8332 
10 247 246 617 400 2559 3345 3346 9019 9035 10011 
10 246 616 617 400 3343 3347 3345 9035 9832 10011 
10 1769 1054 1053 870 10012 4661 10013 10014 4659 4657 
10 2150 1418 2296 2242 10015 10016 8691 8500 10017 8692 
10 995 994 1879 1722 4488 10020 10018 10019 10021 7348 
10 607 393 237 392 10022 9006 3316 10023 2712 9005 
10 308 451 450 677 8839 2772 8838 3527 10024 10025 
10 806 1720 991 992 10026 9901 4475 4477 9899 4479 
10 452 451 678 1611 2773 10028 10027 6544 6545 10029 
10 1045 1918 1761 1762 10030 7464 10031 10032 7465 6999 
10 1724 811 1563 618 10033 10035 6884 10034 3926 10036 
10 466 697 327 328 10037 3586 8898 8868 3587 2642 
10 2094 1160 1868 2130 10038 10039 8006 8113 10040 8112 
10 1390 1485 1486 2208 6042 6045 6043 10041 9913 10042 
10 1237 1937 2066 1938 10043 7921 10044 10045 7526 7920 
10 1625 695 887 1624 10046 4155 10047 6588 10048 10049 
10 1626 466 696 1625 6590 10050 9993 6591 6586 10051 
10 1625 888 1783 887 10052 10053 7061 10047 4159 10054 
10 1132 1314 2136 1294 5460 10056 10055 5385 5463 10057 
10 2026 1328 1327 1172 10058 5511 10059 10060 5509 5507 
10 1060 1059 1774 876 4679 10062 10061 4677 4675 10063 
10 991 1173 1876 1172 5020 10064 9902 5018 5022 10065 
10 1584 836 644 645 10066 4001 10067 10068 4002 3432 
10 1720 1719 991 1876 6873 10069 9901 7338 7339 9902 
10 1736 1015 1014 827 10070 4544 10071 10072 4542 4540 
10 1509 2177 1536 2257 10073 10075 6290 10074 8548 10076 
10 693 324 323 463 3575 2638 3574 9867 8862 8897 
10 811 1724 1563 1723 10033 6884 10035 10077 6885 6880 
10 1335 2142 1156 1316 10078 10079 5533 5813 10080 5469 
10 1633 706 898 705 10081 4188 10082 10083 3615 4187 
10 1408 1275 1405 2215 5759 5751 5762 10084 10085 10086 
10 726 209 725 1649 3673 3671 3675 10087 10088 10089 
10 2038 1347 2114 2037 10090 10091 8406 7838 10092 8424 
10 709 858 1636 1794 4070 10095 10093 10094 10096 7094 
10 1989 1284 1988 2114 10097 10098 7675 8061 10099 8060 
10 990 1875 991 1719 10100 10102 4476 10101 7335 10069 
10 1759 1758 1041 1911 6988 10104 10103 7444 7445 10105 
10 1758 1598 853 1757 6984 10107 10106 6985 6980 10108 
10 619 249 248 402 3352 2561 3351 10109 9023 9022 
10 1958 1099 1263 1262 10110 5290 9789 9791 5288 5292 
10 2198 2183 1427 2245 8335 10112 10111 8638 8639 10113 
10 1056 1925 1223 1057 10114 10115 5174 4670 10116 5175 
10 858 709 901 1794 4070 4197 4198 10096 10094 10117 
10 1721 808 994 993 10118 4483 10119 10120 4481 4485 
10 1248 2078 1966 1004 10121 7957 10122 5248 10123 10124 
10 1349 2039 1348 1503 10125 10126 5579 6105 10127 6104 
10 2078 2001 1966 1004 7958 7749 7957 10123 10128 10124 
10 1691 772 1865 1860 10129 10130 7313 7288 10131 7314 
10 1028 840 1027 1747 4581 4579 4583 10132 10133 10134 
10 1113 934 1975 1112 4838 10136 10135 4839 4834 10137 
10 973 785 784 1702 4417 3849 4412 10138 10139 10140 
10 351 36 749 487 2667 3741 3742 5929 5930 10141 
10 2153 1412 2152 1503 10142 10144 8206 10143 6106 10145 
10 756 494 1677 1676 10146 6740 10147 10148 6738 6742 
10 1534 2254 1500 2240 10149 10151 6242 10150 8539 10152 
10 1861 948 974 1704 9996 4421 9876 7296 10153 10154 
10 1273 2099 2201 2098 10155 8344 10156 10157 8021 8343 
10 1570 257 409 628 10158 8911 6421 10159 3379 10160 
10 742 1822 1821 1662 9852 7178 9853 10161 7176 7174 
10 1588 279 649 426 10162 3443 10163 6476 8944 10164 
10 1391 1390 2208 2080 5709 10041 10165 10166 10167 8366 
10 1258 1257 2082 1954 5277 10170 10168 10169 10171 7969 
10 1707 1708 1043 1884 6840 10173 10172 7360 7361 10174 
10 1692 373 773 1693 10175 3810 10176 6788 10177 10178 
10 1093 1257 1954 1953 5272 10171 10179 10180 10181 7574 
10 1780 1067 1068 1934 10182 4703 10183 7513 10184 10185 
10 1567 406 623 405 6413 10187 10186 6414 2726 10188 
10 466 697 1626 696 10037 9991 6590 10050 3588 9993 
10 627 257 1570 628 3377 10158 10189 3381 3379 10159 
10 1372 1226 2058 2059 5647 10192 10190 10191 10193 7899 
10 1460 1412 2153 1503 6155 10142 10194 6181 6106 10143 
10 1928 1226 2058 1927 9905 10192 7894 7496 9906 7895 
10 789 790 596 1707 3864 3862 3861 10195 10196 10197 
10 594 1545 382 441 9856 6347 10198 10199 6813 6345 
10 599 792 1548 598 3869 10201 10200 3293 3868 10202 
10 1708 789 595 1546 10203 3860 10204 6837 10205 10206 
10 1181 2012 1947 2062 10207 7775 10208 10209 8134 8143 
10 2083 1258 2082 1955 10210 10168 7973 7972 10211 7968 
10 791 598 597 1548 3866 3290 3865 10212 10202 10213 
10 459 687 688 1619 9967 3561 10214 6569 9804 9806 
10 1385 1384 1482 2180 5688 6033 6034 10215 10216 10217 
10 995 1177 1879 1176 5032 10218 10018 5030 5034 10219 
10 479 1661 344 741 6693 10221 5923 10220 10222 3717 
10 734 735 1656 925 3702 10224 10223 4268 4269 9803 
10 2072 1385 2180 1384 10225 10215 8280 10226 5688 10216 
10 1529 1538 1480 2258 6289 6282 6248 10227 10228 10229 
10 1078 1789 1942 1079 9947 7536 10230 4736 9949 10231 
10 811 812 1724 997 3930 10232 10033 4492 4493 10233 
10 819 1571 1730 820 10234 6899 10235 3955 10236 9985 
10 1880 1879 1723 996 7352 7347 7351 10237 10238 10239 
10 1897 1196 1025 1898 10240 5093 10241 7407 10242 10243 
10 269 418 268 639 8928 8927 2582 3413 10244 3412 
10 631 1573 630 822 10245 10246 3390 3960 10247 3959 
10 1917 1731 1887 1008 7460 7371 7463 10248 10249 10250 
10 1573 631 823 822 10245 3962 10251 10247 3960 3964 
10 1573 1732 1572 822 6905 6906 6432 10247 10252 10253 
10 1980 1141 969 1977 10254 4916 10255 7649 10256 10257 
10 1781 884 1068 1780 10258 4701 10259 7057 10260 10183 
10 1740 1895 1739 1018 7393 7394 6931 10261 10262 10263 
10 1571 258 628 409 10264 3380 10265 6425 8912 10160 
10 1573 1572 630 822 6432 10266 10246 10247 10253 3959 
10 1010 1732 822 1009 10267 10252 4527 4529 10268 4525 
10 2176 1484 1536 2253 10269 6265 10270 8534 10271 10272 
10 1622 884 1780 691 10273 10260 7052 10274 4145 10275 
10 1610 869 677 870 10276 4101 10277 10278 4105 4103 
10 1534 2254 2313 1431 10149 8815 10279 6240 10280 10281 
10 1121 1122 2036 2015 4864 10282 9973 10010 10283 8332 
10 1292 1896 1020 1019 10284 10285 5376 5379 10286 4559 
10 1742 1021 1741 833 10287 10289 6937 10288 4560 10290 
10 1232 2062 1934 1302 10291 7909 10292 5430 10293 10294 
10 1582 642 833 641 10295 3993 10296 10297 3423 3992 
10 1710 979 793 794 10298 4438 10299 10300 4439 3876 
10 735 1815 1656 925 10301 7157 10224 4269 10302 9803 
10 1488 2263 2251 2184 10303 8567 10304 10305 8565 8528 
10 858 1637 711 710 10306 10307 4069 4068 10308 3856 
10 1482 2259 1481 1535 10309 10310 6035 6244 10311 6246 
10 1715 1714 985 1871 6858 10313 10312 7325 7326 10314 
10 2161 1391 1392 1487 10315 5712 10316 10317 6046 6047 
10 1714 1715 985 799 6858 10312 10313 10318 10319 4456 
10 1166 984 1165 1872 4999 4997 5001 10320 10321 10322 
10 674 673 1607 304 3519 10324 10323 3517 3515 10325 
10 1167 1978 985 1871 10326 10328 5002 10327 7644 10314 
10 2050 1363 1217 1218 10329 5620 10330 10331 5621 5161 
10 851 850 1756 1596 4048 10333 10332 9838 10334 6978 
10 2060 2061 2103 1426 7905 8155 8258 10335 10336 10337 
10 844 845 1591 1751 4030 10340 10338 10339 10341 6963 
10 1714 984 985 1871 10342 4458 10313 7326 10343 10314 
10 1600 1599 854 1759 6513 10345 10344 6986 6987 10346 
10 1760 856 1043 855 10347 4627 10348 10349 4063 4626 
10 1797 1088 1087 905 10350 4762 10351 10352 4760 4758 
10 625 407 1568 1569 10353 6415 10354 10355 6419 6420 
10 792 599 1548 1549 3869 10200 10201 10356 9894 6359 
10 1364 1468 2199 2166 5987 10359 10357 10358 10360 8339 
10 1446 2244 2281 2197 10361 8629 10362 10363 8505 8628 
10 841 1589 1748 842 10364 6953 10365 4021 10366 10367 
10 1760 1043 1042 855 10348 4628 10368 10349 4626 4624 
10 986 1978 985 1167 10369 10328 4461 5003 10326 5002 
10 1269 1270 1106 1964 5313 5311 5309 10370 10371 10372 
10 752 1830 1829 1672 10373 7202 10374 10375 7200 7199 
10 1796 785 1862 1702 10376 10377 7300 7100 10139 7301 
10 988 1874 1873 1169 10378 7334 10379 5009 10380 10381 
10 2112 1281 1131 1274 10382 5342 10383 10384 5439 5323 
10 1369 2056 1368 2168 10385 10387 5640 10386 8246 10388 
10 2287 2264 1491 2186 8676 10390 10389 8651 8569 10391 
10 1452 2145 2237 1333 9958 8484 10392 5932 9959 10393 
10 2134 2227 2173 1420 8434 8435 8261 10394 10395 10396 
10 1210 1209 2045 1909 5136 10399 10397 10398 10400 7857 
10 1021 1020 1117 1867 4562 5088 5089 10401 10402 9941 
10 800 1715 799 985 10403 10319 3894 4457 10312 4456 
10 675 449 1608 1609 10404 6535 10405 10406 6539 6540 
10 974 786 1795 1704 4420 10407 9886 10154 10408 7097 
10 197 198 173 714 2509 3231 3230 3637 3638 10409 
10 2057 1369 1370 2169 10410 5643 10411 8249 10412 10413 
10 1369 2057 1224 2056 10410 10414 5639 10385 7893 10415 
10 1616 1617 877 685 6564 10418 10416 10417 10419 4125 
10 743 1823 1822 1663 10420 7181 10421 9841 7179 7177 
10 1070 1782 1783 887 10422 7063 10423 4708 10424 10054 
10 1418 1516 2296 1513 6167 10425 10016 6152 6260 10426 
10 1936 1071 1783 1937 10427 10428 7518 7523 10429 7522 
10 1375 1936 2065 1235 10430 7918 10431 5657 10432 10433 
10 2122 1286 2171 2075 10434 10435 8447 8085 10436 8444 
10 1292 1297 1312 2036 5771 5755 5770 10437 10438 9983 
10 707 1633 899 1634 10439 10441 4191 10440 6615 10442 
10 1044 1968 1863 1142 10443 7613 10444 4919 10445 10446 
10 863 1605 1604 1761 10447 6528 10448 10449 6994 6995 
10 1792 1082 1791 898 10450 9975 7090 10451 4743 9976 
10 1979 2112 1131 1274 8055 10383 10452 10453 10384 5323 
10 422 643 273 644 10454 3425 8935 10455 3429 3427 
10 841 1589 1588 1748 10364 6480 10456 10365 6953 6954 
10 1600 1760 856 1601 6990 10347 10457 6516 6989 10458 
10 2139 1334 1333 2025 10459 5530 10460 8187 10461 10462 
10 467 698 329 1627 10463 3590 8870 6593 10464 10465 
10 1951 1254 2048 2124 10466 10467 7867 8091 10468 8093 
10 1507 2287 2264 1491 10469 8676 10470 6280 10389 10390 
10 702 895 1630 894 4178 10472 10471 4176 4180 10473 
10 1951 1801 1091 1090 7563 10476 10474 10475 10477 4771 
10 715 174 1640 1641 10478 6631 10479 10480 6635 6636 
10 1699 781 780 1855 10481 3836 10482 7273 10483 10484 
10 951 1859 1869 1795 10485 7322 10486 10487 7297 7321 
10 718 1801 908 909 10488 10489 4218 4220 10490 4222 
10 2194 1501 1307 2027 10491 6094 10492 8321 10493 10494 
10 1043 976 1707 1884 4909 10495 10172 10174 10496 7360 
10 758 946 945 1836 4329 4330 4325 10497 10498 10499 
10 1544 2310 1510 2300 10500 10502 6324 10501 8808 10503 
10 2273 2260 1486 1535 8637 10506 10504 10505 10507 6296 
10 2220 2221 2030 1339 8411 8409 8408 10508 10509 9787 
10 1154 968 1882 2000 4962 10512 10510 10511 10513 7709 
10 2061 1930 1426 2060 7904 10514 10336 7905 7900 10335 
10 922 731 921 1812 4259 4257 4261 10515 10516 10517 
10 1181 2136 2062 1947 10518 8167 10209 10208 8144 8143 
10 1265 2088 2087 1400 10519 7988 10520 5735 10521 10522 
10 1962 1104 1268 1267 10523 5305 10524 10525 5303 5307 
10 918 1100 1101 1809 4797 4801 4799 10526 10527 10528 
10 2061 1968 2103 1158 8151 8032 8155 10529 10530 10531 
10 1100 1264 1959 1263 5293 9795 10532 5291 5295 9793 
10 2103 1044 1158 1968 10533 4976 10531 8032 10443 10530 
10 1131 1864 959 975 10534 10535 4889 4888 10536 4427 
10 1589 1749 1748 842 6957 6958 6953 10366 10537 10367 
10 1132 1000 1726 930 4893 10539 10538 4890 4503 10540 
10 1188 1187 2093 1888 5066 10543 10541 10542 10544 8003 
10 1726 1000 928 930 10539 4502 10545 10540 4503 4284 
10 1165 1164 2131 1872 4998 10547 10546 10322 10548 8118 
10 902 972 1703 783 4413 10550 10549 4201 4408 10551 
10 764 500 364 365 10552 9186 3785 3784 9187 2682 
10 2077 1309 2135 1146 10553 10555 8139 10554 5445 10556 
10 1671 1858 750 1670 7283 10558 10557 6724 7282 10559 
10 1284 2113 1988 2114 10560 8059 10098 10099 8062 8060 
10 1967 939 1977 1829 10561 10562 7641 7611 10563 7639 
10 2187 2264 2186 1491 8568 8569 8302 10564 10390 10391 
10 940 1858 750 751 10565 10558 4311 4310 10566 3748 
10 1247 1913 1087 1084 10567 10568 5399 5380 10569 4759 
10 1669 785 749 937 10570 3848 10571 10572 4422 4303 
10 1670 36 1702 784 10573 10575 6825 10574 3846 10140 
10 1284 2113 2114 1295 10560 8062 10099 5386 10576 10577 
10 813 1725 1763 1565 10578 7294 10579 10580 6886 7293 
10 1138 968 1847 1882 4923 10583 10581 10582 10512 7357 
10 1229 1930 1228 1426 10584 10585 5194 5830 10514 5829 
10 2060 2103 2125 1293 8258 8096 8389 10586 10587 10588 
10 362 32 1681 761 2679 10590 10589 3776 3777 10591 
10 2064 1935 1233 2063 7915 10593 10592 7916 7911 10594 
10 363 1682 763 762 10595 10596 3782 3778 10597 3783 
10 421 642 271 272 10598 3421 8933 8979 3422 2585 
10 363 362 1682 762 2680 10599 10595 3778 3779 10597 
10 1739 1740 1018 831 6931 10261 10263 10600 10601 4552 
10 1944 1790 1080 1943 7543 9971 10602 7544 7539 10603 
10 1294 1950 1305 2079 10604 10606 5426 10605 7960 10607 
10 1726 1132 1817 1866 10538 10608 7165 7316 10609 7315 
10 1279 2117 2076 2206 10610 8168 10611 10612 8358 8359 
10 1825 1974 933 1824 7631 10614 10613 7187 7630 9749 
10 1103 1104 921 1812 4810 4808 4806 10615 10616 10517 
10 1352 2156 2155 1462 10617 8215 10618 5964 10619 10620 
10 285 1593 656 432 10621 10622 3463 8955 6490 10623 
10 934 1826 1975 1825 10624 7634 10136 10625 7190 7633 
10 1132 1000 1294 1866 4893 5384 5385 10609 10626 10627 
10 1243 1384 1244 2071 5683 5684 5237 10628 10629 10630 
10 980 794 1992 1711 4441 10633 10631 10632 10634 7682 
10 390 604 234 1553 10635 3307 9003 6370 10636 10637 
10 1294 1950 2079 1866 10604 7960 10605 10627 7562 7959 
10 899 1633 706 898 10441 10081 4190 4192 10082 4188 
10 2002 2143 1994 1151 8177 8175 7714 10638 10639 10640 
10 960 2002 1156 1986 10641 10643 4969 10642 7715 10644 
10 2204 2033 1345 2147 8413 10646 10645 8454 8189 10647 
10 1703 972 1817 788 10550 10649 7163 10648 4407 10650 
10 1383 1481 2179 1480 6030 10652 10651 6029 6032 10653 
10 1880 997 1178 996 10654 5036 10655 10237 4494 5035 
10 1355 1465 2158 1354 5973 10657 10656 5597 5972 10658 
10 2151 1341 1458 2222 10659 5950 10660 8416 10661 10662 
10 1628 700 892 699 10663 4170 10664 10665 3597 4169 
10 1177 1880 1178 996 10666 10655 5037 5033 10237 5035 
10 1671 352 1670 750 10667 10668 6724 10557 3744 10559 
10 1670 352 1671 488 10668 10667 6724 6721 9471 6722 
10 796 1551 1712 1552 10669 6849 10670 10671 6368 6848 
10 2043 1353 1354 2157 10672 5594 10673 8217 10674 10675 
10 230 1550 600 601 10676 10677 3295 3297 10678 3299 
10 1748 1028 1029 1900 10679 4586 10680 7411 10681 10682 
10 378 379 779 1698 2697 3828 3829 9919 9918 10683 
10 230 1550 601 388 10676 10678 3297 8998 6360 10684 
10 179 205 721 204 3273 3659 10685 3242 2516 3658 
10 2248 2247 2157 1464 8519 8515 8518 10686 10687 10688 
10 1918 1045 1761 1046 10030 10031 7464 10689 4921 10690 
10 1199 1901 1029 1900 10691 10693 5102 10692 7416 10682 
10 973 929 1819 784 4411 10695 10694 4412 4281 10696 
10 989 803 1717 1718 4468 10699 10697 10698 10700 6867 
10 1758 1041 1040 853 10104 4622 10701 10106 4620 4618 
10 192 737 221 738 10702 3707 3267 10703 3711 3709 
10 734 1655 1656 189 10704 6681 10223 10705 6676 6680 
10 1367 1368 2168 1454 5637 10388 10706 5998 5999 10707 
10 220 736 1658 191 3704 10709 10708 3265 10710 6686 
10 737 220 1658 192 3706 10708 10711 10702 3266 6685 
10 1584 836 1743 835 10066 10713 6938 10712 4003 10714 
10 927 1886 816 1729 10715 10717 4751 10716 7367 10718 
10 1357 2046 2160 2047 10719 8226 10720 10721 7865 8225 
10 813 999 1763 1725 4498 9897 10579 10578 10722 7294 
10 1891 1892 1014 1736 7386 10724 10723 7381 7385 10071 
10 2147 2233 2235 1453 8466 8476 8513 10725 10726 10727 
10 1302 1067 1933 1934 5418 10729 10728 10294 10184 7514 
10 2055 1368 2168 1367 10730 10388 8247 10731 5637 10706 
10 1598 662 853 661 10732 4053 10107 10733 3483 4052 
10 2083 1258 1955 1259 10210 10211 7972 10734 5280 10735 
10 1577 1578 828 636 6447 10737 10736 9988 10738 3977 
10 1737 1578 828 1577 6920 10737 10739 6921 6447 10736 
10 1599 1598 662 853 6510 10732 10740 10741 10107 4053 
10 647 839 1587 1586 4010 10744 10742 10743 10745 6474 
10 379 1699 514 380 10746 6804 9511 2698 10747 9507 
10 1158 1230 1931 1301 5979 10749 10748 5611 5429 10750 
10 1638 1639 713 172 6630 10752 10751 6625 6629 10753 
10 1768 1767 1051 1921 7018 10755 10754 7473 7474 10008 
10 1824 1664 744 745 7182 10756 9750 9751 10757 3731 
10 1869 951 1152 1148 10486 4953 10758 10759 4944 4955 
10 2076 1279 2206 1310 10611 10612 8359 10760 5448 10761 
10 887 695 694 1624 4155 3582 4154 10049 10048 10762 
10 2070 2178 1382 2179 8274 10764 10763 8278 8279 10765 
10 2323 747 748 1667 9740 3740 9698 9696 10766 9719 
10 1485 2260 1535 1486 9912 10507 6245 6045 10506 6296 
10 756 944 943 1834 4323 4324 4319 10767 10768 10769 
10 2088 1401 2191 2190 10770 10771 8313 8309 10772 8314 
10 850 1595 1755 1596 10773 6975 10774 10334 6501 6974 
10 1598 852 1757 1597 10775 10776 6980 6507 10777 6981 
10 1083 1793 900 1792 10778 10780 4747 10779 7093 10781 
10 1515 2175 1475 2174 10782 10784 6235 10783 8267 10785 
10 1400 2088 2087 2190 10521 7988 10522 10786 8309 8310 
10 1474 1375 2065 1376 6010 10431 10787 6011 5661 10788 
10 852 660 851 1597 4049 4047 4051 10777 9835 9837 
10 486 748 1667 1668 10789 9719 6712 6714 9699 6716 
10 2269 1533 1537 2268 10790 6278 10791 8583 10792 10793 
10 1408 1511 1406 2203 6143 6144 5761 10794 10795 10796 
10 2166 1364 2052 2199 10358 10797 8240 8339 10357 8338 
10 669 444 1603 1604 10798 6520 10799 9998 6524 6525 
10 398 1560 397 243 6390 6391 2717 9016 9995 9015 
10 1851 1852 1696 777 7266 7264 7262 9877 9826 10800 
10 2321 135 134 119 9736 2436 10801 9623 9139 9140 
10 2068 1940 2069 1240 7926 7930 7931 10802 10803 10804 
10 1533 1539 1537 2268 6308 6332 6278 10792 10805 10793 
10 681 454 1613 1614 10806 6550 10807 10808 6554 6555 
10 2016 1991 1129 1845 7769 10810 10809 7770 7680 10811 
10 869 1053 1768 1052 4656 10813 10812 4654 4658 10814 
10 646 1745 1585 837 10815 6945 10816 4005 10817 10818 
10 1770 1611 871 870 7023 10821 10819 10820 10822 4108 
10 1056 1771 873 872 10823 10824 4666 4665 10825 4114 
10 1771 1056 1055 872 10823 4667 10826 10825 4665 4663 
10 1566 814 1763 1565 10827 9896 7002 6410 10828 7293 
10 2321 134 135 155 10801 2436 9736 10829 9430 9433 
10 1902 1749 1031 1030 7418 10832 10830 10831 10833 4592 
10 330 1628 699 700 10834 10665 3593 3595 10663 3597 
10 708 1634 338 707 10835 10836 3619 3621 10440 3617 
10 786 1704 974 948 10408 10154 4420 4334 10153 4421 
10 499 763 363 1682 10837 3782 9184 6755 10596 10595 
10 1973 1111 1273 2099 10838 5320 10839 8019 9816 10155 
10 1307 1109 1086 2096 5436 4828 5435 10840 10841 10842 
10 1776 879 1618 1777 10843 10844 7040 7045 10845 7044 
10 1930 1063 1777 1931 10846 10847 7500 7505 10848 7504 
10 2123 1248 2207 2078 10849 10850 8363 8089 10121 8364 
10 2192 1402 1498 1497 10851 6079 10852 10853 6077 6081 
10 2291 2165 1469 2199 8667 10855 10854 8668 8340 10856 
10 1226 1060 1059 1928 5184 4679 5183 9905 10857 9903 
10 1511 2253 2202 2203 10858 8699 10859 10795 8700 8351 
10 1064 880 1778 881 4689 10861 10860 4690 4138 10862 
10 1122 1292 1312 2036 5378 5770 5453 10282 10437 9983 
10 361 759 1680 760 3770 9780 9779 3774 3775 10863 
10 1919 951 1148 950 10864 4944 10865 10866 4343 4943 
10 1406 1511 2202 2203 6144 10859 10867 10796 10795 8351 
10 1407 2200 2290 1515 10868 8681 10869 6161 10870 10871 
10 394 1556 393 238 6378 6379 2713 9008 10872 9007 
10 974 2006 1861 2010 10873 8090 9876 9884 8133 7747 
10 895 703 702 1630 4179 3606 4178 10472 10874 10471 
10 181 180 207 1647 2491 3245 3246 6652 6653 10875 
10 794 1710 1992 1711 10300 7683 10633 10634 7291 7682 
10 1776 1617 878 1775 7041 10876 9757 7042 7037 10877 
10 1406 1511 2290 2202 6144 10879 10878 10867 10859 8698 
10 2306 1446 1419 2244 10880 6135 10881 8796 10361 10882 
10 659 658 850 1596 3474 4043 4044 10883 10884 10334 
10 330 1628 700 469 10834 10663 3595 8873 6595 10885 
10 1174 1329 2021 1173 5513 10887 10886 5025 5512 10888 
10 863 671 1605 864 4083 10889 10447 4087 4085 10890 
10 2105 1500 2240 1425 10891 10152 8495 10892 6108 10893 
10 1500 1523 2240 1425 6197 10894 10152 6108 6196 10893 
10 1798 1797 1087 904 7105 10351 10895 10896 10897 4757 
10 785 1796 937 1669 10376 10898 4422 10570 7099 10572 
10 713 1638 712 903 10751 10899 3636 4204 10900 4203 
10 1798 1639 904 903 7103 10902 10896 10901 10903 4207 
10 723 180 1646 1647 10904 6649 10905 10906 6653 6654 
10 1505 2266 1359 2207 10907 10909 6114 10908 8704 10910 
10 2106 2183 1311 1304 8290 10913 10911 10912 10914 5653 
10 1649 917 1808 916 10915 10917 7136 10916 4246 10918 
10 1099 1098 1807 916 4795 10920 10919 4793 4791 10921 
10 1727 1006 1885 1005 9937 10922 7364 9939 4517 10923 
10 2304 2269 1537 2268 8737 10791 10924 8738 8583 10793 
10 929 973 1819 1004 4411 10694 10695 4510 4511 10925 
10 1649 725 916 1807 10089 4241 10916 7132 10926 10921 
10 1732 1731 821 1008 6907 10929 10927 10928 10249 4522 
10 2287 1507 2264 2213 10469 10470 8676 8749 10930 8659 
10 1808 1649 916 1807 7136 10916 10918 7137 7132 10921 
10 1958 1957 1807 1098 7586 7581 7585 10931 10932 10920 
10 758 945 1835 1836 4325 9753 10933 10497 10499 7220 
10 926 736 1657 1816 4272 10936 10934 10935 10937 7160 
10 1507 2227 2264 2213 10938 8660 10470 10930 8436 8659 
10 1874 1170 2019 2020 10939 10940 7781 7782 10941 7785 
10 796 797 1712 982 3885 10942 10670 4447 4448 10943 
10 1289 2134 1300 1420 10944 10945 5467 5801 10394 5800 
10 1300 2123 1359 2173 10946 10948 5610 10947 8262 10949 
10 863 1764 1047 864 10950 9928 4638 4087 10951 4639 
10 1303 2226 1147 1279 10952 10953 5421 5420 10954 5337 
10 1658 927 1729 1816 10955 10716 6993 7159 10956 7162 
10 2216 1326 2020 2224 10957 10958 8394 8616 10959 8427 
10 1759 1599 854 1758 6987 10345 10346 6988 6983 10960 
10 671 1606 864 672 10961 10962 4085 3513 10963 4086 
10 598 599 386 1548 3293 9895 10964 10202 10200 6354 
10 2286 1449 1327 2223 10965 5916 10966 8646 10967 10968 
10 847 1034 1753 1752 4600 10970 10969 9745 10971 6970 
10 2323 746 1667 1826 10972 10974 9696 10973 10975 7189 
10 885 693 1623 886 4149 9866 10976 4153 4151 10977 
10 844 843 1750 1590 4027 10980 10978 10979 10981 6960 
10 974 2006 2010 1143 10873 8133 9884 4928 10982 9924 
10 1384 2072 1244 2071 10226 10983 5684 10629 7940 10630 
10 1611 1610 677 870 6546 10277 10984 10822 10278 4103 
10 2281 2216 2305 1447 8630 8742 8773 10985 10986 10987 
10 760 33 1680 361 10988 6750 10863 3774 9472 9779 
10 2323 746 1826 935 10972 10975 10973 10989 4298 10990 
10 1765 1606 864 1764 7008 10962 10991 7009 7004 10951 
10 1279 1440 2206 1310 5880 10992 10612 5448 5879 10761 
10 1710 794 600 1550 10300 3874 10993 6843 10994 10677 
10 1622 885 692 1623 10995 4148 10996 6582 10976 10997 
10 1950 2079 2027 1305 7960 7961 7807 10606 10607 10998 
10 2144 1319 1161 1162 10999 5476 11000 11001 5477 4989 
10 1149 2003 1865 2076 11002 7718 11003 11004 8035 7951 
10 1615 314 683 455 11005 3545 11006 6557 8846 11007 
10 1137 1291 1134 2119 5373 5374 4965 11008 11009 11010 
10 2081 2161 1392 2184 8229 10316 11011 8292 8293 11012 
10 1615 314 455 456 11005 8846 6557 6556 8847 2777 
10 2002 960 971 1849 10641 4404 11013 7713 11014 11015 
10 461 1621 1620 690 6575 6576 6571 11016 11017 11018 
10 1473 1335 1316 2142 6006 5813 6009 11019 10078 10080 
10 531 517 527 57 11020 9726 2941 2940 9679 2909 
10 1176 2023 1879 1878 9842 7791 10219 9843 7792 7349 
10 200 175 199 716 3272 3234 2511 3644 11021 3643 
10 1994 971 1850 1849 11022 11023 7691 7690 11015 7260 
10 971 775 1850 1849 4402 11024 11023 11015 11025 7260 
10 1543 1517 2261 1520 6312 11027 11026 6321 6186 11028 
10 1621 691 690 321 11029 3570 11017 11030 3568 3566 
10 971 2002 1849 1994 11013 7713 11015 11022 7714 7690 
10 995 1176 1879 994 5030 10219 10018 4488 5029 10020 
10 1848 1693 774 1849 7254 11032 11031 7257 7255 11033 
10 184 212 728 211 3253 3680 11034 3274 2523 3679 
10 1995 962 1850 1994 11035 11036 7692 7694 11037 7691 
10 1685 1686 502 766 6768 6766 6764 11038 11039 11040 
10 938 1869 2010 1795 11041 7755 9883 9885 7321 7748 
10 1308 2013 2195 1115 9952 8324 9954 5440 11042 11043 
10 2225 1320 1321 1443 11044 5484 11045 11046 5887 5888 
10 1166 1165 2028 1872 5001 11048 11047 10320 10322 7810 
10 1663 1823 744 743 7179 11049 9839 9841 10420 3728 
10 1705 34 1690 771 11050 11052 6828 11051 3805 11053 
10 1164 1914 2131 1872 11054 8119 10547 10548 7454 8118 
10 632 824 633 1574 3965 3966 3396 11055 11056 11057 
10 335 704 472 334 3608 11058 8880 2649 3607 8879 
10 1257 2082 1954 2081 10170 7969 10171 11059 7970 7965 
10 960 2002 971 1151 10641 11013 4404 4952 10638 4951 
10 618 619 248 1564 3353 3351 3349 11060 11061 11062 
10 1914 1163 2131 2133 11063 11064 8119 8129 11065 8131 
10 1782 1936 1069 1070 7519 11067 11066 10422 11068 4709 
10 1848 2002 960 1986 7712 10641 11069 7666 7715 10642 
10 2288 2225 1321 1443 8654 11045 11070 11071 11046 5888 
10 1329 1330 1174 2022 5517 5515 5513 11072 11073 11074 
10 1988 1127 953 952 9758 4876 9767 9768 4877 4348 
10 989 1874 1717 988 11075 7333 10697 4470 10378 11076 
10 698 467 329 328 10463 8870 3590 3589 8869 2643 
10 972 1863 1139 1142 11077 11078 4913 4918 10446 4920 
10 961 960 1156 1986 4371 4969 4970 11079 10642 10644 
10 1924 1221 2055 2054 11080 11081 7886 7882 11082 7887 
10 1049 1215 1916 1048 5151 11084 11083 4646 5150 11085 
10 2232 1460 2153 2246 11086 10194 8463 8511 11087 8510 
10 2232 1460 2246 1413 11086 11087 8511 11088 6154 11089 
10 678 1611 677 870 10029 10984 3531 4104 10822 4103 
10 1500 1308 1299 2140 6087 5846 6086 11090 9953 11091 
10 2213 1507 1420 1425 10930 6122 11092 11093 6123 5826 
10 2232 1460 1413 1412 11086 6154 11088 11094 6155 5780 
10 1352 1462 2155 1351 5964 10620 10618 5588 5963 11095 
10 465 464 325 1624 2786 8864 8865 6583 6584 11096 
10 2001 1819 1966 1004 7710 7609 7749 10128 10925 10124 
10 2210 1291 2120 2119 11097 11098 8374 8373 11009 8079 
10 927 1886 1729 1816 10715 7367 10716 10956 7368 7162 
10 1297 1895 1018 1195 11099 10262 5397 5428 11100 5086 
10 695 1624 325 694 10048 11096 3580 3582 10762 3578 
10 1423 2204 1345 2147 11101 10645 5819 11102 8454 10647 
10 2101 1408 1275 1272 11103 5759 11104 11105 5760 5327 
10 1241 1941 2069 2070 11106 7929 11107 11108 7933 7934 
10 844 652 843 1590 4025 4023 4027 10979 11109 10981 
10 1188 1011 1889 1189 5065 11111 11110 5069 5067 11112 
10 1408 2101 1275 2215 11103 11104 5759 10084 8390 10085 
10 2313 2215 2301 1405 8801 8718 8800 11113 10086 11114 
10 979 1710 793 978 10298 10299 4438 4440 11115 4436 
10 1539 1505 2274 2267 6291 11118 11116 11117 11119 8751 
10 1952 1254 2048 1951 11120 10467 7866 7568 10466 7867 
10 1318 1160 1317 2130 5473 5472 5475 11121 10040 11122 
10 365 500 501 1684 9187 2825 9188 11123 6760 6761 
10 1584 423 274 422 6463 8937 11124 6464 2743 8936 
10 1496 2191 2267 1497 11125 8575 11126 6078 11127 11128 
10 1199 1901 2037 1200 10691 7834 9763 5106 11129 11130 
10 1099 1958 1807 1098 10110 7585 10919 4795 10931 10920 
10 2134 2213 1420 1425 8383 11092 10394 11131 11093 5826 
10 1401 1496 2191 2190 6074 11125 10771 10772 11132 8314 
10 1897 1196 1898 1869 10240 10242 7407 7765 11133 7802 
10 1025 838 837 1745 4573 4009 4572 11134 11135 10817 
10 836 1743 2006 1744 10713 7735 11136 11137 6943 7734 
10 771 1690 1838 958 11053 7225 11138 4361 11139 11140 
10 1408 1512 1511 2301 6147 6148 6143 11141 11142 11143 
10 2260 1483 1482 2181 11144 6136 11145 8556 11146 11147 
10 1624 464 325 694 6584 8864 11096 10762 11148 3578 
10 1881 812 1724 1725 11149 10232 7354 7353 11150 6888 
10 1896 1292 1117 2005 10284 5377 11151 7801 11152 11153 
10 1285 2214 2196 1414 11154 8387 11155 5785 11156 11157 
10 851 659 850 1596 4046 4044 4048 9838 10883 10334 
10 1906 1207 2043 1206 11158 11160 7852 11159 5127 11161 
10 2155 1351 2041 2042 11095 11162 8211 8210 11163 7850 
10 2262 1303 2226 1281 11164 10952 8564 11165 5434 11166 
10 473 706 336 337 11167 3613 8900 8882 3614 2651 
10 1366 2165 2053 1365 11168 8239 11169 5631 11170 11171 
10 1616 1775 1774 877 7038 7039 7034 10416 11172 11173 
10 1059 1060 1774 1928 4679 10061 10062 9903 10857 7495 
10 929 2001 1145 1004 11174 11175 4933 4510 10128 4934 
10 1775 1061 877 878 11176 4680 11172 10877 4681 4129 
10 1617 1775 877 878 7037 11172 10418 10876 10877 4129 
10 2270 2309 1530 2294 8814 11178 11177 8684 8813 11179 
10 1848 961 1860 1986 11180 11181 7290 7666 11079 7665 
10 2039 1902 1202 1201 7840 11184 11182 11183 11185 5112 
10 1071 888 1783 1784 4711 10053 10428 11186 11187 7066 
10 1214 1969 1047 1213 11188 9929 5147 5149 11189 5144 
10 763 950 1839 970 4338 11191 11190 4399 4400 11192 
10 459 688 460 1619 10214 11193 2781 6569 9806 6568 
10 1791 1632 897 1790 7086 11195 11194 7087 7082 9970 
10 440 1545 666 441 6815 11197 11196 2761 6813 11198 
10 758 1836 1678 1679 10497 7218 9860 11199 7219 6748 
10 896 1790 1079 1080 9969 11200 4735 4737 9971 4739 
10 385 597 226 227 11201 3285 8992 8993 3286 2539 
10 2035 1195 1250 1194 11202 5804 11203 11204 5087 5805 
10 1836 758 1678 1835 10497 9860 7218 7220 10933 7216 
10 1471 2167 2241 1454 11205 8532 11206 6128 11207 11208 
10 1642 175 716 1641 6638 11021 11209 6639 6634 11210 
10 1083 1792 899 1082 10779 11211 4746 4748 10450 4744 
10 1045 1918 1179 1046 10030 11212 5350 4921 10689 5389 
10 1433 2231 2295 1438 11213 8689 11214 5869 11215 9910 
10 1611 451 677 1610 6545 10024 10984 6546 6541 10277 
10 1792 1633 899 898 7089 10441 11211 10451 10082 4192 
10 1180 2202 1407 2201 11216 11218 5756 11217 8348 11219 
10 879 687 686 1618 4131 3558 4130 10844 9968 11220 
10 2253 1511 2202 2290 10858 10859 8699 8680 10879 8698 
10 2224 1327 2019 2223 11221 11222 8426 8425 10968 8422 
10 1780 1066 1933 1779 11223 11224 7509 7054 11225 7510 
10 2290 1511 1406 1484 10879 6144 10878 11226 6145 6039 
10 1103 921 920 1811 4806 4258 4805 11227 11228 11229 
10 2161 1391 2208 2080 10315 10165 8368 8230 10166 8366 
10 1715 1555 800 1554 6856 11230 10403 6857 6377 9890 
10 1979 1125 1838 2014 11231 11232 7645 7763 11233 7762 
10 1698 378 1697 778 9919 11235 6803 11234 3825 11236 
10 2233 1280 2107 1434 11237 11239 8467 11238 5855 11240 
10 1951 1912 1800 1090 7565 7447 7564 10475 11241 11242 
10 1435 2211 2275 1417 11243 8609 11244 5859 11245 11246 
10 1294 1950 1866 1000 10604 7562 10627 5384 9784 10626 
10 1446 2172 1323 1445 11247 11248 5900 5902 11249 5897 
10 1484 1511 2253 2290 6145 10858 10271 11226 10879 8680 
10 714 1639 1640 173 11250 6633 11251 10409 6628 6632 
10 1599 663 854 662 11252 4056 10345 10740 3486 4055 
10 2089 1401 2088 1266 11253 10770 7991 9799 5738 11254 
10 1259 2083 1260 1956 10734 11256 5283 11255 7971 11257 
10 170 341 194 710 11258 3628 3225 11259 3626 3844 
10 1103 1961 1102 1266 11260 9769 4807 5300 11261 5299 
10 1099 1958 1263 1959 10110 9789 5290 11262 7589 9793 
10 175 1642 716 717 6638 11209 11021 11263 11264 3648 
10 1789 894 1078 1788 11265 4731 9947 7081 11266 11267 
10 1100 1099 1808 917 4798 11269 11268 4796 4794 10917 
10 1688 956 1844 1845 11270 11271 7242 7244 11272 7246 
10 1589 280 651 650 11273 3448 11274 11275 3446 3450 
10 1265 2088 1266 1961 10519 11254 5301 11276 7986 11261 
10 2089 1962 1267 1266 7989 10525 9798 9799 11277 5304 
10 935 1114 1113 1976 4841 4842 4837 11278 9926 11279 
10 1275 2101 1113 1976 11104 11280 5326 9932 8026 11279 
10 1133 965 1997 964 4896 11282 11281 4897 4382 11283 
10 1125 1979 1838 959 11231 7645 11232 4871 11284 11285 
10 1781 1780 1068 1934 7057 10183 10259 7512 7513 10185 
10 1500 2105 2240 2140 10891 8495 10152 11090 8165 8497 
10 472 704 1632 1631 11058 11286 6608 6604 11287 6609 
10 1511 2253 2203 2301 10858 8700 10795 11143 8716 8717 
10 1511 2257 2253 2301 11288 8549 10858 11143 8719 8716 
10 1149 2003 2076 1123 11002 8035 11004 4946 11289 11290 
10 1511 2257 2301 1512 11288 8719 11143 6148 11291 11142 
10 959 1705 1838 771 11292 7226 11285 4365 11051 11138 
10 1395 1490 1491 2186 6056 6060 6058 11293 11294 10391 
10 1654 731 1812 1653 11295 10516 7147 6675 11296 7148 
10 2257 1512 2310 2301 11291 11297 8766 8719 11142 8767 
10 2310 1512 2257 1529 11297 11291 8766 11298 6217 11299 
10 2172 1445 1322 1323 11249 5895 11300 11248 5897 5493 
10 1925 1924 1222 2055 7487 11302 11301 7885 7886 11303 
10 63 47 46 519 9054 2332 9053 9669 2871 2872 
10 429 653 1591 652 11304 11306 6485 11305 3456 11307 
10 2288 2276 2312 1444 8791 8793 8812 9888 9887 11308 
10 1748 1749 1029 842 6958 11309 10680 10367 10537 4585 
10 918 1650 728 727 11310 11311 4248 4247 11312 3681 
10 1864 1131 2009 975 10534 11313 7745 10536 4888 11314 
10 1841 953 765 952 9765 4347 11315 9766 4348 4344 
10 2218 1432 2242 2276 11316 11317 8501 8614 11318 8613 
10 2299 1451 2283 2209 11319 11320 8778 8707 11321 8634 
10 1650 918 917 727 11310 4249 11322 11312 4247 4245 
10 1303 1281 1147 2226 5434 5341 5421 10952 11166 10953 
10 2276 2244 2262 1432 8805 8795 8615 11318 11323 11324 
10 2304 2282 1521 2280 8739 11326 11325 8736 8721 11327 
10 841 1748 1029 842 10365 10680 4584 4021 10367 4585 
10 965 1853 1997 964 11328 7699 11282 4382 11329 11283 
10 1556 802 608 609 11330 3898 11331 11332 3899 3323 
10 901 1793 1794 1635 11333 7096 10117 11334 7091 7095 
10 2265 1494 1519 1422 11335 6249 11336 11337 6269 6180 
10 1852 1996 1997 964 7696 7700 7698 9827 11338 11283 
10 1767 1050 1051 1920 11339 4652 10755 7470 11340 10009 
10 1880 2024 1178 2025 7794 11341 10655 7798 7799 11342 
10 1606 865 864 672 11343 4090 10962 10963 4088 4086 
10 1567 405 623 738 6414 10188 10186 11344 11345 3940 
10 2237 2051 2164 1361 8482 8236 8485 11346 11347 11348 
10 1324 2018 1167 2092 11349 11351 5494 11350 8108 11352 
10 1995 1153 2118 1134 11353 11354 8073 9824 4957 11355 
10 405 252 623 738 8903 3365 10188 11345 3840 3940 
10 951 1859 950 1919 10485 11356 4343 10864 7467 10866 
10 206 179 205 722 3243 3273 2517 3662 11357 3661 
10 1974 934 1975 1825 11358 10136 7635 7631 10625 7633 
10 1639 713 904 903 10752 4205 10902 10903 4204 4207 
10 1930 2060 1228 1426 7900 11359 10585 10514 10335 5829 
10 1859 1681 1795 761 7285 7098 7297 11360 10591 11361 
10 1115 2013 2195 2004 11042 8324 11043 11362 7761 8323 
10 1180 2100 1112 1272 11363 11364 5042 5319 11365 5318 
10 1638 858 712 903 11366 4200 10899 10900 4410 4203 
10 1828 1115 936 2004 11367 4844 11368 7725 11362 11369 
10 1117 1861 1867 1818 9940 7318 9941 11370 7295 7317 
10 941 753 1674 1831 4315 11373 11371 11372 11374 7204 
10 2304 1521 1543 1520 11325 6313 11375 11376 6335 6321 
10 417 637 267 638 11377 3407 8925 11378 3411 3409 
10 1012 825 1735 1013 4534 11380 11379 4538 4536 11381 
10 1490 2185 2251 2287 11382 8527 11383 11384 8652 8732 
10 1913 1798 1087 1084 7450 10895 10568 10569 11385 4759 
10 635 1576 826 827 11386 11387 3972 3974 11388 3976 
10 1798 1793 1084 1913 7719 11389 11385 7450 7720 10569 
10 992 1173 1877 1876 5021 11391 11390 9900 10064 7343 
10 506 505 1689 370 2830 6775 6776 9198 9197 11392 
10 1891 1892 1192 1014 7386 11394 11393 10723 10724 5076 
10 615 1562 1561 809 11395 6398 11396 3919 11397 11398 
10 1890 1891 1013 1735 7383 9943 9945 7378 7382 11381 
10 385 597 227 1548 11201 3286 8993 6355 10213 11399 
10 1719 990 1718 804 10101 11401 6870 11400 4471 11402 
10 796 797 603 1552 3885 3883 3881 10671 11403 11404 
10 263 262 633 413 2576 3394 3395 8974 8919 11405 
10 1567 192 193 738 6822 2503 6517 11344 10703 11406 
10 1045 862 1761 1046 4634 11407 10031 4921 4636 10690 
10 405 1567 193 738 6414 6517 6412 11345 11344 11406 
10 962 775 1850 971 4373 11024 11036 4405 4402 11023 
10 1433 1438 2295 1531 5869 9910 11214 6258 6259 9908 
10 280 1589 651 428 11273 11274 3448 8947 6478 11408 
10 2160 1318 1317 2130 11409 5475 11410 8393 11121 11122 
10 1358 1357 2047 1211 5607 10721 11411 5604 5602 9882 
10 1905 1204 1205 2041 11412 5121 11413 7845 11414 11415 
10 692 693 463 1623 3576 9867 11416 10997 9866 6581 
10 813 999 1725 998 4498 10722 10578 4496 4501 11417 
10 2228 2027 1501 2194 8441 10493 11418 8663 8321 10491 
10 1930 1230 1229 1063 11419 5197 10584 10846 5195 5193 
10 1853 1852 1997 964 7269 7698 7699 11329 9827 11283 
10 852 1039 1040 1757 4615 4619 4617 10776 11420 11421 
10 808 1721 614 807 10118 11422 3916 3918 11423 3914 
10 1762 860 999 1763 11424 4500 11425 7003 9898 9897 
10 2183 2149 1437 2245 8727 11427 11426 8639 8507 11428 
10 2139 1214 1360 1334 11429 5612 11430 10459 5608 5823 
10 1330 1331 2209 1451 5520 9935 11431 5925 5926 11321 
10 2051 1214 1915 1215 11432 11434 7874 11433 5152 11435 
10 1225 2057 1926 1224 11436 7892 11437 5182 10414 11438 
10 1965 1106 1964 1814 11439 10372 7607 7606 11440 7602 
10 2144 1319 2239 2250 10999 11441 8490 8601 11442 8666 
10 453 310 1612 452 8894 11443 6547 2774 8893 6548 
10 1529 2310 1538 2258 11298 11444 6289 10227 8765 10228 
10 371 1689 1690 770 11445 6780 11446 3802 11447 11448 
10 2064 1374 2063 1233 11449 11450 7916 10592 5654 10594 
10 896 1632 1631 1790 11451 6609 11452 9969 7082 7083 
10 2266 1505 1359 1519 10907 6114 10909 11453 6190 6179 
10 1474 1375 2228 2065 6010 11455 11454 10787 10431 8442 
10 1702 749 37 1669 11456 11457 6819 6818 10571 6718 
10 891 1628 892 699 11458 10664 4171 4167 10665 4169 
10 2202 1407 2201 2290 11218 11219 8348 8698 10869 8697 
10 637 1578 828 829 11459 10737 3978 3980 9829 3982 
10 2094 1358 2047 1993 11460 11411 8198 8007 11461 8126 
10 1936 1375 2065 2064 10430 10431 7918 7914 11462 7919 
10 1957 1958 1262 1098 7586 9791 11463 10932 10931 5287 
10 2188 2292 2187 1493 8673 8670 8305 9871 9873 11464 
10 1669 785 1702 749 10570 10139 6818 10571 3848 11456 
10 785 36 1702 749 3847 10575 10139 3848 3741 11456 
10 1939 2067 1938 1238 7923 7924 7529 11465 11466 11467 
10 1913 1251 1948 2074 11468 11469 7555 7944 11470 7947 
10 759 946 1837 947 4328 11472 11471 4332 4333 11473 
10 1406 2100 2202 1180 11474 8347 10867 5753 11363 11216 
10 2137 2230 2074 1387 8453 8450 8148 11475 11476 11477 
10 371 1689 770 370 11445 11447 3802 2688 11392 3803 
10 1256 1391 2080 1255 5708 10166 11478 5271 5707 11479 
10 2149 1453 2147 2235 11480 10725 8195 8622 10727 8513 
10 948 1837 1680 1818 11481 7222 11482 11483 7223 7166 
10 1648 725 1807 915 11484 10926 7133 11485 4239 11486 
10 1093 1094 1954 1257 4780 11487 10179 5272 5273 10171 
10 2264 1507 1491 1492 10470 6280 10390 11488 6193 6063 
10 1489 1488 2251 2184 6054 10304 11489 11490 10305 8528 
10 1390 1254 1389 2048 5704 5703 5706 11491 10467 11492 
10 862 1045 1761 1762 4634 10031 11407 11493 10032 6999 
10 1270 1336 2049 2091 5538 11496 11494 11495 11497 8153 
10 499 763 1682 1683 10837 10596 6755 6757 11498 6759 
10 1580 830 1739 1579 11499 11500 6926 6453 11501 6927 
10 786 1704 1681 1795 10408 6827 11502 10407 7097 7098 
10 1105 1963 1104 1268 11503 11504 4813 5306 11505 5305 
10 1962 1104 1267 1103 10523 5303 10525 11506 4810 5302 
10 664 1600 293 663 11507 11508 3487 3489 11509 3485 
10 1963 1104 1268 1962 11504 5305 11505 7601 10523 10524 
10 1884 1043 976 1157 10174 4909 10496 11510 5357 4974 
10 665 857 1601 856 4064 11512 11511 4062 4067 10458 
10 1463 2156 1352 1462 11513 10617 5966 5968 10619 5964 
10 2090 1963 1268 1962 7992 11505 11514 7993 7601 10524 
10 1600 439 664 293 6511 11515 11507 11508 8969 3487 
10 1237 1072 1938 1073 5214 11516 10045 5215 4718 11517 
10 1314 1132 2136 1002 5460 10055 10056 5461 4892 11518 
10 2000 967 1999 1136 11519 11521 7774 11520 4903 11522 
10 2279 1279 1388 2206 11523 5697 11524 8624 10612 11525 
10 948 2005 1837 1818 11526 7728 11481 11483 7729 7223 
10 444 669 299 300 10798 3502 8825 8826 3503 2614 
10 1617 686 458 1618 11527 11528 6562 6567 11220 6566 
10 943 1982 942 1833 11529 11531 4321 11530 7654 11532 
10 1539 1496 2267 1497 6292 11126 11117 6293 6078 11128 
10 816 1886 1003 1728 10717 11534 4508 11533 7366 11535 
10 759 1837 760 947 11471 11536 3775 4332 11473 4331 
10 1290 1415 2234 2097 5788 11539 11537 11538 11540 8469 
10 1333 2024 2025 1178 11541 7799 10462 5525 11341 11342 
10 1290 1430 2234 1415 5840 11542 11537 5788 5842 11539 
10 1188 2093 1889 1888 10541 8002 11110 10542 8003 7377 
10 1753 1594 656 1593 6968 11544 11543 6969 6495 10622 
10 1086 1109 1970 2096 4828 11546 11545 10842 10841 8010 
10 378 1698 1697 513 9919 6803 11235 9505 6801 6799 
10 2099 1973 2098 1273 8019 8017 8021 10155 10839 10157 
10 2220 1340 2030 2093 11547 11548 8408 8407 11549 8004 
10 792 791 1709 1548 3870 11551 11550 10201 10212 6842 
10 473 335 336 705 8881 2650 8900 11552 3610 3611 
10 1063 1064 1777 1931 4691 11553 10847 10848 11554 7504 
10 2165 2199 2053 1365 8340 8337 8239 11170 11555 11171 
10 1522 1471 1531 2289 6271 6221 6264 11556 11557 11558 
10 1193 1016 1893 1194 5080 11560 11559 5084 5082 11561 
10 69 531 525 530 2923 9715 9713 2926 2937 9683 
10 1983 1984 1118 1249 7661 11564 11562 11563 9862 5251 
10 1633 1792 899 1634 7089 11211 10441 6615 7088 10442 
10 1334 1179 1178 2025 5528 5040 5527 10461 11565 11342 
10 1903 1902 1031 1202 7422 10830 11566 11567 11184 5110 
10 2035 1312 1250 1195 9982 5458 11203 11202 5754 5804 
10 1346 2034 1250 1194 11568 11569 5835 5567 11570 5805 
10 1187 1186 1339 2030 5063 5545 5546 11571 9786 9787 
10 1488 2161 1392 1487 11572 10316 6049 6051 10317 6047 
10 1978 2018 2092 1167 7779 8108 7999 10326 11351 11352 
10 1137 1291 2120 1288 5373 11098 11573 5365 5375 11574 
10 835 1743 1742 1022 10714 6940 11575 4564 11576 11577 
10 1408 1512 2301 1405 6147 11142 11141 5762 6146 11114 
10 1946 1085 1299 2008 11578 5408 11579 7740 11580 11581 
10 2216 1324 2281 2197 11582 11583 8630 8396 11584 8628 
10 2028 2172 1323 2092 8260 11248 11585 8001 8259 11586 
10 2024 1177 1333 1332 11587 5524 11541 11588 5522 5526 
10 1011 823 1733 1734 4530 11591 11589 11590 11592 6913 
10 998 1918 1762 1881 11593 7465 11594 11595 7731 7732 
10 532 520 64 48 11596 9694 2931 9716 2874 9056 
10 749 748 487 1668 3743 11598 10141 11597 9699 6715 
10 681 312 311 454 3539 2626 3538 10806 8895 8843 
10 1022 1021 1117 1867 4565 5089 5367 9942 10401 9941 
10 1132 2136 1866 1294 10055 8145 10609 5385 10057 10627 
10 2012 1231 1142 1301 11599 5395 11600 11601 5414 5415 
10 1770 1054 1769 870 11602 10012 7024 10820 4659 10014 
10 1077 1941 1076 1241 11603 11604 4730 5227 11106 5226 
10 885 1781 1068 1069 11605 10259 4702 4704 11606 4706 
10 1581 640 1580 419 9956 11607 6456 6455 11608 6451 
10 753 355 1674 491 3752 11610 11373 11609 9479 6731 
10 1010 823 822 1733 4528 3964 4527 11611 11591 11612 
10 1085 1289 1299 2008 5369 5410 5408 11580 11613 11581 
10 1820 1660 1726 928 7170 6890 7172 11614 11615 10545 
10 1820 1661 1660 741 7171 6695 7170 11616 10222 11617 
10 1516 2247 2284 2296 11618 8642 11619 10425 8779 8780 
10 1117 1861 1818 948 9940 7295 11370 4848 9996 11483 
10 2022 1329 2146 2021 11072 11620 8185 7790 10887 8186 
10 1147 2117 2009 2003 11621 8070 11622 11623 8071 7773 
10 2149 1343 1504 2151 11624 6112 11625 8201 11626 11627 
10 1554 235 392 606 11628 9031 6372 9892 3312 11629 
10 1248 1298 1424 2078 5405 5820 5821 10121 11630 11631 
10 2151 1341 2222 2029 10659 10661 8416 8200 11632 8417 
10 969 752 1673 1830 4395 11635 11633 11634 10373 7201 
10 1885 2138 1184 1917 8157 11637 11636 7462 8156 11638 
10 2198 1518 2297 2245 11639 11640 8694 8638 11641 8695 
10 2001 1858 1145 1967 7711 11642 11175 7727 7610 11643 
10 1660 1661 479 741 6695 6693 6691 11617 10222 10220 
10 2249 2293 1442 2250 8769 11645 11644 8525 8740 11646 
10 2046 2160 2159 1502 8226 8227 8222 11647 11648 11649 
10 1941 1077 1942 1242 11603 11651 7538 11650 5229 11652 
10 2196 1418 1271 1414 11653 5795 11654 11157 5796 5784 
10 1858 929 1819 2001 11655 10695 7307 7711 11174 7710 
10 376 1696 1695 511 9820 6797 9818 9501 6795 6793 
10 1215 2051 1360 1361 11433 11656 5613 5614 11347 5616 
10 782 516 1701 781 9704 6810 11657 3839 9594 9703 
10 1743 1023 1022 835 11658 4568 11576 10714 4566 4564 
10 1166 1167 985 1871 5004 5002 5000 11659 10327 10314 
10 1209 1039 1038 1909 5132 4616 5131 10400 11660 11661 
10 2255 2271 1440 1527 8591 11664 11662 11663 11665 6320 
10 1358 1159 2094 1317 5803 11666 11460 5854 5471 11667 
10 1072 1071 1937 1784 4715 10429 11668 11669 11186 7521 
10 2145 2024 1333 1332 8183 11541 9959 9960 11588 5526 
10 1531 2291 2289 1470 11670 8669 11558 6220 11671 11672 
10 1562 810 1722 809 11673 11674 6877 11397 3924 11675 
10 965 966 1135 1998 4385 4900 4901 11676 11677 11678 
10 1705 1864 787 959 7308 11680 11679 11292 10535 4364 
10 1009 1186 1887 1008 5059 11682 11681 4526 5058 10250 
10 1320 2293 2225 2239 11683 8678 11044 11684 8679 8491 
10 715 714 905 1640 3642 4208 4209 10479 11251 11685 
10 1085 1862 1140 2008 11686 11687 4924 11580 7741 11688 
10 1484 2176 2290 2253 10269 8661 11226 10271 8534 8680 
10 1378 2066 1377 1476 11689 11690 5667 6017 11691 6016 
10 1564 619 248 402 11061 3351 11062 6402 10109 9022 
10 1252 1088 1251 1948 5257 5256 5259 11692 11693 11469 
10 2073 1385 2181 2072 11694 11695 8283 7943 10225 8284 
10 1581 640 831 1580 9956 3987 11696 6456 11607 11697 
10 515 516 781 1700 2841 9594 9593 6807 6808 9702 
10 1797 1088 1948 1087 10350 11693 7554 10351 4762 11698 
10 1022 835 834 1742 4564 4000 4563 11577 11575 11699 
10 1100 1809 1808 1959 10527 7140 11268 10532 7587 7588 
10 2319 12 87 8 9743 2380 9649 9648 9323 9324 
10 1780 1621 883 1779 7053 11701 11700 7054 7049 11702 
10 1701 968 781 1856 11703 4390 9703 7277 11704 11705 
10 376 1696 777 776 9820 10800 3823 3819 9821 3824 
10 1225 1058 1926 1927 5180 11707 11437 11706 11708 7493 
10 781 968 1701 782 4390 11703 9703 3839 4389 11657 
10 1946 1862 1085 2008 7549 11686 11578 7740 7741 11580 
10 1155 1967 1411 1145 11709 11710 5772 5443 11643 5773 
10 1331 1176 1175 2023 5519 5031 5518 9933 9842 9844 
10 934 1974 1975 1112 11358 7635 10136 4834 9815 10137 
10 1342 1504 1343 2151 6111 6112 5559 11711 11627 11626 
10 1862 1966 1140 2008 7608 11712 11687 7741 7750 11688 
10 1474 2234 2194 1501 11713 8471 11714 6317 11715 10491 
10 940 1155 1145 1967 4967 5443 4935 11716 11709 11643 
10 1858 940 1145 1967 10565 4935 11642 7610 11716 11643 
10 2127 2001 1145 1967 8102 11175 11717 8103 7727 11643 
10 1113 2101 1272 1975 11280 11105 5317 10135 8025 11718 
10 216 188 215 732 3275 3260 2527 3692 11719 3691 
10 984 1166 985 1871 4999 5000 4458 10343 11659 10314 
10 1858 929 2001 1145 11655 11174 7711 11642 4933 11175 
10 263 1575 414 413 11720 6436 8975 8974 6437 2734 
10 186 214 730 213 3257 3686 11721 3256 2525 3685 
10 1241 1242 2070 1382 5231 11722 11108 5677 5678 10763 
10 1519 1495 2265 2266 6250 11723 11336 11453 11724 8574 
10 2265 2292 1422 2173 8674 11725 11337 8750 8709 11726 
10 978 1710 793 1709 11115 10299 4436 11727 6845 11728 
10 1550 1710 794 1711 6843 10300 10994 6847 7291 10634 
10 230 229 600 387 2542 3294 3295 8997 8996 11729 
10 1929 1930 1228 1062 7502 10585 11730 11731 11732 5190 
10 1776 1930 1929 1062 7501 7502 7497 9756 11732 11731 
10 1575 263 633 413 11720 3395 11733 6437 8974 11405 
10 220 219 736 191 2531 3703 3704 3265 3264 10710 
10 1765 1049 1916 1048 11734 11083 7458 11735 4646 11085 
10 2210 1522 2162 2241 11736 11737 8375 8499 11738 8498 
10 1319 1318 2250 2130 5478 11740 11442 11739 11121 8526 
10 1910 1757 1040 1909 7442 11421 11741 7443 7438 11742 
10 1342 2029 2151 2031 11743 8200 11711 11744 7817 8199 
10 1826 935 746 934 10990 4298 10975 10624 4299 4294 
10 1298 2127 1145 1411 11745 11717 5406 5774 11746 5773 
10 1423 2233 1453 1434 11747 10726 5936 5857 11238 5937 
10 824 825 1575 1734 3970 11750 11748 11749 11751 6911 
10 2251 2185 1490 1489 8527 11382 11383 11489 11752 6057 
10 1544 2310 2302 1538 10500 8768 11753 6343 11444 11754 
10 795 981 1711 980 4444 11756 11755 4442 4446 10632 
10 264 263 634 414 2577 3397 3398 8920 8975 11757 
10 719 1802 909 910 11758 11759 4221 4223 11760 4225 
10 1181 2136 1947 1002 10518 8144 10208 5044 11518 11761 
10 1516 1532 2247 1524 6226 11762 11618 6328 6322 11763 
10 1072 889 1784 1073 4714 11764 11669 4718 4716 11765 
10 2247 1516 2307 2296 11618 11766 8789 8779 10425 8752 
10 1985 945 1836 1835 11767 10499 7663 7662 9753 7220 
10 635 1576 634 826 11386 11768 3402 3972 11387 3971 
10 384 225 226 596 8990 2538 8991 11769 3282 3283 
10 2211 1435 2169 2170 11243 11770 8536 8535 11771 8254 
10 610 240 1558 611 3325 11773 11772 3329 3327 11774 
10 1319 1441 2250 1318 5883 11775 11442 5478 5882 11740 
10 1693 1848 773 1692 7254 11776 10178 6788 7253 10176 
10 946 759 1837 1836 4328 11471 11472 10498 11777 7224 
10 1191 1891 1013 1190 11778 9943 5073 5075 9944 5071 
10 1857 791 1547 1548 11779 11780 7280 7279 10212 6356 
10 1012 1890 1013 1735 11781 9945 4538 11379 7378 11381 
10 1660 478 1659 740 6690 6689 6692 11782 11783 11784 
10 395 610 1558 1557 10003 11772 6385 6381 10004 6386 
10 890 1627 1626 1785 11785 6594 11786 11787 7067 7068 
10 896 895 1789 1631 4183 9948 11788 11452 11789 7079 
10 1752 846 1751 1592 9747 9980 6967 6966 11790 6962 
10 335 473 1632 705 8881 6607 11791 3610 11552 11792 
10 208 181 207 724 3247 3246 2519 3668 11793 3667 
10 1259 2083 1394 1395 10734 11794 5717 5719 11795 5721 
10 2123 2134 1300 1289 8136 10945 10946 11796 10944 5467 
10 2060 1373 1228 1426 11797 5651 11359 10335 5872 5829 
10 1402 2089 1401 2191 9797 11253 5742 11798 8312 10771 
10 1542 2300 1534 1523 11799 11800 6337 6336 11801 6295 
10 981 1870 1711 980 11802 7324 11756 4446 11803 10632 
10 1917 1185 1007 1008 11804 5055 11805 10248 5056 4523 
10 240 396 1558 611 9012 6384 11773 3327 11806 11774 
10 1516 1532 1514 2284 6226 6223 6166 11619 11807 11808 
10 1243 2071 1943 1942 10628 7935 11809 11810 7936 7541 
10 2155 1462 1514 1461 10620 6200 11811 11812 5965 6199 
10 1072 1784 1938 1073 11669 7525 11516 4718 11765 11517 
10 2248 2312 1526 2249 8786 11814 11813 8522 8785 11815 
10 2210 1291 1417 1288 11097 5793 11816 11817 5375 5792 
10 1661 742 741 815 11818 3722 10222 11819 3938 3939 
10 967 1154 1136 2000 4960 4961 4903 11519 10511 11520 
10 946 1837 2015 1836 11472 7767 11820 10498 7224 7766 
10 1979 1131 1125 1274 10452 4929 11231 10453 5323 5324 
10 1681 1682 362 762 6756 10599 10589 11821 10597 3779 
10 957 770 1689 769 4358 11447 11822 4359 3804 11823 
10 1691 372 773 1692 11824 3811 11825 6785 11826 10176 
10 1741 1581 832 1740 6933 9957 11827 6934 6929 11828 
10 1984 1983 2109 1249 7661 8047 8048 9862 11563 9864 
10 621 622 404 1566 3363 11831 11829 11830 11832 6408 
10 2158 1465 2157 1354 10657 11833 8221 10658 5972 10675 
10 1169 1873 987 1168 10381 11834 5008 5010 11835 5006 
10 1291 2210 1417 1421 11097 11816 5793 5806 11836 5808 
10 1979 1131 959 1125 10452 4889 11284 11231 4929 4871 
10 2156 1353 2043 2157 11837 10672 8213 8218 10674 8217 
10 2156 1463 2247 1532 11513 11839 8516 11838 6225 11762 
10 2067 1379 1477 1378 11840 6020 11841 11842 5670 6019 
10 1379 2067 1477 2176 11840 11841 6020 11843 8269 11844 
10 1979 2112 2009 1131 8055 8056 7744 10452 10383 11313 
10 374 1693 774 373 11845 11032 3813 2692 10177 3814 
10 2200 1407 1415 1515 10868 5789 11846 10870 6161 6162 
10 374 1693 373 509 11845 10177 2692 9497 6787 9496 
10 1977 939 1967 1155 10562 10561 7641 11847 4966 11709 
10 1484 1407 2290 1515 6040 10869 11226 6164 6161 10871 
10 1248 1298 2078 1004 5405 11630 10121 5248 5404 10123 
10 2151 1341 2029 1342 10659 11632 8200 11711 5556 11743 
10 1670 1819 784 1702 7169 10696 10574 6825 7168 10140 
10 1784 1785 1938 1073 7069 7524 7525 11765 11848 11517 
10 1468 1363 1467 2166 5986 5985 5988 10360 11849 11850 
10 1671 352 750 751 10667 3744 10557 11851 3747 3748 
10 641 1581 270 640 9955 9961 3418 3420 9956 3416 
10 1181 2012 2062 1231 10207 8134 10209 5393 11599 11852 
10 1083 1913 1247 1084 11853 10567 5245 5145 10569 5380 
10 2125 1138 1293 2103 11854 5382 10588 8096 11855 10587 
10 1620 460 689 1619 6572 11857 11856 6573 6568 11858 
10 1490 1489 2185 1394 6057 11752 11382 6055 6053 11859 
10 2023 1175 2022 1878 9844 11860 7793 7792 9845 7788 
10 810 1562 1723 1563 11673 6881 11861 11862 6401 6880 
10 1736 827 1014 826 10072 4540 10071 11863 3976 4539 
10 2022 1175 1174 1877 11860 5028 11074 7789 11864 11865 
10 1490 1523 2287 2251 6314 11866 11384 11383 11867 8732 
10 1901 2038 2037 1200 7837 7838 7834 11129 11868 11130 
10 1736 1576 826 1735 6918 11387 11863 6919 6914 11869 
10 1806 1096 1805 914 11870 11872 7131 11871 4785 11873 
10 1287 2211 2121 2170 11874 8377 11875 11876 8535 8596 
10 1576 825 826 1735 11877 3973 11387 6914 11380 11869 
10 1402 2192 2191 1497 10851 8317 11798 6077 10853 11127 
10 1841 764 1840 952 11878 11879 7234 9766 4345 11880 
10 2254 1308 2140 2195 11881 9953 8538 8537 9954 8456 
10 1891 1191 1013 1014 11778 5073 9943 10723 5074 4541 
10 1010 1187 1888 1009 5062 10544 11882 4529 5061 11883 
10 792 791 977 1709 3870 4432 4433 11550 11551 11884 
10 275 423 1585 424 8938 6467 11885 8939 2744 6466 
10 836 2006 1024 1744 11136 11886 4569 11137 7734 11887 
10 2022 1329 2021 1174 11072 10887 7790 11074 5513 10886 
10 1418 2242 1416 1513 10017 11888 5797 6152 11889 6150 
10 1510 2313 2301 1405 11890 8800 11891 6142 11113 11114 
10 1275 1276 1405 2215 5330 5750 5751 10085 11892 10086 
10 1831 753 1674 1673 11374 11373 7204 7203 11893 6733 
10 2310 1510 2313 2301 10502 11890 8803 8767 11891 8800 
10 2006 1897 1024 1744 8124 11894 11886 7734 7404 11887 
10 2282 1518 2297 1521 11895 11640 8771 11326 6189 11896 
10 1504 1343 2149 1459 6112 11624 11625 6183 5953 11897 
10 1576 825 634 826 11877 3969 11768 11387 3973 3971 
10 1192 1345 2032 1344 5563 11899 11898 5561 5565 11900 
10 975 949 1123 2003 4424 4865 4866 11901 11902 11289 
10 2222 1457 2282 2280 11903 11904 8633 8626 11905 8721 
10 1192 1892 1015 1014 11394 11906 5077 5076 10724 4544 
10 1576 1736 826 827 6918 11863 11387 11388 10072 3976 
10 1401 1496 1497 2191 6074 6078 6076 10771 11125 11127 
10 1801 1800 908 1090 7116 11907 10489 10477 11242 4767 
10 1441 2249 1526 1442 11908 11815 6232 5886 11644 6233 
10 2248 2307 1525 2312 8788 11910 11909 8786 8811 11911 
10 1311 2106 1304 1150 10911 10912 5653 5452 11912 5422 
10 2132 1186 1185 1887 11913 5060 11914 8122 11682 11915 
10 1307 2027 1109 2096 10494 11916 5436 10840 8012 10841 
10 1814 1815 1965 1107 7158 7605 7606 11917 11918 11919 
10 429 652 281 282 11305 3451 8949 8950 3452 2595 
10 1160 1159 1317 2094 4983 5471 5472 10038 11666 11667 
10 1742 834 1021 833 11699 4561 10287 10288 3997 4560 
10 1686 767 766 954 11920 3795 11039 11921 4349 4350 
10 2183 2106 1311 2235 8290 10911 10913 8477 8474 11922 
10 1895 2035 1894 1195 7827 7828 7395 11100 11202 11923 
10 1979 1864 1838 959 7646 7310 7645 11284 10535 11285 
10 1208 1907 1037 1207 11924 11925 5128 5130 11926 5126 
10 2128 2104 1271 2196 8132 11928 11927 8326 8327 11654 
10 1583 643 834 642 11929 3996 11930 11931 3426 3995 
10 654 284 430 1592 3458 8952 11932 11933 11934 6488 
10 2160 1318 2250 1502 11409 11740 8523 11648 6099 11935 
10 1262 2086 2085 1398 9792 7982 11936 5728 11937 11938 
10 1518 2297 1521 1543 11640 11896 6189 6310 11939 6313 
10 1518 1472 2297 1543 6177 11940 11640 6310 6311 11939 
10 995 810 1722 1723 4487 11674 10019 11941 11861 6882 
10 1265 1401 2088 1400 5737 10770 10519 5735 5739 10521 
10 429 653 652 282 11304 3456 11305 8950 3454 3452 
10 605 1714 1554 1553 11942 6853 11943 11944 6854 6374 
10 1736 1891 1013 1014 7381 9943 11945 10071 10723 4541 
10 995 1879 1723 1722 10018 7347 11941 10019 7348 6882 
10 1714 605 798 1553 11942 3887 11946 6854 11944 11947 
10 1258 1259 1095 1955 5280 5278 5276 10211 10735 11948 
10 1551 796 602 1552 10669 3880 11949 6368 10671 11950 
10 1890 1012 1734 1735 11781 11951 7379 7378 11379 6916 
10 702 470 701 1630 11952 11953 3603 10471 6602 11954 
10 759 946 758 1836 4328 4329 3772 11777 10498 10497 
10 1210 2046 1910 1909 11955 7860 11956 10398 7861 7443 
10 696 888 1625 695 4158 10052 10051 3585 4157 10046 
10 1594 657 848 656 11957 4038 11958 11544 3468 4037 
10 1174 992 1173 1877 5023 5021 5025 11865 11390 11391 
10 1445 2172 1322 2219 11249 11300 5895 11959 8405 11960 
10 1749 1031 843 1750 10832 4590 11961 6961 11962 10980 
10 1594 1753 656 848 6968 11543 11544 11958 11963 4037 
10 1929 1373 2060 2059 11964 11797 7901 7897 11965 7902 
10 1753 847 656 848 10969 4035 11543 11963 4039 4037 
10 1567 1658 859 1729 6834 11967 11966 6897 6993 11968 
10 624 1567 623 859 11969 10186 3369 4072 11966 4071 
10 814 813 1763 1565 3936 10579 9896 10828 10580 7293 
10 1658 927 859 1729 10955 4415 11967 6993 10716 11968 
10 1469 2165 2291 1470 10855 8667 10854 5994 11970 11671 
10 1804 912 1645 1646 11971 11972 7124 7123 11973 6651 
10 1137 1133 1997 964 4908 11281 11974 4906 4897 11283 
10 836 1023 1743 835 4567 11658 10713 4003 4566 10714 
10 1859 1682 1681 762 7286 6756 7285 11975 10597 11821 
10 1520 2182 1517 2261 11976 11977 6186 11028 8560 11027 
10 2046 1910 2047 1211 7860 7864 7865 11978 11979 9882 
10 957 1846 2016 1845 11980 7772 11981 11982 7250 7770 
10 2110 1121 1250 1312 9974 5252 11983 9981 5454 5458 
10 1118 1278 2108 1249 5333 9869 9870 5251 5335 11984 
10 406 407 1568 254 2727 6415 6416 8906 8907 11985 
10 775 1694 375 1695 11986 11988 3816 11987 6794 11989 
10 2035 1297 1312 1195 11990 5755 9982 11202 5428 5754 
10 1729 1567 1568 859 6897 6417 6896 11968 11966 11991 
10 811 810 996 1723 3927 4489 4490 10077 11861 10239 
10 1326 1448 2305 1447 5913 11993 11992 5910 5915 10987 
10 439 1600 438 293 6511 6512 2759 8969 11508 8968 
10 1891 1192 1191 1014 11393 5078 11778 10723 5076 5074 
10 845 1592 1591 1751 11994 6489 10340 10341 6962 6963 
10 1342 1190 2031 1343 5555 11995 11744 5559 5557 11996 
10 284 654 655 1592 3458 3462 3460 11934 11933 11997 
10 371 1689 370 506 11445 11392 2688 9181 6776 9198 
10 1517 2182 1520 1424 11977 11976 6186 6172 11998 6184 
10 1598 291 662 661 11999 3481 10732 10733 3479 3483 
10 2155 2243 1514 2284 8502 12000 11811 8641 8675 11808 
10 2061 1158 2103 1426 10529 10531 8155 10336 5980 10337 
10 646 1586 424 1585 12001 6470 12002 10816 6471 6466 
10 869 1610 1769 870 10276 7020 12003 4105 10278 10014 
10 649 648 426 278 3444 12004 10164 3442 3440 8980 
10 1721 807 1560 614 11423 12005 6875 11422 3914 12006 
10 869 1769 1053 870 12003 10013 4656 4105 10014 4657 
10 648 649 426 1588 3444 10164 12004 12007 10163 6476 
10 1088 1089 1912 1252 4765 12009 12008 5257 5258 12010 
10 1327 2026 2019 2223 10059 7805 11222 10968 8421 8422 
10 1307 1501 1305 2027 6094 6095 5437 10494 10493 10998 
10 1375 1474 2228 1439 6010 11454 11455 5876 6012 12011 
10 1171 2026 1875 2019 12012 7804 12013 12014 7805 7780 
10 785 973 1862 1702 4417 12015 10377 10139 10138 7301 
10 1734 823 1733 1574 11592 11591 6913 6912 12016 6908 
10 882 1065 1778 881 4693 12018 12017 4141 4692 10862 
10 1698 378 514 513 9919 9506 6802 6801 9505 2839 
10 1727 819 1730 1006 12019 10235 6901 9937 4516 12020 
10 1628 891 1786 1627 11458 12021 7070 6597 12022 7071 
10 1501 1439 1305 2027 6096 5877 6095 10493 12023 10998 
10 1065 1064 1778 881 4694 10860 12018 4692 4690 10862 
10 340 477 476 1636 8889 2798 8888 12024 6619 6620 
10 1041 1911 1910 1211 10105 7446 12025 5138 9881 11979 
10 889 1785 1784 1073 12026 7069 11764 4716 11848 11765 
10 616 1562 810 617 9834 11673 3922 3347 12027 3923 
10 1965 1106 1814 1107 11439 11440 7606 11919 4819 11917 
10 1219 1218 1922 1052 5164 12029 12028 5162 5160 12030 
10 1094 1803 911 1093 12031 9812 4778 4780 12032 4776 
10 201 175 717 1642 3235 11263 3647 12033 6638 11264 
10 1793 1083 900 1084 10778 4747 10780 11389 5145 5146 
10 1732 1010 822 1733 10267 4527 10252 6910 11611 11612 
10 709 340 476 1636 3623 8888 12034 10093 12024 6620 
10 866 1608 1607 1766 12035 6537 12036 12037 7010 7011 
10 687 318 317 459 3557 2632 3556 9967 8896 8853 
10 1729 816 1568 1728 10718 12038 6896 6898 11533 6894 
10 1662 344 742 345 12039 3721 10161 12040 2660 3720 
10 205 179 721 722 3273 10685 3659 3661 11357 3663 
10 1881 1880 1724 997 7355 7350 7354 12041 10654 10233 
10 318 687 688 459 3557 3561 3559 8896 9967 10214 
10 1617 686 1618 878 11527 11220 6567 10876 4128 12042 
10 1192 1892 2032 2033 11394 7818 11898 12043 7822 7823 
10 1452 2145 2299 2237 9958 8706 12044 10392 8484 8705 
10 1105 1963 1269 1964 11503 12046 5308 12045 7604 10370 
10 2061 1930 1931 1230 7904 7505 7903 12047 11419 10749 
10 1764 1969 1047 1915 7614 9929 9928 7456 7617 12048 
10 1932 1064 1931 1778 12049 11554 7508 7507 10860 7503 
10 1066 1067 1780 1933 4700 10182 11223 11224 10729 7509 
10 1944 2072 1244 1245 7938 10983 12050 12051 12052 5240 
10 359 1677 757 358 9950 9951 3764 2675 12053 3765 
10 470 702 701 332 11952 3603 11953 8899 3601 3599 
10 1965 1106 1270 1964 11439 5311 12054 7607 10372 10371 
10 1941 1242 1942 2070 11650 11652 7538 7933 11722 7932 
10 1791 1945 1944 1081 7546 7547 7542 9977 12055 12056 
10 2260 2181 1482 2180 8556 11147 11145 8557 8285 10217 
10 176 1643 1642 718 6641 6642 6637 12057 12058 12059 
10 1298 2078 2127 2182 11630 8137 11745 12060 8286 8287 
10 1951 1952 1091 1801 7568 12061 10474 7563 7567 10476 
10 2254 1308 1500 2140 11881 6087 10151 8538 9953 11090 
10 823 1573 1733 1574 10251 6909 11591 12016 6435 6908 
10 1489 1488 2184 1393 6054 10305 11490 6052 6050 12062 
10 1076 1787 893 892 12063 12064 4726 4725 12065 4174 
10 1853 965 1997 1998 11328 11282 7699 7701 11676 7703 
10 201 176 1642 718 3236 6637 12033 3649 12057 12059 
10 175 176 1642 201 2486 6637 6638 3235 3236 12033 
10 1787 1076 1075 892 12063 4727 12066 12065 4725 4723 
10 359 1677 358 495 9950 12053 2675 9487 6741 9486 
10 1336 2049 2091 2229 11496 8153 11497 12067 8445 8446 
10 1102 1103 920 1811 4807 4805 4803 9771 11227 11229 
10 1787 1786 892 1075 7075 12068 12065 12066 12069 4723 
10 1825 934 745 933 10625 4295 12070 10613 4296 4291 
10 223 296 441 6 3276 8973 12071 2535 2610 8902 
10 7 223 441 6 8984 12071 2762 2844 2535 8902 
10 1983 1118 2108 1249 11562 9870 8045 11563 5251 11984 
10 356 493 755 1675 9482 12073 3759 12072 6735 12074 
10 1787 1628 892 1786 7074 10664 12065 7075 7070 12068 
10 1400 2087 1399 2190 10522 12075 5736 10786 8310 12076 
10 361 33 1680 497 9472 6750 9779 9473 2821 6749 
10 1318 1441 2250 1502 5882 11775 11740 6099 6100 11935 
10 924 1655 734 733 12077 10704 4266 4265 10002 3699 
10 1715 1978 985 986 7643 10328 10312 12078 10369 4461 
10 230 1550 388 387 10676 6360 8998 8997 6361 2707 
10 1798 1087 1084 904 10895 4759 11385 10896 4757 4750 
10 1793 1083 1084 1913 10778 5145 11389 7720 11853 10569 
10 1126 1990 955 1128 12079 12080 4873 4881 12081 4880 
10 171 196 1638 712 3227 12083 6626 12082 3632 10899 
10 1584 423 645 274 6463 12084 10068 11124 8937 3430 
10 1330 1451 2209 2283 5925 11321 11431 12085 11320 8634 
10 1715 1716 986 801 6861 12087 12078 12086 12088 4460 
10 1551 389 1552 602 6363 6367 6368 11949 12089 11950 
10 711 170 1637 171 12090 6624 10307 12091 2481 6623 
10 915 1097 1806 914 4788 12093 12092 4240 4787 11871 
10 1638 196 171 172 12083 3227 6626 6625 3228 2482 
10 1530 2291 1469 2294 12094 10854 6218 11179 8685 12095 
10 400 247 1563 617 9019 12096 6400 10011 3346 12097 
10 491 354 490 1673 9478 9477 2814 6729 12098 6728 
10 679 1611 452 678 12099 6544 12100 3534 10029 10027 
10 682 455 1614 1615 12101 6553 12102 12103 6557 6558 
10 378 377 1697 778 2696 12104 11235 3825 3826 11236 
10 2161 2263 2273 1487 8566 8599 8597 10317 12105 12106 
10 1704 760 33 1680 12107 10988 6824 6823 10863 6750 
10 2270 1530 1468 2294 11177 6329 12108 8684 11179 12109 
10 2035 2034 1894 1194 7829 7824 7828 11204 11570 12110 
10 1468 1530 2270 1467 6329 11177 12108 5988 6339 12111 
10 1061 1929 1227 1228 12112 12113 5187 5189 11730 5191 
10 185 729 1651 728 12114 9807 6664 12115 3684 9808 
10 924 1814 1107 925 9800 11917 4817 4270 9801 4818 
10 1650 726 1649 183 12116 10087 6663 6662 12117 6658 
10 1906 1907 2043 1207 7434 7851 7852 11158 11926 11160 
10 1814 1815 1107 925 7158 11918 11917 9801 10302 4818 
10 2154 2040 2041 1350 8208 7847 8207 12118 12119 12120 
10 1754 1595 1755 849 6971 6975 6976 12121 12122 12123 
10 852 1757 1040 853 10776 11421 4617 4054 10108 4618 
10 1756 850 1755 1596 10333 10774 6979 6978 10334 6974 
10 1026 1746 838 1745 12124 12126 4575 12125 6949 11135 
10 2139 1969 1214 1334 8162 11188 11429 10459 12127 5608 
10 1111 1974 1973 1824 9817 7632 10838 12128 7630 7628 
10 2004 1828 1827 936 7725 7197 7724 11369 11368 9689 
10 1114 935 936 1827 4841 4302 4840 12129 12130 9689 
10 670 862 1604 669 4080 9997 12131 3507 4079 9998 
10 1526 2248 1465 1525 11813 12132 6206 6208 11909 6204 
10 1637 712 1638 858 12133 10899 6627 10306 4200 11366 
10 1637 712 858 711 12133 4200 10306 10307 3633 4069 
10 2028 1165 2131 1872 11048 10546 8117 7810 10322 8118 
10 1219 1220 1053 1922 5167 5165 5163 12028 12134 12135 
10 467 466 697 1626 2788 10037 12136 6589 6590 9991 
10 1820 1726 1950 928 7172 7560 7561 11614 10545 9783 
10 1435 1417 2275 1454 5859 11246 11244 5939 5940 12137 
10 884 1067 1068 1780 4699 4703 4701 10260 10182 10183 
10 324 464 694 325 8863 11148 3577 2639 8864 3578 
10 1826 935 1976 1827 10990 11278 7636 7193 12130 7637 
10 1559 1719 1558 805 6868 6869 6389 12138 12139 12140 
10 701 469 1629 470 12141 6599 12142 11953 2791 6598 
10 1941 1077 1788 1942 11603 12143 7533 7538 11651 7537 
10 2265 1494 1422 1493 11335 6269 11337 9872 6069 6307 
10 1383 1384 2179 1481 5685 12144 10651 6030 6031 10652 
10 1837 946 2015 947 11472 11820 7767 11473 4333 12145 
10 1685 366 501 765 12146 9189 6763 12147 3787 12148 
10 746 1667 1826 1666 10974 7189 10975 12149 6713 7188 
10 1676 357 755 756 12150 3758 12151 10148 3762 3763 
10 946 1122 2015 947 4863 10283 11820 4333 4862 12145 
10 627 257 408 1570 3377 8910 12152 10189 10158 6422 
10 1837 2005 947 2015 7728 12153 11473 7767 8116 12145 
10 1679 360 1678 758 12154 12155 6748 11199 3767 9860 
10 2005 1122 947 2015 12156 4862 12153 8116 10283 12145 
10 1655 924 923 733 12077 4267 12157 10002 4265 4263 
10 2116 1413 1282 1277 12158 5778 12159 12160 5779 5346 
10 1122 1121 2036 1312 4864 9973 10282 5453 5454 9983 
10 648 647 1587 277 3441 10742 12161 3439 3437 12162 
10 1738 1017 1739 1894 12163 12164 6928 7391 12165 7390 
10 2116 1990 1277 1128 8066 12167 12160 12166 12081 5331 
10 274 1584 422 644 11124 6464 8936 3428 10067 10455 
10 1130 957 1846 2016 4886 11980 12168 12169 11981 7772 
10 1874 1170 1169 988 10939 5013 10380 10378 5011 5009 
10 1846 957 1130 958 11980 4886 12168 12170 4363 4885 
10 1193 2034 1893 2033 12171 7825 11559 12172 7826 7821 
10 1130 1125 1271 2014 4926 5315 5316 12173 11233 12174 
10 2076 1279 1310 1123 10611 5448 10760 11290 5336 5447 
10 1896 1895 1740 1019 7398 7393 7397 10286 12175 12176 
10 399 400 616 245 2719 9832 9833 9017 9018 3342 
10 54 69 530 70 9070 2926 12177 9071 2359 2925 
10 1352 2156 2042 2155 10617 8214 12178 10618 8215 8210 
10 1352 1206 1205 2042 5587 5124 5586 12178 12179 12180 
10 2043 1352 2042 1206 12181 12178 7853 11161 5587 12179 
10 417 638 267 268 11378 3409 8925 8926 3410 2581 
10 1903 1032 1751 1904 12182 12183 7420 7425 12184 7424 
10 1991 1990 2116 1128 7681 8066 8067 12185 12081 12166 
10 1677 757 1835 1678 9951 9752 7215 6745 9859 7216 
10 846 654 845 1592 4031 4029 4033 11790 11933 11994 
10 384 596 226 1547 11769 3283 8991 6352 12186 12187 
10 1027 839 1026 1746 4578 4576 4580 12188 12189 12124 
10 384 385 1547 226 2704 6351 6352 8991 8992 12187 
10 528 42 59 58 9738 9043 2912 2911 9042 2346 
10 1891 1892 2032 1192 7386 7818 7819 11393 11394 11898 
10 1857 977 1993 976 12190 12192 7687 12191 4434 12193 
10 2241 2167 2168 1454 8532 8248 8531 11208 11207 10707 
10 1143 938 1152 2010 4927 4954 4973 9924 9883 12194 
10 665 439 294 664 12195 8970 3490 3492 11515 3488 
10 2285 1448 1508 2311 12196 6133 12197 8804 12198 12199 
10 863 862 1046 1761 4084 4636 4637 10449 11407 10690 
10 671 863 1605 670 4083 10447 10889 3510 4082 12200 
10 2051 2017 2164 1361 7875 8235 8236 11347 12201 11348 
10 770 1690 771 958 11448 11053 3807 4362 11139 4361 
10 1775 1060 1774 877 12202 10061 7039 11172 4678 11173 
10 1621 1622 1780 691 6579 7052 7053 11029 10274 10275 
10 1769 1053 1922 1768 10013 12135 7476 7021 10813 7477 
10 1071 1936 1783 1070 10427 7518 10428 4712 11068 10423 
10 1060 1061 877 1775 4682 4680 4678 12202 11176 11172 
10 770 1846 1690 958 12203 7248 11448 4362 12170 11139 
10 684 1615 683 876 12204 11006 3549 4122 12205 4121 
10 1181 2012 1231 1139 10207 11599 5393 5045 12206 5394 
10 1781 1935 1068 1069 7516 12207 10259 11606 12208 4706 
10 873 874 1772 1057 4117 12210 12209 4668 4669 12211 
10 1614 313 455 682 12212 8845 6553 12102 3542 12101 
10 968 967 1856 2000 4391 12213 11704 10513 11519 7708 
10 2125 1154 2075 1315 12214 12216 8097 12215 5466 12217 
10 2067 2068 1379 1939 7928 12218 11840 7923 7927 12219 
10 357 1676 755 493 12150 12151 3758 9483 6737 12073 
10 1897 1745 837 1744 7403 10817 12220 7404 6946 12221 
10 1181 2012 1139 1947 10207 12206 5045 10208 7775 12222 
10 2065 1236 1235 1937 12223 5213 10433 7917 12224 12225 
10 1699 379 780 380 10746 3832 10482 10747 2698 3831 
10 696 889 1625 888 4160 12226 10051 4158 4162 10052 
10 931 742 743 1822 4286 3725 4285 9850 9852 10421 
10 2057 2170 1371 2058 8253 12228 12227 7896 8252 12229 
10 753 1831 941 969 11374 11372 4315 4394 12230 4397 
10 1204 1203 1350 2041 5118 5580 5581 11414 12231 12120 
10 1357 2160 1502 1317 10720 11648 6101 5978 11410 6098 
10 487 748 749 351 11598 3743 10141 5929 3738 3742 
10 1828 1124 2013 1796 12232 9965 7758 7196 12233 7759 
10 794 979 980 1992 4439 4443 4441 10633 12234 10631 
10 978 792 977 1709 4435 4433 4437 11727 11550 11884 
10 1710 979 1992 1868 10298 12234 7683 7319 12235 7684 
10 1550 1710 1549 600 6843 6844 6362 10677 10993 12236 
10 1870 1914 2133 1163 7453 8129 8130 12237 11063 11065 
10 1328 1449 2217 2223 5917 12240 12238 12239 10967 8423 
10 1710 979 794 1992 10298 4439 10300 7683 12234 10633 
10 1828 1124 1115 2013 12232 4869 11367 7758 9965 11042 
10 447 1606 446 672 6529 6530 2768 12241 10963 12242 
10 948 2005 1818 1117 11526 7729 11483 4848 11153 11370 
10 937 1669 1668 749 10572 6719 12243 4303 10571 11597 
10 2139 2051 2237 1360 8160 8482 8483 11430 11656 12244 
10 1808 1099 1807 916 11269 10919 7137 10918 4793 10921 
10 2136 2079 1866 1294 8150 7959 8145 10057 10605 10627 
10 1450 1329 1328 2217 5920 5514 5919 12245 12246 12238 
10 1958 1099 1807 1808 10110 10919 7585 7584 11269 7137 
10 302 671 446 301 3509 12247 8891 2616 3508 8828 
10 401 618 248 1564 12248 3349 9021 6403 11060 11062 
10 1577 1736 1576 827 6917 6918 6444 12249 10072 11388 
10 1203 2040 1350 2041 12250 12119 5580 12231 7847 12120 
10 1453 2149 1437 2235 11480 11427 6254 10727 8622 12251 
10 1981 1980 1150 941 7652 12254 12252 12253 12255 4949 
10 1023 1743 1861 2006 11658 7401 9874 12256 7735 8090 
10 640 1581 831 832 9956 11696 3987 3989 9957 3991 
10 946 1122 1121 2015 4863 4864 4859 11820 10283 10010 
10 274 422 273 644 8936 8935 2587 3428 10455 3427 
10 423 275 645 274 8938 3431 12084 8937 2588 3430 
10 417 637 638 1578 11377 3411 11378 6445 11459 12257 
10 1752 1034 1905 1904 10971 12258 7427 7423 12259 7428 
10 1204 1034 1033 1904 5117 4601 5116 12260 12259 12261 
10 1504 1427 1437 2245 6157 5867 6156 12262 10113 11428 
10 724 181 1647 1648 11793 6652 12263 12264 6656 6657 
10 2095 1980 1977 1141 8009 7649 8008 12265 10254 10256 
10 1171 2026 2019 1327 12012 7805 12014 5506 10059 11222 
10 1709 977 1868 1993 11884 12266 7320 7686 12192 7688 
10 753 1674 1673 491 11373 6733 11893 11609 6731 6729 
10 790 597 596 1547 3863 3287 3862 12267 12268 12186 
10 374 1693 509 1694 11845 6787 9497 12269 6791 6789 
10 2112 1131 2141 2009 10383 12270 8172 8056 11313 8170 
10 874 681 873 1613 4115 4113 4117 12271 10807 12272 
10 1235 1375 1376 2065 5657 5661 5659 10433 10431 10788 
10 1518 1472 1427 2198 6177 6001 6176 11639 12273 10111 
10 1438 1527 2272 1531 6230 12274 9911 6259 6263 9909 
10 51 9 56 67 2337 2343 2878 9049 9048 9734 
10 685 1616 684 877 10417 12275 3552 4125 10416 4124 
10 1474 2234 1501 1430 11713 11715 6317 6286 11542 6097 
10 1919 1859 950 1839 7467 11356 10866 7468 7287 11191 
10 2067 2176 2175 1477 8269 8270 8265 11841 11844 12276 
10 764 365 765 1684 3784 3788 3789 12277 11123 12278 
10 1236 1237 2066 1377 5216 10044 12279 5662 5663 11690 
10 1841 1685 765 953 7233 12147 11315 9765 12280 4347 
10 1632 896 897 1790 11451 4186 11195 7082 9969 9970 
10 1628 1787 893 1629 7074 12064 12281 6600 7073 12282 
10 1949 1144 2135 1987 12283 12284 8141 7669 12285 8166 
10 1952 1254 1951 1091 11120 10466 7568 12061 5264 10474 
10 1682 1683 763 1839 6759 11498 10596 7227 7228 11190 
10 2271 1438 2272 2236 12286 9911 8595 8590 12287 8593 
10 1100 1099 1263 1959 4798 5290 5291 10532 11262 9793 
10 2072 1385 1384 1244 10225 5688 10226 10983 5686 5684 
10 2026 1328 1172 1173 10058 5509 10060 12288 5510 5022 
10 913 1647 1646 1805 12289 6654 12290 12291 7126 7127 
10 1001 1973 1972 932 12292 7629 12293 4504 12294 12295 
10 1217 2017 1920 1216 12296 7776 10007 5158 12297 12298 
10 778 1853 965 964 12299 11328 4381 4377 11329 4382 
10 1698 1853 778 1697 7268 12299 11234 6803 7267 11236 
10 1958 1262 2086 2085 9791 9792 7981 7977 11936 7982 
10 1819 973 1966 1004 10694 12300 7609 10925 4511 10124 
10 972 1947 1817 1002 12301 7551 10649 4507 11761 12302 
10 1248 2123 1966 2078 10849 8088 10122 10121 8089 7957 
10 1784 1072 1938 1937 11669 11516 7525 7521 11668 7526 
10 1968 2012 1863 1142 7756 7757 7613 10445 11600 10446 
10 1181 2136 1002 1314 10518 11518 5044 5462 10056 5461 
10 973 1819 1966 1862 10694 7609 12300 12015 7304 7608 
10 1817 1132 788 1002 10608 4891 10650 12302 4892 4506 
10 1896 1297 2036 1895 12303 10438 7830 7398 11099 7831 
10 1132 2136 1002 1866 10055 11518 4892 10609 8145 12304 
10 1589 1749 843 1590 6957 11961 12305 6483 6956 10981 
10 2136 1947 1002 1866 8144 11761 11518 8145 7552 12304 
10 988 1874 1717 1873 10378 7333 11076 10379 7334 7330 
10 757 758 1835 1678 3769 10933 9752 9859 9860 7216 
10 428 280 281 651 8947 2594 8948 11408 3448 3449 
10 1714 605 1554 799 11942 11943 6853 10318 3889 9891 
10 2020 1326 2216 1325 10958 10957 8394 12306 5505 12307 
10 1947 1817 1002 1866 7551 12302 11761 7552 7315 12304 
10 1817 1132 1002 1866 10608 4892 12302 7315 10609 12304 
10 2128 1130 1271 2014 12308 5316 11927 8106 12173 12174 
10 1704 1795 974 1861 7097 9886 10154 7296 7299 9876 
10 1916 1050 1920 1216 12309 11340 7472 12310 5154 12298 
10 1599 438 663 292 6508 12312 11252 12311 8967 3484 
10 385 597 1548 1547 11201 10213 6355 6351 12268 6356 
10 1049 1765 1916 1766 11734 7458 11083 12313 7012 7457 
10 684 456 315 314 12314 8848 3548 3547 8847 2629 
10 533 55 521 70 9675 2882 9676 2939 9068 12315 
10 1874 1170 2020 1169 10939 10941 7782 10380 5013 12316 
10 1740 832 1019 831 11828 4555 12176 10601 3991 4554 
10 830 1738 1739 1579 12317 6928 11500 11501 6923 6927 
10 1463 1353 1352 2156 5967 5591 5966 11513 11837 10617 
10 1687 1688 768 1844 6774 12318 9775 7241 7242 9776 
10 1014 1736 826 1013 10071 11863 4539 4541 11945 4537 
10 1736 1735 826 1013 6919 11869 11863 11945 11381 4537 
10 1903 2040 1203 1904 7843 12250 12319 7425 7842 12320 
10 1353 1352 2043 1206 5591 12181 10672 5589 5587 11161 
10 1203 1033 1032 1904 5114 4598 5113 12320 12261 12184 
10 1889 1010 1888 1733 12321 11882 7377 7376 11611 7372 
10 670 445 1605 301 12322 6527 12200 3506 8829 12323 
10 1752 1033 1904 1751 9979 12261 7423 6967 9978 7424 
10 610 395 1558 240 10003 6385 11772 3325 9011 11773 
10 2011 1883 1003 1886 8120 12325 12324 7754 7369 11534 
10 2222 1457 1340 1341 11903 5947 12326 10661 5948 5553 
10 1735 825 826 1013 11380 3973 11869 11381 4536 4537 
10 819 1730 1007 820 10235 9984 4518 3955 9985 4519 
10 1883 1003 1886 1728 12325 11534 7369 7359 11535 7366 
10 1740 1020 1741 1896 12327 12328 6934 7397 10285 7396 
10 1897 1143 1152 2010 12329 4973 12330 7764 9924 12194 
10 1059 1225 1927 1058 5181 11706 9904 4676 5180 11708 
10 313 455 683 314 8845 11007 3544 2628 8846 3545 
10 385 1548 227 386 6355 11399 8993 2705 6354 8994 
10 1225 2057 1370 1371 11436 10411 5642 5644 12227 5646 
10 653 845 1591 844 4028 10340 11306 4026 4030 10338 
10 1749 1902 1901 1030 7418 7419 7414 10833 10831 12331 
10 840 1027 1747 839 4579 10134 10133 4015 4578 12332 
10 647 839 1586 838 4010 10745 10743 4008 4012 12333 
10 1757 1039 1909 1756 11420 11660 7438 6982 12334 7439 
10 1861 948 1704 1818 9996 10153 7296 7295 11483 7167 
10 1895 1894 1739 1018 7395 7390 7394 10262 12335 10263 
10 1159 1358 2094 1993 5803 11460 11666 12336 11461 8007 
10 1597 851 1756 1596 9837 10332 6977 6504 9838 6978 
10 1615 314 456 684 11005 8847 6556 12204 3547 12314 
10 1061 1775 1928 1929 11176 7494 12337 12112 7498 7499 
10 997 1880 1178 2025 10654 10655 5036 12338 7798 11342 
10 1061 1060 1928 1775 4682 10857 12337 11176 12202 7494 
10 1918 1213 1046 1969 12339 5143 10689 7616 11189 12340 
10 1160 1318 1161 2130 5473 5474 4986 10040 11121 12341 
10 1303 1428 2279 1388 5834 12343 12342 5698 5833 11524 
10 802 1716 987 1717 12344 12346 4463 12345 6864 12347 
10 1240 1941 1241 1076 12348 11106 5228 5224 11604 5226 
10 1614 313 682 312 12212 3542 12102 12349 2627 3541 
10 1318 1319 1161 2130 5478 5476 5474 11121 11739 12341 
10 1940 1076 1240 1075 12350 5224 10803 12351 4727 5223 
10 1940 2068 1939 1239 7926 7927 7532 12352 12353 12354 
10 1621 691 883 690 11029 4143 11701 11017 3570 4142 
10 891 890 1785 1627 4168 11787 12355 12022 11785 7067 
10 1319 2144 1161 2130 10999 11000 5476 11739 8180 12341 
10 1067 1232 1068 1934 5200 5201 4703 10184 10292 10185 
10 2048 1389 2212 2124 11492 12356 8379 8093 12357 8380 
10 2144 2130 1992 1161 8180 8114 8179 11000 12341 12358 
10 695 465 325 1624 12359 8865 3580 10048 6583 11096 
10 1863 972 1817 1703 11077 10649 7303 7302 10550 7163 
10 71 533 523 67 2934 9640 9723 2922 2933 9641 
10 692 1622 322 691 10996 12360 3571 3573 10274 3569 
10 1633 473 706 705 6611 11167 10081 10083 11552 3615 
10 972 1947 1863 1817 12301 7550 11077 10649 7551 7303 
10 1036 1754 848 1035 12361 12362 4605 4607 12363 4603 
10 1538 2258 1481 1480 10228 12364 6283 6282 10229 6032 
10 706 473 336 705 11167 8900 3613 3615 11552 3611 
10 1809 918 1651 919 10526 12366 7138 12365 4252 9809 
10 1754 1753 848 1035 6973 11963 12362 12363 12367 4603 
10 1540 2302 1541 2263 12368 12370 6303 12369 8764 12371 
10 1424 2182 2274 2207 11998 8606 12372 12373 8449 8605 
10 36 785 1702 784 3847 10139 10575 3846 3849 10140 
10 847 1753 1035 848 10969 12367 4602 4039 11963 4603 
10 704 335 1632 705 3608 11791 11286 3612 3610 11792 
10 1523 1507 2213 1425 6195 10930 12374 6196 6123 11093 
10 1669 1796 937 1828 7099 10898 10572 7195 7196 12375 
10 731 1653 921 1812 11296 12376 4257 10516 7148 10517 
10 1967 2127 1411 1145 8103 11746 11710 11643 11717 5773 
10 1702 36 1670 37 10575 10573 6825 6819 2859 6720 
10 847 1034 1035 1753 4600 4604 4602 10969 10970 12367 
10 2130 1160 1992 1161 10040 12377 8114 12341 4986 12358 
10 933 1111 932 1824 4831 4832 4293 9749 12128 12378 
10 1666 1665 746 348 6710 12380 12149 12379 12381 3733 
10 61 43 62 45 9706 9731 2350 9050 2886 9051 
10 1109 2027 1307 1305 11916 10494 5436 5427 10998 5437 
10 847 1593 656 655 9746 10622 4035 4034 12382 3465 
10 2204 2233 1278 2108 8465 12384 12383 8354 8464 9869 
10 2026 1875 1876 1172 7804 7340 7803 10060 12385 10065 
10 1666 484 1665 348 6708 6706 6710 12379 5891 12381 
10 1153 971 1994 1151 4959 11022 12386 5343 4951 10640 
10 1765 1049 866 1766 11734 4645 12387 7012 12313 12037 
10 1120 1121 1250 2110 4861 5252 5253 12388 9974 11983 
10 944 1984 1983 1834 12389 7661 12390 10768 7659 7657 
10 1969 1918 1761 1046 7616 7464 7615 12340 10689 10690 
10 862 863 1604 1761 4084 10448 9997 11407 10449 6995 
10 1219 1922 2052 2053 12028 7876 12391 12392 7880 7881 
10 1364 1219 2052 2053 5624 12391 10797 12393 12392 7881 
10 1225 1224 1926 1058 5182 11438 11437 5180 5178 11707 
10 607 1555 392 606 12394 6376 10023 3317 12395 11629 
10 775 1694 1850 1849 11986 7258 11024 11025 7256 7260 
10 1301 2012 1932 1931 11601 7906 12396 10750 7907 7508 
10 2002 1848 960 1849 7712 11069 10641 7713 7257 11014 
10 962 1995 1850 1851 11035 7692 11036 12397 7693 7263 
10 1192 1891 1191 2032 11393 11778 5078 11898 7819 12398 
10 1880 811 1723 1724 12399 10077 7351 7350 10033 6885 
10 1055 1771 1770 1924 10826 7027 12400 12401 7482 7483 
10 1270 1182 2049 1183 5419 12402 11494 5532 5051 12403 
10 1566 621 622 667 11830 3363 11832 12404 3937 3498 
10 505 1688 369 504 6773 12405 9196 2829 6772 9195 
10 1741 1021 1867 1020 10289 10401 7400 12328 4562 10402 
10 2012 1968 1931 1301 7756 7998 7907 11601 12406 10750 
10 1339 2221 2030 1338 10509 8409 9787 5547 12407 9788 
10 2061 1230 1931 1158 12047 10749 7903 10529 5979 10748 
10 1187 1888 1887 2030 10544 7374 12408 11571 7813 7814 
10 2138 1885 1184 1183 8157 11636 11637 12409 12410 5054 
10 1686 1842 766 1685 7236 12411 11039 6768 7235 11038 
10 957 769 1845 956 4359 12412 11982 4360 4355 11272 
10 1831 1980 969 1830 7648 10255 12230 7205 7647 11634 
10 625 407 1569 255 10353 6419 10355 3371 8908 12413 
10 1374 1234 1233 2064 5655 5207 5654 11449 12414 10592 
10 2016 1846 1130 2014 7772 12168 12169 7950 7771 12173 
10 1748 841 1747 1588 10365 12415 6955 6954 10456 6950 
10 740 478 342 343 11783 6214 3715 3714 6213 2658 
10 1125 959 1838 958 4871 11285 11232 4872 4426 11140 
10 1699 781 515 380 10481 9593 6805 10747 3835 9508 
10 1754 1907 1037 1755 7433 11925 12416 6976 7432 12417 
10 742 931 815 1821 4286 4287 3938 9853 9851 12418 
10 676 450 306 1609 12419 8836 3523 12420 6538 12421 
10 1972 1086 1971 2097 12422 12423 7626 8014 12424 8013 
10 1721 808 1722 994 10118 12425 6879 10119 4483 10021 
10 1768 1053 1922 1052 10813 12135 7477 10814 4658 12030 
10 1055 1771 872 1770 10826 10825 4663 12400 7027 12426 
10 2211 1287 1288 1435 11874 5366 12427 11243 5860 5858 
10 1415 2097 1273 2098 11540 12429 5787 12428 8018 10157 
10 928 1820 815 1109 11614 12430 4279 4826 12431 4825 
10 1086 1971 2097 2096 12423 8013 12424 10842 8011 8015 
10 891 698 890 1627 4166 4164 4168 12022 10464 11785 
10 1218 1219 1922 2052 5164 12028 12029 12432 12391 7876 
10 888 889 1625 1784 4162 12226 10052 11187 11764 7065 
10 473 1633 1632 705 6611 6612 6607 11552 10083 11792 
10 968 902 1701 782 4392 12433 11703 4389 4202 11657 
10 1913 1087 1948 1251 10568 11698 7555 11468 5255 11469 
10 970 950 1949 1146 4400 12435 12434 4937 4938 12436 
10 1364 1219 1218 2052 5624 5164 5623 10797 12391 12432 
10 1699 515 514 380 6805 2840 6804 10747 9508 9507 
10 1144 1127 1295 2113 4930 5387 5388 12437 9759 10576 
10 1201 1901 1030 1200 12438 12331 5107 5109 11129 5105 
10 234 390 1553 391 9003 6370 10637 9004 2710 6369 
10 2193 1455 1498 1499 12439 6215 12440 12441 6110 6085 
10 2126 1309 2113 2135 9762 12442 8472 8142 10555 8169 
10 290 1597 436 435 12443 6502 8963 8962 6503 2756 
10 893 894 1629 1788 4177 12445 12282 12444 11266 7077 
10 192 221 193 738 3267 3268 2503 10703 3709 11406 
10 1554 235 391 392 11628 9027 6373 6372 9031 2711 
10 2090 2193 1403 1404 8319 12448 12446 12447 12449 5748 
10 1466 1356 2159 1502 5976 12451 12450 6118 6119 11649 
10 2132 1185 1338 1337 11914 5542 12452 12453 5540 5544 
10 1943 1243 1942 1079 11809 11810 7541 12454 5233 10231 
10 1471 1531 2289 1470 6221 11558 11557 5997 6220 11672 
10 1154 1136 2075 1315 4961 12455 12216 5466 5464 12217 
10 1789 1943 1942 1079 7540 7541 7536 9949 12454 10231 
10 1930 1230 1426 1229 11419 5982 10514 10584 5197 5830 
10 2255 2205 2206 1440 8541 8360 8540 11662 12456 10992 
10 1699 379 514 1698 10746 9511 6804 6806 9918 6802 
10 1229 1930 1063 1062 10584 10846 5193 5192 11732 4688 
10 968 2000 1856 1882 10513 7708 11704 10512 7709 7356 
10 1214 1215 1048 1915 5152 5150 5148 11434 11435 12457 
10 895 896 1789 1079 4183 11788 9948 4734 4735 9949 
10 1789 894 1788 1630 11265 11266 7081 7080 10473 7076 
10 1527 1531 1530 2272 6263 6222 6323 12274 9909 12458 
10 2286 1326 2224 1327 12459 10959 8647 10966 5508 11221 
10 1243 1242 2071 1942 5234 12460 10628 11810 11652 7936 
10 1599 1598 437 662 6510 6505 6509 10740 10732 12461 
10 1257 2081 1954 1953 11059 7965 10171 10181 7966 7574 
10 1488 1393 1392 2184 6050 5715 6049 10305 12062 11012 
10 1147 975 1123 2003 4941 4866 4940 11623 11901 11289 
10 1550 1551 601 388 6365 12462 10678 6360 6364 10684 
10 1243 1078 1242 1942 5232 5230 5234 11810 10230 11652 
10 1088 906 905 1799 4761 4213 4760 12463 12464 12465 
10 2018 1325 2216 1324 12466 12307 8395 11349 5499 11582 
10 1088 1912 1799 1948 12008 7448 12463 11693 7556 7553 
10 1440 2271 1473 1527 11664 12467 6008 6320 11665 6231 
10 1254 1951 1091 1090 10466 10474 5264 5263 10475 4771 
10 1327 2224 2019 1326 11221 8426 11222 5508 10959 12468 
10 1452 2299 1332 1451 12044 12469 5931 5933 11319 5928 
10 1010 1732 1888 1733 10267 7373 11882 11611 6910 7372 
10 2083 1258 1259 1394 10210 5280 10734 11794 5716 5717 
10 2083 1258 1394 2082 10210 5716 11794 7973 10168 12470 
10 1815 926 1657 1816 12471 10934 7156 7161 10935 7160 
10 1727 819 1006 818 12019 4516 9937 9938 3952 4515 
10 948 2005 1117 947 11526 11153 4848 4423 12153 4849 
10 1185 1186 1008 1887 5060 5058 5056 11915 11682 10250 
10 632 412 413 262 12472 2733 12473 3392 8918 8919 
10 825 1576 1575 1735 11877 6441 11750 11380 6914 6915 
10 1705 1690 1838 771 6828 7225 7226 11051 11053 11138 
10 412 632 413 1574 12472 12473 2733 6434 11055 6433 
10 951 1859 761 762 10485 11360 4341 4340 11975 3780 
10 434 658 287 288 12474 3469 8959 8982 3470 2601 
10 1254 1253 1951 1090 5265 12475 10466 5263 5261 10475 
10 1797 1088 1799 1948 10350 12463 7110 7554 11693 7553 
10 1467 1506 2163 1362 6127 12477 12476 5984 6117 12478 
10 1918 1045 1179 998 10030 5350 11212 11593 5041 5039 
10 2145 2139 2237 1333 8400 8483 8484 9959 10460 10393 
10 2299 1451 2252 2283 11319 12479 8708 8778 11320 8784 
10 726 209 1649 183 3673 10088 10087 12117 3250 6658 
10 620 813 1565 619 3932 10580 12480 3356 3931 12481 
10 1435 2211 2169 2275 11243 8536 11770 11244 8609 8610 
10 1125 1130 958 2014 4926 4885 4872 11233 12173 12482 
10 61 43 60 62 9706 9045 2914 2350 9731 2928 
10 1125 958 1838 2014 4872 11140 11232 11233 12482 7762 
10 1058 1059 875 1773 4676 4674 4672 12483 12484 12485 
10 958 1846 1838 2014 12170 7249 11140 12482 7771 7762 
10 1410 2114 1347 2037 12486 10091 5853 12487 8424 10092 
10 2287 1523 2213 2251 11866 12374 8749 8732 11867 8603 
10 1989 1116 1988 1284 12488 12489 7675 10097 5351 10098 
10 470 702 471 1630 11952 12490 2792 6602 10471 6601 
10 2152 1347 1348 1436 12491 5576 12492 12493 5956 5957 
10 1512 1510 2301 1405 6174 11891 11142 6146 6142 11114 
10 1632 1633 898 705 6612 10082 12494 11792 10083 4187 
10 1457 1521 2280 1537 6187 11327 11905 6276 6277 12495 
10 275 423 645 1585 8938 12084 3431 11885 6467 12496 
10 1089 1088 1912 1799 4765 12008 12009 12497 12463 7448 
10 1088 1089 906 1799 4765 4763 4761 12463 12497 12464 
10 1651 1809 919 1810 7138 12365 9809 7142 7143 12498 
10 924 1655 1814 1656 12077 7154 9800 9802 6681 7153 
10 1586 646 1745 1585 12001 10815 6944 6471 10816 6945 
10 1397 2188 1493 1398 12499 9871 6064 5730 12500 6065 
10 729 1652 919 920 12501 12502 4251 4253 12503 4255 
10 1842 1116 1988 1989 12504 12489 7671 7673 12488 7675 
10 1258 1094 1954 1955 5275 11487 10169 10211 12505 7577 
10 1314 1232 2063 1233 5814 12507 12506 5815 5204 10594 
10 1483 1429 2212 1389 6038 12509 12508 6089 5837 12356 
10 1429 2137 2230 2124 12510 8453 12511 12512 8149 8604 
10 2208 2260 1486 2273 8600 10506 10042 8598 8637 10504 
10 1540 2273 1486 1535 12513 10504 6298 6300 10505 6296 
10 187 214 1653 186 3258 12514 6670 2497 3257 6671 
10 825 1735 1575 1734 11380 6915 11750 11751 6916 6911 
10 1188 2029 2093 1341 12515 8005 10541 5551 11632 12516 
10 1173 2026 1876 1172 12288 7803 10064 5022 10060 10065 
10 1386 1385 1483 2181 5691 6036 6037 12517 11695 11146 
10 1517 1543 2261 2148 6312 11026 11027 12518 12519 8561 
10 2297 2304 1543 2261 8799 11375 11939 8696 8794 11026 
10 2063 1181 2136 2062 12520 10518 8448 7913 10209 8167 
10 1659 739 39 783 12521 12523 6688 12522 3841 12524 
10 1974 934 933 1112 11358 4296 10614 9815 4834 4835 
10 1111 1974 933 1112 9817 10614 4831 4836 9815 4835 
10 739 38 39 783 3713 2860 12523 3841 3842 12524 
10 1020 1896 1117 1867 10285 11151 5088 10402 7733 9941 
10 33 760 1704 786 10988 12107 6824 12525 3852 10408 
10 363 1682 498 499 10595 6754 9183 9184 6755 2823 
10 38 739 39 342 3713 12523 2860 2657 3712 9512 
10 2117 1147 1279 1123 11621 5337 10610 12526 4940 5336 
10 1386 2073 1385 2181 12527 11694 5691 12517 8283 11695 
10 2045 2044 1355 2158 7859 12529 12528 8219 8220 10656 
10 610 1558 804 611 11772 12530 3904 3329 11774 3905 
10 478 1660 479 343 6690 6691 2801 6213 12531 5924 
10 448 674 1607 304 12532 10323 6532 8833 3517 10325 
10 2172 2028 1322 2219 8260 12533 11300 8405 8403 11960 
10 2171 1287 2170 1371 12534 11876 8257 12535 6153 12228 
10 1936 1071 1235 1070 10427 5209 10432 11068 4712 5208 
10 2170 2057 1370 2169 8253 10411 12536 8254 8249 10413 
10 2056 1368 2168 2055 10387 10388 8246 7890 10730 8247 
10 866 1765 1607 865 12387 7007 12036 4093 12537 12538 
10 342 39 1659 739 9512 6688 12539 3712 12523 12521 
10 1384 1482 2180 1481 6033 10217 10216 6031 6035 12540 
10 1432 1416 2262 2218 5849 12541 11324 11316 12542 8562 
10 251 621 404 403 3358 11829 9026 9025 12543 2723 
10 1969 1214 1047 1915 11188 5147 9929 7617 11434 12048 
10 1496 2191 2190 2267 11125 8314 11132 11126 8575 8576 
10 673 304 303 447 3515 2618 3514 12544 8832 8831 
10 927 926 1003 1816 4276 4823 4824 10956 10935 12545 
10 1410 1199 2037 1200 5766 9763 12487 5767 5106 11130 
10 1715 1716 801 1555 6861 12088 12086 6856 6860 12546 
10 956 1991 1844 1845 12547 7679 11271 11272 7680 7246 
10 1358 2160 2094 2047 12548 8228 11460 11411 8225 8198 
10 1880 811 996 1723 12399 4490 10237 7351 10077 10239 
10 2180 2259 2179 1481 8553 8554 8282 12540 10310 10652 
10 2063 1181 2062 1232 12520 10209 7913 12507 5828 10291 
10 2007 1042 1212 1911 12549 5141 9917 7738 12550 9879 
10 685 1617 316 457 10419 12552 3551 12551 6563 8850 
10 401 247 1563 400 9020 12096 6399 2720 9019 6400 
10 1054 1770 871 870 11602 10819 4660 4659 10820 4108 
10 1060 1775 1774 1928 12202 7039 10061 10857 7494 7495 
10 1483 2181 2212 2230 11146 8481 12508 12553 8452 8480 
10 2255 2205 1440 2271 8541 12456 11662 8591 8589 11664 
10 1617 316 457 458 12552 8850 6563 6562 8851 2779 
10 935 1826 1113 934 10990 12554 4837 4299 10624 4838 
10 693 692 463 323 3576 11416 9867 3574 3572 8897 
10 1510 2310 2313 2300 10502 8803 11890 10503 8808 8817 
10 1456 2220 1455 2269 12555 12557 5946 12556 8722 12558 
10 2282 1457 1521 2280 11904 6187 11326 8721 11905 11327 
10 2263 1540 2273 1487 12369 12513 8599 12105 6299 12106 
10 1534 1510 2313 2300 6241 11890 10279 11800 10503 8817 
10 1457 2222 2220 2280 11903 8504 12559 11905 8626 8627 
10 1153 962 1994 971 4958 11037 12386 4959 4405 11022 
10 1616 1617 685 457 6564 10419 10417 6559 6563 12551 
10 2215 1408 2203 2301 10084 10794 8392 8718 11141 8717 
10 2266 2189 2190 1495 8573 8311 8572 11724 12560 12561 
10 2215 1408 2301 1405 10084 11141 8718 10086 5762 11114 
10 2101 1408 2203 2215 11103 10794 8350 8390 10084 8392 
10 2101 2203 1272 2100 8350 12562 11105 8027 8349 11365 
10 1859 1681 761 762 7285 10591 11360 11975 11821 3780 
10 2310 1512 1510 2301 11297 6174 10502 8767 11142 11891 
10 1903 2040 2039 1202 7843 7844 7839 11567 12563 11182 
10 2193 1499 1498 1403 12441 6085 12440 12448 6082 6080 
10 2297 2304 1521 1543 8799 11325 11896 11939 11375 6313 
10 1499 2193 2229 1404 12441 8455 12564 6083 12449 12565 
10 1661 742 1821 1662 11818 9853 7173 6698 10161 7174 
10 1518 2282 2297 2245 11895 8771 11640 11641 8631 8695 
10 844 1751 1591 1750 10339 6963 10338 10978 6964 6959 
10 867 675 1608 1609 4095 10405 12566 12567 10406 6540 
10 808 615 614 1561 3917 3341 3916 12568 11396 12569 
10 1034 1204 1905 1904 5117 11412 12258 12259 12260 7428 
10 467 329 468 1627 8870 8871 2789 6593 10465 6592 
10 2214 2298 2196 1414 8701 8702 8387 11156 12570 11157 
10 1996 1137 964 963 12571 4906 11338 9823 4907 4379 
10 1417 2210 2275 2241 11816 8612 11246 12572 8499 8730 
10 2172 1446 1323 2197 11247 5900 11248 8331 10363 12573 
10 330 1628 469 468 10834 6595 8873 8872 6596 2790 
10 1637 712 711 171 12133 3633 10307 6623 12082 12091 
10 891 1628 699 1627 11458 10665 4167 12022 6597 12574 
10 2018 1324 2197 2092 11349 11584 8329 8108 11350 8330 
10 2304 2282 2297 1521 8739 8771 8799 11325 11326 11896 
10 1346 1423 1278 2204 5816 5817 5783 12575 11101 12383 
10 1192 2033 2032 1345 12043 7823 11898 5563 10646 11899 
10 197 1639 173 172 12576 6628 3230 3229 6629 2483 
10 777 1851 963 776 9877 9878 4374 3824 12577 4375 
10 2056 1369 1223 1224 10385 5638 12578 10415 5639 5179 
10 1435 2275 2169 1454 11244 8610 11770 5939 12137 12579 
10 742 1661 1821 815 11818 7173 9853 3938 11819 12418 
10 2178 2177 1509 2257 8276 10073 12580 8547 8548 10074 
10 2293 1320 1443 1442 11683 5887 12581 11645 5885 5889 
10 1278 2233 2204 1423 12384 8465 12383 5817 11747 11101 
10 1248 2123 1140 1966 10849 12582 5249 10122 8088 11712 
10 1165 2028 2131 1322 11048 8117 10546 5488 12533 12583 
10 641 833 1581 832 3992 12584 9955 3990 3994 9957 
10 2093 1187 2030 1888 10543 11571 8004 8003 10544 7813 
10 1852 1996 964 963 7696 11338 9827 9828 9823 4379 
10 1180 2099 2201 1273 12585 8344 11217 5322 10155 10156 
10 1468 1530 1469 2294 6329 6218 5991 12109 11179 12095 
10 1109 1000 1950 1305 4827 9784 9785 5427 5425 10606 
10 2309 1527 1530 2272 12586 6323 11178 8761 12274 12458 
10 1619 460 689 688 6568 11857 11858 9806 11193 3564 
10 1484 1478 1477 2176 6239 6024 6238 10269 12587 11844 
10 311 681 454 1613 3538 10806 8843 12588 10807 6550 
10 1165 984 983 1872 4997 4455 4996 10322 10321 12589 
10 2291 2199 1469 2294 8668 10856 10854 8685 8682 12095 
10 2167 1367 2168 1454 12590 10706 8248 11207 5998 10707 
10 942 1982 1981 1832 11531 7655 12591 12592 7653 7651 
10 2307 2312 1513 1525 8811 12594 12593 11910 11911 6256 
10 2265 1495 1519 1494 11723 6250 11336 11335 6072 6249 
10 1004 973 1966 1140 4511 12300 10124 4914 4915 11712 
10 2156 1532 2247 2284 11838 11762 8516 8640 11807 8642 
10 711 170 710 1637 12090 11259 3856 10307 6624 10308 
10 1248 1424 1359 2207 5821 5822 5609 10850 12373 10910 
10 1490 1507 2287 1523 6306 10469 11384 6314 6195 11866 
10 37 749 1702 36 11457 11456 6819 2859 3741 10575 
10 1982 942 1833 1832 11531 11532 7654 7653 12592 7211 
10 2298 1516 1514 2284 12595 6166 12596 8816 11619 11808 
10 1155 940 939 1967 4967 4313 4966 11709 11716 10561 
10 296 440 666 441 8972 11196 3494 8973 2761 11198 
10 1760 856 1601 1708 10347 10458 6989 6992 12597 6839 
10 2298 1516 2284 2296 12595 11619 8816 8715 10425 8780 
10 433 658 287 434 12598 3469 8958 2754 12474 8959 
10 999 1725 1762 1763 10722 7466 11425 9897 7294 7003 
10 1649 725 1648 182 10089 11484 6660 6659 12599 6655 
10 1719 806 991 805 12600 4475 10069 12139 3912 4474 
10 1154 2000 1882 2125 10511 7709 10510 12214 8094 8095 
10 2177 1479 1536 1478 12601 6267 10075 12602 6027 6266 
10 807 1721 1560 1720 11423 6875 12005 12603 6876 6871 
10 209 725 1649 182 3671 10089 10088 3249 12599 6659 
10 418 1580 1579 639 6452 6453 6448 10244 12604 12605 
10 1511 1484 2253 1536 6145 10271 10858 6268 6265 10272 
10 1572 1732 821 822 6906 10927 12606 10253 10252 3961 
10 1529 1509 1536 2257 6247 6290 6297 11299 10074 10076 
10 203 202 719 177 2514 3652 3653 3239 3238 12607 
10 36 1670 750 784 10573 10559 3745 3846 10574 3845 
10 752 753 1673 354 3754 11893 11635 3749 3753 12098 
10 2034 1346 2109 2204 11568 12608 8415 8412 12575 8355 
10 652 651 843 1590 3453 4022 4023 11109 12609 10981 
10 2089 1402 2192 2191 9797 10851 8316 8312 11798 8317 
10 2304 1539 2274 2268 12610 11116 8770 8738 10805 8757 
10 2142 2002 1986 1156 8182 7715 8174 10079 10643 10644 
10 948 1837 947 760 11481 11473 4423 4335 11536 4331 
10 2221 2193 1455 2269 8588 12439 12611 8649 8581 12558 
10 725 208 1648 182 3670 12612 11484 12599 3248 6655 
10 1672 489 353 490 6725 9475 12613 6726 2813 9476 
10 1736 1892 1014 1015 7385 10724 10071 10070 11906 4544 
10 2192 2191 1497 2268 8317 11127 10853 8578 8579 12614 
10 1149 2003 1123 949 11002 11289 4946 4945 11902 4865 
10 1335 2142 1986 1156 10078 8174 12615 5533 10079 10644 
10 209 208 725 182 2520 3670 3671 3249 3248 12599 
10 252 405 3 193 8903 2725 8901 12616 6412 2504 
10 1565 619 402 249 12481 10109 6406 12617 3352 9023 
10 984 1714 985 799 10342 10313 4458 4454 10318 4456 
10 1897 1869 2010 1152 7765 7755 7764 12330 10758 12194 
10 1055 1056 1924 1222 4667 12618 12401 5171 5172 11302 
10 1769 1923 1922 1053 7480 7481 7476 10013 12619 12135 
10 1939 1074 1238 1073 12620 5218 11465 12621 4721 5217 
10 686 879 1618 878 4130 10844 11220 4128 4132 12042 
10 1083 1792 1247 1913 10779 12622 5245 11853 7742 10567 
10 1272 2100 1112 1975 11365 11364 5318 11718 8023 10137 
10 2018 2216 2197 1324 8395 8396 8329 11349 11582 11584 
10 1914 983 982 1713 12623 4452 12624 7451 12625 12626 
10 1881 1880 997 2025 7355 10654 12041 7797 7798 12338 
10 1177 2024 1333 1178 11587 11541 5524 5037 11341 5525 
10 1230 1064 1063 1931 5196 4691 5195 10749 11554 10848 
10 1452 2299 1506 2237 12044 12627 6115 10392 8705 12628 
10 1972 1086 2097 1001 12422 12424 8014 12293 4756 12629 
10 231 230 601 388 2543 3297 3298 8999 8998 10684 
10 1240 1241 2069 1381 5228 11107 10804 5674 5675 12630 
10 2230 1387 2073 2074 11476 12631 8451 8450 11477 7946 
10 1534 1544 1510 2300 6327 6324 6241 11800 10501 10503 
10 2123 1966 2008 1140 8088 7750 8087 12582 11712 11688 
10 2073 1387 2230 1386 12631 11476 8451 12527 5695 12632 
10 1240 1941 1076 1940 12348 11604 5224 10803 7535 12350 
10 792 978 793 1709 4435 4436 3873 11550 11727 11728 
10 2221 1337 1499 2229 12633 6084 12634 8546 12635 12564 
10 1489 1393 2184 2185 6052 12062 11490 11752 12636 8296 
10 2260 1483 2181 2212 11144 11146 8556 8559 12508 8481 
10 2263 1542 2251 2300 12637 12638 8567 8712 11799 8711 
10 2302 1544 1541 2300 11753 6341 12370 8772 10501 12639 
10 1249 2204 2109 1346 12640 8355 9864 5782 12575 12608 
10 189 733 188 217 10001 10000 2499 3262 3695 3261 
10 924 1655 923 1814 12077 12157 4267 9800 7154 12641 
10 67 51 50 523 9049 2336 9061 9641 2885 2891 
10 241 396 240 611 9034 9012 2553 3328 11806 3327 
10 218 217 734 189 2529 3697 3698 3269 3262 10705 
10 612 396 611 1558 12642 11806 3332 12643 6384 11774 
10 2109 2110 1249 1250 8052 9863 9864 12644 11983 5254 
10 1470 2165 1365 1469 11970 11170 5992 5994 10855 5990 
10 742 1661 741 344 11818 10222 3722 3721 10221 3717 
10 737 192 1567 738 10702 6822 12645 3711 10703 11344 
10 204 720 721 1645 3656 3660 3658 12646 9811 12647 
10 816 927 1729 859 4751 10716 10718 4073 4415 11968 
10 737 1567 859 738 12645 11966 4416 3711 11344 4406 
10 927 737 1658 859 4275 10711 10955 4415 4416 11967 
10 1011 1890 1734 1889 12648 7379 11590 11111 7380 7375 
10 1896 2005 1117 1867 7801 11153 11151 7733 7730 9941 
10 263 1575 634 414 11720 12649 3397 8975 6436 11757 
10 1575 1576 634 414 6441 11768 12649 6436 6440 11757 
10 1141 2095 2102 1977 12265 8030 12650 10256 8008 8029 
10 417 637 1578 416 11377 11459 6445 2737 12651 6446 
10 825 824 1575 633 3970 11748 11750 3968 3966 11733 
10 1578 1577 416 636 6447 6442 6446 10738 9988 12652 
10 872 680 1612 1613 4110 12655 12653 12654 12656 6552 
10 824 1575 633 1574 11748 11733 3966 11056 6438 11057 
10 1575 1574 413 633 6438 6433 6437 11733 11057 11405 
10 1574 632 413 633 11055 12473 6433 11057 3396 11405 
10 1012 1890 1189 1190 11781 12657 5068 5070 9946 5072 
10 781 1699 1700 1855 10481 6809 9702 10483 7273 7274 
10 1847 902 1863 1703 12658 12659 7311 7252 10549 7302 
10 2306 1428 1447 2305 12660 6120 12661 8806 12662 10987 
10 1230 1301 1064 1931 5429 5416 5196 10749 10750 11554 
10 1012 1011 1189 1890 4535 5067 5068 11781 12648 12657 
10 356 493 1675 492 9482 6735 12072 9481 2816 6734 
10 631 412 261 260 12663 8977 3389 3388 8917 2574 
10 835 643 1583 644 3998 11929 12664 3999 3429 12665 
10 989 1171 1874 1170 5014 12666 11075 5012 5016 10939 
10 604 390 234 233 10635 9003 3307 3306 9002 2546 
10 797 796 1712 1552 3885 10670 10942 11403 10671 6848 
10 1543 2304 1520 2261 11375 11376 6321 11026 8794 11028 
10 1890 1012 1013 1190 11781 4538 9945 9946 5070 5071 
10 1571 1731 1730 820 6903 6904 6899 10236 9987 9985 
10 1713 797 1712 1552 12667 10942 7292 6852 11403 6848 
10 2035 1894 1195 1194 7828 11923 11202 11204 12110 5087 
10 1010 1011 1733 1889 4532 11589 11611 12321 11111 7376 
10 1114 1275 1113 1976 5325 5326 4842 9926 9932 11279 
10 2110 1120 1249 1250 12388 5250 9863 11983 5253 5254 
10 1032 1903 1031 1202 12182 11566 4595 5111 11567 5110 
10 1902 1903 2039 1202 7422 7839 7840 11184 11567 11182 
10 2149 1344 1459 1343 12668 5954 11897 11624 5562 5953 
10 1571 258 629 628 10264 3382 12669 10265 3380 3384 
10 1621 1620 690 882 6576 11018 11017 12670 12671 4140 
10 1038 1908 1037 1208 12672 12673 4613 5129 12674 5128 
10 1726 788 1659 1817 12675 12676 6889 7165 10650 7164 
10 1646 912 1645 721 11973 11972 6651 12677 4229 12647 
10 1995 962 1994 1153 11035 11037 7694 11353 4958 12386 
10 377 378 1697 513 2696 11235 12104 9504 9505 6799 
10 308 451 677 678 8839 10024 3527 3529 10028 3531 
10 888 1071 1783 887 4711 10428 10053 4159 4710 10054 
10 1221 1220 1923 1054 5170 12679 12678 5168 5166 12680 
10 1593 285 656 655 10621 3463 10622 12382 3461 3465 
10 284 285 431 655 2598 8954 8953 3460 3461 12681 
10 284 1592 655 431 11934 11997 3460 8953 6487 12681 
10 1592 1593 655 431 6492 12382 11997 6487 6491 12681 
10 814 621 1566 667 3935 11830 10827 4409 3937 12404 
10 814 860 1602 1763 4428 12683 12682 9896 9898 7001 
10 1138 902 1044 1847 4911 4632 4910 10581 12658 12684 
10 1623 324 463 464 9865 8862 6581 6580 8863 2785 
10 668 443 299 298 9921 8824 3500 3499 8823 2613 
10 923 1654 732 922 12685 12686 4262 4264 12687 4260 
10 731 187 1654 215 12688 6674 11295 3689 3259 12689 
10 1901 1749 1030 1029 7414 10833 12331 10693 11309 4589 
10 679 678 452 309 3534 10027 12100 3532 3530 8841 
10 1911 1910 1211 2047 7446 11979 9881 7863 7864 9882 
10 598 228 227 386 3289 2540 3288 10964 9032 8994 
10 678 451 452 309 10028 2773 10027 3530 8840 8841 
10 791 1709 1548 1857 11551 6842 10212 11779 7306 7279 
10 1636 709 1794 1635 10093 10094 7094 6621 12690 7095 
10 1028 841 1748 1029 4582 10365 10679 4586 4584 10680 
10 1901 1199 1029 1200 10691 5102 10693 11129 5106 5104 
10 791 792 598 1548 3870 3868 3866 10212 10201 10202 
10 1726 1000 1950 928 10539 9784 7560 10545 4502 9783 
10 1797 1087 904 905 10351 4757 10897 10352 4758 4210 
10 2110 1984 1249 1120 8050 9862 9863 12388 12691 5250 
10 1210 2046 1357 1211 11955 10719 5601 5139 11978 5602 
10 1264 1265 1101 1960 5298 5296 5294 12692 12693 9773 
10 460 319 320 689 8855 2634 8856 11857 3562 3563 
10 518 519 532 528 2869 9667 12694 9744 9678 2929 
10 1758 1911 1910 1041 7445 7446 7441 10104 10105 12025 
10 1757 1758 1040 853 6985 10701 11421 10108 10106 4618 
10 1691 34 787 772 12695 3854 12696 10129 3809 3853 
10 1757 1758 1910 1040 6985 7441 7442 11421 10701 11741 
10 1126 1989 954 1843 12697 12699 4874 12698 7674 12700 
10 1628 891 892 1786 11458 4171 10664 7070 12021 12068 
10 1221 2055 1367 1222 11081 10731 5632 5173 11303 5633 
10 1572 410 259 629 6428 8914 12701 12702 12703 3383 
10 329 698 699 1627 3590 3594 3592 10465 10464 12574 
10 2016 957 1129 1130 11981 4882 10809 12169 4886 4887 
10 2055 1368 1367 1222 10730 5637 10731 11303 5635 5633 
10 477 170 1637 710 6622 6624 6816 12704 11259 10308 
10 344 1661 479 480 10221 6693 5923 5912 6694 2802 
10 340 477 1636 710 8889 6619 12024 3625 12704 12705 
10 1929 1061 1227 1928 12112 5187 12113 7499 12337 12706 
10 1774 1616 877 876 7034 10416 11173 10063 12707 4126 
10 340 341 477 710 2655 8890 8889 3625 3626 12704 
10 341 170 477 710 11258 6622 8890 3626 11259 12704 
10 1874 989 1717 1718 11075 10697 7333 7332 10698 6867 
10 1357 2046 1502 2160 10719 11647 6101 10720 8226 11648 
10 1637 858 1636 710 10306 10095 6817 10308 4068 12705 
10 2226 2117 1147 1279 8431 11621 10953 10954 10610 5337 
10 709 858 710 1636 4070 4068 3627 10093 10095 12705 
10 1582 641 1581 420 10297 9955 6459 6458 9962 6454 
10 1980 2095 2106 1150 8009 8040 8038 12254 12708 11912 
10 642 1582 421 271 10295 6457 10598 3421 12709 8933 
10 1556 608 393 238 11331 12710 6379 10872 3319 9007 
10 187 1654 215 188 6674 12689 3259 2498 6673 3260 
10 913 912 1646 722 4234 11973 12290 4232 4230 12711 
10 1126 1990 1989 1843 12079 7678 12697 12698 7676 7674 
10 731 730 921 1653 3690 4256 4257 11296 12712 12376 
10 1740 1020 832 1741 12327 4557 11828 6934 12328 11827 
10 1935 1069 1233 1068 12208 5203 10593 12207 4706 5202 
10 188 1654 215 732 6673 12689 3260 11719 12686 3691 
10 648 1588 426 1587 12007 6476 12004 12161 6477 6472 
10 2221 1337 2229 2132 12633 12635 8546 8410 12453 8514 
10 839 1746 1586 838 12189 6948 10745 4012 12126 12333 
10 1023 836 1743 2006 4567 10713 11658 12256 11136 7735 
10 835 643 834 1583 3998 3996 4000 12664 11929 11930 
10 1126 1989 2115 1283 12697 8063 12713 5347 12714 12715 
10 1069 1935 1233 1234 12208 10593 5203 5205 12716 5207 
10 841 840 1747 1588 4018 10133 12415 10456 12717 6950 
10 840 1747 1587 839 10133 6951 12718 4015 12332 10744 
10 1097 1957 1260 1261 12719 12720 5282 5284 12721 5286 
10 825 1575 634 633 11750 12649 3969 3968 11733 3399 
10 1531 2291 2272 2289 11670 8756 9909 11558 8669 8735 
10 646 275 645 1585 3433 3431 3435 10816 11885 12496 
10 1655 733 732 188 10002 3696 12722 6677 10000 11719 
10 733 216 732 188 3694 3692 3696 10000 3275 11719 
10 1039 852 1756 1757 4615 12723 12334 11420 10776 6982 
10 1956 1957 1260 1097 7583 12720 11257 12724 12719 5282 
10 1097 1956 1096 1260 12724 12725 4789 5282 11257 5281 
10 483 745 348 347 12726 3729 5898 5899 3730 2663 
10 346 482 347 744 5907 5906 2662 3727 9849 3726 
10 1593 1594 656 432 6495 11544 10622 6490 6494 10623 
10 849 1754 848 1036 12121 12362 4042 4606 12361 4605 
10 1148 1919 1146 2077 10865 12728 4942 12727 7955 10554 
10 2292 2187 1493 1492 8670 11464 9873 12729 12730 6066 
10 665 857 666 1601 4064 4065 3495 11511 11512 12731 
10 285 1593 431 655 10621 6491 8954 3461 12382 12681 
10 2121 2122 1998 1135 8086 8083 8081 12732 12733 11678 
10 1594 286 657 656 12734 3466 11957 11544 3464 3468 
10 1956 1259 1096 1260 11255 5279 12725 11257 5283 5281 
10 1291 1296 1134 2119 5390 5391 5374 11009 12735 11010 
10 1944 1080 1244 1943 10602 5236 12050 7544 10603 12736 
10 433 658 434 1595 12598 12474 2754 6497 12737 6496 
10 492 355 1674 754 9480 11610 6732 12738 3756 12739 
10 753 355 754 1674 3752 3756 3757 11373 11610 12739 
10 1676 756 1833 1834 10148 12740 7210 7212 10767 7214 
10 1080 1944 1244 1245 10602 12050 5236 5238 12051 5240 
10 1082 1247 1945 1246 5244 12742 12741 5242 5246 12743 
10 1627 1628 699 468 6597 10665 12574 6592 6596 12744 
10 2055 1221 1367 2054 11081 5632 10731 7887 11082 12745 
10 1840 764 970 952 11879 4398 12746 11880 4345 4401 
10 1988 1127 952 1987 9758 4877 9768 7672 9760 12747 
10 1243 1943 1244 1079 11809 12736 5237 5233 12454 5235 
10 367 1686 766 502 12748 11039 3790 9191 6766 11040 
10 366 367 766 502 2684 3790 3791 9190 9191 11040 
10 1495 2189 2190 1399 12560 8311 12561 6070 12749 12076 
10 1533 2192 2268 2269 12750 8578 10792 10790 8582 8583 
10 1137 1133 2120 1997 4908 12751 11573 11974 11281 8078 
10 691 462 322 321 12752 8860 3569 3568 8859 2636 
10 1066 1779 1932 1933 11225 7506 12753 11224 7510 7511 
10 932 931 743 1822 4290 4285 4289 12754 9850 10421 
10 1943 1080 1244 1079 10603 5236 12736 12454 4739 5235 
10 516 39 38 782 2842 2860 9493 9704 12755 3837 
10 1969 2139 1214 1915 8162 11429 11188 7617 8161 11434 
10 1133 2121 2120 1997 12756 8082 12751 11281 8080 8078 
10 170 341 0 194 11258 2656 3222 3225 3628 2505 
10 701 469 470 331 12141 2791 11953 3598 8874 8875 
10 778 1852 964 777 12757 9827 4377 3827 9826 4378 
10 1731 1572 821 629 6902 12606 10929 12758 12702 3956 
10 1837 759 1680 1679 11471 9780 7222 7221 9782 6751 
10 1660 1659 930 740 6692 12760 12759 11782 11784 4282 
10 1207 1906 1036 1206 11158 12761 5125 5127 11159 5123 
10 2122 1286 1135 2121 10434 5360 12733 8086 12762 12732 
10 1897 1196 1869 1152 10240 11133 7765 12330 5700 10758 
10 1285 2128 1271 2196 12763 11927 5459 11155 8326 11654 
10 1351 1461 2154 1350 5961 12765 12764 5585 5960 12118 
10 1256 1255 2080 1953 5271 11479 11478 12766 12767 7962 
10 1726 1660 930 928 6890 12759 10540 10545 11615 4284 
10 596 597 226 1547 3287 3285 3283 12186 12268 12187 
10 1092 1952 1091 1255 12768 12061 4774 5267 12769 5266 
10 1043 856 1708 789 4627 12597 10173 4894 4629 10203 
10 2150 2104 2196 1271 8196 8327 8328 12770 11928 11654 
10 984 983 1714 798 4455 12771 10342 4453 4451 11946 
10 1330 1331 1175 2022 5520 5518 5516 11073 12772 11860 
10 1713 1714 798 1553 6855 11946 12773 6851 6854 11947 
10 984 1714 799 798 10342 10318 4454 4453 11946 3891 
10 1522 1433 2162 2295 6251 12775 11737 12774 11214 8686 
10 1556 1716 802 1717 6859 12344 11330 6863 6864 12345 
10 983 797 1713 798 4450 12667 12625 4451 3888 12773 
10 1714 983 1713 798 12771 12625 6855 11946 4451 12773 
10 1418 2150 2196 1271 10015 8328 11653 5795 12770 11654 
10 1737 1738 1016 828 6925 12777 12776 10739 12778 4545 
10 2112 1979 2104 1274 8055 8034 8057 10384 10453 12779 
10 1578 1738 828 829 6924 12778 10737 9829 9830 3982 
10 906 1089 1800 1799 4763 12781 12780 12464 12497 7113 
10 825 1012 1734 824 4534 11951 11751 3970 4533 11749 
10 1797 1088 905 1799 10350 4760 10352 7110 12463 12465 
10 905 1799 715 1640 12465 12782 4209 11685 7109 10479 
10 994 1879 1722 1878 10020 7348 10021 12783 7349 7344 
10 994 995 809 1722 4488 4486 4484 10021 10019 11675 
10 1983 943 1833 1982 12784 11530 7656 7658 11529 7654 
10 2224 2286 1327 2223 8647 10966 11221 8425 8646 10968 
10 1354 1353 1464 2157 5594 5969 5970 10675 10674 10688 
10 726 1650 727 183 12116 11312 3678 12117 6662 12785 
10 693 694 1623 886 3579 12786 9866 4151 4152 10977 
10 1528 2303 1508 1527 12787 12788 6262 6261 12789 6210 
10 2089 1402 1401 1266 9797 5742 11253 9799 5740 5738 
10 891 890 1074 1785 4168 4719 4720 12355 11787 12790 
10 183 184 727 210 2494 12791 12785 3251 3252 3676 
10 707 706 474 337 3618 12793 12792 3616 3614 8883 
10 1650 918 728 1651 11310 4248 11311 6666 12366 9808 
10 2177 2253 1536 2257 8533 10272 10075 8548 8549 10076 
10 2208 1390 2212 2048 10041 12794 8381 8367 11491 8379 
10 1102 1101 1810 919 4804 9774 9770 4802 4800 12498 
10 2082 1258 1394 1393 10168 5716 12470 12795 5714 5718 
10 2084 2083 1395 2186 7976 11795 12796 8297 8298 11293 
10 607 393 392 1555 10022 2712 10023 12394 6375 6376 
10 197 196 713 172 2508 3634 3635 3229 3228 10753 
10 196 1638 712 713 12083 10899 3632 3634 10751 3636 
10 1082 1792 899 898 10450 11211 4744 4743 10451 4192 
10 607 393 1555 608 10022 6375 12394 3320 12710 12797 
10 528 42 518 519 9738 2864 9744 9678 2868 2869 
10 1819 929 1670 784 10695 12798 7169 10696 4281 10574 
10 607 393 608 237 10022 12710 3320 3316 9006 3318 
10 943 755 1833 942 4320 12799 11530 4321 4316 11532 
10 756 494 1676 357 10146 6738 10148 3762 9484 12150 
10 1732 1572 821 1731 6906 12606 10927 6907 6902 10929 
10 1741 1021 1020 833 10289 4562 12328 10290 4560 4558 
10 725 916 1807 915 4241 10921 10926 4239 4243 11486 
10 1572 630 821 629 10266 3957 12606 12702 3387 3956 
10 630 1572 821 822 10266 12606 3957 3959 10253 3961 
10 1125 2104 1271 2014 12800 11928 5315 11233 8033 12174 
10 1171 1170 2019 1874 5016 10940 12014 12666 10939 7781 
10 2293 2249 1526 2312 8769 11815 12801 8787 8785 11814 
10 374 1694 509 510 12269 6789 9497 9498 6790 2835 
10 1538 2310 2302 2258 11444 8768 11754 10228 8765 8726 
10 1006 1885 1184 1007 10922 11636 5052 4520 12802 5053 
10 1441 2249 1442 2250 11908 11644 5886 11775 8525 11646 
10 975 1147 2009 2003 4941 11622 11314 11901 11623 7773 
10 1732 1009 1887 1008 10268 11681 7370 10928 4526 10250 
10 1917 1185 1008 1887 11804 5056 10248 7463 11915 10250 
10 2104 2128 1271 2014 8132 11927 11928 8033 8106 12174 
10 1740 1020 1896 1019 12327 10285 7397 12176 4559 10286 
10 368 1687 504 768 12803 6770 9194 3797 9775 12804 
10 1550 230 600 387 10676 3295 10677 6361 8997 11729 
10 1548 598 227 386 10202 3288 11399 6354 10964 8994 
10 715 198 174 199 3640 3232 10478 3641 2510 3233 
10 245 615 399 244 3340 12805 9017 2557 3339 9030 
10 2115 1412 1277 1283 12806 5776 12807 12715 5777 5349 
10 597 598 227 1548 3290 3288 3286 10213 10202 11399 
10 2232 2116 2115 1277 8462 8069 8461 12808 12160 12807 
10 2232 1413 2116 1277 11088 12158 8462 12808 5779 12160 
10 651 1589 842 843 11274 10366 4020 4022 12305 4024 
10 609 610 239 1557 3326 3324 3322 12809 10004 10005 
10 2221 1455 1499 1338 12611 6110 12634 12407 5942 6109 
10 945 1985 1984 1835 11767 7664 12810 9753 7662 7660 
10 1826 935 1113 1976 10990 4837 12554 7636 11278 11279 
10 395 610 239 240 10003 3324 9010 9011 3325 2552 
10 1697 377 777 778 12104 3822 12811 11236 3826 3827 
10 1901 1748 1029 1900 7415 10680 10693 7416 7411 10682 
10 1160 979 1992 1161 4982 12234 12377 4986 4984 12358 
10 1462 2155 1351 1461 10620 11095 5963 5965 11812 5961 
10 1699 779 1698 1854 12812 10683 6806 7271 12813 7270 
10 1412 2232 2115 1277 11094 8461 12806 5776 12808 12807 
10 2198 1472 2102 2148 12273 12814 8333 8336 12815 8192 
10 404 622 621 251 11831 3363 11829 9026 3360 3358 
10 482 483 347 1664 2805 5899 5906 6702 6703 12816 
10 2032 2149 1343 1344 8193 11624 12817 11900 12668 5562 
10 1413 2232 1412 1277 11088 11094 5780 5779 12808 5776 
10 1272 2203 2101 1408 12562 8350 11105 5760 10794 11103 
10 1071 1072 1937 1236 4715 11668 10429 5211 5212 12224 
10 518 528 532 527 9744 2929 12694 9727 2913 2932 
10 2210 2211 2120 1288 8378 8376 8374 11817 12427 11574 
10 1974 1111 933 1824 9817 4831 10614 7630 12128 9749 
10 1111 1974 2099 1973 9817 8020 9816 10838 7632 8019 
10 1467 1363 1362 2163 5985 5622 5984 12476 12818 12478 
10 2211 2210 1417 1288 8378 11816 11245 12427 11817 5792 
10 2211 2121 2120 1288 8377 8082 8376 12427 12819 11574 
10 2211 1287 2121 1288 11874 11875 8377 12427 5366 12819 
10 2238 1285 1282 1409 12820 5356 12821 9846 5763 5764 
10 1573 412 631 260 6430 12663 10245 12822 8917 3388 
10 286 285 656 432 2599 3463 3464 8956 8955 10623 
10 2105 1500 1299 2140 10891 6086 12823 8165 11090 11091 
10 412 1573 411 260 6430 6431 2732 8917 12822 8916 
10 377 1697 777 512 12104 12811 3822 9503 6798 12824 
10 532 519 518 524 9667 2869 12694 9709 2888 2889 
10 1226 1372 2058 1371 5647 10190 10192 5645 5649 12229 
10 1042 1911 1041 1212 12550 10105 4625 5141 9879 5140 
10 1758 854 1041 853 10960 4621 10104 10106 4057 4620 
10 1758 1041 1910 1040 10104 12025 7441 10701 4622 11741 
10 2304 1539 1537 1520 12610 6332 10924 11376 6294 6331 
10 863 1605 1764 864 10447 7005 10950 4087 10890 10951 
10 61 43 44 60 9706 2328 9707 2914 9045 9046 
10 1582 642 641 271 10295 3423 10297 12709 3421 3419 
10 785 1796 1124 937 10376 12233 4867 4422 10898 4868 
10 764 500 365 1684 10552 9187 3784 12277 6760 11123 
10 2111 2238 1282 2116 8487 12821 12825 8068 8486 12159 
10 1461 1460 1409 2246 5962 6257 6234 12826 11087 12827 
10 1749 1902 1031 1750 7418 10830 10832 6961 7417 11962 
10 845 1033 1751 1032 4596 9978 10341 4594 4598 12183 
10 937 748 1668 936 4304 9699 12243 4305 4300 9690 
10 1605 1606 1764 864 6531 7004 7005 10890 10962 10951 
10 2156 1352 2042 2043 10617 12178 8214 8213 12181 7853 
10 978 1160 1868 1159 4981 10039 12828 4979 4983 12829 
10 1276 2256 2129 2195 12830 8542 12831 12832 8543 8325 
10 673 1606 447 672 12833 6529 12544 3516 10963 12241 
10 1910 1041 1211 1040 12025 5138 11979 11741 4622 5137 
10 1605 445 446 301 6527 2767 6526 12323 8829 8828 
10 1801 1091 1090 908 10476 4771 10477 10489 4769 4767 
10 313 682 683 455 3542 3546 3544 8845 12101 11007 
10 1429 1253 2137 2124 5836 12834 12510 12512 12835 8149 
10 1479 2177 1536 1509 12601 10075 6267 6285 10073 6290 
10 2072 1944 1244 1943 7938 12050 10983 7939 7544 12736 
10 874 1058 875 1773 4671 4672 4120 12836 12483 12485 
10 1615 1774 875 876 7035 12838 12837 12205 10063 4123 
10 1124 2140 1946 1299 9964 8164 9963 5409 11091 11579 
10 1157 2007 2047 1993 9915 8127 9916 12839 8125 8126 
10 1614 874 875 1773 12840 4120 12841 7032 12836 12485 
10 1011 1890 1889 1189 12648 7380 11111 5067 12657 11112 
10 1539 2304 1537 2268 12610 10924 6332 10805 8738 10793 
10 1402 2192 1498 1403 10851 10852 6079 5745 12842 6080 
10 2004 1276 2129 2195 12843 12831 8111 8323 12832 8325 
10 673 447 303 672 12544 8831 3514 3516 12241 3512 
10 956 768 1844 955 4356 9776 11271 4357 4352 9778 
10 1606 1765 864 865 7008 10991 10962 11343 12537 4090 
10 1555 1715 800 801 6856 10403 11230 12546 12086 3897 
10 887 1782 1624 886 10424 7058 10049 4156 12844 12845 
10 1220 1923 1053 1922 12679 12619 5165 12134 7481 12135 
10 1815 2011 1965 1108 7752 7753 7605 12846 12847 12848 
10 1782 885 1623 886 12849 10976 7059 12844 4153 10977 
10 2138 1336 2229 2049 12850 12067 8494 8158 11496 8445 
10 1961 1265 1102 1266 11276 5297 9769 11261 5301 5299 
10 1917 1185 1184 1007 11804 5057 11638 11805 5055 5053 
10 1588 279 426 427 10162 8944 6476 6475 8945 2747 
10 1276 1308 1431 2195 5441 5845 5843 12832 9954 12851 
10 1149 2076 1310 1123 11004 10760 5449 4946 11290 5447 
10 945 1984 944 1835 12810 12389 4327 9753 7660 9754 
10 376 377 777 512 2695 3822 3823 9502 9503 12824 
10 1342 1504 2151 1458 6111 11627 11711 5951 6124 10660 
10 1632 704 705 897 11286 3612 11792 11195 4184 4185 
10 948 1837 760 1680 11481 11536 4335 11482 7222 10863 
10 2149 1453 1459 1344 11480 5955 11897 12668 5938 5954 
10 1984 1985 1120 2110 7664 12852 12691 8050 8051 12388 
10 946 1985 1121 945 12853 9972 4859 4330 11767 4860 
10 1149 1335 1310 2076 5534 5535 5449 11004 12854 10760 
10 1060 1774 877 876 10061 11173 4678 4677 10063 4126 
10 1078 1789 1788 1942 9947 7081 11267 10230 7536 7537 
10 896 704 1632 897 4182 11286 11451 4186 4184 11195 
10 2128 2111 1130 2016 8107 12855 12308 8105 8054 12169 
10 2205 2076 1335 2142 8356 12854 12856 8357 8173 10078 
10 719 1643 909 1802 12857 12858 4221 11758 7118 11759 
10 1782 885 886 1069 12849 4153 12844 11066 4704 4705 
10 1599 1758 1598 853 6983 6984 6510 10741 10106 10107 
10 1545 594 383 595 9856 12859 6346 9858 3281 12860 
10 854 1599 1600 663 10345 6513 10344 4056 11252 11509 
10 2275 2241 2168 1454 8730 8531 8611 12137 11208 10707 
10 1335 2076 2205 1310 12854 8356 12856 5535 10760 12861 
10 518 517 41 527 2866 2862 2865 9727 9726 9708 
10 1413 2238 1282 1409 12862 12821 5778 5781 9846 5764 
10 1129 1991 1282 1128 10810 12863 5344 4884 12185 5345 
10 946 1985 945 1836 12853 11767 4330 10498 7663 10499 
10 2044 1355 2158 1354 12529 10656 8220 12864 5597 10658 
10 1556 609 238 394 11332 3321 10872 6378 12865 9008 
10 1961 1103 1102 1811 11260 4807 9769 7593 11227 9771 
10 918 1809 1101 919 10526 10528 4799 4252 12365 4800 
10 594 224 383 595 3278 8988 12859 3281 3279 12860 
10 1991 2116 1282 1128 8067 12159 12863 12185 12166 5345 
10 2103 1158 1293 1426 10531 5381 10587 10337 5980 5981 
10 1265 1102 1101 1960 5297 4804 5296 12693 9772 9773 
10 351 748 350 486 3738 3739 2666 5486 10789 5487 
10 1102 920 1810 1811 4803 12866 9770 9771 11229 7146 
10 1858 940 1829 751 10565 12867 7284 10566 4310 12868 
10 1109 1820 815 1970 12431 12430 4825 11546 7618 12869 
10 1298 2001 2127 2078 12870 8102 11745 11630 7958 8137 
10 1138 1158 1293 2103 4977 5381 5382 11855 10531 10587 
10 759 1837 1680 760 11471 7222 9780 3775 11536 10863 
10 1086 1971 815 931 12423 12871 4755 4754 9855 4287 
10 2259 1540 2302 1538 12872 12368 8725 12873 6340 11754 
10 1679 361 1680 497 9781 9779 6751 6747 9473 6749 
10 360 361 1679 497 2677 9781 12154 9490 9473 6747 
10 773 372 1691 772 3811 11824 11825 3812 3808 10129 
10 866 674 673 1607 4092 3519 4091 12036 10323 10324 
10 1690 34 1705 35 11052 11050 6828 6779 2858 6829 
10 962 1995 1134 1153 11035 9824 4899 4958 11353 4957 
10 375 775 1695 776 3816 11987 11989 3820 3821 9819 
10 42 58 518 41 9042 9742 2864 2326 9041 2865 
10 1575 263 634 633 11720 3397 12649 11733 3395 3399 
10 2125 1138 2103 1882 11854 11855 8096 8095 10582 8031 
10 2032 1191 1344 1343 12398 5560 11900 12817 5558 5562 
10 1738 830 1017 829 12317 4549 12163 9830 3985 4548 
10 1141 939 969 1977 4917 4396 4916 10256 10562 10257 
10 2125 1138 1882 1154 11854 10582 8095 12214 5247 10510 
10 889 890 1626 1785 4165 11786 9992 12026 11787 7068 
10 2125 1138 1154 1293 11854 5247 12214 10588 5382 5383 
10 1401 2088 1400 2190 10770 10521 5739 10772 8309 10786 
10 1119 1110 1982 942 4855 12875 12874 4853 4830 11531 
10 1110 943 1982 942 4829 11529 12875 4830 4321 11531 
10 1958 1957 1262 2085 7586 11463 9791 7977 7978 11936 
10 982 797 1712 1713 4448 10942 10943 12626 12667 7292 
10 605 1554 799 606 11943 9891 3889 3314 9892 3890 
10 1554 605 1553 391 11943 11944 6374 6373 12876 6369 
10 1841 1842 953 1988 7237 12877 9765 7670 7671 9767 
10 1116 1842 1988 953 12504 7671 12489 4847 12877 9767 
10 1682 763 762 1839 10596 3783 10597 7227 11190 12878 
10 802 803 1717 988 3903 10699 12345 4465 4466 11076 
10 852 851 1756 1597 4051 10332 12723 10777 9837 6977 
10 599 229 1549 600 3292 9893 9894 3296 3294 12236 
10 979 1160 1868 978 4982 10039 12235 4440 4981 12828 
10 605 604 798 1553 3311 3886 3887 11944 10636 11947 
10 1880 811 1724 997 12399 10033 7350 10654 4492 10233 
10 764 1683 1840 763 12879 7229 11879 3786 11498 12880 
10 1126 1116 1989 1283 4875 12488 12697 5347 5348 12714 
10 1919 951 1869 1148 10864 10486 7469 10865 4944 10759 
10 1320 2133 1163 1162 12881 11065 5480 5479 12882 4992 
10 608 393 238 237 12710 9007 3319 3318 9006 2550 
10 1164 1914 982 1163 11054 12624 4993 4995 11063 4991 
10 1127 1116 1988 953 4878 12489 9758 4876 4847 9767 
10 2241 1522 2162 2295 11738 11737 8498 8687 12774 8686 
10 1031 1902 1030 1201 10830 10831 4592 5108 11185 5107 
10 836 1584 1743 1744 10066 6938 10713 11137 6942 6943 
10 621 1566 404 403 11830 6408 11829 12543 6409 2723 
10 1262 1957 1261 2085 11463 12721 5289 11936 7978 12883 
10 1957 2084 1261 2085 7974 12884 12721 7978 7979 12883 
10 2183 1311 1304 1437 10913 5653 10914 11426 5865 5866 
10 1027 1747 1746 1899 10134 6952 12188 12885 7408 7409 
10 2143 1313 2231 2118 12886 12887 8459 8176 12888 8457 
10 1753 847 1752 1593 10969 9745 6970 6969 9746 6965 
10 1353 1207 2043 1354 5590 11160 10672 5594 5592 10673 
10 264 1576 634 635 12889 11768 3398 3400 11386 3402 
10 1864 975 2009 2003 10536 11314 7745 7716 11901 7773 
10 1864 959 975 787 10535 4427 10536 11680 4364 4425 
10 1759 1760 1042 855 6991 10368 12890 12891 10349 4624 
10 975 1864 1706 2003 10536 7309 12892 11901 7716 7717 
10 1207 2044 2043 1354 12893 7856 11160 5592 12864 10673 
10 2018 1978 1168 1167 7779 12895 12894 11351 10326 5007 
10 2044 1208 1354 1207 12896 5593 12864 12893 5130 5592 
10 1323 1324 1167 2092 5496 5494 5492 11586 11350 11352 
10 856 857 1708 789 4067 12897 12597 4629 4414 10203 
10 1978 1168 1167 986 12895 5007 10326 10369 5005 5003 
10 665 440 294 439 12898 8971 3490 12195 2760 8970 
10 2262 1303 1281 1419 11164 5434 11165 12899 5798 5799 
10 450 676 677 1610 12419 3528 10025 6542 12900 10277 
10 2021 1329 2146 2217 10887 11620 8186 8398 12246 8397 
10 1177 995 1879 996 5032 10018 10218 5033 4491 10238 
10 1660 741 343 740 11617 3718 12531 11782 3719 3714 
10 1369 2056 2168 2169 10385 8246 10386 10412 8250 8251 
10 1880 1177 1879 996 10666 10218 7352 10237 5033 10238 
10 465 695 325 326 12359 3580 8865 8866 3581 2640 
10 1242 1243 2071 1383 5234 10628 12460 5680 5681 12901 
10 1427 2183 1304 1437 10112 10914 5831 5867 11426 5866 
10 1119 1981 1150 941 12902 12252 4948 4854 12253 4949 
10 2183 2198 1427 1304 8335 10111 10112 10914 12903 5831 
10 2149 1504 1459 1437 11625 6183 11897 11427 6156 6270 
10 2183 2095 2198 1304 8289 8334 8335 10914 12904 12903 
10 2029 2222 2093 1341 8417 8418 8005 11632 10661 12516 
10 434 659 435 1596 12905 12906 2755 6500 10883 6499 
10 194 195 171 711 2506 3271 3226 3629 3630 12091 
10 1470 2291 1469 1530 11671 10854 5994 6219 12094 6218 
10 2166 1468 2294 2270 10360 12109 8683 8585 12108 8684 
10 1186 2132 1185 1338 11913 11914 5060 5543 12452 5542 
10 1731 1732 1887 1008 6907 7370 7371 10249 10928 10250 
10 1191 1192 2032 1344 5078 11898 12398 5560 5561 11900 
10 758 759 1679 360 3772 9782 11199 3767 3771 12154 
10 1187 1188 2093 1340 5066 10541 10543 5548 5549 11549 
10 1121 2110 2036 1312 9974 8352 9973 5454 9981 9983 
10 1989 1842 954 1843 7673 12907 12699 7674 7240 12700 
10 362 1681 762 761 10589 11821 3779 3776 10591 3780 
10 32 786 1681 761 3851 11502 10590 3777 3850 10591 
10 2171 1315 2075 1286 12908 12217 8444 10435 5465 10436 
10 1220 1923 1922 2053 12679 7481 12134 12909 7879 7880 
10 176 202 1643 718 3237 12910 6641 12057 3650 12058 
10 720 203 1644 178 3655 12913 12911 12912 3240 6643 
10 703 334 333 471 3605 2648 3604 12914 8878 8877 
10 675 449 305 1608 10404 8835 3520 10405 6535 12915 
10 2171 1315 2059 2075 12908 12916 8255 8444 12217 8438 
10 1792 1083 1247 1082 10779 5245 12622 10450 4748 5244 
10 674 675 305 1608 3522 3520 3518 12917 10405 12915 
10 729 730 1652 920 3687 12918 12501 4253 4254 12503 
10 880 687 1618 1619 4133 9968 12919 9805 9804 6570 
10 1617 686 316 458 11527 3553 12552 6562 11528 8851 
10 723 724 1647 914 3669 12263 10906 4235 4236 12920 
10 520 526 529 525 2901 9741 9680 2895 2900 9681 
10 1823 932 744 743 12921 4288 11049 10420 4289 3728 
10 686 317 316 458 3554 2631 3553 11528 8852 8851 
10 2174 2066 1475 1376 8263 12923 10785 12922 12924 6013 
10 1083 1793 1792 1913 10778 7093 10779 11853 7720 7742 
10 880 1619 881 688 9805 12925 4138 4134 9806 4136 
10 2175 1515 1475 1476 10782 6235 10784 12926 6236 6018 
10 830 1739 1018 831 11500 10263 4551 3988 10600 4552 
10 333 702 470 332 3602 11952 8876 2647 3601 8899 
10 701 893 1629 700 4173 12282 12142 3600 4172 12927 
10 1935 1936 1234 1069 7520 12928 12716 12208 11067 5205 
10 185 212 729 728 3254 3682 12114 12115 3680 3684 
10 208 181 1648 182 3247 6656 12612 3248 2492 6655 
10 1474 2065 2174 1376 10787 8264 12929 6011 10788 12922 
10 2065 2066 2174 1376 7922 8263 8264 10788 12924 12922 
10 1429 1252 1387 2137 5838 5696 5873 12510 12930 11475 
10 1340 2220 2030 1339 11547 8408 11548 5550 10508 9787 
10 1182 2011 2049 1883 12931 8128 12402 12932 8120 7869 
10 736 737 1658 927 3708 10711 10709 4274 4275 10955 
10 2038 1347 1200 1201 10090 5572 11868 12933 5573 5109 
10 1347 1200 2037 2038 5572 11130 10092 10090 11868 7838 
10 1028 1199 1029 1900 5101 5102 4586 10681 10692 10682 
10 1901 2038 1200 1201 7837 11868 11129 12438 12933 5109 
10 1759 1042 1041 854 12890 4625 10103 10346 4623 4621 
10 1556 609 394 1557 11332 12865 6378 6383 12809 6382 
10 1042 1759 1041 1911 12890 10103 4625 12550 7444 10105 
10 2059 1315 2060 2075 12916 12934 7902 8438 12217 8437 
10 1053 1219 1922 1052 5163 12028 12135 4658 5162 12030 
10 1567 406 624 623 6413 12935 11969 10186 10187 3369 
10 222 3 193 252 3223 2504 3224 3364 8901 12616 
10 746 1666 348 349 12149 12379 3733 3732 12936 2664 
10 253 252 623 405 2566 3365 3366 8904 8903 10188 
10 366 1685 502 766 12146 6764 9190 3791 11038 11040 
10 1575 824 1734 1574 11748 11749 6911 6438 11056 6912 
10 2171 1315 1286 1372 12908 5465 10435 12937 6005 6004 
10 1011 1188 1889 1010 5065 11110 11111 4532 5064 12321 
10 1373 1372 1315 2059 5652 6005 6130 11965 10191 12916 
10 836 1584 644 835 10066 10067 4001 4003 10712 3999 
10 1397 1396 2085 1261 5727 12939 12938 5725 5723 12883 
10 1263 1399 2086 1398 5731 12940 9790 5729 5733 11937 
10 1064 880 1777 1778 4689 12941 11553 10860 10861 7048 
10 1525 2307 1524 1513 11910 12942 6205 6256 12593 6330 
10 1262 1263 2086 1398 5292 9790 9792 5728 5729 11937 
10 1318 2160 1317 1502 11409 11410 5475 6099 11648 6098 
10 1551 231 389 602 12943 9000 6363 11949 3300 12089 
10 1030 1901 1029 1200 12331 10693 4589 5105 11129 5104 
10 779 966 965 1854 4384 4385 4380 12813 12944 12945 
10 1154 2125 1293 1315 12214 10588 5383 5466 12215 5812 
10 1713 797 1552 1553 12667 11403 6852 6851 12946 6371 
10 1324 1323 2197 2092 5496 12573 11584 11350 11586 8330 
10 852 1598 661 1597 10775 10733 4050 10777 6507 12947 
10 1162 2144 1992 1161 11001 8179 12948 4989 11000 12358 
10 231 1551 601 602 12943 12462 3298 3300 11949 3302 
10 1215 2051 1916 1915 11433 7873 11084 11435 7874 7459 
10 1914 1870 981 1163 7453 11802 12949 11063 12237 4990 
10 1551 231 601 388 12943 3298 12462 6364 8999 10684 
10 2051 1215 1216 1361 11433 5155 12950 11347 5614 5615 
10 1448 2286 2305 2311 12951 8743 11993 12198 8809 8807 
10 451 308 309 678 8839 2623 8840 10028 3529 3530 
10 1863 2012 1139 1142 7757 12206 11078 10446 11600 4920 
10 2243 1461 1409 2246 12952 6234 9847 8512 12826 12827 
10 1720 613 1559 1560 12953 12954 6872 6871 9994 6392 
10 1231 2062 1181 1302 11852 10209 5393 5531 10293 5827 
10 613 242 612 1559 3333 3331 3335 12954 12955 12956 
10 1930 2061 1426 1230 7904 10336 10514 11419 12047 5982 
10 1924 1221 1222 2055 11080 5173 11302 7886 11081 11303 
10 368 367 503 767 2685 9192 9193 3793 3794 12957 
10 1941 1077 1242 1241 11603 5229 11650 11106 5227 5231 
10 1374 2079 2136 1294 12958 8150 12959 5863 10605 10057 
10 891 1786 1785 1074 12021 7072 12355 4720 12960 12790 
10 1720 613 806 1559 12953 3911 10026 6872 12954 12961 
10 64 520 529 65 9694 9680 2917 2353 9695 2918 
10 44 20 61 60 9038 2349 9707 9046 2348 2914 
10 180 179 206 1646 2490 3243 3244 6649 6650 12962 
10 1792 1082 1945 1791 10450 12741 7545 7090 9975 7546 
10 1379 2068 1239 1939 12218 12353 5669 12219 7927 12354 
10 709 476 1635 1636 12034 6616 12690 10093 6620 6621 
10 1633 1632 898 1791 6612 12494 10082 7085 7086 9976 
10 1380 2068 1240 1239 12963 10802 5672 5671 12353 5225 
10 1824 1665 1664 745 7183 6707 7182 9751 12964 10757 
10 407 625 254 255 10353 3370 8907 8908 3371 2568 
10 2068 1940 1240 1239 7926 10803 10802 12353 12352 5225 
10 1075 1940 1239 1240 12351 12352 5221 5223 10803 5225 
10 1460 1413 1409 2246 6154 5781 6257 11087 11089 12827 
10 1583 643 642 421 11929 3426 11931 6461 12965 10598 
10 2271 1438 2236 1473 12286 12287 8590 12467 6131 12966 
10 1451 1528 2283 1450 6274 12967 11320 5927 6279 12968 
10 974 2006 1143 1023 10873 10982 4928 5090 12256 5091 
10 1796 1946 1085 1124 7548 11578 12969 12233 9963 4870 
10 1946 1796 1085 1862 7548 12969 11578 7549 7300 11686 
10 955 1990 1844 1128 12080 7677 9778 4880 12081 12970 
10 371 1689 506 1690 11445 6776 9181 11446 6780 6778 
10 785 1796 1085 1124 10376 12969 4753 4867 12233 4870 
10 971 2002 1994 1151 11013 7714 11022 4951 10638 10640 
10 772 961 1865 1860 4369 12971 10130 10131 11181 7314 
10 1796 785 1085 1862 10376 4753 12969 7300 10377 11686 
10 1956 1259 1955 1096 11255 10735 7580 12725 5279 12972 
10 1448 1428 2305 1447 6134 12662 11993 5915 6120 10987 
10 1345 2033 2032 2147 10646 7823 11899 10647 8189 8190 
10 857 1545 666 1601 9857 11197 4065 11512 6833 12731 
10 828 1737 827 1015 10739 12973 3979 4543 12974 4542 
10 838 646 1745 1586 4007 10815 11135 12333 12001 6944 
10 2077 1869 1898 1196 7954 7802 7953 12975 11133 10242 
10 1362 1506 2164 1361 6117 12977 12976 5619 6116 11348 
10 1428 1448 2305 2311 6134 11993 12662 12978 12198 8807 
10 1171 2026 1327 1172 12012 10059 5506 5019 10060 5507 
10 1198 1027 1899 1900 5098 12885 12979 12980 12981 7413 
10 1804 1094 912 1095 12982 4779 11971 12983 4783 4781 
10 645 646 1585 837 3435 10816 12496 4004 4005 10818 
10 646 647 276 1586 3438 3436 3434 12001 10743 12984 
10 1094 1804 1955 1095 12982 7576 12505 4783 12983 11948 
10 1096 1955 1805 1095 12972 7575 11872 4786 11948 12985 
10 1907 1754 1036 1906 7433 12361 12986 7434 7429 12761 
10 1036 1906 1035 1206 12761 12987 4607 5123 11159 5122 
10 913 1804 912 1095 12988 11971 4234 4782 12983 4781 
10 1582 1742 1741 833 6936 6937 6932 10296 10288 10290 
10 1594 1595 657 433 6498 12989 11957 6493 6497 12990 
10 1016 1737 828 1015 12776 10739 4545 4547 12974 4543 
10 1754 1594 849 848 6972 12991 12121 12362 11958 4042 
10 2298 2243 1514 1409 8797 12000 12596 12992 9847 6160 
10 1206 1906 1205 2042 11159 12993 5124 12179 7848 12180 
10 1754 1906 1035 1036 7429 12987 12363 12361 12761 4607 
10 1594 1754 1753 848 6972 6973 6968 11958 12362 11963 
10 668 860 1602 667 4075 12683 12994 3501 4074 12995 
10 2243 2298 2214 1409 8797 8701 8734 9847 12992 9848 
10 1163 1164 2131 1321 4995 10547 11064 5482 5483 12996 
10 1813 1105 1106 1964 12997 4816 12998 7603 12045 10372 
10 291 1598 436 661 11999 6506 8964 3479 10733 12999 
10 594 224 382 383 3278 8987 10198 12859 8988 2702 
10 1270 1182 1107 1965 5419 5314 5312 12054 13000 11919 
10 596 384 1546 1547 11769 6348 13001 12186 6352 6353 
10 1963 1269 1964 2091 12046 10370 7604 7996 13002 7995 
10 378 81 514 513 9235 9737 9506 9505 9666 2839 
10 923 1814 1813 1106 12641 7155 13003 4814 11440 12998 
10 673 1606 672 865 12833 10963 3516 4089 11343 4088 
10 868 1768 1767 1051 13004 7018 13005 4651 10754 10755 
10 1610 1611 1769 870 6546 7019 7020 10278 10822 10014 
10 1105 923 1813 1106 4812 13003 12997 4816 4814 12998 
10 1932 1064 1778 1065 12049 10860 7507 13006 4694 12018 
10 681 874 1614 1613 4115 12840 10808 10807 12271 6555 
10 1506 1467 2163 2252 6127 12476 12477 13007 13008 8529 
10 1792 1083 899 900 10779 4746 11211 10781 4747 4195 
10 944 1984 1118 1983 12389 11564 4850 12390 7661 11562 
10 1677 495 494 358 6741 2818 6740 12053 9486 9485 
10 756 494 358 1677 10146 9485 3761 10147 6740 12053 
10 1620 1621 1779 882 6576 7049 7050 12671 12670 13009 
10 1824 933 744 932 9749 4292 9750 12378 4293 4288 
10 2176 1484 2290 1477 10269 11226 8661 11844 6238 13010 
10 1984 944 1118 1120 12389 4850 11564 12691 4857 4858 
10 368 1687 768 767 12803 9775 3797 3793 13011 3798 
10 1110 1983 943 1118 13012 12784 4829 4852 11562 4851 
10 356 1675 755 754 12072 12074 3759 3755 13013 3760 
10 1983 944 943 1118 12390 4324 12784 11562 4850 4851 
10 1472 2198 2297 2148 12273 8694 11940 12815 8336 8693 
10 1897 1196 1152 1025 10240 5700 12330 10241 5093 5401 
10 2227 1507 1420 2213 10938 6122 10395 8436 10930 11092 
10 1848 1693 773 774 7254 10178 11776 11031 11032 3815 
10 1683 500 364 764 6758 9186 13014 12879 10552 3785 
10 461 462 1621 321 2783 6574 6575 8858 8859 11030 
10 791 1709 1857 977 11551 7306 11779 4432 11884 12190 
10 1864 975 1706 787 10536 12892 7309 11680 4425 13015 
10 1439 2079 1305 2027 13016 10607 5877 12023 7961 10998 
10 2105 1500 1425 1299 10891 6108 10892 12823 6086 5825 
10 1067 1780 1933 1934 10182 7509 10729 10184 7513 7514 
10 1787 1077 1076 893 13017 4730 12063 12064 4728 4726 
10 701 470 1629 1630 11953 6598 12142 11954 6602 6603 
10 2060 2125 1315 1293 8389 12215 12934 10586 10588 5812 
10 2018 1325 1324 1168 12466 5499 11349 12894 5497 5495 
10 1171 1875 1874 2019 12013 7337 12666 12014 7780 7781 
10 1285 2214 1414 1409 11154 11156 5785 5763 9848 5786 
10 382 223 441 7 8986 12071 6345 2701 8984 2762 
10 195 712 171 711 3631 12082 3271 3630 3633 12091 
10 806 1719 1559 805 12600 6868 12961 3912 12139 12138 
10 615 1561 399 244 11396 6393 12805 3339 9920 9030 
10 1853 779 965 1854 13018 4380 11328 7272 12813 12945 
10 609 1556 238 608 11332 10872 3321 3323 11331 3319 
10 532 526 524 518 13019 2902 9709 12694 2905 2889 
10 1126 2115 1277 1283 12713 12807 5332 5347 12715 5349 
10 408 257 627 256 8910 3377 12152 8976 2570 3376 
10 1815 735 926 925 10301 4271 12471 10302 4269 4273 
10 2116 1277 1282 1128 12160 5346 12159 12166 5331 5345 
10 1990 1126 2115 1277 12079 12713 8064 12167 5332 12807 
10 2111 1991 1282 1129 8053 12863 12825 13020 10810 5344 
10 406 253 624 623 8905 3367 12935 10187 3366 3369 
10 179 722 1646 721 11357 12711 6650 10685 3663 12677 
10 648 1587 426 277 12161 6472 12004 3439 12162 8943 
10 2105 1946 1299 2008 8036 11579 12823 8037 7740 11581 
10 1832 755 1675 754 13021 12074 7207 13022 3760 13013 
10 841 1589 842 650 10364 10366 4021 4017 11275 4019 
10 1289 2123 2008 1140 11796 8087 11613 5368 12582 11688 
10 2105 2134 2008 1289 8138 8135 8037 13023 10944 11613 
10 1955 1804 1805 1095 7576 7128 7575 11948 12983 12985 
10 1037 1754 1755 849 12416 6976 12417 4608 12121 12123 
10 2276 2244 1432 2278 8805 11323 11318 8790 8621 13024 
10 973 1862 1140 1085 12015 11687 4915 4752 11686 4924 
10 1655 924 734 1656 12077 4266 10704 6681 9802 10223 
10 1862 973 1140 1966 12015 4915 11687 7608 12300 11712 
10 2227 1422 1420 1492 13025 5811 10395 13026 6168 6169 
10 1108 1815 926 925 12846 12471 4821 4820 10302 4273 
10 671 670 1605 301 3510 12200 10889 3508 3506 12323 
10 1666 484 348 349 6708 5891 12379 12936 5890 2664 
10 1825 933 745 1824 10613 4291 12070 7187 9749 9751 
10 1665 1825 745 1824 7185 12070 12964 7183 7187 9751 
10 868 867 1051 1767 4099 4650 4651 13005 13027 10755 
10 1622 885 1781 884 10995 11605 7056 10273 4150 10258 
10 1665 746 348 745 12380 3733 12381 12964 3734 3729 
10 483 1664 745 347 6703 10757 12726 5899 12816 3730 
10 1507 2227 1420 1492 10938 10395 6122 6193 13026 6169 
10 483 1665 348 745 6705 12381 5898 12726 12964 3729 
10 707 1633 474 706 10439 6610 12792 3618 10081 12793 
10 471 702 470 333 12490 11952 2792 8877 3602 8876 
10 1647 724 1806 914 12263 13028 7130 12920 4236 11871 
10 1171 2026 1172 1875 12012 10060 5019 12013 7804 12385 
10 1276 1275 2129 2215 5330 9931 12831 11892 10085 8391 
10 1832 755 754 942 13021 3760 13022 12592 4316 4317 
10 1162 980 1161 1992 4987 4985 4989 12948 10631 12358 
10 1551 1550 601 1711 6365 10678 12462 6846 6847 13029 
10 1539 1496 1505 2267 6292 6287 6291 11117 11126 11119 
10 1097 1956 1806 1096 12724 7578 12093 4789 12725 11870 
10 192 220 1658 191 3266 10708 6685 2502 3265 6686 
10 764 1683 1684 1840 12879 6762 12277 11879 7229 7230 
10 525 54 530 521 2893 12177 9683 2894 2881 9692 
10 1116 1842 954 1989 12504 12907 4846 12488 7673 12699 
10 1815 1108 1107 925 12846 4822 11918 10302 4820 4818 
10 2101 1275 2129 1976 11104 9931 8109 8026 9932 8110 
10 1325 1170 2020 1326 5500 10941 12306 5505 5503 10958 
10 2323 747 935 936 9740 4297 10989 9688 4301 4302 
10 1697 1696 777 512 6800 10800 12811 6798 6796 12824 
10 1828 937 1668 936 12375 12243 7194 11368 4305 9690 
10 1995 962 1134 963 11035 4899 9824 9825 4376 4898 
10 1697 377 513 512 12104 9504 6799 6798 9503 2838 
10 951 1859 1795 761 10485 7297 10487 4341 11360 11361 
10 1892 1193 1192 1015 13030 5081 11394 11906 5079 5077 
10 993 1721 1877 1878 10120 7341 13031 13032 7345 7346 
10 1680 1704 760 948 6823 12107 10863 11482 10153 4335 
10 956 955 1844 1128 4357 9778 11271 4879 4880 12970 
10 384 225 596 1546 8990 3282 11769 6348 13033 13001 
10 2244 1446 2278 2172 10361 13034 8621 8506 11247 8619 
10 1320 2293 2239 1442 11683 8679 11684 5885 11645 13035 
10 224 225 383 595 2537 8989 8988 3279 3280 12860 
10 2232 1412 2152 2153 11094 10144 8460 8463 10142 8206 
10 1319 1320 2239 1442 5481 11684 11441 5884 5885 13035 
10 531 526 529 527 9718 9741 2943 2941 9725 2942 
10 1044 902 972 1863 4632 4413 4631 10444 12659 11077 
10 383 1545 595 1546 6346 9858 12860 6349 6350 10206 
10 1925 2055 1222 1223 7885 11303 11301 10115 13036 5176 
10 1144 970 952 1987 4932 4401 4931 12285 13037 12747 
10 977 1159 1868 1993 4978 12829 12266 12192 12336 7688 
10 993 1175 1878 1877 5026 9845 13032 13031 11864 7346 
10 600 794 1710 793 3874 10300 10993 3872 3876 10299 
10 1720 1721 1877 992 6876 7341 7342 9899 13038 11390 
10 1885 1005 1183 1883 10923 5049 12410 7365 13039 13040 
10 1709 1710 793 1549 6845 10299 11728 6841 6844 13041 
10 1716 801 987 986 12088 4462 12346 12087 4460 4464 
10 990 1171 1875 989 5015 12013 10100 4473 5014 13042 
10 1528 2277 1508 2303 13043 13044 6262 12787 8728 12788 
10 1561 615 614 244 11396 3341 12569 9920 3339 3337 
10 511 510 1695 375 2836 6792 6793 9500 9499 11989 
10 2020 1170 2019 1326 10941 10940 7785 10958 5503 12468 
10 621 251 250 403 3358 2563 3357 12543 9025 9036 
10 813 814 620 1565 3936 3934 3932 10580 10828 12480 
10 1555 801 607 608 12546 3895 12394 12797 3896 3320 
10 1716 1978 987 1873 7642 13045 12346 7331 7722 11834 
10 2049 1885 1183 1883 7868 12410 12403 7869 7365 13040 
10 801 1555 607 800 12546 12394 3895 3897 11230 3893 
10 1573 823 1733 822 10251 11591 6909 10247 3964 11612 
10 1555 1554 392 606 6377 6372 6376 12395 9892 11629 
10 812 619 618 1564 3929 3353 3928 13046 11061 11060 
10 1885 1006 1184 1183 10922 5052 11636 12410 5050 5054 
10 813 1725 1565 1564 10578 6886 10580 13047 6887 6407 
10 619 813 1565 1564 3931 10580 12481 11061 13047 6407 
10 1985 946 1121 2015 12853 4859 9972 7768 11820 10010 
10 1292 1896 1117 1020 10284 11151 5377 5376 10285 5088 
10 619 620 249 1565 3356 3354 3352 12481 12480 12617 
10 1319 2144 2239 1162 10999 8490 11441 5477 11001 13048 
10 1908 1907 1037 1208 7437 11925 12673 12674 11924 5128 
10 654 653 845 1591 3459 4028 4029 13049 11306 10340 
10 1182 2049 1183 1883 12402 12403 5051 12932 7869 13040 
10 1034 1204 1205 1905 5117 5121 5119 12258 11412 11413 
10 1724 812 618 1564 10232 3928 10034 6883 13046 11060 
10 654 846 655 1592 4031 4032 3462 11933 11790 11997 
10 1005 1182 1183 1883 5048 5051 5049 13039 12932 13040 
10 632 262 413 633 3392 8919 12473 3396 3394 11405 
10 846 1593 655 1592 9748 12382 4032 11790 6492 11997 
10 1710 979 1868 978 10298 12235 7319 11115 4440 12828 
10 1185 2138 1184 1337 13050 11637 5057 5540 13051 5539 
10 1249 2204 1346 1278 12640 12575 5782 5335 12383 5783 
10 834 1742 1582 833 11699 6936 13052 3997 10288 10296 
10 1232 2062 2063 1934 10291 7913 12507 10292 7909 7912 
10 1894 1017 1195 1194 12165 5085 11923 12110 5083 5087 
10 1562 400 1563 617 6396 6400 6401 12027 10011 12097 
10 675 676 306 1609 3525 3523 3521 10406 12420 12421 
10 1894 2034 1893 1194 7824 7825 7392 12110 11570 11561 
10 1754 1753 1035 1906 6973 12367 12363 7429 7430 12987 
10 1906 1206 1205 1035 11159 5124 12993 12987 5122 5120 
10 2039 1202 1349 1348 11182 5577 10125 10126 5575 5579 
10 1932 1064 1065 1301 12049 4694 13006 12396 5416 5413 
10 1589 841 1588 650 10364 10456 6480 11275 4017 13053 
10 690 461 321 320 11016 8858 3566 3565 8857 2635 
10 1593 846 1752 1592 9748 9747 6965 6492 11790 6966 
10 1240 1941 1940 2069 12348 7535 10803 10804 7929 7930 
10 1593 285 431 432 10621 8954 6491 6490 8955 2752 
10 1351 2155 2041 2154 11095 8211 11162 12764 8212 8207 
10 465 1625 1624 695 6587 6588 6583 12359 10046 10048 
10 1791 1082 1945 1081 9975 12741 7546 9977 4745 12055 
10 1351 2154 2041 1350 12764 8207 11162 5585 12118 12120 
10 901 1798 903 1794 13054 10901 4429 10117 7298 13055 
10 338 1634 708 475 10836 10835 3619 8885 6613 13056 
10 2155 1352 1351 2042 10618 5588 11095 8210 12178 11163 
10 1760 1600 855 1759 6990 13057 10349 6991 6986 12891 
10 526 532 520 529 13019 11596 2901 9741 2938 9680 
10 1600 664 856 855 11507 4061 10457 13057 4059 4063 
10 195 196 171 712 2507 3227 3271 3631 3632 12082 
10 1641 715 199 716 10480 3641 13058 11210 3645 3643 
10 901 1798 1084 903 13054 11385 4922 4429 10901 4749 
10 1760 1600 856 855 6990 10457 10347 10349 13057 4063 
10 257 1570 409 408 10158 6421 8911 8910 6422 2729 
10 341 170 0 1 11258 3222 2656 8820 2480 2478 
10 918 1650 1809 1651 11310 7139 10526 12366 6666 7138 
10 1269 1268 1404 2091 5310 5746 5747 13002 13059 13060 
10 1220 1054 1053 1923 5166 4661 5165 12679 12680 12619 
10 2194 1307 2096 2027 10492 10840 8322 8321 10494 8012 
10 1396 2084 2085 1261 13061 7979 12939 5723 12884 12883 
10 674 866 1608 1607 4092 12035 12917 10323 12036 6537 
10 1052 1768 1051 1921 10814 10754 4655 13062 7473 10008 
10 2013 1115 1828 2004 11042 11367 7758 7761 11362 7725 
10 1187 1188 1010 1888 5066 5064 5062 10544 10542 11882 
10 305 674 448 304 3518 12532 8834 2619 3517 8833 
10 956 1991 1129 1128 12547 10810 4883 4879 12185 4884 
10 376 511 1695 375 9501 6793 9818 2694 9500 11989 
10 1197 1026 1898 1899 5095 13065 13063 13064 13066 7410 
10 1126 1990 2115 1989 12079 8064 12713 12697 7678 8063 
10 1699 779 1854 780 12812 12813 7271 10482 3833 13067 
10 1133 2121 1998 1135 12756 8081 13068 4902 12732 11678 
10 1928 1929 2059 1227 7499 7897 7898 12706 12113 13069 
10 1925 1056 1222 1924 10114 5172 11301 7487 12618 11302 
10 2199 1468 1469 2294 10359 5991 10856 8682 12109 12095 
10 2007 1911 1212 2047 7738 9879 9917 8127 7863 9880 
10 1437 2149 1453 1459 11427 11480 6254 6270 11897 5955 
10 2238 2111 1285 2214 8487 13070 12820 8488 8385 11154 
10 1357 2046 2047 1211 10719 7865 10721 5602 11978 9882 
10 1875 1171 1874 989 12013 12666 7337 13042 5014 11075 
10 685 1616 457 315 10417 6559 12551 3550 13071 8849 
10 1719 805 804 1558 12139 3909 11400 6869 12140 12530 
10 1177 2024 1879 2023 11587 7795 10218 13072 7796 7791 
10 1325 2018 2216 2020 12466 8395 12307 12306 7784 8394 
10 867 868 1609 1767 4099 13073 12567 13027 13005 7013 
10 1302 2062 1934 1933 10293 7909 10294 10728 7910 7514 
10 972 1817 788 1002 10649 10650 4407 4507 12302 4506 
10 1935 1934 1068 1233 7517 10185 12207 10593 13074 5202 
10 456 1616 684 315 6560 12275 12314 8848 13071 3548 
10 62 45 43 46 9051 2886 9731 9052 2331 2883 
10 1375 2065 2064 2228 10431 7919 11462 11455 8442 8439 
10 247 401 618 248 9020 12248 3348 2560 9021 3349 
10 1626 889 1625 696 9992 12226 6591 9993 4160 10051 
10 810 1562 1722 1723 11673 6877 11674 11861 6881 6882 
10 1188 1341 2093 1340 5551 12516 10541 5549 5553 11549 
10 1747 839 1746 1587 12332 12189 6952 6951 10744 6947 
10 1930 1929 1228 2060 7502 11730 10585 7900 7901 11359 
10 1704 786 760 948 10408 3852 12107 10153 4334 4335 
10 2138 2132 2229 1337 8159 8514 8494 13051 12453 12635 
10 1583 642 834 1582 11931 3995 11930 6462 10295 13052 
10 1776 879 1062 878 10843 4684 9756 9757 4132 4683 
10 1198 1309 2126 1197 5570 9762 13075 5100 5802 13076 
10 1144 1987 2113 2135 12285 8058 12437 12284 8166 8169 
10 2056 1925 1223 2055 7889 10115 12578 7890 7885 13036 
10 1234 1935 1233 2064 12716 10593 5207 12414 7915 10592 
10 2062 1232 1181 1302 10291 5828 10209 10293 5430 5827 
10 707 1633 706 899 10439 10081 3618 4191 10441 4190 
10 2132 2138 1185 1337 8159 13050 11914 12453 13051 5540 
10 900 1793 1635 1634 10780 7091 13077 13078 7092 6618 
10 2055 1368 1222 1223 10730 5635 11303 13036 5636 5176 
10 1369 1435 2169 1454 6129 11770 10412 6000 5939 12579 
10 1771 1056 1924 1055 10823 12618 7482 10826 4667 12401 
10 2171 1315 1372 2059 12908 6005 12937 8255 12916 10191 
10 885 1622 692 884 10995 10996 4148 4150 10273 4146 
10 1372 1226 2059 1227 5647 10193 10191 5648 5188 13069 
10 1935 1781 1068 1934 7516 10259 12207 7517 7512 10185 
10 1060 1061 1928 1227 4682 12337 10857 5186 5187 12706 
10 1643 719 909 718 12857 4221 12858 12058 3654 4220 
10 1801 1802 1091 909 7119 13079 10476 10490 11759 4770 
10 504 1688 369 768 6772 12405 9195 12804 12318 3796 
10 1226 1060 1928 1227 5184 10857 9905 5188 5186 12706 
10 907 1089 1800 906 4764 12781 13080 4216 4763 12780 
10 1373 1372 2059 1227 5652 10191 11965 5650 5648 13069 
10 1483 1385 1482 2181 6036 6034 6136 11146 11695 11147 
10 730 921 1811 920 4256 11228 13081 4254 4258 11229 
10 1798 1793 901 1084 7719 11333 13054 11385 11389 4922 
10 1111 1973 932 1824 10838 12294 4832 12128 7628 12378 
10 1111 1001 932 1973 4833 4504 4832 10838 12292 12294 
10 726 1650 1649 917 12116 6663 10087 4244 11322 10915 
10 932 1824 1823 744 12378 7184 12921 4288 9750 11049 
10 1809 1100 1808 917 10527 11268 7140 13082 4796 10917 
10 1650 918 1809 917 11310 10526 7139 11322 4249 13082 
10 1958 1099 1808 1959 10110 11269 7584 7589 11262 7588 
10 1664 482 1663 744 6702 6700 6704 10756 9849 9839 
10 1688 769 369 768 13083 3800 12405 12318 3801 3796 
10 1074 1939 1238 1239 12620 11465 5218 5220 12354 5222 
10 2204 1346 1345 2033 12575 5568 10645 8413 13084 10646 
10 2233 1280 1423 1278 11237 5818 11747 12384 5340 5817 
10 1939 1379 1238 1239 12219 5668 11465 12354 5669 5222 
10 1346 2109 1249 1250 12608 9864 5782 5835 12644 5254 
10 1567 623 859 738 10186 4071 11966 11344 3940 4406 
10 1193 1346 2033 1345 5566 13084 12172 5564 5568 10646 
10 757 1677 1834 756 9951 7213 13085 3766 10147 10767 
10 1582 641 420 271 10297 9962 6458 12709 3419 8932 
10 1820 928 1950 1109 11614 9783 7561 12431 4826 9785 
10 1983 1110 2108 1118 13012 9868 8045 11562 4852 9870 
10 1842 1686 766 954 7236 11039 12411 12907 11921 4350 
10 1686 767 954 1843 11920 4349 11921 7238 13086 12700 
10 955 1126 954 1843 4873 4874 4354 13087 12698 12700 
10 1659 39 342 478 6688 9512 12539 6689 2800 6214 
10 1577 1576 635 827 6444 11386 9990 12249 11388 3974 
10 1687 955 767 1843 9777 4353 13011 7239 13087 13086 
10 2242 1432 2218 1416 11317 11316 8501 11888 5849 12542 
10 1897 1143 2010 2006 12329 9924 7764 8124 10982 8133 
10 955 1990 1843 1844 12080 7676 13087 9778 7677 7243 
10 966 780 1855 1854 4383 10484 13088 12944 13067 7275 
10 2067 1378 1938 1238 11842 13089 7924 11466 5666 11467 
10 1694 374 375 510 12269 2693 11988 6790 9498 9499 
10 968 902 1138 1847 4392 4911 4923 10583 12658 10581 
10 902 1044 1847 1863 4632 12684 12658 12659 10444 7311 
10 2000 967 1855 1999 11519 13090 7707 7774 11521 7705 
10 2242 1418 2296 1513 10017 10016 8692 11889 6152 10426 
10 2024 2139 1333 2025 8188 10460 11541 7799 8187 10462 
10 967 966 1999 1136 4388 13091 11521 4903 4904 11522 
10 2035 2110 2109 1250 8388 8052 8414 11203 11983 12644 
10 395 396 1558 240 2715 6384 6385 9011 9012 11773 
10 1176 1177 1879 2023 5034 10218 10219 9842 13072 7791 
10 2034 1193 1893 1194 12171 11559 7825 11570 5084 11561 
10 1451 1331 2209 1332 5926 9935 11321 5928 5523 9936 
10 2007 1760 1042 1759 7736 10368 12549 7737 6991 12890 
10 1795 2010 974 1861 7748 9884 9886 7299 7747 9876 
10 2248 1465 1464 2157 12132 5974 10686 8518 11833 10688 
10 943 756 1833 755 4319 12740 11530 4320 3763 12799 
10 1346 2034 2109 1250 11568 8415 12608 5835 11569 12644 
10 2007 1043 1884 1157 13092 10174 7739 9915 5357 11510 
10 1591 844 1750 1590 10338 10978 6959 6486 10979 6960 
10 2034 2035 2109 1250 7829 8414 8415 11569 11203 12644 
10 1358 1159 1157 1993 5803 4980 5606 11461 12336 12839 
10 2028 1166 1871 2092 11047 11659 7809 8001 13093 8000 
10 2083 2084 1260 1956 7976 13094 11256 7971 7975 11257 
10 2084 1396 1260 1261 13061 5722 13094 12884 5723 5286 
10 1714 984 1871 1872 10342 10343 7326 7327 10321 7329 
10 2156 1463 2157 2247 11513 13095 8218 8516 11839 8515 
10 1342 2029 1190 1189 11743 13096 5555 5554 13097 5072 
10 2247 1463 2157 1464 11839 13095 8515 10687 5971 10688 
10 1597 1598 661 436 6507 10733 12947 6502 6506 12999 
10 1296 1433 2162 1421 5850 12775 13098 5807 5852 13099 
10 686 317 458 1618 3554 8852 11528 11220 9966 6566 
10 1848 961 773 1860 11180 4368 11776 7290 11181 13100 
10 1218 2050 2052 1921 10331 7878 12432 13101 7870 7877 
10 1056 1771 1924 1925 10823 7482 12618 10114 7486 7487 
10 2139 1969 1334 2025 8162 12127 10459 8187 8115 10461 
10 1847 968 1856 1882 10583 11704 7305 7357 10512 7356 
10 2012 1231 1139 1142 11599 5394 12206 11600 5395 4920 
10 2063 1181 1232 1314 12520 5828 12507 12506 5462 5814 
10 1847 1044 1968 1863 12684 10443 7612 7311 10444 7613 
10 972 1044 1863 1142 4631 10444 11077 4918 4919 10446 
10 2084 1957 1260 1956 7974 12720 13094 7975 7583 11257 
10 1463 1353 2157 1464 5967 10674 13095 5971 5969 10688 
10 1240 1941 2069 1241 12348 7929 10804 5228 11106 11107 
10 1406 2100 1180 1272 11474 11363 5753 5752 11365 5319 
10 1881 1918 1179 998 7731 11212 13102 11595 11593 5039 
10 1644 1803 1802 910 7121 7122 7117 13103 13104 11760 
10 1804 1094 1954 1803 12982 11487 7572 7125 12031 7573 
10 1633 1792 1791 898 7089 7090 7085 10082 10451 9976 
10 1945 1082 1246 1081 12741 5242 12743 12055 4745 5241 
10 769 505 369 370 13105 9196 3800 3799 9197 2687 
10 2189 2188 2086 1398 8308 8303 8307 13106 12500 11937 
10 2088 2089 1266 1961 7991 9799 11254 7986 7990 11261 
10 1688 505 369 769 6773 9196 12405 13083 13105 3800 
10 1009 1732 1887 1888 10268 7370 11681 11883 7373 7374 
10 1696 376 777 512 9820 3823 10800 6796 9502 12824 
10 1408 1406 1272 2203 5761 5752 5760 10794 10796 12562 
10 1406 2100 1272 2203 11474 11365 5752 10796 8349 12562 
10 522 517 531 68 2907 11020 9717 13107 9730 2924 
10 780 781 967 1855 3836 4386 4387 10484 10483 13090 
10 1830 1980 969 1977 7647 10255 11634 7640 7649 10257 
10 1776 1061 1929 1775 9755 12112 7497 7042 11176 7498 
10 1985 1121 1120 2110 9972 4861 12852 8051 9974 12388 
10 1740 1581 831 1580 6929 11696 10601 6930 6456 11697 
10 2116 1990 2115 1277 8066 8064 8069 12160 12167 12807 
10 1740 1020 1019 832 12327 4559 12176 11828 4557 4555 
10 1584 1743 1583 835 6938 6939 6465 10712 10714 12664 
10 2068 2177 2176 1478 8272 8273 8268 13108 12602 12587 
10 1424 1505 2207 2274 6113 10908 12373 12372 11118 8605 
10 1292 1297 1896 1019 5771 12303 10284 5379 5398 10286 
10 2013 1946 1796 1124 7760 7548 7759 9965 9963 12233 
10 1276 1115 2195 2004 5328 11043 12832 12843 11362 8323 
10 1990 1126 1277 1128 12079 5332 12167 12081 4881 5331 
10 2039 1503 2152 1348 10127 10145 8202 10126 6104 12492 
10 2249 2293 1526 1442 8769 12801 11815 11644 11645 6233 
10 852 1598 853 661 10775 10107 4054 4050 10733 4052 
10 1600 438 293 663 6512 8968 11508 11509 12312 3485 
10 1445 2288 1321 1444 13109 11070 5894 5896 9888 5893 
10 1598 291 437 662 11999 8965 6505 10732 3481 12461 
10 1759 1600 855 854 6986 13057 12891 10346 10344 4060 
10 1528 2277 2303 2308 13043 8728 12787 13110 8781 8782 
10 2038 2039 2152 1348 7841 8202 8203 13111 10126 12492 
10 2271 2205 1440 1473 8589 12456 11664 12467 13112 6008 
10 772 949 787 1706 4336 4337 3853 13113 13114 13015 
10 1721 808 614 1561 10118 3916 11422 6874 12568 12569 
10 2309 2271 2303 1527 8760 8759 8763 12586 11665 12789 
10 2192 1533 1498 2269 12750 6227 10852 8582 10790 13115 
10 2115 1412 1436 2152 12806 5878 13116 8362 10144 12493 
10 2038 1347 1348 2152 10090 5576 13111 8203 12491 12492 
10 1055 1770 871 1054 12400 10819 4662 4664 11602 4660 
10 2220 1456 1455 1339 12555 5946 12557 10508 5944 5943 
10 1485 2260 1482 1535 9912 11145 6243 6245 10507 6244 
10 1294 1950 1000 1305 10604 9784 5384 5426 10606 5425 
10 1274 1125 2104 1271 5324 12800 12779 5407 5315 11928 
10 2279 1279 2206 2226 11523 10612 8624 8623 10954 8432 
10 1526 2312 2248 1525 11814 8786 11813 6208 11911 11909 
10 1159 2094 1868 1993 11666 8006 12829 12336 8007 7688 
10 2017 2050 2163 1362 7872 8233 8234 13117 13118 12478 
10 1450 1330 2146 2283 5922 13120 13119 12968 12085 8635 
10 1061 1929 1228 1062 12112 11730 5189 4685 11731 5190 
10 811 810 1723 1563 3927 11861 10077 10035 11862 6880 
10 1452 2299 1451 1506 12044 11319 5933 6115 12627 6182 
10 1929 1373 1228 2060 11964 5651 11730 7901 11797 11359 
10 2134 2123 1300 2173 8136 10946 10945 8261 8262 10947 
10 2079 1439 2064 2228 13016 13121 8420 8440 12011 8439 
10 1065 1779 1778 1932 13122 7051 12018 13006 7506 7507 
10 459 687 1619 1618 9967 9804 6569 6565 9968 6570 
10 1067 1066 1302 1933 4700 5417 5418 10729 11224 10728 
10 1793 1792 1634 900 7093 7088 7092 10780 10781 13078 
10 1485 2260 1483 1482 9912 11144 6137 6243 11145 6136 
10 2073 1945 2074 1246 7941 7945 7946 13123 12743 13124 
10 1786 1787 1940 1075 7075 7530 7531 12069 12066 12351 
10 1257 2082 2081 1393 10170 7970 11059 5713 12795 13125 
10 1109 1950 2027 1305 9785 7807 11916 5427 10606 10998 
10 894 1630 1629 1788 10473 6603 12445 11266 7076 7077 
10 207 180 206 723 3245 3244 2518 3665 10904 3664 
10 917 1099 1808 916 4794 11269 10917 4246 4793 10918 
10 703 471 333 702 12914 8877 3604 3606 12490 3602 
10 1628 893 892 700 12281 4174 10664 10663 4172 4170 
10 2066 2067 2175 1476 7925 8265 8266 11691 13126 12926 
10 698 891 699 1627 4166 4167 3594 10464 12022 12574 
10 1422 1300 2173 1420 5810 10947 11726 5811 5800 10396 
10 768 1687 955 767 9775 9777 4352 3798 13011 4353 
10 2260 2259 1482 1535 8558 10309 11145 10507 10311 6244 
10 2259 1540 1538 1535 12872 6340 12873 10311 6300 6284 
10 1715 1554 800 799 6857 9890 10403 10319 9891 3894 
10 2288 1445 2278 1444 13109 13127 8655 9888 5896 9889 
10 1952 1254 1255 2048 11120 5268 12769 7866 10467 13128 
10 1092 1802 910 909 13129 11760 4773 4772 11759 4225 
10 1972 1086 1001 931 12422 4756 12293 9854 4754 4505 
10 2137 1251 1387 2074 13130 5694 11475 8148 11470 11477 
10 1952 1254 1091 1255 11120 5264 12061 12769 5268 5266 
10 1820 1661 741 815 7171 10222 11616 12430 11819 3939 
10 1300 2134 2173 1420 10945 8261 10947 5800 10394 10396 
10 1720 992 1877 1876 9899 11390 7342 7338 9900 7343 
10 2123 1248 1359 2207 10849 5609 10948 8363 10850 10910 
10 1440 2255 1527 1388 11662 11663 6320 5881 13131 6209 
10 1098 916 915 1807 4791 4243 4790 10920 10921 11486 
10 181 207 724 1647 3246 3667 11793 6652 10875 12263 
10 724 1648 1647 1806 12264 6657 12263 13028 7129 7130 
10 310 679 1612 452 3533 13132 11443 8893 12100 6548 
10 1473 2236 2142 1316 12966 8479 11019 6009 13133 10080 
10 1033 1034 1752 1904 4601 10971 9979 12261 12259 7423 
10 2236 2231 2142 1316 8492 8493 8479 13133 13134 10080 
10 1473 2236 1316 1438 12966 13133 6009 6131 12287 5871 
10 2236 2231 1316 1438 8492 13134 13133 12287 11215 5871 
10 2028 2172 1322 1323 8260 11300 12533 11585 11248 5493 
10 818 1727 1570 1569 9938 6891 13135 13136 6892 6423 
10 1249 2204 1278 2108 12640 12383 5335 11984 8354 9869 
10 752 939 1830 969 4308 13137 10373 4395 4396 11634 
10 2233 1434 2107 2235 11238 11240 8467 8476 13138 8475 
10 1248 2123 1359 1300 10849 10948 5609 5411 10946 5610 
10 1275 2101 1272 1113 11104 11105 5327 5326 11280 5317 
10 1325 2216 1447 1326 12307 10986 5904 5505 10957 5910 
10 728 918 919 1651 4248 4252 4250 9808 12366 9809 
10 1991 956 1844 1128 12547 11271 7679 12185 4879 12970 
10 1519 2267 1495 2266 13139 13140 6250 11453 8577 11724 
10 2192 1533 1497 1498 12750 6309 10853 10852 6227 6081 
10 1401 1265 2088 1266 5737 10519 10770 5738 5301 11254 
10 2277 1450 2146 2283 13141 13119 8617 8636 12968 8635 
10 1875 990 991 1172 10100 4476 10102 12385 5017 5018 
10 1328 2021 2026 2217 13142 7806 10058 12238 8398 8399 
10 869 1610 1768 1769 10276 7016 10812 12003 7020 7021 
10 1274 2150 1271 2104 13143 12770 5407 12779 8196 11928 
10 1556 1716 801 802 6859 12088 13144 11330 12344 3900 
10 2029 1342 1341 1189 11743 5556 11632 13097 5554 5552 
10 2205 1473 1335 1310 13112 6006 12856 12861 6007 5535 
10 1285 2111 1129 1130 13070 13020 5355 5354 12855 4887 
10 929 1858 1670 750 11655 7282 12798 4280 10558 10559 
10 957 956 1845 1129 4360 11272 11982 4882 4883 10811 
10 1517 1298 2127 2182 6171 11745 13145 11977 12060 8287 
10 2277 2303 2285 1508 8728 8729 8645 13044 12788 12197 
10 1428 2306 2311 2305 12660 8777 12978 12662 8806 8807 
10 2299 2145 1332 2209 8706 9960 12469 8707 8372 9936 
10 371 770 1690 771 3802 11448 11446 3806 3807 11053 
10 1449 1328 1327 2223 5917 5511 5916 10967 12239 10968 
10 1155 939 1141 1977 4966 4917 4968 11847 10562 10256 
10 1505 1539 2274 1520 6291 11116 11118 6185 6294 13146 
10 1456 1457 2280 1537 5949 11905 13147 6275 6276 12495 
10 1424 1505 2274 1520 6113 11118 12372 6184 6185 13146 
10 1472 2198 2102 1306 12273 8333 12814 6002 13148 13149 
10 1472 1411 2102 2148 6003 13150 12814 12815 13151 8192 
10 2092 1978 1167 1871 7999 10326 11352 8000 7644 10327 
10 1170 989 988 1874 5012 4470 5011 10939 11075 10378 
10 1329 1450 2146 2217 5920 13119 11620 12246 12245 8397 
10 2133 1870 1163 1162 8130 12237 11065 12882 13152 4992 
10 1967 2127 2102 1411 8103 8104 8028 11710 11746 13150 
10 1423 1345 1453 2147 5819 5935 5936 11102 10647 10725 
10 2095 1141 2102 1306 12265 12650 8030 13153 5432 13149 
10 613 242 1559 397 3333 12955 12954 9907 9014 6387 
10 2150 1418 1416 1274 10015 5797 13154 13143 5794 5791 
10 1907 1906 1036 1207 7434 12761 12986 11926 11158 5125 
10 1587 647 1586 425 10742 10743 6474 6473 13155 6469 
10 1197 2077 2126 1899 13156 8100 13076 13064 7956 8099 
10 1897 1143 1024 1152 12329 5092 11894 12330 4973 5400 
10 823 1011 1733 1010 4530 11589 11591 4528 4532 11611 
10 839 1026 1746 838 4576 12124 12189 4012 4575 12126 
10 517 526 531 527 2906 9718 11020 9726 9725 2941 
10 1269 1336 2091 1404 5749 11497 13002 5747 5839 13060 
10 1727 1006 1730 1885 9937 12020 6901 7364 10922 7363 
10 1586 647 276 425 10743 3436 12984 6469 13155 8941 
10 1743 835 1742 1583 10714 11575 6940 6939 12664 6935 
10 1162 1870 980 1992 13152 11803 4987 12948 7685 10631 
10 1025 1897 837 1024 10241 12220 4572 4574 11894 4570 
10 795 1551 601 1711 13157 12462 3877 11755 6846 13029 
10 835 1583 834 1742 12664 11930 4000 11575 6935 11699 
10 1022 1742 834 1021 11577 11699 4563 4565 10287 4561 
10 982 1914 981 1163 12624 12949 4449 4991 11063 4990 
10 286 1594 657 433 12734 11957 3466 8957 6493 12990 
10 1754 1907 1036 1037 7433 12986 12361 12416 11925 4610 
10 2221 1337 2132 1338 12633 12453 8410 12407 5544 12452 
10 434 659 288 289 12905 3472 8982 8960 3473 2602 
10 448 674 1608 1607 12532 12917 6536 6532 10323 6537 
10 807 1720 806 992 12603 10026 3915 4478 9899 4477 
10 56 67 523 51 9734 9641 2884 2878 9049 2885 
10 1691 772 1706 1865 10129 13113 6831 7313 10130 7312 
10 863 670 1604 1605 4082 12131 10448 10447 12200 6528 
10 1721 807 992 1720 11423 4478 13038 6876 12603 9899 
10 670 863 1604 862 4082 10448 12131 4080 4084 9997 
10 1616 685 684 315 10417 3552 12275 13071 3550 3548 
10 1174 2022 1877 2021 11074 7789 11865 10886 7790 7786 
10 2211 2210 2275 1417 8378 8612 8609 11245 11816 11246 
10 1284 1347 2114 1436 6092 10091 10099 5862 5956 13158 
10 2132 2138 1917 1185 8159 8156 8123 11914 13050 11804 
10 2050 1363 1362 1217 10329 5622 13118 10330 5620 5618 
10 467 698 1627 1626 10463 10464 6593 6589 13159 6594 
10 629 1731 820 821 12758 9987 3954 3956 10929 3958 
10 1628 330 699 468 10834 3593 10665 6596 8872 12744 
10 1731 1730 1007 1917 6904 9984 9986 7460 7461 11805 
10 1730 1885 1007 1917 7363 12802 9984 7461 7462 11805 
10 2286 1326 1327 1448 12459 5508 10966 12951 5913 5914 
10 1540 1544 2302 1538 6342 11753 12368 6340 6343 11754 
10 340 709 476 339 3623 12034 8888 2654 3622 8887 
10 822 1732 821 1009 10252 10927 3961 4525 10268 4524 
10 1347 2038 2114 2152 10090 8406 10091 12491 8203 8361 
10 1197 1148 2077 1196 5701 12727 13156 5097 5699 12975 
10 1625 465 326 695 6587 8866 13160 10046 12359 3581 
10 1225 2057 1224 1370 11436 10414 5182 5642 10411 5641 
10 1809 1650 917 1808 7139 11322 13082 7140 7135 10917 
10 2057 1369 1224 1370 10410 5639 10414 10411 5643 5641 
10 1452 2237 1360 1333 10392 12244 6102 5932 10393 5934 
10 2237 2139 1360 1333 8483 11430 12244 10393 10460 5934 
10 1225 1226 2058 1371 5185 10192 13161 5644 5645 12229 
10 1928 1226 2059 2058 9905 10193 7898 7894 10192 7899 
10 1594 657 849 848 11957 4040 12991 11958 4038 4042 
10 478 1660 343 740 6690 12531 6213 11783 11782 3714 
10 1654 1655 732 188 6678 12722 12686 6673 6677 11719 
10 359 495 496 1678 9487 2819 9488 9861 6743 6744 
10 772 949 1706 1865 4336 13114 13113 10130 13162 7312 
10 1683 764 364 763 12879 3785 13014 11498 3786 3781 
10 764 763 1840 970 3786 12880 11879 4398 4399 12746 
10 1859 951 950 762 10485 4343 11356 11975 4340 4339 
10 362 1682 1681 498 10599 6756 10589 9182 6754 6753 
10 33 362 32 1681 9179 2679 2857 6752 10589 10590 
10 1922 1218 2052 1921 12029 12432 7876 7478 13101 7877 
10 2070 1241 1382 2069 11108 5677 10763 7934 11107 13163 
10 1380 2068 2069 1240 12963 7931 13164 5672 10802 10804 
10 2306 1446 2244 2281 10880 10361 8796 8818 10362 8629 
10 2017 2051 1216 1361 7875 12950 12297 12201 11347 5615 
10 951 1859 1919 1869 10485 7467 10864 10486 7322 7469 
10 938 1869 1795 951 11041 7321 9885 4342 10486 10487 
10 1290 1086 2097 2096 5371 12424 11538 13165 10842 8015 
10 1116 1842 953 954 12504 12877 4847 4846 12907 4351 
10 1832 755 942 1833 13021 4316 12592 7211 12799 11532 
10 1144 970 1949 1146 4932 12434 12283 4939 4937 12436 
10 2131 1163 1914 1164 11064 11063 8119 10547 4995 11054 
10 1061 1776 1929 1062 9755 7497 12112 4685 9756 11731 
10 687 880 1618 879 4133 12919 9968 4131 4135 10844 
10 225 384 383 1546 8990 2703 8989 13033 6348 6349 
10 296 440 295 666 8972 8983 2609 3494 11196 3493 
10 902 972 1863 1703 4413 11077 12659 10549 10550 7302 
10 928 1660 930 740 11615 12759 4284 4278 11782 4282 
10 1619 880 1777 1618 9805 12941 7043 6570 12919 7044 
10 1479 2178 1381 2069 13166 13168 6026 13167 8275 12630 
10 1785 1786 1939 1074 7072 7527 7528 12790 12960 12620 
10 1075 1939 1074 1239 13169 12620 4724 5221 12354 5220 
10 1738 1737 1016 1893 6925 12776 12777 7387 7388 11560 
10 2198 1472 1427 1306 12273 6001 10111 13148 6002 5832 
10 1400 1495 2190 1399 6071 12561 10786 5736 6070 12076 
10 756 1676 1833 755 10148 7210 12740 3763 12151 12799 
10 2178 1479 1381 1509 13166 6026 13168 12580 6285 6140 
10 2161 2081 1392 2080 8229 11011 10316 8230 7967 13170 
10 1378 1237 1938 1238 5665 10045 13089 5666 5219 11467 
10 284 1592 431 430 11934 6487 8953 8952 6488 2751 
10 1237 1938 1238 1073 10045 11467 5219 5215 11517 5217 
10 1840 970 1949 1987 12746 12434 7558 7667 13037 7669 
10 1290 1307 1086 2096 5438 5435 5371 13165 10840 10842 
10 1203 2040 2041 1904 12250 7847 12231 12320 7842 7846 
10 1033 1204 1904 1203 5116 12260 12261 5114 5118 12320 
10 1758 1759 1041 854 6988 10103 10104 10960 10346 4621 
10 1716 1556 801 1555 6859 13144 12088 6860 6380 12546 
10 1251 2137 1948 2074 13130 8147 11469 11470 8148 7947 
10 1336 2138 2229 1337 12850 8494 12067 5541 13051 12635 
10 1759 2007 1911 1042 7737 7738 7444 12890 12549 12550 
10 2046 1210 2045 1909 11955 10397 7862 7861 10398 7857 
10 2137 1252 1251 1948 12930 5259 13130 8147 11692 11469 
10 2199 1364 1365 1469 10357 5628 11555 10856 5989 5990 
10 2164 1506 2163 2252 12977 12477 8237 8530 13007 8529 
10 1247 1246 1387 2074 5246 5692 5693 13171 13124 11477 
10 306 450 449 1609 8836 2771 8837 12421 6538 6539 
10 1468 1364 1363 2166 5987 5625 5986 10360 10358 11849 
10 2066 1237 1378 1377 10044 5665 11689 11690 5663 5667 
10 1374 1375 1234 2064 5658 5656 5655 11449 11462 12414 
10 2221 2193 2229 1499 8588 8455 8546 12634 12441 12564 
10 1262 1397 2085 1261 5726 12938 11936 5289 5725 12883 
10 1809 1100 1101 1959 10527 4801 10528 7587 10532 13172 
10 1237 1937 1938 1072 10043 7526 10045 5214 11668 11516 
10 2193 1499 1403 1404 12441 6082 12448 12449 6083 5748 
10 175 201 717 200 3235 3647 11263 3272 2512 3646 
10 2161 1488 2263 1487 11572 10303 8566 10317 6051 12105 
10 1485 1390 1389 2212 6042 5706 6041 9914 12794 12356 
10 1430 2200 1415 1515 13173 11846 5842 6163 10870 6162 
10 1402 2090 2192 1403 13174 8315 10851 5745 12446 12842 
10 1273 2097 1415 1290 12429 11540 5787 5372 11538 5788 
10 1971 1086 1970 2096 12423 11545 7623 8011 10842 8010 
10 1534 2254 2300 2313 10149 8713 11800 10279 8815 8817 
10 1407 2202 1180 1406 11218 11216 5756 5758 10867 5753 
10 1144 1127 2113 1987 4930 9759 12437 12285 9760 8058 
10 1639 714 1640 1797 11250 11251 6633 7102 13175 7101 
10 970 1144 1949 1987 4932 12283 12434 13037 12285 7669 
10 2193 1404 2091 2229 12449 13060 8318 8455 12565 8446 
10 1182 2011 1965 2049 12931 7753 13000 12402 8128 8154 
10 1269 1963 1268 2091 12046 11505 5310 13002 7996 13059 
10 22 40 52 68 9037 2861 9062 2357 9729 9064 
10 1962 2089 1961 1266 7989 7990 7598 11277 9799 11261 
10 1284 2113 1295 1127 10560 10576 5386 5352 9759 5387 
10 1853 1852 778 1697 7269 12757 12299 7267 7265 11236 
10 746 1667 1666 349 10974 6713 12149 3732 13176 12936 
10 522 53 68 531 2880 9066 13107 9717 9714 2924 
10 1373 2060 1315 1293 11797 12934 6130 6132 10586 5812 
10 1136 1286 2075 1315 5359 10436 12455 5464 5465 12217 
10 2103 2060 1426 1293 8258 10335 10337 10587 10586 5981 
10 2149 1504 1437 2245 11625 6156 11427 8507 12262 11428 
10 2183 1311 1437 2235 10913 5865 11426 8477 11922 12251 
10 665 440 1601 666 12898 6514 11511 3495 11196 12731 
10 532 519 63 528 9667 9669 2930 2929 9678 2916 
10 1674 753 941 754 11373 4315 11371 12739 3757 4314 
10 1311 1434 1437 2235 5856 6151 5865 11922 13138 12251 
10 2183 2149 2235 1437 8727 8622 8477 11426 11427 12251 
10 2103 1044 1968 1882 10533 10443 8032 8031 13177 7726 
10 1411 1472 2102 1306 6003 12814 13150 5775 6002 13149 
10 1781 1622 884 1780 7056 10273 10258 7057 7052 10260 
10 520 532 526 524 11596 13019 2901 2892 9709 2902 
10 1980 969 1150 941 10255 4950 12254 12255 4397 4949 
10 1191 1891 1190 2031 11778 9944 5075 13178 7815 11995 
10 2046 1357 1502 1356 10719 6101 11647 13179 5603 6119 
10 1468 1364 2199 1469 5987 10357 10359 5991 5989 10856 
10 2216 1326 2305 1447 10957 11992 8742 10986 5910 10987 
10 2309 2291 1530 2294 8762 12094 11178 8813 8685 11179 
10 1666 349 1667 485 12936 13176 6713 6709 5502 6711 
10 488 352 36 1670 9471 2668 9470 6721 10668 10573 
10 1719 1875 991 1876 7335 10102 10069 7339 7340 9902 
10 1419 2244 2262 2306 10882 8795 12899 10881 8796 8744 
10 2286 1326 1448 2305 12459 5913 12951 8743 11992 11993 
10 1681 786 32 33 11502 3851 10590 6752 12525 2857 
10 786 938 1795 761 4307 9885 10407 3850 4306 11361 
10 40 22 57 68 9037 2344 9039 9729 2357 2908 
10 2277 1450 1508 1449 13141 6273 13044 13180 5921 6272 
10 812 813 1725 998 3933 10578 11150 4495 4496 11417 
10 1045 999 998 1762 4635 4501 5041 10032 11425 11594 
10 517 526 522 531 2906 2903 2907 11020 9718 9717 
10 2303 2255 1508 1527 8758 13181 12788 12789 11663 6210 
10 1449 2277 2285 1508 13180 8645 13182 6272 13044 12197 
10 1527 2255 1508 1388 11663 13181 6210 6209 13131 6125 
10 1290 2097 2234 2096 11538 8469 11537 13165 8015 8468 
10 637 416 266 636 12651 8978 3406 3408 12652 3404 
10 2149 1453 1344 2147 11480 5938 12668 8195 10725 13183 
10 837 1745 1585 1744 10817 6945 10818 12221 6946 6941 
10 1307 1290 2234 2096 5438 11537 13184 10840 13165 8468 
10 2235 1434 1437 1453 13138 6151 12251 10727 5937 6254 
10 2039 2040 2153 1349 7844 8204 8205 10125 13185 13186 
10 957 2016 1129 1845 11981 10809 4882 11982 7770 10811 
10 1687 1688 504 768 6774 6772 6770 9775 12318 12804 
10 1284 1989 1283 2114 10097 12714 5353 10099 8061 13187 
10 1345 1344 1453 2147 5565 5938 5935 10647 13183 10725 
10 2038 2039 1348 1201 7841 10126 13111 12933 11183 5574 
10 2154 1460 2153 1349 13188 10194 8209 13189 5958 13186 
10 1412 2115 1436 1283 12806 13116 5878 5777 12715 5861 
10 1050 1217 1920 1216 5156 10007 11340 5154 5158 12298 
10 2024 2145 1333 2139 8183 9959 11541 8188 8400 10460 
10 1257 2081 1392 1393 11059 11011 5711 5713 13125 5715 
10 1624 1782 1623 886 7058 7059 6585 12845 12844 10977 
10 56 9 21 67 2343 2847 9063 9734 9048 2356 
10 2131 1165 1322 1321 10546 5488 12583 12996 5485 5490 
10 1611 679 1612 871 12099 13132 6549 10821 4107 13190 
10 1561 1562 1722 809 6398 6877 6878 11398 11397 11675 
10 2139 1334 1360 1333 10459 5823 11430 10460 5530 5934 
10 450 451 1610 677 2772 6541 6542 10025 10024 10277 
10 2237 1452 1360 1361 10392 6102 12244 11346 6107 5616 
10 2199 1364 2053 1365 10357 12393 8337 11555 5628 11171 
10 1226 1225 2058 1927 5185 13161 10192 9906 11706 7895 
10 2125 2060 1315 2075 8389 12934 12215 8097 8437 12217 
10 1257 1256 1392 2081 5274 5710 5711 11059 13191 11011 
10 2165 2199 1365 1469 8340 11555 11170 10855 10856 5990 
10 2295 1531 2272 2289 9908 9909 8594 8688 11558 8735 
10 1934 1232 1068 1233 10292 5201 10185 13074 5204 5202 
10 1225 2057 2058 1927 11436 7896 13161 11706 7891 7895 
10 2161 1488 1392 2184 11572 6049 10316 8293 10305 11012 
10 2072 1384 2180 2071 10226 10216 8280 7940 10629 8281 
10 1289 1085 1140 2008 5369 4924 5368 11613 11580 11688 
10 1517 2127 1411 2148 13145 11746 6170 12518 8191 13151 
10 1394 2082 1393 2185 12470 12795 5718 11859 8295 12636 
10 1242 1383 2070 1382 5680 13192 11722 5678 5682 10763 
10 212 185 184 728 3254 2495 3253 3680 12115 11034 
10 1383 2070 1382 2179 13192 10763 5682 10651 8278 10765 
10 1242 1941 1241 2070 11650 11106 5231 11722 7933 11108 
10 1650 1649 917 1808 6663 10915 11322 7135 7136 10917 
10 1256 2081 2080 1392 13191 7967 11478 5710 11011 13170 
10 2071 1384 2179 1383 10629 12144 8277 12901 5685 10651 
10 2181 1385 1482 2180 11695 6034 11147 8285 10215 10217 
10 965 1133 1997 1998 4896 11281 11282 11676 13068 7703 
10 2082 1258 1954 1955 10168 10169 7969 7968 10211 7577 
10 2211 1435 1288 1417 11243 5858 12427 11245 5859 5792 
10 1770 1055 871 872 12400 4662 10819 12426 4663 4111 
10 1313 1296 2231 2118 5457 13193 12887 12888 13194 8457 
10 2005 1122 2015 2036 12156 10283 8116 7833 10282 8332 
10 1391 2161 1392 2080 10315 10316 5712 10166 8230 13170 
10 1257 1258 2082 1393 5277 10168 10170 5713 5714 12795 
10 363 362 498 1682 2680 9182 9183 10595 10599 6754 
10 959 771 1838 958 4365 11138 11285 4426 4361 11140 
10 1384 2071 2179 2180 10629 8277 12144 10216 8281 8282 
10 1510 1534 2313 1431 6241 10279 11890 6141 6240 10281 
10 2232 1460 1412 2153 11086 6155 11094 8463 10194 10142 
10 2259 2258 2179 1481 8555 8550 8554 10310 12364 10652 
10 2292 2227 2264 1492 8672 8660 8671 12729 13026 11488 
10 2227 1507 2264 1492 10938 10470 8660 13026 6193 11488 
10 769 1688 1845 956 13083 7244 12412 4355 11270 11272 
10 1281 1416 2218 2262 5790 12542 13195 11165 12541 8562 
10 1391 1256 2080 1392 5708 11478 10166 5712 5710 13170 
10 2297 1472 2148 1543 11940 12815 8693 11939 6311 12519 
10 1298 2001 2078 1004 12870 7958 11630 5404 10128 10123 
10 1967 1155 2102 1977 11709 13196 8028 7641 11847 8029 
10 2207 2266 1359 2173 8704 10909 10910 8365 8703 10949 
10 2276 1432 2262 2218 11318 11324 8615 8614 11316 8562 
10 1419 1416 2262 1432 5847 12541 12899 5848 5849 11324 
10 1396 1395 1491 2186 5724 6058 6059 13197 11293 10391 
10 1268 2090 1267 1403 11514 13198 5307 5744 12446 5743 
10 319 318 688 459 2633 3559 3560 8854 8896 10214 
10 1622 692 884 691 10996 4146 10273 10274 3573 4145 
10 310 680 453 1612 3535 13199 8894 11443 12655 6547 
10 2227 2292 1422 1492 8672 11725 13025 13026 12729 6168 
10 1936 1935 1234 2064 7520 12716 12928 7914 7915 12414 
10 1968 2012 1142 1301 7756 11600 10445 12406 11601 5415 
10 1402 1401 1497 2191 5742 6076 6077 11798 10771 11127 
10 594 1545 666 857 9856 11197 3941 4066 9857 4065 
10 730 186 1652 1653 11721 6667 12918 12712 6671 6672 
10 1720 613 1560 807 12953 9994 6871 12603 3913 12005 
10 1175 2022 1878 1877 11860 7788 9845 11864 7789 7346 
10 603 389 1552 233 13200 6367 11404 3304 9001 13201 
10 1737 1016 1893 1015 12776 11560 7388 12974 4547 13202 
10 1738 1017 1016 829 12163 4550 12777 9830 4548 4546 
10 1202 2039 1201 1348 11182 11183 5112 5575 10126 5574 
10 1347 2038 1348 1201 10090 13111 5576 5573 12933 5574 
10 1598 291 436 437 11999 8964 6506 6505 8965 2757 
10 1522 1433 2295 1531 6251 11214 12774 6264 6258 9908 
10 1313 2231 1433 1438 12887 11213 5851 5870 11215 5869 
10 851 1039 1756 1038 4614 12334 10332 4612 4616 13203 
10 1461 2243 2154 2246 12952 8503 12765 12826 8512 8509 
10 1556 1555 608 801 6380 12797 11331 13144 12546 3896 
10 2143 1151 1156 1316 10639 4972 13204 13205 5468 5469 
10 389 390 1552 233 2709 6366 6367 9001 9002 13201 
10 604 603 1552 233 3308 11404 13206 3306 3304 13201 
10 2170 1287 1370 1371 11876 6090 12536 12228 6153 5646 
10 2167 2055 2168 1367 8243 8247 8248 12590 10731 10706 
10 2171 1287 2121 2170 12534 11875 8608 8257 11876 8596 
10 1412 1503 1436 2152 6106 6103 5878 10144 10145 12493 
10 2143 1153 2118 1994 13207 11354 8176 8175 12386 8072 
10 2067 2066 1378 1476 7925 11689 11842 13126 11691 6017 
10 1430 1515 1475 2174 6163 6235 6281 13208 10783 10785 
10 889 1626 1625 1784 9992 6591 12226 11764 7064 7065 
10 1328 2026 2223 2217 10058 8421 12239 12238 8399 8423 
10 1169 2018 2020 1873 13209 7784 12316 10381 7778 7783 
10 2224 2020 2019 1326 8427 7785 8426 10959 10958 12468 
10 1479 2068 1478 2177 13210 13108 6027 12601 8272 12602 
10 2286 1449 2285 1448 10965 13182 8648 12951 5918 12196 
10 890 698 697 1626 4164 3591 4163 11786 13159 9991 
10 697 890 1626 889 4163 11786 9991 4161 4165 9992 
10 412 632 631 261 12472 3393 12663 8977 3391 3389 
10 2286 1326 2305 2224 12459 11992 8743 8647 10959 8741 
10 1249 2204 2108 2109 12640 8354 11984 9864 8355 8049 
10 2114 1347 2152 1436 10091 12491 8361 13158 5956 12493 
10 1461 2154 1460 2246 12765 13188 5962 12826 8509 11087 
10 2232 1412 2115 2152 11094 12806 8461 8460 10144 8362 
10 390 604 1552 233 10635 13206 6366 9002 3306 13201 
10 2238 1413 2232 2246 12862 11088 8723 8798 11089 8511 
10 1826 1113 1975 1976 12554 10135 7634 7636 11279 7638 
10 1115 1276 1114 2004 5328 5329 4845 11362 12843 9925 
10 2214 2298 1414 1409 8701 12570 11156 9848 12992 5786 
10 1276 1431 2256 2195 5843 13211 12830 12832 12851 8543 
10 2255 1388 2311 1508 13131 13212 8775 13181 6125 12199 
10 43 42 59 519 2327 9043 9044 2867 2868 9732 
10 975 949 1706 787 4424 13114 12892 4425 4337 13015 
10 2238 1413 1282 2116 12862 5778 12821 8486 12158 12159 
10 2154 1460 2246 2153 13188 11087 8509 8209 10194 8510 
10 2111 2016 1129 1130 8054 10809 13020 12855 12169 4887 
10 2238 2243 1409 2246 8733 9847 9846 8798 8512 12827 
10 813 812 1564 619 3933 13046 13047 3931 3929 11061 
10 671 1605 446 301 10889 6526 12247 3508 12323 8828 
10 2243 1461 1514 1409 12952 6199 12000 9847 6234 6160 
10 1522 1471 2241 1454 6271 11206 11738 6191 6128 11208 
10 1968 1142 1158 1301 10445 5396 10530 12406 5415 5611 
10 1875 989 1874 1718 13042 11075 7337 7336 10698 7332 
10 1011 824 823 1734 4531 3967 4530 11590 11749 11592 
10 976 977 1993 1157 4434 12192 12193 4974 4975 12839 
10 1285 2238 2214 1409 12820 8488 11154 5763 9846 9848 
10 1320 1319 2239 1162 5481 11441 11684 5479 5477 13048 
10 1471 1522 2241 2289 6271 11738 11206 11557 11556 8656 
10 1363 2050 2052 1218 10329 7878 13213 5621 10331 12432 
10 1538 2259 1481 2258 12873 10310 6283 10228 8555 12364 
10 2090 1402 1267 1403 13174 5741 13198 12446 5745 5743 
10 302 671 672 446 3509 3513 3511 8891 12247 12242 
10 1353 1463 2157 2156 5967 13095 10674 11837 11513 8218 
10 247 618 1563 617 3348 10036 12096 3346 3350 12097 
10 811 812 618 1724 3930 3928 3926 10033 10232 10034 
10 1384 2180 2179 1481 10216 8282 12144 6031 12540 10652 
10 845 1032 1751 844 4594 12183 10341 4030 4593 10339 
10 2177 2176 1536 2253 8273 10270 10075 8533 8534 10272 
10 1397 2188 2187 1493 12499 8305 13214 6064 9871 11464 
10 1902 2039 2038 1201 7840 7841 7836 11185 11183 12933 
10 869 868 1768 1609 4102 13004 10812 13215 13073 7017 
10 675 306 305 449 3521 2620 3520 10404 8837 8835 
10 2177 1478 1536 2176 12602 6266 10075 8273 12587 10270 
10 1396 2187 2186 1491 13216 8302 13197 6059 10564 10391 
10 1397 2187 1492 1493 13214 12730 6062 6064 11464 6066 
10 1529 1512 2257 1536 6217 11291 11299 6297 6316 10076 
10 247 401 1563 618 9020 6399 12096 3348 12248 10036 
10 2067 2068 2176 1379 7928 8268 8269 11840 12218 11843 
10 1539 2304 2274 1520 12610 8770 11116 6294 11376 13146 
10 2188 1397 2085 1398 12499 12938 8304 12500 5730 11938 
10 1264 1265 2087 1400 5298 10520 9796 5734 5735 10522 
10 1505 2266 2207 2274 10907 8704 10908 11118 8714 8605 
10 2265 2188 1494 1493 8571 13217 11335 9872 9871 6069 
10 2083 2084 1395 1260 7976 12796 11795 11256 13094 5720 
10 671 1606 672 446 10961 10963 3513 12247 6530 12242 
10 632 631 823 1574 3393 3962 3963 11055 13218 12016 
10 631 1573 823 1574 10245 10251 3962 13218 6435 12016 
10 824 823 1734 1574 3967 11592 11749 11056 12016 6912 
10 789 596 595 1546 3861 3284 3860 10205 13001 10206 
10 517 40 57 68 2863 9039 9679 9730 9729 2908 
10 224 594 382 223 3278 10198 8987 2536 3277 8986 
10 1153 1995 2118 1994 11353 8073 11354 12386 7694 8072 
10 1477 1515 2290 2175 6237 10871 13010 12276 10782 8662 
10 1484 1407 1406 2290 6040 5758 6039 11226 10869 10878 
10 2122 1136 1999 1135 13219 11522 8084 12733 4905 13220 
10 876 1615 683 875 12205 11006 4121 4123 12837 4119 
10 2156 1463 1532 1462 11513 6225 11838 10619 5968 6224 
10 2154 1350 1460 1349 12118 5959 13188 13189 5582 5958 
10 1504 2149 2151 2245 11625 8201 11627 12262 8507 8508 
10 1732 1573 1733 822 6905 6909 6910 10252 10247 11612 
10 1270 1182 1965 2049 5419 13000 12054 11494 12402 8154 
10 1474 2174 1475 1376 12929 10785 6015 6011 12922 6013 
10 824 632 823 1574 3965 3963 3967 11056 11055 12016 
10 1573 411 260 630 6431 8916 12822 10246 13221 3386 
10 1687 368 503 767 12803 9193 6769 13011 3793 12957 
10 1028 1748 1747 1900 10679 6955 10132 10681 7411 7412 
10 1407 1180 2201 1273 5756 11217 11219 5757 5322 10156 
10 2307 1516 1524 1513 11766 6328 12942 12593 6260 6330 
10 805 1559 612 1558 12138 12956 3908 12140 6389 12643 
10 2040 2154 2153 1349 8208 8209 8204 13185 13189 13186 
10 1175 993 1174 1877 5026 5024 5028 11864 13031 11865 
10 990 1719 805 804 10101 12139 4472 4471 11400 3909 
10 1720 613 807 806 12953 3913 12603 10026 3911 3915 
10 2288 2293 1443 2312 8677 12581 11071 8812 8787 13222 
10 1465 2248 2158 2157 12132 8517 10657 11833 8518 8221 
10 1559 396 612 1558 6388 12642 12956 6389 6384 12643 
10 2189 2266 2265 1495 8573 8574 8570 12560 11724 11723 
10 1456 2269 1537 2280 12556 10791 6275 13147 8731 12495 
10 1441 2249 2159 1466 11908 8520 13223 6194 13224 12450 
10 1456 1533 1537 2269 6229 6278 6275 12556 10790 10791 
10 2269 2304 1537 2280 8737 10924 10791 8731 8736 12495 
10 805 612 611 1558 3908 3332 3907 12140 12643 11774 
10 1209 2045 1208 1355 10399 13225 5133 5596 12528 5595 
10 944 1983 943 1834 12390 12784 4324 10768 7657 10769 
10 1549 229 387 600 9893 8996 6357 12236 3294 11729 
10 2094 2160 1317 2130 8228 11410 11667 8113 8393 11122 
10 2205 1440 1473 1310 12456 6008 13112 12861 5879 6007 
10 2150 2242 2218 1416 8500 8501 8401 13154 11888 12542 
10 789 1708 1707 1546 10203 6840 10195 10205 6837 6836 
10 2192 2193 1498 1403 8320 12440 10852 12842 12448 6080 
10 2090 2193 2192 1403 8319 8320 8315 12446 12448 12842 
10 604 797 1552 603 3884 11403 13206 3308 3883 11404 
10 2017 2050 1217 1920 7872 10330 12296 7776 7871 10007 
10 2292 1422 1492 1493 11725 6168 12729 9873 6307 6066 
10 2298 2296 2196 1414 8715 8690 8702 12570 13226 11157 
10 614 1560 398 243 12006 6390 13227 3336 9995 9016 
10 1886 816 1729 1728 10717 10718 7367 7366 11533 6898 
10 1727 817 1728 1569 13228 13229 6895 6892 13230 6893 
10 1506 2299 2252 2237 12627 8708 13007 12628 8705 8650 
10 1883 1003 1728 1005 12325 11535 7359 13039 4514 13231 
10 1506 2237 2252 2164 12628 8650 13007 12977 8485 8530 
10 816 625 1568 1728 3943 10354 12038 11533 13232 6894 
10 258 1571 410 409 10264 6424 8913 8912 6425 2730 
10 1875 990 989 1718 10100 4473 13042 7336 11401 10698 
10 1177 2024 1178 1880 11587 11341 5037 10666 7794 10655 
10 406 1567 624 1568 6413 11969 12935 6416 6417 13233 
10 1721 994 1878 993 10119 12783 7345 10120 4485 13032 
10 440 1545 1601 666 6815 6833 6514 11196 11197 12731 
10 624 625 254 1568 3372 3370 3368 13233 10354 11985 
10 625 817 1728 816 3944 13229 13232 3943 3946 11533 
10 2306 1446 2281 1447 10880 10362 8818 12661 5905 10985 
10 817 625 1728 1569 3944 13232 13229 13230 10355 6893 
10 1738 830 1739 1017 12317 11500 6928 12163 4549 12164 
10 418 269 1580 639 8928 13234 6452 10244 3413 12604 
10 418 269 419 1580 8928 8929 2739 6452 13234 6451 
10 640 269 1580 419 3415 13234 11607 11608 8929 6451 
10 421 1582 420 271 6457 6458 2741 8933 12709 8932 
10 2298 1516 2296 1414 12595 10425 8715 12570 6165 13226 
10 830 638 1579 639 3983 13235 11501 3984 3414 12605 
10 1152 1897 1025 1024 12330 10241 5401 5400 11894 4574 
10 747 350 1667 349 3735 13236 10766 3736 2665 13176 
10 830 1738 1579 829 12317 6923 11501 3985 9830 9831 
10 1734 1890 1011 1012 7379 12648 11590 11951 11781 4535 
10 2296 1418 2196 1414 10016 11653 8690 13226 5796 11157 
10 1578 638 417 1579 12257 11378 6445 6450 13235 6449 
10 1113 2101 1975 1976 11280 8025 10135 11279 8026 7638 
10 2187 2264 1491 1492 8568 10390 10564 12730 11488 6063 
10 1519 2267 2266 1505 13139 8577 11453 6190 11119 10907 
10 1762 1918 998 1045 7465 11593 11594 10032 10030 5041 
10 2292 2227 1422 2173 8672 13025 11725 8709 8435 11726 
10 1402 2090 2089 2192 13174 7994 9797 10851 8315 8316 
10 1881 1725 1762 998 7353 7466 7732 11595 11417 11594 
10 2149 2032 1343 2031 8193 12817 11624 8194 7820 11996 
10 1191 2032 2031 1343 12398 7820 13178 5558 12817 11996 
10 1404 1336 2229 1337 5839 12067 12565 5941 5541 12635 
10 862 1045 1762 861 4634 10032 11493 4081 4633 13237 
10 1762 860 861 999 11424 4078 13237 11425 4500 4630 
10 729 185 1651 1652 12114 6664 9807 12501 6668 6669 
10 1725 999 1762 998 10722 11425 7466 11417 4501 11594 
10 350 486 1667 485 5487 6712 13236 5501 2808 6711 
10 1336 1270 2049 1183 5538 11494 11496 5536 5532 12403 
10 1604 862 1762 861 9997 11493 6997 9999 4081 13237 
10 311 454 453 1613 8843 2775 8842 12588 6550 6551 
10 680 681 311 1613 3540 3538 3536 12656 10807 12588 
10 680 311 453 1613 3536 8842 13199 12656 12588 6551 
10 830 1580 1739 831 11499 6926 11500 3988 11697 10600 
10 844 1032 1750 1031 4593 13238 10978 4591 4595 11962 
10 1677 1676 1834 756 6742 7212 7213 10147 10148 10767 
10 1885 1917 1184 1007 7462 11638 11636 12802 11805 5053 
10 1032 844 1750 1751 4593 10978 13238 12183 10339 6964 
10 873 1771 1772 1613 10824 7030 12209 12272 7025 7029 
10 638 830 1579 829 3983 11501 13235 3981 3985 9831 
10 2109 1983 2108 1249 8047 8045 8049 9864 11563 11984 
10 1578 638 829 637 12257 3981 9829 11459 3411 3980 
10 630 1572 259 629 10266 12701 3385 3387 12702 3383 
10 1731 821 1008 820 10929 4522 10249 9987 3958 4521 
10 1616 1615 684 876 6561 12204 12275 12707 12205 4122 
10 1580 830 1579 639 11499 11501 6453 12604 3984 12605 
10 284 654 430 283 3458 11932 8952 2597 3457 8981 
10 1586 425 276 424 6469 8941 12984 6470 2745 8940 
10 1584 645 1585 1744 10068 12496 6468 6942 13239 6941 
10 1071 1070 1783 887 4712 10423 10428 4710 4708 10054 
10 278 648 426 277 3440 12004 8980 2591 3439 8943 
10 1237 1937 1072 1236 10043 11668 5214 5216 12224 5212 
10 1516 1418 2296 1414 6167 10016 10425 6165 5796 13226 
10 652 844 1591 1590 4025 10338 11307 11109 10979 6486 
10 2065 1236 1937 2066 12223 12224 7917 7922 12279 7921 
10 2134 2105 2213 1425 8138 8382 8383 11131 10892 11093 
10 651 1589 843 1590 11274 12305 4022 12609 6483 10981 
10 646 275 424 276 3433 8939 12002 3434 2589 8940 
10 2045 1208 1355 2044 13225 5595 12528 7859 12896 12529 
10 1602 860 814 667 12683 4428 12682 12995 4074 4409 
10 709 901 1794 1635 4197 10117 10094 12690 11334 7095 
10 1358 2160 2047 1357 12548 8225 11411 5607 10720 10721 
10 1870 2133 2144 1162 8130 8181 8178 13152 12882 11001 
10 912 911 1645 721 4231 9813 11972 4229 4227 12647 
10 1096 913 1805 914 4784 12291 11872 4785 4237 11873 
10 913 1647 1805 914 12289 7126 12291 4237 12920 11873 
10 275 646 424 1585 3433 12002 8939 11885 10816 6466 
10 1956 1957 1097 1806 7583 12719 12724 7578 7582 12093 
10 1603 1763 1602 860 7000 7001 6522 13240 9898 12683 
10 528 58 527 518 2911 2910 2913 9744 9742 9727 
10 1566 814 667 1602 10827 4409 12404 6996 12682 12995 
10 1749 843 1030 842 11961 4588 10833 10537 4024 4587 
10 926 1108 1003 1816 4821 4925 4823 10935 13241 12545 
10 219 736 191 1657 3703 10710 3264 13242 10936 6682 
10 191 219 1657 190 3264 13242 6682 2501 3263 6683 
10 814 1566 1763 1602 10827 7002 9896 12682 6996 7001 
10 659 434 435 289 12905 2755 12906 3473 8960 8961 
10 49 66 50 521 9059 9060 2335 2876 9691 2875 
10 1828 1124 1796 937 12232 12233 7196 12375 4868 10898 
10 523 67 56 71 9641 9734 2884 9723 2922 9069 
10 290 660 1597 435 3476 9835 12443 8962 13243 6503 
10 1358 1157 1212 2047 5606 5569 5605 11411 9916 9880 
10 1771 1056 1772 1925 10823 13244 7030 7486 10114 7485 
10 1289 2134 1420 1425 10944 10394 5801 5824 11131 5826 
10 2105 2134 1289 1425 8138 10944 13023 10892 11131 5824 
10 360 497 1679 496 9490 6747 12154 9489 2820 6746 
10 466 467 697 328 2788 12136 10037 8868 8869 3587 
10 759 758 1679 1836 3772 11199 9782 11777 10497 7219 
10 894 1077 1788 893 4729 12143 11266 4177 4728 12444 
10 660 1597 435 1596 9835 6503 13243 9836 6504 6499 
10 1259 2083 1956 1955 10734 7971 11255 10735 7972 7580 
10 55 71 70 533 9067 2360 9068 9675 2934 2939 
10 1801 1951 1800 1090 7563 7564 7116 10477 10475 11242 
10 1798 1639 903 1638 7103 10903 10901 7104 6630 10900 
10 679 872 1612 871 4109 12653 13132 4107 4111 13190 
10 769 505 370 1689 13105 9197 3799 11823 6775 11392 
10 249 1565 403 402 12617 6405 9024 9023 6406 2722 
10 1330 2209 2146 2283 11431 8371 13120 12085 8634 8635 
10 1130 1846 958 2014 12168 12170 4885 12173 7771 12482 
10 660 290 289 435 3476 2603 3475 13243 8962 8961 
10 748 351 487 486 3738 5929 11598 10789 5486 2809 
10 1058 874 1057 1772 4671 4669 4673 13245 12210 12211 
10 973 1819 1862 1702 10694 7304 12015 10138 7168 7301 
10 1819 973 784 1702 10694 4412 10696 7168 10138 10140 
10 1644 720 1645 1803 12911 9811 6648 7121 9810 7120 
10 207 180 723 1647 3245 10904 3665 10875 6653 10906 
10 725 1649 1648 1807 10089 6660 11484 10926 7132 7133 
10 797 604 1552 1553 3884 13206 11403 12946 10636 6371 
10 604 797 798 1553 3884 3888 3886 10636 12946 11947 
10 888 1625 1783 1784 10052 7061 10053 11187 7065 7066 
10 1623 324 464 694 9865 8863 6580 12786 3577 11148 
10 2065 1474 2174 2228 10787 12929 8264 8442 11454 8443 
10 1782 885 1781 1623 12849 11605 7060 7059 10976 7055 
10 220 737 1658 736 3706 10711 10708 3704 3708 10709 
10 2114 2115 1436 2152 8065 13116 13158 8361 8362 12493 
10 885 1622 1781 1623 10995 7056 11605 10976 6582 7055 
10 70 533 530 521 2939 2936 2925 12315 9676 9692 
10 898 1632 705 897 12494 11792 4187 4189 11195 4185 
10 720 203 719 1644 3655 3653 3657 12911 12913 13246 
10 476 339 1635 475 8887 13247 6616 2797 8886 6617 
10 1802 1092 1091 909 13129 4774 13079 11759 4772 4770 
10 339 708 1635 475 3620 13248 13247 8886 13056 6617 
10 339 709 476 1635 3622 12034 8887 13247 12690 6616 
10 1427 2183 1437 2245 10112 11426 5867 10113 8639 11428 
10 920 1652 1810 1811 12503 7141 12866 11229 7145 7146 
10 708 709 339 1635 3624 3622 3620 13248 12690 13247 
10 673 304 447 1607 3515 8832 12544 10324 10325 6533 
10 1707 596 1546 1547 10197 13001 6836 6835 12186 6353 
10 1584 835 1583 644 10712 12664 6465 10067 3999 12665 
10 1749 1030 1029 842 10833 4589 11309 10537 4587 4585 
10 900 708 707 1634 4194 3621 4193 13078 10835 10440 
10 603 389 232 602 13200 9033 3303 3305 12089 3301 
10 1198 1197 2126 1899 5100 13076 13075 12979 13064 8099 
10 2037 1200 1347 1410 11130 5572 10092 12487 5767 5853 
10 852 1039 1756 851 4615 12334 12723 4051 4614 10332 
10 304 448 447 1607 8833 2769 8832 10325 6532 6533 
10 2115 2114 1436 1283 8065 13158 13116 12715 13187 5861 
10 1762 860 1763 1603 11424 9898 7003 6998 13240 7000 
10 659 660 435 1596 3477 13243 12906 10883 9836 6499 
10 720 911 721 1645 4226 4227 3660 9811 9813 12647 
10 400 616 245 246 9832 3342 9018 9035 3343 2558 
10 850 1037 1755 849 4609 12417 10774 4045 4608 12123 
10 47 64 532 63 9055 2931 9668 9054 2352 2930 
10 258 257 628 409 2571 3379 3380 8912 8911 10160 
10 1572 1731 1571 629 6902 6903 6429 12702 12758 12669 
10 1803 1804 911 1645 7125 13249 9812 7120 7124 9813 
10 624 625 1568 816 3372 10354 13233 3942 3943 12038 
10 723 206 722 1646 3664 3662 3666 10905 12962 12711 
10 1922 1218 1921 1052 12029 13101 7478 12030 5160 13062 
10 417 637 416 267 11377 12651 2737 8925 3407 8924 
10 2017 1916 1920 1216 7777 7472 7776 12297 12310 12298 
10 180 206 723 1646 3244 3664 10904 6649 12962 10905 
10 675 867 1608 674 4095 12566 10405 3522 4094 12917 
10 1765 1606 1607 865 7008 6534 7007 12537 11343 12538 
10 880 1064 1777 1063 4689 11553 12941 4687 4691 10847 
10 1776 1930 1063 1777 7501 10846 13250 7045 7500 10847 
10 1779 1620 882 1778 7050 12671 13009 7051 7046 12017 
10 280 1589 428 427 11273 6478 8947 8946 6479 2748 
10 1198 1199 1900 2126 5103 10692 12980 13075 9764 8098 
10 649 648 840 1588 3444 4013 4014 10163 12007 12717 
10 1749 1589 843 842 6957 12305 11961 10537 10366 4024 
10 434 659 1596 658 12905 10883 6500 12474 3474 10884 
10 2281 2306 1447 2305 8818 12661 10985 8773 8806 10987 
10 752 354 1673 490 3749 12098 11635 13251 9477 6728 
10 660 659 435 289 3477 12906 13243 3475 3473 8961 
10 525 520 521 530 2895 2877 2894 9683 9682 9692 
10 703 895 1631 1630 4179 11789 13252 10874 10472 6606 
10 471 703 1631 1630 12914 13252 6605 6601 10874 6606 
10 218 734 1656 189 3698 10223 13253 3269 10705 6680 
10 1606 671 1605 446 10961 10889 6531 6530 12247 6526 
10 907 906 1800 1641 4216 12780 13080 13254 13255 7112 
10 1815 1814 1656 925 7158 7153 7157 10302 9801 9803 
10 190 218 1656 189 3270 13253 6679 2500 3269 6680 
10 922 1105 1813 1812 4811 12997 13256 10515 13257 7152 
10 1105 1963 1813 1812 11503 7599 12997 13257 7600 7152 
10 682 681 1614 312 3543 10808 12102 3541 3539 12349 
10 874 1058 1773 1772 4671 12483 12836 12210 13245 7033 
10 1105 1104 1812 922 4813 10616 13257 4811 4809 10515 
10 1105 1963 1812 1104 11503 7600 13257 4813 11504 10616 
10 692 323 322 463 3572 2637 3571 11416 8897 8861 
10 1672 752 1673 490 10375 11635 6730 6726 13251 6728 
10 1669 937 1668 1828 10572 12243 6719 7195 12375 7194 
10 1828 1668 1827 936 7194 7192 7197 11368 9690 9689 
10 1669 487 1668 749 6717 6715 6719 10571 10141 11597 
10 1972 1973 1823 932 7629 7627 7625 12295 12294 12921 
10 1973 1824 1823 932 7628 7184 7627 12294 12378 12921 
10 487 37 749 1669 2810 11457 10141 6717 6718 10571 
10 36 37 749 487 2859 11457 3741 5930 2810 10141 
10 757 944 1834 1835 4322 10768 13085 9752 9754 7217 
10 1286 1287 2171 1371 5363 12534 10435 6158 6153 12535 
10 1699 779 780 379 12812 3833 10482 10746 3828 3832 
10 1677 757 1834 1835 9951 13085 7213 7215 9752 7217 
10 2106 1311 2235 2107 10911 11922 8474 8043 13258 8475 
10 53 522 68 52 2880 13107 9066 2339 2879 9064 
10 53 69 68 531 9065 2358 9066 9714 2923 2924 
10 1686 367 503 502 12748 9192 6767 6766 9191 2827 
10 759 361 1679 360 3770 9781 9782 3771 2677 12154 
10 356 357 755 493 2673 3758 3759 9482 9483 12073 
10 1413 2238 2232 2116 12862 8723 11088 12158 8486 8462 
10 1852 1853 778 964 7269 12299 12757 9827 11329 4377 
10 781 1856 1700 1701 11705 7276 9702 9703 7277 6812 
10 360 359 496 1678 2676 9488 9489 12155 9861 6744 
10 1841 1988 952 1987 7670 9768 9766 7668 7672 12747 
10 360 758 359 1678 3767 3768 2676 12155 9860 9861 
10 1678 360 1679 496 12155 12154 6748 6744 9489 6746 
10 1852 1697 1696 777 7265 6800 7264 9826 12811 10800 
10 359 1677 495 1678 9950 6741 9487 9861 6745 6743 
10 505 1688 1689 769 6773 6777 6775 13105 13083 11823 
10 934 1825 745 746 10625 12070 4295 4294 13259 3734 
10 1995 1996 1134 2119 7697 9822 9824 8074 8075 11010 
10 674 867 1608 866 4094 12566 12917 4092 4096 12035 
10 741 1820 815 928 11616 12430 3939 4277 11614 4279 
10 1771 873 872 1613 10824 4114 10825 7025 12272 12654 
10 2057 2170 1370 1371 8253 12536 10411 12227 12228 5646 
10 902 968 1701 1847 4392 11703 12433 12658 10583 7251 
10 957 770 1846 1689 4358 12203 11980 11822 11447 7247 
10 1699 779 379 1698 12812 3828 10746 6806 10683 9918 
10 981 795 1711 1712 4444 11755 11756 13260 13261 6850 
10 1847 968 1701 1856 10583 11703 7251 7305 11704 7277 
10 770 769 370 1689 3804 3799 3803 11447 11823 11392 
10 782 783 39 38 3843 12524 12755 3837 3842 2860 
10 957 1846 1845 1689 11980 7250 11982 11822 7247 7245 
10 957 769 1689 1845 4359 11823 11822 11982 12412 7245 
10 1930 1230 1063 1931 11419 5195 10846 7505 10749 10848 
10 1743 1022 1861 1742 11576 9875 7401 6940 11577 7402 
10 616 615 399 245 3344 12805 9833 3342 3340 9017 
10 1703 902 783 782 10549 4201 10551 13262 4202 3843 
10 2111 2128 1130 1285 8107 12308 12855 13070 12763 5354 
10 808 615 1561 809 3917 11396 12568 3921 3919 11398 
10 2005 1818 1117 1867 7729 11370 11153 7730 7317 9941 
10 264 415 635 265 8921 13263 3400 2578 8922 3401 
10 1918 1881 1179 2025 7731 13102 11212 7800 7797 11565 
10 1214 1048 1047 1915 5148 4643 5147 11434 12457 12048 
10 1903 1203 1032 1904 12319 5113 12182 7425 12320 12184 
10 354 752 353 490 3749 3750 2670 9477 13251 9476 
10 1037 1754 849 1036 12416 12121 4608 4610 12361 4606 
10 1594 286 656 432 12734 3464 11544 6494 8956 10623 
10 616 1562 615 809 9834 11395 3344 3920 11397 3919 
10 1703 1659 39 783 6821 6688 6820 10551 12522 12524 
10 632 412 631 1574 12472 12663 3393 11055 6434 13218 
10 621 620 403 250 3359 13264 12543 3357 3355 9036 
10 824 1012 1734 1011 4533 11951 11749 4531 4535 11590 
10 967 780 1855 966 4387 10484 13090 4388 4383 13088 
10 1999 2122 1135 1998 8084 12733 13220 7706 8083 11678 
10 412 1573 631 1574 6430 10245 12663 6434 6435 13218 
10 1929 1373 1227 1228 11964 5650 12113 11730 5651 5191 
10 1078 1077 1788 894 4733 12143 11267 4731 4729 11266 
10 1617 878 877 685 10876 4129 10418 10419 4127 4125 
10 1026 1197 1898 1196 5095 13063 13065 5094 5097 10242 
10 696 466 326 1625 10050 8867 3583 10051 6586 13160 
10 698 890 1627 1626 4164 11785 10464 13159 11786 6594 
10 1746 1026 1899 1898 12124 13066 7409 7405 13065 7410 
10 1028 1027 1900 1747 4583 12981 10681 10132 10134 7412 
10 701 470 332 331 11953 8899 3599 3598 8875 2646 
10 1028 1198 1900 1027 5099 12980 10681 4583 5098 12981 
10 709 340 1636 710 3623 12024 10093 3627 3625 12705 
10 2126 1198 1899 1900 13075 12979 8099 8098 12980 7413 
10 711 170 171 194 12090 2481 12091 3629 3225 3226 
10 1197 2077 1898 1196 13156 7953 13063 5097 12975 10242 
10 1042 2007 1212 1157 12549 9917 5141 5403 9915 5569 
10 55 54 521 70 2341 2881 2882 9068 9071 12315 
10 489 352 488 1671 9474 9471 2812 6723 10667 6722 
10 1701 1703 39 782 6826 6820 6811 11657 13262 12755 
10 1358 1157 2047 1993 5606 9916 11411 11461 12839 8126 
10 2149 2032 2147 1344 8193 8190 8195 12668 11900 13183 
10 1789 894 1630 895 11265 10473 7080 9948 4180 10472 
10 757 1677 756 358 9951 10147 3766 3765 12053 3761 
10 1914 1870 1712 981 7453 7323 7452 12949 11802 13260 
10 1218 1052 1051 1921 5160 4655 5159 13101 13062 10008 
10 1693 373 509 508 10177 9496 6787 6786 9495 2834 
10 374 1693 1694 774 11845 6791 12269 3813 11032 13265 
10 504 368 768 369 9194 3797 12804 9195 2686 3796 
10 1221 1924 1923 2054 11080 7484 12678 11082 7882 7883 
10 1363 1364 2052 2166 5625 10797 13213 11849 10358 8240 
10 796 795 981 1712 3882 4444 4445 10670 13261 13260 
10 794 1550 1711 601 10994 6847 10634 3875 10678 13029 
10 1545 857 595 1708 9857 4393 9858 6838 12897 10204 
10 1043 1708 1707 789 10173 6840 10172 4894 10203 10195 
10 2062 1231 1933 1302 11852 13266 7910 10293 5531 10728 
10 1231 2062 1933 2012 11852 7910 13266 11599 8134 7908 
10 879 1776 1618 878 10843 7040 10844 4132 9757 12042 
10 1996 1137 1134 2119 12571 4965 9822 8075 11008 11010 
10 796 982 1712 981 4447 10943 10670 4445 4449 13260 
10 1528 1467 2270 1530 6212 12111 13267 6326 6339 11177 
10 1528 2309 2303 1527 13268 8763 12787 6261 12586 12789 
10 982 1914 1712 981 12624 7452 10943 4449 12949 13260 
10 2021 1173 1876 1877 10888 10064 7787 7786 11391 7343 
10 401 1564 248 402 6403 11062 9021 2721 6402 9022 
10 620 250 249 403 3355 2562 3354 13264 9036 9024 
10 1762 860 1603 861 11424 13240 6998 13237 4078 13269 
10 995 810 1723 996 4487 11861 11941 4491 4489 10239 
10 1330 2022 2146 2209 11073 8185 13120 11431 8370 8371 
10 1945 1081 1245 1944 12055 5239 13270 7547 12056 12051 
10 1944 1081 1245 1080 12056 5239 12051 10602 4742 5238 
10 1077 1078 1788 1942 4733 11267 12143 11651 10230 7537 
10 1242 2071 1942 2070 12460 7936 11652 11722 7937 7932 
10 1795 786 974 938 10407 4420 9886 9885 4307 4419 
10 1245 1081 1945 1246 5239 12055 13270 5243 5241 12743 
10 1259 2083 1395 1260 10734 11795 5719 5283 11256 5720 
10 1804 913 1805 1095 12988 12291 7128 12983 4782 12985 
10 1955 1259 1095 1096 10735 5278 11948 12972 5279 4786 
10 1748 1749 1901 1029 6958 7414 7415 10680 11309 10693 
10 1038 850 1755 1756 4611 10774 13271 13203 10333 6979 
10 894 701 1629 1630 4175 12142 12445 10473 11954 6603 
10 1094 1258 1095 1955 5275 5276 4783 12505 10211 11948 
10 653 654 283 430 3459 3457 3455 13272 11932 8981 
10 1902 1903 1031 1750 7422 11566 10830 7417 7421 11962 
10 701 894 1629 893 4175 12445 12142 4173 4177 12282 
10 2265 1422 1519 2173 11337 6180 11336 8750 11726 13273 
10 1545 594 666 441 9856 3941 11197 6813 10199 11198 
10 2134 2227 1420 2213 8434 10395 10394 8383 8436 11092 
10 2123 2134 1289 2008 8136 10944 11796 8087 8135 11613 
10 1289 2105 1299 2008 13023 12823 5410 11613 8037 11581 
10 1857 790 1707 1547 13274 10196 7281 7280 12267 6835 
10 1565 620 249 403 12480 3354 12617 6405 13264 9024 
10 1296 2231 2162 1433 13193 8458 13098 5850 11213 12775 
10 1155 1141 2102 1977 4968 12650 13196 11847 10256 8029 
10 401 618 1564 1563 12248 11060 6403 6399 10036 6404 
10 1625 888 887 695 10052 4159 10047 10046 4157 4155 
10 1940 1787 1076 1075 7530 12063 12350 12351 12066 4727 
10 2231 2236 2295 1438 8492 8592 8689 11215 12287 9910 
10 1793 901 900 1635 11333 4199 10780 7091 11334 13077 
10 1637 477 710 1636 6816 12704 10308 6817 6619 12705 
10 1215 2051 1216 1916 11433 12950 5155 11084 7873 12310 
10 174 198 1640 173 3232 13275 6631 2484 3231 6632 
10 1889 1011 1733 1734 11111 11589 7376 7375 11590 6913 
10 970 1840 1949 1839 12746 7558 12434 11192 7231 7557 
10 1791 1790 1080 1944 7087 9971 13276 7542 7543 10602 
10 1499 1404 2229 1337 6083 12565 12564 6084 5941 12635 
10 950 1919 1949 1146 10866 7559 12435 4938 12728 12436 
10 950 970 1949 1839 4400 12434 12435 11191 11192 7557 
10 715 198 1640 174 3640 13275 10479 10478 3232 6631 
10 198 714 1640 173 3638 11251 13275 3231 10409 6632 
10 2122 1286 1136 1135 10434 5359 13219 12733 5360 4905 
10 2258 1481 1480 2179 12364 6032 10229 8550 10652 10653 
10 1660 1820 741 928 7170 11616 11617 11615 11614 4277 
10 198 715 1640 714 3640 10479 13275 3638 3642 11251 
10 645 836 837 1744 4002 4006 4004 13239 11137 12221 
10 1511 2257 1512 1536 11288 11291 6148 6268 10076 6316 
10 967 2000 1855 1856 11519 7707 13090 12213 7708 7278 
10 1652 729 919 1651 12501 4251 12502 6669 9807 9809 
10 1980 1831 969 941 7648 12230 10255 12255 11372 4397 
10 760 33 361 32 10988 9472 3774 3773 2857 2678 
10 1774 1059 1927 1773 10062 9904 7491 7036 12484 7492 
10 1280 1982 1110 2108 13277 12875 5338 13278 8044 9868 
10 752 1672 353 490 10375 12613 3750 13251 6726 9476 
10 499 763 1683 364 10837 11498 6757 9185 3781 13014 
10 1584 423 1585 645 6463 6467 6468 10068 12084 12496 
10 1419 1428 1447 2306 5868 6120 6121 10881 12660 12661 
10 763 950 762 1839 4338 4339 3783 11190 11191 12878 
10 516 1701 39 782 6810 6811 2842 9704 11657 12755 
10 646 838 1745 837 4007 11135 10815 4005 4009 10817 
10 1742 1022 1861 1867 11577 9875 7402 7399 9942 7318 
10 2143 1153 1994 1151 13207 12386 8175 10639 5343 10640 
10 1117 1861 948 1022 9940 9996 4848 5367 9875 4964 
10 1584 836 645 1744 10066 4002 10068 6942 11137 13239 
10 374 1694 775 774 12269 11986 3817 3813 13265 3818 
10 2306 1446 1447 1419 10880 5905 12661 10881 6135 6121 
10 1038 1908 1755 1037 12672 7436 13271 4613 12673 12417 
10 940 929 1858 1145 4312 11655 10565 4935 4933 11642 
10 2013 1308 1124 1115 9952 5442 9965 11042 5440 4869 
10 532 520 529 64 11596 9680 2938 2931 9694 2917 
10 983 797 982 1713 4450 4448 4452 12625 12667 12626 
10 1562 810 617 1563 11673 3923 12027 6401 11862 12097 
10 796 603 602 1552 3881 3305 3880 10671 11404 11950 
10 1716 1873 987 1717 7331 11834 12346 6864 7330 12347 
10 1822 1662 743 1663 7176 13279 10421 7177 6701 9841 
10 1441 1466 2159 1502 6194 12450 13223 6100 6118 11649 
10 979 1160 1992 1868 4982 12377 12234 12235 10039 7684 
10 1528 2308 2252 2283 13110 8755 13280 12967 8783 8784 
10 396 242 612 241 9013 3331 12642 9034 2554 3330 
10 806 1720 1559 1719 10026 6872 12961 12600 6873 6868 
10 1330 1329 1450 2146 5517 5920 5922 13120 11620 13119 
10 1528 2277 2283 1450 13043 8636 12967 6279 13141 12968 
10 1449 2286 1327 1448 10965 10966 5916 5918 12951 5914 
10 2024 1177 1879 1880 11587 10218 7795 7794 10666 7352 
10 2011 1108 1816 1003 12847 13241 7751 12324 4925 12545 
10 1141 1155 2102 1306 4968 13196 12650 5432 5433 13149 
10 660 659 851 1596 3477 4046 4047 9836 10883 9838 
10 66 533 50 521 2935 9639 9060 9691 9676 2875 
10 1737 1892 1736 1015 7384 7385 6922 12974 11906 10070 
10 943 1983 1833 1834 12784 7656 11530 10769 7657 7214 
10 1423 1346 1345 2204 5816 5568 5819 11101 12575 10645 
10 2029 1342 1190 2031 11743 5555 13096 7817 11744 11995 
10 2032 1345 2147 1344 11899 10647 8190 11900 5565 13183 
10 1907 1908 1037 1755 7437 12673 11925 7432 7436 12417 
10 2249 1466 1465 2158 13224 5977 13281 8521 13282 10657 
10 841 649 1588 650 4016 10163 10456 4017 3447 13053 
10 1217 1218 1051 1921 5161 5159 5157 10006 13101 10008 
10 1906 2043 2042 1206 7852 7853 7848 11159 11161 12179 
10 1034 1753 1752 1905 10970 6970 10971 12258 7426 7427 
10 1207 1353 2043 1206 5590 10672 11160 5127 5589 11161 
10 1351 1352 1205 2042 5588 5586 5584 11163 12178 12180 
10 669 444 1604 300 10798 6524 9998 3503 8826 13283 
10 1454 1369 2168 2169 6000 10386 10707 12579 10412 8251 
10 1364 1363 2052 1218 5625 13213 10797 5623 5621 12432 
10 1457 2222 2282 1458 11903 8633 11904 5952 10662 13284 
10 2050 1218 1217 1921 10331 5161 10330 7870 13101 10006 
10 669 1604 1603 861 9998 6525 10799 4077 9999 13269 
10 102 553 101 85 3027 3028 2397 9104 13285 9103 
10 2255 2303 1508 2311 8758 12788 13181 8775 8776 12199 
10 2079 1374 2064 1439 12958 11449 8420 13016 5875 13121 
10 1374 2079 2064 2136 12958 8420 11449 12959 8150 8419 
10 1374 1375 2064 1439 5658 11462 11449 5875 5876 13121 
10 680 453 1612 1613 13199 6547 12655 12656 6551 6552 
10 1971 931 1821 815 9855 9851 7621 12871 4287 12418 
10 1220 2054 2053 1366 13286 7884 12909 5629 13287 11169 
10 1860 961 1865 1986 11181 12971 7314 7665 11079 7746 
10 880 1619 1777 1778 9805 7043 12941 10861 7047 7048 
10 1621 462 691 321 6574 12752 11029 11030 8859 3568 
10 787 34 1691 35 3854 12695 12696 13288 2858 6781 
10 2167 2165 1366 1471 8245 11168 13289 11205 13290 5995 
10 103 76 92 538 13291 9082 2997 13292 2960 13293 
10 462 1622 1621 691 6578 6579 6574 12752 10274 11029 
10 884 1067 1780 883 4699 10182 10260 4147 4698 11700 
10 1691 773 772 1860 11825 3812 10129 7288 13100 10131 
10 1149 1335 1986 1156 5534 12615 13294 4971 5533 10644 
10 1632 1791 897 898 7086 11194 11195 12494 9976 4189 
10 893 1628 1629 700 12281 6600 12282 4172 10663 12927 
10 1065 1231 1932 1301 5198 13295 13006 5413 5414 12396 
10 1396 1397 2085 2187 5727 12938 12939 13216 13214 8300 
10 2189 2188 1398 1494 8308 12500 13106 13296 13217 6067 
10 1265 2088 1961 1960 10519 7986 11276 12693 7987 7595 
10 1099 1100 1808 1959 4798 11268 11269 11262 10532 7588 
10 2088 1265 2087 1960 10519 10520 7988 7987 12693 7983 
10 1001 1973 1273 2098 12292 10839 5321 13297 8017 10157 
10 1263 1958 2086 1959 9789 7981 9790 9793 7589 7980 
10 918 1100 1809 917 4797 10527 10526 4249 4796 13082 
10 1973 1001 1972 2098 12292 12293 7629 8017 13297 8016 
10 879 1776 1063 1777 10843 13250 4686 10845 7045 10847 
10 1661 1820 1821 815 7171 7175 7173 11819 12430 12418 
10 2194 1307 2234 2096 10492 13184 8471 8322 10840 8468 
10 1457 2282 1521 1458 11904 11326 6187 5952 13284 6188 
10 1407 2200 2201 2290 10868 8345 11219 10869 8681 8697 
10 1180 2099 2202 2201 12585 8346 11216 11217 8344 8348 
10 939 940 1829 1967 4313 12867 10563 10561 11716 7611 
10 1829 1830 752 939 7202 10373 10374 10563 13137 4308 
10 1077 1787 1788 893 13017 7078 12143 4728 12064 12444 
10 538 546 92 103 13298 2999 13293 13292 3000 2997 
10 2233 1423 1453 2147 11747 5936 10726 8466 11102 10725 
10 1789 894 895 1078 11265 4180 9948 9947 4731 4732 
10 1941 1787 1788 1077 7534 7078 7533 11603 13017 12143 
10 1840 763 1839 970 12880 11190 7231 12746 4399 11192 
10 763 1683 1840 1839 11498 7229 12880 11190 7228 7231 
10 2077 1919 1146 2135 7955 12728 10554 8139 8140 10556 
10 1199 2126 2037 1900 9764 8101 9763 10692 8098 7835 
10 931 1971 1821 1822 9855 7621 9851 9850 7622 7178 
10 2282 1518 1521 1458 11895 6189 11326 13284 6178 6188 
10 796 1551 602 795 10669 11949 3880 3882 13157 3878 
10 1782 885 1069 1781 12849 4704 11066 7060 11605 11606 
10 1673 752 969 753 11635 4395 11633 11893 3754 4394 
10 752 1672 1673 1830 10375 6730 11635 10373 7200 7201 
10 1253 1089 1912 1090 5260 12009 13299 5261 4768 11241 
10 1091 1801 909 908 10476 10490 4770 4769 10489 4222 
10 545 96 541 552 3022 9614 9615 3020 3021 13300 
10 2063 1181 1314 2136 12520 5462 12506 8448 10518 10056 
10 972 1947 1139 1863 12301 12222 4913 11077 7550 11078 
10 1652 730 1811 920 12918 13081 7145 12503 4254 11229 
10 1165 1166 2028 1322 5001 11047 11048 5488 5489 12533 
10 1164 1165 2131 1321 4998 10546 10547 5483 5485 12996 
10 1653 730 1811 1652 12712 13081 7144 6672 12918 7145 
10 1442 2293 2239 2250 11645 8679 13035 11646 8740 8666 
10 983 1914 1164 1872 12623 11054 4994 12589 7454 10548 
10 1166 2092 1167 1871 13093 11352 5004 11659 8000 10327 
10 1561 1721 1560 614 6874 6875 6395 12569 11422 12006 
10 1166 1323 1167 2092 5491 5492 5004 13093 11586 11352 
10 994 1175 1878 993 5027 9845 12783 4485 5026 13032 
10 1831 1830 969 1673 7205 11634 12230 7203 7201 11633 
10 1165 983 1164 1872 4996 4994 4998 10322 12589 10548 
10 1727 818 1005 817 9938 4513 9939 13228 3949 4512 
10 2143 1313 1151 1316 12886 5456 10639 13205 5470 5468 
10 1473 2205 2142 2236 13112 8357 11019 12966 8478 8479 
10 1885 2138 2049 1183 8157 8158 7868 12410 12409 12403 
10 1917 2138 1184 1185 8156 11637 11638 11804 13050 5057 
10 2205 1473 2142 1335 13112 11019 8357 12856 6006 10078 
10 2143 2231 1316 2142 8459 13134 13205 8384 8493 10080 
10 1149 1335 2076 1986 5534 12854 11004 13294 12615 7952 
10 2029 1890 1190 1189 7811 9946 13096 13097 12657 5072 
10 2143 1313 1316 2231 12886 5470 13205 8459 12887 13134 
10 1587 839 1746 1586 10744 12189 6947 6474 10745 6948 
10 1027 1747 839 1746 10134 12332 4578 12188 6952 12189 
10 1588 840 1747 1587 12717 10133 6950 6477 12718 6951 
10 102 86 87 538 9106 2379 9105 13301 2962 2959 
10 659 434 288 658 12905 8982 3472 3474 12474 3470 
10 1906 1753 1035 1905 7430 12367 12987 7431 7426 13302 
10 932 1972 1822 1823 12295 7624 12754 12921 7625 7181 
10 1032 1033 1751 1904 4598 9978 12183 12184 12261 7424 
10 450 676 1610 1609 12419 12900 6542 6538 12420 6543 
10 1410 2114 2037 2113 12486 8424 12487 13303 8062 8584 
10 1347 1284 2114 1295 6092 10099 10091 6093 5386 10577 
10 1460 2153 1349 1503 10194 13186 5958 6181 10143 6105 
10 1061 1776 878 1775 9755 9757 4681 11176 7042 10877 
10 317 459 458 1618 8853 2780 8852 9966 6565 6566 
10 1362 1506 2163 2164 6117 12477 12478 12976 12977 8237 
10 1451 1330 1450 2283 5925 5922 5927 11320 12085 12968 
10 1617 1616 877 1775 6564 10416 10418 7037 7038 11172 
10 779 1853 965 778 13018 11328 4380 3830 12299 4381 
10 1379 2068 2176 1478 12218 8268 11843 6022 13108 12587 
10 753 1831 969 1673 11374 12230 4394 11893 7203 11633 
10 2136 1374 2063 2064 12959 11450 8448 8419 11449 7916 
10 1511 2257 1536 2253 11288 10076 6268 10858 8549 10272 
10 1936 1782 1783 1070 7519 7063 7518 11068 10422 10423 
10 890 1785 1073 1074 11787 11848 4717 4719 12790 4721 
10 1467 2270 2163 2252 12111 8586 12476 13008 8587 8529 
10 1451 1506 2252 1528 6182 13007 12479 6274 6211 13280 
10 1379 2067 1238 1378 11840 11466 5668 5670 11842 5666 
10 2270 1528 2308 2252 13267 13110 8754 8587 13280 8755 
10 1528 1467 2252 2270 6212 13008 13280 13267 12111 8587 
10 1798 904 1084 903 10896 4750 11385 10901 4207 4749 
10 1957 2084 1260 1261 7974 13094 12720 12721 12884 5286 
10 1094 1804 912 911 12982 11971 4779 4778 13249 4231 
10 1804 1094 1803 911 12982 12031 7125 13249 4778 9812 
10 1637 712 171 1638 12133 12082 6623 6627 10899 6626 
10 1430 1501 1307 2234 6097 6094 5841 11542 11715 13184 
10 500 1683 1684 764 6758 6762 6760 10552 12879 12277 
10 1962 1104 1103 1812 10523 4810 11506 7596 10616 10615 
10 922 1654 1812 1813 12687 7147 10515 13256 7151 7152 
10 1501 2194 1307 2234 10491 10492 6094 11715 8471 13184 
10 1103 1962 1812 1811 11506 7596 10615 11227 7597 7149 
10 1248 2123 1300 1140 10849 10946 5411 5249 12582 5412 
10 1972 1086 931 1971 12422 4754 9854 7626 12423 9855 
10 1115 1114 936 2004 4845 4840 4844 11362 9925 11369 
10 2066 1377 1475 1376 11690 6014 12923 12924 5664 6013 
10 1972 931 1001 932 9854 4505 12293 12295 4290 4504 
10 1503 2152 1348 1436 10145 12492 6104 6103 12493 5957 
10 1901 1199 2037 1900 10691 9763 7834 7416 10692 7835 
10 1991 2111 1282 2116 8053 12825 12863 8067 8068 12159 
10 1688 769 768 956 13083 3801 12318 11270 4355 4356 
10 1972 931 932 1822 9854 4290 12295 7624 9850 12754 
10 1149 961 1156 1986 4947 4970 4971 13294 11079 10644 
10 2287 1490 2185 2186 11384 11382 8652 8651 11294 8299 
10 1518 1504 1458 2245 6175 6124 6178 11641 12262 13304 
10 1715 800 986 985 10403 4459 12078 10312 4457 4461 
10 795 794 1711 601 3879 10634 11755 3877 3875 13029 
10 2112 1281 2141 1131 10382 13305 8172 10383 5342 12270 
10 1558 610 804 1557 11772 3904 12530 6386 10004 13306 
10 2018 1324 1167 1168 11349 5494 11351 12894 5495 5007 
10 1919 950 1148 1146 10866 4943 10865 12728 4938 4942 
10 1715 801 986 800 12086 4460 12078 10403 3897 4459 
10 1831 1981 1832 941 7650 7651 7208 11372 12253 13307 
10 1747 1027 1900 1899 10134 12981 7412 7408 12885 7413 
10 1323 2172 2197 2092 11248 8331 12573 11586 8259 8330 
10 2243 2155 1461 2154 8502 11812 12952 8503 8212 12765 
10 1159 1160 1868 2094 4983 10039 12829 11666 10038 8006 
10 1549 1710 793 600 6844 10299 13041 12236 10993 3872 
10 440 665 1601 439 12898 11511 6514 2760 12195 6515 
10 2137 1429 2230 1387 12510 12511 8453 11475 5873 11476 
10 1169 988 987 1873 5009 4467 5008 10381 10379 11834 
10 1253 1254 1951 2124 5265 10466 12475 12835 10468 8091 
10 1153 1313 1151 2143 5455 5456 5343 13207 12886 10639 
10 1386 1483 2230 2181 6037 12553 12632 12517 11146 8452 
10 1912 1253 2124 2137 13299 12835 8092 8146 12834 8149 
10 1939 1940 1239 1075 7532 12352 12354 13169 12351 5221 
10 1611 1770 1769 870 7023 7024 7019 10822 10820 10014 
10 1789 1790 1943 1079 7084 7539 7540 9949 11200 12454 
10 1781 885 1068 884 11605 4702 10259 10258 4150 4701 
10 1221 1055 1924 1222 5169 12401 11080 5173 5171 11302 
10 1190 1191 2031 1343 5075 13178 11995 5557 5558 11996 
10 1386 1429 2230 1483 5983 12511 12632 6037 6038 12553 
10 1192 1193 2033 1345 5081 12172 12043 5563 5564 10646 
10 1674 1675 754 1832 6736 13013 12739 7206 7207 13022 
10 1342 2031 2151 1343 11744 8199 11711 5559 11996 11626 
10 1738 1578 828 1737 6924 10737 12778 6925 6920 10739 
10 2282 1518 1458 2245 11895 6178 13284 8631 11641 13304 
10 1892 1737 1893 1015 7384 7388 7389 11906 12974 13202 
10 1311 1434 2235 2107 5856 13138 11922 13258 11240 8475 
10 1351 1204 1350 2041 5583 5581 5585 11162 11414 12120 
10 1116 1127 1988 1284 4878 9758 12489 5351 5352 10098 
10 2172 1445 2278 2219 11249 13127 8619 8405 11959 8620 
10 2073 1386 1246 1387 12527 5690 13123 12631 5695 5692 
10 955 1687 1844 1843 9777 7241 9778 13087 7239 7243 
10 1253 1429 1389 2124 5836 5837 5702 12835 12512 12357 
10 1179 1881 997 2025 13102 12041 5038 11565 7797 12338 
10 2017 1362 1361 1216 13117 5619 12201 12297 5617 5615 
10 1214 1969 1213 1334 11188 11189 5149 5608 12127 5529 
10 1429 1483 2212 2230 6038 12508 12509 12511 12553 8480 
10 1369 2056 1223 1368 10385 12578 5638 5640 10387 5636 
10 1483 1485 1389 2212 6137 6041 6089 12508 9914 12356 
10 1059 1774 1927 1928 10062 7491 9904 9903 7495 7496 
10 1056 1925 1222 1223 10114 11301 5172 5174 10115 5176 
10 1254 1253 1389 2124 5265 5702 5703 10468 12835 12357 
10 1296 2119 2162 2118 12735 8232 13098 13194 8076 8231 
10 1787 1941 1940 1076 7534 7535 7530 12063 11604 12350 
10 1790 1080 1943 1079 9971 10603 7539 11200 4739 12454 
10 1638 1639 903 713 6630 10903 10900 10751 10752 4204 
10 543 548 554 552 13308 3033 13309 13310 3025 3032 
10 553 551 101 85 3030 3014 3028 13285 13311 9103 
10 197 1639 713 714 12576 10752 3635 3637 11250 3639 
10 794 1550 601 600 10994 10678 3875 3874 10677 3299 
10 1531 2291 1470 1530 11670 11671 6220 6222 12094 6219 
10 1803 1094 1954 1093 12031 11487 7573 12032 4780 10179 
10 1280 1434 1311 2107 5855 5856 5450 11239 11240 13258 
10 2166 1363 1467 2163 11849 5985 11850 8242 12818 12476 
10 1540 1487 1486 2273 6299 6048 6298 12513 12106 10504 
10 1373 1929 1227 2059 11964 12113 5650 11965 7897 13069 
10 2017 1362 2163 2164 13117 12478 8234 8235 12976 8237 
10 923 924 1814 1106 4267 9800 12641 4814 4815 11440 
10 2138 1336 1184 1337 12850 5537 11637 13051 5541 5539 
10 1105 1963 1268 1269 11503 11505 5306 5308 12046 5310 
10 1363 2166 2050 2163 11849 8241 10329 12818 8242 8233 
10 2221 2193 1499 1455 8588 12441 12634 12611 12439 6110 
10 1962 1103 1267 1266 11506 5302 10525 11277 5300 5304 
10 1467 2166 2163 2270 11850 8242 12476 12111 8585 8586 
10 2119 1296 1134 2118 12735 5391 11010 8076 13194 11355 
10 1297 1292 1896 2036 5771 10284 12303 10438 10437 7830 
10 2029 1188 1889 1189 12515 11110 7812 13097 5069 11112 
10 1220 1221 1923 2054 5170 12678 12679 13286 11082 7883 
10 1771 1770 1612 872 7027 7022 7026 10825 12426 12653 
10 2076 1149 1986 1865 11004 13294 7952 7951 11003 7746 
10 781 1699 515 1700 10481 6805 9593 9702 6809 6807 
10 1619 1620 881 689 6573 13312 12925 11858 11856 4137 
10 949 1706 1865 2003 13114 7312 13162 11902 7717 7718 
10 1369 1435 1370 2169 6129 6091 5643 10412 11770 10413 
10 2167 1367 1454 1471 12590 5998 11207 11205 5996 6128 
10 1066 1231 1302 1933 5199 5531 5417 11224 13266 10728 
10 1558 805 804 611 12140 3909 12530 11774 3907 3905 
10 460 688 459 319 11193 10214 2781 8855 3560 8854 
10 1694 510 375 1695 6790 9499 11988 6794 6792 11989 
10 1446 1324 2281 1447 5901 11583 10362 5905 5903 10985 
10 1489 1394 1393 2185 6053 5718 6052 11752 11859 12636 
10 2117 1279 2076 1123 10610 10611 8168 12526 5336 11290 
10 782 516 781 381 9704 9594 3839 3838 9510 3834 
10 2076 2117 1123 2003 8168 12526 11290 8035 8071 11289 
10 1149 2003 949 1865 11002 11902 4945 11003 7718 13162 
10 1131 1147 2009 975 4956 11622 11313 4888 4941 11314 
10 1692 1848 773 1860 7253 11776 10176 7289 7290 13100 
10 1446 1324 1323 2197 5901 5496 5900 10363 11584 12573 
10 2277 1528 1508 1450 13043 6262 13044 13141 6279 6273 
10 773 1692 1860 1691 10176 7289 13100 11825 6785 7288 
10 1544 2310 2300 2302 10500 8808 10501 11753 8768 8772 
10 1540 1544 1541 2302 6342 6341 6303 12368 11753 12370 
10 1874 1169 2020 1873 10380 12316 7782 7334 10381 7783 
10 1726 1000 1866 1950 10539 10626 7316 7560 9784 7562 
10 2191 2268 2267 1497 8579 8580 8575 11127 12614 11128 
10 1132 1000 1866 1726 4893 10626 10609 10538 10539 7316 
10 2210 1522 2241 1417 11736 11738 8499 11816 6192 12572 
10 2282 2222 2151 1458 8633 8416 8632 13284 10662 10660 
10 1533 1539 2268 1497 6308 10805 10792 6309 6293 12614 
10 546 93 547 536 2998 3002 3003 13313 13314 9610 
10 1210 1209 1356 2045 5136 5598 5599 10397 10399 13315 
10 1356 2046 2159 1502 13179 8222 12451 6119 11647 11649 
10 2133 1320 1321 2225 12881 5484 13316 8429 11044 11045 
10 961 1149 1865 1986 4947 11003 12971 11079 13294 7746 
10 2045 1209 1356 1355 10399 5598 13315 12528 5596 5600 
10 1466 2249 2159 2158 13224 8520 12450 13282 8521 8224 
10 2089 1401 2191 2088 11253 10771 8312 7991 10770 8313 
10 1620 882 1778 881 12671 12017 7046 13312 4141 10862 
10 619 1565 402 1564 12481 6406 10109 11061 6407 6402 
10 1765 1048 1916 1915 11735 11085 7458 7455 12457 7459 
10 1474 2194 2174 2228 11714 8747 12929 11454 8663 8443 
10 1054 1769 1053 1923 10012 10013 4661 12680 7480 12619 
10 1917 2132 1185 1887 8123 11914 11804 7463 8122 11915 
10 1449 2286 2285 2223 10965 8648 13182 10967 8646 8644 
10 2137 1252 1387 1251 12930 5696 11475 13130 5259 5694 
10 1451 1528 2252 2283 6274 13280 12479 11320 12967 8784 
10 2073 1246 2074 1387 13123 13124 7946 12631 5692 11477 
10 1519 2267 1505 1496 13139 11119 6190 6288 11126 6287 
10 1533 2192 1497 2268 12750 10853 6309 10792 8578 12614 
10 618 811 1563 617 3926 10035 10036 3350 3925 12097 
10 2021 1328 2026 1173 13142 10058 7806 10888 5510 12288 
10 731 214 730 1653 3688 3686 3690 11296 12514 12712 
10 1187 1340 2030 1339 5548 11548 11571 5546 5550 9787 
10 2040 1903 1203 1202 7843 12319 12250 12563 11567 5115 
10 2249 1441 1526 1466 11908 6232 11815 13224 6194 6207 
10 1198 1027 1197 1899 5098 5096 5100 12979 12885 13064 
10 1990 1991 1844 1128 7681 7679 7677 12081 12185 12970 
10 85 100 84 551 9102 9100 2377 13311 3015 13317 
10 2243 2298 1514 2284 8797 12596 12000 8675 8816 11808 
10 2233 1280 1434 1423 11237 5855 11238 11747 5818 5857 
10 1984 1120 1118 1249 12691 4858 11564 9862 5250 5251 
10 1110 1983 1982 943 13012 7658 12875 4829 12784 11529 
10 1119 2106 2107 1311 13318 8043 13319 5451 10911 13258 
10 1472 1517 2148 1543 6173 12518 12815 6311 6312 12519 
10 1141 2095 1150 1304 12265 12708 5358 5423 12904 5422 
10 1457 2222 1458 1341 11903 10662 5952 5948 10661 5950 
10 1444 1443 1525 2312 5892 6344 6255 11308 13222 11911 
10 1525 2248 1464 1524 11909 10686 6203 6205 13320 6202 
10 1444 2288 1443 2312 9888 11071 5892 11308 8812 13222 
10 1313 1296 1433 2231 5457 5850 5851 12887 13193 11213 
10 2293 1526 1443 2312 12801 6334 12581 8787 11814 13222 
10 1501 2027 2228 1439 10493 8441 11418 6096 12023 12011 
10 395 394 239 1557 2714 9009 9010 6381 6382 10005 
10 614 1561 398 1560 12569 6394 13227 12006 6395 6390 
10 544 543 554 552 13321 13309 3031 3024 13310 3032 
10 214 187 731 215 3258 12688 3688 2526 3259 3689 
10 2220 1456 2280 2269 12555 13147 8627 8722 12556 8731 
10 731 1654 732 215 11295 12686 3693 3689 12689 3691 
10 1340 1456 2220 1339 5945 12555 11547 5550 5944 10508 
10 722 912 1646 721 4230 11973 12711 3663 4229 12677 
10 1746 1026 1898 1745 12124 13065 7405 6949 12125 7406 
10 1026 1025 1898 1745 4577 10243 13065 12125 11134 7406 
10 1908 1038 1756 1909 12672 13203 7435 7440 11661 7439 
10 2178 2258 1480 2179 8551 10229 13322 8279 8550 10653 
10 1910 1210 1909 1040 11956 10398 7443 11741 5135 11742 
10 2079 1439 2228 2027 13016 12011 8440 7961 12023 8441 
10 1380 2068 1379 1478 12963 12218 5673 6023 13108 6022 
10 2068 1380 1479 1478 12963 6025 13210 13108 6023 6027 
10 1287 1133 2121 1288 5362 12756 11875 5366 5364 12819 
10 1908 1209 1038 1909 13323 5131 12672 7440 10400 11661 
10 724 725 1648 915 3672 11484 12264 4238 4239 11485 
10 1542 2300 1523 2251 11799 11801 6336 12638 8711 11867 
10 1210 1039 1209 1909 5134 5132 5136 10398 11660 10400 
10 1908 1209 1909 2045 13323 10400 7440 7858 10399 7857 
10 1217 2050 1921 1920 10330 7870 10006 10007 7871 7475 
10 1946 2105 1299 2140 8036 12823 11579 8164 8165 11091 
10 1004 1248 1140 1966 5248 5249 4914 10124 10122 11712 
10 1921 1767 1051 1920 7474 10755 10008 7475 7470 10009 
10 816 1729 1568 859 10718 6896 12038 4073 11968 11991 
10 1567 624 1568 859 11969 13233 6417 11966 4072 11991 
10 2178 2258 2257 1509 8551 8552 8547 12580 13324 10074 
10 1066 1065 1932 1779 4697 13006 12753 11225 13122 7506 
10 467 698 697 328 10463 3591 12136 8869 3589 3587 
10 1366 2165 1365 1470 11168 11170 5631 5993 11970 5992 
10 2000 1154 2075 2125 10511 12216 7949 8094 12214 8097 
10 378 1698 779 778 9919 10683 3829 3825 11234 3830 
10 802 1556 608 801 11330 11331 3898 3900 13144 3896 
10 2221 2220 1455 1339 8411 12557 12611 10509 10508 5943 
10 819 1006 1007 1730 4516 4520 4518 10235 12020 9984 
10 1231 1066 1932 1933 5199 12753 13295 13266 11224 7511 
10 2138 1336 2049 1183 12850 11496 8158 12409 5536 12403 
10 1066 1231 1932 1065 5199 13295 12753 4697 5198 13006 
10 1308 2254 1500 1431 11881 10151 6087 5845 10280 6088 
10 1275 2101 2129 2215 11104 8109 9931 10085 8390 8391 
10 539 544 534 543 13325 13326 2980 2988 13321 2989 
10 2258 2178 1480 1509 8551 13322 10229 13324 12580 6139 
10 2259 1538 1481 1535 12873 6283 10310 10311 6284 6246 
10 830 1017 1018 1739 4549 4553 4551 11500 12164 10263 
10 830 1580 831 639 11499 11697 3988 3984 12604 3986 
10 1555 1554 606 800 6377 9892 12395 11230 9890 3892 
10 796 1551 795 1712 10669 13157 3882 10670 6849 13261 
10 1556 1555 393 608 6380 6375 6379 11331 12797 12710 
10 1383 1382 1480 2179 5682 6028 6029 10651 10765 10653 
10 2319 20 24 8 9700 9380 13327 9648 2846 9638 
10 1894 1017 1018 1195 12165 4553 12335 11923 5085 5086 
10 1581 1740 831 832 6929 10601 11696 9957 11828 3991 
10 638 417 1579 268 11378 6449 13235 3410 8926 13328 
10 2028 1166 1323 1322 11047 5491 11585 12533 5489 5493 
10 1382 2178 1480 2179 10764 13322 6028 10765 8279 10653 
10 813 814 1763 999 3936 9896 10579 4498 4499 9897 
10 1604 861 1762 1603 9999 13237 6997 6525 13269 6998 
10 1292 1122 2005 2036 5378 12156 11152 10437 10282 7833 
10 652 429 281 1590 11305 8949 3451 11109 6481 13329 
10 948 2005 947 1837 11526 12153 4423 11481 7728 11473 
10 1243 1078 1942 1079 5232 10230 11810 5233 4736 10231 
10 841 649 840 1588 4016 4014 4018 10456 10163 12717 
10 1509 2178 1480 1382 12580 13322 6139 6138 10764 6028 
10 1028 841 840 1747 4582 4018 4581 10132 12415 10133 
10 428 651 281 1590 11408 3449 8948 6482 12609 13329 
10 1588 279 427 650 10162 8945 6475 13053 3445 13330 
10 594 296 666 441 3857 3494 3941 10199 8973 11198 
10 1864 1705 1838 959 7308 7226 7310 10535 11292 11285 
10 2208 1390 2048 2080 10041 11491 8367 8366 10167 7964 
10 1025 1897 1898 1745 10241 7407 10243 11134 7403 7406 
10 2167 2165 1471 2289 8245 13290 11205 8657 8658 11557 
10 1257 1256 2081 1953 5274 13191 11059 10181 12766 7966 
10 868 676 675 1609 4098 3525 4097 13073 12420 10406 
10 449 305 1608 448 8835 12915 6535 2770 8834 6536 
10 1932 1064 1301 1931 12049 5416 12396 7508 11554 10750 
10 1256 2081 1953 2080 13191 7966 12766 11478 7967 7962 
10 1182 1108 1107 1965 5046 4822 5314 13000 12848 11919 
10 1182 2011 1108 1965 12931 12847 5046 13000 7753 12848 
10 2161 2208 1486 2273 8368 10042 13331 8597 8598 10504 
10 896 703 895 1631 4181 4179 4183 11452 13252 11789 
10 473 335 1632 472 8881 11791 6607 2794 8880 6608 
10 335 704 1632 472 3608 11286 11791 8880 11058 6608 
10 2100 1974 1112 1975 8022 9815 11364 8023 7635 10137 
10 2101 2100 1272 1975 8027 11365 11105 8025 8023 11718 
10 203 1644 178 177 12913 6643 3240 3239 6644 2488 
10 1913 1247 2074 1945 10567 13171 7944 7743 12742 7945 
10 863 1047 1761 1046 4638 9930 10449 4637 4640 10690 
10 1951 1253 1912 1090 12475 13299 7565 10475 5261 11241 
10 2215 1276 2256 2129 11892 12830 8545 8391 12831 8542 
10 863 1764 1761 1047 10950 7006 10449 4638 9928 9930 
10 1471 2167 2289 2241 11205 8657 11557 11206 8532 8656 
10 747 748 1667 350 3740 9719 10766 3735 3739 13236 
10 1654 923 1813 922 12685 13003 7151 12687 4264 13256 
10 923 1105 1813 922 4812 12997 13003 4264 4811 13256 
10 731 1654 1812 922 11295 7147 10516 4259 12687 10515 
10 1501 1474 1439 2228 6317 6012 6096 11418 11454 12011 
10 2077 1309 1146 1197 10553 5445 10554 13156 5802 5769 
10 1474 1501 2194 2228 6317 10491 11714 11454 11418 8663 
10 1410 2114 2113 1295 12486 8062 13303 5768 10577 10576 
10 1822 1823 743 932 7181 10420 10421 12754 12921 4289 
10 2268 1539 2267 1497 10805 11117 8580 12614 6293 11128 
10 1841 1842 1685 953 7237 7235 7233 9765 12877 12280 
10 2133 1320 2225 2239 12881 11044 8429 8489 11684 8491 
10 494 357 493 1676 9484 9483 2817 6738 12150 6737 
10 482 1664 347 744 6702 12816 5906 9849 10756 3726 
10 1126 1116 954 1989 4875 4846 4874 12697 12488 12699 
10 1842 1686 954 1843 7236 11921 12907 7240 7238 12700 
10 1433 2231 2162 2295 11213 8458 12775 11214 8689 8686 
10 2154 2040 1350 1349 8208 12119 12118 13189 13185 5582 
10 1433 1522 2162 1421 6251 11737 12775 5852 6198 13099 
10 2057 1225 1926 1927 11436 11437 7892 7891 11706 7493 
10 1313 1153 1296 2118 5455 5392 5457 12888 11354 13194 
10 376 511 512 1696 9501 2837 9502 9820 6795 6796 
10 1153 1313 2143 2118 5455 12886 13207 11354 12888 8176 
10 1160 2094 1317 2130 10038 11667 5472 10040 8113 11122 
10 2007 1043 1157 1042 13092 5357 9915 12549 4628 5403 
10 1309 1144 1295 2113 5444 5388 5446 12442 12437 10576 
10 1285 2196 1271 1414 11155 11654 5459 5785 11157 5784 
10 965 1853 1854 1998 11328 7272 12945 11676 7701 7702 
10 1449 2285 2217 2223 13182 8643 12240 10967 8644 8423 
10 993 1174 1877 992 5024 11865 13031 4482 5023 11390 
10 1853 1698 779 1854 7268 10683 13018 7272 7270 12813 
10 807 1721 992 993 11423 13038 4478 4480 10120 4482 
10 779 780 966 1854 3833 4383 4384 12813 13067 12944 
10 780 1699 1855 1854 10482 7273 10484 13067 7271 7275 
10 1411 2127 2102 2148 11746 8104 13150 13151 8191 8192 
10 1308 2254 1431 2195 11881 10280 5845 9954 8537 12851 
10 1057 1925 1926 1772 10116 7490 13332 12211 7485 7489 
10 1925 2056 1223 1926 7889 12578 10115 7490 7888 13333 
10 819 1727 1730 1570 12019 6901 10235 13334 6891 6900 
10 1223 1925 1926 1057 10115 7490 13333 5175 10116 13332 
10 1224 1223 1926 1057 5179 13333 11438 5177 5175 13332 
10 626 627 1570 818 3378 10189 13335 3947 3948 13135 
10 2114 1284 1436 1283 10099 5862 13158 13187 5353 5861 
10 96 95 79 541 2390 9091 9090 9614 13336 2975 
10 2035 2110 1250 1312 8388 11983 11203 9982 9981 5458 
10 1058 1224 1926 1057 5178 11438 11707 4673 5177 13332 
10 1742 1583 834 1582 6935 11930 11699 6936 6462 13052 
10 1235 1936 2065 1937 10432 7918 10433 12225 7523 7917 
10 1681 786 1795 761 11502 10407 7098 10591 3850 11361 
10 1908 1209 2045 1208 13323 10399 7858 12674 5133 13225 
10 1209 1908 1038 1208 13323 12672 5131 5133 12674 5129 
10 2144 2133 2239 1162 8181 8489 8490 11001 12882 13048 
10 1171 1327 2019 1326 5506 11222 12014 5504 5508 12468 
10 1170 1325 2020 1169 5500 12306 10941 5013 5498 12316 
10 2131 2028 2219 1322 8117 8403 8404 12583 12533 11960 
10 999 1045 861 1762 4635 4633 4630 11425 10032 13237 
10 1281 1419 1416 2262 5799 5847 5790 11165 12899 12541 
10 2279 1279 2226 1303 11523 10954 8623 12342 5420 10952 
10 1325 2018 2020 1169 12466 7784 12306 5498 13209 12316 
10 1764 1048 1047 864 13337 4643 9928 10951 4641 4639 
10 1050 1049 1916 1766 4649 11083 12309 13338 12313 7457 
10 2065 1236 2066 1376 12223 12279 7922 10788 5660 12924 
10 647 1587 277 425 10742 12162 3437 13155 6473 8942 
10 1071 1784 1783 1937 11186 7066 10428 10429 7521 7522 
10 686 1617 685 878 11527 10419 3555 4128 10876 4127 
10 1615 682 683 875 12103 3546 11006 12837 4118 4119 
10 2133 1320 2239 1162 12881 11684 8489 12882 5479 13048 
10 1071 1072 888 1784 4715 4713 4711 11186 11669 11187 
10 1071 1936 1235 1937 10427 10432 5209 10429 7523 12225 
10 887 1625 1624 1783 10047 6588 10049 10054 7061 7062 
10 698 467 697 1626 10463 12136 3591 13159 6589 9991 
10 1380 2068 1239 1379 12963 12353 5671 5673 12218 5669 
10 1891 1890 1190 2031 7383 9946 9944 7815 7816 11995 
10 1087 1088 1948 1251 4762 11693 11698 5255 5256 11469 
10 1255 1952 2080 1953 12769 7963 11479 12767 7571 7962 
10 2065 1236 1376 1235 12223 5660 10788 10433 5213 5659 
10 1642 907 1800 1641 13339 13080 7111 6639 13254 7112 
10 643 1583 644 422 11929 12665 3429 10454 6460 10455 
10 1639 197 173 714 12576 3230 6628 11250 3637 10409 
10 858 901 903 1794 4198 4429 4410 10096 10117 13055 
10 720 203 178 204 3655 3240 12912 3656 2515 3241 
10 181 208 1648 724 3247 12612 6656 11793 3668 12264 
10 2086 2188 2085 1398 8303 8304 7982 11937 12500 11938 
10 1204 1351 1205 2041 5583 5584 5121 11414 11162 11415 
10 1637 858 1794 1636 10306 10096 7106 6817 10095 7094 
10 1034 1905 1205 1035 12258 11413 5119 4604 13302 5120 
10 2001 929 1819 1004 11174 10695 7710 10128 4510 10925 
10 1638 858 1794 1637 11366 10096 7107 6627 10306 7106 
10 1828 1124 937 1115 12232 4868 12375 11367 4869 4843 
10 847 846 1593 655 4036 9748 9746 4034 4032 12382 
10 752 1672 1829 751 10375 7199 10374 3751 13340 12868 
10 1298 2001 1004 1145 12870 10128 5404 5406 11175 4934 
10 1298 2001 1145 2127 12870 11175 5406 11745 8102 11717 
10 858 1638 1794 903 11366 7107 10096 4410 10900 13055 
10 1638 1798 1794 903 7104 7298 7107 10900 10901 13055 
10 2199 1364 2052 2053 10357 10797 8338 8337 12393 7881 
10 1804 913 1646 1805 12988 12290 7123 7128 12291 7127 
10 1549 229 386 387 9893 8995 6358 6357 8996 2706 
10 846 1033 1751 845 4597 9978 9980 4033 4596 10341 
10 599 229 228 386 3292 2541 3291 9895 8995 9032 
10 1583 1584 644 422 6465 10067 12665 6460 6464 10455 
10 1431 2254 2256 2195 10280 8544 13211 12851 8537 8543 
10 1851 1696 1695 776 7262 6797 7261 12577 9821 9819 
10 1232 1934 2063 1233 10292 7912 12507 5204 13074 10594 
10 1374 1314 2063 1233 5864 12506 11450 5654 5815 10594 
10 2121 1133 1998 1997 12756 13068 8081 8080 11281 7703 
10 2254 1500 2240 2140 10151 10152 8539 8538 11090 8497 
10 39 783 782 1703 12524 3843 12755 6820 10551 13262 
10 736 1658 1657 1816 10709 6687 10936 10937 7159 7160 
10 1935 1934 1233 2063 7517 13074 10593 7911 7912 10594 
10 1767 1050 1920 1766 11339 11340 7470 7015 13338 7471 
10 1528 1506 2252 1467 6211 13007 13280 6212 6127 13008 
10 990 1875 1719 1718 10100 7335 10101 11401 7336 6870 
10 1716 802 987 801 12344 4463 12346 12088 3900 4462 
10 609 1556 1717 1557 11332 6863 13341 12809 6383 6862 
10 1718 1558 804 1557 6865 12530 11402 6866 6386 13306 
10 1815 1108 1965 1107 12846 12848 7605 11918 4822 11919 
10 994 808 1722 809 4483 12425 10021 4484 3921 11675 
10 1154 2000 2075 1136 10511 7949 12216 4961 11520 12455 
10 1622 692 322 463 10996 3571 12360 6577 11416 8861 
10 2221 1337 1338 1499 12633 5544 12407 12634 6084 6109 
10 2221 2132 2030 1338 8410 8121 8409 12407 12452 9788 
10 643 273 272 421 3425 2586 3424 12965 8934 8979 
10 2000 1136 1999 2075 11520 11522 7774 7949 12455 7948 
10 1136 2122 1999 2075 13219 8084 11522 12455 8085 7948 
10 1021 1742 1741 1867 10287 6937 10289 10401 7399 7400 
10 2242 2296 2307 1513 8692 8752 8753 11889 10426 12593 
10 642 643 272 421 3426 3424 3422 10598 12965 8979 
10 2060 1315 2059 1373 12934 12916 7902 11797 6130 11965 
10 833 1741 832 1020 10290 11827 3994 4558 12328 4557 
10 1960 1809 1101 1959 7591 10528 9773 7592 7587 13172 
10 935 1114 1976 1827 4841 9926 11278 12130 12129 7637 
10 2004 1114 936 1827 9925 4840 11369 7724 12129 9689 
10 383 225 1546 595 8989 13033 6349 12860 3280 10206 
10 1907 1208 2044 1207 11924 12896 7855 11926 5130 12893 
10 1114 2004 1976 1827 9925 7723 9926 12129 7724 7637 
10 1798 1793 1794 901 7719 7096 7298 13054 11333 10117 
10 2296 1516 2307 1513 10425 11766 8752 10426 6260 12593 
10 1001 1290 1086 2097 5370 5371 4756 12629 11538 12424 
10 1331 2023 1175 2022 9933 9844 5518 12772 7793 11860 
10 812 813 1564 1725 3933 13047 13046 11150 10578 6887 
10 1881 998 1179 997 11595 5039 13102 12041 4497 5038 
10 668 1603 1602 860 9922 6522 12994 4075 13240 12683 
10 445 670 1605 1604 12322 12200 6527 6523 12131 6528 
10 1109 2027 1970 2096 11916 7808 11546 10841 8012 8010 
10 1778 1064 1931 1777 10860 11554 7503 7048 11553 7504 
10 1566 621 1565 403 11830 13342 6410 6409 12543 6405 
10 1474 2234 1430 2174 11713 11542 6286 12929 8748 13208 
10 2117 1147 1123 2003 11621 4940 12526 8071 11623 11289 
10 1001 1273 2097 2098 5321 12429 12629 13297 10157 8018 
10 1692 373 1693 508 10175 10177 6788 6784 9495 6786 
10 103 76 538 87 13291 2960 13292 9098 2951 2959 
10 2067 1379 1238 1939 11840 5668 11466 7923 12219 11465 
10 1940 1786 1075 1939 7531 12069 12351 7532 7527 13169 
10 1938 1939 1238 1073 7529 11465 11467 11517 12621 5217 
10 891 1627 1785 1786 12022 7067 12355 12021 7071 7072 
10 889 1626 1784 1785 9992 7064 11764 12026 7068 7069 
10 1001 1290 2097 1273 5370 11538 12629 5321 5372 12429 
10 718 1801 909 1643 10488 10490 4220 12058 7114 12858 
10 2233 1280 1278 2108 11237 5340 12384 8464 13278 9869 
10 2090 1268 1404 1403 11514 5746 12447 12446 5744 5748 
10 921 1103 1812 1811 4806 10615 10517 11228 11227 7149 
10 213 185 212 729 3255 3254 2524 3683 12114 3682 
10 1692 373 508 372 10175 9495 6784 11826 2691 9494 
10 1962 1103 1961 1811 11506 11260 7598 7597 11227 7593 
10 1444 2242 1432 2276 13343 11317 6252 9887 8613 11318 
10 912 1804 1645 911 11971 7124 11972 4231 13249 9813 
10 934 1974 933 1825 11358 10614 4296 10625 7631 10613 
10 1665 483 1664 745 6705 6703 6707 12964 12726 10757 
10 1280 1982 2108 2107 13277 8044 13278 11239 8042 8046 
10 723 913 1646 722 4233 12290 10905 3666 4232 12711 
10 417 418 1579 268 2738 6448 6449 8926 8927 13328 
10 1280 1110 1278 2108 5338 5334 5340 13278 9868 9869 
10 1193 1892 1192 2033 13030 11394 5081 12172 7822 12043 
10 1738 1016 1894 1893 12777 13344 7391 7387 11560 7392 
10 2106 2095 1304 1150 8040 12904 10912 11912 12708 5422 
10 913 1804 1646 912 12988 7123 12290 4234 11971 11973 
10 2210 1522 1417 1421 11736 6192 11816 11836 6198 5808 
10 720 1644 1645 178 12911 6648 9811 12912 6643 6647 
10 1280 1982 2107 1119 13277 8042 11239 5339 12874 13319 
10 73 89 90 545 9077 2383 9078 13345 2993 2994 
10 1815 735 1656 1657 10301 10224 7157 7156 13346 6684 
10 1853 1698 778 779 7268 11234 12299 13018 10683 3830 
10 735 190 1656 1657 13347 6679 10224 13346 6683 6684 
10 838 1746 1586 1745 12126 6948 12333 11135 6949 6944 
10 836 837 1744 1024 4006 12221 11137 4569 4570 11887 
10 735 218 734 1656 3700 3698 3702 10224 13253 10223 
10 837 1897 1744 1024 12220 7404 12221 4570 11894 11887 
10 1923 1220 2054 2053 12679 13286 7883 7879 12909 7884 
10 1982 1119 1981 2107 12874 12902 7655 8042 13319 8041 
10 869 676 868 1609 4100 4098 4102 13215 12420 13073 
10 1454 2275 2169 2168 12137 8610 12579 10707 8611 8251 
10 1362 2017 1217 1216 13117 12296 5618 5617 12297 5158 
10 200 175 716 717 3272 11021 3644 3646 11263 3648 
10 1924 1221 1923 1054 11080 12678 7484 13348 5168 12680 
10 676 869 1610 1609 4100 10276 12900 12420 13215 6543 
10 91 75 90 540 9074 9079 2384 13349 2969 13350 
10 1444 2242 2276 2312 13343 8613 9887 11308 8792 8793 
10 1914 982 1712 1713 12624 10943 7452 7451 12626 7292 
10 1800 907 908 1090 13080 4219 11907 11242 4766 4767 
10 2248 2247 1464 1524 8519 10687 10686 13320 11763 6202 
10 2133 1163 2131 1321 11065 11064 8131 13316 5482 12996 
10 1642 1801 1800 908 7115 7116 7111 13351 10489 11907 
10 1102 1961 1810 1960 9769 7594 9770 9772 7595 7590 
10 1901 1902 2038 1201 7419 7836 7837 12438 11185 12933 
10 1028 1199 1900 1198 5101 10692 10681 5099 5103 12980 
10 1652 1651 919 1810 6669 9809 12502 7141 7142 12498 
10 305 674 1608 448 3518 12917 12915 8834 12532 6536 
10 103 76 87 12 13291 2951 9098 9097 2367 2380 
10 1609 867 1767 1608 12567 13027 7013 6540 12566 7014 
10 599 598 386 228 3293 10964 9895 3291 3289 9032 
10 1291 1137 2120 2119 5373 11573 11098 11009 11008 8079 
10 868 869 1768 1052 4102 10812 13004 4653 4654 10814 
10 1137 1996 2120 2119 12571 8077 11573 11008 8075 8079 
10 1930 1776 1063 1062 7501 13250 10846 11732 9756 4688 
10 1319 1442 2239 2250 5884 13035 11441 11442 11646 8666 
10 1650 184 1651 728 6661 6665 6666 11311 11034 9808 
10 2122 1286 2075 1136 10434 10436 8085 13219 5359 12455 
10 1065 1779 882 1778 13122 13009 4693 12018 7051 12017 
10 1291 2210 2120 1288 11097 8374 11098 5375 11817 11574 
10 1529 2258 1480 1509 10227 10229 6248 6247 13324 6139 
10 1125 1979 2104 2014 11231 8034 12800 11233 7763 8033 
10 334 472 471 1631 8879 2793 8878 13352 6604 6605 
10 896 704 703 1631 4182 3609 4181 11452 11287 13252 
10 704 703 1631 334 3609 13252 11287 3607 3605 13352 
10 1253 1252 2137 1912 5262 12930 12834 13299 12010 8146 
10 677 676 450 307 3528 12419 10025 3526 3524 8892 
10 980 979 1161 1992 4443 4984 4985 10631 12234 12358 
10 1264 2087 1960 1959 9796 7983 12692 9795 7984 7592 
10 1868 1160 1992 2130 10039 12377 7684 8112 10040 8114 
10 2048 1390 1255 2080 11491 5705 13128 7964 10167 11479 
10 774 960 1849 971 4366 11014 11033 4403 4404 11015 
10 221 222 193 738 2533 3224 3268 3709 3710 11406 
10 222 252 193 738 3364 12616 3224 3710 3840 11406 
10 1319 2144 2130 2250 10999 8180 11739 11442 8601 8526 
10 2045 2046 2159 1356 7862 8222 8223 13315 13179 12451 
10 2243 2155 1514 1461 8502 11811 12000 12952 11812 6199 
10 1418 2150 1416 2242 10015 13154 5797 10017 8500 11888 
10 774 1848 1849 960 11031 7257 11033 4366 11069 11014 
10 389 603 232 233 13200 3303 9033 9001 3304 2545 
10 1523 2213 2240 1425 12374 8496 10894 6196 11093 10893 
10 775 774 1849 971 3818 11033 11025 4402 4403 11015 
10 1289 2105 1425 1299 13023 10892 5824 5410 12823 5825 
10 1147 2117 2141 2009 11621 8171 13353 11622 8070 8170 
10 2117 2226 1147 2141 8431 10953 11621 8171 8433 13353 
10 1523 1534 1500 2240 6295 6242 6197 10894 10150 10152 
10 2213 1523 2240 2251 12374 10894 8496 8603 11867 8602 
10 1768 868 1052 1051 13004 4653 10814 10754 4651 4655 
10 1560 613 1559 397 9994 12954 6392 6391 9907 6387 
10 2111 2238 1285 1282 8487 12820 13070 12825 12821 5356 
10 2051 2017 1216 1916 7875 12297 12950 7873 7777 12310 
10 1710 978 1868 1709 11115 12828 7319 6845 11727 7320 
10 2226 1281 1147 2141 11166 5341 10953 8433 13305 13353 
10 1131 1147 2141 2009 4956 13353 12270 11313 11622 8170 
10 1830 939 1829 1977 13137 10563 7202 7640 10562 7639 
10 1298 1424 2182 1517 5820 11998 12060 6171 6172 11977 
10 1517 2127 2148 2182 13145 8191 12518 11977 8287 8288 
10 1424 1298 2182 2078 5820 12060 11998 11631 11630 8286 
10 396 242 397 1559 9013 9014 2716 6388 12955 6387 
10 626 625 1569 255 3375 10355 13354 3373 3371 12413 
10 1131 1281 2141 1147 5342 13305 12270 4956 5341 13353 
10 2039 2153 2152 1503 8205 8206 8202 10127 10143 10145 
10 626 1570 408 1569 13335 6422 13355 13354 6423 6418 
10 1268 2090 1404 2091 11514 12447 5746 13059 7997 13060 
10 818 1727 1569 817 9938 6892 13136 3949 13228 13230 
10 775 1694 1849 774 11986 7256 11025 3818 13265 11033 
10 974 2006 1023 1861 10873 12256 5090 9876 8090 9874 
10 938 951 1795 761 4342 10487 9885 4306 4341 11361 
10 773 961 772 1860 4368 4369 3812 13100 11181 10131 
10 1208 2044 1354 1355 12896 12864 5593 5595 12529 5597 
10 1848 961 1986 960 11180 11079 7666 11069 4371 10642 
10 680 872 1612 679 4110 12653 12655 3537 4109 13132 
10 1848 961 960 773 11180 4371 11069 11776 4368 4367 
10 97 535 549 96 13356 13357 3008 2391 9616 3007 
10 1230 2061 1426 1158 12047 10336 5982 5979 10529 5980 
10 967 781 1856 1855 4386 11705 12213 13090 10483 7278 
10 1166 2028 1871 1872 11047 7809 11659 10320 7810 7329 
10 646 647 1586 838 3438 10743 12001 4007 4008 12333 
10 967 968 1154 2000 4391 4962 4960 11519 10513 10511 
10 1026 838 1025 1745 4575 4573 4577 12125 11135 11134 
10 1897 1025 837 1745 10241 4572 12220 7403 11134 10817 
10 103 76 12 92 13291 2367 9097 2997 9082 9081 
10 1521 2304 1537 1520 11325 10924 6277 6335 11376 6331 
10 1980 1141 1150 969 10254 5358 12254 10255 4916 4950 
10 1280 2233 2107 2108 11237 8467 11239 13278 8464 8046 
10 1472 1517 1411 2148 6173 6170 6003 12815 12518 13151 
10 433 658 1595 657 12598 12737 6497 12990 3471 12989 
10 433 658 657 287 12598 3471 12990 8958 3469 3467 
10 1455 2221 1339 1338 12611 10509 5943 5942 12407 5547 
10 307 308 450 677 2622 8838 8892 3526 3527 10025 
10 1533 1456 1455 2269 6229 5946 6228 10790 12556 12558 
10 433 286 287 657 8957 2600 8958 12990 3466 3467 
10 1346 2034 2033 2204 11568 7826 13084 12575 8412 8413 
10 1193 2034 2033 1346 12171 7826 12172 5566 11568 13084 
10 1119 2106 1981 2107 13318 8039 12902 13319 8043 8041 
10 1280 1982 1119 1110 13277 12874 5339 5338 12875 4855 
10 1407 2200 1415 2201 10868 11846 5789 11219 8345 13358 
10 1474 1430 1475 2174 6286 6281 6015 12929 13208 10785 
10 2310 1529 1544 1510 11298 6325 10500 10502 6216 6324 
10 2178 1509 1381 1382 12580 6140 13168 10764 6138 5679 
10 1482 2259 2180 1481 10309 8553 10217 6035 10310 12540 
10 669 861 1603 668 4077 13269 10799 3504 4076 9922 
10 302 672 303 446 3511 3512 2617 8891 12242 8830 
10 1444 2242 2312 1513 13343 8792 11308 6253 11889 12594 
10 2247 1463 1464 1524 11839 5971 10687 11763 6201 6202 
10 2172 1446 2278 1445 11247 13034 8619 11249 5902 13127 
10 669 668 1603 299 3504 9922 10799 3502 3500 9923 
10 2054 2165 2053 1366 8238 8239 7884 13287 11168 11169 
10 444 669 1603 299 10798 10799 6520 8825 3502 9923 
10 1468 2166 1467 2270 10360 11850 5988 12108 8585 12111 
10 539 550 544 543 13359 3019 13325 2988 13360 13321 
10 1532 1463 2247 1524 6225 11839 11762 6322 6201 11763 
10 310 679 452 309 3533 12100 8893 2624 3532 8841 
10 2056 1224 1223 1926 10415 5179 12578 7888 11438 13333 
10 1443 1526 1525 2312 6334 6208 6344 13222 11814 11911 
10 1275 1276 2129 1114 5330 12831 9931 5325 5329 9927 
10 680 311 310 453 3536 2625 3535 13199 8842 8894 
10 2200 1515 2174 2175 10870 10783 8665 8664 10782 8267 
10 2200 1430 2174 1515 13173 13208 8665 10870 6163 10783 
10 2073 1386 2230 2181 12527 12632 8451 8283 12517 8452 
10 1540 2302 2263 2273 12368 8764 12369 12513 8724 8599 
10 2161 1488 2184 2263 11572 10305 8293 8566 10303 8565 
10 1395 2083 2185 2186 11795 8294 13361 11293 8298 8299 
10 1451 2299 2252 1506 11319 8708 12479 6182 12627 13007 
10 2083 1395 2185 1394 11795 13361 8294 11794 5721 11859 
10 1490 1395 2185 2186 6056 13361 11382 11294 11293 8299 
10 1395 1490 2185 1394 6056 11382 13361 5721 6055 11859 
10 1285 2128 2196 2214 12763 8326 11155 11154 8386 8387 
10 701 469 331 700 12141 8874 3598 3600 10885 3596 
10 1847 1044 1882 1968 12684 13177 7357 7612 10443 7726 
10 2103 1044 1882 1138 10533 13177 8031 11855 4910 10582 
10 2083 2082 1394 2185 7973 12470 11794 8294 8295 11859 
10 2128 1285 1271 1130 12763 5459 11927 12308 5354 5316 
10 741 344 479 343 3717 5923 10220 3718 2659 5924 
10 1397 1262 2085 1398 5726 11936 12938 5730 5728 11938 
10 2084 1396 2187 2186 13061 13216 8301 8297 13197 8302 
10 231 1551 389 388 12943 6363 9000 8999 6364 2708 
10 1300 1422 2173 1359 5810 11726 10947 5610 5809 10949 
10 1138 1044 1882 1847 4910 13177 10582 10581 12684 7357 
10 1662 344 345 480 12039 2660 12040 6696 5912 5911 
10 1449 2285 1448 1508 13182 12196 5918 6272 12197 6133 
10 1396 2084 1260 1395 13061 13094 5722 5724 12796 5720 
10 1396 2084 1395 2186 13061 12796 5724 13197 8297 11293 
10 1507 1490 2287 1491 6306 11384 10469 6280 6060 10389 
10 1179 997 1178 2025 5038 5036 5040 11565 12338 11342 
10 460 319 689 688 8855 3562 11857 11193 3560 3564 
10 756 943 1833 1834 4319 11530 12740 10767 10769 7214 
10 92 12 103 24 9081 9097 2997 2386 2850 2399 
10 2307 2248 1525 1524 8788 11909 11910 12942 13320 6205 
10 616 1562 809 810 9834 11397 3920 3922 11673 3924 
10 2247 2248 2307 1524 8519 8788 8789 11763 13320 12942 
10 2112 1281 2218 2141 10382 13195 8402 8172 13305 8473 
10 290 291 436 661 2604 8964 8963 3478 3479 12999 
10 1540 2259 2273 1535 12872 8720 12513 6300 10311 10505 
10 2248 2249 1526 1465 8522 11815 11813 12132 13281 6206 
10 1325 2018 1169 1168 12466 13209 5498 5497 12894 5010 
10 1905 1906 1205 1035 7431 12993 11413 13302 12987 5120 
10 1627 329 468 699 10465 8871 6592 12574 3592 12744 
10 1907 1908 2044 1208 7437 7854 7855 11924 12674 12896 
10 1595 434 1596 658 6496 6500 6501 12737 12474 10884 
10 846 845 1751 1592 4033 10341 9980 11790 11994 6962 
10 1595 850 1755 849 10773 10774 6975 12122 4045 12123 
10 1281 1274 2218 1416 5439 13362 13195 5790 5791 12542 
10 1686 1687 767 1843 6771 13011 11920 7238 7239 13086 
10 1281 2112 2218 1274 10382 8402 13195 5439 10384 13362 
10 1274 2150 2218 1416 13143 8401 13362 5791 13154 12542 
10 2112 2150 2218 1274 8197 8401 8402 10384 13143 13362 
10 1017 1738 1016 1894 12163 12777 4550 12165 7391 13344 
10 329 330 468 699 2644 8872 8871 3592 3593 12744 
10 1336 1270 1269 2091 5538 5313 5749 11497 11495 13002 
10 1864 1979 2009 1131 7646 7744 7745 10534 10452 11313 
10 1963 2090 1268 2091 7992 11514 11505 7996 7997 13059 
10 1666 484 349 485 6708 5890 12936 6709 2807 5502 
10 1721 993 1877 992 10120 13031 7341 13038 4482 11390 
10 2193 2090 2091 1404 8319 7997 8318 12449 12447 13060 
10 1404 1336 2091 2229 5839 11497 13060 12565 12067 8446 
10 2259 2260 2273 1535 8558 8637 8720 10311 10507 10505 
10 1276 1308 2195 1115 5441 9954 12832 5328 5440 11043 
10 99 539 83 84 13363 2963 9099 9101 2964 2376 
10 2040 1203 1349 1202 12250 5578 13185 12563 5115 5577 
10 1124 1308 2140 1299 5442 9953 9964 5409 5846 11091 
10 1490 1489 1542 2251 6057 6305 6333 11383 11489 12638 
10 599 1549 386 1548 9894 6358 9895 10200 6359 6354 
10 88 539 72 83 13364 2967 9075 9602 2963 2944 
10 2013 1308 2140 1124 9952 9953 8163 9965 5442 9964 
10 2205 2076 2206 1310 8356 8359 8360 12861 10760 10761 
10 1204 1203 2041 1904 5118 12231 11414 12260 12320 7846 
10 2263 1542 2300 1541 12637 11799 8712 12371 6315 12639 
10 1488 1489 2251 1542 6054 11489 10304 6304 6305 12638 
10 2271 2255 2303 1527 8591 8758 8759 11665 11663 12789 
10 2151 1341 1342 1458 10659 5556 11711 10660 5950 5951 
10 82 91 98 540 13365 2996 9084 2968 13349 13366 
10 1303 1428 2306 2279 5834 12660 13367 12342 12343 8746 
10 1220 1366 2053 1365 5629 11169 12909 5627 5631 11171 
10 626 627 256 408 3378 3376 3374 13355 12152 8976 
10 627 626 1570 408 3378 13335 10189 12152 13355 6422 
10 626 256 255 408 3374 2569 3373 13355 8976 8909 
10 1478 1379 1477 2176 6022 6020 6024 12587 11843 11844 
10 2262 1303 1419 2306 11164 5798 12899 8744 13367 10881 
10 1276 1114 2004 2129 5329 9925 12843 12831 9927 8111 
10 1303 1419 2306 1428 5798 10881 13367 5834 5868 12660 
10 1968 2061 1931 1158 8151 7903 7998 10530 10529 10748 
10 2263 1542 1541 1488 12637 6315 12371 10303 6304 6302 
10 1646 179 721 1645 6650 10685 12677 6651 6646 12647 
10 1718 803 1557 804 10700 13368 6866 11402 3906 13306 
10 1391 1390 1486 2208 5709 6043 6044 10165 10041 10042 
10 1487 2161 1486 2273 10317 13331 6048 12106 8597 10504 
10 543 548 552 541 13308 3025 13310 2987 13369 13300 
10 1329 1328 2021 1173 5514 13142 10887 5512 5510 10888 
10 2051 1214 1215 1360 11432 5152 11433 11656 5612 5613 
10 2051 1214 1360 2139 11432 5612 11656 8160 11429 11430 
10 1331 1176 2023 1332 5519 9842 9933 5523 5521 9934 
10 2145 2023 1332 2209 8184 9934 9960 8372 8369 9936 
10 2244 1446 2172 2197 10361 11247 8506 8505 10363 8331 
10 1462 2156 2284 1532 10619 8640 13370 6224 11838 11807 
10 1325 2216 1324 1447 12307 11582 5499 5904 10986 5903 
10 1444 2288 1321 1443 9888 11070 5893 5892 11071 5888 
10 653 429 1591 430 11304 6485 11306 13272 2750 6484 
10 654 653 1591 430 3459 11306 13049 11932 13272 6484 
10 2156 1462 2284 2155 10619 13370 8640 8215 10620 8641 
10 825 1576 634 1575 11877 11768 3969 11750 6441 12649 
10 443 668 1602 298 9921 12994 6518 8823 3499 13371 
10 668 667 1602 298 3501 12995 12994 3499 3497 13371 
10 636 416 266 265 12652 8978 3404 3403 8923 2579 
10 1576 264 415 635 12889 8921 6439 11386 3400 13263 
10 2005 1122 1117 947 12156 4936 11153 12153 4862 4849 
10 1010 1188 1889 1888 5064 11110 12321 11882 10542 7377 
10 1532 1462 1514 2284 6224 6200 6223 11807 13370 11808 
10 80 535 96 541 2957 9616 9095 2972 2973 9614 
10 1880 811 997 996 12399 4492 10654 10237 4490 4494 
10 1740 1019 1018 831 12176 4556 10261 10601 4554 4552 
10 1173 992 991 1876 5021 4479 5020 10064 9900 9902 
10 1580 640 831 639 11607 3987 11697 12604 3417 3986 
10 1462 2155 1514 2284 10620 11811 6200 13370 8641 11808 
10 2231 1296 2162 2118 13193 13098 8458 8457 13194 8231 
10 2051 1214 2139 1915 11432 11429 8160 7874 11434 8161 
10 225 596 1546 595 3282 13001 13033 3280 3284 10206 
10 1773 1058 1926 1772 12483 11707 7488 7033 13245 7489 
10 1048 1764 1047 1915 13337 9928 4643 12457 7456 12048 
10 1760 2007 1042 1043 7736 12549 10368 10348 13092 4628 
10 1908 2045 2044 1208 7858 7859 7854 12674 13225 12896 
10 462 1622 322 463 6578 12360 8860 2784 6577 8861 
10 2309 2271 1527 2272 8760 11665 12586 8761 8595 12274 
10 2291 1531 2272 1530 11670 9909 8756 12094 6222 12458 
10 901 708 900 1635 4196 4194 4199 11334 13248 13077 
10 475 708 1635 1634 13056 13248 6617 6613 10835 6618 
10 1760 856 1708 1043 10347 12597 6992 10348 4627 10173 
10 847 1753 656 1593 10969 11543 4035 9746 6969 10622 
10 1418 2150 1271 1274 10015 12770 5795 5794 13143 5407 
10 2244 1446 1432 2278 10361 6319 11323 8621 13034 13024 
10 901 709 708 1635 4197 3624 4196 11334 12690 13248 
10 937 1115 936 1828 4843 4844 4305 12375 11367 11368 
10 1058 1773 1926 1927 12483 7488 11707 11708 7492 7493 
10 686 1617 316 685 11527 12552 3553 3555 10419 3551 
10 686 687 317 1618 3558 3556 3554 11220 9968 9966 
10 1620 1619 881 1778 6573 12925 13312 7046 7047 10862 
10 803 610 1557 804 3902 10004 13368 3906 3904 13306 
10 350 748 1667 486 3739 9719 13236 5487 10789 6712 
10 542 537 536 547 2978 2956 2977 13372 9608 9610 
10 682 874 875 1614 4116 4120 4118 12102 12840 12841 
10 2226 1303 2306 2279 10952 13367 8745 8623 12342 8746 
10 759 1837 1836 1679 11471 7224 11777 9782 7221 7219 
10 2262 1303 2306 2226 11164 13367 8744 8564 10952 8745 
10 803 609 1717 1557 3901 13341 10699 13368 12809 6862 
10 178 720 204 1645 12912 3656 3241 6647 9811 12646 
10 1692 373 372 773 10175 2691 11826 10176 3810 3811 
10 923 1655 733 732 12157 10002 4263 4262 12722 3696 
10 1655 923 1654 732 12157 12685 6678 12722 4262 12686 
10 769 1688 1689 1845 13083 6777 11823 12412 7244 7245 
10 2259 1538 2302 2258 12873 11754 8725 8555 10228 8726 
10 95 548 78 79 3004 13373 9089 9091 13374 2370 
10 1544 1534 1541 2300 6327 6338 6341 10501 11800 12639 
10 803 610 609 1557 3902 3326 3901 13368 10004 12809 
10 1408 1511 2203 2301 6143 10795 10794 11141 11143 8717 
10 1545 1708 595 1546 6838 10204 9858 6350 6837 10206 
10 1534 2254 1431 1500 10149 10280 6240 6242 10151 6088 
10 625 407 254 1568 10353 8907 3370 10354 6415 11985 
10 1884 1857 976 1707 7689 12191 10496 7360 7281 10495 
10 553 542 536 547 13375 2977 13376 3029 13372 9610 
10 2313 1510 1431 1405 11890 6141 10281 11113 6142 5844 
10 1708 857 595 789 12897 4393 10204 10203 4414 3860 
10 1529 2310 1512 1510 11298 11297 6217 6216 10502 6174 
10 1971 1086 815 1970 12423 4755 12871 7623 11545 12869 
10 1112 2099 1974 2100 9814 8020 9815 11364 8024 8022 
10 346 481 1663 743 5908 6699 9840 3723 13377 9841 
10 346 345 481 743 2661 5909 5908 3723 3724 13377 
10 1716 1715 986 1978 6861 12078 12087 7642 7643 10369 
10 605 235 1554 606 3310 11628 11943 3314 3312 9892 
10 609 394 239 238 12865 9009 3322 3321 9008 2551 
10 236 607 392 606 3315 10023 9028 3313 3317 11629 
10 1912 1252 2137 1948 12010 12930 8146 7556 11692 8147 
10 1048 1215 1916 1915 5150 11084 11085 12457 11435 7459 
10 810 811 617 1563 3927 3925 3923 11862 10035 12097 
10 989 803 1718 804 4468 10700 10698 4469 3906 11402 
10 1715 1714 1554 799 6858 6853 6857 10319 10318 9891 
10 1562 616 400 617 9834 9832 6396 12027 3347 10011 
10 2309 2291 2272 1530 8762 8756 8761 11178 12094 12458 
10 806 613 612 1559 3911 3335 3910 12961 12954 12956 
10 1561 614 398 244 12569 13227 6394 9920 3337 9029 
10 664 1600 856 1601 11507 10457 4061 13378 6516 10458 
10 1043 1760 1884 1708 10348 7362 10174 10173 6992 7361 
10 1088 1252 1912 1948 5257 12010 12008 11693 11692 7556 
10 258 1571 629 410 10264 12669 3382 8913 6424 12703 
10 196 1638 713 172 12083 10751 3634 3228 6625 10753 
10 1089 1253 1912 1252 5260 13299 12009 5258 5262 12010 
10 715 1641 1640 1799 10480 6636 10479 12782 7108 7109 
10 175 1641 199 716 6634 13058 3234 11021 11210 3643 
10 714 1797 905 1640 13175 10352 4208 11251 7101 11685 
10 718 201 717 1642 3649 3647 3651 12059 12033 11264 
10 1089 1912 1800 1799 12009 7447 12781 12497 7448 7113 
10 184 211 728 727 3274 3679 11034 12791 3677 3681 
10 1571 1572 629 410 6429 12702 12669 6424 6428 12703 
10 743 1662 1822 742 13279 7176 10421 3725 10161 9852 
10 819 1571 628 1570 10234 10265 3951 13334 6426 10159 
10 627 819 628 1570 3950 3951 3381 10189 13334 10159 
10 1571 1570 409 628 6426 6421 6425 10265 10159 10160 
10 2303 2285 1508 2311 8729 12197 12788 8776 8804 12199 
10 1913 1797 1948 1087 7449 7554 7555 10568 10351 11698 
10 1639 1798 904 1797 7103 10896 10902 7102 7105 10897 
10 1428 2279 2311 2306 12343 8774 12978 12660 8746 8777 
10 1099 1958 1098 1262 10110 10931 4795 5288 9791 5287 
10 913 723 1647 914 4233 10906 12289 4237 4235 12920 
10 1641 906 1800 1799 13255 12780 7112 7108 12464 7113 
10 202 176 1643 177 3237 6641 12910 3238 2487 6640 
10 734 217 733 189 3697 3695 3699 10705 3262 10001 
10 736 735 926 1657 3705 4271 4272 10936 13346 10934 
10 1122 1292 2005 1117 5378 11152 12156 4936 5377 11153 
10 742 345 743 1662 3720 3724 3725 10161 12040 13279 
10 715 906 1641 1799 4211 13255 10480 12782 12464 7108 
10 746 1667 349 747 10974 13176 3732 3737 10766 3736 
10 99 539 88 83 13363 13364 2990 9099 2963 9602 
10 1589 280 650 427 11273 3446 11275 6479 8946 13330 
10 280 279 650 427 2593 3445 3446 8946 8945 13330 
10 1588 279 650 649 10162 3445 13053 10163 3443 3447 
10 1113 1272 1112 1975 5317 5318 4839 10135 11718 10137 
10 241 396 611 612 9034 11806 3328 3330 12642 3332 
10 715 1799 905 906 12782 12465 4209 4211 12464 4213 
10 652 653 1591 844 3456 11306 11307 4025 4026 10338 
10 1440 2205 2206 1310 12456 8360 10992 5879 12861 10761 
10 1589 651 842 650 11274 4020 10366 11275 3450 4019 
10 1600 663 855 854 11509 4058 13057 10344 4056 4060 
10 1598 852 853 1757 10775 4054 10107 6980 10776 10108 
10 548 541 95 552 13369 13336 3004 3025 13300 3023 
10 1960 1264 1959 1101 12692 9795 7592 9773 5294 13172 
10 416 637 266 267 12651 3406 8978 8924 3407 2580 
10 1572 411 630 259 6427 13221 10266 12701 8915 3385 
10 1210 1910 1211 1040 11956 11979 5139 5135 11741 5137 
10 1264 1100 1959 1101 5293 10532 9795 5294 4801 13172 
10 1741 1582 833 1581 6932 10296 10290 6933 6459 12584 
10 1049 1050 866 1766 4649 4647 4645 12313 13338 12037 
10 1049 1765 865 1048 11734 12537 4644 4646 11735 4642 
10 481 1663 743 1662 6699 9841 13377 6697 6701 13279 
10 1582 641 833 1581 10297 3992 10296 6459 9955 12584 
10 671 1606 1605 864 10961 6531 10889 4085 10962 10890 
10 345 481 743 1662 5909 13377 3724 12040 6697 13279 
10 856 857 1601 1708 4067 11512 10458 12597 12897 6839 
10 290 1597 661 436 12443 12947 3478 8963 6502 12999 
10 455 682 683 1615 12101 3546 11007 6557 12103 11006 
10 843 1749 1750 1590 11961 6961 10980 10981 6956 6960 
10 1820 1109 1950 1970 12431 9785 7561 7618 11546 7620 
10 1832 755 1833 1675 13021 12799 7211 7207 12074 7209 
10 1615 314 684 683 11005 3547 12204 11006 3545 3549 
10 439 664 293 294 11515 3487 8969 8970 3488 2607 
10 1137 1996 1134 963 12571 9822 4965 4907 9823 4898 
10 1616 456 684 1615 6560 12314 12275 6561 6556 12204 
10 440 665 294 295 12898 3490 8971 8983 3491 2608 
10 466 465 326 1625 2787 8866 8867 6586 6587 13160 
10 673 866 1607 865 4091 12036 10324 4089 4093 12538 
10 2017 2050 1362 1217 7872 13118 13117 12296 10330 5618 
10 307 676 450 306 3524 12419 8892 2621 3523 8836 
10 1119 942 1981 941 4853 12591 12902 4854 4318 12253 
10 1785 1939 1938 1073 7528 7529 7524 11848 12621 11517 
10 1318 2160 2250 2130 11409 8523 11740 11121 8393 8526 
10 1971 815 1821 1970 12871 12418 7621 7623 12869 7619 
10 88 539 544 72 13364 13325 2991 9075 2967 13379 
10 1441 2159 2250 1502 13223 8524 11775 6100 11649 11935 
10 1616 456 457 315 6560 2778 6559 13071 8848 8849 
10 1642 907 716 717 13339 4214 11209 11264 4215 3648 
10 34 1705 787 771 11050 11679 3854 3805 11051 3855 
10 696 466 327 326 10050 8898 3584 3583 8867 2641 
10 1621 883 1779 882 11701 11702 7049 12670 4144 13009 
10 366 365 501 765 2683 9188 9189 3787 3788 12148 
10 1981 942 1832 941 12591 12592 7651 12253 4318 13307 
10 1314 1374 2063 2136 5864 11450 12506 10056 12959 8448 
10 2143 2002 2142 1156 8177 8182 8384 13204 10643 10079 
10 726 183 727 210 12117 12785 3678 3674 3251 3676 
10 708 900 1635 1634 4194 13077 13248 10835 13078 6618 
10 184 211 727 210 3274 3677 12791 3252 2522 3676 
10 1831 1674 941 1832 7204 11371 11372 7208 7206 13307 
10 1660 1726 930 1659 6890 10540 12759 6692 6889 12760 
10 2057 1369 2169 2056 10410 10412 8249 7893 10385 8250 
10 1659 1703 1817 788 6821 7163 7164 12676 10648 10650 
10 1726 788 930 1659 12675 4418 10540 6889 12676 12760 
10 1659 739 783 788 12521 3841 12522 12676 3858 3859 
10 1703 1659 783 788 6821 12522 10551 10648 12676 3859 
10 929 940 1858 750 4312 10565 11655 4280 4311 10558 
10 33 362 1681 498 9179 10589 6752 2822 9182 6753 
10 2002 2143 1151 1156 8177 10639 10638 10643 13204 4972 
10 544 534 543 541 13326 2989 13321 13380 2974 2987 
10 1670 929 750 784 12798 4280 10559 10574 4281 3845 
10 546 77 93 536 13381 9085 2998 13313 2952 13314 
10 1149 961 1865 949 4947 12971 11003 4945 4370 13162 
10 1705 959 787 771 11292 4364 11679 11051 4365 3855 
10 1674 754 941 1832 12739 4314 11371 7206 13022 13307 
10 754 942 941 1832 4317 4318 4314 13022 12592 13307 
10 1870 981 1711 1712 11802 11756 7324 7323 13260 6850 
10 795 1551 1711 1712 13157 6846 11755 13261 6849 6850 
10 890 889 1073 1785 4165 4716 4717 11787 12026 11848 
10 365 1684 501 765 11123 6761 9188 3788 12278 12148 
10 1684 1685 501 765 6765 6763 6761 12278 12147 12148 
10 1691 372 34 772 11824 2690 12695 10129 3808 3809 
10 296 594 223 441 3857 3277 3276 8973 10199 12071 
10 2076 1335 2142 1986 12854 10078 8173 7952 12615 8174 
10 949 961 1865 772 4370 12971 13162 4336 4369 10130 
10 1685 1841 765 1684 7233 11315 12147 6765 7232 12278 
10 2271 1438 1473 1527 12286 6131 12467 11665 6230 6231 
10 1841 764 765 1684 11878 3789 11315 7232 12277 12278 
10 1850 1851 1695 776 7263 7261 7259 13382 12577 9819 
10 962 1851 1850 776 12397 7263 11036 4372 12577 13382 
10 972 1703 783 788 10550 10551 4408 4407 10648 3859 
10 406 253 623 405 8905 3366 10187 2726 8904 10188 
10 1995 1996 1851 963 7697 7695 7693 9825 9823 9878 
10 792 1709 793 1549 11550 11728 3873 10356 6841 13041 
10 599 792 793 1549 3869 3873 3871 9894 10356 13041 
10 599 1549 793 600 9894 13041 3871 3296 12236 3872 
10 1578 637 828 636 11459 3978 10737 10738 3408 3977 
10 1918 1213 1969 2025 12339 11189 7616 7800 13383 8115 
10 795 794 980 1711 3879 4441 4442 11755 10634 10632 
10 1551 795 601 602 13157 3877 12462 11949 3878 3302 
10 806 1559 612 805 12961 12956 3910 3912 12138 3908 
10 242 396 612 1559 9013 12642 3331 12955 6388 12956 
10 1718 1719 804 1558 6870 11400 11402 6865 6869 12530 
10 1213 1334 2025 1179 5529 10461 13383 5402 5528 11565 
10 1143 1023 2006 1024 5091 12256 10982 5092 4571 11886 
10 648 840 1588 1587 4013 12717 12007 12161 12718 6477 
10 1727 1005 1883 1728 9939 13039 7358 6895 13231 7359 
10 1918 1213 2025 1179 12339 13383 7800 11212 5402 11565 
10 1213 1969 2025 1334 11189 8115 13383 5529 12127 10461 
10 440 665 295 666 12898 3491 8983 11196 3495 3493 
10 2011 1815 1816 1108 7752 7161 7751 12847 12846 13241 
10 1297 2035 2036 1895 11990 7832 10438 11099 7827 7831 
10 672 447 303 446 12241 8831 3512 12242 2768 8830 
10 1005 1727 817 1728 9939 13228 4512 13231 6895 13229 
10 675 306 449 1609 3521 8837 10404 10406 12421 6539 
10 636 1577 635 827 9988 9990 3405 3975 12249 3974 
10 636 1577 827 828 9988 12249 3975 3977 10736 3979 
10 1577 1737 827 828 6921 12973 12249 10736 10739 3979 
10 1737 1577 827 1736 6921 12249 12973 6922 6917 10072 
10 2035 1297 2036 1312 11990 10438 7832 9982 5755 9983 
10 2282 2245 1458 2151 8631 13304 13284 8632 8508 10660 
10 1851 962 963 776 12397 4376 9878 12577 4372 4375 
10 542 548 554 543 13384 3033 13385 2985 13308 13309 
10 894 702 701 1630 4176 3603 4175 10473 10471 11954 
10 553 538 86 102 13386 2962 13387 3027 13301 9106 
10 1358 2160 1357 1317 12548 10720 5607 5854 11410 5978 
10 658 1595 657 849 12737 12989 3471 4041 12122 4040 
10 1595 658 850 849 12737 4043 10773 12122 4041 4045 
10 1908 1038 1755 1756 12672 13271 7436 7435 13203 6979 
10 1595 1594 657 849 6498 11957 12989 12122 12991 4040 
10 349 350 1667 485 2665 13236 13176 5502 5501 6711 
10 770 1846 1689 1690 12203 7247 11447 11448 7248 6780 
10 1595 1754 1594 849 6971 6972 6498 12122 12121 12991 
10 78 547 548 94 9609 3006 13373 9087 3001 3005 
10 1685 1842 766 953 7235 12411 11038 12280 12877 4346 
10 268 418 1579 639 8927 6448 13328 3412 10244 12605 
10 1358 2160 1317 2094 12548 11410 5854 11460 8228 11667 
10 1664 1823 744 1663 7180 11049 10756 6704 7179 9839 
10 493 1676 755 1675 6737 12151 12073 6735 6739 12074 
10 1984 944 1835 1834 12389 9754 7660 7659 10768 7217 
10 962 1995 1851 963 11035 7693 12397 4376 9825 9878 
10 1705 35 787 1706 6829 13288 11679 6832 6830 13015 
10 420 1581 419 270 6454 6455 2740 8931 9961 8930 
10 368 1687 503 504 12803 6769 9193 9194 6770 2828 
10 367 1686 503 767 12748 6767 9192 3794 11920 12957 
10 1581 640 419 270 9956 11608 6455 9961 3416 8930 
10 1895 1894 1018 1195 7395 12335 10262 11100 11923 5086 
10 781 515 380 381 9593 9508 3835 3834 9509 2699 
10 781 1699 780 380 10481 10482 3836 3835 10747 3831 
10 2319 24 20 103 13327 9380 9700 9735 2399 9459 
10 679 1611 678 871 12099 10029 3534 4107 10821 4106 
10 389 603 1552 602 13200 11404 6367 12089 3305 11950 
10 1050 1049 1216 1916 4649 5153 5154 12309 11083 12310 
10 638 268 1579 639 3410 13328 13235 3414 3412 12605 
10 451 1611 677 678 6545 10984 10024 10028 10029 3531 
10 1611 871 870 678 10821 4108 10822 10029 4106 4104 
10 883 1621 690 882 11701 11017 4142 4144 12670 4140 
10 244 614 398 243 3337 13227 9029 2556 3336 9016 
10 883 1066 1779 882 4696 11225 11702 4144 4695 13009 
10 1066 1065 1779 882 4697 13122 11225 4695 4693 13009 
10 927 1886 1816 1003 10715 7368 10956 4824 11534 12545 
10 637 1578 416 636 11459 6446 12651 3408 10738 12652 
10 1738 829 1016 828 9830 4546 12777 12778 3982 4545 
10 35 1705 787 34 6829 11679 13288 2858 11050 3854 
10 85 100 551 101 9102 3015 13311 9103 2396 3014 
10 1742 1022 1867 1021 11577 9942 7399 10287 4565 10401 
10 772 1691 1706 787 10129 6831 13113 3853 12696 13015 
10 1787 1628 893 892 7074 12281 12064 12065 10664 4174 
10 469 330 331 700 8873 2645 8874 10885 3595 3596 
10 648 840 1587 839 4013 12718 12161 4011 4015 10744 
10 841 1028 1748 1747 4582 10679 10365 12415 10132 6955 
10 1116 1989 1283 1284 12488 12714 5348 5351 10097 5353 
10 2171 2170 2058 1371 8257 8252 8256 12535 12228 12229 
10 1786 891 892 1075 12021 4171 12068 12069 4722 4723 
10 1372 2171 2058 1371 12937 8256 10190 5649 12535 12229 
10 714 1639 713 904 11250 10752 3639 4206 10902 4205 
10 1797 714 905 904 13175 4208 10352 10897 4206 4210 
10 1639 714 1797 904 11250 13175 7102 10902 4206 10897 
10 724 915 1806 914 4238 12092 13028 4236 4240 11871 
10 2171 1372 2058 2059 12937 10190 8256 8255 10191 7899 
10 873 680 872 1613 4112 4110 4114 12272 12656 12654 
10 1648 724 915 1806 12264 4238 11485 7129 13028 12092 
10 341 170 1 477 11258 2480 8820 8890 6622 2799 
10 691 1621 883 1780 11029 11701 4143 10275 7053 11700 
10 1996 1137 1997 964 12571 11974 7700 11338 4906 11283 
10 1648 1807 1806 915 7133 7134 7129 11485 11486 12092 
10 1956 1955 1805 1096 7580 7575 7579 12725 12972 11872 
10 913 723 1646 1647 4233 10905 12290 12289 10906 6654 
10 2178 2070 1382 2069 8274 10763 10764 8275 7934 13163 
10 2068 1380 2069 1479 12963 13164 7931 13210 6025 13167 
10 1786 891 1075 1074 12021 4722 12069 12960 4720 4724 
10 703 334 471 1631 3605 8878 12914 13252 13352 6605 
10 736 927 1816 926 4274 10956 10937 4272 4276 10935 
10 548 541 79 95 13369 2975 13374 3004 13336 9091 
10 2178 1479 2177 2069 13166 12601 8276 8275 13167 8271 
10 1479 2068 2177 2069 13210 8272 12601 13167 7931 8271 
10 927 736 1816 1658 4274 10937 10956 10955 10709 7159 
10 208 725 1648 724 3670 11484 12612 3668 3672 12264 
10 219 735 1657 190 3701 13346 13242 3263 13347 6683 
10 1957 1098 1261 1097 10932 5285 12721 12719 4792 5284 
10 1647 1806 1805 914 7130 7131 7126 12920 11871 11873 
10 725 726 1649 916 3675 10087 10089 4241 4242 10916 
10 1691 35 1706 787 6781 6830 6831 12696 13288 13015 
10 1649 726 917 916 10087 4244 10915 10916 4242 4246 
10 748 937 1668 749 4304 12243 9699 3743 4303 11597 
10 192 737 1567 1658 10702 12645 6822 6685 10711 6834 
10 1886 2011 1816 1003 7754 7751 7368 11534 12324 12545 
10 1380 1240 2069 1381 5672 10804 13164 5676 5674 12630 
10 217 216 733 188 2528 3694 3695 3261 3275 10000 
10 218 735 190 1656 3700 13347 3270 13253 10224 6679 
10 2323 746 935 747 10972 4298 10989 9740 3737 4297 
10 483 484 348 1665 2806 5891 5898 6705 6706 12381 
10 1825 1666 1665 746 7186 6710 7185 13259 12149 12380 
10 934 1826 1825 746 10624 7190 10625 4294 10975 13259 
10 1826 1666 1825 746 7188 7186 7190 10975 12149 13259 
10 944 757 1834 756 4322 13085 10768 4323 3766 10767 
10 1380 1479 1381 2069 6025 6026 5676 13164 13167 12630 
10 1946 1124 1299 1085 9963 5409 11579 11578 4870 5408 
10 535 534 545 541 2949 13388 9617 2973 2974 9615 
10 756 494 357 358 10146 9484 3762 3761 9485 2674 
10 760 33 32 786 10988 2857 3773 3852 12525 3851 
10 1685 366 765 766 12146 3787 12147 11038 3791 3792 
10 1686 367 766 767 12748 3790 11039 11920 3794 3795 
10 2111 1285 1129 1282 13070 5355 13020 12825 5356 5344 
10 1818 1704 1680 948 7167 6823 7166 11483 10153 11482 
10 1686 1687 503 767 6771 6769 6767 11920 13011 12957 
10 1092 1093 1953 1256 4777 10180 13389 5269 5270 12766 
10 1697 1852 778 777 7265 12757 11236 12811 9826 3827 
10 1743 1023 1861 1022 11658 9874 7401 11576 4568 9875 
10 1093 1803 1953 1954 12032 7569 10180 10179 7573 7574 
10 1737 1736 827 1015 6922 10072 12973 12974 10070 4542 
10 1662 344 480 1661 12039 5912 6696 6698 10221 6694 
10 371 1690 34 771 11446 11052 2689 3806 11053 3805 
10 957 770 958 1846 4358 4362 4363 11980 12203 12170 
10 97 82 98 540 9094 9084 2392 13390 2968 13366 
10 1952 1092 1953 1255 12768 13389 7571 12769 5267 12767 
10 95 96 552 541 2390 3021 3023 13336 9614 13300 
10 1284 2113 1127 1988 10560 9759 5352 10098 8059 9758 
10 1707 976 1043 790 10495 4909 10172 10196 4430 4895 
10 802 1556 1717 609 11330 6863 12345 3899 11332 13341 
10 2028 1166 2092 1323 11047 13093 8001 11585 5491 11586 
10 803 802 1717 609 3903 12345 10699 3901 3899 13341 
10 1257 1093 1256 1953 5272 5270 5274 10181 10180 12766 
10 618 1724 1564 1563 10034 6883 11060 10036 6884 6404 
10 1334 1333 2025 1178 5530 10462 10461 5527 5525 11342 
10 1725 812 1724 1564 11150 10232 6888 6887 13046 6883 
10 621 620 1565 403 3359 12480 13342 12543 13264 6405 
10 764 1841 765 952 11878 11315 3789 4345 9766 4344 
10 1270 1269 2091 1964 5313 13002 11495 10371 10370 7995 
10 1340 2222 2093 2220 12326 8418 11549 11547 8504 8407 
10 939 1830 969 1977 13137 11634 4396 10562 7640 10257 
10 1187 1186 1887 1009 5063 11682 12408 5061 5059 11681 
10 1341 2222 2093 1340 10661 8418 12516 5553 12326 11549 
10 1105 1269 1106 1964 5308 5309 4816 12045 10370 10372 
10 1963 1105 1813 1964 11503 12997 7599 7604 12045 7603 
10 269 640 270 419 3415 3416 2583 8929 11608 8930 
10 1319 1441 1442 2250 5883 5886 5884 11442 11775 11646 
10 2144 1870 1162 1992 8178 13152 11001 8179 7685 12948 
10 981 1870 980 1162 11802 11803 4446 4988 13152 4987 
10 1592 654 1591 430 11933 13049 6489 6488 11932 6484 
10 1441 2249 2250 2159 11908 8525 11775 13223 8520 8524 
10 1870 980 1992 1711 11803 10631 7685 7324 10632 7682 
10 1714 605 799 798 11942 3889 10318 11946 3887 3891 
10 1814 1813 1106 1964 7155 12998 11440 7602 7603 10372 
10 791 597 1547 1548 3865 12268 11780 10212 10213 6356 
10 1857 790 976 1707 13274 4430 12191 7281 10196 10495 
10 1720 806 991 1719 10026 4475 9901 6873 12600 10069 
10 1875 991 1876 1172 10102 9902 7340 12385 5018 10065 
10 990 1719 991 805 10101 10069 4476 4472 12139 4474 
10 1050 1217 1051 1920 5156 5157 4652 11340 10007 10009 
10 2198 2095 2102 1306 8334 8030 8333 13148 13153 13149 
10 668 443 1602 1603 9921 6518 12994 9922 6521 6522 
10 868 675 867 1609 4097 4095 4099 13073 10406 12567 
10 1606 673 1607 865 12833 10324 6534 11343 4089 12538 
10 1363 2166 2052 2050 11849 8240 13213 10329 8241 7878 
10 1968 1158 1931 1301 10530 10748 7998 12406 5611 10750 
10 316 685 457 315 3551 12551 8850 2630 3550 8849 
10 2245 1504 1458 2151 12262 6124 13304 8508 11627 10660 
10 1774 1615 875 1773 7035 12837 12838 7036 7031 12485 
10 2011 1182 1108 1003 12931 5046 12847 12324 5047 4925 
10 1727 1005 1885 1883 9939 10923 7364 7358 13039 7365 
10 663 1599 292 662 11252 12311 3484 3486 10740 3482 
10 696 1625 326 695 10051 13160 3583 3585 10046 3581 
10 2210 1291 2119 2162 11097 11009 8373 8375 13391 8232 
10 887 1624 694 886 10049 10762 4154 4156 12845 4152 
10 1639 197 713 172 12576 3635 10752 6629 3229 10753 
10 1072 889 888 1784 4714 4162 4713 11669 11764 11187 
10 900 707 899 1634 4193 4191 4195 13078 10440 10442 
10 438 1599 437 292 6508 6509 2758 8967 12311 8966 
10 1891 1736 1013 1735 7381 11945 9943 7382 6919 11381 
10 707 338 337 474 3617 2652 3616 12792 8884 8883 
10 1792 900 899 1634 10781 4195 11211 7088 13078 10442 
10 1580 1740 1739 831 6930 6931 6926 11697 10601 10600 
10 1797 905 1640 1799 10352 11685 7101 7110 12465 7109 
10 1803 1093 910 911 12032 4775 13104 9812 4776 4228 
10 1644 719 1802 1643 13246 11758 7117 6645 12857 7118 
10 1642 907 717 908 13339 4215 11264 13351 4219 4217 
10 719 1644 1802 910 13246 7117 11758 4223 13103 11760 
10 1103 1962 1961 1266 11506 7598 11260 5300 11277 11261 
10 214 187 1653 731 3258 6670 12514 3688 12688 11296 
10 214 186 730 1653 3257 11721 3686 12514 6671 12712 
10 1599 437 292 662 6509 8966 12311 10740 12461 3482 
10 1776 879 1063 1062 10843 4686 13250 9756 4684 4688 
10 1897 1143 2006 1024 12329 10982 8124 11894 5092 11886 
10 815 1820 1821 1970 12430 7175 12418 12869 7618 7619 
10 836 1023 1024 2006 4567 4571 4569 11136 12256 11886 
10 2255 1388 2206 2279 13131 11525 8540 8625 11524 8624 
10 546 102 103 538 3017 2398 3000 13298 13301 13292 
10 1675 356 492 754 12072 9481 6734 13013 3755 12738 
10 945 758 1835 757 4325 10933 9753 4326 3769 9752 
10 274 1584 644 645 11124 10067 3428 3430 10068 3432 
10 1037 1907 1036 1207 11925 12986 4610 5126 11926 5125 
10 1753 1034 1035 1905 10970 4604 12367 7426 12258 13302 
10 1906 1905 1205 2042 7431 11413 12993 7848 7849 12180 
10 1440 1279 2206 1388 5880 10612 10992 5881 5697 11525 
10 1990 1126 955 1843 12079 4873 12080 7676 12698 13087 
10 1688 956 768 1844 11270 4356 12318 7242 11271 9776 
10 1291 2210 1421 2162 11097 11836 5806 13391 8375 13099 
10 2060 1373 1426 1293 11797 5872 10335 10586 6132 5981 
10 966 1999 1854 1855 13091 7704 12944 13088 7705 7275 
10 2255 1440 2206 1388 11662 10992 8540 13131 5881 11525 
10 461 460 320 1620 2782 8856 8857 6571 6572 13392 
10 536 93 78 77 13314 9088 2953 2952 9085 2369 
10 867 1050 1766 866 4648 13338 13393 4096 4647 12037 
10 1765 1049 865 866 11734 4644 12537 12387 4645 4093 
10 791 977 1857 976 4432 12190 11779 4431 4434 12191 
10 673 1606 1607 447 12833 6534 10324 12544 6529 6533 
10 790 791 1857 976 3867 11779 13274 4430 4431 12191 
10 1978 1715 985 1871 7643 10312 10328 7644 7325 10314 
10 2077 1309 1197 2126 10553 5802 13156 8100 9762 13076 
10 797 1713 798 1553 12667 12773 3888 12946 6851 11947 
10 1368 2056 1223 2055 10387 12578 5636 10730 7890 13036 
10 861 668 860 1603 4076 4075 4078 13269 9922 13240 
10 1213 1969 1047 1046 11189 9929 5144 5143 12340 4640 
10 1309 2037 2126 2113 9761 8101 9762 12442 8584 8472 
10 1615 1616 1774 876 6561 7034 7035 12205 12707 10063 
10 1573 1572 411 630 6432 6427 6431 10246 10266 13221 
10 632 412 262 261 12472 8918 3392 3391 8977 2575 
10 631 1573 260 630 10245 12822 3388 3390 10246 3386 
10 1410 2114 1295 1347 12486 10577 5768 5853 10091 6093 
10 643 422 273 421 10454 8935 3425 12965 2742 8934 
10 1741 833 832 1581 10290 3994 11827 6933 12584 9957 
10 1309 1295 1410 2113 5446 5768 5765 12442 10576 13303 
10 641 420 271 270 9962 8932 3419 3418 8931 2584 
10 1588 1589 650 427 6480 11275 13053 6475 6479 13330 
10 690 1620 320 689 11018 13392 3565 3567 11856 3563 
10 461 1620 320 690 6571 13392 8857 11016 11018 3565 
10 1620 460 320 689 6572 8856 13392 11856 11857 3563 
10 1600 664 855 663 11507 4059 13057 11509 3489 4058 
10 1951 1253 2124 1912 12475 12835 8091 7565 13299 8092 
10 1936 1375 1234 1235 10430 5656 12928 10432 5657 5210 
10 1038 1039 1756 1909 4616 12334 13203 11661 11660 7439 
10 1600 1599 438 663 6513 6508 6512 11509 11252 12312 
10 1049 1215 1216 1916 5151 5155 5153 11083 11084 12310 
10 1924 1770 1054 1923 7483 11602 13348 7484 7479 12680 
10 1055 1770 1054 1924 12400 11602 4664 12401 7483 13348 
10 1221 1055 1054 1924 5169 4664 5168 11080 12401 13348 
10 1067 1066 1780 883 4700 11223 10182 4698 4696 11700 
10 1619 689 881 688 11858 4137 12925 9806 3564 4136 
10 1619 880 881 1778 9805 4138 12925 7047 10861 10862 
10 2073 1386 1385 1245 12527 5691 11694 13394 5689 5687 
10 884 691 883 1780 4145 4143 4147 10260 10275 11700 
10 1941 1787 1077 1076 7534 13017 11603 11604 12063 4730 
10 703 471 702 1630 12914 12490 3606 10874 6601 10471 
10 2260 1485 1483 2212 9912 6137 11144 8559 9914 12508 
10 1243 2071 1244 1943 10628 10630 5237 11809 7935 12736 
10 1077 1078 1942 1242 4733 10230 11651 5229 5230 11652 
10 472 704 1631 334 11058 11287 6604 8879 3607 13352 
10 1247 1945 1246 2074 12742 12743 5246 13171 7945 13124 
10 1913 1798 1797 1087 7450 7105 7449 10568 10895 10351 
10 901 1793 900 1084 11333 10780 4199 4922 11389 5146 
10 1390 1485 2208 2212 6042 9913 10041 12794 9914 8381 
10 2073 2072 1944 1245 7943 7938 7942 13394 12052 12051 
10 810 995 1722 809 4487 10019 11674 3924 4486 11675 
10 1400 1264 1399 2087 5734 5732 5736 10522 9796 12075 
10 913 1096 1805 1095 4784 11872 12291 4782 4786 12985 
10 345 481 1662 480 5909 6697 12040 5911 2803 6696 
10 2079 1439 1305 1294 13016 5877 10607 10605 5874 5426 
10 2071 2072 1244 1943 7940 10983 10630 7935 7939 12736 
10 1912 1089 1800 1090 12009 12781 7447 11241 4768 11242 
10 1089 907 1800 1090 4764 13080 12781 4768 4766 11242 
10 1984 945 944 1120 12810 4327 12389 12691 4856 4857 
10 1017 1016 1194 1894 4550 5082 5083 12165 13344 12110 
10 223 594 382 441 3277 10198 8986 12071 10199 6345 
10 1297 2035 1895 1195 11990 7827 11099 5428 11202 11100 
10 834 642 833 1582 3995 3993 3997 13052 10295 10296 
10 945 1985 1120 1984 11767 12852 4856 12810 7664 12691 
10 1985 945 1120 1121 11767 4856 12852 9972 4860 4861 
10 1864 1705 787 1706 7308 11679 11680 7309 6832 13015 
10 1952 1802 1091 1801 7566 13079 12061 7567 7119 10476 
10 949 975 1706 2003 4424 12892 13114 11902 11901 7717 
10 372 1691 34 507 11824 12695 2690 9492 6782 9491 
10 1802 1952 1091 1092 7566 12061 13079 13129 12768 4774 
10 1265 1961 1102 1960 11276 9769 5297 12693 7595 9772 
10 1979 1864 959 1131 7646 10535 11284 10452 10534 4889 
10 1721 994 1722 1878 10119 10021 6879 7345 12783 7344 
10 2103 1044 1138 1158 10533 4910 11855 10531 4976 4977 
10 1968 1044 1158 1142 10443 4976 10530 10445 4919 5396 
10 1146 1144 2135 1949 4939 12284 10556 12436 12283 8141 
10 1930 1229 1228 1062 10584 5194 10585 11732 5192 5190 
10 1226 1928 2059 1227 9905 7898 10193 5188 12706 13069 
10 1848 774 773 960 11031 3815 11776 11069 4366 4367 
10 1309 1144 2113 2135 5444 12437 12442 10555 12284 8169 
10 1690 1846 1838 958 7248 7249 7225 11139 12170 11140 
10 2002 960 1156 1151 10641 4969 10643 10638 4952 4972 
10 604 390 1552 1553 10635 6366 13206 10636 6370 6371 
10 1144 1309 1146 2135 5444 5445 4939 12284 10555 10556 
10 790 596 1707 1547 3862 10197 10196 12267 12186 6835 
10 1330 1329 2146 2022 5517 11620 13120 11073 11072 8185 
10 983 1914 982 1164 12623 12624 4452 4994 11054 4993 
10 2026 1328 2223 1327 10058 12239 8421 10059 5511 10968 
10 544 541 545 534 13380 9615 2995 13326 2974 13388 
10 1112 2099 2100 1180 9814 8024 11364 5042 12585 11363 
10 1170 1171 2019 1326 5016 12014 10940 5503 5504 12468 
10 607 236 392 237 3315 9028 10023 3316 2549 9005 
10 410 258 259 629 8913 2572 8914 12703 3382 3383 
10 2123 1289 1300 1140 11796 5467 10946 12582 5368 5412 
10 1731 1917 1007 1008 7460 11805 9986 10249 10248 4523 
10 411 1572 410 259 6427 6428 2731 8915 12701 8914 
10 1424 1505 1359 2207 6113 6114 5822 12373 10908 10910 
10 2123 2207 1359 2173 8363 10910 10948 8262 8365 10949 
10 2158 2044 1354 2157 8220 12864 10658 8221 8216 10675 
10 1523 1490 1542 2251 6314 6333 6336 11867 11383 12638 
10 1148 1869 2077 1196 10759 7954 12727 5699 11133 12975 
10 966 1999 1135 1998 13091 13220 4900 11677 7706 11678 
10 1196 1026 1025 1898 5094 4577 5093 10242 13065 10243 
10 1869 1148 1152 1196 10759 4955 10758 11133 5699 5700 
10 2046 1210 1356 2045 11955 5599 13179 7862 10397 13315 
10 2153 2039 1349 1503 8205 10125 13186 10143 10127 6105 
10 1133 965 1135 1998 4896 4901 4902 13068 11676 11678 
10 2248 2249 1465 2158 8522 13281 12132 8517 8521 10657 
10 966 965 1854 1998 4385 12945 12944 11677 11676 7702 
10 1768 1922 1921 1052 7477 7478 7473 10814 12030 13062 
10 1691 35 34 507 6781 2858 12695 6782 2832 9491 
10 1610 869 1768 1609 10276 10812 7016 6543 13215 7017 
10 1692 372 507 1691 11826 9492 6783 6785 11824 6782 
10 867 1050 1051 1767 4648 4652 4650 13027 11339 10755 
10 506 35 34 1690 2831 2858 9180 6778 6779 11052 
10 1197 1148 1146 2077 5701 4942 5769 13156 12727 10554 
10 1919 950 1949 1839 10866 12435 7559 7468 11191 7557 
10 1435 2170 1370 2169 11771 12536 6091 11770 8254 10413 
10 1243 1384 2071 1383 5683 10629 10628 5681 5685 12901 
10 1382 1241 1381 2069 5677 5675 5679 13163 11107 12630 
10 2178 1382 1381 2069 10764 5679 13168 8275 13163 12630 
10 546 77 536 538 13381 2952 13313 13298 2961 2983 
10 2077 1309 2126 2135 10553 9762 8100 8139 10555 8142 
10 371 506 34 1690 9181 9180 2689 11446 6778 11052 
10 1247 1913 1251 1087 10567 11468 5424 5399 10568 5255 
10 2044 2043 1354 2157 7856 10673 12864 8216 8217 10675 
10 1643 1802 1801 909 7118 7119 7114 12858 11759 10490 
10 1884 2007 1157 1993 7739 9915 11510 7721 8125 12839 
10 1429 1386 2230 1387 5983 12632 12511 5873 5695 11476 
10 2259 2260 1482 2180 8558 11145 10309 8553 8557 10217 
10 1399 2189 2086 1398 12749 8307 12940 5733 13106 11937 
10 2087 1263 1399 2086 9794 5731 12075 7985 9790 12940 
10 1963 1104 1962 1812 11504 10523 7601 7600 10616 7596 
10 1884 976 1993 1157 10496 12193 7721 11510 4974 12839 
10 2227 1422 2173 1420 13025 11726 8435 10395 5811 10396 
10 1873 1978 987 1168 7722 13045 11834 11835 12895 5006 
10 2225 2133 2131 1321 8429 8131 8428 11045 13316 12996 
10 2112 2150 1274 2104 8197 13143 10384 8057 8196 12779 
10 1274 1979 2104 1125 10453 8034 12779 5324 11231 12800 
10 2111 2128 1285 2214 8107 12763 13070 8385 8386 11154 
10 2150 1418 2196 2296 10015 11653 8328 8691 10016 8690 
10 2111 1991 1129 2016 8053 10810 13020 8054 7769 10809 
10 956 1991 1845 1129 12547 7680 11272 4883 10810 10811 
10 984 1166 1871 1872 4999 11659 10343 10321 10320 7329 
10 1978 987 1168 986 13045 5006 12895 10369 4464 5005 
10 1169 2018 1873 1168 13209 7778 10381 5010 12894 11835 
10 1219 1220 2053 1365 5167 12909 12392 5626 5627 11171 
10 2018 1978 1873 1168 7779 7722 7778 12894 12895 11835 
10 1291 1296 2119 2162 5390 12735 11009 13391 13098 8232 
10 1918 1213 1179 1046 12339 5402 11212 10689 5143 5389 
10 1153 1296 2118 1134 5392 13194 11354 4957 5391 11355 
10 1111 2099 1180 1273 9816 12585 5043 5320 10155 5322 
10 1374 2079 1294 1439 12958 10605 5863 5875 13016 5874 
10 1086 1109 815 1970 4828 4825 4755 11545 11546 12869 
10 1001 1111 1273 1973 4833 5320 5321 12292 10838 10839 
10 1881 812 998 997 11149 4495 11595 12041 4493 4497 
10 812 1881 1724 997 11149 7354 10232 4493 12041 10233 
10 808 1721 1722 1561 10118 6879 12425 12568 6874 6878 
10 385 597 1547 226 11201 12268 6351 8992 3285 12187 
10 2298 1514 1414 1409 12596 6159 12570 12992 6160 5786 
10 86 553 85 536 13387 13285 2378 2966 13376 2965 
10 2298 1516 1414 1514 12595 6165 12570 12596 6166 6159 
10 807 614 613 1560 3914 3338 3913 12005 12006 9994 
10 808 1721 807 993 10118 11423 3918 4481 10120 4480 
10 1330 1175 1174 2022 5516 5028 5515 11073 11860 11074 
10 202 719 177 1643 3652 12607 3238 12910 12857 6640 
10 1331 1330 2209 2022 5520 11431 9935 12772 11073 8370 
10 2220 2221 1455 2269 8411 12611 12557 8722 8649 12558 
10 1188 2029 1341 1189 12515 11632 5551 5069 13097 5552 
10 2132 1186 2030 1338 11913 9786 8121 12452 5543 9788 
10 1890 2029 1889 1189 7811 7812 7380 12657 13097 11112 
10 428 1589 651 1590 6478 11274 11408 6482 6483 12609 
10 1163 1870 981 1162 12237 11802 4990 4992 13152 4988 
10 1902 1901 1030 1201 7419 12331 10831 11185 12438 5107 
10 1354 1465 2157 1464 5972 11833 10675 5970 5974 10688 
10 651 652 281 1590 3453 3451 3449 12609 11109 13329 
10 2312 1444 1513 1525 11308 6253 12594 11911 6255 6256 
10 1361 2237 1506 2164 11346 12628 6116 11348 8485 12977 
10 1749 1031 1030 843 10832 4592 10833 11961 4590 4588 
10 719 1644 177 1643 13246 6644 12607 12857 6645 6640 
10 1296 1291 1421 2162 5390 5806 5807 13098 13391 13099 
10 676 869 677 1610 4100 4101 3528 12900 10276 10277 
10 1212 1911 1041 1211 9879 10105 5140 5142 9881 5138 
10 1136 966 1999 1135 4904 13091 11522 4905 4900 13220 
10 1210 1039 1909 1040 5134 11660 10398 5135 4619 11742 
10 1757 1039 1040 1909 11420 4619 11421 7438 11660 11742 
10 1056 873 1772 1057 4666 12209 13244 4670 4668 12211 
10 1258 1094 1257 1954 5275 5273 5277 10169 11487 10171 
10 1254 1389 2048 2124 5703 11492 10467 10468 12357 8093 
10 895 1631 1630 1789 11789 6606 10472 9948 7079 7080 
10 2073 1385 2072 1245 11694 10225 7943 13394 5687 12052 
10 429 428 281 1590 2749 8948 8949 6481 6482 13329 
10 2292 2265 1422 1493 8674 11337 11725 9873 9872 6307 
10 629 1571 628 820 12669 10265 3384 3954 10236 3953 
10 1654 731 732 922 11295 3693 12686 12687 4259 4260 
10 1925 1056 1772 1057 10114 13244 7485 10116 4670 12211 
10 1112 2099 1180 1111 9814 12585 5042 4836 9816 5043 
10 1826 934 1975 1113 10624 10136 7634 12554 4838 10135 
10 2100 1406 2202 2203 11474 10867 8347 8349 10796 8351 
10 2176 1477 2290 2175 11844 13010 8661 8270 12276 8662 
10 1731 1571 629 820 6903 12669 12758 9987 10236 3954 
10 1936 1070 1234 1069 11068 5206 12928 11067 4709 5205 
10 1070 1936 1234 1235 11068 12928 5206 5208 10432 5210 
10 2266 1519 1359 2173 11453 6179 10909 8703 13273 10949 
10 2121 1133 2120 1288 12756 12751 8082 12819 5364 11574 
10 1133 1137 2120 1288 4908 11573 12751 5364 5365 11574 
10 740 1659 930 739 11784 12760 4282 3716 12521 4283 
10 1383 2071 2070 2179 12901 7937 13192 10651 8277 8278 
10 1999 966 1854 1998 13091 12944 7704 7706 11677 7702 
10 1324 2216 2281 1447 11582 8630 11583 5903 10986 10985 
10 906 715 1641 716 4211 10480 13255 4212 3645 11210 
10 1386 2073 1246 1245 12527 13123 5690 5689 13394 5243 
10 89 73 72 534 9077 2363 9076 13395 2945 2946 
10 2073 1945 1245 1944 7941 13270 13394 7942 7547 12051 
10 1364 1219 2053 1365 5624 12392 12393 5628 5626 11171 
10 1879 995 1723 996 10018 11941 7347 10238 4491 10239 
10 1945 2073 1245 1246 7941 13394 13270 12743 13123 5243 
10 907 906 1641 716 4216 13255 13254 4214 4212 11210 
10 2023 1331 2209 2022 9933 9935 8369 7793 12772 8370 
10 1516 2247 2307 1524 11618 8789 11766 6328 11763 12942 
10 174 715 199 1641 10478 3641 3233 6635 10480 13058 
10 1351 2155 2154 1461 11095 8212 12764 5961 11812 12765 
10 1390 1391 1255 2080 5709 5707 5705 10167 10166 11479 
10 1351 2042 1205 2041 11163 12180 5584 11162 7850 11415 
10 1203 1903 1032 1202 12319 12182 5113 5115 11567 5111 
10 1980 2106 1981 1150 8038 8039 7652 12254 11912 12252 
10 356 355 492 754 2672 9480 9481 3755 3756 12738 
10 2048 1952 2080 1255 7866 7963 7964 13128 12769 11479 
10 1517 1298 1411 2127 6171 5774 6170 13145 11745 11746 
10 1340 1187 2030 2093 5548 11571 11548 11549 10543 8004 
10 1895 1297 1018 1019 11099 5397 10262 12175 5398 4556 
10 1254 1390 1255 2048 5704 5705 5268 10467 11491 13128 
10 2263 1540 1487 1541 12369 6299 12105 12371 6303 6301 
10 175 174 199 1641 2485 3233 3234 6634 6635 13058 
10 1247 1251 2074 1387 5424 11470 13171 5693 5694 11477 
10 1390 1389 2212 2048 5706 12356 12794 11491 11492 8379 
10 1485 2260 1486 2208 9912 10506 6045 9913 8600 10042 
10 2189 1495 1494 1399 12560 6072 13296 12749 6070 6068 
10 1264 1263 1399 2087 5295 5731 5732 9796 9794 12075 
10 2188 2189 2265 1494 8308 8570 8571 13217 13296 11335 
10 2189 1495 2265 1494 12560 11723 8570 13296 6072 11335 
10 1650 184 728 727 6661 11034 11311 11312 12791 3681 
10 535 97 81 96 13356 9092 2958 9616 2391 9093 
10 1402 2090 1267 2089 13174 13198 5741 9797 7994 9798 
10 2187 2292 2264 1492 8670 8671 8568 12730 12729 11488 
10 2090 1962 1268 1267 7993 10524 11514 13198 10525 5307 
10 1495 1496 1400 2190 6075 6073 6071 12561 11132 10786 
10 1388 2255 2311 2279 13131 8775 13212 11524 8625 8774 
10 2090 2089 1962 1267 7994 7989 7993 13198 9798 10525 
10 2244 1419 2262 1432 10882 12899 8795 11323 5848 11324 
10 1280 1119 2107 1311 5339 13319 11239 5450 5451 13258 
10 1532 1516 2247 2284 6226 11618 11762 11807 11619 8642 
10 1413 2238 1409 2246 12862 9846 5781 11089 8798 12827 
10 2309 1528 2270 1530 13268 13267 8814 11178 6326 11177 
10 1119 1982 1981 942 12874 7655 12902 4853 11531 12591 
10 2271 1438 1527 2272 12286 6230 11665 8595 9911 12274 
10 1983 1110 1982 2108 13012 12875 7658 8045 9868 8044 
10 1519 1422 1359 2173 6180 5809 6179 13273 11726 10949 
10 785 973 1085 1862 4417 4752 4753 10377 12015 11686 
10 1894 1017 1739 1018 12165 12164 7390 12335 4553 10263 
10 1385 2072 2180 2181 10225 8280 10215 11695 8284 8285 
10 2266 2265 1519 2173 8574 11336 11453 8703 8750 13273 
10 2310 1529 1538 1544 11298 6289 11444 10500 6325 6343 
10 2078 1424 2207 2182 11631 12373 8364 8286 11998 8449 
10 1248 1424 2207 2078 5821 12373 10850 10121 11631 8364 
10 1895 1740 1019 1018 7393 12176 12175 10262 10261 4556 
10 1550 1549 387 600 6362 6357 6361 10677 12236 11729 
10 1709 792 1548 1549 11550 10201 6842 6841 10356 6359 
10 1506 2237 1361 1452 12628 11346 6116 6115 10392 6107 
10 1650 184 727 183 6661 12791 11312 6662 2494 12785 
10 616 1562 399 615 9834 6397 9833 3344 11395 12805 
10 726 1650 917 727 12116 11322 4244 3678 11312 4245 
10 220 737 221 192 3706 3707 2532 3266 10702 3267 
10 2106 2095 2183 1304 8040 8289 8290 10912 12904 10914 
10 2095 1141 1306 1304 12265 5432 13153 12904 5423 5431 
10 1571 819 1730 1570 10234 10235 6899 6426 13334 6900 
10 1731 1008 1007 820 10249 4523 9986 9987 4521 4519 
10 252 405 193 738 8903 6412 12616 3840 11345 11406 
10 643 1583 422 421 11929 6460 10454 12965 6461 2742 
10 2288 1445 1321 2219 13109 5894 11070 8653 11959 13396 
10 1583 642 1582 421 11931 10295 6462 6461 10598 6457 
10 1445 2219 1322 1321 11959 11960 5895 5894 13396 5490 
10 2087 2189 1399 2190 8306 12749 12075 8310 8311 12076 
10 2225 2288 1321 2219 8654 11070 11045 8430 8653 13396 
10 2145 2024 1332 2023 8183 11588 9960 8184 7796 9934 
10 2299 1451 2209 1332 11319 11321 8707 12469 5928 9936 
10 2051 2237 1360 1361 8482 12244 11656 11347 11346 5616 
10 808 1561 1722 809 12568 6878 12425 3921 11398 11675 
10 443 444 1603 299 2765 6520 6521 8824 8825 9923 
10 1765 1764 1048 1915 7009 13337 11735 7455 7456 12457 
10 1177 1176 1332 2023 5034 5521 5522 13072 9842 9934 
10 2024 1177 1332 2023 11587 5522 11588 7796 13072 9934 
10 25 88 13 83 2381 9072 2848 9096 9602 2375 
10 1891 1191 2032 2031 11778 12398 7819 7815 13178 7820 
10 1890 2029 1190 2031 7811 13096 9946 7816 7817 11995 
10 682 874 1614 681 4116 12840 12102 3543 4115 10808 
10 1439 1375 2064 2228 5876 11462 13121 12011 11455 8439 
10 1939 1785 1074 1073 7528 12790 12620 12621 11848 4721 
10 1423 2233 2204 2147 11747 8465 11101 11102 8466 8454 
10 707 1633 1634 474 10439 6615 10440 12792 6610 6614 
10 2233 1434 2235 1453 11238 13138 8476 10726 5937 10727 
10 711 170 194 710 12090 3225 3629 3856 11259 3844 
10 542 548 543 537 13384 13308 2985 2978 13397 2986 
10 2045 1356 2159 1355 13315 12451 8223 12528 5600 13398 
10 1444 2242 1513 1432 13343 11889 6253 6252 11317 6149 
10 2249 1466 1526 1465 13224 6207 11815 13281 5977 6206 
10 2242 1416 1513 1432 11888 6150 11889 11317 5849 6149 
10 1802 1952 1092 1953 7566 12768 13129 7570 7571 13389 
10 2167 1367 1366 2054 12590 5634 13289 8244 12745 13287 
10 2165 2167 1366 2054 8245 13289 11168 8238 8244 13287 
10 1367 1221 1366 2054 5632 5630 5634 12745 11082 13287 
10 1660 741 740 928 11617 3719 11782 11615 4277 4278 
10 972 1947 1002 1139 12301 11761 4507 4913 12222 4912 
10 1221 1220 1366 2054 5170 5629 5630 11082 13286 13287 
10 902 1847 1701 1703 12658 7251 12433 10549 7252 6826 
10 548 95 78 94 3004 9089 13373 3005 2389 9087 
10 1477 1515 2175 1476 6237 10782 12276 6021 6236 12926 
10 1858 929 1670 1819 11655 12798 7282 7307 10695 7169 
10 37 488 36 1670 2811 9470 2859 6720 6721 10573 
10 2066 1236 1377 1376 12279 5662 11690 12924 5660 5664 
10 1670 352 36 750 10668 2668 10573 10559 3744 3745 
10 748 487 1668 486 11598 6715 9699 10789 2809 6714 
10 786 33 1681 1704 12525 6752 11502 10408 6824 6827 
10 737 1567 1658 859 12645 6834 10711 4416 11966 11967 
10 1803 1802 910 1953 7122 11760 13104 7569 7570 13399 
10 2066 2175 2174 1475 8266 8267 8263 12923 10784 10785 
10 665 439 664 1601 12195 11515 3492 11511 6515 13378 
10 1693 373 773 774 10177 3810 10178 11032 3814 3815 
10 80 535 81 96 2957 2958 2372 9095 9616 9093 
10 1692 372 508 507 11826 9494 6784 6783 9492 2833 
10 902 1703 1701 782 10549 6826 12433 4202 13262 11657 
10 2226 2117 1279 2206 8431 10610 10954 8432 8358 10612 
10 89 73 534 545 9077 2945 13395 2993 13345 13388 
10 102 87 103 538 9105 9098 2398 13301 2959 13292 
10 968 781 1856 967 4390 11705 11704 4391 4386 12213 
10 2098 1273 1415 2201 10157 5787 12428 8343 10156 13358 
10 605 235 234 391 3310 2547 3309 12876 9027 9004 
10 1273 1407 1415 2201 5757 5789 5787 10156 11219 13358 
10 1978 1716 987 986 7642 12346 13045 10369 12087 4464 
10 235 236 392 606 2548 9028 9031 3312 3313 11629 
10 439 1600 664 1601 6511 11507 11515 6515 6516 13378 
10 2188 1494 1493 1398 13217 6069 9871 12500 6067 6065 
10 1881 812 1725 998 11149 11150 7353 11595 4495 11417 
10 2189 1494 1398 1399 13296 6067 13106 12749 6068 5733 
10 621 814 1565 620 3935 10828 13342 3359 3934 12480 
10 814 621 1565 1566 3935 13342 10828 10827 11830 6410 
10 1093 1803 910 1953 12032 13104 4775 10180 7569 13399 
10 1856 781 1700 1855 11705 9702 7276 7278 10483 7274 
10 1560 614 613 243 12006 3338 9994 9995 3336 3334 
10 1397 2188 2085 2187 12499 8304 12938 13214 8305 8300 
10 2189 2087 1399 2086 8306 12075 12749 8307 7985 12940 
10 1309 2037 2113 1410 9761 8584 12442 5765 12487 13303 
10 1188 2029 1889 2093 12515 7812 11110 10541 8005 8002 
10 1309 2037 1410 1199 9761 12487 5765 5571 9763 5766 
10 1093 1092 1953 910 4777 13389 10180 4775 4773 13399 
10 1197 1027 1026 1899 5096 4580 5095 13064 12885 13066 
10 550 84 551 542 13400 13317 3016 13401 2979 13402 
10 2077 1197 1898 1899 13156 13063 7953 7956 13064 7410 
10 679 680 310 1612 3537 3535 3533 13132 12655 11443 
10 1599 662 854 853 10740 4055 10345 10741 4053 4057 
10 1202 1902 1031 1201 11184 10830 5110 5112 11185 5108 
10 1759 855 1042 854 12891 4624 12890 10346 4060 4623 
10 660 852 661 1597 4049 4050 3480 9835 10777 12947 
10 2210 1522 1421 2162 11736 6198 11836 8375 11737 13099 
10 1389 1429 2212 2124 5837 12509 12356 12357 12512 8380 
10 290 660 661 1597 3476 3480 3478 12443 9835 12947 
10 1054 1770 1769 1923 11602 7024 10012 12680 7479 7480 
10 253 406 624 254 8905 12935 3367 2567 8906 3368 
10 1609 868 1768 1767 13073 13004 7017 7013 13005 7018 
10 882 1620 689 881 12671 11856 4139 4141 13312 4137 
10 624 816 1568 859 3942 12038 13233 4072 4073 11991 
10 1936 1782 1069 1935 7519 11066 11067 7520 7515 12208 
10 1066 1780 883 1779 11223 11700 4696 11225 7054 11702 
10 1758 1599 854 853 6983 10345 10960 10106 10741 4057 
10 1765 1048 864 865 11735 4641 10991 12537 4642 4090 
10 1620 690 882 689 11018 4140 12671 11856 3567 4139 
10 879 880 1618 1777 4135 12919 10844 10845 12941 7044 
10 1787 893 1629 1788 12064 12282 7073 7078 12444 7077 
10 1445 2288 2278 2219 13109 8655 13127 11959 8653 8620 
10 1765 1764 864 1048 7009 10951 10991 11735 13337 4641 
10 1081 1791 1080 1944 9977 13276 4742 12056 7542 10602 
10 2141 1281 2218 2262 13305 13195 8473 8563 11165 8562 
10 704 896 1632 1631 4182 11451 11286 11287 11452 6609 
10 1419 2244 1446 1432 10882 10361 6135 5848 11323 6319 
10 1577 416 265 415 6442 8923 9989 6443 2736 8922 
10 907 1642 1800 908 13339 7111 13080 4219 13351 11907 
10 1320 2293 1443 2225 11683 12581 5887 11044 8678 11046 
10 2293 2288 1443 2225 8677 11071 12581 8678 8654 11046 
10 720 1644 910 1803 12911 13103 4224 9810 7121 13104 
10 720 1644 719 910 12911 13246 3657 4224 13103 4223 
10 720 1803 910 911 9810 13104 4224 4226 9812 4228 
10 1104 922 921 1812 4809 4261 4808 10616 10515 10517 
10 2131 2225 1321 2219 8428 11045 12996 8404 8430 13396 
10 923 1655 1654 1813 12157 6678 12685 13003 7150 7151 
10 1655 923 1814 1813 12157 12641 7154 7150 13003 7155 
10 924 1814 1106 1107 9800 11440 4815 4817 11917 4819 
10 2131 2219 1321 1322 8404 13396 12996 12583 11960 5490 
10 1320 2133 1321 1163 12881 13316 5484 5480 11065 5482 
10 84 550 551 100 13400 3016 13317 9100 3012 3015 
10 1417 2275 1454 2241 11246 12137 5940 12572 8730 11208 
10 1825 1665 745 746 7185 12964 12070 13259 12380 3734 
10 1314 1374 2136 1294 5864 12959 10056 5463 5863 10057 
10 1662 344 1661 742 12039 10221 6698 10161 3721 11818 
10 1522 1417 1454 2241 6192 5940 6191 11738 12572 11208 
10 93 78 94 547 9088 9087 2388 3002 9609 3001 
10 416 1577 265 636 6442 9989 8923 12652 9988 3403 
10 1676 1675 1833 755 6739 7209 7210 12151 12074 12799 
10 1450 1328 1449 2217 5919 5917 5921 12245 12238 12240 
10 1466 1355 1465 2158 5975 5973 5977 13282 10656 10657 
10 1092 1802 1953 910 13129 7570 13389 4773 11760 13399 
10 1449 2277 2217 2285 13180 8618 12240 13182 8645 8643 
10 2277 1450 1449 2217 13141 5921 13180 8618 12245 12240 
10 1465 2248 1464 1525 12132 10686 5974 6204 11909 6203 
10 2159 2045 1355 2158 8223 12528 13398 8224 8219 10656 
10 2128 2016 1130 2014 8105 12169 12308 8106 7950 12173 
10 2007 1760 1884 1043 7736 7362 7739 13092 10348 10174 
10 286 1594 433 432 12734 6493 8957 8956 6494 2753 
10 1450 2277 2146 2217 13141 8617 13119 12245 8618 8397 
10 1965 1106 1107 1270 11439 4819 11919 12054 5311 5312 
10 1159 977 1157 1993 4978 4975 4980 12336 12192 12839 
10 869 1769 1768 1053 12003 7021 10812 4656 10013 10813 
10 977 1709 1857 1993 11884 7306 12190 12192 7686 7687 
10 1884 1857 1993 976 7689 7687 7721 10496 12191 12193 
10 978 1709 977 1868 11727 11884 4437 12828 7320 12266 
10 1159 978 977 1868 4979 4437 4978 12829 12828 12266 
10 2066 1377 1476 1475 11690 6016 11691 12923 6014 6018 
10 994 1176 1878 1175 5029 9843 12783 5027 5031 9845 
10 2175 2066 1476 1475 8266 11691 12926 10784 12923 6018 
10 2259 1540 2273 2302 12872 12513 8720 8725 12368 8724 
10 1328 1329 2021 2217 5514 10887 13142 12238 12246 8398 
10 1427 1518 2245 1504 6176 11641 10113 6157 6175 12262 
10 1577 1576 415 635 6444 6439 6443 9990 11386 13263 
10 411 630 259 260 13221 3385 8915 8916 3386 2573 
10 2161 1391 1487 1486 10315 6046 10317 13331 6044 6048 
10 1391 2161 2208 1486 10315 8368 10165 6044 13331 10042 
10 2263 2302 1541 2300 8764 12370 12371 8712 8772 12639 
10 1488 2263 1487 1541 10303 12105 6051 6302 12371 6301 
10 1615 1614 875 1773 6558 12841 12837 7031 7032 12485 
10 1533 1455 1498 2269 6228 6215 6227 10790 12558 13115 
10 1842 954 766 953 12907 4350 12411 12877 4351 4346 
10 1415 2200 2234 2097 11846 8470 11539 11540 8341 8469 
10 1429 2230 2212 2124 12511 8480 12509 12512 8604 8380 
10 1430 2200 2234 1415 13173 8470 11542 5842 11846 11539 
10 1253 1429 2137 1252 5836 12510 12834 5262 5838 12930 
10 2193 2192 1498 2269 8320 10852 12440 8581 8582 13115 
10 1455 2193 1498 2269 12439 12440 6215 12558 8581 13115 
10 1528 2309 1527 1530 13268 12586 6261 6326 11178 6323 
10 2071 1242 1383 2070 12460 5680 12901 7937 11722 13192 
10 1367 2167 1366 1471 12590 13289 5634 5996 11205 5995 
10 1614 874 1773 1772 12840 12836 7032 7028 12210 7033 
10 1067 1232 1934 1302 5200 10292 10184 5418 5430 10294 
10 1782 1781 1069 1935 7060 11606 11066 7515 7516 12208 
10 2178 1479 1509 2177 13166 6285 12580 8276 12601 10073 
10 1947 2012 1139 1863 7775 12206 12222 7550 7757 11078 
10 1478 1484 1536 2176 6239 6265 6266 12587 10269 10270 
10 1375 1936 1234 2064 10430 12928 5656 11462 7914 12414 
10 2310 1529 2257 2258 11298 11299 8766 8765 10227 8552 
10 1792 1082 1247 1945 10450 5244 12622 7545 12741 12742 
10 1913 1792 1247 1945 7742 12622 10567 7743 7545 12742 
10 1247 1913 2074 1251 10567 7944 13171 5424 11468 11470 
10 724 207 723 1647 3667 3665 3669 12263 10875 10906 
10 1474 2234 2174 2194 11713 8748 12929 11714 8471 8747 
10 1098 1957 1261 1262 10932 12721 5285 5287 11463 5289 
10 1806 1097 1096 914 12093 4789 11870 11871 4787 4785 
10 1094 1804 1954 1955 12982 7572 11487 12505 7576 7577 
10 550 542 551 554 13401 13402 3016 3034 13385 3038 
10 940 1858 1829 1967 10565 7284 12867 11716 7610 7611 
10 2198 1306 1427 1304 13148 5832 10111 12903 5431 5831 
10 940 939 1829 751 4313 10563 12867 4310 4309 12868 
10 544 72 89 88 13379 9076 2992 2991 9075 2382 
10 2200 1430 2234 2174 13173 11542 8470 8665 13208 8748 
10 1050 867 1766 1767 4648 13393 13338 11339 13027 7015 
10 990 989 1718 804 4473 10698 11401 4471 4469 11402 
10 2258 1529 2257 1509 10227 11299 8552 13324 6247 10074 
10 2304 2274 1520 2261 8770 13146 11376 8794 8607 11028 
10 2182 1424 2274 1520 11998 12372 8606 11976 6184 13146 
10 2274 2182 1520 2261 8606 11976 13146 8607 8560 11028 
10 1869 1919 1148 2077 7469 10865 10759 7954 7955 12727 
10 2182 1517 2261 2148 11977 11027 8560 8288 12518 8561 
10 1543 2297 2261 2148 11939 8696 11026 12519 8693 8561 
10 1615 682 875 1614 12103 4118 12837 6558 12102 12841 
10 1989 2115 1283 2114 8063 12715 12714 8061 8065 13187 
10 1027 1026 1899 1746 4580 13066 12885 12188 12124 7409 
10 1146 1919 1949 2135 12728 7559 12436 10556 8140 8141 
10 967 966 1855 1999 4388 13088 13090 11521 13091 7705 
10 1138 968 1882 1154 4923 10512 10582 5247 4962 10510 
10 1774 1059 875 876 10062 4674 12838 10063 4675 4123 
10 1059 1774 875 1773 10062 12838 4674 12484 7036 12485 
10 2031 2149 2151 1343 8194 8201 8199 11996 11624 11626 
10 1782 1070 886 887 10422 4707 12844 10424 4708 4156 
10 740 1659 739 342 11784 12521 3716 3715 12539 3712 
10 1336 2138 1184 1183 12850 11637 5537 5536 12409 5054 
10 88 72 13 83 9075 2362 9072 9602 2944 2375 
10 1006 1885 1007 1730 10922 12802 4520 12020 7363 9984 
10 2277 1528 2283 2308 13043 12967 8636 8781 13110 8783 
10 994 1176 1879 1878 5029 10219 10020 12783 9843 7349 
10 478 1659 740 342 6689 11784 11783 6214 12539 3715 
10 604 605 234 1553 3311 3309 3307 10636 11944 10637 
10 605 234 1553 391 3309 10637 11944 12876 9004 6369 
10 2017 1362 2164 1361 13117 12976 8235 12201 5619 11348 
10 1896 1741 1867 1020 7396 7400 7733 10285 12328 10402 
10 235 605 1554 391 3310 11943 11628 9027 12876 6373 
10 1555 800 606 607 11230 3892 12395 12394 3893 3317 
10 1896 1292 2005 2036 10284 11152 7801 7830 10437 7833 
10 1675 492 1674 754 6734 6732 6736 13013 12738 12739 
10 1070 1782 886 1069 10422 12844 4707 4709 11066 4705 
10 1353 2156 2043 1352 11837 8213 10672 5591 10617 12181 
10 1210 2046 1356 1357 11955 13179 5599 5601 10719 5603 
10 694 1624 1623 886 10762 6585 12786 4152 12845 10977 
10 1466 2159 1355 2158 12450 13398 5975 13282 8224 10656 
10 2254 2313 1431 2256 8815 10281 10280 8544 8802 13211 
10 1405 1276 1431 2256 5750 5843 5844 13403 12830 13211 
10 1220 1219 2053 1922 5167 12392 12909 12134 12028 7880 
10 752 1672 751 353 10375 13340 3751 3750 12613 3746 
10 1672 353 1671 751 12613 13404 6727 13340 3746 11851 
10 1576 264 634 414 12889 3398 11768 6440 8920 11757 
10 264 1576 415 414 12889 6439 8921 8920 6440 2735 
10 1477 1484 2290 1515 6238 11226 13010 6237 6164 10871 
10 2067 1378 1477 1476 11842 6019 11841 13126 6017 6021 
10 1155 1967 2102 1411 11709 8028 13196 5772 11710 13150 
10 1155 1411 2102 1306 5772 13150 13196 5433 5775 13149 
10 99 539 550 88 13363 13359 3013 2990 13364 3018 
10 548 541 537 79 13369 2982 13397 13374 2975 2955 
10 1671 353 1672 489 13404 12613 6727 6723 9475 6725 
10 1309 1199 1198 2126 5571 5103 5570 9762 9764 13075 
10 645 837 1585 1744 4004 10818 12496 13239 12221 6941 
10 1265 1264 2087 1960 5298 9796 10520 12693 12692 7983 
10 426 1587 425 277 6472 6473 2746 8943 12162 8942 
10 1671 352 751 353 10667 3747 11851 13404 2669 3746 
10 2274 1539 2267 2268 11116 11117 8751 8757 10805 8580 
10 1653 921 1812 1811 12376 10517 7148 7144 11228 7149 
10 489 352 1671 353 9474 10667 6723 9475 2669 13404 
10 535 540 90 74 2984 13350 13405 2947 2970 9080 
10 647 277 276 425 3437 2590 3436 13155 8942 8941 
10 1586 646 424 276 12001 12002 6470 12984 3434 8940 
10 2046 1210 1910 1211 11955 11956 7860 11978 5139 11979 
10 1757 852 1756 1597 10776 12723 6982 6981 10777 6977 
10 2215 1276 1405 2256 11892 5750 10086 8545 12830 13403 
10 535 97 540 81 13356 13390 2984 2958 9092 2971 
10 279 649 426 278 3443 10164 8944 2592 3442 8980 
10 1896 1297 1895 1019 12303 11099 7398 10286 5398 12175 
10 596 789 1707 1546 3861 10195 10197 13001 10205 6836 
10 745 1664 744 347 10757 10756 3731 3730 12816 3726 
10 1286 1287 1135 2121 5363 5361 5360 12762 11875 12732 
10 1287 1133 1135 2121 5362 4902 5361 11875 12756 12732 
10 2021 2026 1876 1173 7806 7803 7787 10888 12288 10064 
10 2171 1286 1371 1372 10435 6158 12535 12937 6004 5649 
10 2211 1287 1435 2170 11874 5860 11243 8535 11876 11771 
10 2122 1286 2121 2171 10434 12762 8086 8447 10435 8608 
10 1286 1287 2121 2171 5363 11875 12762 10435 12534 8608 
10 851 1038 1756 850 4612 13203 10332 4048 4611 10333 
10 2313 1405 1431 2256 11113 5844 10281 8802 13403 13211 
10 1456 1457 1340 2220 5949 5947 5945 12555 12559 11547 
10 1186 1187 1887 2030 5063 12408 11682 9786 11571 7814 
10 2132 1186 1887 2030 11913 11682 8122 8121 9786 7814 
10 1457 1456 2280 2220 5949 13147 11905 12559 12555 8627 
10 1457 2222 1340 2220 11903 12326 5947 12559 8504 11547 
10 2142 2143 1156 1316 8384 13204 10079 10080 13205 5469 
10 500 1683 364 499 6758 13014 9186 2824 6757 9185 
10 867 866 1766 1608 4096 12037 13393 12566 12035 7010 
10 880 879 1063 1777 4135 4686 4687 12941 10845 10847 
10 1313 2231 1438 1316 12887 11215 5870 5470 13134 5871 
10 97 540 98 549 13390 13366 2392 3008 13406 3010 
10 1995 2119 1134 2118 8074 11010 9824 8073 8076 11355 
10 2040 2039 1202 1349 7844 11182 12563 13185 10125 5577 
10 1461 2154 1350 1460 12765 12118 5960 5962 13188 5959 
10 499 763 364 363 10837 3781 9185 9184 3782 2681 
10 374 1694 375 775 12269 11988 2693 3817 11986 3816 
10 767 955 954 1843 4353 4354 4349 13086 13087 12700 
10 1203 2040 1349 1350 12250 13185 5578 5580 12119 5582 
10 2167 2055 1367 2054 8243 10731 12590 8244 7887 12745 
10 2313 2215 1405 2256 8801 10086 11113 8802 8545 13403 
10 791 790 1857 1547 3867 13274 11779 11780 12267 7280 
10 1468 2166 2294 2199 10360 8683 12109 10359 8339 8682 
10 1776 1617 1618 878 7041 6567 7040 9757 10876 12042 
10 2012 1231 1932 1933 11599 13295 7906 7908 13266 7511 
10 701 469 700 1629 12141 10885 3600 12142 6599 12927 
10 1939 1786 1075 1074 7527 12069 13169 12620 12960 4724 
10 2067 1477 2175 1476 11841 12276 8265 13126 6021 12926 
10 1385 2072 1245 1244 10225 12052 5687 5686 10983 5240 
10 1406 1407 2202 2290 5758 11218 10867 10878 10869 8698 
10 2100 2099 2202 1180 8024 8346 8347 11363 12585 11216 
10 1490 2287 1491 2186 11384 10389 6060 11294 8651 10391 
10 1397 1396 1492 2187 5727 6061 6062 13214 13216 12730 
10 540 91 98 549 13349 2996 13366 13406 3009 3010 
10 2084 1396 2085 2187 13061 12939 7979 8301 13216 8300 
10 2266 1495 2190 2267 11724 12561 8572 8577 13140 8576 
10 2185 1489 2251 2184 11752 11489 8527 8296 11490 8528 
10 1396 2187 1491 1492 13216 10564 6059 6061 12730 6063 
10 1472 1518 2297 2198 6177 11640 11940 12273 11639 8694 
10 469 1628 700 1629 6595 10663 10885 6599 6600 12927 
10 1521 2304 2280 1537 11325 8736 11327 6277 10924 12495 
10 1495 1496 2190 2267 6075 11132 12561 13140 11126 8576 
10 896 1631 1789 1790 11452 7079 11788 9969 7083 7084 
10 1996 1852 1851 963 7696 7266 7695 9823 9828 9878 
10 1996 1137 2120 1997 12571 11573 8077 7700 11974 8078 
10 1790 896 1079 1789 9969 4735 11200 7084 11788 9949 
10 907 1642 716 1641 13339 11209 4214 13254 6639 11210 
10 1452 2145 1332 2299 9958 9960 5931 12044 8706 12469 
10 1519 2267 1496 1495 13139 11126 6288 6250 13140 6075 
10 2049 1270 2091 1964 11494 11495 8153 8152 10371 7995 
10 1270 2049 1965 1964 11494 8154 12054 10371 8152 7607 
10 1732 1010 1888 1009 10267 11882 7373 10268 4529 11883 
10 184 185 1651 728 2495 6664 6665 11034 12115 9808 
10 1012 825 1734 1735 4534 11751 11951 11379 11380 6916 
10 213 185 729 1652 3255 12114 3683 13407 6668 12501 
10 1187 1009 1887 1888 5061 11681 12408 10544 11883 7374 
10 1471 2165 1366 1470 13290 11168 5995 5997 11970 5993 
10 213 186 185 1652 3256 2496 3255 13407 6667 6668 
10 2205 2271 2236 1473 8589 8590 8478 13112 12467 12966 
10 1438 2236 2295 2272 12287 8592 9910 9911 8593 8594 
10 464 1624 1623 694 6584 6585 6580 11148 10762 12786 
10 1356 1466 2159 1355 5976 12450 12451 5600 5975 13398 
10 1101 1809 1810 919 10528 7143 9774 4800 12365 12498 
10 730 213 729 1652 3685 3683 3687 12918 13407 12501 
10 2307 2242 1513 2312 8753 11889 12593 8811 8792 12594 
10 1526 2293 1443 1442 12801 12581 6334 6233 11645 5889 
10 186 213 730 1652 3256 3685 11721 6667 13407 12918 
10 1791 1790 897 1080 7087 9970 11194 13276 9971 4738 
10 2200 2098 1415 2201 8342 12428 11846 8345 8343 13358 
10 553 542 85 536 13375 2976 13285 13376 2977 2965 
10 1950 1109 2027 1970 9785 11916 7807 7620 11546 7808 
10 2213 2105 2240 1425 8382 8495 8496 11093 10892 10893 
10 2200 2098 2097 1415 8342 8018 8341 11846 12428 11540 
10 1972 1001 2097 2098 12293 12629 8014 8016 13297 8018 
10 1307 1430 2234 1290 5841 11542 13184 5438 5840 11537 
10 1523 1507 2287 2213 6195 10469 11866 12374 10930 8749 
10 1435 1287 1370 2170 5860 6090 6091 11771 11876 12536 
10 1446 1445 1432 2278 5902 6318 6319 13034 13127 13024 
10 1791 1081 897 898 9977 4740 11194 9976 4741 4189 
10 1081 1791 897 1080 9977 11194 4740 4742 13276 4738 
10 1445 1444 1432 2278 5896 6252 6318 13127 9889 13024 
10 2021 1174 1173 1877 10886 5025 10888 7786 11865 11391 
10 2279 1279 1303 1388 11523 5420 12342 11524 5697 5698 
10 1281 2226 2262 2141 11166 8564 11165 13305 8433 8563 
10 1518 2198 1427 2245 11639 10111 6176 11641 8638 10113 
10 355 753 354 491 3752 3753 2671 9479 11609 9478 
10 354 753 1673 491 3753 11893 12098 9478 11609 6729 
10 2034 2035 1250 1194 7829 11203 11569 11570 11204 5805 
10 492 355 491 1674 9480 9479 2815 6732 11610 6731 
10 1444 2276 1432 2278 9887 11318 6252 9889 8790 13024 
10 1363 2050 1362 2163 10329 13118 5622 12818 8233 12478 
10 984 983 1872 1714 4455 12589 10321 10342 12771 7327 
10 2309 1528 2303 2308 13268 12787 8763 8810 13110 8782 
10 1528 2309 2270 2308 13268 8814 13267 13110 8810 8754 
10 1324 1446 2281 2197 5901 10362 11583 11584 10363 8628 
10 1685 766 765 953 11038 3792 12147 12280 4346 4347 
10 366 1685 501 502 12146 6763 9189 9190 6764 2826 
10 764 1841 1840 1684 11878 7234 11879 12277 7232 7230 
10 718 1801 1643 1642 10488 7114 12058 12059 7115 6642 
10 1193 1892 1893 1015 13030 7389 11559 5079 11906 13202 
10 718 1642 717 908 12059 11264 3651 4218 13351 4217 
10 1693 1694 774 1849 6791 13265 11032 7255 7256 11033 
10 1649 209 182 183 10088 3249 6659 6658 3250 2493 
10 775 1850 1695 776 11024 7259 11987 3821 13382 9819 
10 962 971 1850 1994 4405 11023 11036 11037 11022 7691 
10 735 1815 926 1657 10301 12471 4271 13346 7156 10934 
10 102 86 553 85 9106 13387 3027 9104 2378 13285 
10 548 547 78 537 3006 9609 13373 13397 9608 2954 
10 790 1043 1707 789 4895 10172 10196 3864 4894 10195 
10 546 77 92 93 13381 9086 2999 2998 9085 2387 
10 1623 324 694 693 9865 3577 12786 9866 3575 3579 
10 1358 1212 1211 2047 5605 5142 5604 11411 9880 9882 
10 665 664 856 1601 3492 4061 4062 11511 13378 10458 
10 857 1545 1601 1708 9857 6833 11512 12897 6838 6839 
10 2165 1471 2289 1470 13290 11557 8658 11970 5997 11672 
10 2291 2165 2289 1470 8667 8658 8669 11671 11970 11672 
10 1985 946 2015 1836 12853 11820 7768 7663 10498 7766 
10 1824 1664 1823 744 7182 7180 7184 9750 10756 11049 
10 542 84 551 85 2979 13317 13402 2976 2377 13311 
10 255 407 1569 408 8908 6419 12413 8909 2728 6418 
10 346 482 1663 481 5907 6700 9840 5908 2804 6699 
10 535 90 73 74 13405 9078 2948 2947 9080 2364 
10 803 1718 1557 1717 10700 6866 13368 10699 6867 6862 
10 394 609 239 1557 12865 3322 9009 6382 12809 10005 
10 1515 2200 2290 2175 10870 8681 10871 10782 8664 8662 
10 1873 988 987 1717 10379 4467 11834 7330 11076 12347 
10 803 989 1717 988 4468 10697 10699 4466 4470 11076 
10 1522 1531 2295 2289 6264 9908 12774 11556 11558 8688 
10 1505 2266 2274 2267 10907 8714 11118 11119 8577 8751 
10 1496 1401 1400 2190 6074 5739 6073 11132 10772 10786 
10 988 802 987 1717 4465 4463 4467 11076 12345 12347 
10 1005 817 1003 1728 4512 4509 4514 13231 13229 11535 
10 626 818 1569 817 3947 13136 13354 3945 3949 13230 
10 1806 1956 1805 1096 7578 7579 7131 11870 12725 11872 
10 2241 1522 2295 2289 11738 12774 8687 8656 11556 8688 
10 2087 1263 2086 1959 9794 9790 7985 7984 9793 7980 
10 625 626 1569 817 3375 13354 10355 3944 3945 13230 
10 626 255 1569 408 3373 12413 13354 13355 8909 6418 
10 626 818 1570 1569 3947 13135 13335 13354 13136 6423 
10 2263 1542 1488 2251 12637 6304 10303 8567 12638 10304 
10 535 549 96 545 13357 3007 9616 9617 3035 3022 
10 2254 1534 2300 2240 10149 11800 8713 8539 10150 8710 
10 222 3 252 2 3223 8901 3364 2534 2479 2565 
10 736 219 735 1657 3703 3701 3705 10936 13242 13346 
10 269 640 1580 639 3415 11607 13234 3413 3417 12604 
10 927 1886 1003 816 10715 11534 4824 4751 10717 4508 
10 638 1578 829 1579 12257 9829 3981 13235 6450 9831 
10 1031 844 843 1750 4591 4027 4590 11962 10978 10980 
10 2240 1523 2300 2251 10894 11801 8710 8602 11867 8711 
10 1542 2300 1541 1534 11799 12639 6315 6337 11800 6338 
10 654 845 1592 1591 4029 11994 11933 13049 10340 6489 
10 1571 819 628 820 10234 3951 10265 10236 3955 3953 
10 1009 1732 821 1008 10268 10927 4524 4526 10928 4522 
10 1605 863 1764 1761 10447 10950 7005 6994 10449 7006 
10 1047 1969 1761 1046 9929 7615 9930 4640 12340 10690 
10 1534 1523 2300 2240 6295 11801 11800 10150 10894 8710 
10 2285 2286 1448 2311 8648 12951 12196 8804 8809 12198 
10 1225 1226 1059 1927 5185 5183 5181 11706 9906 9904 
10 2057 1225 2058 1371 11436 13161 7896 12227 5644 12229 
10 681 873 1613 680 4113 12272 10807 3540 4112 12656 
10 1056 1771 1772 873 10823 7030 13244 4666 10824 12209 
10 1059 1058 1927 1773 4676 11708 9904 12484 12483 7492 
10 874 1614 1613 1772 12840 6555 12271 12210 7028 7029 
10 283 653 430 282 3455 13272 8981 2596 3454 8951 
10 653 429 430 282 11304 2750 13272 3454 8950 8951 
10 850 1038 1755 1037 4611 13271 10774 4609 4613 12417 
10 1388 1428 2311 1508 5833 12978 13212 6125 6126 12199 
10 1237 1937 1236 2066 10043 12224 5216 10044 7921 12279 
10 1236 1071 1235 1937 5211 5209 5213 12224 10429 12225 
10 846 1034 1752 1033 4599 10971 9747 4597 4601 9979 
10 1034 847 846 1752 4600 4036 4599 10971 9745 9747 
10 1032 1903 1750 1031 12182 7421 13238 4595 11566 11962 
10 429 652 1591 1590 11305 11307 6485 6481 11109 6486 
10 1428 1388 2311 2279 5833 13212 12978 12343 11524 8774 
10 1903 1032 1750 1751 12182 13238 7421 7420 12183 6964 
10 938 1869 951 1152 11041 10486 4342 4954 10758 4953 
10 1907 2044 2043 1207 7855 7856 7851 11926 12893 11160 
10 938 1869 1152 2010 11041 10758 4954 9883 7755 12194 
10 438 663 292 293 12312 3484 8967 8968 3485 2606 
10 540 91 549 90 13349 3009 13406 13350 2384 3011 
10 1448 1428 1508 2311 6134 6126 6133 12198 12978 12199 
10 2216 2224 2305 1326 8616 8741 8742 10957 10959 11992 
10 2159 2160 2250 1502 8227 8523 8524 11649 11648 11935 
10 658 1595 850 1596 12737 10773 4043 10884 6501 10334 
10 1097 1098 915 1806 4792 4790 4788 12093 13408 12092 
10 1098 1807 915 1806 10920 11486 4790 13408 7134 12092 
10 1957 1098 1097 1806 10932 4792 12719 7582 13408 12093 
10 1098 1957 1807 1806 10932 7581 10920 13408 7582 7134 
10 1947 1181 1002 1139 10208 5044 11761 12222 5045 4912 
10 1960 1809 1810 1101 7591 7143 7590 9773 10528 9774 
10 739 1659 930 788 12521 12760 4283 3858 12676 4418 
10 867 1608 1766 1767 12566 7010 13393 13027 7014 7015 
10 1604 862 1761 1762 9997 11407 6995 6997 11493 6999 
10 1614 313 312 454 12212 2627 12349 6554 8844 8895 
10 1393 2082 2184 2185 12795 8291 12062 12636 8295 8296 
10 1771 872 1612 1613 10825 12653 7026 7025 12654 6552 
10 77 76 538 92 2368 2960 2961 9086 9082 13293 
10 1770 1611 1612 871 7023 6549 7022 10819 10821 13190 
10 679 1611 1612 452 12099 6549 13132 12100 6544 6548 
10 543 548 541 537 13308 13369 2987 2986 13397 2982 
10 1622 462 322 691 6578 8860 12360 10274 12752 3569 
10 697 466 327 696 10037 8898 3586 3588 10050 3584 
10 920 1102 1810 919 4803 9770 12866 4255 4802 12498 
10 2323 746 747 1667 10972 3737 9740 9696 10974 10766 
10 2321 134 118 119 10801 9142 13409 9623 9140 2417 
10 885 693 692 1623 4149 3576 4148 10976 9866 10997 
10 1622 692 463 1623 10996 11416 6577 6582 10997 6581 
10 475 338 1634 474 8885 10836 6613 2796 8884 6614 
10 708 339 338 475 3620 2653 3619 13056 8886 8885 
10 1652 920 1810 919 12503 12866 7141 12502 4255 12498 
10 338 707 1634 474 3617 10440 10836 8884 12792 6614 
10 1859 950 1839 762 11356 11191 7287 11975 4339 12878 
10 1682 1859 1839 762 7286 7287 7227 10597 11975 12878 
10 706 473 474 337 11167 2795 12793 3614 8882 8883 
10 1696 1851 777 776 7262 9877 10800 9821 12577 3824 
10 376 375 1695 776 2694 11989 9818 3819 3820 9819 
10 1694 775 1850 1695 11986 11024 7258 6794 11987 7259 
10 775 962 1850 776 4373 11036 11024 3821 4372 13382 
10 1633 473 474 706 6611 2795 6610 10081 11167 12793 
10 544 539 534 72 13325 2980 13326 13379 2967 2946 
10 92 77 546 538 9086 13381 2999 13293 2961 13298 
10 1726 788 1817 1132 12675 10650 7165 10538 4891 10608 
10 1005 1006 1885 1183 4517 10922 10923 5049 5050 12410 
10 1858 1671 750 751 7283 10557 10558 10566 11851 3748 
10 785 1796 1669 1702 10376 7099 10570 10139 7100 6818 
10 1671 1858 1829 751 7283 7284 7198 11851 10566 12868 
10 939 752 1829 751 4308 10374 10563 4309 3751 12868 
10 1672 1671 1829 751 6727 7198 7199 13340 11851 12868 
10 550 99 100 84 3013 2395 3012 13400 9101 9100 
10 1726 788 1132 930 12675 4891 10538 10540 4418 4890 
10 790 791 597 1547 3867 3865 3863 12267 11780 12268 
10 1171 990 1875 1172 5015 10100 12013 5019 5017 12385 
10 1644 203 719 177 12913 3653 13246 6644 3239 12607 
10 983 1714 1713 1872 12771 6855 12625 12589 7327 7328 
10 206 179 722 1646 3243 11357 3662 12962 6650 12711 
10 1914 983 1713 1872 12623 12625 7451 7454 12589 7328 
10 1003 1883 2011 1182 12325 8120 12324 5047 12932 12931 
10 219 218 735 190 2530 3700 3701 3263 3270 13347 
10 1108 1815 1816 926 12846 7161 13241 4821 12471 10935 
10 736 191 1657 1658 10710 6682 10936 10709 6686 6687 
10 1655 734 733 189 10704 3699 10002 6676 10705 10001 
10 540 97 535 549 13390 13356 2984 13406 3008 13357 
10 1092 1256 1953 1255 5269 12766 13389 5267 5271 12767 
10 202 176 201 718 3237 3236 2513 3650 12057 3649 
10 718 1801 1642 908 10488 7115 12059 4218 10489 13351 
10 202 719 1643 718 3652 12857 12910 3650 3654 12058 
10 1883 1003 1005 1182 12325 4514 13039 12932 5047 5048 
10 187 731 1654 1653 12688 11295 6674 6670 11296 6675 
10 549 535 90 545 13357 13405 3011 3035 9617 2994 
10 817 816 1003 1728 3946 4508 4509 13229 11533 11535 
10 730 1653 1811 921 12712 7144 13081 4256 12376 11228 
10 726 209 183 210 3673 3250 12117 3674 2521 3251 
10 624 406 1568 254 12935 6416 13233 3368 8906 11985 
10 625 1569 1568 1728 10355 6420 10354 13232 6893 6894 
10 179 204 721 1645 3242 3658 10685 6646 12646 12647 
10 1545 594 382 383 9856 10198 6347 6346 12859 2702 
10 2034 1193 1194 1346 12171 5084 11570 11568 5566 5567 
10 1016 1894 1893 1194 13344 7392 11560 5082 12110 11561 
10 1892 1193 1893 2033 13030 11559 7389 7822 12172 7821 
10 389 231 232 602 9000 2544 9033 12089 3300 3301 
10 1016 1193 1893 1015 5080 11559 11560 4547 5079 13202 
10 179 178 204 1645 2489 3241 3242 6646 6647 12646 
10 543 544 541 552 13321 13380 2987 13310 3024 13300 
10 615 1562 399 1561 11395 6397 12805 11396 6398 6393 
10 2106 1119 1981 1150 13318 12902 8039 11912 4948 12252 
10 1119 2106 1311 1150 13318 10911 5451 4948 11912 5452 
10 627 819 1570 818 3950 13334 10189 3948 3952 13135 
10 2042 1905 1205 2041 7849 11413 12180 7850 7845 11415 
10 819 1727 1570 818 12019 6891 13334 3952 9938 13135 
10 1831 1980 1981 941 7648 7652 7650 11372 12255 12253 
10 2095 1980 1141 1150 8009 10254 12265 12708 12254 5358 
10 1905 1204 2041 1904 11412 11414 7845 7428 12260 7846 
10 2198 2095 1306 1304 8334 13153 13148 12903 12904 5431 
10 1765 866 1607 1766 12387 12036 7007 7012 12037 7011 
10 1369 1368 1454 2168 5640 5999 6000 10386 10388 10707 
10 1577 415 265 635 6443 8922 9989 9990 13263 3401 
10 1050 1916 1920 1766 12309 7472 11340 13338 7457 7471 
10 2056 2057 1224 1926 7893 10414 10415 7888 7892 11438 
10 1127 1144 952 1987 4930 4931 4877 9760 12285 12747 
10 647 648 1587 839 3441 12161 10742 4010 4011 10744 
10 874 873 1772 1613 4117 12209 12210 12271 12272 7029 
10 1058 1057 1926 1772 4673 13332 11707 13245 12211 7489 
10 970 1840 952 1987 12746 11880 4401 13037 7667 12747 
10 291 437 662 292 8965 12461 3481 2605 8966 3482 
10 1840 1841 952 1987 7234 9766 11880 7667 7668 12747 
10 444 445 1604 300 2766 6523 6524 8826 8827 13283 
10 445 670 300 301 12322 3505 8827 8829 3506 2615 
10 670 669 1604 300 3507 9998 12131 3505 3503 13283 
10 445 670 1604 300 12322 12131 6523 8827 3505 13283 
10 872 1770 1612 871 12426 7022 12653 4111 10819 13190 
10 877 1616 684 876 10416 12275 4124 4126 12707 4122 
10 312 681 1614 454 3539 10808 12349 8895 10806 6554 
10 1614 313 454 455 12212 8844 6554 6553 8845 2776 
10 2081 2082 2184 1393 7970 8291 8292 13125 12795 12062 
10 461 1621 690 321 6575 11017 11016 8858 11030 3566 
10 1231 2012 1932 1301 11599 7906 13295 5414 11601 12396 
10 1237 2066 1378 1938 10044 11689 5665 10045 7920 13089 
10 2066 2067 1378 1938 7925 11842 11689 7920 7924 13089 
10 1782 887 1624 1783 10424 10049 7058 7063 10054 7062 
10 1393 2081 1392 2184 13125 11011 5715 12062 8292 11012 
10 924 734 1656 925 4266 10223 9802 4270 4268 9803 
10 1660 741 479 343 11617 10220 6691 12531 3718 5924 
10 1566 1602 667 442 6996 12995 12404 6814 6519 13410 
10 251 622 4 404 3360 3361 2564 9026 11831 8985 
10 517 522 52 68 2907 2879 2899 9730 13107 9064 
10 66 49 65 530 9059 9058 2354 2920 9712 2919 
10 532 526 527 529 13019 9725 2932 2938 9741 2942 
10 532 520 48 524 11596 2874 9716 9709 2892 2890 
10 404 4 297 622 8985 2611 13411 11831 3361 3362 
10 667 298 297 442 3497 2612 3496 13410 8822 8821 
10 443 442 298 1602 2764 8822 8823 6518 6519 13371 
10 667 1602 298 442 12995 13371 3497 13410 6519 8822 
10 442 1566 404 297 6814 6408 6411 8821 13412 13411 
10 44 45 61 8 2870 9050 9707 2329 2330 9047 
10 49 520 48 65 2873 2874 2334 9058 9695 9057 
10 442 667 1566 297 13410 12404 6814 8821 3496 13412 
10 62 60 59 43 2928 2347 2927 9731 9045 9044 
10 532 526 518 527 13019 2905 12694 2932 9725 9727 
10 1566 404 297 622 6408 13411 13412 11832 11831 3362 
10 667 1566 297 622 12404 13412 3496 3498 11832 3362 
10 531 529 525 530 2943 9681 9715 2937 2921 9683 
10 297 4 404 5 2611 8985 13411 8819 2843 2724 
10 69 54 530 525 9070 12177 2926 9713 2893 9683 
10 20 44 61 8 9038 9707 2349 2846 2329 9047 
10 53 69 525 54 9065 9713 2896 2340 9070 2893 
10 50 533 523 521 9639 9640 2891 2875 9676 2904 
10 53 522 525 531 2880 2898 2896 9714 9717 9715 
10 517 531 68 57 11020 2924 9730 9679 2940 2908 
10 520 529 65 530 9680 2918 9695 9682 2921 2919 
10 62 63 46 519 2351 9053 9052 9677 9669 2872 
10 517 527 57 41 9726 2909 9679 2862 9708 9040 
10 22 40 10 52 9037 2324 2845 9062 2861 2338 
10 54 70 530 521 9071 2925 12177 2881 12315 9692 
10 2319 24 12 8 13327 2850 9743 9648 9638 9323 
10 2319 12 24 103 9743 2850 13327 9735 9097 2399 
10 5 297 442 404 8819 8821 2763 2724 13411 6411 
10 542 551 554 547 13402 3038 13385 13372 3037 3036 
10 520 49 521 530 2873 2876 2877 9682 9712 9692 
10 31 165 137 19 2472 13413 9143 2854 9169 2439 
10 588 145 582 580 13414 3164 13415 13416 3150 3167 
10 583 137 575 138 13417 3134 13418 13419 2440 3133 
10 142 169 578 158 13420 13421 3143 9158 3182 13422 
10 590 581 591 593 13423 13424 3201 3220 13425 3221 
10 589 145 146 582 13426 2449 13427 13428 3164 3161 
10 146 577 147 162 3152 3153 2450 9163 13429 9166 
10 165 590 149 166 3198 13430 9173 2473 3197 9172 
10 580 579 591 587 3151 13433 13431 13432 13434 3206 
10 589 593 576 584 3217 13436 13435 3214 3216 13437 
10 576 589 584 585 13435 3214 13437 13438 3208 3180 
10 142 18 169 158 2445 9170 13420 9158 9154 3182 
10 583 137 590 575 13417 13439 3212 13418 3134 13440 
10 576 585 584 155 13438 3180 13437 13441 3178 3176 
10 139 155 576 138 9150 13441 3135 2441 9149 3136 
10 575 583 138 576 13418 13419 3133 3137 13442 3136 
10 583 590 593 575 3212 3220 3219 13418 13440 13443 
10 588 145 580 160 13414 3150 13416 3190 9162 13444 
10 581 590 591 166 13423 3201 13424 13445 3197 3200 
10 150 581 579 591 3155 3165 3166 13446 13424 13433 
10 575 583 576 593 13418 13442 3137 13443 3219 13436 
10 583 137 138 153 13417 2440 13419 3173 9146 9147 
10 165 137 19 149 13413 2439 9169 9173 3132 2453 
10 151 587 586 167 13447 3188 13448 9177 3205 3210 
10 141 29 164 157 9144 2471 13449 9145 2463 3181 
10 159 143 144 587 9168 2447 9160 3187 13450 13451 
10 144 579 580 587 3147 3151 3149 13451 13434 13432 
10 576 585 155 139 13438 3178 13441 3135 13452 9150 
10 143 579 144 587 3146 3147 2447 13450 13434 13451 
10 590 581 593 575 13423 13425 3220 13440 3160 13443 
10 151 587 167 579 13447 3205 9177 3168 13434 13453 
10 586 578 169 158 13454 13421 3185 3184 13422 3182 
10 581 579 591 580 3165 13433 13424 3169 3151 13431 
10 553 538 102 546 13386 13301 3027 3026 13298 3017 
10 577 146 589 162 3152 13427 13455 13429 9163 3192 
10 150 579 151 167 3166 3168 2455 9174 13453 9177 
10 579 150 591 167 3166 13446 13433 13453 9174 3199 
10 586 168 151 167 3202 9176 13448 3210 2475 9177 
10 590 165 149 137 3198 9173 13430 13439 13413 3132 
10 151 587 579 578 13447 13434 3168 3156 13456 3148 
10 591 593 580 588 3221 13457 13431 3213 3218 13416 
10 578 169 142 152 13421 13420 3143 3145 9171 3142 
10 592 157 156 140 3203 2462 3207 13458 9153 9152 
10 139 140 585 156 2442 13459 13452 9151 9152 3179 
10 146 161 589 162 9164 3193 13427 9163 2468 3192 
10 159 143 578 142 9168 3144 13460 9157 2446 3143 
10 168 586 578 169 3202 13454 13461 2476 3185 13421 
10 140 592 585 156 13458 3215 13459 9152 3207 3179 
10 152 168 578 169 9178 13461 3145 9171 2476 13421 
10 587 578 586 159 13456 13454 3188 3187 13460 3183 
10 141 148 164 17 3141 9156 13449 2444 2452 9155 
10 29 141 164 17 9144 13449 2471 2855 2444 9155 
10 590 165 137 153 3198 13413 13439 3211 3172 9146 
10 575 581 593 582 3160 13425 13443 3170 3171 13462 
10 163 592 148 164 3209 13463 9167 2470 3204 9156 
10 165 31 137 153 2472 9143 13413 3172 2458 9146 
10 592 163 148 147 3209 9167 13463 13464 9165 2451 
10 585 140 147 592 13459 3158 13465 3215 13458 13464 
10 583 584 576 593 3177 13437 13442 3219 3216 13436 
10 154 155 576 584 2460 13441 13466 3175 3176 13437 
10 164 592 141 157 3204 13467 13449 3181 3203 9145 
10 582 575 576 593 3170 3137 3163 13462 13443 13436 
10 545 541 544 552 9615 13380 2995 3020 13300 3024 
10 576 589 585 577 13435 3208 13438 3140 13455 13468 
10 581 590 166 149 13423 3197 13445 3154 13430 9172 
10 576 589 577 582 13435 13455 3140 3163 13428 3162 
10 576 593 589 582 13436 3217 13435 3163 13462 13428 
10 587 578 159 143 13456 13460 3187 13450 3144 9168 
10 155 154 576 138 2460 13466 13441 9149 9148 3136 
10 144 580 160 587 3149 13444 9159 13451 13432 3186 
10 588 580 591 587 13416 13431 3213 3191 13432 3206 
10 587 578 143 579 13456 3144 13450 13434 3148 3146 
10 553 538 536 86 13386 2983 13376 13387 2962 2966 
10 144 159 587 160 9160 3187 13451 9159 2466 3186 
10 588 582 589 593 13415 13428 3194 3218 13462 3217 
10 586 168 578 151 3202 13461 13454 13448 9176 3156 
10 168 152 578 151 9178 3145 13461 9176 2456 3156 
10 588 145 160 161 13414 9162 3190 3189 9161 2467 
10 18 30 169 158 2856 2477 9170 9154 2464 3182 
10 150 581 166 149 3155 13445 9175 2454 3154 9172 
10 139 134 2321 155 9697 10801 9625 9150 9430 10829 
10 590 137 149 575 13439 3132 13430 13440 3134 3157 
10 581 590 149 575 13423 13430 3154 3160 13440 3157 
10 581 150 166 591 3155 9175 13445 13424 13446 3200 
10 162 577 147 585 13429 3153 9166 3196 13468 13465 
10 154 583 584 576 3174 3177 3175 13466 13442 13437 
10 152 18 169 142 2457 9170 9171 3142 2445 13420 
10 583 137 153 590 13417 9146 3173 3212 13439 3211 
10 146 577 589 582 3152 13455 13427 3161 3162 13428 
10 576 585 139 577 13438 13452 3135 3140 13468 3139 
10 580 144 160 145 3149 9159 13444 3150 2448 9162 
10 147 140 585 577 3158 13459 13465 3153 3138 13468 
10 155 139 585 156 9150 13452 3178 2461 9151 3179 
10 141 592 140 157 13467 13458 2443 9145 3203 9153 
10 550 544 543 554 3019 13321 13360 3034 3031 13309 
10 163 592 585 147 3209 3215 3195 9165 13464 13465 
10 159 142 578 158 9157 3143 13460 2465 9158 13422 
10 586 159 578 158 3183 13460 13454 3184 2465 13422 
10 577 162 589 585 13429 3192 13455 13468 3196 3208 
10 163 162 147 585 2469 9166 9165 3195 3196 13465 
10 150 166 591 167 9175 3200 13446 9174 2474 3199 
10 580 593 591 581 13457 3221 13431 3169 13425 13424 
10 139 577 585 140 3139 13468 13452 2442 3138 13459 
10 591 579 167 587 13433 13453 3199 3206 13434 3205 
10 151 587 578 586 13447 13456 3156 13448 3188 13454 
10 589 145 582 588 13426 3164 13428 3194 13414 13415 
10 583 154 153 138 3174 2459 3173 13419 9148 9147 
10 589 145 588 161 13426 13414 3194 3193 9161 3189 
10 540 75 90 74 2969 9079 13350 2970 2365 9080 
10 583 154 138 576 3174 9148 13419 13442 13466 3136 
10 148 592 147 140 13463 13464 2451 3159 13458 3158 
10 542 550 543 554 13401 13360 2985 13385 3034 13309 
10 589 145 161 146 13426 9161 3193 13427 2449 9164 
10 580 588 160 587 13416 3190 13444 13432 3191 3186 
10 588 582 593 580 13415 13462 3218 13416 3167 13457 
10 141 592 148 140 13467 13463 3141 2443 13458 3159 
10 582 581 593 580 3171 13425 13462 3167 3169 13457 
10 141 592 164 148 13467 3204 13449 3141 13463 9156 
10 73 90 535 545 9078 13405 2948 13345 2994 9617 
10 91 11 98 23 9073 9083 2996 2385 2849 2393 
10 539 88 544 550 13364 2991 13325 13359 3018 3019 
10 119 572 569 563 13469 3129 13470 3077 13471 13472 
10 562 124 125 571 13473 3093 13474 13475 3107 3108 
10 562 124 571 107 13473 3107 13475 3065 9115 13476 
10 130 115 563 572 9130 3071 13477 3117 13478 13471 
10 125 562 108 124 13474 3064 13479 3093 13473 9116 
10 135 572 120 136 3124 13480 9141 2437 3114 9134 
10 119 572 563 120 13469 13471 3077 2418 13480 3070 
10 564 569 134 574 13481 3104 13482 13483 3120 3121 
10 117 564 118 134 3075 3072 2416 9137 13482 9142 
10 572 130 569 563 3117 3099 3129 13471 13477 13472 
10 117 561 133 116 3059 13484 9138 2415 3058 9135 
10 564 560 118 569 3073 3061 3072 13481 13485 13486 
10 133 570 116 561 3102 13487 9135 13484 13488 3058 
10 570 104 116 555 13489 3039 13487 13490 3041 3079 
10 111 558 127 112 3049 13491 9123 2409 3048 9124 
10 564 568 574 565 13492 3123 13483 3088 13493 13494 
10 106 122 123 567 9112 2422 9113 13495 3109 3110 
10 128 559 129 113 13496 13497 2429 9126 3051 9127 
10 564 118 134 569 3072 9142 13482 13481 13486 3104 
10 557 106 567 556 3068 13495 13498 3069 3042 13499 
10 118 560 563 569 3061 3062 3060 13486 13485 13472 
10 557 571 567 123 13500 3128 13498 13501 3111 3110 
10 117 133 574 134 9138 3122 13502 9137 2435 3121 
10 568 559 564 560 13503 3074 13492 13504 3056 3073 
10 558 128 127 112 13505 2428 13491 3048 9125 9124 
10 124 108 107 562 9116 2404 9115 13473 3064 3065 
10 553 546 547 536 3026 3003 3029 13376 13313 9610 
10 568 564 569 560 13492 13481 3100 13504 3073 13485 
10 122 566 556 105 3092 13507 13506 9111 13508 3043 
10 566 573 556 565 3119 13510 13507 13509 13511 3081 
10 131 120 136 27 13512 9134 3101 2432 9133 2438 
10 119 572 120 135 13469 13480 2418 9139 3124 9141 
10 130 572 131 115 3117 3113 2431 9130 13478 9119 
10 563 115 130 114 3071 9130 13477 3076 2412 9129 
10 119 118 563 569 2417 3060 3077 13470 13486 13472 
10 573 558 556 565 13513 3084 13510 13511 3087 3081 
10 557 562 571 107 3085 13475 13500 3067 3065 13476 
10 557 562 126 571 3085 13515 13514 13500 13475 3112 
10 557 126 567 571 13514 3094 13498 13500 3112 3128 
10 128 559 113 112 13496 3051 9126 9125 3052 2410 
10 566 555 556 105 13516 3044 13507 13508 3040 3043 
10 566 568 573 565 3130 3125 3119 13509 13493 13511 
10 559 568 129 560 13503 3097 13497 3056 13504 13517 
10 108 14 125 26 2405 9117 13479 9108 2852 2425 
10 126 562 557 110 13515 3085 13514 9131 3066 3047 
10 570 16 104 28 13518 2400 13489 3089 2851 9107 
10 118 119 134 569 2417 9140 9142 13486 13470 3104 
10 121 555 566 105 13519 13516 3091 9110 3040 13508 
10 119 135 134 569 9139 2436 9140 13470 3103 3104 
10 119 572 135 569 13469 3124 9139 13470 3129 3103 
10 570 132 116 16 3090 9136 13487 13518 9132 2414 
10 559 128 129 568 13496 2429 13497 13503 3096 3097 
10 558 556 567 573 3084 13499 13520 13513 13510 3127 
10 117 561 564 574 3059 3078 3075 13502 13521 13483 
10 570 561 133 574 13488 13484 3102 3126 13521 3122 
10 110 126 562 109 9131 13515 3066 2407 9121 3063 
10 132 570 28 16 3090 3089 2433 9132 13518 2851 
10 121 570 104 28 3105 13489 9109 2420 3089 9107 
10 126 562 125 571 13515 13474 2426 3112 13475 3108 
10 570 16 116 104 13518 2414 13487 13489 2400 3039 
10 559 128 568 558 13496 3096 13503 3053 13505 13522 
10 121 570 566 555 3105 3106 3091 13519 13490 13516 
10 108 562 125 109 3064 13474 13479 3045 3063 9120 
10 564 117 574 134 3075 13502 13483 13482 9137 3121 
10 104 121 105 555 9109 9110 2401 3041 13519 3040 
10 122 566 573 556 3092 3119 3118 13506 13507 13510 
10 570 121 104 555 3105 9109 13489 13490 13519 3041 
10 566 561 574 565 13523 13521 3131 13509 3083 13494 
10 106 122 556 105 9112 13506 3042 2402 9111 3043 
10 561 117 133 574 3059 9138 13484 13521 13502 3122 
10 560 568 129 569 13504 3097 13517 13485 3100 3098 
10 113 559 129 560 3051 13497 9127 3055 3056 13517 
10 561 564 574 565 3078 13483 13521 3083 3088 13494 
10 562 126 125 109 13515 2426 13474 3063 9121 9120 
10 111 126 127 567 9122 2427 9123 13524 3094 3095 
10 116 570 133 132 13487 3102 9135 9136 3090 2434 
10 90 540 535 549 13350 2984 13405 3011 13406 13357 
10 557 126 111 567 13514 9122 3046 13498 3094 13524 
10 560 130 114 563 13525 9129 3054 3062 13477 3076 
10 131 120 27 115 13512 9133 2432 9119 3057 9118 
10 113 560 129 114 3055 13517 9127 2411 3054 9128 
10 131 120 572 136 13512 13480 3113 3101 9134 3114 
10 573 558 127 567 13513 13491 3115 3127 13520 3095 
10 560 130 563 569 13525 13477 3062 13485 3099 13472 
10 106 122 567 556 9112 3109 13495 3042 13506 13499 
10 558 111 127 567 3049 9123 13491 13520 13524 3095 
10 121 566 122 105 3091 3092 2421 9110 13508 9111 
10 568 559 558 565 13503 3053 13522 13493 3086 3087 
10 567 556 558 557 13499 3084 13520 13498 3069 3050 
10 561 570 116 555 13488 13487 3058 3080 13490 3079 
10 27 115 120 15 9118 3057 9133 2853 2413 2419 
10 561 570 566 574 13488 3106 13523 13521 3126 3131 
10 73 535 534 545 2948 2949 2945 13345 9617 13388 
10 131 120 115 572 13512 3057 9119 3113 13480 13478 
10 561 570 555 566 13488 13490 3080 13523 3106 13516 
10 122 573 567 556 3118 3127 3109 13506 13510 13499 
10 550 539 542 543 13359 2981 13401 13360 2988 2985 
10 557 111 558 567 3046 3049 3050 13498 13524 13520 
10 82 75 91 540 2950 9074 13365 2968 2969 13349 
10 557 110 111 126 3047 2408 3046 13514 9131 9122 
10 571 124 123 107 3107 2423 3111 13476 9115 9114 
10 82 11 91 75 2374 9073 13365 2950 2366 9074 
10 568 128 573 558 3096 3116 3125 13522 13505 13513 
10 559 568 564 565 13503 13492 3074 3086 13493 3088 
10 560 130 569 129 13525 3099 13485 13517 2430 3098 
10 106 557 567 123 3068 13498 13495 9113 13501 3110 
10 573 128 127 558 3116 2428 3115 13513 13505 13491 
10 91 11 82 98 9073 2374 13365 2996 9083 9084 
10 573 568 558 565 3125 13522 13513 13511 13493 3087 
10 560 130 129 114 13525 2430 13517 3054 9129 9128 
10 568 566 574 565 3130 3131 3123 13493 13509 13494 
10 571 557 107 123 13500 3067 13476 3111 13501 9114 
10 14 108 125 109 2405 13479 9117 2406 3045 9120 
10 539 550 542 84 13359 13401 2981 2964 13400 2979 
10 128 559 112 558 13496 3052 9125 13505 3053 3048 
10 124 108 125 26 9116 13479 3093 2424 9108 2425 
10 557 106 107 123 3068 2403 3067 13501 9113 9114 
10 572 115 563 120 13478 3071 13471 13480 3057 3070 
10 564 568 569 574 13492 3100 13481 13483 3123 3120 
10 566 555 565 556 13516 3082 13509 13507 3044 3081 
10 561 555 565 566 3080 3082 3083 13523 13516 13509 
10 80 96 79 541 9095 9090 2371 2972 9614 2975 
10 544 89 534 545 2992 13395 13326 2995 2993 13388 
10 553 542 551 85 13375 13402 3030 13285 2976 13311 
10 542 548 537 547 13384 13397 2978 13372 3006 9608 
10 542 548 547 554 13384 3006 13372 13385 3033 3036 
10 97 82 540 81 9094 2968 13390 9092 2373 2971 
10 548 537 78 79 13397 2954 13373 13374 2955 2370 
10 553 542 547 551 13375 13372 3029 3030 13402 3037 
10 553 538 546 536 13386 13298 3026 13376 2983 13313 
10 99 539 84 550 13363 2964 9101 3013 13359 13400 
10 89 72 544 534 9076 13379 2992 13395 2946 13326 
10 78 93 536 547 9088 13314 2953 9609 3002 9610 
10 2318 360 359 496 9527 2676 13526 9528 9489 9488 
10 359 360 2318 109 2676 9527 13526 9253 9254 9575 
10 496 495 359 2318 2819 9487 9488 9528 9655 13526 
10 2318 495 359 109 9655 9487 13526 9575 9613 9253 
10 514 378 379 81 9506 2697 9511 9737 9235 9236 
10 478 2320 479 30 9710 9721 2801 9338 9660 9337 
10 2320 343 479 142 9711 5924 9721 9722 9202 9592 
10 2320 343 142 18 9711 9202 9722 9661 9201 2445 
10 478 2320 30 18 9710 9660 9338 9557 9661 2856 
10 2321 156 140 139 13527 9152 9624 9625 9151 2442 
10 2321 156 139 155 13527 9151 9625 10829 2461 9150 
10 2321 156 155 135 13527 2461 10829 9736 9432 9433 
10 2321 156 135 140 13527 9432 9736 9624 9152 9555 
10 137 2322 153 31 13528 9628 9146 9143 9629 2458 
10 16 2322 116 137 9633 9634 2414 9289 13528 9291 
10 2322 137 19 31 13528 2439 9693 9629 9143 2854 
10 2322 16 19 137 9633 9288 9693 13528 9289 2439 
10 137 2322 116 153 13528 9634 9291 9146 9628 9521 
10 2321 118 139 119 13409 9293 9625 9623 2417 9294 
10 1827 2323 1667 1826 9686 9696 7191 7193 10973 7189 
10 1827 2323 1826 935 9686 10973 7193 12130 10989 10990 
10 1827 2323 935 936 9686 10989 12130 9689 9688 4302 
10 139 134 118 2321 9697 9142 9293 9625 10801 13409 

CELL_TYPES 6566
24
24
24
24
24
24
24
24
24
24
24
24
24
24
24
24
24
24
24
24
24
24
24
24
24
24
24
24
24
24
24
24
24
24
24
24
24
24
24
24
24
24
24
24
24
24
24
24
24
24
24
24
24
24
24
24
24
24
24
24
24
24
24
24
24
24
24
24
24
24
24
24
24
24
24
24
24
24
24
24
24
24
24
24
24
24
24
24
24
24
24
24
24
24
24
24
24
24
24
24
24
24
24
24
24
24
24
24
24
24
24
24
24
24
24
24
24
24
24
24
24
24
24
24
24
24
24
24
24
24
24
24
24
24
24
24
24
24
24
24
24
24
24
24
24
24
24
24
24
24
24
24
24
24
24
24
24
24
24
24
24
24
24
24
24
24
24
24
24
24
24
24
24
24
24
24
24
24
24
24
24
24
24
24
24
24
24
24
24
24
24
24
24
24
24
24
24
24
24
24
24
24
24
24
24
24
24
24
24
24
24
24
24
24
24
24
24
24
24
24
24
24
24
24
24
24
24
24
24
24
24
24
24
24
24
24
24
24
24
24
24
24
24
24
24
24
24
24
24
24
24
24
24
24
24
24
24
24
24
24
24
24
24
24
24
24
24
24
24
24
24
24
24
24
24
24
24
24
24
24
24
24
24
24
24
24
24
24
24
24
24
24
24
24
24
24
24
24
24
24
24
24
24
24
24
24
24
24
24
24
24
24
24
24
24
24
24
24
24
24
24
24
24
24
24
24
24
24
24
24
24
24
24
24
24
24
24
24
24
24
24
24
24
24
24
24
24
24
24
24
24
24
24
24
24
24
24
24
24
24
24
24
24
24
24
24
24
24
24
24
24
24
24
24
24
24
24
24
24
24
24
24
24
24
24
24
24
24
24
24
24
24
24
24
24
24
24
24
24
24
24
24
24
24
24
24
24
24
24
24
24
24
24
24
24
24
24
24
24
24
24
24
24
24
24
24
24
24
24
24
24
24
24
24
24
24
24
24
24
24
24
24
24
24
24
24
24
24
24
24
24
24
24
24
24
24
24
24
24
24
24
24
24
24
24
24
24
24
24
24
24
24
24
24
24
24
24
24
24
24
24
24
24
24
24
24
24
24
24
24
24
24
24
24
24
24
24
24
24
24
24
24
24
24
24
24
24
24
24
24
24
24
24
24
24
24
24
24
24
24
24
24
24
24
24
24
24
24
24
24
24
24
24
24
24
24
24
24
24
24
24
24
24
24
24
24
24
24
24
24
24
24
24
24
24
24
24
24
24
24
24
24
24
24
24
24
24
24
24
24
24
24
24
24
24
24
24
24
24
24
24
24
24
24
24
24
24
24
24
24
24
24
24
24
24
24
24
24
24
24
24
24
24
24
24
24
24
24
24
24
24
24
24
24
24
24
24
24
24
24
24
24
24
24
24
24
24
24
24
24
24
24
24
24
24
24
24
24
24
24
24
24
24
24
24
24
24
24
24
24
24
24
24
24
24
24
24
24
24
24
24
24
24
24
24
24
24
24
24
24
24
24
24
24
24
24
24
24
24
24
24
24
24
24
24
24
24
24
24
24
24
24
24
24
24
24
24
24
24
24
24
24
24
24
24
24
24
24
24
24
24
24
24
24
24
24
24
24
24
24
24
24
24
24
24
24
24
24
24
24
24
24
24
24
24
24
24
24
24
24
24
24
24
24
24
24
24
24
24
24
24
24
24
24
24
24
24
24
24
24
24
24
24
24
24
24
24
24
24
24
24
24
24
24
24
24
24
24
24
24
24
24
24
24
24
24
24
24
24
24
24
24
24
24
24
24
24
24
24
24
24
24
24
24
24
24
24
24
24
24
24
24
24
24
24
24
24
24
24
24
24
24
24
24
24
24
24
24
24
24
24
24
24
24
24
24
24
24
24
24
24
24
24
24
24
24
24
24
24
24
24
24
24
24
24
24
24
24
24
24
24
24
24
24
24
24
24
24
24
24
24
24
24
24
24
24
24
24
24
24
24
24
24
24
24
24
24
24
24
24
24
24
24
24
24
24
24
24
24
24
24
24
24
24
24
24
24
24
24
24
24
24
24
24
24
24
24
24
24
24
24
24
24
24
24
24
24
24
24
24
24
24
24
24
24
24
24
24
24
24
24
24
24
24
24
24
24
24
24
24
24
24
24
24
24
24
24
24
24
24
24
24
24
24
24
24
24
24
24
24
24
24
24
24
24
24
24
24
24
24
24
24
24
24
24
24
24
24
24
24
24
24
24
24
24
24
24
24
24
24
24
24
24
24
24
24
24
24
24
24
24
24
24
24
24
24
24
24
24
24
24
24
24
24
24
24
24
24
24
24
24
24
24
24
24
24
24
24
24
24
24
24
24
24
24
24
24
24
24
24
24
24
24
24
24
24
24
24
24
24
24
24
24
24
24
24
24
24
24
24
24
24
24
24
24
24
24
24
24
24
24
24
24
24
24
24
24
24
24
24
24
24
24
24
24
24
24
24
24
24
24
24
24
24
24
24
24
24
24
24
24
24
24
24
24
24
24
24
24
24
24
24
24
24
24
24
24
24
24
24
24
24
24
24
24
24
24
24
24
24
24
24
24
24
24
24
24
24
24
24
24
24
24
24
24
24
24
24
24
24
24
24
24
24
24
24
24
24
24
24
24
24
24
24
24
24
24
24
24
24
24
24
24
24
24
24
24
24
24
24
24
24
24
24
24
24
24
24
24
24
24
24
24
24
24
24
24
24
24
24
24
24
24
24
24
24
24
24
24
24
24
24
24
24
24
24
24
24
24
24
24
24
24
24
24
24
24
24
24
24
24
24
24
24
24
24
24
24
24
24
24
24
24
24
24
24
24
24
24
24
24
24
24
24
24
24
24
24
24
24
24
24
24
24
24
24
24
24
24
24
24
24
24
24
24
24
24
24
24
24
24
24
24
24
24
24
24
24
24
24
24
24
24
24
24
24
24
24
24
24
24
24
24
24
24
24
24
24
24
24
24
24
24
24
24
24
24
24
24
24
24
24
24
24
24
24
24
24
24
24
24
24
24
24
24
24
24
24
24
24
24
24
24
24
24
24
24
24
24
24
24
24
24
24
24
24
24
24
24
24
24
24
24
24
24
24
24
24
24
24
24
24
24
24
24
24
24
24
24
24
24
24
24
24
24
24
24
24
24
24
24
24
24
24
24
24
24
24
24
24
24
24
24
24
24
24
24
24
24
24
24
24
24
24
24
24
24
24
24
24
24
24
24
24
24
24
24
24
24
24
24
24
24
24
24
24
24
24
24
24
24
24
24
24
24
24
24
24
24
24
24
24
24
24
24
24
24
24
24
24
24
24
24
24
24
24
24
24
24
24
24
24
24
24
24
24
24
24
24
24
24
24
24
24
24
24
24
24
24
24
24
24
24
24
24
24
24
24
24
24
24
24
24
24
24
24
24
24
24
24
24
24
24
24
24
24
24
24
24
24
24
24
24
24
24
24
24
24
24
24
24
24
24
24
24
24
24
24
24
24
24
24
24
24
24
24
24
24
24
24
24
24
24
24
24
24
24
24
24
24
24
24
24
24
24
24
24
24
24
24
24
24
24
24
24
24
24
24
24
24
24
24
24
24
24
24
24
24
24
24
24
24
24
24
24
24
24
24
24
24
24
24
24
24
24
24
24
24
24
24
24
24
24
24
24
24
24
24
24
24
24
24
24
24
24
24
24
24
24
24
24
24
24
24
24
24
24
24
24
24
24
24
24
24
24
24
24
24
24
24
24
24
24
24
24
24
24
24
24
24
24
24
24
24
24
24
24
24
24
24
24
24
24
24
24
24
24
24
24
24
24
24
24
24
24
24
24
24
24
24
24
24
24
24
24
24
24
24
24
24
24
24
24
24
24
24
24
24
24
24
24
24
24
24
24
24
24
24
24
24
24
24
24
24
24
24
24
24
24
24
24
24
24
24
24
24
24
24
24
24
24
24
24
24
24
24
24
24
24
24
24
24
24
24
24
24
24
24
24
24
24
24
24
24
24
24
24
24
24
24
24
24
24
24
24
24
24
24
24
24
24
24
24
24
24
24
24
24
24
24
24
24
24
24
24
24
24
24
24
24
24
24
24
24
24
24
24
24
24
24
24
24
24
24
24
24
24
24
24
24
24
24
24
24
24
24
24
24
24
24
24
24
24
24
24
24
24
24
24
24
24
24
24
24
24
24
24
24
24
24
24
24
24
24
24
24
24
24
24
24
24
24
24
24
24
24
24
24
24
24
24
24
24
24
24
24
24
24
24
24
24
24
24
24
24
24
24
24
24
24
24
24
24
24
24
24
24
24
24
24
24
24
24
24
24
24
24
24
24
24
24
24
24
24
24
24
24
24
24
24
24
24
24
24
24
24
24
24
24
24
24
24
24
24
24
24
24
24
24
24
24
24
24
24
24
24
24
24
24
24
24
24
24
24
24
24
24
24
24
24
24
24
24
24
24
24
24
24
24
24
24
24
24
24
24
24
24
24
24
24
24
24
24
24
24
24
24
24
24
24
24
24
24
24
24
24
24
24
24
24
24
24
24
24
24
24
24
24
24
24
24
24
24
24
24
24
24
24
24
24
24
24
24
24
24
24
24
24
24
24
24
24
24
24
24
24
24
24
24
24
24
24
24
24
24
24
24
24
24
24
24
24
24
24
24
24
24
24
24
24
24
24
24
24
24
24
24
24
24
24
24
24
24
24
24
24
24
24
24
24
24
24
24
24
24
24
24
24
24
24
24
24
24
24
24
24
24
24
24
24
24
24
24
24
24
24
24
24
24
24
24
24
24
24
24
24
24
24
24
24
24
24
24
24
24
24
24
24
24
24
24
24
24
24
24
24
24
24
24
24
24
24
24
24
24
24
24
24
24
24
24
24
24
24
24
24
24
24
24
24
24
24
24
24
24
24
24
24
24
24
24
24
24
24
24
24
24
24
24
24
24
24
24
24
24
24
24
24
24
24
24
24
24
24
24
24
24
24
24
24
24
24
24
24
24
24
24
24
24
24
24
24
24
24
24
24
24
24
24
24
24
24
24
24
24
24
24
24
24
24
24
24
24
24
24
24
24
24
24
24
24
24
24
24
24
24
24
24
24
24
24
24
24
24
24
24
24
24
24
24
24
24
24
24
24
24
24
24
24
24
24
24
24
24
24
24
24
24
24
24
24
24
24
24
24
24
24
24
24
24
24
24
24
24
24
24
24
24
24
24
24
24
24
24
24
24
24
24
24
24
24
24
24
24
24
24
24
24
24
24
24
24
24
24
24
24
24
24
24
24
24
24
24
24
24
24
24
24
24
24
24
24
24
24
24
24
24
24
24
24
24
24
24
24
24
24
24
24
24
24
24
24
24
24
24
24
24
24
24
24
24
24
24
24
24
24
24
24
24
24
24
24
24
24
24
24
24
24
24
24
24
24
24
24
24
24
24
24
24
24
24
24
24
24
24
24
24
24
24
24
24
24
24
24
24
24
24
24
24
24
24
24
24
24
24
24
24
24
24
24
24
24
24
24
24
24
24
24
24
24
24
24
24
24
24
24
24
24
24
24
24
24
24
24
24
24
24
24
24
24
24
24
24
24
24
24
24
24
24
24
24
24
24
24
24
24
24
24
24
24
24
24
24
24
24
24
24
24
24
24
24
24
24
24
24
24
24
24
24
24
24
24
24
24
24
24
24
24
24
24
24
24
24
24
24
24
24
24
24
24
24
24
24
24
24
24
24
24
24
24
24
24
24
24
24
24
24
24
24
24
24
24
24
24
24
24
24
24
24
24
24
24
24
24
24
24
24
24
24
24
24
24
24
24
24
24
24
24
24
24
24
24
24
24
24
24
24
24
24
24
24
24
24
24
24
24
24
24
24
24
24
24
24
24
24
24
24
24
24
24
24
24
24
24
24
24
24
24
24
24
24
24
24
24
24
24
24
24
24
24
24
24
24
24
24
24
24
24
24
24
24
24
24
24
24
24
24
24
24
24
24
24
24
24
24
24
24
24
24
24
24
24
24
24
24
24
24
24
24
24
24
24
24
24
24
24
24
24
24
24
24
24
24
24
24
24
24
24
24
24
24
24
24
24
24
24
24
24
24
24
24
24
24
24
24
24
24
24
24
24
24
24
24
24
24
24
24
24
24
24
24
24
24
24
24
24
24
24
24
24
24
24
24
24
24
24
24
24
24
24
24
24
24
24
24
24
24
24
24
24
24
24
24
24
24
24
24
24
24
24
24
24
24
24
24
24
24
24
24
24
24
24
24
24
24
24
24
24
24
24
24
24
24
24
24
24
24
24
24
24
24
24
24
24
24
24
24
24
24
24
24
24
24
24
24
24
24
24
24
24
24
24
24
24
24
24
24
24
24
24
24
24
24
24
24
24
24
24
24
24
24
24
24
24
24
24
24
24
24
24
24
24
24
24
24
24
24
24
24
24
24
24
24
24
24
24
24
24
24
24
24
24
24
24
24
24
24
24
24
24
24
24
24
24
24
24
24
24
24
24
24
24
24
24
24
24
24
24
24
24
24
24
24
24
24
24
24
24
24
24
24
24
24
24
24
24
24
24
24
24
24
24
24
24
24
24
24
24
24
24
24
24
24
24
24
24
24
24
24
24
24
24
24
24
24
24
24
24
24
24
24
24
24
24
24
24
24
24
24
24
24
24
24
24
24
24
24
24
24
24
24
24
24
24
24
24
24
24
24
24
24
24
24
24
24
24
24
24
24
24
24
24
24
24
24
24
24
24
24
24
24
24
24
24
24
24
24
24
24
24
24
24
24
24
24
24
24
24
24
24
24
24
24
24
24
24
24
24
24
24
24
24
24
24
24
24
24
24
24
24
24
24
24
24
24
24
24
24
24
24
24
24
24
24
24
24
24
24
24
24
24
24
24
24
24
24
24
24
24
24
24
24
24
24
24
24
24
24
24
24
24
24
24
24
24
24
24
24
24
24
24
24
24
24
24
24
24
24
24
24
24
24
24
24
24
24
24
24
24
24
24
24
24
24
24
24
24
24
24
24
24
24
24
24
24
24
24
24
24
24
24
24
24
24
24
24
24
24
24
24
24
24
24
24
24
24
24
24
24
24
24
24
24
24
24
24
24
24
24
24
24
24
24
24
24
24
24
24
24
24
24
24
24
24
24
24
24
24
24
24
24
24
24
24
24
24
24
24
24
24
24
24
24
24
24
24
24
24
24
24
24
24
24
24
24
24
24
24
24
24
24
24
24
24
24
24
24
24
24
24
24
24
24
24
24
24
24
24
24
24
24
24
24
24
24
24
24
24
24
24
24
24
24
24
24
24
24
24
24
24
24
24
24
24
24
24
24
24
24
24
24
24
24
24
24
24
24
24
24
24
24
24
24
24
24
24
24
24
24
24
24
24
24
24
24
24
24
24
24
24
24
24
24
24
24
24
24
24
24
24
24
24
24
24
24
24
24
24
24
24
24
24
24
24
24
24
24
24
24
24
24
24
24
24
24
24
24
24
24
24
24
24
24
24
24
24
24
24
24
24
24
24
24
24
24
24
24
24
24
24
24
24
24
24
24
24
24
24
24
24
24
24
24
24
24
24
24
24
24
24
24
24
24
24
24
24
24
24
24
24
24
24
24
24
24
24
24
24
24
24
24
24
24
24
24
24
24
24
24
24
24
24
24
24
24
24
24
24
24
24
24
24
24
24
24
24
24
24
24
24
24
24
24
24
24
24
24
24
24
24
24
24
24
24
24
24
24
24
24
24
24
24
24
24
24
24
24
24
24
24
24
24
24
24
24
24
24
24
24
24
24
24
24
24
24
24
24
24
24
24
24
24
24
24
24
24
24
24
24
24
24
24
24
24
24
24
24
24
24
24
24
24
24
24
24
24
24
24
24
24
24
24
24
24
24
24
24
24
24
24
24
24
24
24
24
24
24
24
24
24
24
24
24
24
24
24
24
24
24
24
24
24
24
24
24
24
24
24
24
24
24
24
24
24
24
24
24
24
24
24
24
24
24
24
24
24
24
24
24
24
24
24
24
24
24
24
24
24
24
24
24
24
24
24
24
24
24
24
24
24
24
24
24
24
24
24
24
24
24
24
24
24
24
24
24
24
24
24
24
24
24
24
24
24
24
24
24
24
24
24
24
24
24
24
24
24
24
24
24
24
24
24
24
24
24
24
24
24
24
24
24
24
24
24
24
24
24
24
24
24
24
24
24
24
24
24
24
24
24
24
24
24
24
24
24
24
24
24
24
24
24
24
24
24
24
24
24
24
24
24
24
24
24
24
24
24
24
24
24
24
24
24
24
24
24
24
24
24
24
24
24
24
24
24
24
24
24
24
24
24
24
24
24
24
24
24
24
24
24
24
24
24
24
24
24
24
24
24
24
24
24
24
24
24
24
24
24
24
24
24
24
24
24
24
24
24
24
24
24
24
24
24
24
24
24
24
24
24
24
24
24
24
24
24
24
24
24
24
24
24
24
24
24
24
24
24
24
24
24
24
24
24
24
24
24
24
24
24
24
24
24
24
24
24
24
24
24
24
24
24
24
24
24
24
24
24
24
24
24
24
24
24
24
24
24
24
24
24
24
24
24
24
24
24
24
24
24
24
24
24
24
24
24
24
24
24
24
24
24
24
24
24
24
24
24
24
24
24
24
24
24
24
24
24
24
24
24
24
24
24
24
24
24
24
24
24
24
24
24
24
24
24
24
24
24
24
24
24
24
24
24
24
24
24
24
24
24
24
24
24
24
24
24
24
24
24
24
24
24
24
24
24
24
24
24
24
24
24
24
24
24
24
24
24
24
24
24
24
24
24
24
24
24
24
24
24
24
24
24
24
24
24
24
24
24
24
24
24
24
24
24
24
24
24
24
24
24
24
24
24
24
24
24
24
24
24
24
24
24
24
24
24
24
24
24
24
24
24
24
24
24
24
24
24
24
24
24
24
24
24
24
24
24
24
24
24
24
24
24
24
24
24
24
24
24
24
24
24
24
24
24
24
24
24
24
24
24
24
24
24
24
24
24
24
24
24
24
24
24
24
24
24
24
24
24
24
24
24
24
24
24
24
24
24
24
24
24
24
24
24
24
24
24
24
24
24
24
24
24
24
24
24
24
24
24
24
24
24
24
24
24
24
24
24
24
24
24
24
24
24
24
24
24
24
24
24
24
24
24
24
24
24
24
24
24
24
24
24
24
24
24
24
24
24
24
24
24
24
24
24
24
24
24
24
24
24
24
24
24
24
24
24
24
24
24
24
24
24
24
24
24
24
24
24
24
24
24
24
24
24
24
24
24
24
24
24
24
24
24
24
24
24
24
24
24
24
24
24
24
24
24
24
24
24
24
24
24
24
24
24
24
24
24
24
24
24
24
24
24
24
24
24
24
24
24
24
24
24
24
24
24
24
24
24
24
24
24
24
24
24
24
24
24
24
24
24
24
24
24
24
24
24
24
24
24
24
24
24
24
24
24
24
24
24
24
24
24
24
24
24
24
24
24
24
24
24
24
24
24
24
24
24
24
24
24
24
24
24
24
24
24
24
24
24
24
24
24
24
24
24
24
24
24
24
24
24
24
24
24
24
24
24
24
24
24
24
24
24
24
24
24
24
24
24
24
24
24
24
24
24
24
24
24
24
24
24
24
24
24
24
24
24
24
24
24
24
24
24
24
24
24
24
24
24
24
24
24
24
24
24
24
24
24
24
24
24
24
24
24
24
24
24
24
24
24
24
24
24
24
24
24
24
24
24
24
24
24
24
24
24
24
24
24
24
24
24
24
24
24
24
24
24
24
24
24
24
24
24
24
24
24
24
24
24
24
24
24
24
24
24
24
24
24
24
24
24
24
24
24
24
24
24
24
24
24
24
24
24
24
24
24
24
24
24
24
24
24
24
24
24
24
24
24
24
24
24
24
24
24
24
24
24
24
24
24
24
24
24
24
24
24
24
24
24
24
24
24
24
24
24
24
24
24
24
24
24
24
24
24
24
24
24
24
24
24
24
24
24
24
24
24
24
24
24
24
24
24
24
24
24
24
24
24
24
24
24
24
24
24
24
24
24
24
24
24
24
24
24
24
24
24
24
24
24
24
24
24
24
24
24
24
24
24
24
24
24
24
24
24
24
24
24
24
24
24
24
24
24
24
24
24
24
24
24
24
24
24
24
24
24
24
24
24
24
24
24
24
24
24
24
24
24
24
24
24
24
24
24
24
24
24
24
24
24
24
24
24
24
24
24
24
24
24
24
24
24
24
24
24
24
24
24
24
24
24
24
24
24
24
24
24
24
24
24
24
24
24
24
24
24
24
24
24
24
24
24
24
24
24
24
24
24
24
24
24
24
24
24
24
24
24
24
24
24
24
24
24
24
24
24
24
24
24
24
24
24
24
24
24
24
24
24
24
24
24
24
24
24
24
24
24
24
24
24
24
24
24
24
24
24
24
24
24
24
24
24
24
24
24
24
24
24
24
24
24
24
24
24
24
24
24
24
24
24
24
24
24
24
24
24
24
24
24
24
24
24
24
24
24
24
24
24
24
24
24
24
24
24
24
24
24
24
24
24
24
24
24
24
24
24
24
24
24
24
24
24
24
24
24
24
24
24
24
24
24
24
24
24
24
24
24
24
24
24
24
24
24
24
24
24
24
24
24
24
24
24
24
24
24
24
24
24
24
24
24
24
24
24
24
24
24
24
24
24
24
24
24
24
24
24
24
24
24
24
24
24
24
24
24
24
24
24
24
24
24
24
24
24
24
24
24
24
24
24
24
24
24
24
24
24
24
24
24
24
24
24
24
24
24
24
24
24
24
24
24
24
24
24
24
24
24
24
24
24
24
24
24
24
24
24
24
24
24
24
24
24
24
24
24
24
24
24
24
24
24
24
24
24
24
24
24
24
24
24
24
24
24
24
24
24
24
24
24
24
24
24
24
24
24
24
24
24
24
24
24
24
24
24
24
24
24
24
24
24
24
24
24
24
24
24
24
24
24
24
24
24
24
24
24
24
24
24
24
24
24
24
24
24
24
24
24
24
24
24
24
24
24
24
24
24
24
24
24
24
24
24
24
24
24
24
24
24
24
24
24
24
24
24
24
24
24
24
24
24
24
24
24
24
24
24
24
24
24
24
24
24
24
24
24
24
24
24
24
24
24
24
24
24
24
24
24
24
24
24
24
24
24
24
24
24
24
24
24
24
24
24
24
24
24
24
24
24
24
24
24
24
24
24
24
24
24
24
24
24
24
24
24
24
24
24
24
24
24
24
24
24
24
24
24
24
24
24
24
24
24
24
24
24
24
24
24
24
24
24
24
24
24
24
24
24
24
24
24
24
24
24
24
24
24
24
24
24
24
24
24
24
24
24
24
24
24
24
24
24
24
24
24
24
24
24
24
24
24
24
24
24
24
24
24
24
24
24
24
24
24
24
24
24
24
24
24
24
24
24
24
24
24
24
24
24
24
24
24
24
24
24
24
24
24
24
24
24
24
24
24
24
24
24
24
24
24
24
24
24
24
24
24
24
24
24
24
24
24
24
24
24
24
24
24
24
24
24
24
24
24
24
24
24
24
24
24
24
24
24
24
24
24
24
24
24
24
24
24
24
24
24
24
24
24
24
24
24
24
24
24
24
24
24
24
24
24
24
24
24
24
24
24
24
24
24
24
24
24
24
24
24
24
24
24
24
24
24
24
24
24
24
24
24
24
24
24
24
24
24
24
24
24
24
24
24
24
24
24
24
24
24
24
24
24
24
24
24
24
24
24
24
24
24
24
24
24
24
24
24
24
24
24
24
24
24
24
24
24
24
24
24
24
24
24
24
24
24
24
24
24
24
24
24
24
24
24
24
24
24
24
24
24
24
24
24
24
24
24
24
24
24
24
24
24
24
24
24
24
24
24
24
24
24
24
24
24
24
24
24
24
24
24
24
24
24
24
24
24
24
24
24
24
24
24
24
24
24
24
24
24
24
24
24
24
24
24
24
24
24
24
24
24
24
24
24
24
24
24
24
24
24
24
24
24
24
24
24
24
24
24
24
24
24
24
24
24
24
24
24
24
24
24
24
24
24
24
24
24
24
24
24
24
24
24
24
24
24
24
24
24
24
24
24
24
24
24
24
24
24
24
24
24
24
24
24
24
24
24
24
24
24
24
24
24
24
24
24
24
24
24
24
24
24
24
24
24
24
24
24
24
24
24
24
24
24
24
24
24
24
24
24
24
24
24
24
24
24
24
24
24
24
24
24
24
24
24
24
24
24
24
24
24
24
24
24
24
24
24
24
24
24
24
24
24
24
24
24
24
24
24
24
24
24
24
24
24
24
24
24
24
24
24
24
24
24
24
24
24
24
24
24
24
24
24
24
24
24
24
24
24
24
24
24
24
24
24
24
24
24
24
24
24
24
24
24
24
24
24
24
24
24
24
24
24
24
24
24
24
24
24
24
24
24
24
24
24
24
24
24
24
24
24
24
24
24
24
24
24
24
24
24
24
24
24
24
24
24
24
24
24
24
24
24
24
24
24
24
24
24
24
24
24
24
24
24
24
24
24
24
24
24
24
24
24
24
24
24
24
24
24
24
24
24
24
24
24
24
24
24
24
24
24
24
24
24
24
24
24
24
24
24
24
24
24
24
24
24
24
24
24
24
24
24
24
24
24
24
24
24
24
24
24
24
24
24
24
24
24
24
24
24
24
24
24
24
24
24
24
24
24
24
24
24
24
24
24
24
24
24
24
24
24
24
24
24
24
24
24
24
24
24
24
24
24
24
24
24
24
24
24
24
24
24
24
24
24
24
24
24
24
24
24
24
24
24
24
24
24
24
24
24
24
24
24
24
24
24
24
24
24
24
24
24
24
24
24
24
24
24
24
24
24
24
24
24
24
24
24
24
24
24
24
24
24
24
24
24
24
24
24
24
24
24
24
24
24
24
24
24
24
24
24
24
24
24
24
24
24
24
24
24
24
24
24
24
24
24
24
24
24
24
24
24
24
24
24
24
24
24
24
24
24
24
24
24
24
24
24
24
24
24
24
24
24
24
24
24
24
24
24
24
24
24
24
24
24
24
24
24
24
24
24
24
24
24
24
24
24
24
24
24
24
24
24
24
24
24
24
24
24
24
24
24
24
24
24
24
24
24
24
24
24
24
24
24
24
24
24
24
24
24
24
24
24
24
24
24
24
24
24
24
24
24
24
24
24
24
24
24
24
24
24
24
24
24
24
24
24
24
24
24
24
24
24
24
24
24
24
24
24
24
24
24
24
24
24
24
24
24
24
24
24
24
24
24
24
24
24
24
24
24
24
24
24
24
24
24
24
24
24
24
24
24
24
24
24
24
24
24
24
24
24
24
24
24
24
24
24
24
24
24
24
24
24
24
24
24
24
24
24
24
24
24
24
24
24
24
24
24
24
24
24
24
24
24
24
24
24
24
24
24
24
24
24
24
24
24
24
24
24
24
24
24
24
24
24
24
24
24
24
24
24
24
24
24
24
24
24
24
24
24
24
24
24
24
24
24
24
24
24
24
24
24
24
24
24
24
24
24
24
24
24
24
24
24
24
24
24
24
24
24
24
24
24
24
24
24
24
24
24
24
24
24
24
24
24
24
24
24
24
24
24
24
24
24
24
24
24
24
24
24
24
24
24
24
24
24
24
24
24
24
24
24
24
24
24
24
24
24
24
24
24
24
24
24
24
24
24
24
24
24
24
24
24
24
24
24
24
24
24
24
24
24
24
24
24
24
24
24
24
24
24
24
24
24
24
24
24
24
24
24
24
24
24
24
24
24
24
24
24
24
24
24
24
24
24
24
24
24
24
24
24
24
24
24
24
24
24
24
24
24
24
24
24
24
24
24
24
24
24
24
24
24
24
24
24
24
24
24
24
24
24
24
24
24
24
24
24
24
24
24
24
24
24
24
24
24
24
24
24
24
24
24
24
24
24
24
24
24
24
24
24
24
24
24
24
24
24
24
24
24
24
24
24
24
24
24
24
24
24
24
24
24
24
24
24
24
24
24
24
24
24
24
24
24
24
24
24
24
24
24
24
24
24
24
24
24
24
24
24
24
24
24
24
24
24
24
24
24
24
24
24
24
24
24
24
24
24
24
24
24
24
24
24
24
24
24
24
24
24
24
24
24
24
24
24
24
24
24
24
24
24
24
24
24
24
24
24
24
24
24
24
24
24
24
24
24
24
24
24
24
24
24
24
24
24
24
24
24
24
24
24
24
24
24
24
24
24
24
24
24
24
24
24
24
24
24
24
24
24
24
24
24
24
24
24
24
24
24
24
24
24
24
24
24
24
24
24
24
24
24
24
24
24
24
24
24
24
24
24
24
24
24
24
24
24
24
24
24
24
24
24
24
24
24
24
24
24
24
24
24
24
24
24
24
24
24
24
24
24
24
24
24
24
24
24
24
24
24
24
24
24
24
24
24
24
24
24
24
24
24
24
24
24
24
24
24
24
24
24
24
24
24
24
24
24
24
24
24
24
24
24
24
24
24
24
24
24
24
24
24
24
24
24
24
24
24
24
24
24
24
24
24
24
24
24
24
24
24
24
24
24
24
24
24
24
24
24
24
24
24
24
24
24
24
24
24
24
24
24
24
24
24
24
24
24
24
24
24
24
24
24
24
24
24
24
24
24
24
24
24
24
24
24
24
24
24
24
24
24
24
24
24
24
24
24
24
24
24
24
24
24
24
24
24
24
24
24
24
24
24
24
24
24
24
24
24
24
24
24
24
24
24
24
24
24
24
24
24
24
24
24
24
24
24
24
24
24
24
24
24
24
24
24
24
24
24
24
24
24
24
24
24
24
24
24
24
24
24
24
24

POINT_DATA 13529
FIELD FieldData 19
Displacement 3 13529 double
0 0 0 0 0 0 0 0 0 
0 0 0 -4.92353 28.9863 -0.300881 -4.92443 28.9846 -0.0546713 
3.99514 28.3921 -0.269887 3.9939 28.3902 -0.0236604 0.0670205 14.9622 -0.151637 
0.891251 13.2672 -0.11303 0.163479 13.2949 -0.130581 -0.738521 13.3576 -0.14053 
-0.00478396 14.978 -0.146185 -0.00513415 13.2953 -0.138183 0.896688 13.0686 -0.115692 
0.176617 11.3622 -0.11873 0.157656 13.0617 -0.137925 0.108378 11.3657 -0.117856 
-0.727368 13.1698 -0.139254 0.0114737 13.0693 -0.140712 0.0680225 14.9634 -0.0892987 
0.892501 13.2531 -0.0601622 0.150355 13.2937 -0.0731419 -0.733707 13.3561 -0.089497 
-0.00316073 14.9632 -0.0900368 -0.0032894 13.2978 -0.0780302 0.905895 13.0716 -0.0559745 
0.173825 11.3658 -0.0535553 0.169182 13.0642 -0.0618683 0.106608 11.3619 -0.0560524 
-0.733235 13.1569 -0.0830532 -0.00113745 13.0629 -0.0714945 0.965092 13.1656 -0.10278 
0.967437 13.1688 -0.0725537 0.0153176 15.2296 -0.239217 0.0150046 15.236 -0.00599741 
0.151663 11.0893 -0.187191 0.144983 11.0695 0.026758 -0.802554 13.2907 -0.131589 
-0.807462 13.2913 -0.101894 0.12294 13.6063 -0.161391 0.117391 13.8899 -0.164438 
0.108934 14.1612 -0.165204 0.098164 14.444 -0.167692 0.0812588 14.7029 -0.169858 
0.108983 14.9819 -0.142566 0.191332 14.8815 -0.146982 0.297846 14.7147 -0.143491 
0.425142 14.4865 -0.139305 0.572505 14.2167 -0.138929 0.728303 13.9119 -0.136081 
0.866821 13.5959 -0.139512 0.282753 13.2201 -0.101324 0.400751 13.2134 -0.0912085 
0.511203 13.2222 -0.0983173 0.625652 13.2223 -0.0921485 0.746601 13.2188 -0.0882089 
0.119425 13.6593 -0.0333153 0.109335 14.0333 -0.0392486 0.0953842 14.374 -0.0432704 
0.0800335 14.6877 -0.0530092 0.101881 14.9845 -0.103724 0.187643 14.8799 -0.0970634 
0.295607 14.708 -0.0884262 0.422417 14.4919 -0.0782621 0.557157 14.2389 -0.0725141 
0.713397 13.9374 -0.0640698 0.869467 13.5713 -0.0501466 0.290063 13.2127 -0.099025 
0.444217 13.2172 -0.0945573 0.597784 13.2186 -0.0904191 0.74337 13.218 -0.0848539 
-0.154235 13.2346 -0.114662 -0.299355 13.2579 -0.112957 -0.433859 13.2781 -0.112815 
-0.577523 13.2976 -0.116648 -0.0275307 15.0088 -0.13177 -0.0978188 14.9219 -0.135878 
-0.200246 14.7542 -0.138649 -0.316962 14.5441 -0.14259 -0.454966 14.2848 -0.148016 
-0.598323 13.9947 -0.149285 -0.727982 13.6834 -0.158267 0.0205696 13.6156 -0.166834 
0.0118741 13.8956 -0.167538 0.00507588 14.1868 -0.1684 0.000524119 14.4605 -0.169887 
-0.000148501 14.7256 -0.172575 -0.153408 13.2345 -0.107811 -0.295912 13.2562 -0.109121 
-0.431381 13.2746 -0.111683 -0.583946 13.2975 -0.111458 -0.0297633 15.0074 -0.0986701 
-0.102717 14.9151 -0.0923211 -0.202175 14.7551 -0.0858532 -0.318878 14.5454 -0.0834945 
-0.454711 14.2863 -0.0805302 -0.606122 13.9795 -0.0740239 -0.736782 13.6604 -0.0658472 
0.0180369 13.6253 -0.0372078 0.00846297 13.8945 -0.0414351 0.00236543 14.182 -0.0453467 
-0.00273468 14.4525 -0.0501385 -0.000982362 14.7269 -0.0538558 0.279658 13.144 -0.0867456 
0.394356 13.123 -0.0985863 0.513731 13.1251 -0.090204 0.647155 13.1217 -0.0886583 
0.765812 13.1245 -0.0862014 0.893724 12.7406 -0.134933 0.771494 12.4237 -0.126969 
0.636574 12.1305 -0.124419 0.50033 11.8578 -0.122495 0.381928 11.6321 -0.119506 
0.281883 11.4566 -0.114632 0.199896 11.3413 -0.105809 0.147324 12.7416 -0.162268 
0.162004 12.4571 -0.158506 0.170112 12.156 -0.154547 0.175753 11.8849 -0.150986 
0.173073 11.6077 -0.147899 0.306012 13.1281 -0.0994651 0.445142 13.1189 -0.0892726 
0.601597 13.1173 -0.0900342 0.74492 13.1161 -0.0853965 0.893943 12.7472 -0.0409868 
0.767661 12.4149 -0.0507562 0.61189 12.0865 -0.0556001 0.481171 11.8227 -0.0605213 
0.364147 11.6 -0.0645837 0.265654 11.4289 -0.0685941 0.198702 11.3387 -0.068697 
0.142717 12.757 -0.0325283 0.158317 12.4504 -0.0319137 0.168219 12.1628 -0.0295596 
0.173536 11.8702 -0.0269332 0.17723 11.6132 -0.029048 0.0456351 12.7615 -0.169255 
0.0542418 12.4602 -0.161553 0.0692627 12.1449 -0.157726 0.0814539 11.8628 -0.150735 
0.0994288 11.6075 -0.14793 -0.709906 12.8355 -0.149239 -0.57602 12.4941 -0.140939 
-0.415912 12.1721 -0.13129 -0.259508 11.8796 -0.126216 -0.127303 11.6428 -0.120892 
-0.00914083 11.4523 -0.115129 0.0733046 11.3458 -0.107013 -0.135828 13.1443 -0.107874 
-0.277731 13.1584 -0.108904 -0.426704 13.1758 -0.110234 -0.571027 13.1935 -0.11273 
0.0397534 12.7519 -0.0369545 0.0523313 12.4558 -0.0341827 0.065182 12.1579 -0.0309556 
0.0797154 11.8769 -0.0289384 0.0963179 11.6096 -0.0287569 -0.717254 12.834 -0.0539851 
-0.574287 12.4862 -0.0633878 -0.410423 12.16 -0.0629068 -0.252545 11.8621 -0.0637964 
-0.108511 11.609 -0.0651379 0.000122038 11.4346 -0.0679109 0.0791602 11.3384 -0.0737621 
-0.10935 13.1474 -0.1118 -0.222769 13.1549 -0.108348 -0.344726 13.1644 -0.105255 
-0.468333 13.1793 -0.110661 -0.590457 13.1991 -0.112802 0 0 0 
0 0 0 0 0 0 0 0 0 
0 0 0 0 0 0 0 0 0 
0 0 0 0 0 0 0 0 0 
0 0 0 0 0 0 0 0 0 
0 0 0 0 0 0 0 0 0 
0 0 0 0 0 0 0 0 0 
0 0 0 0 0 0 0 0 0 
0 0 0 0 0 0 0 0 0 
0 0 0 0 0 0 0 0 0 
0 0 0 0 0 0 0 0 0 
0 0 0 0 0 0 0 0 0 
0 0 0 0 0 0 0 0 0 
0 0 0 0 0 0 0 0 0 
0 0 0 0 0 0 0 0 0 
0 0 0 0 0 0 0 0 0 
0 0 0 0 0 0 0 0 0 
0 0 0 0 0 0 0 0 0 
0 0 0 3.73146 28.3564 -0.271205 3.48418 28.3209 -0.272302 
3.20356 28.2766 -0.273219 2.94375 28.2315 -0.273583 2.66247 28.1801 -0.27368 
2.37442 28.1263 -0.27354 2.09628 28.0756 -0.273334 1.78373 28.0221 -0.273009 
1.45303 27.9719 -0.272672 1.15158 27.9337 -0.272509 0.814629 27.901 -0.272385 
0.500956 27.8811 -0.272487 0.183218 27.8723 -0.272853 -0.126948 27.8751 -0.273584 
-0.468238 27.8915 -0.274602 -0.808596 27.9218 -0.275807 -1.12655 27.9625 -0.277341 
-1.47959 28.0214 -0.27937 -1.77844 28.0818 -0.281328 -2.09978 28.1566 -0.283515 
-2.45015 28.2486 -0.286106 -2.7288 28.3281 -0.288252 -3.02713 28.4178 -0.290536 
-3.30968 28.5058 -0.292665 -3.57779 28.5903 -0.294644 -3.84088 28.6728 -0.29639 
-4.10808 28.7546 -0.297927 -4.35659 28.828 -0.299055 -4.63589 28.9072 -0.300057 
0.996139 1.12826 -0.121187 1.59125 1.7994 -0.10803 2.07614 2.43887 -0.109678 
2.42471 2.97581 -0.115338 2.72219 3.51388 -0.120661 2.99285 4.10748 -0.125069 
3.17626 4.61515 -0.129536 3.3219 5.1402 -0.134275 3.42852 5.68546 -0.139365 
3.48672 6.15912 -0.143997 3.51642 6.65797 -0.148779 3.51544 7.20903 -0.153949 
3.48495 7.74302 -0.159258 3.42352 8.33646 -0.165301 3.35008 8.86755 -0.170839 
3.2674 9.38541 -0.176212 3.16758 9.97098 -0.182139 3.06525 10.5747 -0.188173 
2.97259 11.1691 -0.193999 2.88955 11.8104 -0.199819 2.8322 12.4378 -0.204359 
2.80175 13.1068 -0.208221 2.80601 13.8107 -0.211449 2.8438 14.4811 -0.213049 
2.91189 15.1727 -0.214041 2.99618 15.8224 -0.214904 3.08684 16.4317 -0.215959 
3.18617 17.0598 -0.217313 3.28034 17.6512 -0.218924 3.37438 18.2646 -0.221021 
3.45323 18.8187 -0.22333 3.5277 19.399 -0.225878 3.59834 20.0352 -0.228914 
3.65248 20.6186 -0.232024 3.69917 21.2343 -0.235516 3.74112 21.9415 -0.239762 
3.76898 22.5428 -0.243334 3.79179 23.1514 -0.246925 3.81311 23.8266 -0.250789 
3.83119 24.4508 -0.254221 3.84886 25.0517 -0.257347 3.87151 25.7495 -0.260717 
3.89585 26.3917 -0.263411 3.92584 27.068 -0.265942 3.95692 27.684 -0.267869 
-4.84915 28.3091 -0.298985 -4.77984 27.6624 -0.297065 -4.71379 27.0165 -0.294853 
-4.65132 26.3731 -0.292328 -4.59188 25.7333 -0.289545 -4.52635 25.008 -0.286164 
-4.46697 24.3492 -0.282964 -4.40104 23.6377 -0.279431 -4.34372 23.0503 -0.276474 
-4.27985 22.4387 -0.273429 -4.20762 21.8029 -0.27044 -4.12151 21.1138 -0.267324 
-4.03929 20.5133 -0.264785 -3.95062 19.9135 -0.262406 -3.8559 19.313 -0.260345 
-3.74166 18.6234 -0.258313 -3.63856 18.0152 -0.256685 -3.5351 17.401 -0.255112 
-3.43447 16.7795 -0.253639 -3.33641 16.1196 -0.251974 -3.25447 15.4813 -0.250102 
-3.18609 14.805 -0.247354 -3.14001 14.1235 -0.243816 -3.11947 13.4722 -0.239568 
-3.12433 12.7629 -0.233445 -3.15145 12.1239 -0.226775 -3.1937 11.5265 -0.21963 
-3.25596 10.8552 -0.210981 -3.31955 10.2581 -0.202603 -3.38951 9.62176 -0.193262 
-3.44774 9.05579 -0.18477 -3.49577 8.50295 -0.17619 -3.53051 7.93617 -0.167211 
-3.54459 7.40511 -0.158776 -3.53339 6.80754 -0.14937 -3.49603 6.29101 -0.141036 
-3.42961 5.77797 -0.132648 -3.32536 5.24201 -0.123633 -3.18097 4.70472 -0.114692 
-2.98134 4.13748 -0.105569 -2.73718 3.5851 -0.0963801 -2.44744 3.04177 -0.0865536 
-2.08993 2.47316 -0.0764369 -1.61918 1.83167 -0.0680212 -1.04875 1.18471 -0.0787136 
-0.773022 13.2191 -0.134074 -0.683111 13.0763 -0.142177 -0.516001 12.7735 -0.138951 
-0.360281 12.4521 -0.136185 -0.219057 12.1436 -0.133189 -0.0964073 11.8667 -0.129505 
0.00815536 11.6179 -0.124673 0.0785727 11.4214 -0.120505 0.0983499 11.2952 -0.117971 
0.10402 11.2448 -0.121481 0.18361 11.2393 -0.119269 0.183351 11.2821 -0.119305 
0.198855 11.4095 -0.120775 0.261028 11.6017 -0.123807 0.354324 11.842 -0.125749 
0.465268 12.11 -0.126903 0.587739 12.3946 -0.125783 0.730518 12.7125 -0.127713 
0.877384 12.9825 -0.120059 0.93737 13.1024 -0.113846 0.923397 13.2329 -0.112266 
0.841382 13.3681 -0.129895 0.679383 13.6458 -0.142612 0.52647 13.9617 -0.145305 
0.384228 14.2669 -0.148311 0.263818 14.5347 -0.150232 0.169693 14.7511 -0.154267 
0.100542 14.9242 -0.155639 0.0747852 15.028 -0.15122 0.0614854 15.0906 -0.164287 
-0.0155964 15.1015 -0.159755 -0.0151611 15.0624 -0.148208 -0.0282009 14.957 -0.148591 
-0.0887052 14.7866 -0.147086 -0.17401 14.5697 -0.151093 -0.285502 14.3151 -0.151819 
-0.407024 14.0431 -0.153628 -0.554625 13.7291 -0.154374 -0.701037 13.4697 -0.149522 
-0.776043 13.3444 -0.139733 3.72248 28.3535 -0.0248424 3.40303 28.307 -0.0264513 
3.05677 28.2499 -0.0287809 2.73639 28.1922 -0.0313565 2.38192 28.1262 -0.0344463 
2.01566 28.0598 -0.0377698 1.60007 27.9916 -0.0414627 1.15056 27.9319 -0.0451355 
0.75512 27.8947 -0.0479002 0.371282 27.8744 -0.0501582 -0.107873 27.8728 -0.0523549 
-0.549311 27.8956 -0.0536686 -0.978765 27.9403 -0.0543127 -1.38294 28.002 -0.0544958 
-1.77932 28.08 -0.0543178 -2.20303 28.1807 -0.0538053 -2.60459 28.29 -0.0531752 
-2.97583 28.4001 -0.0525981 -3.3528 28.5173 -0.0522099 -3.70251 28.6275 -0.0520538 
-4.03641 28.7309 -0.0522093 -4.35739 28.8263 -0.0527708 -4.66869 28.9142 -0.0537781 
1.00358 1.08238 0.212692 1.76302 1.99777 0.128638 2.29426 2.75488 0.0994405 
2.68513 3.43068 0.0821913 3.03263 4.19852 0.06808 3.24911 4.84917 0.0591347 
3.40167 5.51506 0.0515348 3.48312 6.10734 0.0460724 3.51892 6.72571 0.0414431 
3.50377 7.47142 0.0374649 3.44692 8.13396 0.035162 3.35365 8.83895 0.0339266 
3.24497 9.51436 0.0335717 3.13902 10.1312 0.0341505 3.0282 10.7967 0.035242 
2.91668 11.5728 0.0365553 2.83535 12.3754 0.0372092 2.79853 13.2266 0.0359048 
2.81521 14.0527 0.0322624 2.87508 14.8407 0.0269674 2.96658 15.6142 0.0208412 
3.07669 16.3714 0.0145955 3.21648 17.2548 0.00786885 3.33531 18.0115 0.00262767 
3.4406 18.7331 -0.00164411 3.53303 19.4518 -0.00508787 3.61613 20.2269 -0.00799332 
3.67992 20.9795 -0.0100692 3.7323 21.7971 -0.011731 3.76775 22.5407 -0.0128721 
3.79257 23.2078 -0.0137037 3.81711 24.0023 -0.0145515 3.83956 24.7787 -0.015429 
3.86107 25.4738 -0.0163714 3.88972 26.2673 -0.0177851 3.92315 27.0353 -0.0195359 
3.96071 27.7744 -0.0217428 -4.84999 28.3073 -0.0526317 -4.7614 27.4758 -0.0502242 
-4.68146 26.6772 -0.0484061 -4.60941 25.9138 -0.0469658 -4.52985 25.0362 -0.0455644 
-4.45961 24.258 -0.0443975 -4.37924 23.4002 -0.0431088 -4.30548 22.6692 -0.0418622 
-4.21186 21.8297 -0.0401068 -4.1148 21.0544 -0.0380354 -4.01126 20.3111 -0.0355152 
-3.88431 19.4824 -0.0320572 -3.75218 18.6785 -0.0279518 -3.62451 17.9253 -0.0233833 
-3.49699 17.1624 -0.0181849 -3.38494 16.4477 -0.0128231 -3.27717 15.6612 -0.006703 
-3.19199 14.8631 -0.000595756 -3.13225 13.9334 0.00565823 -3.11871 13.1587 0.0100844 
-3.1437 12.2707 0.0140917 -3.20153 11.4331 0.0172673 -3.27704 10.6494 0.0202896 
-3.36267 9.86326 0.0237183 -3.44526 9.07675 0.0280545 -3.50678 8.34116 0.0333845 
-3.54053 7.62526 0.0395859 -3.53754 6.92474 0.0469579 -3.4924 6.25938 0.0552747 
-3.39408 5.57529 0.0655639 -3.22857 4.86755 0.0777855 -2.99695 4.17795 0.0920398 
-2.69358 3.49782 0.10953 -2.29412 2.78867 0.132414 -1.74492 1.99292 0.168673 
-1.05604 1.16458 0.240513 -0.769335 13.2156 -0.0891651 -0.672883 13.0511 -0.0682122 
-0.51525 12.7707 -0.0602361 -0.350476 12.4274 -0.0563346 -0.211832 12.125 -0.0562268 
-0.0864166 11.8411 -0.0555208 0.0134718 11.6009 -0.0546641 0.0812733 11.4125 -0.0527382 
0.103279 11.2972 -0.0572627 0.106295 11.2378 -0.0456238 0.1792 11.2345 -0.0419104 
0.184755 11.2795 -0.0529362 0.191874 11.3902 -0.0498824 0.248027 11.5703 -0.0519927 
0.336728 11.8032 -0.0517376 0.446628 12.0714 -0.0500302 0.579409 12.3805 -0.0471314 
0.723432 12.6961 -0.0486546 0.866834 12.9718 -0.0518847 0.935806 13.1026 -0.0618487 
0.917618 13.2319 -0.0613393 0.809987 13.4011 -0.0593097 0.642907 13.7136 -0.0636645 
0.479436 14.055 -0.0699032 0.336186 14.3663 -0.0768522 0.207156 14.6538 -0.0826219 
0.118559 14.8718 -0.0874568 0.0751011 15.0284 -0.0899636 0.0626031 15.0783 -0.0938064 
-0.0198326 15.1042 -0.0909218 -0.0158916 15.0626 -0.0925464 -0.0252212 14.9734 -0.088264 
-0.0775032 14.8101 -0.0802938 -0.166716 14.5917 -0.0798153 -0.273205 14.3428 -0.0773159 
-0.401498 14.0538 -0.0755758 -0.555032 13.729 -0.0744768 -0.711305 13.4476 -0.0785068 
-0.787904 13.3365 -0.0977789 0.193907 13.6874 -0.184434 0.17809 14.0571 -0.188036 
0.169444 14.4451 -0.198385 0.418731 14.0096 -0.201384 0.558734 13.6538 -0.21024 
0.294974 13.5 -0.190357 0.695298 13.5169 -0.209383 0.282968 14.2813 -0.196448 
0.409715 13.568 -0.199339 0.286168 13.8548 -0.190679 0.209332 13.9657 -0.0087071 
0.176554 14.4012 -0.0121663 0.376799 14.0174 -0.00589853 0.504016 13.6736 0.0124127 
0.309029 13.6028 0.00266197 0.288474 14.3244 -0.00833166 0.669487 13.5069 0.0235466 
-0.217764 13.6176 -0.211262 -0.389469 13.7281 -0.213291 -0.067883 14.5098 -0.204715 
-0.167553 14.3587 -0.202666 -0.0302009 14.7363 -0.209397 -0.0678566 13.714 -0.196479 
-0.523226 13.5962 -0.224893 -0.281277 14.0829 -0.207072 -0.0578151 14.1178 -0.196983 
-0.150605 13.9785 -0.19988 -0.189601 13.6625 -0.00526241 -0.341916 13.6871 0.0043913 
-0.0407757 14.7015 -0.019855 -0.104658 14.502 -0.0172725 -0.199832 14.3894 -0.0147621 
-0.502865 13.66 -0.00318616 -0.0651909 13.7557 -0.0143088 -0.0462081 14.1152 -0.0205212 
-0.273054 14.0913 -0.00991906 -0.0329481 14.4034 -0.0228068 -0.135493 14.0543 -0.0148938 
0.287984 12.8234 -0.191328 0.419628 12.761 -0.18779 0.588311 12.672 -0.200061 
0.46569 12.3242 -0.18832 0.356091 12.0468 -0.18313 0.267233 11.849 -0.182104 
0.22063 12.5592 -0.184624 0.724032 12.8237 -0.205884 0.213904 11.6933 -0.18092 
0.236498 12.2406 -0.181609 0.326878 12.4607 -0.184712 0.323039 12.6241 0.00364589 
0.570756 12.6663 0.0254331 0.337999 12.0842 0.00759615 0.236463 11.8671 0.00426071 
0.214758 12.746 -0.00511963 0.701395 12.8346 0.0219801 0.206694 11.6128 0.00720703 
0.451659 12.389 0.00332853 0.228419 12.2954 -0.00159449 -0.0408099 12.6289 -0.191355 
0.00308644 12.2534 -0.189329 -0.00311524 11.8819 -0.194568 -0.518912 12.8917 -0.226013 
-0.35832 12.7041 -0.212673 -0.259488 12.3336 -0.206705 -0.177377 12.7232 -0.207829 
-0.11341 12.1729 -0.19552 -0.0162312 12.5622 -0.0127648 -0.00644264 12.2274 -0.0101609 
0.00884813 11.8552 -0.000562657 -0.483057 12.8774 -0.00117741 -0.370075 12.6392 0.0116687 
-0.235792 12.3265 -0.00351558 -0.105458 12.028 -0.00239893 -0.097229 12.8384 -0.0137426 
-0.224418 12.7828 -0.00221764 0.0611598 11.6015 -0.000358048 -0.110302 12.4594 -0.00927764 
3.62093 27.8025 -0.269585 3.3484 27.7321 -0.270387 3.06095 27.6763 -0.271055 
2.78481 27.6178 -0.271474 2.49306 27.5681 -0.271785 2.20487 27.5033 -0.271887 
1.89743 27.4419 -0.271946 1.58027 27.3683 -0.271947 1.28026 27.332 -0.272045 
0.967302 27.2913 -0.272207 0.646064 27.2674 -0.272509 0.343088 27.2556 -0.272914 
0.0246717 27.2417 -0.273603 -0.296853 27.2436 -0.27453 -0.618927 27.2692 -0.27558 
-0.942678 27.3133 -0.276878 -1.26713 27.3624 -0.278467 -1.57542 27.4251 -0.280129 
-1.8955 27.5 -0.282028 -2.21712 27.5811 -0.284051 -2.51208 27.6716 -0.286007 
-2.80765 27.7541 -0.287981 -3.10176 27.857 -0.289949 -3.37195 27.9428 -0.291712 
-3.6491 28.061 -0.293522 -3.92095 28.1663 -0.295115 -4.18312 28.263 -0.296507 
-4.4396 28.3574 -0.297707 -4.68301 28.4779 -0.298872 1.14745 1.15873 -0.129947 
1.6114 1.76878 -0.127163 2.01713 2.3786 -0.126294 2.35304 2.97318 -0.12829 
2.64441 3.58677 -0.131278 2.86833 4.17307 -0.134812 3.04454 4.74998 -0.138505 
3.17696 5.3254 -0.142796 3.25196 5.85654 -0.147155 3.29406 6.40983 -0.15187 
3.31515 6.93831 -0.156055 3.30211 7.50131 -0.160836 3.25675 8.06901 -0.165826 
3.17791 8.65446 -0.171093 3.09038 9.21694 -0.176017 3.00089 9.76672 -0.180679 
2.89841 10.3491 -0.185559 2.79614 10.9479 -0.190343 2.69464 11.5797 -0.195033 
2.61422 12.2066 -0.199144 2.56383 12.8211 -0.202412 2.55292 13.4634 -0.205763 
2.58205 14.1092 -0.208636 2.63911 14.7735 -0.211051 2.71832 15.4339 -0.21327 
2.81182 16.0609 -0.215412 2.91203 16.6658 -0.217538 3.00981 17.2795 -0.219873 
3.10526 17.8871 -0.222331 3.18941 18.4631 -0.224833 3.27021 19.0595 -0.227587 
3.34155 19.6777 -0.23053 3.39736 20.2861 -0.233652 3.44527 20.9005 -0.236855 
3.48059 21.5796 -0.240607 3.5174 22.2171 -0.243999 3.54699 22.8408 -0.247252 
3.56919 23.4693 -0.250533 3.58253 24.1357 -0.253951 3.59594 24.7893 -0.257129 
3.61732 25.4212 -0.259993 3.6446 26.0934 -0.262844 3.68604 26.7235 -0.265237 
3.73832 27.3048 -0.267297 -4.56532 27.865 -0.296676 -4.53656 27.2029 -0.294565 
-4.46025 26.5565 -0.292105 -4.39619 25.899 -0.289453 -4.33664 25.2444 -0.28666 
-4.2742 24.5602 -0.28361 -4.20411 23.8704 -0.280445 -4.14294 23.2492 -0.277566 
-4.08405 22.6151 -0.274632 -4.00962 21.9452 -0.271572 -3.92795 21.2808 -0.268658 
-3.84993 20.6641 -0.266022 -3.76317 20.0355 -0.263429 -3.67715 19.4444 -0.261184 
-3.56839 18.809 -0.25892 -3.45588 18.1435 -0.256685 -3.35285 17.5509 -0.254684 
-3.25237 16.9424 -0.252632 -3.15545 16.3027 -0.25041 -3.07029 15.6676 -0.247967 
-2.98653 14.9862 -0.244828 -2.92635 14.3334 -0.241063 -2.90038 13.7137 -0.237165 
-2.8918 13.0336 -0.231771 -2.91429 12.4079 -0.22618 -2.95798 11.7818 -0.219761 
-3.01553 11.1373 -0.212496 -3.08631 10.515 -0.205032 -3.16309 9.91606 -0.197425 
-3.23388 9.32004 -0.18948 -3.29008 8.733 -0.181543 -3.32921 8.148 -0.173463 
-3.35033 7.59294 -0.165803 -3.34952 7.00759 -0.157699 -3.32737 6.46422 -0.150105 
-3.26623 5.90303 -0.14262 -3.17415 5.33506 -0.134912 -3.04103 4.75815 -0.127457 
-2.87122 4.19657 -0.120314 -2.64613 3.60439 -0.113273 -2.34774 2.98254 -0.107283 
-1.99088 2.35494 -0.102791 -1.55797 1.70407 -0.100242 -0.986782 0.968138 -0.116555 
-0.459744 0.431849 -0.148609 -0.460374 0.462775 -0.161753 -0.412162 0.462573 -0.169289 
-0.358572 0.452317 -0.17057 -0.317416 0.454334 -0.16975 -0.273714 0.449055 -0.164122 
-0.26284 0.469279 -0.170419 -0.22824 0.470608 -0.173013 -0.193796 0.479723 -0.172714 
-0.14901 0.462139 -0.173148 -0.112906 0.470527 -0.172844 -0.0965946 0.482841 -0.175904 
-0.0582574 0.47984 -0.176883 -0.01944 0.477421 -0.177395 0.0184842 0.473723 -0.174543 
0.0617895 0.481218 -0.161087 0.0908244 0.494573 -0.147665 0.117573 0.480947 -0.148174 
0.145586 0.477863 -0.155166 0.190925 0.478214 -0.168629 0.228477 0.467158 -0.170411 
0.266177 0.453899 -0.159178 0.290442 0.4642 -0.151496 0.312382 0.445252 -0.156034 
0.349175 0.434683 -0.166448 0.398414 0.439964 -0.169537 0.46375 0.456529 -0.158568 
0.528614 0.488705 -0.151465 -1.02258 12.8983 -0.194268 -0.958001 12.6603 -0.211126 
-0.832169 12.4248 -0.216893 -0.683035 12.106 -0.212368 -0.54485 11.7827 -0.212523 
-0.429512 11.4649 -0.21021 -0.340331 11.16 -0.211874 -0.27859 10.8615 -0.215444 
-0.246801 10.6436 -0.219235 -0.215708 10.5059 -0.237781 -0.164605 10.3887 -0.262446 
0.490988 10.2218 -0.273635 0.555328 10.3918 -0.246122 0.562492 10.5661 -0.225308 
0.578663 10.8157 -0.208112 0.628703 11.1183 -0.201841 0.716303 11.4145 -0.20026 
0.81532 11.713 -0.202029 0.942156 12.0279 -0.201405 1.06955 12.3126 -0.201329 
1.16552 12.534 -0.190379 1.217 12.7727 -0.172386 1.19579 13.6125 -0.178865 
1.14592 13.857 -0.19954 1.03923 14.0912 -0.216282 0.897231 14.3925 -0.22148 
0.753657 14.698 -0.224833 0.63147 14.9918 -0.228587 0.531963 15.26 -0.234074 
0.478835 15.5312 -0.243725 0.449172 15.7574 -0.264546 0.435976 15.9552 -0.293918 
0.334533 16.1544 -0.32891 -0.334864 16.1469 -0.317942 -0.386198 15.9433 -0.293614 
-0.406638 15.8082 -0.266894 -0.433308 15.6044 -0.251142 -0.487005 15.3489 -0.242412 
-0.565852 15.0672 -0.241765 -0.667543 14.7807 -0.237978 -0.801289 14.4972 -0.238657 
-0.923641 14.1935 -0.231677 -1.00989 13.9491 -0.219568 -1.03959 13.6962 -0.195799 
-1.1289 13.2924 -0.191859 0.285899 9.83897 -0.276777 -0.0858314 9.55903 -0.249016 
1.31241 13.2296 -0.175201 -0.0355446 16.6214 -0.323819 -1.30626 12.7626 -0.202209 
3.20813 27.0609 -0.26819 2.91221 27.0323 -0.269019 2.63156 26.9701 -0.269555 
2.32963 26.8731 -0.269982 2.02838 26.8033 -0.270399 1.70785 26.7299 -0.270783 
1.41083 26.6729 -0.271156 1.10559 26.6369 -0.271614 0.798684 26.6054 -0.272141 
0.49446 26.579 -0.272706 0.182188 26.5445 -0.273422 -0.133392 26.5555 -0.274303 
-0.442972 26.5752 -0.275278 -0.762081 26.6082 -0.276404 -1.07158 26.6591 -0.277675 
-1.37514 26.704 -0.279083 -1.6884 26.7769 -0.280615 -2.01181 26.8712 -0.282327 
-2.30739 26.9617 -0.283985 -2.59888 27.0537 -0.28567 -2.89222 27.1436 -0.287352 
-3.1788 27.2281 -0.288943 -3.44493 27.3059 -0.290423 -3.7227 27.4075 -0.291935 
-4.00074 27.6077 -0.29367 -4.27699 27.7892 -0.295324 -0.992347 11.7423 -0.208633 
1.50884 1.72507 -0.136932 1.92253 2.4073 -0.136485 2.24817 3.05242 -0.137987 
2.52833 3.71621 -0.140146 2.72815 4.31708 -0.142943 2.88495 4.9298 -0.146539 
2.9948 5.51985 -0.150474 3.05582 6.11612 -0.154852 3.08627 6.66361 -0.158772 
3.08699 7.22668 -0.162934 3.05639 7.8131 -0.167358 2.99222 8.40314 -0.172008 
2.90418 9.01159 -0.17652 2.81764 9.55804 -0.180296 2.72315 10.1248 -0.18409 
2.61898 10.7094 -0.187836 2.50705 11.328 -0.19155 2.41531 11.9496 -0.194848 
2.32964 12.5482 -0.197432 2.27903 13.1397 -0.19988 2.29751 13.7721 -0.203337 
2.35089 14.4329 -0.206915 2.4162 15.0611 -0.210309 2.51802 15.6981 -0.213785 
2.62201 16.2798 -0.216886 2.7252 16.8834 -0.220013 2.82738 17.5109 -0.223075 
2.90775 18.0793 -0.225952 2.99192 18.6807 -0.228955 3.07068 19.3328 -0.23224 
3.13075 19.9468 -0.235354 3.17758 20.5417 -0.238337 3.2168 21.2297 -0.241854 
3.24638 21.8602 -0.245008 3.27637 22.4776 -0.247944 3.3018 23.1256 -0.250965 
3.31363 23.7905 -0.254076 3.33577 24.469 -0.257054 3.35365 25.1176 -0.259815 
3.36517 25.7976 -0.262644 3.40632 26.4851 -0.265228 3.49508 27.2009 -0.267715 
-0.989855 1.02485 -0.13015 1.03487 1.07283 -0.143101 -4.35517 27.3427 -0.294213 
-4.2777 26.7675 -0.292069 -4.20155 26.1041 -0.28951 -4.13685 25.4678 -0.28697 
-4.06769 24.7759 -0.284122 -3.99609 24.0951 -0.281253 -3.93252 23.4354 -0.278432 
-3.87698 22.7892 -0.275638 -3.80259 22.1103 -0.272686 -3.73302 21.4614 -0.269899 
-3.65751 20.82 -0.267172 -3.57729 20.1971 -0.264546 -3.47684 19.5675 -0.261968 
-3.37405 18.9503 -0.259475 -3.25626 18.299 -0.256917 -3.14965 17.6833 -0.254407 
-3.05185 17.0912 -0.251873 -2.95295 16.4644 -0.249104 -2.86772 15.85 -0.246239 
-2.78457 15.1871 -0.242806 -2.7139 14.5425 -0.238883 -2.66997 13.9314 -0.234753 
-2.64975 13.2927 -0.22998 -2.67496 12.6483 -0.225003 -2.71242 12.0397 -0.219601 
-2.76719 11.4085 -0.213484 -2.83901 10.7772 -0.207071 -2.91511 10.1915 -0.200731 
-2.99062 9.57303 -0.193602 -3.05567 8.97853 -0.186522 -3.11073 8.35951 -0.179113 
-3.13876 7.80261 -0.172473 -3.14791 7.20508 -0.165234 -3.12786 6.63422 -0.158535 
-3.08161 6.04755 -0.151782 -3.00852 5.47533 -0.145293 -2.88645 4.86124 -0.138935 
-2.73559 4.27791 -0.133002 -2.52016 3.64878 -0.127787 -2.24735 3.01216 -0.123646 
-1.89965 2.35442 -0.121534 -1.48888 1.70437 -0.1226 -1.31035 13.7881 -0.208036 
-0.935478 1.05858 -0.144243 -0.820193 1.03243 -0.155674 -0.700625 0.990744 -0.160175 
-0.621943 0.991833 -0.160976 -0.542714 0.996108 -0.162211 -0.484311 1.02363 -0.162893 
-0.420446 1.03912 -0.164523 -0.353395 1.04492 -0.166069 -0.277218 1.03258 -0.167026 
-0.213264 1.05649 -0.16858 -0.143282 1.06275 -0.168316 -0.0717158 1.04803 -0.167791 
-0.00257612 1.04373 -0.164695 0.0720396 1.05838 -0.158254 0.14331 1.07297 -0.152456 
0.215099 1.07903 -0.148659 0.285376 1.07158 -0.150746 0.358905 1.06388 -0.154036 
0.430559 1.05101 -0.156658 0.507519 1.04385 -0.154751 0.576298 1.02209 -0.152506 
0.629511 0.98947 -0.151396 0.681699 0.943389 -0.152572 0.78482 0.964934 -0.153765 
0.935638 1.04571 -0.148645 -1.11716 12.0504 -0.207161 0.573823 9.22409 -0.244502 
-1.21132 12.3673 -0.203604 -0.8619 11.4203 -0.207724 -0.754648 11.072 -0.206438 
-0.662413 10.7266 -0.207238 -0.603403 10.3783 -0.210645 -0.546669 10.0976 -0.214978 
-0.487248 9.84773 -0.221873 -0.374387 9.65525 -0.234501 1.49675 13.7665 -0.188524 
0.830833 9.76657 -0.226022 0.751025 9.51961 -0.240259 0.917352 10.328 -0.202084 
0.982851 10.6641 -0.19748 1.05465 11.0007 -0.196089 1.16063 11.3145 -0.196785 
1.27773 11.6195 -0.19675 1.37606 11.9097 -0.192824 1.4519 12.2583 -0.186088 
1.54269 12.7181 -0.183897 -0.430969 17.2923 -0.299346 1.35091 14.5297 -0.206845 
1.42827 14.1894 -0.19642 1.1278 15.1571 -0.221233 1.0059 15.475 -0.227102 
0.911146 15.7848 -0.233157 0.834684 16.0955 -0.241872 0.775731 16.3706 -0.255047 
0.715521 16.64 -0.274271 0.588187 16.9302 -0.292812 0.293887 17.3051 -0.298192 
-0.711853 16.6739 -0.27754 -0.624559 16.9173 -0.290526 -0.809773 16.1925 -0.254513 
-0.87704 15.9049 -0.247619 -0.952094 15.5993 -0.243474 -1.05439 15.2721 -0.240254 
-1.14288 14.9273 -0.234954 -1.22385 14.5985 -0.225781 -1.26983 14.2353 -0.215003 
0.869622 10.0302 -0.211564 1.24786 14.8426 -0.215199 -0.760919 16.4532 -0.264688 
-1.47934 13.2692 -0.208696 0.257727 8.83146 -0.23738 1.65623 13.278 -0.189155 
-0.109207 17.8476 -0.295152 2.76688 26.4351 -0.267361 2.49372 26.2754 -0.267767 
2.18265 26.1616 -0.26845 1.86478 26.0677 -0.269161 1.54156 25.9928 -0.269899 
1.2422 25.9322 -0.270622 0.944463 25.9147 -0.271402 0.645832 25.8656 -0.272173 
0.345011 25.788 -0.272967 0.0384213 25.7557 -0.273904 -0.276879 25.7955 -0.27488 
-0.574029 25.8986 -0.275851 -0.883547 25.9591 -0.276949 -1.1905 25.9569 -0.278143 
-1.49687 26.0048 -0.279394 -1.80563 26.0964 -0.280733 -2.11561 26.2227 -0.282187 
-2.40646 26.3261 -0.283612 -2.69132 26.4009 -0.284974 -2.98072 26.4943 -0.286361 
-3.26084 26.5605 -0.287654 -3.55095 26.6641 -0.28906 -3.8276 26.8473 -0.290644 
-4.10707 27.0886 -0.292444 -1.39754 11.748 -0.205944 -1.06855 10.6958 -0.205822 
-1.64691 12.5723 -0.209576 1.37691 1.73498 -0.1449 0.585673 8.2025 -0.221862 
1.83066 2.53769 -0.143493 2.13222 3.206 -0.144969 2.38078 3.8789 -0.147338 
2.55922 4.51665 -0.150421 2.69202 5.15494 -0.154003 2.77571 5.78079 -0.158104 
2.82605 6.36119 -0.161835 2.84788 6.93638 -0.165487 2.83634 7.5266 -0.169362 
2.78854 8.14284 -0.173461 2.7015 8.78247 -0.177689 2.60725 9.35689 -0.181134 
2.51391 9.92825 -0.184105 2.43514 10.4862 -0.18673 2.32594 11.0748 -0.189324 
2.19744 11.6815 -0.191467 2.13796 12.2539 -0.193345 1.96046 12.8166 -0.193193 
1.99499 13.4616 -0.197061 2.03853 14.1003 -0.201508 2.11868 14.718 -0.206303 
2.21857 15.338 -0.211193 2.32071 15.8986 -0.215267 2.43436 16.5006 -0.219374 
2.52299 17.0895 -0.223192 2.61664 17.6962 -0.226774 2.69576 18.2736 -0.230095 
2.77802 18.9356 -0.233704 2.84434 19.5615 -0.236986 2.90151 20.1893 -0.240081 
2.93467 20.8223 -0.243247 2.96373 21.5028 -0.246453 2.99189 22.118 -0.249145 
3.01675 22.765 -0.251879 3.04168 23.4358 -0.254597 3.06615 24.1181 -0.257282 
3.0928 24.7721 -0.259785 3.09082 25.4741 -0.262564 3.07169 26.2595 -0.265628 
-1.58631 13.8437 -0.215875 -3.99064 26.4068 -0.289814 -3.92904 25.6948 -0.287211 
-3.87174 25.0345 -0.284717 -3.78295 24.3373 -0.281972 -3.70632 23.6494 -0.279255 
-3.64185 23.0112 -0.276697 -3.57559 22.3138 -0.27386 -3.513 21.6235 -0.270995 
-3.44178 20.9851 -0.268342 -3.36109 20.3572 -0.265695 -3.26749 19.7079 -0.262897 
-3.17176 19.1052 -0.260245 -3.05392 18.4653 -0.257368 -2.94535 17.8392 -0.254494 
-2.83319 17.2228 -0.251431 -2.73036 16.6271 -0.248228 -2.65377 16.0221 -0.244946 
-2.59214 15.4193 -0.241561 -2.51302 14.7757 -0.237327 -2.43621 14.1726 -0.232806 
-2.39174 13.5289 -0.227851 -2.4163 12.9154 -0.223618 -2.46206 12.2973 -0.219086 
-2.49945 11.7022 -0.214089 -2.56996 11.0701 -0.208684 -2.65691 10.4468 -0.203064 
-2.72591 9.85333 -0.197381 -2.80358 9.24521 -0.191177 -2.86436 8.62081 -0.18469 
-2.90259 8.00952 -0.178378 -2.91625 7.43961 -0.172589 -2.9142 6.83754 -0.166343 
-2.88334 6.25783 -0.160546 -2.81759 5.64489 -0.154725 -2.70906 5.02725 -0.14961 
-2.56413 4.38982 -0.144501 -2.368 3.74254 -0.140372 -2.10501 3.05329 -0.137224 
-1.86049 2.48927 -0.13398 -1.41862 1.79407 -0.139928 -0.0706903 8.26877 -0.222484 
-1.17402 11.045 -0.206152 -1.14305 1.60918 -0.152425 -0.977962 1.55044 -0.1582 
-0.88218 1.59296 -0.161036 -0.778863 1.6304 -0.163118 -0.681057 1.65462 -0.16467 
-0.581596 1.67224 -0.165991 -0.474464 1.68618 -0.167205 -0.367148 1.69275 -0.168223 
-0.266637 1.71779 -0.168493 -0.162474 1.71811 -0.167625 -0.0558575 1.73763 -0.16537 
0.0525665 1.73268 -0.161563 0.161483 1.71471 -0.157217 0.269692 1.7199 -0.154312 
0.381295 1.73155 -0.153567 0.494651 1.72491 -0.154174 0.601076 1.71103 -0.154958 
0.724222 1.70288 -0.154816 0.834843 1.66634 -0.153266 0.922274 1.60998 -0.151885 
1.00359 1.54364 -0.150591 1.05981 1.45062 -0.149693 -1.28484 11.4024 -0.206222 
1.30265 10.2666 -0.196 -0.977119 10.3255 -0.206078 -0.913508 9.93356 -0.20735 
-0.838404 9.5969 -0.209632 -0.757799 9.25254 -0.212879 -0.623197 8.9484 -0.217464 
1.25625 16.243 -0.233351 1.81419 12.1244 -0.189357 1.38667 10.6038 -0.194643 
1.24545 9.89031 -0.198955 1.50036 10.9219 -0.193604 1.59653 11.2463 -0.192086 
1.67788 11.6433 -0.189839 -0.534927 18.3928 -0.287019 -0.385846 8.6935 -0.22248 
0.598648 18.022 -0.283459 1.15962 16.556 -0.24075 1.36531 15.9293 -0.227122 
1.07987 16.8955 -0.250759 1.00002 17.2476 -0.263054 0.862051 17.6101 -0.275485 
0.220045 18.5139 -0.286526 -1.51767 12.1271 -0.206598 -1.36359 16.1556 -0.245595 
-1.17456 16.7619 -0.255422 -1.44656 15.7755 -0.240486 -1.48609 15.325 -0.234303 
-1.25555 16.4618 -0.25017 -1.53946 14.3548 -0.220274 -1.79971 13.0198 -0.214875 
0.276126 7.70275 -0.214794 1.10912 9.20182 -0.212132 -1.82412 13.5982 -0.219215 
1.77864 13.8028 -0.195192 1.48706 15.6128 -0.220765 0.831554 8.61554 -0.224663 
1.59492 15.2605 -0.214079 -0.239179 19.0901 -0.284409 1.6554 14.8222 -0.206403 
-0.739155 17.8358 -0.284957 1.18511 9.52283 -0.204386 -1.0138 17.2887 -0.270165 
1.7638 14.3616 -0.200379 -1.09984 17.0558 -0.26228 -1.5119 14.8599 -0.227167 
1.00341 8.92555 -0.220024 -0.899529 17.499 -0.278402 2.74404 25.6823 -0.264899 
-1.88005 14.2938 -0.225423 2.37987 25.4961 -0.265903 2.05263 25.3559 -0.266923 
1.7147 25.2438 -0.268056 1.38687 25.1525 -0.269193 1.0683 25.0839 -0.270335 
0.796049 25.1844 -0.271368 0.526764 25.0027 -0.272211 0.215268 24.9293 -0.273304 
-0.113756 24.8966 -0.274403 -0.418395 25.0157 -0.275375 -0.701296 25.2535 -0.276301 
-0.971228 25.0925 -0.277136 -1.29016 25.0859 -0.278191 -1.61364 25.1937 -0.279282 
-1.92059 25.3806 -0.280474 -2.22136 25.5027 -0.281633 -2.50345 25.6102 -0.282774 
-2.78712 25.6756 -0.283828 -3.07083 25.7353 -0.284852 -3.36067 25.8665 -0.286108 
-3.67248 25.9943 -0.287456 -1.21711 9.53165 -0.203875 -1.97459 12.4935 -0.214432 
1.41794 2.07015 -0.148175 1.72867 2.72271 -0.148784 1.98424 3.40035 -0.151064 
2.18325 4.07629 -0.154136 2.33567 4.7466 -0.157546 2.45039 5.40569 -0.161353 
2.52437 6.04198 -0.165222 2.56288 6.62887 -0.168766 2.57724 7.22309 -0.172158 
2.55613 7.8611 -0.175771 2.48234 8.51737 -0.17956 2.37737 9.17486 -0.18295 
2.26441 9.78227 -0.185638 2.19333 10.3536 -0.187365 1.93283 14.9661 -0.207646 
1.95725 15.5261 -0.213319 2.14743 16.1094 -0.218054 2.22048 16.6418 -0.22248 
2.30348 17.2411 -0.226906 2.38448 17.8387 -0.231004 2.47009 18.461 -0.234779 
2.5436 19.1457 -0.238667 2.5919 19.7735 -0.242054 2.62857 20.4294 -0.245298 
2.65364 21.1049 -0.248361 2.68082 21.7448 -0.250929 2.70716 22.3819 -0.253303 
2.73387 23.0656 -0.255726 2.76283 23.7862 -0.258146 2.80245 24.4291 -0.260219 
2.8544 25.0624 -0.262219 -3.69492 25.3221 -0.285332 -3.58671 24.6665 -0.282874 
-3.47831 23.9536 -0.280253 -3.39328 23.2512 -0.277677 -3.32636 22.5586 -0.275094 
-3.27116 21.8555 -0.272361 -3.20814 21.1662 -0.269584 -3.12183 20.5115 -0.266895 
-3.03609 19.8769 -0.264134 -2.95744 19.2564 -0.261237 -2.85472 18.645 -0.258262 
-2.72183 18.0127 -0.255003 -2.5957 17.363 -0.25141 -2.49734 16.7616 -0.247795 
-2.41812 16.1573 -0.243889 -2.36612 15.5718 -0.240069 -2.35062 15.0366 -0.236782 
-2.21779 14.4795 -0.231662 -2.10412 13.1509 -0.220797 -2.22182 12.0175 -0.214108 
-2.27202 11.4134 -0.20981 -2.36994 10.7589 -0.205154 -2.46301 10.1208 -0.200157 
-2.5452 9.54239 -0.195285 -2.61078 8.90951 -0.189685 -2.65408 8.28299 -0.18414 
-2.6742 7.71532 -0.179147 -2.6758 7.11037 -0.173925 -2.65155 6.50343 -0.168784 
-2.59244 5.87808 -0.16391 -2.4981 5.22281 -0.159173 -2.37182 4.57228 -0.154876 
-2.20155 3.90182 -0.150938 -1.96697 3.17393 -0.147774 -1.66113 2.4208 -0.145866 
0.604709 7.13654 -0.205101 1.6822 10.2885 -0.191795 1.87738 10.4376 -0.189808 
-1.32797 2.09127 -0.154727 -1.23262 2.18868 -0.15906 -1.11161 2.27474 -0.162755 
-0.985289 2.3306 -0.165285 -0.846447 2.36597 -0.167195 -0.705101 2.38642 -0.168629 
-0.561369 2.40671 -0.169624 -0.423288 2.44869 -0.17013 -0.289422 2.48184 -0.169744 
-0.145684 2.50362 -0.168358 -0.00310059 2.51196 -0.166227 0.140731 2.4791 -0.163374 
0.289356 2.45278 -0.160661 0.44513 2.46595 -0.159148 0.595983 2.46822 -0.158429 
0.740839 2.44171 -0.157858 0.899788 2.42302 -0.157189 1.05153 2.37162 -0.155732 
1.18258 2.28244 -0.153756 1.30579 2.19199 -0.151312 0.918605 18.6379 -0.273422 
-1.13675 9.12288 -0.204552 -1.29231 9.9459 -0.203722 0.563269 19.1595 -0.278776 
-1.0364 8.70818 -0.205575 -0.888394 8.32639 -0.20686 1.37976 17.3403 -0.246752 
1.6246 9.91174 -0.192908 -0.717665 19.6033 -0.280502 1.53476 9.55868 -0.194978 
0.0985726 19.8176 -0.279907 1.29163 17.7547 -0.255687 1.48431 17.0038 -0.23894 
1.60426 16.6966 -0.232401 1.16366 18.2047 -0.264909 -1.83632 16.1509 -0.241884 
-1.87531 16.8027 -0.247863 -1.68373 17.0574 -0.251797 -0.0337815 7.11423 -0.204448 
-1.38145 10.3426 -0.203935 -1.52772 17.2945 -0.255992 1.97748 11.4416 -0.189708 
-1.80011 14.9488 -0.230177 -1.72223 11.4821 -0.206751 1.71264 16.3631 -0.226512 
-1.4286 17.6024 -0.261102 2.16524 10.851 -0.18844 0.866989 7.63954 -0.209457 
-0.373295 7.59331 -0.20801 0.304472 6.55695 -0.198486 -2.12476 13.8413 -0.225932 
-2.2302 12.5719 -0.21839 -0.467544 20.458 -0.278421 1.39614 8.72542 -0.201761 
-1.57061 11.1237 -0.205267 1.2669 8.40664 -0.206539 -1.46936 10.7153 -0.204493 
-0.669059 7.96267 -0.207589 1.86842 16.0182 -0.219938 -0.910418 18.8666 -0.280917 
1.47154 9.1427 -0.197938 1.89385 10.9789 -0.189773 -1.3488 17.95 -0.266838 
-1.9163 11.8635 -0.209889 -1.80734 15.5437 -0.236138 -1.21634 18.1831 -0.272225 
2.25338 24.7293 -0.264391 1.92358 24.5661 -0.265758 1.57597 24.4339 -0.267324 
1.20106 24.1946 -0.26893 0.80457 24.056 -0.27073 0.426043 24.2018 -0.272446 
0.092328 23.974 -0.273732 -0.308207 23.9838 -0.275025 -0.66731 24.3498 -0.276129 
-0.999023 24.0257 -0.276966 -1.39018 24.1179 -0.277934 -1.75392 24.3292 -0.278852 
-2.04673 24.6636 -0.279901 -2.32307 24.6319 -0.280486 -2.59681 24.9193 -0.281651 
-2.85255 24.8815 -0.282138 -3.15073 25.0263 -0.28317 -3.43753 25.2161 -0.284384 
-1.02552 18.2849 -0.277844 1.56015 2.85492 -0.153231 1.78479 3.56996 -0.156185 
1.96031 4.28483 -0.159978 2.09644 4.99017 -0.164011 2.1908 5.6781 -0.168245 
2.24953 6.3215 -0.172239 2.27255 6.94464 -0.17598 2.28685 7.54221 -0.178899 
2.26011 8.22611 -0.181998 2.1567 8.92313 -0.185274 1.99006 9.65667 -0.188334 
2.00092 17.2306 -0.23127 2.16022 17.9502 -0.235547 2.24035 18.6747 -0.240203 
2.27385 19.2966 -0.244133 2.31196 19.9681 -0.247557 2.34461 20.6607 -0.250497 
2.35254 21.3529 -0.253263 2.35558 21.9974 -0.255596 2.37298 22.692 -0.257731 
2.42662 23.4576 -0.259629 2.48966 24.1786 -0.2614 2.57332 24.9219 -0.263243 
0.618178 6.07734 -0.191624 -3.26795 24.3802 -0.281459 -3.13794 23.5968 -0.278839 
-3.03886 22.8152 -0.276258 -3.01322 22.1146 -0.27378 -2.97073 21.3977 -0.271064 
-2.87766 20.6911 -0.268315 -2.77188 20.0215 -0.265549 -2.69763 19.3678 -0.262449 
-2.67585 18.8408 -0.259609 -2.50767 18.2228 -0.256361 -2.35044 17.5328 -0.252231 
-2.22792 16.854 -0.24764 -2.14904 16.2215 -0.242981 -2.10538 15.6074 -0.2381 
-2.05478 11.1503 -0.206746 -2.17882 10.4493 -0.202624 -2.26033 9.84454 -0.198615 
-2.33799 9.2319 -0.194155 -2.39434 8.60243 -0.189379 -2.4102 8.00514 -0.185011 
-2.42946 7.43353 -0.180642 -2.41237 6.81373 -0.176123 -2.34472 6.18046 -0.172196 
-2.2624 5.50539 -0.167954 -2.16108 4.82633 -0.163782 -2.0201 4.13542 -0.160027 
-1.83237 3.41806 -0.156849 -1.59931 2.71803 -0.154713 -1.0849 20.8564 -0.276331 
-1.30781 3.00705 -0.165269 -1.15248 3.0989 -0.168204 -0.98142 3.16296 -0.17043 
-0.794449 3.21095 -0.171963 -0.607836 3.23217 -0.172825 -0.442556 3.30198 -0.173121 
-0.283353 3.37433 -0.172818 -0.0928647 3.40653 -0.171744 0.0783303 3.3876 -0.170175 
0.273097 3.32089 -0.167783 0.460754 3.27145 -0.165721 0.651599 3.27556 -0.164495 
0.841286 3.27645 -0.163378 1.03335 3.2015 -0.161547 1.21809 3.1033 -0.159334 
1.38828 2.97102 -0.156553 -1.18904 7.76873 -0.198729 -1.45647 8.70381 -0.199291 
-1.54932 9.16246 -0.199766 -1.33359 8.24274 -0.199125 1.54361 18.7391 -0.255992 
2.01416 16.7099 -0.225524 1.0968 8.06017 -0.209897 1.68539 17.7707 -0.24346 
1.56874 18.0953 -0.25005 1.27361 19.1706 -0.264845 -1.57298 9.68519 -0.201137 
0.50622 20.485 -0.274772 -1.94845 17.9863 -0.25758 0.950068 19.7735 -0.271257 
-0.122817 21.3953 -0.276224 0.00947648 5.95191 -0.191705 -1.74844 18.0741 -0.260482 
0.316097 5.32026 -0.185045 1.84424 9.26625 -0.190242 0.90695 6.61634 -0.195845 
-0.328916 6.48905 -0.196129 -2.09671 14.9766 -0.233485 1.57023 7.94095 -0.195526 
-0.804166 21.8056 -0.276513 -1.47421 2.89064 -0.160666 -1.73353 9.94846 -0.201159 
-0.957656 7.28139 -0.198114 0.433536 21.799 -0.273045 -1.72223 18.6327 -0.26522 
1.71814 8.93169 -0.192727 -2.13603 17.7565 -0.254474 1.8142 17.4365 -0.236889 
1.73478 8.30279 -0.192308 -1.59334 19.1046 -0.269857 -1.87458 10.8113 -0.204457 
-1.16872 19.8406 -0.276946 1.80051 23.6733 -0.264697 1.45655 23.5715 -0.266785 
1.17671 23.0622 -0.26805 0.859737 22.4225 -0.269831 0.445635 23.1593 -0.272223 
-0.0486763 22.8203 -0.274467 -0.593589 23.0357 -0.275859 -1.13651 22.9927 -0.277034 
-1.59364 23.3295 -0.277516 -2.03042 23.5071 -0.27807 -2.52258 23.883 -0.279251 
-2.93183 24.0872 -0.280195 1.97481 8.57255 -0.187656 -2.35093 18.6615 -0.259702 
1.71387 4.48195 -0.165353 1.84208 5.26816 -0.170382 1.92693 5.98277 -0.17507 
1.96631 6.69405 -0.179869 2.03741 7.95741 -0.185106 1.90241 18.67 -0.246817 
1.95391 19.3992 -0.25073 2.01258 20.1446 -0.25332 2.01705 20.9037 -0.256121 
1.97993 21.5907 -0.258543 1.99028 22.3151 -0.260372 2.05219 23.084 -0.261645 
-2.64602 22.2699 -0.274907 -2.721 21.5885 -0.272414 -2.67132 20.943 -0.270016 
-2.48896 20.2301 -0.267702 -2.40796 19.4486 -0.264099 1.36413 7.61228 -0.198861 
-1.29689 19.15 -0.274651 -1.98449 10.1408 -0.201108 -2.044 9.54959 -0.197811 
-2.14727 8.96473 -0.193918 -2.1228 8.39845 -0.190867 -2.13771 7.78891 -0.187009 
-2.18987 7.17414 -0.182314 -2.00162 5.90546 -0.17614 -1.92879 5.13839 -0.171347 
-1.81605 4.38745 -0.167201 -1.66576 3.62056 -0.163437 -1.83321 8.30433 -0.193383 
-1.47163 3.79987 -0.168651 -1.27823 3.93984 -0.172135 -1.0636 4.08582 -0.175005 
-0.833305 4.12924 -0.176536 -0.618972 4.04196 -0.176875 -0.462461 4.45288 -0.179241 
-0.22278 4.24513 -0.177564 0.000430402 4.60108 -0.179569 0.207491 4.22626 -0.175532 
0.42868 4.24776 -0.174364 0.629612 4.0468 -0.171318 0.888332 4.3568 -0.172406 
1.13187 4.09142 -0.168169 1.34657 3.89175 -0.16461 1.564 3.71465 -0.160659 
-0.663841 6.87741 -0.197752 -1.72858 10.5077 -0.203222 2.1556 23.9354 -0.262932 
1.96837 18.1332 -0.24075 1.93957 7.43117 -0.18492 0.930068 5.57525 -0.184019 
-2.74209 23.177 -0.277526 -0.273794 5.33337 -0.185936 -1.5588 22.11 -0.276112 
-2.07913 6.60418 -0.179982 -1.29965 6.7478 -0.190546 -1.63452 7.95015 -0.193991 
-1.52898 7.33477 -0.191845 1.02205 21.075 -0.268975 1.64861 19.5981 -0.257811 
-1.86216 9.10104 -0.196853 1.36343 20.1807 -0.264422 1.14758 7.14443 -0.198825 
1.67188 7.1335 -0.18851 0.646699 5.01469 -0.180297 1.24439 6.11101 -0.186578 
1.63653 6.34912 -0.182826 -2.06748 18.8133 -0.262606 -0.598134 5.76304 -0.188597 
1.614 21.0834 -0.261931 1.47843 21.941 -0.264662 1.64372 22.8049 -0.264443 
-1.70042 20.5827 -0.273727 -2.21259 22.4024 -0.276008 -1.71113 6.48589 -0.184281 
-2.30418 21.0757 -0.271891 -2.06006 19.7422 -0.267962 1.73986 20.3967 -0.25865 
1.44994 4.72654 -0.170788 -0.972495 6.08391 -0.188902 -1.59239 4.61425 -0.17281 
-1.88398 7.33993 -0.187502 1.54063 5.59422 -0.177466 -1.67495 5.52582 -0.178067 
1.1962 5.11683 -0.17684 -1.34717 4.87902 -0.177567 -1.06955 5.07824 -0.18108 
-0.763484 4.98349 -0.182181 1.41641 6.83663 -0.191004 -1.35337 5.84857 -0.184024 
3.58259 27.5425 -0.0234491 3.20674 27.627 -0.0261383 2.86721 27.5906 -0.0285819 
2.5078 27.4695 -0.0311346 2.15778 27.3802 -0.0337783 1.74634 27.2955 -0.0369337 
1.34823 27.2248 -0.0398485 0.929787 27.1833 -0.0427085 0.537015 27.1412 -0.0449458 
0.113762 27.1088 -0.0468894 -0.303091 27.1307 -0.0484629 -0.728644 27.1616 -0.0495613 
-1.13927 27.2254 -0.050232 -1.53242 27.3044 -0.0505555 -1.94103 27.3946 -0.0505847 
-2.33169 27.5026 -0.0504872 -2.71241 27.6409 -0.0504211 -3.09496 27.7711 -0.0503557 
-3.45712 27.8868 -0.0503788 -3.79952 27.9901 -0.0505874 -4.1412 28.1197 -0.0511112 
-4.4674 28.2663 -0.0519019 0.852698 0.840793 0.173563 1.74504 1.9647 0.128786 
2.25638 2.79941 0.102881 2.63413 3.58453 0.0862492 2.90215 4.32157 0.0742028 
3.07917 5.00924 0.0652091 3.19321 5.69692 0.0576857 3.25496 6.39542 0.0512151 
3.26833 7.07075 0.045766 3.23633 7.81963 0.0410729 3.15747 8.51332 0.0378876 
3.05841 9.2048 0.0355294 2.93753 9.885 0.0338859 2.8116 10.5674 0.0328508 
2.67787 11.3088 0.0319314 2.56295 12.0741 0.0307235 2.5169 12.8328 0.0293665 
2.51811 13.6316 0.0271718 2.55879 14.4048 0.0235541 2.64034 15.1722 0.0190463 
2.74632 15.9217 0.0142254 2.86196 16.6947 0.00919858 2.99852 17.5098 0.00429857 
3.11281 18.2609 0.000143625 3.20361 18.9826 -0.0032128 3.30033 19.7533 -0.00628322 
3.37098 20.534 -0.00881468 3.41768 21.2924 -0.0108277 3.45054 22.0395 -0.0124636 
3.48869 22.79 -0.0138642 3.52133 23.5645 -0.0151547 3.54808 24.3123 -0.0163259 
3.57409 25.0643 -0.017537 3.58387 25.8249 -0.0190441 3.59291 26.6209 -0.0209119 
-4.5573 27.7277 -0.0507588 -4.44277 27.0247 -0.0490041 -4.34929 26.2478 -0.0472621 
-4.28834 25.4018 -0.0455616 -4.21731 24.5944 -0.0440259 -4.14381 23.7493 -0.0424216 
-4.0637 22.9813 -0.0408533 -3.98227 22.166 -0.0390591 -3.89796 21.3675 -0.0370584 
-3.79504 20.6078 -0.0347223 -3.67982 19.8064 -0.0319223 -3.55976 19.0151 -0.0286124 
-3.42471 18.2371 -0.0248398 -3.29562 17.4756 -0.0207179 -3.16859 16.7122 -0.0161867 
-3.03647 15.9577 -0.0114908 -2.9379 15.1707 -0.0063481 -2.87163 14.3216 -0.000828715 
-2.84087 13.559 0.00390575 -2.86234 12.705 0.00890881 -2.90777 11.906 0.0131588 
-2.97586 11.0692 0.0175603 -3.05637 10.3167 0.0219446 -3.14606 9.54535 0.0269125 
-3.21637 8.76652 0.0328597 -3.27702 7.985 0.0397163 -3.28941 7.2439 0.0473385 
-3.27404 6.54012 0.0553906 -3.20319 5.81358 0.0651029 -3.06582 5.07187 0.0763145 
-2.8666 4.31688 0.0895527 -2.58422 3.55549 0.105384 -2.21725 2.79104 0.124385 
-1.7753 2.03762 0.149761 -1.27251 1.32883 0.187151 -0.600064 0.601737 0.206349 
-0.524541 0.573553 0.179383 -0.459453 0.55498 0.161107 -0.401011 0.547549 0.156346 
-0.325442 0.503812 0.160415 -0.268456 0.502301 0.1671 -0.227111 0.507601 0.163086 
-0.192126 0.535674 0.163074 -0.147638 0.541658 0.166739 -0.0921765 0.541771 0.171759 
-0.0455283 0.545724 0.168805 -0.00398448 0.551857 0.170203 0.0415553 0.561967 0.181195 
0.0944253 0.564919 0.185857 0.150889 0.576558 0.180242 0.199068 0.558962 0.175392 
0.234998 0.532192 0.166826 0.284896 0.540158 0.171221 0.328247 0.510015 0.170049 
0.367375 0.495543 0.16794 0.435148 0.520111 0.162614 0.546672 0.592184 0.172142 
-1.01959 12.8811 -0.0261059 -0.955446 12.645 -0.00340331 -0.831459 12.4004 0.00781917 
-0.676124 12.1069 0.0129766 -0.547972 11.7728 0.0189283 -0.421901 11.4621 0.0228628 
-0.322505 11.1646 0.0250014 -0.254805 10.9069 0.0309009 -0.238003 10.6493 0.0525999 
-0.227168 10.4749 0.084057 -0.168597 10.2685 0.116258 0.442094 10.268 0.11463 
0.518609 10.4504 0.0715355 0.531169 10.6012 0.050767 0.546751 10.8304 0.0415599 
0.603142 11.0994 0.0330502 0.679469 11.3995 0.0280168 0.788766 11.7028 0.0251911 
0.912952 12.0339 0.0201396 1.03707 12.3408 0.0138364 1.14073 12.5545 0.00435793 
1.20856 12.7627 -0.00759337 1.1793 13.6046 -0.00894039 1.10589 13.8156 0.00597796 
0.969887 14.0548 0.0114146 0.824418 14.3943 0.00546716 0.695358 14.7618 0.000391362 
0.579495 15.1016 -0.00322576 0.489498 15.3991 -0.00278837 0.443642 15.6791 0.002442 
0.418549 15.8746 0.0135067 0.358558 16.0618 0.0336077 -0.326669 16.0944 0.0410515 
-0.349967 15.8421 0.0123451 -0.365832 15.7282 -0.00653603 -0.380928 15.5246 -0.013927 
-0.44182 15.3104 -0.0155104 -0.533863 15.0486 -0.0133939 -0.64147 14.7457 -0.0132568 
-0.766057 14.4401 -0.0150608 -0.90428 14.1421 -0.00944957 -1.00203 13.9119 -0.0160526 
-1.04234 13.7094 -0.0316607 0.130949 9.87314 0.122198 -1.13127 13.3106 -0.0320043 
1.33134 13.1843 -0.00533931 0.178512 16.4439 0.0445419 -0.169675 16.7 0.0310975 
2.99758 27.0629 -0.0261776 3.27593 26.8945 -0.0237942 2.32334 26.658 -0.0299463 
1.93232 26.5839 -0.0325757 1.5152 26.5066 -0.0353029 1.12239 26.4466 -0.0377114 
0.709883 26.3921 -0.0399667 0.323028 26.3463 -0.041754 -0.086276 26.357 -0.0434438 
-0.500717 26.3848 -0.0447893 -0.896949 26.4224 -0.045729 -1.30236 26.516 -0.0465403 
-1.69058 26.606 -0.0470273 -2.08897 26.7443 -0.0475193 -2.46251 26.8547 -0.0477333 
-2.84993 26.9828 -0.0479792 -3.21579 27.0879 -0.0482223 -3.57026 27.2428 -0.0486861 
-3.92325 27.3617 -0.0492285 -1.21861 12.3379 -0.00914219 2.18529 2.96815 0.104418 
1.79531 2.20704 0.121032 1.20002 1.3393 0.146374 2.50917 3.76157 0.0900528 
2.73422 4.50488 0.0787168 2.88128 5.25228 0.0696621 2.96009 5.9568 0.0621072 
3.00592 6.68769 0.0548721 2.99806 7.42221 0.0485324 2.94952 8.17544 0.0431003 
2.85791 8.89124 0.0388753 2.74543 9.57699 0.0354206 2.61108 10.2827 0.0322792 
2.46544 11 0.0294632 2.31845 11.771 0.0263493 2.21558 12.5329 0.0231125 
2.20955 13.2533 0.0212702 2.27141 14.0041 0.0197029 2.33282 14.7429 0.0164861 
2.4146 15.4764 0.0126459 2.51662 16.224 0.00870514 2.64221 16.9804 0.0049781 
2.75619 17.766 0.00112265 2.86837 18.5095 -0.00206882 2.97044 19.2497 -0.00486469 
3.0502 20.0444 -0.00756653 3.111 20.819 -0.00990148 3.14628 21.5856 -0.0119047 
3.17115 22.3266 -0.0136819 3.19701 23.0921 -0.0153642 3.22903 23.8703 -0.0169614 
3.26605 24.6055 -0.0183695 3.27487 25.3597 -0.0200093 3.27381 26.1125 -0.0218208 
-4.03482 25.7402 -0.0457258 -4.08252 26.6684 -0.0478267 -4.2581 27.5105 -0.0499191 
-3.95904 24.9324 -0.0438948 -3.89325 24.1118 -0.0420807 -3.82191 23.2665 -0.0401657 
-3.7476 22.493 -0.0383212 -3.65921 21.6894 -0.0362302 -3.56726 20.8932 -0.0339897 
-3.47436 20.1467 -0.0316767 -3.35648 19.3396 -0.028885 -3.22874 18.5521 -0.0257571 
-3.09045 17.7823 -0.022408 -2.9386 17.007 -0.0188241 -2.81338 16.2539 -0.0151194 
-2.69591 15.4819 -0.011063 -2.58871 14.663 -0.00667536 -2.55488 13.8958 -0.00204425 
-2.56504 13.1158 0.00299995 -2.60803 12.3401 0.00807797 -2.66013 11.5296 0.0132516 
-2.74723 10.7291 0.0189036 -2.83099 9.97749 0.0246859 -2.9152 9.1874 0.0312249 
-2.98073 8.38132 0.0387108 -3.01855 7.59922 0.0467649 -3.0258 6.85708 0.0549613 
-2.97925 6.08323 0.0644236 -2.88492 5.34889 0.0744241 -2.70248 4.52794 0.0868341 
-2.45323 3.72851 0.100598 -2.10457 2.88459 0.117181 -1.65828 2.04235 0.137472 
-1.15066 1.26582 0.165583 1.48268 13.7531 -1.40274e-05 -0.215562 9.25053 0.107564 
-0.889245 1.21612 0.140639 -1.05838 1.28779 0.146858 -0.712703 1.11337 0.141036 
-0.592992 1.08426 0.143533 -0.510521 1.10743 0.144629 -0.426914 1.14318 0.146437 
-0.333851 1.16775 0.147988 -0.2405 1.17678 0.149566 -0.144323 1.19767 0.151099 
-0.0532919 1.1926 0.154403 0.0456706 1.19623 0.160508 0.14085 1.20217 0.167227 
0.240188 1.19791 0.169764 0.336459 1.19192 0.164662 0.434413 1.17732 0.15722 
0.539064 1.17992 0.152999 0.639377 1.16209 0.152856 0.687105 1.07065 0.152298 
0.786483 1.06508 0.148091 0.921342 1.11676 0.146985 -1.32238 12.7491 -0.0160227 
1.54838 12.5982 0.00649221 0.441848 9.25876 0.0980655 -1.11507 12.0288 0.000274179 
-0.992748 11.7312 0.00902671 -0.858854 11.4159 0.0156021 -0.746177 11.0813 0.0212004 
-0.658397 10.7425 0.027349 -0.593019 10.4108 0.0363208 -0.547483 10.102 0.0493207 
-0.500465 9.83785 0.0692289 -0.418118 9.57162 0.0914945 0.788647 9.79974 0.0639299 
0.835304 10.0409 0.0502136 0.876283 10.3541 0.040297 0.932595 10.6785 0.0333561 
1.02457 11.0069 0.0275335 1.12911 11.332 0.0221388 1.22209 11.6669 0.0170878 
1.31156 11.9796 0.011355 1.41081 12.2546 0.00626442 0.434195 17.0292 0.0157535 
1.24917 14.3971 0.00261964 1.13439 14.718 0.00169134 1.04352 15.123 -0.00140896 
0.949803 15.5236 -0.00362736 0.847053 15.873 -0.00392885 0.775099 16.2159 -0.0021262 
0.711628 16.4796 0.00123185 0.61492 16.7101 0.00810207 -1.3413 13.8426 -0.0231877 
-0.634886 16.5039 -0.00108734 -0.678544 16.3082 -0.0102499 -0.728144 16.0705 -0.0145617 
-0.803705 15.8083 -0.0164023 -0.897967 15.51 -0.0175749 -0.99462 15.1863 -0.0174214 
-1.09976 14.855 -0.0167048 -1.19184 14.5327 -0.017487 -1.25451 14.2303 -0.0212759 
2.68384 26.8107 -0.0277552 0.68579 9.57731 0.0822642 1.37549 14.1613 0.000597553 
-0.555631 16.6296 0.0111134 1.7711 13.1103 0.0110574 0.0997586 8.75936 0.104745 
-1.50115 13.3179 -0.015882 0.108726 17.3935 0.017421 -0.506668 17.1991 0.0135155 
-1.51623 12.1045 -0.0026253 1.94339 12.2476 0.0180179 2.12365 25.8716 -0.0286418 
1.7054 14.454 0.00548914 1.31014 25.7228 -0.0332436 0.129983 25.5645 -0.0384834 
0.509512 25.5839 -0.0369415 -0.678198 25.6554 -0.0413222 -1.07617 25.7181 -0.0423337 
-1.46812 25.8154 -0.0432303 -1.84612 25.893 -0.0438268 -2.23097 26.0249 -0.0445334 
-2.61451 26.1767 -0.045207 -2.99365 26.3065 -0.0458102 -3.33774 26.444 -0.0464338 
-3.70013 26.6118 -0.0472092 -1.52387 14.4116 -0.0195985 1.73345 2.40598 0.119733 
2.95487 26.3584 -0.0245821 2.06465 3.1525 0.106261 1.38857 1.74084 0.133706 
2.53467 4.75062 0.0824313 2.65169 5.52582 0.0730921 2.71648 6.25695 0.0649778 
2.73291 7.03285 0.0570802 2.69827 7.78728 0.050191 2.62815 8.56641 0.0437118 
2.53036 9.259 0.0385108 2.40569 9.96741 0.0335605 2.25507 10.6968 0.0285839 
2.101 11.4483 0.0238049 2.00934 14.3215 0.0123179 2.07764 15.0052 0.0099794 
2.19158 15.7686 0.00727762 2.29366 16.4903 0.00436388 2.41208 17.2614 0.00133776 
2.52365 18.0002 -0.0014086 2.61504 18.7406 -0.00399265 2.6991 19.5224 -0.00651434 
2.77372 20.3095 -0.00890175 2.80435 21.0995 -0.0112435 2.83083 21.8548 -0.0133245 
2.85429 22.6401 -0.0153759 2.88343 23.4462 -0.0173965 2.9222 24.2123 -0.0191726 
3.00509 24.9069 -0.0204878 -0.947682 1.7065 0.13239 -1.50813 2.09895 0.128498 
0.905531 25.6378 -0.0351895 -3.63241 24.4567 -0.0419668 -3.57761 23.5821 -0.0398087 
2.36031 3.98257 0.0927293 -3.80337 26.0063 -0.0459036 1.53416 14.7828 0.00247889 
-3.51034 22.7946 -0.0377919 -3.42825 21.9971 -0.0356429 -3.33848 21.1911 -0.0333761 
-3.24271 20.449 -0.0311646 -3.13281 19.6459 -0.0286875 -3.02362 18.8786 -0.026237 
-2.88504 18.0829 -0.0234216 -2.73523 17.299 -0.0205538 -2.59478 16.5697 -0.0178616 
-2.45296 15.7886 -0.014926 -2.34961 15.0106 -0.0115315 -2.22044 14.1221 -0.00777141 
-2.30815 13.4494 -0.00238879 -2.29752 12.7336 0.00211767 -2.37637 11.9545 0.00824216 
-2.43789 11.1726 0.0144207 -2.49952 10.4209 0.0209476 -2.59419 9.62725 0.0284218 
-2.67704 8.80825 0.0365017 -2.73492 7.98658 0.0452313 -2.75274 7.20182 0.0541026 
-2.73204 6.42459 0.0632555 -2.65459 5.61961 0.0734609 -2.51755 4.8075 0.0844332 
-2.32809 4.0197 0.0959945 -2.02312 3.14561 0.110299 -0.242445 8.16768 0.100737 
-1.668 12.6222 -0.00633611 -1.15696 1.80589 0.130391 1.38095 14.9624 0.00126414 
-1.39537 11.7204 0.00289294 -0.820554 1.75527 0.133875 -0.705405 1.81165 0.13564 
-0.57727 1.88176 0.137484 -0.438382 1.92136 0.139608 -0.290308 1.93234 0.142196 
-0.147832 1.93277 0.145493 -0.00985041 1.92371 0.149551 0.142845 1.93214 0.153784 
0.285794 1.93437 0.155695 0.433061 1.91768 0.154454 0.585864 1.93253 0.150104 
0.749282 1.93554 0.145141 0.906705 1.91035 0.141504 1.02701 1.83145 0.139229 
1.06446 1.64139 0.13919 0.406237 8.18955 0.0981068 0.936924 8.94395 0.0740253 
-1.73489 13.9649 -0.0143832 -3.70327 25.2686 -0.043997 -1.27646 11.4018 0.00966214 
-1.16215 11.0553 0.016848 -1.07129 10.693 0.0234597 -0.981728 10.3379 0.0305303 
-0.899148 9.98095 0.0391147 -0.838166 9.62317 0.0500827 -0.762714 9.31494 0.063587 
1.05453 9.2353 0.061666 -0.271892 25.5939 -0.0399854 0.42256 18.0231 0.00545226 
1.13346 9.53597 0.0516381 1.18877 9.91911 0.0428168 1.27089 10.2745 0.0357328 
1.37456 10.6183 0.02963 1.45194 10.9635 0.0243507 1.51592 11.3526 0.0189201 
-0.791852 17.4044 0.000367048 1.35876 15.4208 -0.00022012 1.31741 15.9087 -0.00210462 
1.23127 16.3399 -0.00315146 1.11867 16.7199 -0.00286818 1.00737 17.022 -0.00144562 
1.71311 25.7753 -0.0309502 2.55353 25.9195 -0.0259901 -0.982698 16.8437 -0.0127007 
-1.07275 16.6087 -0.0156165 -1.15589 16.2974 -0.0173177 -1.25653 15.968 -0.0179547 
-1.3379 15.6097 -0.0179157 -1.41311 15.2143 -0.0180603 -1.4647 14.8393 -0.0188418 
0.720628 8.63057 0.0875047 -0.908713 17.1409 -0.00723462 -0.301031 17.8569 0.00829868 
-0.659668 9.00961 0.0791247 1.74075 11.9027 0.0154539 1.99148 13.6693 0.0149313 
2.94551 25.5684 -0.0225288 0.0569171 7.65515 0.102637 0.0392378 18.4897 0.0027066 
1.76301 13.8613 0.00846842 1.2605 1.7456 0.134727 -1.93805 13.2683 -0.00644048 
-0.491269 8.65072 0.0930043 0.699794 17.6336 0.00469835 1.56917 11.7053 0.014363 
0.886134 17.3023 0.00139118 -3.25896 23.0564 -0.0373215 -0.449011 24.7642 -0.0362552 
-1.24905 24.9459 -0.0388844 -0.855471 24.8581 -0.0376918 -2.011 25.1253 -0.0407545 
-2.3734 25.295 -0.0418389 -2.76379 25.4761 -0.0429457 -3.13757 25.6107 -0.0438677 
-3.47657 25.7636 -0.0447865 -1.63182 25.0124 -0.0397713 -1.56884 11.0822 0.0126912 
0.339058 24.7293 -0.0334658 2.42317 6.60342 0.0673336 2.29697 5.0166 0.0857843 
2.39909 7.44396 0.0584732 2.35224 8.2146 0.0505241 2.29227 8.97553 0.0428247 
2.18643 9.67791 0.0363706 2.05402 10.3707 0.0301218 1.86557 11.1477 0.0226601 
2.03044 16.7063 0.000684231 2.13436 17.4643 -0.00151962 2.25311 18.2219 -0.00350998 
2.34402 18.9726 -0.00563351 2.40375 19.7402 -0.00787006 2.44699 20.5798 -0.0103825 
2.47024 21.365 -0.0127787 2.49071 22.1547 -0.0151169 2.50774 22.9898 -0.0175563 
2.56324 23.8845 -0.0199467 2.64753 24.8249 -0.022217 -1.02603 2.53485 0.124614 
1.52724 2.51038 0.123407 -3.17934 22.2944 -0.0351189 -3.30746 23.9269 -0.0396836 
-3.08987 21.4935 -0.0327637 -2.99263 20.6926 -0.0303969 -2.88875 19.9506 -0.0281824 
-2.77283 19.1553 -0.0259014 -2.66082 18.3954 -0.0238075 -2.51476 17.588 -0.021521 
-2.36484 16.8317 -0.0194516 -2.20255 16.0881 -0.0177155 -2.05601 15.3206 -0.0159132 
-2.04037 14.6028 -0.0129152 -2.03155 12.3689 0.00148615 -2.15441 11.6387 0.00876359 
-2.12972 10.955 0.0150319 -2.24782 10.1084 0.0240988 -2.33365 9.27914 0.0332844 
-2.40344 8.4131 0.043202 -2.43641 7.61274 0.0526378 -2.44594 6.78935 0.0623379 
-2.39912 5.94454 0.0726107 -2.30945 5.16171 0.0824338 -2.164 4.34003 0.0931037 
-1.9398 3.50924 0.104839 -1.61206 2.64898 0.117988 -1.76897 15.5735 -0.018192 
-0.761826 18.379 -0.0022572 1.83799 15.2411 0.0049821 0.721578 7.55428 0.0941471 
-1.72585 11.3891 0.00854443 -0.869552 2.66828 0.126265 -0.690549 2.74702 0.128843 
-0.489728 2.76702 0.132181 -0.292834 2.75176 0.135826 -0.10971 2.763 0.139014 
0.0877157 2.75956 0.142112 0.281112 2.74567 0.143898 0.479525 2.76597 0.14306 
0.678897 2.76494 0.140407 0.899664 2.77074 0.13591 1.10545 2.72405 0.131613 
1.31059 2.63747 0.127481 -0.0479066 24.7171 -0.0348299 2.39157 5.80701 0.0761705 
2.29511 25.1942 -0.025316 1.32451 8.75964 0.0611162 -1.4387 10.7643 0.0185111 
-1.35933 10.3511 0.0256706 -1.29618 9.95375 0.0328736 -1.22559 9.54269 0.0412432 
-1.15282 9.1388 0.0508724 -1.04162 8.82035 0.0613104 1.19296 8.39677 0.0715638 
-1.80209 14.6566 -0.0161944 0.740672 18.5987 -0.00101001 -0.290236 7.03084 0.103303 
1.43278 9.09846 0.052455 1.50012 9.51237 0.0444984 1.60547 9.91299 0.0374126 
1.76536 10.2166 0.0320857 1.73957 10.7697 0.0257861 1.16434 17.7972 -0.0020931 
0.409551 19.0975 -0.0031086 1.66226 16.0995 -0.000218479 1.66743 16.7871 -0.00214637 
1.47166 17.1518 -0.00326856 1.30832 17.4605 -0.00310042 -0.40221 19.0262 -0.0037517 
-1.31457 17.4406 -0.0150746 -1.42012 17.1543 -0.0170701 -1.5379 16.8124 -0.0182778 
-1.67891 16.4656 -0.0188577 -1.63205 15.8691 -0.0184543 0.390286 7.02156 0.102528 
-1.16503 2.42876 0.123335 -1.71561 15.0083 -0.0179953 1.95501 15.9848 0.00315146 
0.996413 8.0201 0.0829971 0.989352 18.1754 -0.00108301 -0.912783 8.52709 0.072986 
1.92431 24.9933 -0.0267337 0.713763 24.7932 -0.0321766 2.14326 4.20199 0.0963668 
1.1008 24.8893 -0.0307303 0.0133312 6.4886 0.107477 1.62512 15.4493 0.00149168 
-1.851 11.8362 0.00430433 -1.29322 2.31133 0.123256 1.96805 3.43027 0.106454 
-3.30697 24.847 -0.0420699 -0.552959 7.57293 0.0957515 0.0193268 19.7037 -0.00745759 
-1.1315 18.2812 -0.00920436 -1.18185 17.6454 -0.011694 1.51763 24.9346 -0.0287676 
-2.91777 24.7907 -0.0410359 -2.15684 24.3249 -0.0378341 2.0429 8.69328 0.0487277 
1.26168 7.53619 0.0807565 2.00877 7.96929 0.0584803 0.808053 19.6982 -0.00702802 
2.09583 7.06634 0.0681979 1.8545 17.6386 -0.00329184 1.99292 18.4068 -0.00482491 
2.05762 19.1847 -0.00681981 2.06115 19.9343 -0.00896973 2.09671 20.7714 -0.01158 
2.10425 21.6076 -0.0144029 2.10527 22.4811 -0.0173086 2.13197 23.3968 -0.0202579 
2.21309 24.3337 -0.0229621 -0.980028 3.60469 0.116987 -1.65972 18.0774 -0.0178845 
-2.91182 22.5938 -0.0346851 -3.01812 23.3192 -0.0370737 -2.62859 20.2039 -0.0273024 
-2.83965 21.8036 -0.0322844 -2.50645 19.3928 -0.0249954 -2.42877 18.667 -0.0234034 
-2.30097 17.8515 -0.0216567 -2.12278 17.073 -0.0200773 -1.96111 16.3484 -0.0190319 
0.167715 23.7912 -0.0294477 0.342176 5.74213 0.111979 -1.98686 9.74888 0.0292904 
-2.06005 8.93064 0.0396693 -2.11232 8.0662 0.0506203 -2.11874 7.25191 0.0609932 
-2.11251 6.36264 0.0716467 -2.052 5.51089 0.0819079 -1.94725 4.6849 0.0918769 
-1.78019 3.83421 0.102524 1.01457 6.99203 0.0923019 1.63346 8.31747 0.0605886 
-0.754385 3.78079 0.119598 -0.500646 3.75659 0.123983 -0.246968 3.66928 0.128474 
-0.0164417 3.67641 0.131007 0.215122 3.6429 0.132771 0.473389 3.69793 0.131741 
0.71323 3.73334 0.129181 0.981943 3.72161 0.125213 1.24904 3.72362 0.120169 
1.50331 3.61387 0.115722 -1.72188 10.4553 0.0210817 -0.752509 8.12276 0.0857506 
1.07083 19.107 -0.00497909 -0.218036 23.7963 -0.0307659 1.46252 7.90799 0.0706119 
-2.74735 20.9704 -0.0297068 -1.67621 9.47875 0.0356581 -1.4965 9.25897 0.0415218 
-1.46787 8.7373 0.0507324 -1.37319 8.27642 0.0606646 1.97189 9.43132 0.0403064 
-1.2014 19.4272 -0.0135776 -0.824962 19.711 -0.011428 0.724766 6.34688 0.103244 
-1.195 3.40979 0.114858 -2.53292 24.5988 -0.039599 -1.78721 17.7091 -0.0191325 
-1.91888 17.311 -0.0197899 -1.37491 3.2282 0.113456 -0.344755 5.78123 0.109808 
1.29111 18.6268 -0.00439056 -1.19108 7.96544 0.0711073 -0.626498 23.8941 -0.0324609 
-1.79876 24.1381 -0.0363516 0.436454 20.3472 -0.0109565 0.553274 23.8631 -0.0284425 
2.04338 5.32023 0.088357 1.89452 4.38431 0.100451 2.11716 6.17139 0.0779778 
-1.4236 24.0854 -0.035305 -1.02777 24.0015 -0.0340068 0.941601 23.9511 -0.027303 
-0.426414 20.2988 -0.0128875 -0.00386079 5.53016 0.114069 -1.9264 10.6222 0.0183967 
1.71852 3.4359 0.112314 -1.55324 3.02556 0.113309 -1.46552 18.3425 -0.0151789 
1.63329 17.8797 -0.00408565 1.7798 9.23871 0.0447642 -1.64061 10.0848 0.026992 
1.73604 8.74462 0.052375 -1.54619 19.2722 -0.0166915 -2.9958 24.0456 -0.0390417 
1.45829 18.2441 -0.00428724 1.30808 24.1565 -0.0266162 -0.630688 6.38905 0.101967 
-2.10042 18.7282 -0.0215778 0.883269 20.8404 -0.0130887 1.66345 19.1915 -0.00696161 
0.00746179 22.5359 -0.0235182 1.77381 7.48254 0.0692374 1.76402 18.5889 -0.00541916 
1.68638 20.9272 -0.0127381 1.68876 21.8835 -0.0163156 1.68443 22.8446 -0.0199587 
1.72741 23.9464 -0.0238908 -0.714688 5.02974 0.110401 -2.6591 23.0861 -0.0350791 
-1.74174 7.85411 0.0590946 -0.865709 7.08668 0.0910675 -1.24907 20.6817 -0.0190661 
-0.997635 7.74941 0.080789 -1.80677 6.87382 0.0706714 -1.77827 5.89663 0.0820753 
-1.70085 5.0275 0.0922134 -1.55702 4.1139 0.102906 1.28768 6.63185 0.0902056 
0.0145606 21.0293 -0.0156036 -1.03252 4.69824 0.107349 -0.151491 4.64507 0.120694 
0.386209 4.59362 0.122557 0.697545 4.99329 0.116149 0.954926 4.63171 0.116258 
1.26932 4.78575 0.109498 1.62696 4.75494 0.102664 -2.5414 22.1325 -0.031755 
-1.64845 20.4062 -0.0208856 -1.973 20.0441 -0.0226845 -1.31716 4.37396 0.104762 
1.07014 5.77886 0.102783 -2.1121 18.0966 -0.0211743 0.529018 21.7951 -0.0185414 
-1.96139 23.1838 -0.0329998 0.408686 22.947 -0.0246106 -0.832103 20.8793 -0.0178084 
1.81961 5.7209 0.0887644 -0.413581 22.918 -0.0269661 1.81238 6.59567 0.0793089 
-2.34207 23.5538 -0.0354554 1.68419 20.0724 -0.00966624 -1.56443 22.988 -0.0307945 
-1.19971 23.1422 -0.0304781 -0.415547 4.61604 0.118196 0.802861 22.9301 -0.0231321 
-2.24991 19.6583 -0.023811 -1.77276 8.65573 0.0468492 -2.36462 20.4965 -0.0264243 
0.116534 4.65351 0.122039 1.25816 23.2403 -0.0229406 -2.51652 21.3104 -0.029261 
-1.84354 19.0512 -0.0195924 1.24231 20.1481 -0.00961765 1.53681 7.03148 0.0800748 
1.38764 19.429 -0.00718705 -2.68515 24.0022 -0.0380194 -1.04473 5.96493 0.0965194 
-1.49862 7.37783 0.0706633 -1.40961 5.4078 0.0939342 -1.7152 21.8549 -0.0264799 
1.49746 5.88694 0.0937065 -0.810497 22.8368 -0.0279651 -0.512928 21.7183 -0.0211657 
1.31046 21.1515 -0.0140946 -2.20561 22.4504 -0.0312033 -2.12317 21.2194 -0.0266865 
-1.4797 6.40837 0.0825641 -1.13674 21.929 -0.024331 1.13015 22.0911 -0.0188335 
-1.20403 6.98091 0.0831048 0.143874 11.2712 -0.114015 0.929122 13.1643 -0.101193 
0.143002 11.2725 -0.0566324 0.92769 13.1659 -0.0705988 0.836271 12.8181 -0.0876361 
0.0332599 14.8299 -0.117287 -0.739517 13.0922 -0.103134 0.122681 12.0129 -0.0915306 
0.0867913 12.8953 -0.101287 -0.391772 10.2749 -0.0779035 0.1312 13.4502 -0.163387 
0.121452 13.7491 -0.16266 0.112924 14.0264 -0.164667 0.102939 14.3045 -0.165771 
0.0902845 14.5766 -0.167746 0.0728825 14.8384 -0.169488 0.0796316 14.9943 -0.139408 
0.146675 14.9404 -0.145809 0.241842 14.8044 -0.145045 0.359581 14.6057 -0.140983 
0.499209 14.353 -0.140848 0.652013 14.0645 -0.139889 0.802275 13.7543 -0.138186 
0.906039 13.4236 -0.141375 0.218147 13.2267 -0.105618 0.341118 13.2176 -0.0963584 
0.45679 13.2218 -0.0979574 0.567067 13.2246 -0.0961869 0.684607 13.2238 -0.0905118 
0.817811 13.2284 -0.0946437 0.131837 13.4779 -0.0404164 0.115078 13.8473 -0.0367315 
0.102814 14.2055 -0.0411418 0.0879164 14.5341 -0.0462677 0.0740071 14.8278 -0.0632246 
0.0767111 14.9886 -0.101426 0.140677 14.9439 -0.0993004 0.238731 14.801 -0.0929489 
0.356721 14.6047 -0.0831729 0.488935 14.3682 -0.0748291 0.637328 14.0887 -0.0646978 
0.798651 13.754 -0.0561385 0.895154 13.4034 -0.0448154 0.226845 13.238 -0.0891992 
0.364196 13.2191 -0.0957625 0.520671 13.2193 -0.0918891 0.669533 13.2207 -0.08819 
0.815154 13.2309 -0.075943 -0.0807468 13.2451 -0.122899 -0.225912 13.2483 -0.112925 
-0.366075 13.2687 -0.112725 -0.504587 13.2887 -0.114953 -0.655671 13.32 -0.125361 
-0.0102751 15.0115 -0.133354 -0.0594161 14.9751 -0.133998 -0.149393 14.8451 -0.140142 
-0.2579 14.6529 -0.141402 -0.385972 14.4172 -0.146757 -0.526265 14.1432 -0.14956 
-0.666991 13.84 -0.15288 -0.75857 13.5112 -0.163794 0.0161679 13.4509 -0.158143 
0.0151257 13.7559 -0.166423 0.00776585 14.0421 -0.167928 0.00249674 14.3252 -0.169139 
-0.00108762 14.5959 -0.171259 -0.00236349 14.8522 -0.171558 -0.0740602 13.2266 -0.106435 
-0.224154 13.2484 -0.107937 -0.36314 13.2689 -0.108981 -0.507211 13.2873 -0.113582 
-0.660283 13.3169 -0.106603 -0.00893229 15.0047 -0.0978348 -0.0636002 14.9686 -0.091894 
-0.149965 14.8415 -0.0879541 -0.260122 14.654 -0.0831262 -0.386847 14.4189 -0.0809736 
-0.530206 14.1357 -0.0772504 -0.676853 13.8221 -0.0710242 -0.760262 13.4953 -0.0628213 
0.0162177 13.4703 -0.0410981 0.0117809 13.7599 -0.0394816 0.0047426 14.0393 -0.0432562 
-0.000798937 14.3188 -0.0475678 -0.00402017 14.593 -0.0524063 -0.00372873 14.8495 -0.0625291 
0.231528 13.1251 -0.106669 0.334294 13.1261 -0.0952925 0.452422 13.1186 -0.0979512 
0.580098 13.1211 -0.0905531 0.707424 13.1197 -0.0872213 0.823513 13.1102 -0.0971849 
0.92337 12.9131 -0.140298 0.836043 12.5812 -0.130543 0.705883 12.2765 -0.127114 
0.568601 11.9922 -0.125465 0.440806 11.7417 -0.123196 0.330822 11.5395 -0.119554 
0.238039 11.3891 -0.114069 0.179961 11.3374 -0.107872 0.148487 12.9001 -0.158574 
0.155276 12.5992 -0.16066 0.166129 12.3053 -0.15679 0.173738 12.0191 -0.152319 
0.175939 11.7438 -0.149025 0.177352 11.4803 -0.141344 0.237728 13.1183 -0.0933651 
0.374329 13.1228 -0.093854 0.520225 13.1146 -0.0891253 0.674147 13.1154 -0.0880112 
0.81304 13.1046 -0.0785829 0.915402 12.9195 -0.0390144 0.837023 12.5805 -0.0468393 
0.692989 12.2493 -0.0498002 0.546945 11.9516 -0.0569523 0.422532 11.707 -0.0611809 
0.314163 11.5081 -0.0648724 0.230835 11.3755 -0.0676521 0.178966 11.3304 -0.0692861 
0.142062 12.9051 -0.0416438 0.151847 12.6039 -0.0325907 0.163573 12.306 -0.0304616 
0.170805 12.0144 -0.0273418 0.176581 11.7395 -0.0279217 0.178234 11.4868 -0.0334271 
0.0326457 12.9153 -0.166283 0.0485661 12.6102 -0.164392 0.0618318 12.3015 -0.159784 
0.0751785 12.0021 -0.154922 0.0878484 11.7313 -0.149978 0.104376 11.4811 -0.14142 
-0.74082 13.0102 -0.156121 -0.650133 12.6644 -0.144629 -0.496289 12.3305 -0.135694 
-0.338282 12.0244 -0.131421 -0.192569 11.7575 -0.12481 -0.06785 11.5432 -0.121815 
0.0344775 11.3907 -0.113061 0.0967771 11.3377 -0.107336 -0.0770928 13.1242 -0.113932 
-0.204048 13.1489 -0.109407 -0.35 13.164 -0.110999 -0.498811 13.1837 -0.110282 
-0.638618 13.1917 -0.118904 0.0246506 12.9056 -0.0457623 0.045875 12.6034 -0.0355507 
0.0585262 12.306 -0.0330042 0.0724838 12.0159 -0.0296282 0.0867688 11.7401 -0.0286671 
0.103021 11.4875 -0.0311276 -0.748416 13.0073 -0.055585 -0.651696 12.6596 -0.0596814 
-0.494752 12.3212 -0.0603838 -0.332379 12.0079 -0.0608455 -0.180756 11.7301 -0.0623976 
-0.0542603 11.5159 -0.0636934 0.0407178 11.3779 -0.0683113 0.100759 11.3334 -0.0699524 
-0.0653646 13.1271 -0.0973689 -0.164364 13.1476 -0.109643 -0.28301 13.1573 -0.10639 
-0.405844 13.1705 -0.107982 -0.529981 13.1878 -0.111977 -0.652295 13.1907 -0.102632 
0 0 0 0 0 0 0 0 0 
0 0 0 0 0 0 0 0 0 
0 0 0 0 0 0 0 0 0 
0 0 0 0 0 0 0 0 0 
0 0 0 0 0 0 0 0 0 
0 0 0 0 0 0 0 0 0 
0 0 0 0 0 0 0 0 0 
0 0 0 0 0 0 0 0 0 
0 0 0 0 0 0 0 0 0 
0 0 0 0 0 0 0 0 0 
0 0 0 0 0 0 0 0 0 
0 0 0 0 0 0 0 0 0 
0 0 0 0 0 0 0 0 0 
0 0 0 0 0 0 0 0 0 
0 0 0 0 0 0 0 0 0 
0 0 0 0 0 0 0 0 0 
0 0 0 0 0 0 0 0 0 
0 0 0 0 0 0 0 0 0 
0 0 0 0 0 0 0 0 0 
3.86324 28.3743 -0.270533 3.60781 28.339 -0.271802 3.34419 28.2993 -0.272804 
3.07414 28.2544 -0.273435 2.80387 28.2061 -0.273655 2.51934 28.1533 -0.273633 
2.23622 28.1008 -0.273435 1.9411 28.0484 -0.273166 1.61951 27.9962 -0.272836 
1.30313 27.952 -0.272593 0.983962 27.9161 -0.272428 0.658369 27.8898 -0.272419 
0.342495 27.8754 -0.272636 0.0283354 27.8724 -0.273206 -0.297543 27.8816 -0.274046 
-0.638641 27.905 -0.275184 -0.967957 27.9408 -0.276543 -1.30377 27.9904 -0.278332 
-1.62965 28.0506 -0.280329 -1.93998 28.1183 -0.282423 -2.27614 28.2017 -0.284815 
-2.59027 28.2879 -0.28718 -2.87888 28.3727 -0.289396 -3.16919 28.4618 -0.29162 
-3.4444 28.5482 -0.293667 -3.70989 28.6318 -0.295541 -3.97491 28.7141 -0.297176 
-4.23255 28.7917 -0.298517 -4.49631 28.868 -0.299592 -4.77963 28.9468 -0.300451 
0.610357 0.493944 -0.177627 1.30903 1.47868 -0.110559 1.84807 2.12755 -0.109038 
2.25786 2.71139 -0.112703 2.58056 3.24764 -0.118086 2.86572 3.81304 -0.122924 
3.08983 4.3624 -0.127419 3.25444 4.87836 -0.131894 3.38053 5.41314 -0.13683 
3.46128 5.92226 -0.141696 3.5053 6.4083 -0.14635 3.51993 6.93279 -0.151375 
3.50338 7.47504 -0.156583 3.45744 8.03819 -0.162272 3.3887 8.60054 -0.168067 
3.30993 9.12501 -0.173492 3.21815 9.67611 -0.17919 3.11619 10.2705 -0.185177 
3.01783 10.8697 -0.191115 2.92886 11.4875 -0.196937 2.85802 12.1225 -0.202102 
2.81307 12.7712 -0.206449 2.79953 13.4586 -0.209921 2.82141 14.1467 -0.212312 
2.87486 14.8283 -0.213582 2.95222 15.499 -0.214477 3.04058 16.1283 -0.215434 
3.13623 16.7469 -0.216595 3.23348 17.3563 -0.218072 3.32803 17.9585 -0.219941 
3.41459 18.5419 -0.22217 3.49154 19.1089 -0.224555 3.56438 19.7169 -0.227391 
3.6265 20.3265 -0.230455 3.67697 20.9258 -0.233746 3.72144 21.5868 -0.237625 
3.75576 22.2413 -0.241547 3.7809 22.8462 -0.245124 3.80279 23.4879 -0.248872 
3.82222 24.1378 -0.252524 3.83992 24.7506 -0.2558 3.85983 25.3998 -0.259054 
3.88326 26.0701 -0.262087 3.9103 26.7295 -0.264749 3.94104 27.3759 -0.266936 
3.97595 28.0382 -0.268872 -4.88635 28.6478 -0.299939 -4.81422 27.9858 -0.298048 
-4.74642 27.3392 -0.295986 -4.68219 26.6944 -0.293614 -4.62133 26.0527 -0.290957 
-4.55893 25.3698 -0.287866 -4.49669 24.6779 -0.284579 -4.43429 23.9926 -0.281195 
-4.37272 23.3434 -0.277947 -4.31229 22.7439 -0.274951 -4.24443 22.1203 -0.271934 
-4.16553 21.4579 -0.268858 -4.08117 20.8133 -0.266011 -3.99567 20.2134 -0.263578 
-3.90385 19.6134 -0.261356 -3.79932 18.9687 -0.259323 -3.69028 18.3198 -0.257498 
-3.5866 17.7089 -0.255897 -3.48412 17.0912 -0.254397 -3.38418 16.4507 -0.252836 
-3.29378 15.8014 -0.251055 -3.21788 15.1439 -0.248765 -3.16013 14.4647 -0.245705 
-3.12695 13.7976 -0.241782 -3.1187 13.1166 -0.236632 -3.13559 12.4422 -0.230219 
-3.171 11.8237 -0.223245 -3.22353 11.1887 -0.21537 -3.28741 10.5548 -0.206796 
-3.35489 9.93776 -0.197972 -3.41956 9.3371 -0.189051 -3.4733 8.77788 -0.180484 
-3.5154 8.21816 -0.17171 -3.54001 7.66958 -0.163012 -3.54281 7.10528 -0.154094 
-3.51804 6.54879 -0.145211 -3.46661 6.03421 -0.136833 -3.38209 5.51004 -0.12817 
-3.25822 4.97379 -0.119262 -3.08745 4.42214 -0.1103 -2.86602 3.8629 -0.100933 
-2.5993 3.31604 -0.0915817 -2.27671 2.76179 -0.0816196 -1.86689 2.1608 -0.0716484 
-1.34924 1.52407 -0.0685619 -0.635792 0.48204 -0.17819 -0.789744 13.2576 -0.130409 
-0.736619 13.158 -0.142101 -0.601131 12.9379 -0.14244 -0.437274 12.6128 -0.137472 
-0.284546 12.2925 -0.137211 -0.152008 11.9989 -0.133882 -0.0369747 11.7339 -0.129804 
0.0501036 11.5111 -0.123487 0.0978845 11.3468 -0.120715 0.101741 11.2619 -0.121617 
0.132553 11.1823 -0.144291 0.162292 11.1773 -0.143286 0.18856 11.258 -0.117428 
0.180467 11.3315 -0.12237 0.221322 11.4955 -0.125328 0.300908 11.714 -0.127504 
0.404156 11.9699 -0.129026 0.521286 12.2475 -0.129129 0.656903 12.5538 -0.126752 
0.808567 12.8621 -0.125462 0.919069 13.0539 -0.118732 0.951357 13.1373 -0.106047 
0.945829 13.192 -0.104529 0.894809 13.2876 -0.122659 0.763334 13.4956 -0.13844 
0.59829 13.807 -0.147283 0.449815 14.121 -0.15051 0.318108 14.4085 -0.153098 
0.213524 14.6489 -0.152905 0.130772 14.8452 -0.156133 0.0806608 14.9875 -0.155635 
0.0727137 15.0619 -0.156298 0.0345365 15.1515 -0.1899 0.00231124 15.1573 -0.1818 
-0.0188332 15.0878 -0.154779 -0.012709 15.02 -0.150035 -0.0537936 14.8784 -0.148392 
-0.125632 14.6851 -0.150628 -0.223421 14.4493 -0.154651 -0.34319 14.1825 -0.152989 
-0.478692 13.8867 -0.153227 -0.629713 13.59 -0.151985 -0.755822 13.3888 -0.146793 
-0.792146 13.308 -0.134057 3.85806 28.3719 -0.0242709 3.56288 28.3308 -0.025626 
3.2306 28.2792 -0.0275475 2.89749 28.2215 -0.0300314 2.56049 28.1594 -0.0328823 
2.20031 28.0927 -0.0360962 1.80974 28.0248 -0.0396244 1.37721 27.96 -0.0433312 
0.953988 27.9115 -0.0465493 0.563976 27.8827 -0.0490719 0.132345 27.8704 -0.051337 
-0.328617 27.8814 -0.0530486 -0.764535 27.9154 -0.0540579 -1.18166 27.969 -0.0544452 
-1.58221 28.0392 -0.0544355 -1.99273 28.1287 -0.0540847 -2.4054 28.2343 -0.0534913 
-2.79164 28.3446 -0.0528792 -3.16572 28.4587 -0.0523971 -3.52874 28.5727 -0.0520966 
-3.87023 28.6797 -0.0520952 -4.19732 28.7792 -0.0524532 -4.5131 28.8707 -0.0532564 
-4.7965 28.9494 -0.0542235 0.552384 0.595617 0.284173 1.41183 1.56707 0.161789 
2.04438 2.38573 0.111356 2.50114 3.09771 0.0900413 2.87248 3.81843 0.0746614 
3.1496 4.52545 0.0633961 3.33369 5.1829 0.0551602 3.44825 5.8113 0.0486404 
3.50672 6.41608 0.0436767 3.51841 7.09706 0.0392681 3.47975 7.80097 0.036194 
3.40392 8.48402 0.0343828 3.30129 9.17414 0.0336837 3.19249 9.82047 0.0337933 
3.08296 10.4612 0.0346652 2.96979 11.1813 0.0359204 2.87152 11.9713 0.0370346 
2.8106 12.7996 0.0366996 2.80099 13.64 0.0343783 2.84065 14.4481 0.0297639 
2.91778 15.2293 0.0239626 3.02002 15.9946 0.0177141 3.14614 16.8153 0.011167 
3.27659 17.6343 0.00515148 3.38918 18.3729 0.000383462 3.48843 19.0925 -0.00340998 
3.57661 19.8389 -0.00664384 3.64984 20.6024 -0.00910256 3.70795 21.387 -0.0109669 
3.75117 22.1677 -0.0123392 3.78075 22.8732 -0.0132977 3.80524 23.6035 -0.014131 
3.82832 24.3892 -0.0149728 3.85006 25.1254 -0.0158724 3.8748 25.8696 -0.017024 
3.90577 26.6508 -0.0186441 3.94149 27.4048 -0.0206304 3.97731 28.0824 -0.0226986 
-4.88715 28.6461 -0.0536765 -4.80513 27.8915 -0.0513651 -4.72082 27.0761 -0.0492708 
-4.64499 26.2948 -0.0476561 -4.56931 25.4739 -0.046239 -4.4948 24.6461 -0.0449842 
-4.41991 23.8278 -0.043765 -4.34299 23.0338 -0.0425084 -4.25984 22.2484 -0.0410277 
-4.16454 21.4415 -0.039106 -4.06419 20.6825 -0.03681 -3.94909 19.8969 -0.0338844 
-3.8191 19.0811 -0.0300906 -3.68857 18.3029 -0.0257576 -3.56029 17.5451 -0.020852 
-3.43986 16.8063 -0.0155454 -3.32882 16.0559 -0.00978629 -3.23139 15.2634 -0.00363314 
-3.15665 14.3988 0.00256212 -3.12158 13.5455 0.00799644 -3.12638 12.7127 0.012188 
-3.16933 11.8491 0.0157329 -3.2377 11.0382 0.0187493 -3.31975 10.253 0.0219253 
-3.40545 9.46675 0.0257863 -3.4788 8.70646 0.0306283 -3.52759 7.98113 0.0363253 
-3.54395 7.27342 0.0431365 -3.52042 6.59125 0.0510242 -3.45005 5.91707 0.0602948 
-3.31977 5.22187 0.0713864 -3.12186 4.5241 0.0845812 -2.85546 3.84081 0.100435 
-2.50604 3.14841 0.119984 -2.03745 2.40133 0.148414 -1.42881 1.59993 0.195007 
-0.579743 0.642665 0.29727 -0.784976 13.2544 -0.0964222 -0.73639 13.1494 -0.0768418 
-0.59814 12.9208 -0.0625376 -0.430744 12.5961 -0.0557958 -0.277157 12.2699 -0.0539011 
-0.144213 11.9751 -0.0533594 -0.0305444 11.7126 -0.0525417 0.053743 11.4975 -0.0517779 
0.101655 11.3394 -0.0506551 0.100387 11.2612 -0.0526207 0.131084 11.1847 -0.026242 
0.152894 11.1777 -0.0218644 0.18673 11.2539 -0.0471534 0.179782 11.321 -0.0499858 
0.212966 11.4698 -0.0487566 0.286463 11.6778 -0.0493017 0.386705 11.9298 -0.0483327 
0.508247 12.2194 -0.0460584 0.648413 12.5346 -0.0452859 0.797491 12.8437 -0.0471871 
0.916755 13.0524 -0.0560897 0.949999 13.1412 -0.0679722 0.94285 13.1909 -0.0658177 
0.883861 13.2936 -0.0579806 0.726548 13.5516 -0.0584953 0.556952 13.8902 -0.0636416 
0.403338 14.2189 -0.0704739 0.266848 14.5191 -0.0779538 0.15661 14.7711 -0.0846501 
0.0861323 14.9645 -0.0884891 0.071879 15.0593 -0.091395 0.0324664 15.1351 -0.0700634 
0.00718344 15.1539 -0.0687794 -0.021228 15.0849 -0.0901327 -0.011397 15.0331 -0.0854993 
-0.0460298 14.9012 -0.0818261 -0.118411 14.7078 -0.0794846 -0.215654 14.4743 -0.0764254 
-0.333546 14.2052 -0.0744998 -0.47681 13.8932 -0.0733628 -0.637429 13.5721 -0.075321 
-0.761968 13.379 -0.088508 -0.803591 13.3071 -0.102562 -4.92397 28.9855 -0.177782 
3.99453 28.3912 -0.14678 0.155215 13.2913 -0.10066 0.0684945 14.9625 -0.120951 
0.892194 13.2598 -0.0860777 -0.00228035 13.2934 -0.109287 -0.736011 13.3566 -0.114997 
-0.00353756 14.9707 -0.118697 0.159446 13.0661 -0.102901 0.901469 13.0706 -0.0872862 
0.175347 11.3644 -0.085611 0.00732172 13.0685 -0.104339 0.106873 11.365 -0.0869994 
-0.729934 13.1642 -0.112781 0.96864 13.1672 -0.0857847 0.0149734 15.2121 -0.128468 
0.148243 11.0966 -0.0843702 -0.805985 13.2913 -0.116534 0.184543 13.3869 -0.17177 
0.150982 13.7972 -0.178107 0.159526 13.6386 -0.178302 0.14001 14.1183 -0.182015 
0.146294 13.9683 -0.180021 0.1867 13.873 -0.184268 0.129047 14.4581 -0.188002 
0.137165 14.2962 -0.185603 0.175985 14.2487 -0.191022 0.0806675 14.8525 -0.196684 
0.218344 14.5841 -0.194948 0.169266 14.6733 -0.195334 0.485363 14.1131 -0.187798 
0.415003 14.2567 -0.188752 0.624632 13.7773 -0.194519 0.558376 13.9347 -0.190208 
0.484432 13.8391 -0.202617 0.789355 13.407 -0.182195 0.290474 13.3401 -0.176087 
0.354317 13.3487 -0.165625 0.521809 13.4159 -0.181872 0.583048 13.4186 -0.187135 
0.11634 14.6784 -0.193316 0.719022 13.3566 -0.178765 0.765798 13.5488 -0.193752 
0.0841799 14.7211 -0.199434 0.289772 14.4956 -0.198463 0.220637 14.375 -0.198008 
0.225658 14.1654 -0.191058 0.351853 14.3811 -0.196851 0.708925 13.7127 -0.185571 
0.344743 14.153 -0.199388 0.460514 13.3839 -0.175085 0.477311 13.5996 -0.203493 
0.411216 13.784 -0.196326 0.403753 13.3743 -0.174675 0.647842 13.3543 -0.175311 
0.351349 13.5231 -0.197508 0.230408 13.4321 -0.172882 0.346946 13.7128 -0.193541 
0.349371 13.9289 -0.194572 0.28351 14.0673 -0.192461 0.289641 13.6742 -0.187913 
0.626697 13.5827 -0.208494 0.227569 13.9638 -0.18794 0.237456 13.7655 -0.186737 
0.241655 13.594 -0.186634 0.190632 13.4537 -0.0206893 0.163897 13.7926 -0.0114931 
0.153997 14.0062 -0.0156091 0.142219 14.2037 -0.0177328 0.131483 14.3966 -0.0171617 
0.194766 14.1859 -0.0119677 0.095952 14.8287 -0.0530566 0.188611 14.6343 -0.023053 
0.234618 14.5493 -0.0202125 0.39906 14.2504 -0.0120737 0.462539 14.1237 -0.00833624 
0.52501 13.9614 -0.00763096 0.595135 13.8004 -0.00182099 0.439306 13.8489 0.00115014 
0.799217 13.3709 -0.0110851 0.371598 13.3981 -0.0115619 0.2922 13.3926 -0.0180859 
0.55049 13.4289 -0.000686814 0.465827 13.4192 -0.0031372 0.138058 14.6148 -0.0190673 
0.129703 14.8016 -0.0477217 0.227464 14.3684 -0.0100899 0.288985 14.5225 -0.0298005 
0.343628 14.4137 -0.02782 0.247018 14.1383 -0.0102327 0.757525 13.5295 0.00832576 
0.713969 13.3528 0.000923236 0.691874 13.7231 -0.00812079 0.587658 13.5869 0.0169914 
0.400357 13.6243 0.00287574 0.331662 14.1767 -0.00606961 0.626945 13.3473 -0.0095204 
0.203578 13.6184 -0.00506168 0.256006 13.7898 -0.00467856 0.286764 13.9915 -0.00736626 
0.336617 13.7996 -0.0041089 -0.0410247 13.4001 -0.185114 -0.251316 13.4222 -0.192244 
-0.173303 13.4062 -0.190994 -0.406528 13.4718 -0.20609 -0.327039 13.4659 -0.19961 
-0.29924 13.6589 -0.211846 -0.642533 13.453 -0.206262 -0.0187256 14.8663 -0.194455 
-0.0796948 14.7237 -0.196254 -0.123107 14.6386 -0.196233 -0.184176 14.5551 -0.198236 
-0.23893 14.4501 -0.201346 -0.109992 14.4468 -0.203991 -0.407068 14.0131 -0.20238 
-0.470479 13.8668 -0.204821 -0.0132184 14.743 -0.200246 -0.0286188 14.8793 -0.189824 
-0.0580065 14.8379 -0.188312 -0.0159336 14.5937 -0.194472 -0.0231578 13.6524 -0.186475 
-0.0218864 13.8148 -0.186474 -0.0279355 14.3409 -0.196269 -0.0247655 14.4967 -0.198737 
-0.097537 13.459 -0.181954 -0.609482 13.6357 -0.208347 -0.554986 13.4273 -0.204404 
-0.471907 13.4133 -0.198496 -0.556821 13.7989 -0.202597 -0.352695 14.1895 -0.198616 
-0.336714 13.908 -0.206735 -0.245 13.8425 -0.203709 -0.290669 14.3215 -0.195527 
-0.021566 14.1609 -0.190672 -0.0629079 14.3121 -0.199551 -0.10776 14.2344 -0.199215 
-0.0201916 13.9995 -0.189107 -0.14172 13.6582 -0.206065 -0.0620922 13.9204 -0.193642 
-0.217991 14.2274 -0.204603 -0.0439446 14.6328 -0.206801 -0.455097 13.666 -0.218055 
-0.0999936 14.054 -0.197767 -0.157237 14.1677 -0.200232 -0.212993 14.0281 -0.202588 
-0.107048 13.8403 -0.196868 -0.183488 13.7992 -0.201174 -0.052461 13.4352 -0.0278467 
-0.173381 13.4279 -0.0285048 -0.24557 13.4466 -0.0248274 -0.318204 13.4493 -0.0237627 
-0.389682 13.4695 -0.0220069 -0.263905 13.6661 -0.00317907 -0.633706 13.4647 -0.0430955 
-0.00629239 14.8807 -0.0487369 -0.06322 14.811 -0.0393831 -0.0308363 14.8576 -0.0345085 
-0.0108851 14.7363 -0.0238455 -0.139743 14.6352 -0.0263967 -0.0977922 14.7106 -0.0345773 
-0.0637376 14.6163 -0.0173542 -0.250196 14.4713 -0.0340429 -0.195677 14.5796 -0.0309227 
-0.149455 14.4507 -0.0161056 -0.486515 13.9695 -0.022648 -0.554696 13.8124 -0.0182344 
-0.548281 13.4818 -0.0066056 -0.610484 13.6541 -0.00907198 -0.457423 13.4616 -0.0154276 
-0.0249027 13.8328 -0.021626 -0.0228516 13.6808 -0.0188198 -0.0211872 14.155 -0.0262886 
-0.020137 13.9974 -0.0253713 -0.0543582 13.9397 -0.0182343 -0.0183017 14.5757 -0.0259778 
-0.100081 13.5028 -0.0254171 -0.123481 13.708 -0.0111319 -0.308204 13.8895 -0.0055996 
-0.360797 14.1819 -0.0182863 -0.393523 13.977 -0.0081288 -0.297408 14.3128 -0.0195643 
-0.228283 13.8684 -0.00986711 -0.236034 14.2451 -0.010632 -0.0355529 14.5509 -0.0207739 
-0.016935 14.4347 -0.0309848 -0.0162221 14.2881 -0.0285494 -0.0638143 14.4559 -0.0205923 
-0.0388836 14.2626 -0.0224362 -0.162226 13.8613 -0.0136325 -0.200118 14.0734 -0.0132574 
-0.166501 14.2181 -0.0158742 -0.0993393 13.8995 -0.0157042 -0.42059 13.6675 0.00247131 
-0.118528 14.2829 -0.0184372 -0.0738261 14.302 -0.0207388 -0.0867444 14.0884 -0.0179644 
0.198301 12.9344 -0.177892 0.343699 12.9816 -0.16391 0.281575 12.9936 -0.164163 
0.466179 12.9544 -0.174874 0.400729 12.9564 -0.171871 0.350903 12.8036 -0.194869 
0.818558 12.9319 -0.179136 0.605448 12.4018 -0.179131 0.661716 12.5504 -0.184163 
0.473711 12.0813 -0.176139 0.539828 12.2264 -0.17557 0.523422 12.49 -0.189846 
0.359749 11.83 -0.173847 0.414955 11.9456 -0.176247 0.408637 12.1801 -0.184132 
0.264918 11.6437 -0.173685 0.310479 11.733 -0.175194 0.308933 11.9417 -0.181706 
0.179281 11.4591 -0.155759 0.183547 12.6621 -0.178489 0.18828 12.5022 -0.17598 
0.190758 11.937 -0.17196 0.210986 12.0079 -0.177609 0.23902 11.7651 -0.182233 
0.795421 12.7874 -0.185949 0.745321 12.9844 -0.177774 0.675116 12.9886 -0.172801 
0.746665 12.6213 -0.177901 0.611371 12.9195 -0.185504 0.536455 12.9235 -0.177922 
0.496025 12.7291 -0.192747 0.183688 11.6268 -0.17959 0.203888 11.5124 -0.175309 
0.19974 12.1869 -0.174363 0.253797 12.0493 -0.181262 0.291631 12.147 -0.179984 
0.197579 12.3552 -0.175517 0.235413 11.5676 -0.174152 0.190512 11.789 -0.173246 
0.230408 12.4009 -0.181302 0.209986 12.7985 -0.18936 0.250698 12.6896 -0.187958 
0.373881 12.6099 -0.188185 0.303786 12.6508 -0.187507 0.270664 12.5141 -0.185171 
0.440562 12.5478 -0.184565 0.658186 12.7558 -0.200683 0.340897 12.256 -0.181695 
0.392994 12.3951 -0.184932 0.277504 12.3435 -0.182927 0.184091 12.9328 -0.0141823 
0.177564 12.7565 -0.0128346 0.308809 12.9058 -0.00533495 0.380016 12.8927 -0.00447214 
0.811367 12.9575 -0.00651713 0.659313 12.5435 0.0069091 0.591416 12.37 0.00369319 
0.405399 11.957 0.000929983 0.352689 11.8444 -0.000317202 0.295467 11.7361 0.00126489 
0.254041 11.6524 -6.87429e-05 0.282195 11.9656 0.00586002 0.193665 11.4751 -0.00685558 
0.181982 12.5845 -0.0145553 0.201734 11.856 -0.00257357 0.202717 12.0228 -0.00638955 
0.255144 12.9563 -0.01559 0.266778 12.6983 -0.00169548 0.733172 12.9866 0.000101919 
0.78755 12.8089 0.0153873 0.499866 12.9206 -0.00231335 0.58805 12.9099 0.00435522 
0.644632 12.9912 -0.00993999 0.737319 12.629 0.00399874 0.202479 11.4683 -0.0108054 
0.188419 11.5986 3.54171e-05 0.530418 12.2422 0.00645461 0.469643 12.1081 0.0042015 
0.230555 11.5146 -0.0161573 0.438208 12.7782 0.00984496 0.382692 12.5154 0.00409098 
0.236184 12.0814 0.000741594 0.194345 12.2196 -0.00965253 0.191795 12.3789 -0.0109112 
0.27925 12.194 0.00123492 0.192547 11.7449 -0.00431175 0.392655 12.2291 0.00776266 
0.22303 12.5207 -0.00694462 0.509622 12.5242 0.014644 0.639936 12.7551 0.0232497 
0.219381 11.7318 0.00586169 0.327722 12.357 0.00180948 0.271785 12.4522 -0.00168032 
-0.0292045 12.9715 -0.179808 0.0150471 12.5363 -0.185993 0.00478293 12.7082 -0.18697 
0.0388323 12.1893 -0.179769 0.0283067 12.3642 -0.180164 -0.0172475 12.4362 -0.190281 
0.053418 11.854 -0.185027 0.0402778 12.0181 -0.184234 -0.00046359 12.072 -0.190351 
0.0995936 11.4706 -0.161936 -0.6281 13.0511 -0.199408 -0.597561 12.8695 -0.203494 
-0.547935 12.6925 -0.195119 -0.54683 13.0609 -0.199255 -0.459718 12.6108 -0.206178 
-0.388013 12.4458 -0.202551 -0.440624 12.8043 -0.217044 -0.326155 12.2535 -0.186758 
-0.254765 12.1054 -0.184024 -0.311541 12.5147 -0.207294 -0.0490011 11.7599 -0.181162 
-3.05016e-05 11.6675 -0.178409 -0.152279 12.9576 -0.19248 -0.224252 12.9561 -0.195265 
-0.462151 13.0489 -0.187523 -0.0789412 12.893 -0.197722 0.0501677 11.6557 -0.188145 
0.0835368 11.6133 -0.185266 -0.106492 12.6776 -0.19957 -0.120985 11.9121 -0.192105 
-0.0527363 12.013 -0.194102 -0.0492279 12.2113 -0.192159 -0.181026 12.0317 -0.191977 
-0.263788 12.7254 -0.210261 -0.308507 12.9593 -0.198779 -0.182246 12.2467 -0.201256 
-0.395583 12.9564 -0.195092 -0.213114 12.5373 -0.203466 -0.0744673 12.4102 -0.194114 
-0.144262 12.4468 -0.198408 -0.0268287 12.9406 -0.0279287 0.0106988 12.6697 -0.0204715 
0.0208595 12.5036 -0.0181022 0.0265722 12.3495 -0.0139198 0.0352718 12.1857 -0.0122462 
-0.0113564 12.3961 -0.0114329 0.0375353 12.0143 -0.0102801 0.046271 11.854 -0.00691022 
0.000187412 12.0409 -0.00706535 0.083561 11.4735 -0.00806102 -0.634042 13.0313 -0.0375808 
-0.527762 12.6893 -0.00473781 -0.588047 12.8646 0.00208942 -0.548069 13.0336 -0.00651261 
-0.384566 12.3946 -0.00838789 -0.452862 12.5616 -0.00785992 -0.42397 12.7511 0.00187902 
-0.237195 12.0844 -0.00941271 -0.316435 12.2387 -0.0107707 -0.297687 12.476 -0.000845175 
-0.103414 11.8131 -0.0125157 -0.163996 11.9359 -0.0112593 -0.168803 12.1702 -0.0050881 
0.0117918 11.6349 -0.00447383 -0.04127 11.7247 -0.0108037 -0.163068 13.0069 -0.0337334 
-0.100732 13.0067 -0.0314229 -0.281923 12.9882 -0.0246056 -0.217525 12.9858 -0.0259839 
-0.157073 12.8227 -0.0062128 -0.471796 13.0416 -0.0157267 0.0805948 11.5928 -0.00340642 
0.0716119 11.4655 -0.0108506 -0.34585 12.9277 -0.0208009 -0.290865 12.7215 0.000908102 
0.068455 11.7445 -0.00721426 -0.0402393 11.9279 -0.00107952 0.0414693 11.5095 -0.014886 
-0.402288 13.0442 -0.0199847 -0.0251606 12.8096 -0.0155747 -0.0543758 12.6961 -0.0139059 
-0.227093 12.5602 -0.00787871 -0.0513298 12.1299 -0.00790163 0.0349157 11.7203 -0.00320817 
-0.0547152 12.3354 -0.0102018 -0.10754 12.2454 -0.00783665 -0.170009 12.3952 -0.00821522 
-0.060062 12.5133 -0.0117148 -0.10105 12.6536 -0.0127547 -0.165872 12.6181 -0.00922855 
0 0 0 0 0 0 0 0 0 
0 0 0 0 0 0 0 0 0 
0 0 0 0 0 0 0 0 0 
0 0 0 0 0 0 0 0 0 
0 0 0 0 0 0 0 0 0 
0 0 0 0 0 0 0 0 0 
0 0 0 0 0 0 0 0 0 
0 0 0 0 0 0 0 0 0 
0 0 0 0 0 0 0 0 0 
0 0 0 0 0 0 0 0 0 
0 0 0 0 0 0 0 0 0 
0 0 0 0 0 0 0 0 0 
0 0 0 0 0 0 0 0 0 
0 0 0 0 0 0 0 0 0 
0 0 0 0 0 0 0 0 0 
0 0 0 0 0 0 0 0 0 
0 0 0 0 0 0 0 0 0 
0 0 0 0 0 0 0 0 0 
3.84393 28.0205 -0.269431 3.67615 28.0795 -0.270398 3.55207 28.0619 -0.27096 
3.41612 28.0267 -0.271328 3.27515 28.0045 -0.27174 3.4849 27.7679 -0.269989 
3.13173 27.9767 -0.27207 3.00123 27.9539 -0.272293 3.20512 27.705 -0.270761 
2.8634 27.925 -0.272473 2.72239 27.8988 -0.272576 2.92343 27.6476 -0.271301 
2.57658 27.8744 -0.272687 2.43249 27.8469 -0.272681 2.63966 27.5933 -0.271654 
2.28815 27.815 -0.272685 2.14937 27.789 -0.272614 2.34972 27.5358 -0.27184 
1.99514 27.7589 -0.272598 1.83953 27.7314 -0.272504 2.05202 27.4724 -0.27191 
1.67992 27.6952 -0.272453 1.51584 27.6693 -0.272368 1.73971 27.4045 -0.271937 
1.36454 27.6518 -0.272365 1.2154 27.6321 -0.272314 1.43101 27.3493 -0.271995 
1.0572 27.6122 -0.272345 0.890855 27.5952 -0.272358 1.12447 27.3105 -0.27212 
0.728271 27.5837 -0.272467 0.573682 27.5734 -0.272569 0.807303 27.2779 -0.27233 
0.420163 27.5678 -0.272754 0.263807 27.5631 -0.272976 0.494978 27.2601 -0.272672 
0.102304 27.5563 -0.273292 -0.0502495 27.5576 -0.273619 0.18411 27.247 -0.273224 
-0.213524 27.5585 -0.274063 -0.381194 27.5668 -0.274537 -0.136044 27.2409 -0.274031 
-0.544767 27.5794 -0.275126 -0.712121 27.5948 -0.275766 -0.457955 27.2547 -0.275034 
-0.876358 27.6166 -0.276433 -1.03279 27.6374 -0.277163 -0.781042 27.2896 -0.276193 
-1.19728 27.6614 -0.277975 -1.37123 27.6914 -0.278935 -1.10534 27.3363 -0.277631 
-1.52725 27.7224 -0.279806 -1.67481 27.7531 -0.280719 -1.4218 27.3924 -0.279271 
-1.83671 27.79 -0.281713 -1.99559 27.8281 -0.282778 -1.73614 27.4613 -0.281073 
-2.15795 27.868 -0.283836 -2.33163 27.9148 -0.285062 -2.0571 27.5396 -0.283038 
-2.48006 27.9596 -0.286085 -2.61867 27.9999 -0.287097 -2.3653 27.6258 -0.285028 
-2.76711 28.0406 -0.288128 -2.91578 28.0861 -0.289223 -2.66062 27.7125 -0.286994 
-3.06323 28.1371 -0.290262 -3.20445 28.1816 -0.291287 -2.95544 27.8055 -0.28897 
-3.33957 28.2241 -0.292202 -3.47383 28.2669 -0.293126 -3.23746 27.9 -0.290843 
-3.61241 28.3256 -0.294059 -3.74436 28.3672 -0.2949 -3.51107 28.0023 -0.292642 
-3.88007 28.4195 -0.295724 -4.01422 28.4607 -0.296479 -3.78547 28.1141 -0.29435 
-4.14501 28.5089 -0.297181 -4.26979 28.5457 -0.29778 -4.05235 28.2151 -0.29584 
-4.3977 28.5928 -0.298363 -4.53785 28.6324 -0.298903 -4.31157 28.3107 -0.29713 
-4.65938 28.6926 -0.299418 -4.80331 28.7321 -0.299919 -4.76605 28.3936 -0.298926 
-4.56137 28.4179 -0.298313 0.423182 0.337114 -0.161018 1.07604 1.11256 -0.118669 
1.37641 1.46722 -0.115793 1.60458 1.75751 -0.117891 1.85111 2.09732 -0.11901 
1.39465 1.4713 -0.126411 2.04835 2.39032 -0.119914 2.22667 2.67489 -0.121317 
1.82635 2.07898 -0.125376 2.39151 2.96065 -0.12271 2.54265 3.2435 -0.124401 
2.1945 2.67946 -0.126882 2.68643 3.5382 -0.126165 2.82355 3.84908 -0.128359 
2.50737 3.2828 -0.129787 2.93314 4.13141 -0.130282 3.02617 4.3965 -0.132347 
2.76375 3.88194 -0.132903 3.11324 4.6752 -0.134339 3.18651 4.94812 -0.136559 
2.96276 4.463 -0.136571 3.25225 5.22694 -0.138739 3.30568 5.50915 -0.141175 
3.11653 5.03878 -0.14056 3.34262 5.76696 -0.143426 3.37177 6.01153 -0.145602 
3.2191 5.5912 -0.144899 3.39309 6.28044 -0.147966 3.40729 6.53765 -0.150276 
3.27759 6.13313 -0.149472 3.41826 6.79518 -0.152488 3.41712 7.07783 -0.15511 
3.30839 6.67422 -0.153958 3.41089 7.35346 -0.157543 3.39488 7.62633 -0.160113 
3.31247 7.21954 -0.158418 3.37285 7.90525 -0.162677 3.34121 8.20712 -0.165594 
3.28279 7.78449 -0.163259 3.30231 8.49625 -0.168315 3.26452 8.76534 -0.170952 
3.22022 8.3606 -0.168411 3.2216 9.04383 -0.173495 3.17898 9.30537 -0.176073 
3.13606 8.93451 -0.173529 3.13522 9.57838 -0.178556 3.08376 9.87234 -0.181402 
3.04672 9.49064 -0.178392 3.03362 10.1633 -0.183975 2.98081 10.4647 -0.186791 
2.94997 10.0565 -0.183151 2.93084 10.7654 -0.189374 2.88294 11.0605 -0.192022 
2.84659 10.647 -0.187986 2.83321 11.3792 -0.194571 2.79035 11.696 -0.197181 
2.74343 11.2622 -0.192751 2.75088 12.0136 -0.199393 2.72137 12.3222 -0.201607 
2.65132 11.8919 -0.197145 2.69634 12.6346 -0.203411 2.68061 12.9623 -0.205414 
2.58513 12.513 -0.200877 2.67526 13.2893 -0.206885 2.67751 13.6341 -0.208374 
2.55374 13.1417 -0.204157 2.6921 13.9623 -0.209749 2.71145 14.2914 -0.210754 
2.56307 13.7863 -0.207275 2.7395 14.6285 -0.211821 2.77449 14.9693 -0.212604 
2.60681 14.442 -0.209904 2.81352 15.3033 -0.213519 2.85672 15.6249 -0.21421 
2.67613 15.1046 -0.212198 2.90288 15.9409 -0.2151 2.94915 16.2437 -0.215792 
2.76376 15.7482 -0.214356 2.99881 16.5476 -0.216719 3.04925 16.861 -0.217532 
2.86153 16.364 -0.216508 3.09769 17.1684 -0.218587 3.1454 17.4644 -0.21953 
2.96115 16.9732 -0.21866 3.19284 17.7678 -0.220658 3.24027 18.0756 -0.221808 
3.05825 17.5837 -0.221047 3.28216 18.3628 -0.223 3.3218 18.6413 -0.224142 
3.14829 18.1753 -0.223553 3.36231 18.9381 -0.225423 3.39943 19.2302 -0.226747 
3.23104 18.7613 -0.226207 3.43542 19.5375 -0.228228 3.47045 19.8578 -0.229796 
3.30734 19.3684 -0.229023 3.49864 20.1603 -0.231366 3.52532 20.4541 -0.232902 
3.37091 19.9815 -0.232061 3.54979 20.7596 -0.234529 3.57253 21.0695 -0.236234 
3.42267 20.5928 -0.235223 3.59098 21.4072 -0.238145 3.61109 21.763 -0.240164 
3.46438 21.2392 -0.238709 3.63006 22.0802 -0.24188 3.64326 22.3822 -0.243638 
3.49997 21.8976 -0.242293 3.65868 22.6928 -0.245318 3.66936 22.9982 -0.24707 
3.53285 22.5282 -0.245616 3.68107 23.3115 -0.248756 3.69097 23.6498 -0.250631 
3.5585 23.1542 -0.248907 3.69826 23.9825 -0.252385 3.70662 24.2949 -0.254036 
3.57603 23.8016 -0.252265 3.71389 24.6215 -0.255677 3.72217 24.9219 -0.257175 
3.58912 24.4617 -0.255567 3.73326 25.2378 -0.258657 3.74408 25.5863 -0.260278 
3.60629 25.1046 -0.258591 3.75808 25.9226 -0.261734 3.76994 26.2431 -0.263091 
3.63037 25.7567 -0.261457 3.79083 26.5585 -0.264351 3.80567 26.8959 -0.265599 
3.66471 26.4081 -0.264066 3.83201 27.1868 -0.266597 3.84745 27.4944 -0.267602 
3.71166 27.0139 -0.266295 -4.70712 28.0871 -0.297843 -4.67253 27.7641 -0.296837 
-4.62387 28.1714 -0.297804 -4.65789 27.4325 -0.295801 -4.62514 27.1102 -0.294674 
-4.55041 27.5338 -0.295638 -4.58665 26.7866 -0.293438 -4.5558 26.4655 -0.292186 
-4.49788 26.8793 -0.293364 -4.52335 26.1364 -0.290845 -4.4941 25.8171 -0.289482 
-4.42777 26.2273 -0.29081 -4.46388 25.4895 -0.288067 -4.43164 25.1272 -0.286423 
-4.36612 25.5712 -0.288083 -4.40002 24.785 -0.284865 -4.37081 24.4557 -0.283298 
-4.30532 24.9017 -0.285146 -4.33537 24.111 -0.281677 -4.30293 23.755 -0.279955 
-4.23928 24.2146 -0.282028 -4.27194 23.4448 -0.278487 -4.24371 23.1506 -0.277056 
-4.17384 23.5593 -0.279 -4.21394 22.8341 -0.275552 -4.18233 22.5275 -0.274076 
-4.11405 22.9316 -0.276087 -4.14495 22.1934 -0.27252 -4.10897 21.8745 -0.271026 
-4.04764 22.2796 -0.273081 -4.06817 21.5433 -0.269545 -4.02514 21.1974 -0.267979 
-3.96974 21.6126 -0.270093 -3.98609 20.8901 -0.266674 -3.94495 20.5885 -0.265382 
-3.88987 20.9722 -0.267316 -3.90169 20.2752 -0.264143 -3.8571 19.9742 -0.262986 
-3.80751 20.3497 -0.264714 -3.81434 19.6794 -0.261877 -3.76663 19.378 -0.260811 
-3.72096 19.7399 -0.262278 -3.71262 19.0609 -0.259715 -3.655 18.7152 -0.258634 
-3.62354 19.1269 -0.260003 -3.59908 18.3827 -0.25756 -3.547 18.0784 -0.256687 
-3.51265 18.4767 -0.257753 -3.49582 17.7818 -0.255756 -3.44355 17.475 -0.254904 
-3.4044 17.8477 -0.255664 -3.39365 17.1699 -0.253971 -3.34279 16.8602 -0.25311 
-3.30225 17.2472 -0.253662 -3.29459 16.5388 -0.252109 -3.24509 16.2108 -0.251119 
-3.20293 16.6233 -0.251548 -3.20268 15.891 -0.250018 -3.16146 15.5745 -0.248927 
-3.11127 15.9858 -0.249238 -3.11926 15.2307 -0.247451 -3.08534 14.8961 -0.246019 
-3.02586 15.3274 -0.246469 -3.05454 14.566 -0.244251 -3.03205 14.2298 -0.242484 
-2.95349 14.66 -0.243046 -3.01844 13.9161 -0.240436 -3.00895 13.595 -0.238204 
-2.91038 14.0236 -0.239203 -3.00341 13.2507 -0.235505 -3.00723 12.9013 -0.232505 
-2.89239 13.3731 -0.234584 -3.01745 12.5848 -0.229633 -3.03232 12.2694 -0.226423 
-2.90016 12.7199 -0.229098 -3.05299 11.9532 -0.223153 -3.07558 11.6576 -0.219713 
-2.93378 12.0937 -0.223078 -3.10292 11.3326 -0.215961 -3.13583 10.9996 -0.211771 
-2.98508 11.458 -0.216196 -3.17004 10.6868 -0.207869 -3.20326 10.3895 -0.203887 
-3.05017 10.8247 -0.208808 -3.2407 10.0893 -0.199911 -3.27696 9.771 -0.19546 
-3.12483 10.2141 -0.201252 -3.31157 9.47363 -0.191336 -3.34161 9.18946 -0.187202 
-3.19935 9.61668 -0.193489 -3.36927 8.89765 -0.183072 -3.39387 8.61912 -0.178865 
-3.2635 9.02528 -0.185531 -3.41342 8.32929 -0.174745 -3.43098 8.04264 -0.170471 
-3.31181 8.43946 -0.17746 -3.44169 7.7685 -0.166475 -3.4487 7.49892 -0.162435 
-3.34234 7.86971 -0.169595 -3.44902 7.21077 -0.15821 -3.44303 6.90645 -0.153638 
-3.35334 7.29968 -0.161719 -3.4323 6.63992 -0.149657 -3.41333 6.37581 -0.145658 
-3.34185 6.73547 -0.153931 -3.38363 6.10136 -0.141705 -3.34965 5.83811 -0.137648 
-3.30094 6.18373 -0.146364 -3.30514 5.56123 -0.133648 -3.25153 5.28528 -0.129569 
-3.22491 5.61926 -0.138717 -3.18705 5.00469 -0.125493 -3.11277 4.72699 -0.121398 
-3.11305 5.04725 -0.131108 -3.0304 4.45477 -0.117474 -2.92839 4.16076 -0.1132 
-2.96191 4.4784 -0.123787 -2.81848 3.87474 -0.109161 -2.69381 3.58695 -0.104903 
-2.76586 3.90223 -0.116725 -2.54849 3.28697 -0.101554 -2.39938 3.00206 -0.097884 
-2.5054 3.29656 -0.110249 -2.22691 2.69981 -0.0947555 -2.04163 2.39885 -0.0912539 
-2.17937 2.67273 -0.104675 -1.83425 2.08632 -0.088721 -1.58943 1.7428 -0.0865534 
-1.78776 2.03523 -0.100375 -1.3145 1.38684 -0.0898192 -1.01496 1.03234 -0.102369 
-1.29324 1.34582 -0.0999738 -0.45723 0.361697 -0.144655 -0.2308 0.174115 -0.132868 
-0.210547 0.167853 -0.137702 -0.222411 0.186438 -0.141916 -0.201417 0.199407 -0.126449 
-0.458496 0.448878 -0.150413 -0.201348 0.200868 -0.131754 -0.187895 0.202518 -0.130129 
-0.433999 0.442472 -0.171135 -0.181983 0.198236 -0.132405 -0.169938 0.198048 -0.131292 
-0.383356 0.437112 -0.173617 -0.168573 0.200075 -0.131963 -0.157595 0.196923 -0.134636 
-0.338146 0.43225 -0.173765 -0.150921 0.200451 -0.129985 -0.136475 0.181941 -0.138361 
-0.297956 0.431293 -0.171471 -0.131119 0.188998 -0.138592 -0.116115 0.208334 -0.130621 
-0.268307 0.458022 -0.16281 -0.109857 0.203134 -0.1339 -0.102403 0.208413 -0.134072 
-0.243479 0.448604 -0.172929 -0.0998384 0.208478 -0.137249 -0.0928859 0.211378 -0.136689 
-0.210115 0.45461 -0.173585 -0.0867367 0.20291 -0.13519 -0.0767884 0.200267 -0.137251 
-0.170647 0.449274 -0.175926 -0.07242 0.209255 -0.131629 -0.0580006 0.191192 -0.143255 
-0.133963 0.445319 -0.177747 -0.0482419 0.194937 -0.142913 -0.0324912 0.214835 -0.134369 
-0.105622 0.47674 -0.169768 -0.0261281 0.207262 -0.13828 -0.0157518 0.212036 -0.137792 
-0.0745874 0.4602 -0.180114 -0.0124414 0.208651 -0.13813 -0.00402556 0.209719 -0.138135 
-0.0375207 0.458189 -0.180345 -0.00139165 0.208444 -0.136703 0.00839513 0.205464 -0.136895 
-0.000649093 0.455323 -0.178726 0.0131761 0.213859 -0.133224 0.0271813 0.194181 -0.141165 
0.0376114 0.458255 -0.173396 0.0374091 0.19164 -0.135447 0.0487445 0.19669 -0.13506 
0.0756709 0.488649 -0.149851 0.0572354 0.19297 -0.132835 0.0668745 0.186651 -0.131989 
0.1042 0.488413 -0.143484 0.0759867 0.192625 -0.139892 0.0886324 0.211315 -0.132045 
0.133008 0.48112 -0.147873 0.0921787 0.208626 -0.135024 0.100858 0.208521 -0.135933 
0.170738 0.45754 -0.168568 0.102754 0.206219 -0.132492 0.111183 0.202874 -0.132123 
0.210127 0.452163 -0.171801 0.114294 0.201835 -0.127167 0.129921 0.182303 -0.137613 
0.246204 0.441171 -0.169714 0.1392 0.18592 -0.133519 0.152151 0.180163 -0.131217 
0.278439 0.45974 -0.150199 0.158775 0.179693 -0.135548 0.170991 0.198607 -0.129331 
0.301988 0.454408 -0.149001 0.170639 0.187664 -0.131768 0.182978 0.191579 -0.131554 
0.333801 0.419867 -0.166012 0.186844 0.191452 -0.130909 0.199757 0.193541 -0.130036 
0.37359 0.416366 -0.170688 0.203743 0.197331 -0.130048 0.225553 0.184134 -0.148207 
0.428185 0.428403 -0.170826 0.234759 0.180426 -0.141302 0.272343 0.200139 -0.144769 
0.48887 0.468301 -0.150895 -0.904609 13.0233 -0.181093 -0.922891 13.1076 -0.173254 
-0.830579 12.8596 -0.198663 -0.878457 12.947 -0.192238 -0.997504 12.774 -0.202359 
-0.683769 12.6099 -0.19981 -0.765675 12.7556 -0.200665 -0.906822 12.5553 -0.213915 
-0.52146 12.2805 -0.201938 -0.598006 12.4378 -0.202294 -0.761271 12.2756 -0.213982 
-0.385155 11.9701 -0.192551 -0.454162 12.1273 -0.195174 -0.614019 11.9464 -0.212854 
-0.266982 11.6694 -0.190568 -0.324775 11.8155 -0.191416 -0.487486 11.6257 -0.210281 
-0.172613 11.3869 -0.191533 -0.219386 11.5249 -0.191435 -0.384758 11.3131 -0.209712 
-0.105331 11.1261 -0.200396 -0.132857 11.2405 -0.198121 -0.306757 11.0089 -0.212439 
-0.0780996 10.946 -0.209399 -0.0841689 11.0299 -0.205208 -0.257757 10.7476 -0.21797 
-0.0913801 10.8534 -0.21752 -0.0772461 10.9133 -0.211748 -0.234402 10.5715 -0.227778 
-0.0552282 10.7162 -0.268103 -0.0627443 10.8279 -0.239402 -0.193737 10.4508 -0.245811 
0.372757 10.712 -0.255556 0.343817 10.5976 -0.292609 0.386511 10.8324 -0.222662 
0.387481 10.7632 -0.240007 0.534938 10.3137 -0.262121 0.387798 11.0002 -0.198303 
0.388422 10.9051 -0.204989 0.561822 10.479 -0.234812 0.422058 11.2208 -0.189294 
0.39836 11.1061 -0.191112 0.571351 10.691 -0.212878 0.492734 11.4917 -0.185411 
0.451337 11.3586 -0.185966 0.604229 10.9678 -0.202967 0.592311 11.7737 -0.184627 
0.540675 11.631 -0.185103 0.672625 11.2674 -0.200181 0.70336 12.0643 -0.185606 
0.644513 11.9187 -0.18502 0.766777 11.5662 -0.200179 0.835971 12.3673 -0.193757 
0.765359 12.2135 -0.192804 0.879228 11.8733 -0.202161 0.975182 12.6406 -0.191533 
0.906506 12.5142 -0.195352 1.00839 12.1773 -0.202889 1.05984 12.813 -0.176047 
1.02788 12.7373 -0.186976 1.1246 12.4294 -0.197418 1.09496 12.9832 -0.150477 
1.08254 12.892 -0.15956 1.19155 12.6428 -0.182432 1.06382 13.4644 -0.172412 
1.08484 13.3876 -0.156595 1.00133 13.626 -0.197805 1.04307 13.5531 -0.185929 
1.17383 13.7394 -0.190493 0.874227 13.852 -0.205491 0.950996 13.7259 -0.199959 
1.10132 13.9653 -0.208928 0.719926 14.1641 -0.209031 0.795431 14.0107 -0.206443 
0.974048 14.2305 -0.218048 0.575499 14.475 -0.210909 0.643866 14.319 -0.208709 
0.827601 14.54 -0.222425 0.455275 14.7606 -0.213468 0.51102 14.6187 -0.211553 
0.695516 14.8414 -0.225654 0.361868 15.0066 -0.217752 0.402781 14.8881 -0.215077 
0.58425 15.1235 -0.23037 0.306926 15.2364 -0.226301 0.331859 15.1333 -0.223025 
0.507062 15.3933 -0.237225 0.289453 15.4145 -0.241384 0.290813 15.3375 -0.233996 
0.465313 15.6429 -0.250778 0.269113 15.5651 -0.279854 0.275182 15.4996 -0.26688 
0.44609 15.8531 -0.277372 0.196207 15.7414 -0.337568 0.236052 15.636 -0.306291 
0.398886 16.0408 -0.311362 -0.211288 15.6495 -0.304792 -0.182889 15.7478 -0.33946 
-0.215844 15.5053 -0.264551 -0.220189 15.5675 -0.280415 -0.374243 16.032 -0.308165 
-0.221076 15.3849 -0.24168 -0.21923 15.4634 -0.252052 -0.397593 15.879 -0.279542 
-0.259249 15.1964 -0.231291 -0.235953 15.2985 -0.236817 -0.416131 15.7117 -0.259028 
-0.327624 14.9586 -0.224437 -0.28965 15.0803 -0.228246 -0.456474 15.4807 -0.247025 
-0.427653 14.6781 -0.219979 -0.375978 14.8149 -0.220137 -0.524846 15.2083 -0.241081 
-0.534301 14.4111 -0.225421 -0.475073 14.5473 -0.224879 -0.616002 14.9238 -0.239924 
-0.678971 14.1177 -0.228284 -0.605545 14.267 -0.227704 -0.732985 14.6373 -0.239737 
-0.814907 13.8422 -0.224935 -0.745709 13.9596 -0.227002 -0.86386 14.3393 -0.237158 
-0.920089 13.6415 -0.204547 -0.8765 13.7153 -0.211782 -0.975354 14.0615 -0.227049 
-0.936519 13.4899 -0.176296 -0.925764 13.5471 -0.189236 -1.02835 13.8256 -0.206111 
0.716351 0.680286 -0.142258 -1.05015 13.0731 -0.190183 -0.974968 13.2997 -0.171218 
-1.05564 13.5139 -0.191698 -0.474745 0.374907 -0.118075 0.415585 10.0713 -0.278655 
0.234627 10.4159 -0.284546 -0.00623452 10.2372 -0.280835 -0.147027 10.0003 -0.260619 
0.0852181 9.73974 -0.266116 1.23404 13.4382 -0.176514 1.14586 13.2076 -0.149767 
1.23631 12.9836 -0.170236 -0.213371 16.3239 -0.325019 -0.020493 15.9594 -0.324755 
0.1702 16.3092 -0.328006 -0.697865 0.661241 -0.130531 3.78895 27.7437 -0.268691 
-1.15907 12.8203 -0.197035 -1.21069 13.0297 -0.197432 3.27752 27.3966 -0.269246 
3.13379 27.3685 -0.269593 2.98571 27.3545 -0.269993 2.84765 27.3248 -0.270249 
3.0607 27.0474 -0.268623 2.70711 27.2941 -0.270515 2.56139 27.2687 -0.270692 
2.77243 27.0017 -0.269303 2.40987 27.2207 -0.270856 2.26618 27.1877 -0.270965 
2.48126 26.9219 -0.269785 2.11495 27.1534 -0.271105 1.96195 27.122 -0.271191 
2.17971 26.8381 -0.270198 1.80076 27.086 -0.271336 1.64326 27.0484 -0.271401 
1.86889 26.7662 -0.270578 1.49366 27.0205 -0.271544 1.34488 27.0017 -0.27165 
1.55998 26.7007 -0.270969 1.19095 26.9843 -0.271796 1.03607 26.9634 -0.271934 
1.25885 26.6539 -0.271376 0.881128 26.9481 -0.272156 0.722354 26.9356 -0.272327 
0.952683 26.6199 -0.271855 0.568554 26.9228 -0.272621 0.418978 26.9166 -0.27289 
0.646978 26.5907 -0.272409 0.261043 26.8996 -0.273223 0.104009 26.8924 -0.273573 
0.338561 26.5601 -0.273024 -0.0557169 26.898 -0.273925 -0.214235 26.899 -0.274406 
0.0245657 26.5482 -0.27385 -0.370919 26.9087 -0.274904 -0.529725 26.9217 -0.275403 
-0.288157 26.5636 -0.274755 -0.69125 26.9379 -0.276051 -0.850932 26.9603 -0.276695 
-0.602684 26.5899 -0.27582 -1.00746 26.9854 -0.277353 -1.16761 27.0104 -0.278082 
-0.917098 26.632 -0.277004 -1.32108 27.0324 -0.278776 -1.47337 27.0642 -0.27959 
-1.22379 26.6801 -0.278368 -1.63167 27.1002 -0.280397 -1.78995 27.1382 -0.28129 
-1.5323 26.7391 -0.279827 -1.95326 27.1848 -0.282222 -2.1126 27.2261 -0.283178 
-1.85073 26.8229 -0.281459 -2.26156 27.2707 -0.28405 -2.40795 27.3166 -0.284976 
-2.16018 26.9157 -0.283152 -2.55464 27.362 -0.285859 -2.70165 27.4039 -0.286787 
-2.45374 27.0072 -0.284823 -2.849 27.4484 -0.287686 -2.99551 27.5004 -0.288629 
-2.74619 27.0985 -0.286513 -3.13925 27.5422 -0.28947 -3.27405 27.5856 -0.290329 
-3.03611 27.1859 -0.288161 -3.40738 27.624 -0.291065 -3.54577 27.6836 -0.291915 
-3.31234 27.2673 -0.289696 -3.68492 27.734 -0.292698 -3.82083 27.787 -0.293483 
-3.58426 27.3572 -0.291193 -3.9602 27.8869 -0.294407 -4.0914 27.9355 -0.29508 
-3.86204 27.5082 -0.292798 -4.2297 28.0261 -0.295907 -4.35802 28.0733 -0.296536 
-4.13911 27.6991 -0.294506 -4.5022 28.1113 -0.297163 -0.843127 11.9207 -0.209894 
-0.911688 12.0809 -0.21162 0.834401 0.802496 -0.141975 3.67935 27.5538 -0.268419 
1.55658 1.72954 -0.132833 1.76495 2.0412 -0.132297 1.96949 2.37934 -0.132215 
2.14045 2.68433 -0.132603 1.72816 2.06873 -0.136418 2.3018 3.00067 -0.133229 
2.44969 3.31683 -0.134444 2.09492 2.73235 -0.137358 2.58825 3.64157 -0.135879 
2.70155 3.94412 -0.137314 2.39739 3.38693 -0.138717 2.80019 4.23725 -0.139149 
2.88936 4.53424 -0.140958 2.63496 4.01826 -0.1414 2.96682 4.83347 -0.142812 
3.03386 5.12951 -0.144728 2.81293 4.6248 -0.144636 3.08795 5.41733 -0.146584 
3.12564 5.6903 -0.148817 2.9453 5.22581 -0.148441 3.15618 5.98172 -0.150911 
3.17682 6.26529 -0.153332 3.03046 5.81841 -0.15258 3.19198 6.53352 -0.155314 
3.20243 6.80374 -0.15736 3.07503 6.39019 -0.156754 3.20292 7.08 -0.159601 
3.19604 7.36724 -0.161872 3.09048 6.94532 -0.16087 3.181 7.65574 -0.164234 
3.15766 7.94431 -0.166607 3.07535 7.51978 -0.165208 3.12606 8.23549 -0.168877 
3.08573 8.53187 -0.171481 3.02749 8.1077 -0.169618 3.04232 8.83336 -0.173758 
2.99744 9.117 -0.176195 2.95084 8.70674 -0.174195 2.95482 9.38866 -0.178188 
2.90905 9.66492 -0.180445 2.86235 9.28423 -0.178365 2.86253 9.94769 -0.182513 
2.81011 10.2389 -0.184806 2.77118 9.84072 -0.182271 2.75889 10.5319 -0.18687 
2.7064 10.83 -0.189049 2.67092 10.4162 -0.186069 2.65146 11.1413 -0.191096 
2.59931 11.4544 -0.193095 2.56167 11.0176 -0.189786 2.55446 11.7681 -0.195026 
2.5132 12.0779 -0.196811 2.45857 11.6376 -0.193221 2.47118 12.381 -0.19841 
2.44528 12.684 -0.199916 2.36893 12.2483 -0.196216 2.42044 12.9837 -0.201215 
2.41451 13.3 -0.202904 2.30011 12.8437 -0.198699 2.4237 13.6205 -0.20437 
2.43876 13.9385 -0.205883 2.28324 13.4556 -0.20163 2.46442 14.2733 -0.207609 
2.49418 14.6008 -0.208989 2.31955 14.1028 -0.205081 2.52573 14.9188 -0.210523 
2.56648 15.2448 -0.211929 2.38048 14.7476 -0.208617 2.61675 15.5668 -0.213456 
2.66437 15.8774 -0.214736 2.46528 15.3799 -0.212071 2.71606 16.1705 -0.216098 
2.76668 16.4713 -0.217289 2.56936 15.9891 -0.215383 2.81808 16.7745 -0.218697 
2.86744 17.0805 -0.219935 2.67354 16.5818 -0.218405 2.91837 17.3949 -0.221434 
2.96642 17.6986 -0.222795 2.77685 17.1973 -0.221493 3.00647 17.9828 -0.224122 
3.04875 18.2714 -0.225475 2.86835 17.7952 -0.224543 3.09089 18.5716 -0.226861 
3.13127 18.8708 -0.228296 2.95102 18.3799 -0.227481 3.17098 19.1959 -0.229894 
3.20632 19.5063 -0.231344 3.03292 19.0065 -0.230595 3.23683 19.8122 -0.232965 
3.26425 20.1179 -0.234472 3.10221 19.6394 -0.233769 3.28819 20.4141 -0.236045 
3.31158 20.7228 -0.237639 3.15551 20.2438 -0.236829 3.33202 21.0654 -0.239422 
3.34882 21.4066 -0.241229 3.19882 20.885 -0.240088 3.36428 21.7206 -0.242817 
3.38194 22.0408 -0.244457 3.23269 21.5443 -0.243431 3.39757 22.3483 -0.245966 
3.41167 22.6613 -0.247562 3.26214 22.1683 -0.246473 3.42504 22.9842 -0.249133 
3.43544 23.2994 -0.250732 3.28963 22.8009 -0.249455 3.44204 23.631 -0.252342 
3.44796 23.9648 -0.254006 3.30803 23.4573 -0.25254 3.45963 24.3034 -0.255538 
3.46571 24.6306 -0.257092 3.32466 24.129 -0.255589 3.47515 24.9544 -0.258502 
3.48535 25.2706 -0.259895 3.34442 24.7927 -0.258459 3.49151 25.6104 -0.261319 
3.50478 25.9465 -0.262683 3.35888 25.457 -0.261244 3.52557 26.29 -0.264062 
3.54621 26.6052 -0.26523 3.385 26.1409 -0.263944 3.59043 26.9626 -0.266488 
3.61682 27.2534 -0.267516 3.55758 27.5017 -0.268666 3.44983 26.8427 -0.266495 
-0.984754 0.98442 -0.12277 -0.733216 0.723061 -0.131725 -1.27068 1.34397 -0.114868 
1.08336 1.10003 -0.13664 1.32422 1.40356 -0.13227 1.28653 1.40175 -0.137994 
-4.45995 27.6039 -0.295462 -4.44592 27.2732 -0.29439 -4.40689 26.9855 -0.293304 
-4.36905 26.6625 -0.2921 -4.31599 27.0549 -0.293153 -4.3306 26.3308 -0.29078 
-4.29899 26.0022 -0.289485 -4.2391 26.4354 -0.290799 -4.26626 25.684 -0.288207 
-4.23693 25.3569 -0.286831 -4.16883 25.7855 -0.288254 -4.2019 25.0111 -0.285386 
-4.17119 24.6689 -0.283887 -4.10204 25.1213 -0.285558 -4.13496 24.3288 -0.28241 
-4.10041 23.9836 -0.280861 -4.0319 24.435 -0.282694 -4.06821 23.6541 -0.279412 
-4.03804 23.3431 -0.278002 -3.96455 23.7647 -0.279844 -4.00993 23.0204 -0.276574 
-3.98083 22.7028 -0.275135 -3.90524 23.1118 -0.277033 -3.9434 22.364 -0.273644 
-3.90642 22.0283 -0.272165 -3.84054 22.4492 -0.274162 -3.87148 21.7044 -0.27071 
-3.83078 21.3714 -0.269294 -3.76869 21.7854 -0.271278 -3.79294 21.0513 -0.267876 
-3.75392 20.7422 -0.266599 -3.69626 21.1403 -0.268512 -3.71385 20.4312 -0.265282 
-3.67037 20.1163 -0.263966 -3.6184 20.5083 -0.265834 -3.62022 19.8018 -0.26275 
-3.57699 19.5058 -0.261563 -3.52802 19.8822 -0.263269 -3.52584 19.1973 -0.260406 
-3.4711 18.8793 -0.259217 -3.42625 19.2589 -0.26075 -3.41249 18.5535 -0.257915 
-3.35576 18.2209 -0.256758 -3.31584 18.6248 -0.258171 -3.30272 17.9124 -0.255521 
-3.25078 17.6168 -0.254508 -3.20324 17.9914 -0.255634 -3.20214 17.3197 -0.253334 
-3.1515 17.0165 -0.252225 -3.10059 17.3876 -0.25313 -3.10227 16.7015 -0.250984 
-3.05343 16.3834 -0.249742 -3.00171 16.7782 -0.250542 -3.011 16.0743 -0.248443 
-2.96811 15.7591 -0.247083 -2.90902 16.1577 -0.247726 -2.92645 15.425 -0.245481 
-2.88463 15.0873 -0.243704 -2.82382 15.5191 -0.244584 -2.84903 14.7621 -0.241937 
-2.81932 14.4391 -0.23994 -2.74641 14.8651 -0.24093 -2.79691 14.1307 -0.237952 
-2.78448 13.8242 -0.236 -2.68888 14.237 -0.236907 -2.77337 13.5017 -0.2335 
-2.77016 13.1654 -0.23093 -2.65631 13.6117 -0.232433 -2.78171 12.8401 -0.228255 
-2.79432 12.5304 -0.225521 -2.65894 12.97 -0.227564 -2.81174 12.2236 -0.22276 
-2.83501 11.9134 -0.219714 -2.69105 12.3432 -0.222375 -2.86106 11.5955 -0.216585 
-2.89137 11.2754 -0.21307 -2.73775 11.723 -0.216592 -2.92615 10.9582 -0.209679 
-2.96283 10.6485 -0.206084 -2.80202 11.0918 -0.210336 -3.00003 10.3548 -0.202728 
-3.03952 10.0558 -0.199095 -2.87687 10.4834 -0.203879 -3.07657 9.74667 -0.195381 
-3.11285 9.44813 -0.191647 -2.95353 9.88125 -0.197127 -3.14495 9.1519 -0.187941 
-3.17361 8.8567 -0.184132 -3.02443 9.27492 -0.190111 -3.20114 8.54917 -0.180226 
-3.22079 8.25413 -0.176277 -3.08538 8.66825 -0.182862 -3.23502 7.97835 -0.172865 
-3.24557 7.69744 -0.169127 -3.12702 8.08063 -0.175727 -3.25073 7.40234 -0.165422 
-3.24991 7.10527 -0.161588 -3.14657 7.50354 -0.168785 -3.24048 6.82412 -0.158025 
-3.22889 6.54743 -0.154469 -3.14125 6.91962 -0.161881 -3.20694 6.25936 -0.150806 
-3.17522 5.97276 -0.147306 -3.10881 6.34106 -0.155169 -3.14 5.69224 -0.143819 
-3.09279 5.40167 -0.140128 -3.04943 5.7618 -0.148497 -3.03352 5.10108 -0.136794 
-2.96516 4.80518 -0.133257 -2.95297 5.16908 -0.142071 -2.89163 4.52008 -0.130076 
-2.80477 4.23169 -0.127008 -2.81658 4.57046 -0.135912 -2.69994 3.92435 -0.123594 
-2.58417 3.61942 -0.12085 -2.63493 3.96496 -0.13011 -2.45137 3.30837 -0.11803 
-2.29816 2.98882 -0.115553 -2.39202 3.33282 -0.125327 -2.12818 2.66499 -0.114231 
-1.94492 2.34313 -0.11253 -2.08333 2.68634 -0.122615 -1.74257 2.01906 -0.112692 
-1.52127 1.68937 -0.113143 -1.25351 1.36716 -0.123393 -1.70501 2.03216 -0.122308 
-0.706916 0.724099 -0.143022 -1.2116 13.5379 -0.199862 -1.16919 13.7549 -0.201405 
-0.703487 0.754685 -0.147708 -0.660892 0.744931 -0.154156 -0.62391 0.741167 -0.157534 
-0.580676 0.729629 -0.159686 -0.873825 1.04067 -0.151522 -0.536761 0.715301 -0.160989 
-0.50304 0.713656 -0.16127 -0.756909 1.00933 -0.157936 -0.476375 0.716701 -0.160675 
-0.443761 0.712986 -0.15966 -0.6595 0.990829 -0.16019 -0.416474 0.718021 -0.161706 
-0.395644 0.726629 -0.160835 -0.580969 0.992702 -0.16133 -0.379281 0.739491 -0.161658 
-0.352737 0.741574 -0.16286 -0.513979 1.00908 -0.162432 -0.330779 0.749197 -0.163429 
-0.30375 0.75397 -0.16384 -0.452614 1.03226 -0.162908 -0.279434 0.755955 -0.164571 
-0.246819 0.747084 -0.165032 -0.386915 1.04277 -0.164547 -0.219296 0.739984 -0.165758 
-0.193328 0.745894 -0.165642 -0.314821 1.0396 -0.165944 -0.171558 0.757867 -0.168393 
-0.147483 0.763847 -0.1675 -0.245323 1.04442 -0.167808 -0.123666 0.765294 -0.168262 
-0.0944728 0.766604 -0.168089 -0.178731 1.05906 -0.168471 -0.0696372 0.75729 -0.167861 
-0.0413245 0.756422 -0.167526 -0.107314 1.05544 -0.168549 -0.0158679 0.754029 -0.166523 
0.0128556 0.752482 -0.164557 -0.0373384 1.04691 -0.165881 0.0400103 0.758427 -0.160849 
0.0701912 0.764787 -0.15532 0.0345073 1.05188 -0.161146 0.0971307 0.774999 -0.152364 
0.122994 0.778046 -0.146293 0.108111 1.06593 -0.154676 0.148162 0.782598 -0.142048 
0.171336 0.778114 -0.144738 0.179579 1.07553 -0.149823 0.195917 0.77308 -0.144066 
0.222115 0.771451 -0.149289 0.249215 1.07523 -0.148585 0.250011 0.765309 -0.151568 
0.280372 0.76391 -0.155482 0.321583 1.06742 -0.151858 0.306603 0.758601 -0.157632 
0.33566 0.752544 -0.15826 0.394528 1.058 -0.155109 0.36355 0.748668 -0.157021 
0.392517 0.742041 -0.153021 0.468905 1.04773 -0.155449 0.415268 0.735307 -0.152242 
0.440306 0.736721 -0.148239 0.542676 1.03276 -0.152893 0.454341 0.72022 -0.147929 
0.478018 0.714741 -0.150593 0.602988 1.00428 -0.151555 0.492691 0.687382 -0.151163 
0.522412 0.682659 -0.154492 0.654463 0.965131 -0.151128 0.558387 0.688717 -0.156561 
0.599417 0.696697 -0.156763 0.730079 0.952166 -0.15316 0.656725 0.725674 -0.15449 
0.70941 0.746933 -0.149918 0.854747 1.00016 -0.151873 -0.979058 12.2266 -0.209908 
-1.03734 12.3569 -0.207534 -1.05712 11.8989 -0.207641 0.544316 9.71824 -0.260735 
0.44067 9.52704 -0.260304 -1.0822 12.4924 -0.204366 -1.12165 12.6396 -0.199462 
-1.16695 12.2048 -0.205312 -0.70704 11.6001 -0.207582 -0.772341 11.7608 -0.20894 
-0.927429 11.5841 -0.207906 -0.594959 11.2652 -0.206232 -0.649695 11.4265 -0.206972 
-0.80655 11.2468 -0.206889 -0.504788 10.9381 -0.207344 -0.546906 11.0955 -0.206323 
-0.705844 10.898 -0.206558 -0.445373 10.611 -0.211269 -0.474856 10.7688 -0.209223 
-0.629925 10.5502 -0.208982 -0.402102 10.3584 -0.217911 -0.420568 10.4786 -0.214357 
-0.572281 10.2345 -0.212421 -0.357299 10.1563 -0.226749 -0.381343 10.2473 -0.221264 
-0.517968 9.97055 -0.217966 -0.271708 10.0031 -0.244844 -0.317045 10.0835 -0.232062 
-0.440612 9.7557 -0.228314 1.34249 13.7007 -0.183485 1.40047 13.4966 -0.182003 
0.710712 10.1653 -0.224238 0.698192 10.061 -0.233347 0.671985 9.95398 -0.243935 
0.627088 9.85049 -0.252555 0.676237 9.38741 -0.243288 0.798874 9.64667 -0.233884 
0.77596 10.7215 -0.200197 0.752155 10.5625 -0.203125 0.850489 11.0382 -0.196463 
0.809877 10.8853 -0.197261 0.946999 10.4937 -0.19925 0.934907 11.3556 -0.196613 
0.888958 11.2044 -0.195991 1.01651 10.8318 -0.196388 1.05082 11.6686 -0.197969 
0.992175 11.5114 -0.19709 1.10647 11.1586 -0.196198 1.17224 11.9635 -0.197914 
1.11565 11.8182 -0.198335 1.22017 11.47 -0.196645 1.26998 12.2234 -0.191431 
1.2268 12.097 -0.195758 1.32952 11.7662 -0.194913 1.33598 12.5192 -0.180899 
1.30609 12.3736 -0.185631 1.41458 12.0779 -0.189598 1.4208 12.9768 -0.179446 
1.37413 12.7342 -0.17765 -0.387588 16.73 -0.307511 -0.245459 16.9409 -0.308558 
1.19947 14.3218 -0.208273 1.24749 14.1939 -0.202112 1.28529 14.0441 -0.196062 
1.31458 13.8975 -0.188764 1.45654 13.9862 -0.192579 1.3907 14.3628 -0.201883 
0.945951 14.9289 -0.220781 1.01219 14.7781 -0.218839 0.822407 15.2366 -0.225954 
0.880154 15.0891 -0.223849 1.06516 15.3152 -0.223978 0.725558 15.5289 -0.231726 
0.77243 15.3899 -0.228896 0.955794 15.6311 -0.229698 0.661291 15.8227 -0.240904 
0.686955 15.6796 -0.23593 0.869605 15.9427 -0.236664 0.61726 16.0779 -0.25708 
0.63588 15.9529 -0.247795 0.802877 16.2363 -0.247315 0.580827 16.3143 -0.28204 
0.600597 16.2002 -0.268948 0.74776 16.5072 -0.263684 0.466276 16.5614 -0.309142 
0.538436 16.4385 -0.296086 0.664869 16.7774 -0.284045 0.138036 16.9519 -0.309962 
0.319005 16.7305 -0.312215 -0.57396 16.2434 -0.273207 -0.554491 16.3278 -0.282396 
-0.526506 16.4318 -0.292141 -0.48444 16.5529 -0.302217 -0.542836 17.0843 -0.294544 
-0.676673 16.7916 -0.284941 -0.651851 15.773 -0.248379 -0.626521 15.9077 -0.2526 
-0.722726 15.4874 -0.242804 -0.686425 15.633 -0.244751 -0.840603 16.0507 -0.250638 
-0.809898 15.1924 -0.239874 -0.763 15.3354 -0.240725 -0.912088 15.7528 -0.245253 
-0.92792 14.8882 -0.238437 -0.865905 15.0285 -0.238855 -1.00165 15.4345 -0.241708 
-1.03219 14.5649 -0.232688 -0.978282 14.7155 -0.235661 -1.09884 15.0966 -0.23755 
-1.11762 14.275 -0.220563 -1.07851 14.4082 -0.227345 -1.18605 14.7597 -0.230065 
-1.1585 13.9605 -0.206699 -1.13751 14.1136 -0.215245 -1.24761 14.4202 -0.220129 
-1.2826 14.0224 -0.211066 3.42136 27.4665 -0.269036 0.731515 10.4211 -0.208502 
0.720175 10.2855 -0.215677 0.851308 9.89597 -0.21852 0.891138 10.1756 -0.206193 
1.0788 14.6205 -0.215779 1.14199 14.4704 -0.212389 1.30146 14.6836 -0.210857 
1.18797 14.9969 -0.217872 -0.6052 16.0313 -0.258249 -0.589122 16.1444 -0.265115 
-0.737405 16.5655 -0.271077 -0.783272 16.3257 -0.259235 0.800973 0.786688 -0.138851 
-1.38238 13.0091 -0.205015 -1.30706 13.2816 -0.202306 -4.42134 27.8277 -0.295999 
-0.95971 1.03589 -0.137735 0.420069 9.05351 -0.243275 0.268478 9.31932 -0.254646 
-1.38378 13.5336 -0.208351 3.35193 27.1317 -0.267969 0.980637 1.05103 -0.14561 
0.7372 0.747824 -0.145807 0.0896277 9.22287 -0.244166 -1.25428 12.5533 -0.202936 
1.56734 13.5276 -0.188617 1.48702 13.2549 -0.182803 1.58989 12.9948 -0.186152 
-0.255301 9.63462 -0.24404 1.48975 12.4779 -0.184473 -0.273048 17.5447 -0.29689 
-0.0728434 17.2548 -0.305498 0.457884 17.0897 -0.297636 0.0905948 17.5506 -0.297812 
-4.31586 27.566 -0.294774 -1.20492 1.36552 -0.133464 2.83879 26.7338 -0.268199 
2.6988 26.7023 -0.26849 2.56141 26.6228 -0.268668 2.41122 26.5737 -0.268911 
2.63068 26.3558 -0.267577 2.25474 26.5174 -0.269184 2.10492 26.4818 -0.269457 
2.3388 26.2187 -0.268114 1.94499 26.4356 -0.269735 1.78578 26.398 -0.270006 
2.02439 26.1144 -0.268814 1.62308 26.3614 -0.270318 1.47559 26.3322 -0.270578 
1.70387 26.0296 -0.269526 1.32483 26.3025 -0.270853 1.17339 26.2839 -0.271154 
1.39244 25.9616 -0.270247 1.02346 26.2758 -0.271473 0.871328 26.2594 -0.27175 
1.09386 25.9223 -0.270996 0.720773 26.2354 -0.272124 0.570122 26.2217 -0.272429 
0.795537 25.8887 -0.271778 0.418286 26.1833 -0.272854 0.263834 26.1657 -0.273271 
0.495644 25.8252 -0.272567 0.109125 26.1498 -0.273633 -0.0469335 26.1552 -0.274115 
0.191876 25.77 -0.273424 -0.20604 26.1751 -0.274583 -0.359121 26.185 -0.275024 
-0.119134 25.7736 -0.274368 -0.509055 26.2365 -0.275587 -0.667005 26.2531 -0.276095 
-0.425399 25.8453 -0.275332 -0.823091 26.2831 -0.276729 -0.976336 26.3088 -0.277322 
-0.728975 25.927 -0.276377 -1.13107 26.3074 -0.277908 -1.28135 26.3303 -0.278586 
-1.03746 25.9563 -0.277536 -1.43587 26.3536 -0.279228 -1.59095 26.3908 -0.279975 
-1.34417 25.9794 -0.278766 -1.74673 26.4359 -0.280709 -1.90693 26.4837 -0.2815 
-1.65174 26.0494 -0.280041 -2.06328 26.5463 -0.282308 -2.20989 26.5922 -0.283069 
-1.96113 26.1587 -0.281445 -2.3564 26.6432 -0.283839 -2.50116 26.6899 -0.284599 
-2.26157 26.2739 -0.282899 -2.64444 26.7267 -0.28534 -2.79031 26.7723 -0.286128 
-2.54945 26.3632 -0.284296 -2.93579 26.8184 -0.286879 -3.07847 26.8612 -0.287652 
-2.83655 26.4475 -0.285675 -3.21909 26.8938 -0.288321 -3.35168 26.9332 -0.289009 
-3.12129 26.5276 -0.287012 -3.49739 26.9846 -0.289731 -3.63579 27.0357 -0.290461 
-3.40635 26.6128 -0.288371 -3.7748 27.1272 -0.291281 -3.91322 27.2274 -0.292141 
-3.68955 26.7563 -0.289851 -4.05361 27.3481 -0.293073 -4.19135 27.4388 -0.293892 
-4.23118 27.2162 -0.293346 -3.96751 26.9686 -0.291533 -1.25656 11.8879 -0.206564 
-1.3052 12.0611 -0.205347 -0.914688 10.8788 -0.206296 -0.965188 11.0557 -0.206531 
-1.47749 12.6675 -0.20633 -1.55624 12.9213 -0.20933 1.43888 1.71864 -0.141605 
1.6471 2.0589 -0.140759 0.580044 8.70612 -0.233972 0.429856 8.52101 -0.230191 
1.87629 2.46315 -0.14035 2.03926 2.78859 -0.140666 1.61674 2.13696 -0.14417 
2.19073 3.12077 -0.141625 2.33192 3.45751 -0.142224 1.98995 2.87293 -0.144286 
2.45555 3.78986 -0.143899 2.55627 4.0962 -0.144983 2.26448 3.54386 -0.145872 
2.64509 4.40985 -0.146895 2.72422 4.72288 -0.148443 2.47661 4.19887 -0.148722 
2.7901 5.03626 -0.150449 2.84536 5.33763 -0.152295 2.63164 4.83675 -0.152108 
2.88701 5.64469 -0.15419 2.91759 5.94937 -0.156467 2.7393 5.46861 -0.156037 
2.94228 6.23462 -0.158216 2.95772 6.51368 -0.1603 2.80523 6.07168 -0.159925 
2.96834 6.79677 -0.162171 2.96881 7.0832 -0.164164 2.84095 6.64937 -0.163622 
2.96292 7.37423 -0.166273 2.94748 7.67174 -0.168331 2.84596 7.2319 -0.167482 
2.9237 7.97634 -0.170503 2.89107 8.27471 -0.172668 2.81609 7.83486 -0.171473 
2.84807 8.59174 -0.174776 2.8031 8.89849 -0.176986 2.74829 8.46256 -0.175553 
2.75641 9.18413 -0.178746 2.71233 9.45867 -0.180622 2.65633 9.06956 -0.179367 
2.66623 9.74362 -0.182266 2.61804 10.0274 -0.18406 2.56177 9.64244 -0.182595 
2.57931 10.3066 -0.18557 2.52618 10.5981 -0.187268 2.4749 10.2069 -0.185525 
2.47246 10.8939 -0.18876 2.4151 11.201 -0.190295 2.38001 10.78 -0.188136 
2.35215 11.5072 -0.191541 2.30447 11.8148 -0.192905 2.26017 11.3777 -0.190388 
2.27658 12.1039 -0.19422 2.23214 12.4001 -0.195315 2.16457 11.9666 -0.192441 
2.14564 12.6855 -0.195613 2.11852 12.9771 -0.196695 2.04613 12.5361 -0.193332 
2.13599 13.3032 -0.19849 2.14609 13.6158 -0.200267 1.9709 13.1382 -0.195075 
2.16575 13.9391 -0.202308 2.19449 14.2653 -0.204251 2.01109 13.7813 -0.199121 
2.23253 14.5783 -0.206497 2.26691 14.8882 -0.208481 2.0751 14.4094 -0.203852 
2.31562 15.2018 -0.210634 2.36762 15.5169 -0.21267 2.16651 15.028 -0.208783 
2.41834 15.7998 -0.21451 2.47075 16.0884 -0.216186 2.26884 15.6181 -0.213304 
2.52749 16.3914 -0.218027 2.57937 16.6915 -0.21968 2.37733 16.1993 -0.217404 
2.62361 16.9872 -0.221465 2.67495 17.3001 -0.223125 2.47895 16.7949 -0.221249 
2.72173 17.6041 -0.224883 2.76204 17.8881 -0.226433 2.57062 17.3926 -0.224971 
2.80168 18.1769 -0.228002 2.84376 18.4778 -0.229579 2.65723 17.9847 -0.228477 
2.88526 18.8086 -0.231307 2.92427 19.1353 -0.232988 2.73856 18.6042 -0.231941 
2.95789 19.4477 -0.234604 2.98749 19.7555 -0.23612 2.81279 19.2481 -0.235368 
3.0167 20.0686 -0.237727 3.03947 20.367 -0.239172 2.87451 19.8749 -0.238514 
3.05694 20.6825 -0.240833 3.07571 21.0278 -0.242521 2.9196 20.5051 -0.241647 
3.0911 21.3669 -0.244197 3.10499 21.6834 -0.245693 2.95063 21.1618 -0.244849 
3.11989 21.9899 -0.247085 3.13408 22.2998 -0.248496 2.97869 21.8098 -0.247813 
3.14735 22.6221 -0.249929 3.15923 22.9472 -0.251382 3.00498 22.4409 -0.25052 
3.17248 23.2814 -0.252819 3.1776 23.6148 -0.254327 3.02958 23.0998 -0.253244 
3.19051 23.9549 -0.255724 3.20089 24.295 -0.257171 3.05399 23.7764 -0.255953 
3.21477 24.6212 -0.258455 3.22314 24.946 -0.259808 3.07926 24.4446 -0.258549 
3.22273 25.2965 -0.261225 3.22797 25.6369 -0.262606 3.09134 25.1225 -0.261187 
3.2189 26.0292 -0.264157 3.23933 26.3736 -0.265429 3.08039 25.8661 -0.264102 
3.30699 26.773 -0.266712 -4.19247 26.9283 -0.292254 -1.52555 13.5559 -0.211884 
-1.44857 13.8172 -0.211991 -4.13413 26.5879 -0.290916 -4.09634 26.256 -0.289686 
-4.04819 26.7474 -0.291134 -4.06512 25.9002 -0.288339 -4.03321 25.5818 -0.287105 
-4.0041 25.2519 -0.285841 -3.97001 24.9057 -0.284444 -3.90008 25.3642 -0.285967 
-3.92514 24.5577 -0.283038 -3.88988 24.2168 -0.281636 -3.82718 24.6855 -0.283343 
-3.85105 23.8734 -0.280225 -3.8198 23.5431 -0.278853 -3.74477 23.9928 -0.280612 
-3.78704 23.2246 -0.277534 -3.75984 22.901 -0.276171 -3.67442 23.3298 -0.277984 
-3.72616 22.5528 -0.274722 -3.68946 22.2127 -0.273277 -3.60943 22.6619 -0.275294 
-3.65774 21.8679 -0.271829 -3.62325 21.543 -0.270468 -3.54528 21.9681 -0.272442 
-3.58737 21.2241 -0.269083 -3.54981 20.9031 -0.267765 -3.47836 21.3038 -0.269656 
-3.50927 20.5893 -0.266392 -3.46924 20.2776 -0.26512 -3.40247 20.6708 -0.266997 
-3.42236 19.953 -0.263735 -3.37208 19.638 -0.262409 -3.31541 20.0322 -0.264274 
-3.32422 19.3365 -0.261164 -3.2727 19.0281 -0.259844 -3.22052 19.4063 -0.261599 
-3.21387 18.7075 -0.258491 -3.15472 18.3825 -0.257108 -3.11364 18.7851 -0.258847 
-3.10061 18.0686 -0.255679 -3.04697 17.7617 -0.254379 -3.00015 18.1522 -0.255923 
-2.9911 17.4521 -0.252898 -2.94182 17.1575 -0.251601 -2.88938 17.531 -0.252949 
-2.89066 16.8579 -0.250131 -2.84076 16.5464 -0.248632 -2.7814 16.9251 -0.249835 
-2.8029 16.2418 -0.247139 -2.75982 15.9368 -0.245566 -2.69107 16.325 -0.246624 
-2.7294 15.6332 -0.243992 -2.68731 15.3042 -0.242111 -2.6212 15.7213 -0.243262 
-2.64819 14.98 -0.240157 -2.61257 14.6602 -0.23803 -2.54998 15.0978 -0.239516 
-2.57446 14.3564 -0.235933 -2.55242 14.0534 -0.233743 -2.4717 14.4741 -0.235159 
-2.52984 13.7291 -0.231318 -2.52045 13.4124 -0.228995 -2.40999 13.8506 -0.230372 
-2.53176 13.1034 -0.226732 -2.54547 12.7837 -0.224386 -2.40041 13.2219 -0.225782 
-2.56714 12.4724 -0.221909 -2.58722 12.1703 -0.219407 -2.43604 12.6058 -0.221418 
-2.60458 11.871 -0.216794 -2.6334 11.5573 -0.213936 -2.47841 11.9989 -0.216595 
-2.66742 11.2396 -0.211036 -2.70463 10.9254 -0.207976 -2.53317 11.3853 -0.211417 
-2.74717 10.6126 -0.204939 -2.78623 10.3206 -0.201892 -2.61299 10.7578 -0.205926 
-2.82001 10.0236 -0.198874 -2.8587 9.71421 -0.195494 -2.69168 10.1495 -0.200194 
-2.89701 9.41061 -0.192292 -2.93018 9.11238 -0.188977 -2.76589 9.54876 -0.194245 
-2.96041 8.8015 -0.18555 -2.98822 8.49004 -0.182035 -2.83589 8.93262 -0.187973 
-3.00741 8.18659 -0.178667 -3.02132 7.90556 -0.175401 -2.88601 8.31501 -0.181564 
-3.02862 7.62332 -0.172415 -3.03304 7.32093 -0.168902 -2.91206 7.7246 -0.17544 
-3.03245 7.02341 -0.165717 -3.022 6.73393 -0.162584 -2.91872 7.13868 -0.1694 
-3.00721 6.44787 -0.159433 -2.98361 6.14985 -0.156365 -2.90238 6.54794 -0.163422 
-2.95151 5.84782 -0.15312 -2.91403 5.55652 -0.150189 -2.85496 5.95189 -0.157613 
-2.86106 5.25251 -0.147385 -2.79887 4.9395 -0.144321 -2.76827 5.33688 -0.152112 
-2.7276 4.62585 -0.141688 -2.65063 4.32815 -0.138852 -2.64249 4.70944 -0.147071 
-2.55448 4.00942 -0.136526 -2.44453 3.68877 -0.134517 -2.47284 4.06735 -0.142424 
-2.31538 3.34865 -0.131938 -2.17557 3.02548 -0.130999 -2.2449 3.39928 -0.138393 
-2.05532 2.74726 -0.128665 -1.88057 2.41635 -0.128288 -1.9895 2.77237 -0.135252 
-1.18962 1.42525 -0.140853 -1.11385 1.39988 -0.147568 1.21787 1.37194 -0.141863 
0.0870112 8.56353 -0.229762 -0.0753516 8.89717 -0.233527 -1.02131 11.2269 -0.206965 
-1.08198 11.3922 -0.207114 -1.12057 10.871 -0.206007 -0.990876 1.31944 -0.154052 
-0.91746 1.29295 -0.156735 -1.27302 1.69151 -0.147322 -0.846572 1.26851 -0.158974 
-0.796283 1.26686 -0.159748 -1.057 1.57607 -0.155966 -0.758821 1.28964 -0.160763 
-0.708352 1.29072 -0.161179 -0.929291 1.57004 -0.159842 -0.668055 1.30987 -0.162108 
-0.629382 1.32428 -0.162831 -0.829889 1.61058 -0.162142 -0.589332 1.33578 -0.163636 
-0.548281 1.34434 -0.164415 -0.729665 1.64186 -0.163925 -0.507046 1.35208 -0.165021 
-0.464625 1.35607 -0.165696 -0.631192 1.66304 -0.16534 -0.419766 1.36182 -0.166342 
-0.372324 1.35678 -0.166892 -0.527998 1.67902 -0.16666 -0.327451 1.35888 -0.167461 
-0.286931 1.37221 -0.16769 -0.420881 1.68949 -0.167764 -0.245668 1.38313 -0.168125 
-0.201253 1.38754 -0.168165 -0.317313 1.70556 -0.168439 -0.157475 1.38683 -0.167923 
-0.113371 1.38005 -0.167334 -0.214667 1.71835 -0.168222 -0.0689666 1.38871 -0.166194 
-0.024858 1.38712 -0.164547 -0.109482 1.72822 -0.166722 0.0203218 1.38443 -0.16248 
0.0670875 1.39223 -0.159664 -0.00166877 1.73553 -0.163667 0.112811 1.38388 -0.156755 
0.157056 1.39043 -0.154017 0.107272 1.72418 -0.159396 0.202057 1.39398 -0.152231 
0.247813 1.39542 -0.15064 0.215634 1.71798 -0.15542 0.293552 1.40179 -0.150339 
0.339119 1.39791 -0.151208 0.325219 1.72622 -0.153574 0.38625 1.3954 -0.151873 
0.431911 1.39087 -0.153254 0.437785 1.72855 -0.153652 0.476679 1.38484 -0.154343 
0.521726 1.3772 -0.155163 0.547788 1.71786 -0.154683 0.573548 1.37406 -0.155101 
0.621848 1.36955 -0.154435 0.662349 1.7064 -0.155221 0.666984 1.35244 -0.153254 
0.71217 1.34048 -0.152043 0.779429 1.68377 -0.154117 0.745268 1.31245 -0.151422 
0.782725 1.29632 -0.150741 0.878522 1.63725 -0.152441 0.811505 1.26187 -0.150414 
0.849274 1.241 -0.150994 0.962628 1.57532 -0.151117 0.86631 1.19175 -0.151172 
0.929736 1.2067 -0.151476 1.03159 1.49494 -0.150261 1.07816 1.33896 -0.148654 
1.16932 1.39026 -0.146127 -1.14088 11.5636 -0.207473 -1.19914 11.7276 -0.206957 
-1.3421 11.5729 -0.205919 -1.23007 11.2244 -0.206145 1.18002 10.6312 -0.195944 
1.14569 10.4597 -0.196901 -0.822964 10.5202 -0.206772 -0.867274 10.6964 -0.206418 
-1.02112 10.5104 -0.205887 -0.761498 10.1487 -0.208778 -0.792108 10.3275 -0.207581 
-0.943638 10.1285 -0.206749 -0.695321 9.83765 -0.212214 -0.727823 9.98579 -0.21021 
-0.874763 9.7633 -0.208441 -0.624707 9.53736 -0.217133 -0.663994 9.67465 -0.213829 
-0.79962 9.42332 -0.211275 -0.50057 9.28621 -0.224092 -0.570143 9.40044 -0.220016 
-0.697177 9.10237 -0.215171 1.08665 16.0189 -0.233292 1.13231 15.8615 -0.230222 
1.67735 12.4234 -0.187143 1.62937 12.1822 -0.186905 1.27349 10.957 -0.195327 
1.22405 10.7966 -0.195616 1.3438 10.4354 -0.195156 1.11785 10.2748 -0.198233 
1.08434 10.1011 -0.200652 1.2727 10.0778 -0.197249 1.38759 11.2693 -0.194576 
1.33416 11.111 -0.195272 1.44374 10.7636 -0.19405 1.48474 11.5789 -0.192259 
1.43906 11.4229 -0.193984 1.54947 11.0841 -0.192774 1.56496 11.9535 -0.188513 
1.5257 11.7643 -0.190481 1.63753 11.4421 -0.190957 -0.481407 17.8529 -0.290957 
-0.330039 18.1075 -0.291232 -0.245487 9.10917 -0.233254 -0.392445 9.1797 -0.228684 
-0.516966 8.83212 -0.220408 -0.234981 8.50277 -0.222529 0.45195 17.67 -0.291649 
0.600255 17.4742 -0.288391 0.999378 16.3319 -0.241295 1.0384 16.1724 -0.236986 
1.2064 16.4006 -0.236835 1.18911 15.7072 -0.227196 1.24616 15.5458 -0.224107 
1.3096 16.0863 -0.230188 0.92958 16.6411 -0.252696 0.963628 16.4972 -0.246572 
1.11902 16.7274 -0.245373 0.858613 16.9552 -0.267923 0.899033 16.8095 -0.259664 
1.04256 17.0721 -0.256764 0.72685 17.2831 -0.283492 0.802328 17.1228 -0.275402 
0.93926 17.4249 -0.269284 0.0598371 18.1723 -0.290575 0.254101 17.9193 -0.292731 
-1.36172 12.2371 -0.204484 -1.41291 12.4479 -0.204759 -1.57775 12.3446 -0.208066 
-1.45601 11.9308 -0.205863 3.13862 26.66 -0.266888 2.9911 26.6454 -0.267349 
-1.20924 15.718 -0.242366 -1.16255 15.8837 -0.24463 -1.02964 16.336 -0.251577 
-0.995439 16.4835 -0.254948 -1.29355 15.3556 -0.23709 -1.25491 15.5319 -0.240005 
-1.40473 15.9648 -0.242838 -1.35341 14.9627 -0.230058 -1.31687 15.1368 -0.234035 
-1.4665 15.5491 -0.237259 -1.10575 16.0339 -0.246669 -1.07006 16.1887 -0.249081 
-1.30843 16.3089 -0.247696 2.91992 26.348 -0.266518 -1.55726 14.1031 -0.218226 
-1.42627 14.0697 -0.214466 -1.71883 12.7934 -0.211982 -1.64032 13.1459 -0.212076 
0.430677 7.96677 -0.219281 0.266716 8.25442 -0.225102 1.00039 9.61453 -0.21263 
0.971605 9.47159 -0.218011 -1.65192 13.4322 -0.214282 -1.70353 13.7229 -0.217624 
-1.8067 13.3085 -0.216967 -3.95929 26.0503 -0.28853 -1.45212 1.74013 -0.132193 
-1.40113 14.3044 -0.21772 0.106499 8.00014 -0.21809 1.21008 1.5836 -0.147719 
0.743337 17.8011 -0.280589 1.63737 13.7869 -0.192099 1.7132 13.5396 -0.191881 
0.415029 18.2473 -0.286036 1.4261 15.7706 -0.223894 1.31112 15.3916 -0.221189 
1.36559 15.2301 -0.21775 0.707445 8.90961 -0.235147 0.715387 8.42276 -0.224525 
0.800068 9.06746 -0.232607 1.74128 11.8744 -0.188738 1.42368 15.0619 -0.214414 
1.4708 14.8958 -0.210324 1.54183 15.4365 -0.217354 -0.388075 18.729 -0.285177 
-0.175055 18.4807 -0.289245 1.62532 15.0426 -0.210105 1.5022 14.6881 -0.206082 
1.54136 14.5038 -0.201758 -0.590293 17.5657 -0.29131 -0.643414 18.1011 -0.287438 
-0.687377 17.3778 -0.28801 1.21466 9.70504 -0.201478 1.05866 9.92303 -0.203618 
1.02992 9.76596 -0.207805 -0.896267 16.872 -0.26766 -0.863605 16.9916 -0.272811 
1.59237 14.2862 -0.197772 1.63036 14.0621 -0.194994 1.70614 14.599 -0.202938 
-0.0118083 18.7846 -0.285865 -1.13641 16.9103 -0.258691 -0.96162 16.6262 -0.258618 
-0.932846 16.7624 -0.263119 -1.36663 14.7416 -0.226001 -1.49901 15.0933 -0.23074 
-1.3912 14.5456 -0.221502 1.80593 13.0501 -0.191294 1.75186 12.766 -0.189158 
-1.21367 16.6127 -0.2526 0.928553 9.34557 -0.223656 0.87925 9.20914 -0.228472 
1.06084 9.0645 -0.216553 -0.814507 17.0865 -0.278108 -0.763106 17.2193 -0.283151 
-0.829054 17.6591 -0.282238 -0.960401 17.3934 -0.274249 1.76633 14.0846 -0.19778 
2.75437 26.0583 -0.266146 2.61909 25.9783 -0.266408 -1.73342 14.0677 -0.22086 
-1.70692 14.3301 -0.222812 2.43547 25.8857 -0.266827 2.28113 25.828 -0.267221 
2.56263 25.5901 -0.265398 2.11617 25.7587 -0.267637 1.95847 25.7108 -0.268084 
2.21687 25.4261 -0.266426 1.78817 25.6559 -0.268556 1.62778 25.6173 -0.269053 
1.8844 25.2994 -0.267502 1.46261 25.5729 -0.269514 1.31404 25.5416 -0.26997 
1.55148 25.1973 -0.268612 1.15365 25.5083 -0.270429 1.00576 25.4989 -0.270893 
1.22819 25.117 -0.269743 0.869121 25.5496 -0.271357 0.720851 25.5245 -0.271758 
0.932665 25.1328 -0.270848 0.585113 25.4344 -0.272182 0.435948 25.3948 -0.272659 
0.661552 25.0923 -0.271799 0.279188 25.3589 -0.2731 0.127064 25.3422 -0.273635 
0.37127 24.964 -0.272735 -0.0384153 25.3261 -0.274104 -0.194896 25.3461 -0.274634 
0.0508772 24.9106 -0.273836 -0.348125 25.4054 -0.275127 -0.495506 25.4573 -0.275554 
-0.266042 24.9542 -0.274879 -0.637928 25.5757 -0.276103 -0.791592 25.6062 -0.276579 
-0.55978 25.1331 -0.275791 -0.927133 25.5255 -0.277082 -1.07949 25.5247 -0.277637 
-0.836688 25.1714 -0.276727 -1.23996 25.5209 -0.27817 -1.39187 25.5456 -0.278756 
-1.13125 25.0873 -0.277678 -1.55497 25.5984 -0.279371 -1.7079 25.6452 -0.279968 
-1.45244 25.1383 -0.278738 -1.86286 25.7377 -0.280653 -2.01646 25.8018 -0.281304 
-1.7675 25.2862 -0.279855 -2.16812 25.8619 -0.281968 -2.31234 25.9144 -0.282589 
-2.07149 25.4409 -0.281042 -2.45452 25.9674 -0.283216 -2.59599 26.0056 -0.283829 
-2.36288 25.5561 -0.282206 -2.73876 26.0375 -0.284429 -2.88252 26.0849 -0.285075 
-2.64581 25.6428 -0.283311 -3.02526 26.114 -0.285644 -3.16452 26.1478 -0.286247 
-2.92948 25.7055 -0.284345 -3.3104 26.2129 -0.286899 -3.4547 26.2652 -0.287555 
-3.21614 25.8013 -0.285483 -3.6115 26.3287 -0.288264 -3.74892 26.4204 -0.28903 
-3.51699 25.9312 -0.286785 -3.9092 26.6271 -0.290239 -1.06752 9.72641 -0.205593 
-1.10142 9.92603 -0.205122 -1.81114 12.5326 -0.212069 -1.88481 12.7571 -0.214636 
1.24402 1.75808 -0.148878 1.40164 1.89836 -0.14681 1.61969 2.29592 -0.146123 
1.77993 2.62394 -0.146469 1.92848 2.9586 -0.146894 1.58016 2.39566 -0.148669 
2.0586 3.29624 -0.148164 2.18227 3.63543 -0.14904 1.86376 3.06152 -0.149918 
2.28251 3.97004 -0.15087 2.37187 4.29355 -0.152195 2.09072 3.73867 -0.152407 
2.44828 4.62438 -0.154208 2.51502 4.94889 -0.155906 2.26574 4.41202 -0.155709 
2.57214 5.2739 -0.157658 2.61447 5.5924 -0.159766 2.3987 5.07696 -0.159446 
2.65088 5.90614 -0.161555 2.67646 6.20108 -0.163529 2.49239 5.7247 -0.163288 
2.69518 6.49065 -0.165195 2.70659 6.78256 -0.16713 2.54769 6.33621 -0.166979 
2.71326 7.0761 -0.168896 2.70789 7.37518 -0.17073 2.57405 6.92682 -0.17048 
2.69714 7.69088 -0.172656 2.67309 8.00235 -0.174581 2.57086 7.54284 -0.17403 
2.63639 8.3275 -0.176474 2.59233 8.65004 -0.178488 2.52305 8.18963 -0.177662 
2.54024 8.97655 -0.180274 2.49228 9.26537 -0.181893 2.43283 8.8464 -0.181267 
2.43645 9.56789 -0.18335 2.38885 9.85413 -0.184749 2.32261 9.47888 -0.184298 
2.35386 10.1401 -0.185815 2.31359 10.4185 -0.187002 2.22959 10.0683 -0.186493 
2.00595 11.9048 -0.190453 1.97418 12.1867 -0.191167 1.82681 13.3696 -0.193263 
1.88401 13.6348 -0.196018 1.90877 13.951 -0.198479 2.02364 14.8457 -0.206794 
2.07509 15.152 -0.209581 2.08602 15.437 -0.212142 2.13791 15.7143 -0.214424 
1.94379 15.2468 -0.210522 2.23345 16.0063 -0.21666 2.29034 16.3055 -0.218742 
2.05188 15.8169 -0.215852 2.32691 16.5731 -0.220772 2.37141 16.8662 -0.222837 
2.18395 16.3753 -0.220274 2.41284 17.1669 -0.224965 2.45984 17.4695 -0.226894 
2.26252 16.941 -0.22472 2.50026 17.7689 -0.228864 2.5399 18.0573 -0.230603 
2.34496 17.5395 -0.22901 2.58289 18.3685 -0.232425 2.62392 18.6995 -0.234276 
2.42872 18.1494 -0.232944 2.66105 19.0417 -0.236179 2.69366 19.3551 -0.237819 
2.50888 18.8027 -0.236778 2.71856 19.6685 -0.239513 2.74636 19.9832 -0.241022 
2.56952 19.4589 -0.240406 2.7658 20.3104 -0.242695 2.7813 20.6278 -0.244229 
2.61202 20.1007 -0.243656 2.79523 20.9643 -0.24584 2.80842 21.3059 -0.247368 
2.64271 20.7663 -0.246823 2.82321 21.6246 -0.248726 2.83619 21.9334 -0.249989 
2.66832 21.4242 -0.249681 2.8505 22.2506 -0.251257 2.86186 22.5754 -0.252532 
2.69473 22.0628 -0.252139 2.87629 22.9158 -0.253839 2.88776 23.2525 -0.255119 
2.72099 22.7232 -0.25452 2.90319 23.6113 -0.256431 2.91454 23.9537 -0.257716 
2.7485 23.4254 -0.256955 2.935 24.274 -0.258799 2.94764 24.6019 -0.26 
2.78245 24.1073 -0.2592 2.9741 24.9175 -0.261031 2.97242 25.269 -0.262389 
2.828 24.7454 -0.261227 -3.81184 25.509 -0.286269 -3.78362 25.1786 -0.285036 
-1.64643 2.14057 -0.137024 -1.65481 2.06037 -0.130737 -3.72912 24.8515 -0.283786 
-3.68528 24.5022 -0.282455 -3.64048 24.994 -0.284099 -3.6305 24.1466 -0.281099 
-3.5929 23.8019 -0.279781 -3.53236 24.3097 -0.28156 -3.54962 23.4515 -0.278435 
-3.51813 23.1318 -0.277207 -3.43597 23.6019 -0.278975 -3.48385 22.7862 -0.275861 
-3.45155 22.4369 -0.274495 -3.36035 22.9043 -0.276406 -3.42311 22.0858 -0.273087 
-3.39255 21.7402 -0.27169 -3.29968 22.2064 -0.273759 -3.36028 21.3958 -0.270272 
-3.3252 21.0764 -0.268972 -3.24078 21.5103 -0.271 -3.28147 20.7492 -0.267582 
-3.2415 20.4352 -0.266284 -3.16607 20.8383 -0.268231 -3.19825 20.1178 -0.264876 
-3.1517 19.7933 -0.263494 -3.08009 20.1937 -0.265497 -3.11215 19.4826 -0.26208 
-3.06438 19.1816 -0.260726 -2.99787 19.5663 -0.262675 -3.01292 18.8754 -0.259301 
-2.954 18.5561 -0.257805 -2.90701 18.9504 -0.259789 -2.88746 18.2391 -0.256234 
-2.83296 17.9273 -0.254684 -2.78899 18.3285 -0.25668 -2.77003 17.601 -0.252941 
-2.7136 17.2944 -0.25132 -2.65921 17.6875 -0.253226 -2.66478 16.9918 -0.249596 
-2.61289 16.696 -0.24792 -2.54646 17.0622 -0.249588 -2.5738 16.3915 -0.246144 
-2.53487 16.0913 -0.244358 -2.45703 16.4597 -0.245851 -2.50957 15.796 -0.242623 
-2.47809 15.497 -0.240761 -2.39069 15.8652 -0.241983 -2.47108 15.2271 -0.239214 
-2.43069 14.9074 -0.237018 -2.35639 15.3051 -0.238419 -2.36552 14.627 -0.234565 
-2.32549 14.3277 -0.232175 -2.2823 14.7578 -0.234272 -2.24709 13.3392 -0.22436 
-2.26058 13.0347 -0.222349 -2.34079 12.157 -0.216474 -2.36087 11.8612 -0.214228 
-2.38449 11.5574 -0.211865 -2.42122 11.243 -0.209436 -2.24489 11.7147 -0.211917 
-2.46894 10.9141 -0.206831 -2.51362 10.6036 -0.204233 -2.32011 11.0857 -0.207521 
-2.55925 10.2837 -0.20147 -2.59467 9.98738 -0.19877 -2.41658 10.4395 -0.202706 
-2.63527 9.69814 -0.196203 -2.67482 9.39372 -0.193273 -2.50487 9.83146 -0.197717 
-2.70723 9.07794 -0.190363 -2.73809 8.7646 -0.187313 -2.57963 9.22587 -0.192507 
-2.75962 8.45273 -0.184358 -2.77887 8.14515 -0.181392 -2.63478 8.59633 -0.186923 
-2.78884 7.86312 -0.178725 -2.79592 7.57577 -0.175882 -2.66654 7.99936 -0.18161 
-2.79681 7.27571 -0.173189 -2.79584 6.97148 -0.170151 -2.67819 7.41323 -0.176503 
-2.78378 6.67091 -0.167533 -2.76828 6.37745 -0.164852 -2.66733 6.80741 -0.171299 
-2.73905 6.0681 -0.162143 -2.70584 5.75733 -0.159593 -2.62622 6.19142 -0.166302 
-2.65913 5.43348 -0.156972 -2.60421 5.12031 -0.154505 -2.55033 5.55123 -0.161438 
-2.54168 4.79866 -0.152272 -2.46854 4.47547 -0.149878 -2.44038 4.89825 -0.157041 
-2.38378 4.14356 -0.147837 -2.28507 3.81615 -0.145946 -2.29312 4.23768 -0.152987 
-2.16843 3.4548 -0.144026 -2.03567 3.10765 -0.142991 -2.0929 3.53838 -0.149399 
-1.88395 2.73235 -0.141532 -1.75781 2.44797 -0.14062 -1.82453 2.79742 -0.146461 
-1.52277 14.612 -0.223729 0.595924 7.66203 -0.213901 0.446533 7.42376 -0.210084 
1.59084 10.605 -0.192626 1.53658 10.4409 -0.193316 1.73646 10.8417 -0.191122 
1.69033 10.6712 -0.191672 1.78053 10.3602 -0.190927 -1.24231 1.84922 -0.153631 
-1.15117 1.81682 -0.156549 -1.11324 1.8673 -0.158591 -1.05503 1.887 -0.160209 
-1.27996 2.13761 -0.156988 -1.00489 1.93094 -0.161823 -0.942672 1.94903 -0.163116 
-1.17164 2.2296 -0.161096 -0.888783 1.97712 -0.164164 -0.83072 1.98961 -0.165064 
-1.04807 2.30132 -0.164139 -0.770299 2.0066 -0.165865 -0.711844 2.0164 -0.166629 
-0.915548 2.34732 -0.166299 -0.649731 2.02534 -0.167221 -0.587146 2.03379 -0.167842 
-0.775634 2.37569 -0.167987 -0.523909 2.04227 -0.168489 -0.461315 2.04716 -0.168841 
-0.63333 2.39639 -0.169177 -0.401019 2.06612 -0.169212 -0.341844 2.08045 -0.169208 
-0.492862 2.42781 -0.169955 -0.283231 2.09524 -0.169035 -0.222111 2.09669 -0.168606 
-0.356858 2.46565 -0.170046 -0.159285 2.10618 -0.16778 -0.0965861 2.11699 -0.166777 
-0.217949 2.49335 -0.169199 -0.0341629 2.12048 -0.165405 0.0294438 2.11829 -0.163864 
-0.0745831 2.50854 -0.167383 0.0923639 2.10214 -0.162133 0.156401 2.09261 -0.160375 
0.0691165 2.49638 -0.164836 0.221238 2.08033 -0.158754 0.284851 2.08212 -0.157477 
0.21535 2.46684 -0.161932 0.353169 2.08971 -0.15665 0.418437 2.09448 -0.156315 
0.367043 2.4602 -0.159779 0.484835 2.09687 -0.156049 0.551239 2.09223 -0.156126 
0.520424 2.46762 -0.158671 0.614874 2.08056 -0.156091 0.676878 2.07232 -0.156202 
0.668511 2.45505 -0.158112 0.747022 2.06434 -0.156052 0.818426 2.05904 -0.155726 
0.820106 2.43195 -0.157603 0.884582 2.03449 -0.155197 0.950105 2.01539 -0.154381 
0.975558 2.39628 -0.156565 1.00548 1.97116 -0.153539 1.05907 1.94328 -0.152697 
1.1171 2.32538 -0.154748 1.10982 1.89655 -0.15164 1.16136 1.86539 -0.150861 
1.24394 2.23488 -0.152643 1.20442 1.80025 -0.149715 0.761645 18.3357 -0.278887 
0.895841 18.1223 -0.274616 -0.989541 9.35218 -0.207031 -1.0317 9.52636 -0.206024 
-1.17694 9.32644 -0.204199 -1.13748 10.1298 -0.204986 -1.18237 10.3185 -0.204843 
-1.2542 9.73838 -0.203822 0.39601 18.8353 -0.283022 0.580985 18.593 -0.28175 
-0.898383 8.97082 -0.209141 -0.947142 9.15184 -0.207671 -1.0883 8.91488 -0.205102 
-0.757243 8.62581 -0.21206 -0.833823 8.79077 -0.210086 -0.96672 8.51821 -0.206208 
1.2304 17.1232 -0.248583 1.27432 16.9492 -0.243884 1.5074 10.2557 -0.193727 
1.46607 10.0833 -0.194614 1.65331 10.1004 -0.192326 -0.625599 19.0071 -0.283194 
-0.483598 19.3366 -0.282609 1.42177 9.91069 -0.195609 1.39176 9.7191 -0.196976 
1.57943 9.73485 -0.193824 -0.0682536 19.4474 -0.282637 0.157827 19.1722 -0.283 
-1.0577 17.1735 -0.266215 1.14559 17.5083 -0.25893 1.19293 17.3255 -0.253446 
1.33803 17.5475 -0.251142 1.32361 16.7845 -0.239869 1.37292 16.6249 -0.236233 
1.43205 17.173 -0.24273 -3.8315 26.2015 -0.288613 1.43264 16.4747 -0.232995 
1.48568 16.3147 -0.229777 1.54377 16.851 -0.235749 1.01325 17.9157 -0.269526 
1.08987 17.7254 -0.264589 1.23329 17.9773 -0.260284 2.90748 25.9721 -0.265252 
1.14848 9.36084 -0.208305 -1.66025 15.7398 -0.238157 -1.64274 15.972 -0.241063 
-1.6616 16.294 -0.244188 -1.62293 16.4905 -0.246612 -1.85545 16.4761 -0.245081 
-1.52533 16.609 -0.248506 -1.47275 16.7664 -0.250988 -1.77931 16.9325 -0.249709 
1.87667 12.4641 -0.190614 0.11679 7.41532 -0.209982 -0.0499914 7.68269 -0.212191 
-1.22755 10.5131 -0.205032 -1.27801 10.6922 -0.204973 -1.33643 10.1443 -0.203771 
-1.39456 16.8799 -0.253054 -1.35311 17.033 -0.255704 -1.60521 17.1775 -0.253706 
2.08543 11.5589 -0.190305 1.89402 11.7835 -0.189502 1.82669 11.538 -0.189525 
2.15164 11.2587 -0.189547 -1.55196 2.10638 -0.142723 -1.83331 14.6268 -0.227486 
-1.67 14.6505 -0.225576 -1.65372 14.9121 -0.228426 -1.55848 11.6074 -0.206042 
-1.62028 11.8063 -0.206796 1.65828 16.5302 -0.229388 1.54101 16.1517 -0.2268 
1.5994 15.9887 -0.223689 -3.80126 25.845 -0.287355 -1.47816 17.4493 -0.258438 
-1.3063 17.1833 -0.25841 -1.26534 17.3343 -0.261539 -2.03375 12.8201 -0.217459 
-1.95243 13.0851 -0.21797 -1.96211 13.3765 -0.220072 -1.84585 13.9468 -0.222054 
2.3002 10.6687 -0.18776 2.24467 10.9615 -0.188872 -1.4056 2.00891 -0.149074 
1.89741 14.2367 -0.200589 1.94108 14.5401 -0.203651 -3.68341 25.6577 -0.286398 
2.91834 25.5791 -0.263768 0.731441 7.91722 -0.21632 0.738189 7.39716 -0.207971 
0.852458 8.12484 -0.217547 0.748858 18.884 -0.276578 -0.228351 7.93093 -0.214496 
-0.380911 8.14002 -0.215356 -0.204104 7.367 -0.207199 0.452872 6.85457 -0.202158 
0.291772 7.1213 -0.205623 -2.25741 13.6868 -0.226952 -2.10884 13.4959 -0.223395 
-1.97514 13.7195 -0.22264 -2.28056 14.0064 -0.229485 -2.32202 12.7431 -0.220954 
-2.34617 12.4357 -0.218813 1.36149 2.12722 -0.150018 -0.593036 20.0249 -0.279432 
-0.354251 19.7819 -0.280755 1.29852 9.12289 -0.203466 1.25325 8.95425 -0.206418 
-1.4887 2.24894 -0.150331 -1.48368 11.4377 -0.205899 -1.64565 11.2983 -0.205751 
-1.42786 11.2557 -0.20583 2.17922 10.6022 -0.188067 -2.16738 14.1604 -0.228763 
-2.22337 12.2938 -0.216246 1.33455 8.56602 -0.204407 1.19573 8.80371 -0.209711 
1.13601 8.656 -0.212587 -0.187526 20.1236 -0.279841 -1.32343 10.8736 -0.205385 
-1.37646 11.0591 -0.20536 -1.52023 10.9184 -0.204755 -1.42542 10.529 -0.204116 
0.333332 19.4713 -0.279739 -0.653751 8.45718 -0.212986 -0.786008 8.14992 -0.207508 
-0.53178 8.3165 -0.215062 0.926631 8.77785 -0.222873 1.6791 15.8235 -0.2203 
1.7306 15.6395 -0.216973 1.79072 16.1922 -0.22309 -0.727657 18.6283 -0.28383 
-0.817382 19.2266 -0.280419 -0.824636 18.3574 -0.282235 1.50347 9.35027 -0.19637 
1.36403 9.51483 -0.198667 1.32932 9.32592 -0.200988 1.78545 11.3126 -0.190132 
1.74529 11.1064 -0.190568 -1.23092 17.5035 -0.264806 -1.18188 17.6266 -0.267993 
-1.3903 17.7763 -0.263982 1.88584 10.7085 -0.189772 1.0501 18.4136 -0.269594 
-1.71651 11.992 -0.208173 -1.78041 12.2195 -0.210045 -1.94128 12.1762 -0.21213 
-1.81658 11.6677 -0.208035 -1.64608 15.4428 -0.235021 -1.82118 15.8473 -0.239039 
-1.65908 15.2013 -0.231803 0.139658 6.84299 -0.202176 -1.12181 17.7357 -0.27158 
-1.05815 17.8497 -0.274955 -1.28499 18.0664 -0.269546 2.31559 25.1128 -0.265112 
2.15328 25.0416 -0.265705 1.98701 24.9612 -0.26629 1.81941 24.9037 -0.266979 
2.08908 24.6478 -0.265082 1.64421 24.8391 -0.26766 1.48151 24.792 -0.268299 
1.75057 24.4994 -0.266519 1.29255 24.6742 -0.269014 1.13425 24.6387 -0.269663 
1.38925 24.313 -0.268095 0.935011 24.5705 -0.270439 0.799015 24.621 -0.271043 
1.00375 24.1228 -0.269828 0.665833 24.5277 -0.271544 0.0957304 11.2716 -0.0860504 
0.097494 11.3006 -0.0866409 0.475774 24.6028 -0.272282 0.32079 24.5648 -0.272916 
0.616072 24.1257 -0.271582 0.153323 24.4523 -0.273461 -0.0105325 24.4353 -0.274086 
0.259423 24.0854 -0.273027 -0.211326 24.44 -0.274701 -0.363027 24.5008 -0.275191 
-0.107893 23.9748 -0.274396 -0.54329 24.6813 -0.275756 -0.683822 24.8023 -0.276174 
-0.487861 24.1642 -0.275578 -0.818623 24.7204 -0.276626 0.092519 11.3487 -0.0855127 
0.0753738 11.4204 -0.086981 -0.984358 24.5596 -0.277058 -1.14322 24.5564 -0.277526 
-0.833821 24.1848 -0.276586 -1.3398 24.6013 -0.278067 -1.50025 24.6565 -0.278541 
-1.19557 24.0688 -0.277484 -1.68378 24.7602 -0.279118 -1.8355 24.8553 -0.279625 
-1.57276 24.2218 -0.278349 -1.98369 25.0211 -0.280243 -2.13279 25.0833 -0.280756 
-1.90045 24.496 -0.27935 -2.27201 25.0661 -0.281107 -2.41165 25.1211 -0.281572 
-2.1856 24.6471 -0.280187 -2.55006 25.264 -0.282236 -2.69097 25.2975 -0.282711 
-2.46005 24.7756 -0.281051 -2.81958 25.2776 -0.283012 -2.9605 25.3084 -0.283493 
-2.72523 24.9003 -0.281901 -3.11069 25.38 -0.284052 -3.25465 25.4463 -0.28463 
-3.00201 24.9543 -0.282662 -3.39902 25.5407 -0.285268 -3.55415 25.6053 -0.285878 
-3.56645 25.2698 -0.284846 -3.29435 25.1218 -0.283777 -2.16415 12.8617 -0.219633 
1.51235 2.45118 -0.150237 -0.966377 17.8918 -0.278077 -0.884398 18.0647 -0.281388 
-0.972882 18.5695 -0.279377 1.64365 2.7835 -0.151326 1.7696 3.12275 -0.152212 
1.43946 2.52191 -0.152399 1.88419 3.47915 -0.153818 1.98303 3.81953 -0.155143 
1.67928 3.21162 -0.154671 2.0719 4.17435 -0.157153 2.1482 4.51319 -0.158771 
1.87875 3.92712 -0.15809 2.21647 4.86238 -0.160893 2.27424 5.19599 -0.162784 
2.03419 4.6378 -0.161854 2.32103 5.53599 -0.164793 2.35863 5.85833 -0.166783 
2.14897 5.33478 -0.166168 2.38722 6.17629 -0.16866 2.4071 6.47344 -0.170513 
2.22476 6.00067 -0.170277 2.418 6.7815 -0.172358 2.42563 7.08201 -0.17404 
2.26528 6.63397 -0.174111 2.43238 7.37826 -0.175566 2.42238 7.70048 -0.177273 
2.28355 7.24446 -0.17751 2.40881 8.03983 -0.178894 2.37177 8.37078 -0.180676 
2.27801 7.88524 -0.18051 2.32042 8.71633 -0.182409 2.26726 9.04742 -0.18395 
2.21227 8.57514 -0.18371 2.18498 9.41053 -0.185695 2.12738 9.71609 -0.186808 
2.07635 9.29006 -0.186922 2.79903 25.3718 -0.26357 2.00744 16.0677 -0.218885 
2.04415 16.3319 -0.22127 2.15177 17.2393 -0.22908 2.19294 17.5375 -0.231217 
2.27215 17.8962 -0.233271 2.31517 18.2073 -0.235188 2.08217 17.59 -0.233451 
2.35544 18.5694 -0.237468 2.39167 18.9119 -0.239436 2.20264 18.3116 -0.237944 
2.40901 19.2228 -0.241377 2.4324 19.5371 -0.243033 2.25917 18.9848 -0.242234 
2.45268 19.8721 -0.244774 2.46977 20.2009 -0.24637 2.29507 19.6313 -0.245841 
2.48772 20.5459 -0.247909 2.49873 20.8848 -0.249403 2.33015 20.3134 -0.249012 
2.50446 21.2293 -0.250869 2.51642 21.5509 -0.252058 2.35011 21.0058 -0.251893 
2.51967 21.8715 -0.253333 2.53129 22.1918 -0.254389 2.35504 21.6744 -0.254485 
2.54165 22.537 -0.255572 2.55351 22.8808 -0.256649 2.36486 22.3441 -0.256683 
2.58163 23.2613 -0.257736 2.59488 23.6234 -0.258885 2.39986 23.0744 -0.258668 
2.62723 23.9822 -0.259842 2.64632 24.305 -0.260817 2.45787 23.8178 -0.260511 
2.68851 24.6751 -0.261784 2.7142 24.9929 -0.262725 2.65765 25.3023 -0.264042 
2.53086 24.5501 -0.262323 -3.51253 24.9409 -0.28365 0.613388 6.60073 -0.198488 
0.466277 6.32015 -0.195282 -1.9983 14.0708 -0.225748 -3.42738 24.5244 -0.28216 
-3.3739 24.1668 -0.280893 -3.30803 23.7765 -0.279515 -3.26656 23.4242 -0.278298 
-3.20274 23.9881 -0.280153 -3.21576 23.0346 -0.276922 -3.18352 22.6875 -0.275709 
-3.08866 23.2054 -0.277564 -3.16942 22.3378 -0.274397 -3.14298 21.9857 -0.273105 
-3.02691 22.4641 -0.275057 -3.12055 21.6277 -0.271685 -3.08999 21.2827 -0.270345 
-2.99317 21.7553 -0.272473 -3.04235 20.9299 -0.26892 -3.00001 20.6023 -0.267597 
-2.92538 21.0437 -0.269725 -2.94619 20.2678 -0.266185 -2.90394 19.9507 -0.264801 
-2.82597 20.3557 -0.266938 -2.86634 19.6234 -0.263257 -2.82719 19.3137 -0.261791 
-2.73617 19.6941 -0.263994 -2.81632 19.0492 -0.26043 -2.76516 18.744 -0.258936 
-2.6877 19.1041 -0.261036 -2.68056 18.4352 -0.257332 -2.6143 18.1197 -0.25568 
-2.59253 18.5314 -0.258027 -2.53559 17.7742 -0.253655 -2.47226 17.4507 -0.251707 
-2.42986 17.8772 -0.254369 -2.4113 17.1095 -0.249546 -2.36156 16.811 -0.247594 
-2.28956 17.1929 -0.249985 -2.32275 16.4918 -0.245387 -2.28232 16.1925 -0.243344 
-2.18816 16.5375 -0.245342 -2.26136 15.8817 -0.241147 -2.23465 15.5919 -0.239123 
-2.12599 15.9151 -0.240508 1.43578 8.93382 -0.199933 -2.16209 11.2801 -0.208155 
-2.21266 10.9547 -0.206106 -2.27351 10.6029 -0.203819 -2.32113 10.2847 -0.201517 
-2.11676 10.8 -0.204818 -2.36115 9.98175 -0.199297 -2.40302 9.69254 -0.196982 
-2.22021 10.1471 -0.200685 -2.44136 9.38653 -0.194642 -2.47484 9.06951 -0.191981 
-2.30051 9.53843 -0.196424 -2.50262 8.75563 -0.189524 -2.52475 8.44119 -0.186875 
-2.36828 8.91747 -0.191799 -2.53225 8.1436 -0.184599 -2.54262 7.85806 -0.182234 
-2.40473 8.30425 -0.187201 -2.55209 7.57391 -0.179891 -2.55332 7.26933 -0.177322 
-2.42249 7.71974 -0.18282 -2.54443 6.96129 -0.175025 -2.53271 6.65532 -0.172583 
-2.42443 7.12429 -0.17836 -2.4984 6.34048 -0.170459 -2.46929 6.02485 -0.168274 
-2.38244 6.49795 -0.174116 -2.42766 5.68983 -0.165942 -2.38087 5.359 -0.16385 
-2.30831 5.84369 -0.170012 -2.32958 5.02229 -0.16159 -2.26703 4.694 -0.159563 
-2.2169 5.16636 -0.165839 -2.19554 4.35093 -0.157581 -2.11141 4.01316 -0.155843 
-2.09642 4.48113 -0.16196 -2.01598 3.65624 -0.154055 -1.90063 3.29057 -0.15277 
-1.93326 3.77659 -0.15852 -1.78058 2.94114 -0.151304 -1.63255 2.56437 -0.150649 
-1.46937 2.40339 -0.154556 -1.72318 3.06739 -0.155631 -1.41273 2.44904 -0.157037 
-0.901693 20.2368 -0.278437 -0.782424 20.6461 -0.277735 1.79264 14.8998 -0.206922 
1.84722 14.6626 -0.204141 1.80505 15.1738 -0.210275 -1.21694 2.63844 -0.163918 
-1.14518 2.66617 -0.165397 -1.07581 2.71168 -0.166625 -0.99776 2.73006 -0.167785 
-1.23004 3.05122 -0.166817 -0.920401 2.76076 -0.168657 -0.841323 2.77248 -0.16948 
-1.0669 3.12964 -0.169361 -0.756451 2.7943 -0.17036 -0.675846 2.80659 -0.170746 
-0.88808 3.18615 -0.171325 -0.590894 2.81472 -0.171252 -0.513235 2.83813 -0.171372 
-0.701401 3.22148 -0.172468 -0.43847 2.87033 -0.171554 -0.363051 2.88905 -0.171349 
-0.526032 3.26729 -0.173035 -0.291345 2.92273 -0.171046 -0.21013 2.93548 -0.170573 
-0.363791 3.33864 -0.173085 -0.124271 2.94977 -0.169733 -0.0434879 2.95481 -0.168933 
-0.188703 3.3916 -0.172392 0.0335376 2.94504 -0.167863 0.11515 2.92839 -0.166704 
-0.00723439 3.39821 -0.171013 0.202586 2.89606 -0.165389 0.286811 2.88185 -0.164176 
0.176366 3.35572 -0.168967 0.371198 2.85886 -0.163168 0.458553 2.86423 -0.16232 
0.367479 3.29738 -0.166742 0.545394 2.86797 -0.161795 0.629707 2.86741 -0.161408 
0.556161 3.2744 -0.165133 0.716398 2.86987 -0.160892 0.79764 2.85454 -0.160531 
0.746421 3.27648 -0.163884 0.884681 2.81968 -0.159725 0.972957 2.80861 -0.159304 
0.937813 3.23849 -0.162438 1.05665 2.76132 -0.158267 1.14124 2.73448 -0.157372 
1.12606 3.15101 -0.160531 1.21746 2.66917 -0.156284 1.29191 2.62458 -0.15501 
1.30357 3.03491 -0.158043 1.36824 2.56528 -0.153578 -1.03977 8.03747 -0.202496 
-1.12073 8.23763 -0.202285 -1.2977 8.90576 -0.201867 -1.34271 9.11533 -0.201679 
2.04364 10.6655 -0.18876 2.02914 10.9117 -0.189063 -1.38476 9.34003 -0.201847 
-1.42492 9.55135 -0.201875 -1.50373 8.93285 -0.199551 -1.18556 8.4671 -0.202233 
-1.24264 8.68151 -0.20185 -1.39672 8.47287 -0.19927 -1.26455 8.00645 -0.19889 
1.35333 18.4797 -0.259891 1.42201 18.2487 -0.256058 1.94133 16.3631 -0.222898 
2.11715 16.6779 -0.223988 2.15891 16.9767 -0.226328 1.8639 16.5401 -0.226034 
1.77548 15.4021 -0.213458 1.9346 11.2074 -0.189499 2.07111 11.147 -0.189211 
1.05726 8.49297 -0.215193 0.966776 8.32845 -0.217445 0.988308 7.85796 -0.210289 
1.18774 8.23664 -0.208462 1.53289 17.5596 -0.245007 1.58805 17.3877 -0.241366 
1.4296 17.9293 -0.25264 1.47814 17.718 -0.24843 1.62816 17.9334 -0.246702 
1.56053 18.4153 -0.253119 1.83804 9.96865 -0.190219 1.80882 9.7768 -0.190619 
1.09793 18.9093 -0.268729 1.22215 18.6873 -0.264735 1.41539 18.9512 -0.260597 
-1.43392 9.8108 -0.202474 -1.47849 10.0129 -0.202613 -1.56183 9.42429 -0.200479 
0.30553 20.147 -0.277755 0.534028 19.8258 -0.276486 -1.81849 17.5221 -0.254647 
-1.73962 17.6458 -0.256773 0.760217 19.4674 -0.275093 0.935805 19.2064 -0.272132 
1.11996 19.4621 -0.268159 0.733582 20.115 -0.27313 -0.294062 20.9219 -0.277386 
-0.0135596 20.6125 -0.277226 0.152757 6.25812 -0.195289 -0.0102535 6.5258 -0.197507 
1.91254 15.774 -0.216713 2.47682 25.2083 -0.264589 2.03536 10.3907 -0.188516 
2.07209 10.1061 -0.187835 -1.64084 17.6846 -0.258279 -1.58874 17.8421 -0.260661 
-1.84829 18.0322 -0.258887 0.463384 5.70276 -0.188371 0.312638 5.93038 -0.191138 
0.168434 5.63951 -0.188636 -1.80165 15.2482 -0.233072 -1.12431 18.2332 -0.275092 
-2.06783 11.9388 -0.211817 -2.09462 11.6393 -0.210101 1.91765 9.46058 -0.189176 
1.73695 9.58748 -0.191656 1.69054 9.40686 -0.192646 2.00134 9.08992 -0.187789 
0.889628 7.12293 -0.203002 0.761051 6.87501 -0.200721 0.762931 6.35323 -0.194072 
-3.35209 24.7979 -0.28291 -0.18692 6.80221 -0.200343 -0.350449 7.03691 -0.201771 
-0.157364 6.22851 -0.19447 -2.10248 12.5327 -0.216443 -2.09785 12.2564 -0.214335 
-2.23078 15.2731 -0.236882 -2.22347 15.0074 -0.235139 1.48917 8.33175 -0.1988 
1.41888 8.16424 -0.200596 -0.946038 21.3248 -0.276568 -0.6367 21.1369 -0.277395 
1.93515 10.0487 -0.18919 -1.29025 2.57905 -0.161879 -1.39074 2.94592 -0.163171 
-1.36059 2.53783 -0.159784 1.47391 2.90966 -0.155055 -1.55926 10.1382 -0.202628 
-1.60272 10.33 -0.202969 -1.65323 9.81514 -0.201145 -0.930581 7.80438 -0.202612 
-1.07876 7.52811 -0.198447 -0.816277 7.6118 -0.203073 -0.527708 7.78922 -0.208101 
0.191362 20.9229 -0.275762 0.157256 21.5859 -0.274569 0.468951 21.1454 -0.273874 
-1.58076 18.1182 -0.263422 -1.53537 18.2972 -0.26578 -1.73788 18.3526 -0.262889 
2.00793 16.97 -0.228549 2.41379 24.8262 -0.263815 1.62975 9.24421 -0.193938 
1.59492 9.03279 -0.195236 1.78153 9.09813 -0.191388 -1.91106 17.4127 -0.253108 
-2.04209 17.8735 -0.25597 -2.00695 17.279 -0.251248 1.65007 17.2242 -0.237993 
1.71095 17.067 -0.234732 -1.88841 11.314 -0.206651 -1.98424 11.507 -0.208361 
1.61003 8.71947 -0.195344 1.56553 8.50432 -0.196668 1.65472 8.12127 -0.19403 
-0.467201 21.5854 -0.276549 -1.66149 18.8673 -0.267597 -1.47753 18.5264 -0.268682 
-1.40494 18.6507 -0.27097 -2.09823 15.2937 -0.23573 -1.53707 2.80102 -0.157987 
-1.79857 11.1478 -0.20572 -1.96355 10.9777 -0.205425 -2.02688 10.6286 -0.203562 
-1.7224 10.9629 -0.204767 1.75014 17.6044 -0.240157 -1.03926 19.359 -0.278203 
-0.948959 19.7153 -0.278611 -1.12843 20.345 -0.276841 1.86105 24.1201 -0.265187 
1.68889 24.0518 -0.266081 1.51539 24.0032 -0.266999 1.32952 23.8811 -0.267874 
1.62946 23.6216 -0.265734 1.18782 23.6292 -0.268458 0.991741 23.5547 -0.269501 
1.31672 23.317 -0.267364 0.0465043 11.5073 -0.0876356 0.00735785 11.6118 -0.0898378 
1.01858 22.7426 -0.268954 0.830599 23.2416 -0.270222 0.625091 23.6071 -0.271426 
0.435279 23.6818 -0.272283 0.653707 22.7855 -0.27114 0.269269 23.5637 -0.273052 
-0.0400502 11.7272 -0.0908412 -0.0946591 11.8563 -0.0924257 0.0219251 23.3987 -0.274025 
-0.178438 23.4028 -0.27481 0.199418 22.9832 -0.273431 -0.450974 23.5077 -0.275493 
-0.6297 23.6951 -0.275987 -0.321981 22.9193 -0.27535 -0.155446 11.9949 -0.0936615 
-0.218193 12.1363 -0.0945911 -0.286186 12.2857 -0.095431 -0.357887 12.442 -0.0959093 
-0.796297 23.5301 -0.276519 -0.437997 12.6125 -0.0981343 -0.516147 12.7724 -0.0990972 
-1.06765 23.5083 -0.277054 -1.26229 23.5568 -0.277364 -0.867289 23.006 -0.276617 
-1.49256 23.7216 -0.277768 -1.67266 23.83 -0.278161 -1.36648 23.1582 -0.27722 
-1.89385 23.9148 -0.278562 -2.03784 24.0846 -0.279027 -1.81357 23.4167 -0.277873 
-2.17508 24.0703 -0.279201 -0.59855 12.926 -0.100464 -0.679003 13.066 -0.104563 
-2.42396 24.2556 -0.279878 -2.55895 24.4004 -0.28044 -2.27746 23.695 -0.278617 
-2.68614 24.3829 -0.280633 0.104438 11.2507 -0.0855801 0.132569 11.1983 -0.091059 
-2.89253 24.4832 -0.281188 -3.04031 24.5567 -0.281657 -2.72789 23.9856 -0.279716 
-3.20978 24.7025 -0.282346 2.06639 8.74659 -0.186343 1.91311 8.91968 -0.189073 
1.84741 8.74827 -0.190178 2.11802 8.39512 -0.184808 -2.24551 18.2081 -0.257153 
-2.14981 18.3271 -0.258594 1.5845 3.26757 -0.156492 1.83721 4.37827 -0.162694 
1.90551 4.73433 -0.164744 1.96975 5.12349 -0.167241 2.01729 5.47145 -0.169405 
1.78385 4.87511 -0.16772 2.05924 5.82483 -0.171679 2.08933 6.15023 -0.173711 
1.88941 5.62617 -0.172809 2.10833 6.50163 -0.176018 2.12014 6.81661 -0.177915 
1.95167 6.33944 -0.17754 2.16307 7.74609 -0.181996 2.14926 8.08999 -0.183515 
2.00967 8.26569 -0.186463 1.90744 17.3353 -0.234006 1.98747 17.6966 -0.236204 
2.07102 18.6759 -0.243384 2.08765 18.9869 -0.245365 2.11458 19.3502 -0.247304 
2.1322 19.687 -0.248995 1.93126 19.0332 -0.248815 2.16365 20.0574 -0.250399 
2.17802 20.4053 -0.251837 1.98555 19.7708 -0.252095 2.18292 20.7823 -0.253317 
2.18451 21.1305 -0.254686 2.01691 20.5227 -0.25476 2.1686 21.4715 -0.256009 
2.16782 21.7962 -0.257047 1.99993 21.2459 -0.25735 2.17528 22.1554 -0.258076 
2.18192 22.5053 -0.258976 1.98577 21.9523 -0.259511 2.21437 22.887 -0.259737 
2.23971 23.2721 -0.260583 2.02121 22.6995 -0.260992 2.37228 24.4531 -0.262948 
-2.04949 14.3871 -0.228639 -1.98649 14.6343 -0.22948 -1.94707 14.9663 -0.23182 
-2.15377 14.7306 -0.232548 -1.65138 3.15089 -0.158834 -2.8419 22.5442 -0.275512 
-2.83084 22.1931 -0.274394 -2.86669 21.8525 -0.273057 -2.84661 21.4937 -0.271781 
-2.68522 21.928 -0.273744 -2.82051 21.1715 -0.270517 -2.77525 20.8177 -0.269207 
-2.69724 21.265 -0.271256 -2.68234 20.463 -0.267937 -2.63108 20.1275 -0.26658 
-2.58083 20.5863 -0.268878 -2.5892 19.7368 -0.264784 -2.55256 19.4105 -0.263193 
-2.45079 19.8381 -0.265906 -2.52438 19.0156 -0.261065 -2.51249 18.7537 -0.259578 
-2.42976 18.4438 -0.258023 1.47081 7.77703 -0.197257 1.32114 8.00932 -0.202884 
1.23176 7.82857 -0.20442 -1.99182 16.1916 -0.242383 -1.97767 15.8827 -0.239622 
-1.16123 18.7232 -0.276137 -1.10818 19.0083 -0.277476 -1.23741 19.4896 -0.276076 
-1.26256 18.6631 -0.273458 -2.08113 10.2929 -0.201793 -2.12261 9.99082 -0.199906 
-1.93016 10.4768 -0.2029 -2.15185 9.69508 -0.198152 -2.19132 9.38832 -0.196048 
-2.01523 9.84573 -0.199529 -2.24259 9.09709 -0.193999 -2.27143 8.78174 -0.191686 
-2.09727 9.25742 -0.195893 -2.25821 8.49814 -0.190092 -2.26725 8.19869 -0.188054 
-2.13691 8.68211 -0.19239 -2.27366 7.8948 -0.186057 -2.28404 7.60739 -0.183953 
-2.13305 8.09434 -0.188942 -2.3098 7.3025 -0.181481 -2.30191 6.99102 -0.179294 
-2.16699 7.48179 -0.184677 -2.17252 6.03941 -0.174267 -2.13308 5.69963 -0.172263 
-2.09515 5.31916 -0.169773 -2.04563 4.97709 -0.167798 -1.97094 5.52235 -0.173721 
-1.98781 4.60415 -0.165619 -1.91858 4.2566 -0.163917 -1.87827 4.76289 -0.169328 
-1.84191 3.87514 -0.161865 -1.7494 3.51521 -0.160454 -1.57705 3.2543 -0.162134 
-1.64543 8.49514 -0.19636 -1.69663 8.72993 -0.196758 -1.39676 3.40158 -0.166873 
-1.31155 3.44767 -0.168543 -1.22229 3.51668 -0.170013 -1.12938 3.55018 -0.171394 
-1.37509 3.86735 -0.170436 -1.02992 3.62024 -0.172556 -0.928447 3.6472 -0.17346 
-1.17155 4.01068 -0.173615 -0.820555 3.66541 -0.174339 -0.719377 3.67923 -0.174663 
-0.948867 4.10672 -0.175896 -0.617918 3.63309 -0.1748 -0.528479 3.67089 -0.174936 
-0.725921 4.08608 -0.176729 -0.457651 3.87004 -0.175869 -0.369337 3.90996 -0.176031 
-0.544042 4.24591 -0.178072 -0.257594 3.80504 -0.174937 -0.153998 3.82314 -0.174664 
-0.341485 4.35108 -0.17854 -0.0516276 3.99574 -0.175193 0.0443345 3.98676 -0.174597 
-0.114664 4.42399 -0.17851 0.138977 3.8034 -0.172649 0.245548 3.76898 -0.171534 
0.106991 4.41502 -0.177562 0.34781 3.78057 -0.170952 0.451252 3.75385 -0.169889 
0.317976 4.23897 -0.174957 0.543284 3.65713 -0.168518 0.64612 3.65732 -0.167721 
0.531146 4.1483 -0.172786 0.769843 3.81273 -0.168382 0.873898 3.80988 -0.167759 
0.757112 4.20362 -0.171916 0.985053 3.68327 -0.165752 1.08926 3.64257 -0.164779 
1.0128 4.22267 -0.170201 1.18862 3.54603 -0.163048 1.28861 3.49497 -0.161957 
1.24048 3.98946 -0.166391 1.38948 3.40765 -0.160055 1.48261 3.3412 -0.158609 
1.6741 3.63781 -0.158529 1.45585 3.79998 -0.162725 -0.523851 7.2293 -0.202443 
-0.669981 7.41911 -0.202976 -0.815762 7.08546 -0.198039 -1.48509 3.31106 -0.164431 
-2.11317 17.1725 -0.250145 -2.24284 17.6475 -0.253355 1.80388 16.969 -0.231894 
1.85813 16.798 -0.229072 -1.59945 10.607 -0.203842 -1.64956 10.8166 -0.204438 
-1.80133 10.657 -0.203737 -1.73128 10.2288 -0.202211 2.20374 24.3324 -0.263619 
2.04037 24.2493 -0.264407 1.97863 23.8046 -0.263802 2.32304 24.0578 -0.262136 
-3.09997 24.2346 -0.280813 1.89326 17.7845 -0.238914 2.06439 18.0432 -0.238085 
2.10467 18.4055 -0.240483 1.82673 17.9547 -0.242076 -3.03593 23.8415 -0.279553 
-0.498803 6.69229 -0.197376 1.76127 3.99755 -0.160287 1.64501 4.09743 -0.162705 
2.10681 7.1801 -0.180354 2.1128 7.48119 -0.181848 0.922479 6.09066 -0.190126 
0.779692 5.82536 -0.187969 -2.83644 23.6319 -0.278849 -2.93989 23.3884 -0.278156 
-2.89202 22.9959 -0.276939 2.10338 23.5098 -0.26224 2.29232 23.6955 -0.261333 
-0.698517 22.4194 -0.276466 -0.359572 22.2175 -0.275893 -0.137777 5.64303 -0.188644 
-0.300661 5.90597 -0.190718 1.95839 7.06353 -0.182453 -1.32175 21.4881 -0.276429 
-1.18861 21.9461 -0.276574 -2.69455 22.7225 -0.276224 -2.38197 19.0541 -0.261932 
-2.32142 17.9924 -0.255424 -1.95503 15.5803 -0.237054 -1.44837 19.1272 -0.272304 
-1.95238 15.277 -0.234434 -1.35149 22.5421 -0.27671 -0.970291 22.402 -0.276857 
-0.0849692 22.112 -0.274919 -1.74778 4.00329 -0.165433 -1.5689 3.7066 -0.166289 
-2.213 6.38736 -0.176269 -2.04491 6.25578 -0.17804 -2.2451 6.70535 -0.178139 
-1.13083 7.00448 -0.194284 -1.25146 7.25669 -0.194633 -1.48376 8.08956 -0.196519 
-1.55016 8.32574 -0.19665 -1.73437 8.12534 -0.193662 -1.3593 7.542 -0.195117 
-1.4376 7.78602 -0.195479 -1.58534 7.64353 -0.19292 0.732361 21.4211 -0.271388 
0.76827 20.7765 -0.271986 1.73048 8.61837 -0.19261 0.986085 20.4273 -0.269664 
-2.05103 16.8346 -0.247667 1.73548 18.3868 -0.248305 1.79774 18.2203 -0.245223 
1.8439 7.86473 -0.188729 1.75515 7.67503 -0.18992 -2.03178 16.5045 -0.244891 
1.46176 19.3888 -0.260915 1.59906 19.1676 -0.256964 -1.7055 9.12593 -0.198274 
-1.71966 9.38944 -0.199149 -1.80066 9.5257 -0.199102 -1.85141 8.70387 -0.195143 
1.31996 19.6758 -0.264471 1.51232 19.8843 -0.261147 1.15949 19.978 -0.267708 
0.151261 4.96266 -0.182127 0.00515997 5.26682 -0.185161 1.1267 7.60107 -0.204601 
1.01074 7.38646 -0.20448 1.03039 6.88634 -0.197771 1.2611 7.38288 -0.199192 
-1.41818 7.04228 -0.191356 1.80761 7.28046 -0.186706 1.62678 7.53694 -0.192161 
1.51878 7.36399 -0.193663 1.81965 6.90654 -0.184185 0.636336 5.53989 -0.186 
0.48544 5.17126 -0.182625 1.93767 18.4011 -0.24382 -2.63418 23.5282 -0.278451 
1.9918 7.69532 -0.185057 1.08064 6.35871 -0.191305 1.08875 5.84811 -0.185522 
1.20102 6.62188 -0.192746 1.78244 6.15945 -0.179069 1.8036 6.52021 -0.181481 
1.65976 6.74295 -0.185835 0.787111 5.29841 -0.182244 -2.2091 18.7406 -0.261009 
-2.01077 18.3987 -0.260174 -0.131268 4.96965 -0.18285 1.92766 23.3769 -0.263225 
-0.434773 5.55364 -0.187387 -0.469417 6.12172 -0.192147 -0.632516 6.31832 -0.193067 
-1.90924 18.4457 -0.261507 1.80378 19.4992 -0.254135 1.83007 19.8753 -0.255335 
1.81889 20.992 -0.259001 1.79718 21.339 -0.260288 1.73422 21.7619 -0.261805 
1.736 22.129 -0.262508 1.54823 21.5094 -0.263334 1.81953 22.5573 -0.262454 
1.84889 22.9447 -0.263004 1.56067 22.3742 -0.264499 -1.40356 20.707 -0.275254 
-1.63558 21.3377 -0.275127 -2.47671 22.7922 -0.27662 -2.43167 22.3359 -0.27547 
-0.737643 13.1622 -0.108709 -0.770735 13.2208 -0.112202 1.52945 4.18619 -0.164865 
-1.50536 6.60611 -0.187505 -1.62523 6.90673 -0.188024 -2.48913 21.0108 -0.271022 
-2.40195 20.6507 -0.269912 -2.27348 19.9901 -0.267763 -2.23614 19.598 -0.265955 
-2.1855 20.4072 -0.270049 1.69555 19.997 -0.258289 1.87847 20.27 -0.255888 
1.87816 20.6521 -0.257218 1.55312 20.2899 -0.26149 1.40414 4.30723 -0.167316 
1.58286 4.59948 -0.16809 1.64654 4.99699 -0.170639 -1.65403 19.8383 -0.272047 
-1.49816 19.8735 -0.273724 1.72144 23.2399 -0.264499 1.55099 23.1863 -0.265611 
1.7478 19.0755 -0.253073 -1.9534 9.32357 -0.197291 -2.00456 9.02914 -0.195394 
-1.99568 8.74749 -0.193961 -1.97731 8.34723 -0.192094 -1.98694 8.04182 -0.190315 
-0.971713 6.6813 -0.193452 -1.14078 6.4198 -0.190005 -0.823746 6.47118 -0.193064 
-1.64324 4.09173 -0.168 -1.70455 4.49659 -0.170234 -1.53848 4.20594 -0.170644 
-1.7606 4.87459 -0.172128 -1.89404 6.53913 -0.182277 -1.85853 6.18832 -0.180318 
0.534696 4.6312 -0.17718 0.641958 4.52573 -0.175665 -1.89426 18.7275 -0.263733 
0.648265 22.1083 -0.27154 0.941088 21.7473 -0.269587 1.85505 8.43437 -0.189875 
1.17471 22.1711 -0.267631 1.25143 21.5106 -0.266775 1.72427 18.7084 -0.251175 
-1.89367 19.1887 -0.266625 -1.82587 19.4297 -0.268737 1.1987 20.6185 -0.266795 
-1.95422 21.4981 -0.274491 -1.88984 22.2541 -0.276 -1.89199 20.1557 -0.271003 
-2.06927 19.2753 -0.265346 -1.86615 7.82362 -0.190475 -2.01191 7.56258 -0.187242 
-2.03622 7.252 -0.184997 -1.7616 7.64081 -0.190722 0.379518 4.77786 -0.179406 
1.8862 8.12388 -0.188592 -2.2375 19.133 -0.263293 -1.57574 22.7195 -0.27691 
-1.79294 22.8119 -0.276966 -2.36597 23.1432 -0.277495 1.69249 5.42465 -0.173977 
1.73529 5.78713 -0.176504 1.59308 5.97287 -0.180314 1.50082 5.15964 -0.174088 
-2.12414 22.9508 -0.277099 -0.247948 4.78383 -0.181535 -1.88961 9.74502 -0.199556 
-1.83827 5.7131 -0.177187 -1.80303 5.32627 -0.174933 -1.64099 5.06954 -0.175393 
-2.1374 6.88993 -0.18115 -1.85882 10.0407 -0.201036 0.916119 4.95957 -0.177998 
0.774781 4.68247 -0.176291 -1.70069 6.00632 -0.181211 -1.98579 6.96914 -0.183837 
1.0673 5.34279 -0.180597 1.04148 4.73905 -0.174757 1.1708 4.59996 -0.172411 
1.22544 5.61184 -0.181674 -0.78738 5.92786 -0.188816 -1.43551 4.27633 -0.172563 
-1.80398 6.91479 -0.185888 -1.32009 4.40686 -0.174658 -1.20623 4.48284 -0.176382 
-1.47063 4.74221 -0.175137 -1.0736 4.57758 -0.17787 -0.952641 4.60417 -0.178835 
-1.20943 4.97513 -0.179261 -0.804326 4.55148 -0.179286 -0.69204 4.51088 -0.179359 
-0.37509 4.88813 -0.18233 0.25991 4.76752 -0.179973 1.326 4.91738 -0.173818 
1.29038 4.40983 -0.169382 1.54672 6.98521 -0.189885 1.39431 7.22393 -0.195072 
1.28371 6.98596 -0.195074 1.5279 6.58788 -0.187111 -0.530474 5.10356 -0.183711 
-0.917251 5.03127 -0.181711 -1.70547 7.3301 -0.18964 -1.85687 10.3219 -0.202203 
0.439054 22.4824 -0.272392 0.192447 22.3027 -0.273744 -1.43718 20.2153 -0.274732 
1.33441 6.4773 -0.188842 1.67945 20.7375 -0.260436 -2.00333 20.834 -0.27266 
-1.33167 6.29649 -0.18724 -1.53527 6.1669 -0.184188 -2.26389 21.7337 -0.274177 
-1.16523 5.96007 -0.186508 1.48831 20.6348 -0.263069 -2.51189 21.3347 -0.272106 
1.32447 21.0729 -0.265614 1.39572 5.84546 -0.181836 1.36944 5.35746 -0.177561 
-0.611028 4.7214 -0.180799 1.41303 22.9291 -0.266219 1.44319 6.23015 -0.184917 
-0.685977 5.36792 -0.185172 -0.870999 5.53607 -0.18546 -1.02692 5.57529 -0.184717 
-2.47468 21.6736 -0.27341 -1.51228 5.20226 -0.177891 -1.21378 5.46579 -0.182602 
-1.35692 5.36174 -0.180598 -1.51491 5.67997 -0.181229 1.32988 22.4964 -0.266597 
3.84125 28.0643 -0.023357 3.49185 27.9249 -0.0249882 3.65215 27.948 -0.024134 
3.1305 27.9385 -0.0275013 3.30463 27.9674 -0.0263372 3.39519 27.586 -0.0247629 
2.80043 27.8912 -0.029979 2.96126 27.9206 -0.0287333 3.0377 27.6097 -0.0273122 
2.44319 27.7974 -0.0327806 2.62076 27.8313 -0.0313047 2.68851 27.5307 -0.029833 
2.08514 27.7192 -0.0357363 2.26773 27.7535 -0.034172 2.33386 27.425 -0.0324508 
1.67192 27.6426 -0.0391394 1.87843 27.6778 -0.0374119 1.95358 27.3372 -0.0353544 
1.24897 27.577 -0.0424098 1.47115 27.6081 -0.0406904 1.54859 27.2589 -0.0384168 
0.842468 27.5378 -0.0452383 1.03725 27.5572 -0.0439267 1.14027 27.2021 -0.0413032 
0.454518 27.5067 -0.0474726 0.643166 27.5173 -0.0464012 0.734178 27.1601 -0.0438684 
0.00443332 27.4894 -0.0495416 0.239441 27.4903 -0.0484895 0.325902 27.1221 -0.0460056 
-0.424036 27.5119 -0.0510716 -0.207541 27.5006 -0.0504027 -0.0944092 27.1168 -0.0477274 
-0.851037 27.5499 -0.0518979 -0.640428 27.5272 -0.0515402 -0.516086 27.1431 -0.0490798 
-1.2583 27.613 -0.0523414 -1.05976 27.5815 -0.0521934 -0.934468 27.1908 -0.0499751 
-1.653 27.6918 -0.0524412 -1.45787 27.6519 -0.0524557 -1.3366 27.2627 -0.0504305 
-2.06912 27.7875 -0.05222 -1.85992 27.7359 -0.0523805 -1.73785 27.3476 -0.0505891 
-2.46548 27.8963 -0.0518737 -2.26641 27.8406 -0.0520898 -2.13753 27.4473 -0.0505518 
-2.84201 28.0207 -0.051564 -2.65724 27.9647 -0.0517647 -2.52319 27.571 -0.0504582 
-3.22231 28.1445 -0.0513043 -3.0341 28.085 -0.0514499 -2.90488 27.7058 -0.0503756 
-3.57871 28.2576 -0.0512684 -3.40349 28.2018 -0.0512858 -3.27705 27.8293 -0.0503409 
-3.91729 28.3609 -0.0514523 -3.74962 28.3087 -0.0513394 -3.62911 27.9391 -0.0504401 
-4.24904 28.4732 -0.0519543 -4.08775 28.4254 -0.0516933 -3.97094 28.0558 -0.0508257 
-4.56799 28.5903 -0.0528062 -4.41189 28.5464 -0.0523794 -4.3046 28.1938 -0.0514775 
-4.75914 28.611 -0.0532742 0.449982 0.422745 0.204773 1.31475 1.36363 0.158839 
0.908055 0.893594 0.199495 2.02952 2.35522 0.114739 1.75569 1.94804 0.130787 
1.33511 1.40976 0.150744 2.47731 3.1148 0.0929452 2.27868 2.75754 0.10197 
2.02032 2.39088 0.113878 2.84005 3.89599 0.0772889 2.6642 3.49273 0.0844387 
2.4599 3.19698 0.0939873 3.08089 4.59006 0.0667288 2.97089 4.2497 0.0715351 
2.77927 3.95579 0.0798013 3.24553 5.26822 0.0583807 3.16761 4.9209 0.0624784 
2.99928 4.66667 0.0693454 3.34205 5.90777 0.0518694 3.3006 5.5998 0.0548375 
3.14398 5.35373 0.0612612 3.38979 6.56594 0.0462474 3.37259 6.24596 0.04875 
3.23128 6.04651 0.0542707 3.38913 7.27832 0.0415536 3.39713 6.8944 0.0438746 
3.26766 6.73304 0.0483774 3.34335 7.98306 0.0380557 3.37272 7.64418 0.0394969 
3.25867 7.44475 0.0432896 3.25656 8.68236 0.0357703 3.30451 8.32399 0.0367319 
3.20117 8.16532 0.0393219 3.15164 9.36478 0.0343988 3.20761 9.02418 0.034828 
3.11093 8.85769 0.0365637 3.03747 10.0129 0.0339047 3.09231 9.70377 0.0339606 
2.99956 9.54323 0.034657 2.91841 10.6861 0.0338909 2.97596 10.3547 0.0337488 
2.87476 10.2245 0.0333828 2.79492 11.4435 0.0339802 2.85288 11.0598 0.0338236 
2.7431 10.9362 0.0324478 2.69622 12.2254 0.0336125 2.73852 11.8318 0.0337509 
2.61633 11.6897 0.031387 2.65471 13.0269 0.0326036 2.67403 12.6109 0.0333653 
2.53397 12.4517 0.0301174 2.66428 13.8374 0.0296225 2.65558 13.4338 0.0313338 
2.51024 13.2315 0.0284641 2.71532 14.6175 0.0252723 2.68426 14.2312 0.0276368 
2.53241 14.0187 0.0255602 2.80253 15.3883 0.0200693 2.75522 15.0071 0.0228124 
2.59528 14.7895 0.0214092 2.91117 16.1427 0.014579 2.85467 15.7673 0.0174213 
2.69106 15.548 0.0166944 3.0395 16.9725 0.00870556 2.96817 16.5317 0.0118419 
2.80333 16.3093 0.0117001 3.16751 17.7599 0.0036233 3.10722 17.3805 0.00607254 
2.93084 17.103 0.00667487 3.27744 18.4974 -0.000608629 3.22431 18.1345 0.0014175 
3.05707 17.8857 0.00218024 3.36906 19.2187 -0.00411138 3.32269 18.8566 -0.00245401 
3.15998 18.6217 -0.00159101 3.45897 19.9926 -0.00707534 3.41772 19.6017 -0.00562697 
3.2542 19.3677 -0.00481656 3.52599 20.7597 -0.00939684 3.49471 20.3803 -0.00832423 
3.33796 20.143 -0.0076188 3.57542 21.5482 -0.0112858 3.55 21.1365 -0.0103736 
3.39627 20.9123 -0.00989505 3.60928 22.2936 -0.0127059 3.59233 21.92 -0.012086 
3.4356 21.6649 -0.0116806 3.64053 23.0019 -0.013816 3.62899 22.6673 -0.0133483 
3.47061 22.4137 -0.0131913 3.66895 23.7859 -0.0149005 3.65774 23.3879 -0.0143858 
3.50557 23.1761 -0.0145193 3.69337 24.5474 -0.0159393 3.68308 24.1593 -0.0154228 
3.5348 23.9374 -0.015731 3.71713 25.2704 -0.0170173 3.7071 24.9234 -0.0164911 
3.5608 24.6874 -0.0169115 3.73626 26.0469 -0.0184689 3.72262 25.6512 -0.0177315 
3.57838 25.4438 -0.0182602 3.75772 26.8287 -0.0202282 3.74135 26.4456 -0.0193404 
3.58748 26.2223 -0.0199388 0.440844 0.409258 0.207549 -4.65927 27.6023 -0.0505204 
-4.70335 28.0174 -0.0516626 -4.56208 26.8521 -0.0487332 -4.60176 27.2506 -0.049653 
-4.49939 27.3759 -0.0498647 -4.47948 26.0824 -0.0471255 -4.51501 26.4634 -0.0478876 
-4.39529 26.6358 -0.0481175 -4.40938 25.2205 -0.0455442 -4.44842 25.6589 -0.0463114 
-4.31825 25.824 -0.0463926 -4.33894 24.4276 -0.0441844 -4.37329 24.8169 -0.044813 
-4.25264 24.9972 -0.0447874 -4.26217 23.5759 -0.0427272 -4.3015 24.0055 -0.0434476 
-4.18082 24.1708 -0.0432257 -4.18531 22.8261 -0.0413082 -4.22144 23.1929 -0.0419929 
-4.10431 23.3645 -0.0416534 -4.09791 21.9982 -0.0395301 -4.14403 22.4197 -0.0404633 
-4.02405 22.5727 -0.0399859 -4.00713 21.2108 -0.0375094 -4.05518 21.6003 -0.0385994 
-3.94148 21.766 -0.0380976 -3.90373 20.459 -0.0351287 -3.95525 20.8325 -0.0363695 
-3.84786 20.9873 -0.0359483 -3.78248 19.6434 -0.0319538 -3.84604 20.0596 -0.0336421 
-3.73899 20.207 -0.0333717 -3.65604 18.8456 -0.0282777 -3.72243 19.2487 -0.0302512 
-3.62112 19.4108 -0.0303249 -3.52419 18.08 -0.0241547 -3.58869 18.4567 -0.0263471 
-3.49307 18.6265 -0.0268127 -3.39539 17.3181 -0.0195148 -3.46011 17.6984 -0.0219891 
-3.36032 17.857 -0.0228656 -3.27554 16.5792 -0.014583 -3.33255 16.9344 -0.017057 
-3.2314 17.0947 -0.0184906 -3.15504 15.8095 -0.00923352 -3.21 16.1987 -0.0120387 
-3.10092 16.3356 -0.0138422 -3.06298 15.0181 -0.00364412 -3.10628 15.4116 -0.00645627 
-2.98415 15.5651 -0.00891961 -2.99979 14.1307 0.00238321 -3.02966 14.5881 -0.000650103 
-2.8998 14.7468 -0.00354886 -2.97805 13.3633 0.00688335 -2.9847 13.744 0.0046678 
-2.85162 13.9401 0.00156812 -3.00181 12.4929 0.0114555 -2.98787 12.9301 0.00932076 
-2.84588 13.1313 0.00645377 -3.05409 11.6747 0.0152839 -3.02361 12.0887 0.0134715 
-2.88087 12.3039 0.0111136 -3.1267 10.864 0.0190225 -3.08679 11.2532 0.0173295 
-2.93873 11.4852 0.0153435 -3.21053 10.0937 0.0229628 -3.16551 10.4866 0.0209766 
-3.01523 10.6909 0.0196981 -3.29747 9.31316 0.0276425 -3.25395 9.70888 0.0252372 
-3.10194 9.92893 0.0243302 -3.36392 8.55457 0.0331919 -3.33113 8.92699 0.0304186 
-3.1836 9.15412 0.0298029 -3.41129 7.80447 0.0397658 -3.39311 8.16888 0.0365172 
-3.25074 8.37408 0.0361693 -3.41637 7.08215 0.0472657 -3.41699 7.44082 0.0434742 
-3.28805 7.61359 0.0433803 -3.38629 6.39594 0.0554403 -3.4083 6.73801 0.0511741 
-3.28716 6.89138 0.0512846 -3.30193 5.68887 0.0652781 -3.35114 6.04216 0.0602374 
-3.24535 6.17684 0.060103 -3.15099 4.96143 0.0771635 -3.23434 5.32931 0.0710562 
-3.14254 5.44371 0.0705282 -2.93552 4.23686 0.0909287 -3.05271 4.59713 0.0838512 
-2.97581 4.69581 0.0826397 -2.64211 3.51255 0.107291 -2.79674 3.86987 0.098861 
-2.73656 3.93915 0.09702 -2.25834 2.76916 0.128928 -2.46321 3.14492 0.117583 
-2.41387 3.17782 0.114393 -1.76278 1.9871 0.160281 -2.04342 2.40912 0.142409 
-2.01209 2.41999 0.136209 -1.17012 1.21866 0.214206 -1.51492 1.6472 0.17947 
-1.54231 1.69202 0.164669 -0.476005 0.475662 0.21199 -0.275916 0.272065 0.179935 
-0.32193 0.305578 0.180403 -0.251098 0.241077 0.149638 -0.269272 0.253448 0.160019 
-0.557571 0.56628 0.188741 -0.223192 0.237499 0.143116 -0.23632 0.241852 0.145765 
-0.490244 0.54573 0.166334 -0.193223 0.236519 0.142928 -0.206619 0.236006 0.142891 
-0.429056 0.528052 0.156223 -0.153471 0.219953 0.139406 -0.166121 0.217613 0.138623 
-0.360828 0.501877 0.157513 -0.136793 0.216248 0.140004 -0.14693 0.224315 0.135511 
-0.297278 0.487359 0.163602 -0.111042 0.220607 0.14127 -0.124921 0.221478 0.141487 
-0.247477 0.481646 0.163674 -0.0897485 0.233798 0.145937 -0.102402 0.231669 0.144514 
-0.210216 0.49617 0.163712 -0.0625127 0.236099 0.146583 -0.0756306 0.23305 0.146051 
-0.169884 0.513952 0.16404 -0.0475127 0.23421 0.14536 -0.0559661 0.241581 0.141165 
-0.121091 0.526445 0.169003 -0.0207906 0.236129 0.147938 -0.0328401 0.237911 0.147763 
-0.0699884 0.526616 0.169212 0.00520453 0.240281 0.150709 -0.00700255 0.239083 0.149031 
-0.025454 0.525587 0.168066 0.0280612 0.246281 0.153802 0.0192571 0.243828 0.151111 
0.0182555 0.534244 0.172425 0.0518425 0.275611 0.173155 0.0398348 0.277291 0.168796 
0.0698095 0.554629 0.183135 0.0845611 0.282096 0.169716 0.0711198 0.284728 0.177021 
0.123897 0.570037 0.187874 0.105402 0.241443 0.14997 0.0945037 0.243868 0.154549 
0.174272 0.557148 0.179171 0.127122 0.231151 0.145554 0.113972 0.231141 0.146477 
0.218142 0.520646 0.169376 0.153106 0.236204 0.147234 0.143509 0.233376 0.145133 
0.259431 0.512488 0.165799 0.170238 0.250137 0.155995 0.159975 0.249489 0.156792 
0.308662 0.514108 0.170877 0.188208 0.214272 0.14211 0.175375 0.215289 0.144297 
0.346043 0.491936 0.169773 0.223369 0.225683 0.144139 0.209234 0.224517 0.143954 
0.399067 0.483437 0.162699 0.279657 0.260256 0.155204 0.261531 0.249412 0.15132 
0.48541 0.529597 0.161986 -0.92009 13.0919 -0.0563224 -0.908443 13.0141 -0.0419935 
-0.881107 12.9306 -0.0255772 -0.834241 12.8416 -0.0135518 -0.996102 12.7612 -0.015343 
-0.764763 12.724 -0.00653838 -0.693009 12.598 0.000445289 -0.906077 12.5365 0.00295104 
-0.609486 12.4484 -0.000170466 -0.524016 12.2742 -0.000196595 -0.754395 12.2593 0.00855066 
-0.455904 12.1037 0.00160581 -0.391032 11.9505 0.00204182 -0.614817 11.9448 0.015458 
-0.322741 11.7971 0.00379878 -0.265989 11.6495 0.0045169 -0.486555 11.6196 0.0205091 
-0.210659 11.5054 0.00714333 -0.171383 11.3814 0.0114298 -0.373313 11.3139 0.0246578 
-0.132476 11.2669 0.0135323 -0.10578 11.1561 0.0173735 -0.284116 11.0311 0.0263587 
-0.0942678 11.0447 0.0247979 -0.0899133 10.9527 0.0299552 -0.241537 10.7726 0.0383529 
-0.0772273 10.8798 0.0555758 -0.0780997 10.8182 0.0660847 -0.233868 10.5618 0.068207 
-0.0625051 10.7394 0.0990291 -0.0306208 10.6293 0.135814 -0.208823 10.3826 0.104709 
0.342463 10.6424 0.125127 0.365848 10.7656 0.0801868 0.391112 10.8177 0.0610385 
0.384739 10.8826 0.046166 0.493091 10.3728 0.0879721 0.388355 10.9251 0.0365222 
0.378027 10.9979 0.0262819 0.525739 10.5216 0.0587993 0.386721 11.1001 0.0181818 
0.404539 11.2033 0.0161892 0.540185 10.7153 0.0468417 0.438974 11.3288 0.0120032 
0.475467 11.4554 0.0113041 0.575142 10.9654 0.0361219 0.519089 11.5996 0.0088185 
0.5681 11.7395 0.00857673 0.642555 11.2513 0.0298816 0.628051 11.8889 0.0085632 
0.689743 12.0453 0.00843789 0.736369 11.5539 0.0265949 0.756649 12.214 0.0078304 
0.831353 12.376 0.00891478 0.854134 11.874 0.0225671 0.898017 12.5333 0.00958975 
0.968085 12.6638 0.0065631 0.976022 12.1934 0.0154293 1.0256 12.7603 0.0032129 
1.06171 12.8355 -0.00610811 1.09572 12.4557 0.00855379 1.09036 12.896 -0.0161567 
1.09718 12.9704 -0.0285964 1.17856 12.6489 -0.00227256 1.08203 13.3788 -0.0312473 
1.06796 13.4428 -0.0131471 1.03808 13.5158 -0.00308968 0.976436 13.6061 -0.00112827 
1.14887 13.7125 -0.00195639 0.900552 13.7297 -0.00381824 0.819317 13.8713 -0.00546788 
1.05225 13.9182 0.0110377 0.741056 14.0511 -0.00904496 0.661136 14.2171 -0.0107949 
0.903672 14.2136 0.00935139 0.592565 14.4022 -0.0138962 0.52459 14.5612 -0.0158012 
0.763328 14.573 0.00285072 0.46191 14.7259 -0.0178631 0.402758 14.8792 -0.0189861 
0.640251 14.9286 -0.00222189 0.351821 15.0178 -0.0201607 0.314004 15.1419 -0.0211899 
0.536254 15.2488 -0.00391229 0.286927 15.2656 -0.0166858 0.273252 15.3694 -0.0151223 
0.467015 15.5387 -0.00119292 0.27092 15.4423 -0.00648107 0.284524 15.5064 -0.00146321 
0.438624 15.7736 0.00546966 0.268935 15.5651 0.0162231 0.235407 15.6915 0.0523833 
0.398982 15.9612 0.0164477 -0.207224 15.7026 0.0569182 -0.22983 15.5937 0.0227507 
-0.223834 15.4961 0.00516211 -0.213155 15.4384 -0.00576523 -0.349095 15.9592 0.0224882 
-0.217079 15.4103 -0.0119349 -0.212127 15.3368 -0.017432 -0.356893 15.7904 0.00118081 
-0.222527 15.2537 -0.0199467 -0.240376 15.1534 -0.0210433 -0.368001 15.6325 -0.0110356 
-0.275774 15.0577 -0.0210903 -0.31492 14.9365 -0.0217867 -0.406522 15.4229 -0.0151116 
-0.366141 14.8161 -0.0205412 -0.410665 14.6916 -0.0231984 -0.484052 15.1839 -0.0152198 
-0.467522 14.5387 -0.0224053 -0.533977 14.3846 -0.0201932 -0.590093 14.8948 -0.0119492 
-0.599028 14.2306 -0.0174868 -0.676986 14.0719 -0.0170466 -0.701605 14.593 -0.0151577 
-0.7523 13.9126 -0.0154687 -0.820012 13.7914 -0.0180521 -0.836467 14.2833 -0.0140861 
-0.862772 13.6936 -0.0196984 -0.900104 13.632 -0.0276481 -0.963866 14.0154 -0.00956741 
-0.918465 13.5583 -0.0400806 -0.930157 13.4974 -0.0532289 -1.02571 13.8144 -0.0225902 
3.77174 27.6591 -0.0225785 -4.65877 28.2872 -0.0522677 3.75276 27.2901 -0.0216011 
-0.786074 0.773191 0.228751 -0.929561 0.937274 0.204423 -0.0490303 10.1305 0.128078 
0.133683 10.4584 0.128461 -0.969595 13.306 -0.0559064 -1.05472 13.0766 -0.0322058 
0.383685 0.370807 0.188368 1.25179 12.9581 -0.00679106 1.15096 13.1781 -0.0280289 
0.312854 10.153 0.12325 -1.06275 13.528 -0.0346101 1.23138 13.4173 -0.00982821 
0.297249 16.2149 0.0384067 0.12773 15.8839 0.047761 -0.100494 16.0442 0.0584105 
-0.265071 16.3626 0.0398001 -0.00279045 16.5302 0.0418715 3.58653 27.0813 -0.0221641 
0.681876 0.685719 0.174245 2.93176 27.3266 -0.0273905 3.10177 27.3453 -0.0261815 
3.24033 27.2604 -0.0250038 3.42889 27.2192 -0.0236155 3.43481 26.7588 -0.022352 
3.13718 26.9794 -0.0249687 2.23942 27.0183 -0.0318246 2.41363 27.0639 -0.0305656 
1.83846 26.9387 -0.0347083 2.04289 26.9822 -0.0332277 2.129 26.6208 -0.0312479 
1.43098 26.8648 -0.037521 1.62842 26.9011 -0.0361515 1.02591 26.8138 -0.0401697 
1.23297 26.8355 -0.0388094 1.31981 26.475 -0.0365321 0.623455 26.7658 -0.0424484 
0.817469 26.7873 -0.0413472 0.219125 26.7265 -0.0442549 0.427762 26.7431 -0.043326 
0.516961 26.3667 -0.0408844 -0.193468 26.743 -0.0459438 0.0120727 26.7321 -0.0451761 
0.118719 26.3485 -0.0426452 -0.613045 26.7724 -0.0471932 -0.403251 26.7567 -0.046591 
-0.293526 26.3676 -0.0441542 -1.01596 26.8233 -0.0479585 -0.813552 26.7909 -0.0475807 
-0.699168 26.4007 -0.0452977 -1.41522 26.9098 -0.0485528 -1.22113 26.8696 -0.0483726 
-1.1002 26.4665 -0.0461596 -1.81354 27.0001 -0.0488316 -1.6115 26.954 -0.0487554 
-1.49723 26.5589 -0.0467991 -2.20825 27.1233 -0.0490194 -2.01468 27.0684 -0.0490008 
-1.89067 26.6735 -0.0472941 -2.58541 27.2478 -0.0491144 -2.39645 27.1778 -0.0490757 
-2.27668 26.7985 -0.0476292 -2.97071 27.3771 -0.0491925 -2.78039 27.3111 -0.0491714 
-2.65726 26.9183 -0.0478505 -3.33494 27.4876 -0.0493201 -3.15434 27.4289 -0.0492646 
-3.03379 27.0355 -0.0480931 -3.68389 27.6167 -0.0496811 -3.51276 27.5645 -0.0495428 
-3.39375 27.1659 -0.0484342 -4.03143 27.7408 -0.0501929 -3.8607 27.6757 -0.0498997 
-3.74742 27.3032 -0.0489339 -1.12334 12.615 -0.0175877 -1.08706 12.4735 -0.00999033 
2.41367 3.27325 0.0953709 2.22279 2.8698 0.10373 2.02797 2.49455 0.112956 
1.77306 2.07372 0.124587 2.00428 2.59046 0.11239 1.46489 1.62778 0.138939 
1.04213 1.09006 0.158585 1.51385 1.77419 0.133414 2.70977 4.04167 0.0819603 
2.57409 3.66143 0.0885079 2.35959 3.36751 0.0967881 2.91067 4.7593 0.0720178 
2.82053 4.40414 0.076755 2.63138 4.13515 0.0840555 3.04062 5.47732 0.0636496 
2.98286 5.12316 0.0674901 2.81668 4.87979 0.073983 3.11087 6.17986 0.0566176 
3.07904 5.82082 0.0599677 2.92783 5.60515 0.0657139 3.13966 6.88306 0.0502294 
3.13262 6.53724 0.0531288 2.98999 6.32312 0.0583372 3.11948 7.6254 0.0446442 
3.13545 7.24341 0.0473725 3.00831 7.05531 0.0515867 3.05468 8.34808 0.0403718 
3.09466 7.99627 0.0421578 2.97942 7.79899 0.0457106 2.95856 9.05128 0.0370699 
3.00905 8.70225 0.0384486 2.9076 8.53292 0.0408389 2.84111 9.73344 0.0345358 
2.9028 9.39219 0.0355796 2.80407 9.23349 0.0370402 2.71026 10.4268 0.0324657 
2.77479 10.0864 0.0333065 2.67936 9.929 0.033822 2.56977 11.1551 0.030553 
2.63855 10.7874 0.0313973 2.53776 10.6404 0.0308739 2.43847 11.9224 0.0282873 
2.49775 11.5447 0.0293459 2.38894 11.3844 0.0279383 2.36461 12.6823 0.0262003 
2.3884 12.3081 0.0270857 2.26138 12.1506 0.0247712 2.36239 13.4405 0.0242942 
2.36149 13.047 0.0253316 2.20556 12.892 0.0222305 2.41393 14.2018 0.021596 
2.39255 13.8207 0.0233026 2.2335 13.6282 0.0205996 2.48558 14.9547 0.0178323 
2.44352 14.5761 0.0199088 2.29686 14.3742 0.0181434 2.57967 15.6965 0.0135928 
2.52552 15.3259 0.0157756 2.37061 15.1104 0.0145988 2.68878 16.4576 0.00903178 
2.62997 16.0739 0.0113831 2.46423 15.8506 0.0106787 2.82026 17.2442 0.00469138 
2.75134 16.8379 0.00701519 2.57947 16.6022 0.00680384 2.93457 18.0135 0.00075111 
2.87709 17.6378 0.00264874 2.70037 17.3731 0.0029755 3.03618 18.747 -0.00256279 
2.99071 18.3851 -0.000978039 2.81402 18.1375 -0.000505651 3.13571 19.5032 -0.0055527 
3.08748 19.1162 -0.00406055 2.92146 18.8792 -0.00348635 3.21085 20.2914 -0.00820284 
3.17606 19.8991 -0.006887 3.01282 19.6464 -0.00627143 3.26454 21.0581 -0.010349 
3.24188 20.6771 -0.00931187 3.0828 20.4309 -0.00878019 3.29848 21.8151 -0.0122091 
3.28293 21.4399 -0.0113514 3.13049 21.2013 -0.010941 3.32989 22.561 -0.013806 
3.31173 22.1842 -0.0130549 3.15998 21.9552 -0.0128097 3.35904 23.331 -0.0152891 
3.34371 22.9424 -0.0145922 3.18491 22.7084 -0.0145314 3.38837 24.0936 -0.0166638 
3.37591 23.7189 -0.0160272 3.21331 23.4803 -0.0161684 3.41979 24.8366 -0.017974 
3.4076 24.4603 -0.0173295 3.24737 24.2372 -0.0176579 3.42905 25.5936 -0.019525 
3.42497 25.2134 -0.0187574 3.26999 24.9818 -0.0191694 3.43303 26.3678 -0.0213828 
3.42929 25.97 -0.0204058 3.27361 25.7354 -0.0208966 3.27384 26.503 -0.0227955 
0.871029 0.950392 0.156394 -4.16192 25.572 -0.0456254 -4.19174 25.9949 -0.0465066 
-4.51204 27.9971 -0.0513386 -4.21619 26.459 -0.0475231 -4.26269 26.8477 -0.0484234 
-4.05774 26.2034 -0.0467511 -4.35033 27.268 -0.0494862 -4.40783 27.6198 -0.0503465 
-4.36213 27.8884 -0.050902 -4.16927 27.0891 -0.048861 -4.08866 24.7645 -0.0439339 
-4.12345 25.1685 -0.0447445 -3.99651 25.3356 -0.0448045 -4.01916 23.9315 -0.0422242 
-4.05507 24.3546 -0.0430715 -3.92614 24.5213 -0.0429912 -3.94336 23.1248 -0.0404919 
-3.98271 23.5096 -0.0413231 -3.85807 23.6883 -0.0411243 -3.86561 22.3301 -0.0386764 
-3.90559 22.7387 -0.0396077 -3.78554 22.879 -0.0392519 -3.77926 21.5289 -0.0366124 
-3.82073 21.9292 -0.0376681 -3.70461 22.0905 -0.0372937 -3.68161 20.7507 -0.0343354 
-3.73264 21.1316 -0.0355396 -3.61475 21.2907 -0.0351506 -3.57748 19.9765 -0.0318126 
-3.63475 20.3781 -0.0332022 -3.52227 20.5195 -0.0328749 -3.45821 19.1773 -0.0287894 
-3.5182 19.5733 -0.0303423 -3.41704 19.7429 -0.0303174 -3.32644 18.3946 -0.0253515 
-3.3942 18.7831 -0.0271685 -3.29384 18.9457 -0.0273608 -3.19231 17.6292 -0.0216313 
-3.25738 18.0087 -0.0235993 -3.16023 18.1673 -0.024144 -3.05234 16.8601 -0.0175915 
-3.1167 17.2395 -0.0197041 -3.01443 17.3948 -0.0206617 -2.92347 16.1067 -0.0133826 
-2.99039 16.4807 -0.0155284 -2.87486 16.6309 -0.0170102 -2.81521 15.3277 -0.00878489 
-2.86539 15.7172 -0.0111584 -2.75224 15.8684 -0.0131191 -2.7284 14.4946 -0.003874 
-2.76209 14.914 -0.006394 -2.63803 15.0728 -0.00884815 -2.69676 13.73 0.000928028 
-2.71207 14.1068 -0.00136979 -2.56679 14.2799 -0.00436134 -2.71266 12.9139 0.00602011 
-2.70112 13.3361 0.00336229 -2.55444 13.5056 0.00048582 -2.75729 12.1267 0.0106471 
-2.73356 12.5224 0.00837059 -2.58165 12.7271 0.00554344 -2.81795 11.3028 0.01553 
-2.78215 11.7186 0.013127 -2.6301 11.9332 0.0106172 -2.90223 10.5256 0.0205029 
-2.86026 10.9007 0.0181549 -2.70169 11.1278 0.0160255 -2.98949 9.76335 0.0258595 
-2.94294 10.1495 0.0231893 -2.78904 10.352 0.0217274 -3.06725 8.97752 0.032143 
-3.03055 9.36957 0.0289818 -2.87474 9.58128 0.0278627 -3.13079 8.18237 0.0392515 
-3.09921 8.57748 0.0357182 -2.9514 8.78351 0.0348799 -3.1561 7.41951 0.0470319 
-3.14915 7.79605 0.0432088 -3.00431 7.98981 0.0426221 -3.15223 6.69511 0.0552392 
-3.15944 7.05403 0.0511029 -3.02743 7.22791 0.0507467 -3.09361 5.94353 0.0648153 
-3.12936 6.31538 0.0598964 -3.00927 6.47047 0.0595741 -2.9781 5.20371 0.0752506 
-3.04698 5.58406 0.0697618 -2.93902 5.71666 0.0693235 -2.78706 4.41364 0.0880247 
-2.88795 4.80203 0.0816861 -2.80347 4.94019 0.0804246 -2.52084 3.63071 0.103 
-2.66393 4.02253 0.0950485 -2.5884 4.13033 0.093521 -2.16118 2.82439 0.120534 
-2.34867 3.21662 0.111411 -2.29269 3.30946 0.108444 -1.71413 2.02305 0.143531 
-1.94157 2.40776 0.131851 -1.8979 2.46677 0.127085 -1.20396 1.27712 0.176382 
-1.46529 1.63618 0.159628 -1.42411 1.65746 0.149714 1.39864 13.4667 -0.00283928 
1.32596 13.6935 -0.00615121 -0.199788 9.75464 0.111991 -0.05548 9.57292 0.112348 
-0.635004 0.86982 0.144046 -0.688396 0.879647 0.146238 -0.749365 0.90522 0.149696 
-0.8092 0.924247 0.156424 -0.968396 1.24618 0.142451 -0.896929 0.930096 0.182326 
-0.826756 0.899383 0.169702 -0.510376 0.79919 0.145615 -0.568293 0.824241 0.144946 
-0.795966 1.16175 0.139685 -0.426292 0.786393 0.149387 -0.46793 0.786682 0.148342 
-0.650751 1.09777 0.141747 -0.361742 0.800761 0.150181 -0.39928 0.797084 0.149484 
-0.551324 1.09598 0.143586 -0.302224 0.832493 0.150746 -0.337716 0.816099 0.149828 
-0.468933 1.12531 0.145006 -0.232499 0.847705 0.152007 -0.273411 0.84316 0.151439 
-0.380707 1.156 0.146537 -0.161205 0.85334 0.154426 -0.200731 0.851039 0.153646 
-0.287328 1.1731 0.148307 -0.0897258 0.864772 0.154863 -0.128274 0.860115 0.154323 
-0.193264 1.18804 0.149703 -0.0198341 0.864771 0.158187 -0.058627 0.86134 0.156388 
-0.0989532 1.19611 0.152121 0.0524765 0.871977 0.165711 0.0116682 0.866436 0.161245 
-0.00403147 1.19535 0.156698 0.124588 0.875724 0.173677 0.0860545 0.875708 0.170806 
0.0930459 1.20044 0.163621 0.202293 0.881719 0.17537 0.161644 0.876619 0.175891 
0.190925 1.20046 0.168972 0.275537 0.867441 0.167213 0.238431 0.878322 0.17126 
0.288169 1.19475 0.167416 0.345157 0.84613 0.157967 0.308856 0.861103 0.161926 
0.385515 1.18554 0.160443 0.422738 0.852317 0.156709 0.378562 0.84825 0.156324 
0.486087 1.1787 0.154074 0.493071 0.827406 0.1579 0.456712 0.844227 0.158308 
0.588516 1.17109 0.152442 0.535916 0.776397 0.156966 0.502533 0.783573 0.158626 
0.664148 1.11511 0.15247 0.623069 0.786784 0.15137 0.567288 0.76984 0.152953 
0.734997 1.06652 0.149683 0.750311 0.849541 0.154339 0.669677 0.806679 0.150583 
0.850137 1.08739 0.146274 1.04998 1.21623 0.146536 -1.22125 13.032 -0.0243104 
-1.16785 12.8064 -0.0226356 -1.26412 12.5317 -0.0127081 1.37653 12.6744 -0.00114079 
1.43217 12.8944 0.000424307 0.295385 9.5807 0.107404 0.451827 9.76293 0.103204 
-1.03572 12.3379 -0.00345302 -0.977459 12.2047 0.00238891 -1.16905 12.1802 -0.00504085 
-0.910255 12.0628 0.00687398 -0.838736 11.9162 0.00935855 -1.05566 11.8831 0.00429859 
-0.766621 11.7587 0.0123731 -0.706539 11.5914 0.0147558 -0.925665 11.5765 0.0124049 
-0.646682 11.4247 0.0177216 -0.587153 11.2678 0.020162 -0.800677 11.2491 0.0183866 
-0.540494 11.1003 0.022718 -0.494466 10.9461 0.0251302 -0.699629 10.9109 0.0244271 
-0.459761 10.7847 0.0288637 -0.428574 10.6485 0.0326274 -0.622165 10.5744 0.0315977 
-0.407792 10.5019 0.0386561 -0.396969 10.36 0.0488238 -0.567511 10.2534 0.0422843 
-0.385012 10.2428 0.0600851 -0.369392 10.1378 0.0731236 -0.524346 9.96653 0.0584592 
-0.342756 10.0222 0.0866785 -0.299087 9.89906 0.100686 -0.33218 9.4299 0.100777 
-0.467613 9.70812 0.0804052 0.658528 10.1049 0.063531 0.674727 10.1987 0.0556355 
0.688668 10.3061 0.0487615 0.699774 10.4349 0.0437035 0.813195 9.91826 0.0566261 
0.715561 10.5822 0.0391338 0.743093 10.7258 0.034954 0.852729 10.1935 0.0446859 
0.771192 10.8826 0.0316354 0.806625 11.0372 0.0288886 0.90091 10.5136 0.0363286 
0.855862 11.1989 0.0262797 0.90676 11.3523 0.0241251 0.975815 10.8415 0.0304486 
0.963402 11.5143 0.0213059 1.02029 11.6794 0.0187754 1.07529 11.1703 0.0248249 
1.07193 11.8463 0.0154829 1.1267 12.0002 0.0132386 1.17558 11.5025 0.0193998 
1.1781 12.1496 0.0092643 1.22493 12.2677 0.0059974 1.26919 11.8272 0.0134736 
1.27347 12.3821 0.0021512 1.313 12.513 -0.000832791 1.47197 12.4136 0.00578215 
1.36331 12.1113 0.00844661 0.410469 16.5484 0.0226038 0.313049 16.7412 0.0281853 
1.17755 14.1062 0.00184855 1.1166 14.2305 0.00423272 1.05213 14.39 0.003617 
0.985025 14.5549 0.00213871 1.1942 14.5521 0.00180164 0.934239 14.762 -0.00010106 
0.873169 14.9432 -0.00232968 1.08756 14.9175 -0.000109882 0.823493 15.1441 -0.00393528 
0.768071 15.3164 -0.00503653 0.993413 15.3233 -0.0029526 0.71552 15.4885 -0.0052822 
0.671976 15.6432 -0.0050253 0.894368 15.7006 -0.00443664 0.63843 15.8086 -0.00374407 
0.613301 15.9586 -0.00207352 0.807266 16.0484 -0.00369454 0.589898 16.0799 -0.000319081 
0.569177 16.195 0.00393484 0.742908 16.351 -0.00110188 0.532796 16.2937 0.0076468 
0.490385 16.4056 0.0168232 0.540545 16.8542 0.0114785 0.670012 16.5929 0.00364293 
-1.18675 13.7873 -0.0289284 -1.23156 13.5743 -0.0274956 -0.496818 16.193 0.000727569 
-0.512017 16.1184 -0.00559737 -0.526048 16.0322 -0.0114781 -0.534467 15.919 -0.0140674 
-0.657445 16.4081 -0.00626233 -0.558352 15.8076 -0.0166878 -0.58594 15.6927 -0.0168341 
-0.700578 16.1924 -0.0128519 -0.625975 15.5654 -0.0177058 -0.668835 15.431 -0.0169389 
-0.762453 15.9418 -0.0157216 -0.720001 15.2837 -0.0177512 -0.769265 15.1302 -0.017611 
-0.847816 15.6602 -0.0171003 -0.821192 14.9682 -0.0186007 -0.879133 14.8174 -0.0176225 
-0.944387 15.3474 -0.0175125 -0.938068 14.6501 -0.0183046 -0.999605 14.503 -0.0156707 
-1.04667 15.0169 -0.0176196 -1.05151 14.3477 -0.0152654 -1.09705 14.2208 -0.0167303 
-1.14779 14.6898 -0.017257 -1.12754 14.0902 -0.0186341 -1.15199 13.9665 -0.0252267 
-1.22601 14.3833 -0.0188751 2.59489 27.1396 -0.0294212 2.77403 27.2008 -0.0281813 
2.84114 26.9376 -0.0269524 0.569876 9.90421 0.0924688 0.623579 10.0152 0.075846 
0.747766 9.69504 0.0727426 1.28057 13.8789 -0.00413907 1.24028 14.0093 -0.000592637 
1.3158 14.2832 0.00162514 -0.442077 16.3776 0.0216074 -0.468469 16.2384 0.00750182 
-0.601704 16.5647 0.00499489 1.72505 26.5442 -0.0339505 0.91702 26.4169 -0.0388608 
-4.19913 27.8151 -0.0505227 -4.0911 27.4371 -0.0495733 1.65078 12.8482 0.0085926 
1.55373 13.1497 0.00393135 1.42252 13.97 0.000377626 -1.10036 1.26779 0.154581 
1.61293 13.4407 0.00582034 -0.0600281 9.0301 0.104763 0.114155 9.29809 0.109397 
-1.31833 13.3153 -0.0228496 -1.40068 13.027 -0.0163346 0.269051 9.03421 0.102253 
-1.28982 14.049 -0.0234655 2.50443 26.7349 -0.0288425 0.582305 9.44459 0.0898627 
0.14002 16.9289 0.0295022 -0.0272282 17.0316 0.0238144 0.278127 17.1861 0.017579 
-1.40986 13.5859 -0.0196085 -0.349313 16.9452 0.022604 -0.419862 16.6663 0.0225344 
-0.544277 16.9022 0.0131963 -1.41919 12.4286 -0.0089903 -1.36548 12.2133 -0.00627976 
1.74649 12.4248 0.0129443 1.84717 12.679 0.014544 2.0275 26.2268 -0.0305679 
2.22193 26.265 -0.029323 1.59394 14.1005 0.00351201 1.537 14.3184 0.00218391 
1.21602 26.0837 -0.0354196 1.4109 26.1148 -0.034309 0.0224937 25.96 -0.0409316 
0.22522 25.955 -0.0401458 0.416435 25.9644 -0.0393385 0.608068 25.9878 -0.0384749 
0.320116 25.5714 -0.0377545 -0.786353 26.0386 -0.0435538 -0.590126 26.0193 -0.0430229 
-1.18768 26.1168 -0.0444577 -0.986969 26.0692 -0.0440164 -0.877634 25.6837 -0.0418624 
-1.57767 26.2106 -0.045154 -1.3854 26.1646 -0.044864 -1.27281 25.7642 -0.0428032 
-1.96552 26.3186 -0.0457057 -1.76824 26.2484 -0.0453733 -1.65798 25.8523 -0.043547 
-2.34484 26.4398 -0.0461632 -2.15961 26.3836 -0.045968 -2.03942 25.9576 -0.0442001 
-2.73056 26.5798 -0.0466366 -2.53818 26.5148 -0.0464364 -2.4236 26.1001 -0.0448685 
-3.10333 26.6973 -0.0470301 -2.92138 26.6439 -0.0468621 -2.80497 26.2415 -0.0455013 
-3.45275 26.8435 -0.0475967 -3.27627 26.7654 -0.0473169 -3.16634 26.3757 -0.0461168 
-3.81077 26.9869 -0.0482418 -3.63477 26.927 -0.0479574 -3.51954 26.5288 -0.0468128 
-1.38607 14.3306 -0.0209833 -1.43198 14.126 -0.0211283 1.95852 2.67953 0.112349 
1.76514 2.29698 0.120482 2.97518 26.7103 -0.0253844 3.11514 26.6276 -0.0241965 
3.11501 26.2364 -0.0231814 2.28894 3.45336 0.0981053 2.12569 3.0511 0.105459 
1.90977 2.77976 0.113044 1.58785 1.96422 0.12801 1.30177 1.53911 0.139031 
1.15582 1.42311 0.140427 1.57183 2.07375 0.126497 2.71087 5.00194 0.0758875 
2.63607 4.61981 0.0808257 2.80837 5.74235 0.0675728 2.7681 5.38247 0.071406 
2.60146 5.13913 0.0776448 2.86381 6.47417 0.0598621 2.8398 6.10177 0.0635958 
2.69092 5.89236 0.0689269 2.86751 7.22949 0.0526927 2.87098 6.85596 0.0560705 
2.73184 6.64589 0.0609267 2.82552 7.98356 0.0464664 2.84956 7.6016 0.0495437 
2.7216 7.41073 0.0535299 2.74369 8.73034 0.0411269 2.79004 8.36897 0.04348 
2.6685 8.17741 0.046826 2.63796 9.41891 0.0367974 2.69485 9.07428 0.0387695 
2.58236 8.91291 0.0409946 2.50774 10.125 0.0327778 2.57598 9.77215 0.0346096 
2.47003 9.61332 0.0359453 2.35876 10.8473 0.0289181 2.43313 10.4907 0.0306714 
2.33099 10.3322 0.0310706 2.20716 11.6075 0.0248519 2.28309 11.2263 0.0268006 
2.17688 11.0725 0.026177 2.07737 12.3886 0.0205327 2.13085 12.0123 0.0224222 
1.99198 13.1824 0.0165112 1.9922 12.8268 0.017582 2.17055 14.5305 0.014525 
2.13775 14.1661 0.015973 2.24524 15.2394 0.011514 2.20282 14.8775 0.0131329 
2.04005 14.664 0.0112416 2.35338 15.9957 0.00808643 2.30138 15.6257 0.00988413 
2.1328 15.3866 0.0086992 2.46738 16.7354 0.00472344 2.40418 16.3595 0.00647026 
2.24224 16.1291 0.00586733 2.58389 17.5142 0.00128759 2.5267 17.1226 0.00306062 
2.35361 16.8752 0.00282411 2.69589 18.2559 -0.00166404 2.63977 17.8842 -0.000184615 
2.46939 17.6303 -5.05888e-05 2.79256 18.9968 -0.00437912 2.74178 18.6261 -0.00305481 
2.57143 18.3698 -0.00270555 2.87448 19.7855 -0.00704493 2.83527 19.3871 -0.00571336 
2.65962 19.1307 -0.00525804 2.94222 20.5666 -0.00941746 2.91271 20.1779 -0.00821803 
2.73885 19.9151 -0.00774163 2.97514 21.3452 -0.0116044 2.9587 20.9603 -0.0105315 
2.79133 20.7034 -0.0101061 3.00085 22.0933 -0.0135409 2.9896 21.7213 -0.0125954 
2.81913 21.4762 -0.0122876 3.02554 22.8686 -0.0154147 3.01387 22.4843 -0.0145026 
2.84366 22.2465 -0.0143511 3.05619 23.6606 -0.0171912 3.04133 23.2699 -0.0163434 
2.8694 23.0423 -0.016386 3.09412 24.411 -0.0187842 3.07652 24.0422 -0.0180305 
2.90276 23.8286 -0.0182808 3.13975 25.1344 -0.020248 3.13611 24.7568 -0.0194046 
2.96318 24.5593 -0.0198274 -0.766725 1.39151 0.13753 -0.839094 1.40736 0.136598 
-1.19694 1.64661 0.134758 -1.30104 1.6925 0.137624 0.807675 26.014 -0.0375554 
1.01215 26.0421 -0.0364825 1.10874 25.6782 -0.0342474 0.708183 25.6082 -0.0360844 
-3.7635 24.2849 -0.041986 -3.79552 24.6958 -0.0429428 -3.7004 23.4249 -0.039967 
-3.73519 23.8482 -0.0409673 -3.60528 24.0184 -0.0408935 2.5497 4.24276 0.0856257 
2.43622 3.86397 0.0916163 2.22393 3.56894 0.0991539 2.45658 4.36743 0.0872993 
-3.91944 25.8738 -0.0458005 -3.94235 26.3378 -0.0468828 -4.00254 27.0148 -0.04851 
1.45511 14.4686 0.00146149 1.39118 14.6014 0.00134846 1.61767 14.6283 0.00397734 
-3.6296 22.6444 -0.0380396 -3.66593 23.0319 -0.0390068 -3.5446 23.1876 -0.0387946 
-3.54437 21.8438 -0.0359261 -3.58773 22.2463 -0.0370025 -3.47031 22.3951 -0.0367145 
-3.45339 21.0427 -0.0336673 -3.49866 21.4414 -0.0348214 -3.38478 21.5933 -0.0345103 
-3.3589 20.2985 -0.0314202 -3.40471 20.672 -0.0325941 -3.29202 20.8194 -0.0323043 
-3.24474 19.4935 -0.0288172 -3.30334 19.8969 -0.0301846 -3.18954 20.0468 -0.0299644 
-3.12602 18.7162 -0.0260493 -3.18975 19.1093 -0.0275099 -3.07972 19.2618 -0.0274796 
-2.98717 17.9337 -0.0229981 -3.05651 18.3172 -0.0245631 -2.9555 18.4804 -0.0248413 
-2.83596 17.1544 -0.0197897 -2.91236 17.5399 -0.0214472 -2.8106 17.6907 -0.0220329 
-2.70255 16.4138 -0.016596 -2.76616 16.7874 -0.0182933 -2.66468 16.9342 -0.0192476 
-2.57253 15.6375 -0.013084 -2.63261 16.0198 -0.0148787 -2.5223 16.1792 -0.0164251 
-2.4671 14.8391 -0.00923102 -2.52224 15.2446 -0.0111743 -2.39804 15.4002 -0.01328 
-2.38712 14.0109 -0.00491018 -2.40368 14.3908 -0.00710675 -2.27876 14.5666 -0.00970562 
-2.43594 13.2844 0.000368575 -2.43018 13.6716 -0.00215148 -2.2591 13.7869 -0.00511808 
-2.45252 12.5393 0.00519743 -2.42996 12.9242 0.00251294 -2.29767 13.0908 -0.000157264 
-2.51813 11.7439 0.010882 -2.49048 12.1469 0.00807071 -2.33233 12.3432 0.00517077 
-2.59281 10.9525 0.0168045 -2.54753 11.351 0.0137558 -2.40413 11.5622 0.0112549 
-2.66585 10.2003 0.0228877 -2.6223 10.5756 0.0198385 -2.46766 10.7957 0.0176262 
-2.75568 9.40749 0.0298897 -2.71207 9.80336 0.0264346 -2.54781 10.0235 0.024619 
-2.83024 8.59375 0.0377112 -2.79628 8.99931 0.0337883 -2.63845 9.21748 0.0324103 
-2.87823 7.7908 0.0459871 -2.85861 8.18566 0.0418961 -2.71036 8.3974 0.0408212 
-2.89085 7.02624 0.054496 -2.88689 7.40224 0.0503907 -2.74904 7.59454 0.0495825 
-2.85755 6.24928 0.0638767 -2.88074 6.6425 0.0590588 -2.74842 6.81373 0.0585987 
-2.77132 5.47847 0.0738165 -2.81903 5.85249 0.0688938 -2.70071 6.02301 0.0682378 
-2.61189 4.66075 0.0854617 -2.70395 5.0786 0.0794652 -2.5946 5.21476 0.0788808 
-2.3929 3.86654 0.0981003 -2.51698 4.27226 0.0914969 -2.43185 4.41471 0.0901385 
-2.06588 3.00713 0.113393 -2.23937 3.43304 0.105453 -2.18788 3.58414 0.103098 
-0.228161 8.69991 0.102083 -0.0794349 8.47205 0.103997 -1.57679 12.971 -0.0111602 
-1.49573 12.6848 -0.0109782 -1.5859 12.3567 -0.00466362 -0.931326 1.45337 0.13531 
-1.0333 1.50931 0.135378 -1.32319 1.94255 0.129174 -1.04785 1.75229 0.131177 
1.31322 14.6789 0.0012706 1.26022 14.8443 0.0012336 1.45903 14.876 0.0016765 
-1.30733 12.0322 -0.00277671 -1.25521 11.8629 0.00156429 -1.45454 11.9071 -0.000234713 
-0.662268 1.42807 0.139134 -0.715543 1.41618 0.138247 -0.883358 1.72909 0.133072 
-0.562306 1.47464 0.140852 -0.615824 1.45534 0.139839 -0.762958 1.78244 0.134752 
-0.45112 1.52204 0.142646 -0.510206 1.50783 0.14166 -0.641847 1.84597 0.136579 
-0.334634 1.54621 0.144346 -0.393586 1.53951 0.143492 -0.508304 1.90147 0.138565 
-0.212253 1.56202 0.146605 -0.27262 1.54964 0.145536 -0.364636 1.92726 0.140827 
-0.0950994 1.55908 0.149936 -0.152357 1.56077 0.148071 -0.219296 1.93329 0.143745 
0.0243013 1.55622 0.154662 -0.0371862 1.55393 0.152197 -0.0789025 1.92914 0.147453 
0.148039 1.56292 0.159794 0.0885074 1.56021 0.157577 0.0661846 1.92907 0.151791 
0.270077 1.56132 0.162063 0.208373 1.56472 0.161458 0.214218 1.93415 0.155086 
0.391348 1.55014 0.159595 0.331879 1.55432 0.16128 0.359605 1.92666 0.155454 
0.518318 1.54975 0.154031 0.456207 1.55912 0.156698 0.509106 1.92546 0.152422 
0.652356 1.55272 0.14926 0.586933 1.55288 0.151104 0.66708 1.93386 0.147562 
0.782291 1.53168 0.146493 0.717468 1.54105 0.147715 0.827329 1.92187 0.143249 
0.866874 1.44637 0.145192 0.82924 1.49244 0.145834 0.966736 1.86918 0.140347 
0.935026 1.35106 0.143729 0.872065 1.35166 0.145339 1.04757 1.73428 0.139246 
0.258425 8.48358 0.100368 0.421844 8.71481 0.0987334 0.813756 9.24693 0.0772759 
0.87644 9.37333 0.0688509 -1.5383 13.9062 -0.0182353 -1.6127 13.6396 -0.0152015 
-3.83169 25.1011 -0.0439224 -3.86885 25.5056 -0.0448773 -3.75274 25.637 -0.0449551 
-3.66757 24.8619 -0.0429829 -1.19419 11.7155 0.00524866 -1.13702 11.5588 0.00919073 
-1.33683 11.5589 0.00600164 -1.07549 11.3919 0.0126988 -1.01368 11.2303 0.0160361 
-1.21985 11.2296 0.0131799 -0.964861 11.0517 0.0191916 -0.912164 10.8818 0.0222893 
-1.116 10.8753 0.0202064 -0.865247 10.7069 0.0256029 -0.823168 10.5341 0.0290288 
-1.02501 10.5154 0.0270093 -0.7817 10.3593 0.0329962 -0.748975 10.1887 0.0375765 
-0.938493 10.1582 0.0346276 -0.722169 10.0146 0.042982 -0.695296 9.85351 0.049703 
-0.86738 9.80034 0.0443809 -0.664798 9.70727 0.0567988 -0.632954 9.56451 0.0659678 
-0.801051 9.46736 0.0565936 0.922886 9.50464 0.0616846 0.955907 9.63744 0.0558136 
1.00246 9.09201 0.0678651 -0.3853 25.9887 -0.0423966 -0.180064 25.9749 -0.0417176 
-0.0707859 25.5759 -0.039271 0.428382 17.5308 0.0123027 0.271374 17.7056 0.0116925 
0.986856 9.77795 0.0508529 1.01241 9.94335 0.0459381 1.09554 9.38419 0.0566125 
1.03542 10.129 0.0416544 1.06409 10.2965 0.0379715 1.1602 9.72575 0.0471578 
1.10508 10.4698 0.034613 1.14886 10.6382 0.0314503 1.22781 10.0954 0.0391754 
1.20336 10.8063 0.0285197 1.25163 10.972 0.0256111 1.32122 10.4462 0.0325654 
1.29405 11.1413 0.0229887 1.33525 11.3125 0.0201107 1.41283 10.7919 0.0268394 
1.37144 11.5014 0.0172514 1.41163 11.6659 0.0143412 1.4844 11.1597 0.0212814 
-0.676207 17.0276 0.004037 -0.728902 16.9496 1.95484e-05 1.24527 15.0728 4.16853e-05 
1.20459 15.2759 -0.000888536 1.36909 15.1894 0.000100384 1.18091 15.5198 -0.00201847 
1.13689 15.7211 -0.00297877 1.33634 15.6634 -0.00143557 1.0929 15.9347 -0.00339905 
1.04211 16.1137 -0.00361158 1.27245 16.1245 -0.00272304 0.988019 16.2987 -0.00335198 
0.948806 16.4769 -0.00260879 1.1729 16.532 -0.00315861 0.899365 16.6199 -0.00192994 
0.860347 16.7614 -0.000144587 1.0631 16.8732 -0.00228186 1.61374 26.1399 -0.0330824 
1.82086 26.1798 -0.0317989 1.91952 25.8229 -0.029786 1.51272 25.7476 -0.0321181 
2.43809 26.2878 -0.0279084 2.61682 26.3649 -0.0268945 2.33993 25.8959 -0.0273122 
2.81965 26.5846 -0.026138 -0.832543 16.5833 -0.0120376 -0.860813 16.4586 -0.0141264 
-0.903556 16.3457 -0.0154075 -0.941004 16.2108 -0.0165012 -1.02625 16.7283 -0.0143095 
-0.982952 16.0578 -0.0171575 -1.02759 15.9063 -0.0177696 -1.11222 16.4544 -0.0166064 
-1.08075 15.7437 -0.0180085 -1.1253 15.5804 -0.018127 -1.20432 16.1329 -0.0178401 
-1.16993 15.4031 -0.018025 -1.21692 15.235 -0.0179728 -1.29625 15.7878 -0.0182528 
-1.25913 15.0427 -0.0176153 -1.30054 14.8742 -0.0183246 -1.37571 15.4104 -0.0183574 
-1.32758 14.6976 -0.0187365 -1.36022 14.5323 -0.0200197 -1.49242 14.6308 -0.0190769 
0.587822 8.93788 0.0930829 0.712113 9.1058 0.0853671 -0.773493 16.8314 -0.00528091 
-0.804196 16.7243 -0.00888192 -0.947362 16.9937 -0.0101385 -0.857154 17.2695 -0.00323257 
-0.102674 17.6043 0.0134945 -0.237799 17.2966 0.0185764 -0.409108 17.5118 0.0119335 
-1.35569 1.6518 0.143851 -1.57964 2.05897 0.132484 2.75449 26.1405 -0.0252982 
-0.475207 25.6213 -0.0406916 -0.716219 9.16323 0.0713636 -0.591913 9.42376 0.0746015 
-0.540432 9.27719 0.0845511 -1.62103 14.1967 -0.0173433 0.840672 8.79883 0.0809557 
1.57404 12.0736 0.0104167 1.64133 12.2517 0.010774 1.83766 12.0696 0.0165416 
-3.75154 26.3087 -0.0465595 -3.89203 26.6415 -0.0475128 2.01785 11.8473 0.0209529 
2.13109 13.8354 0.0172422 2.09796 13.4636 0.0180936 3.10935 25.8418 -0.0221854 
3.11094 25.4651 -0.021252 2.97497 25.2371 -0.0215003 2.94917 25.9628 -0.0235614 
-0.0925492 7.92436 0.102581 0.0776935 8.19654 0.10308 -1.80513 2.47987 0.123536 
-1.7842 2.62253 0.119278 0.232819 18.2379 0.00459356 0.0714277 17.952 0.00976419 
-0.657231 17.2996 0.0065712 1.75493 13.4877 0.00963081 1.62336 13.8079 0.00462701 
0.569528 8.42973 0.0930577 0.228462 7.93623 0.1014 1.10352 1.42986 0.140365 
1.02245 1.399 0.141283 1.15829 1.68925 0.136916 1.32164 1.73816 0.134124 
1.72772 14.1624 0.00700774 -1.82816 13.6198 -0.0105327 -1.72168 13.2942 -0.0106341 
-0.461922 9.10972 0.0925248 -0.359864 8.94226 0.0990247 -0.373375 8.42444 0.0976206 
-0.585082 8.83801 0.0864779 0.570075 17.3399 0.0106633 0.570269 17.8126 0.00581711 
1.88569 14.09 0.010508 1.85405 14.3945 0.00870822 1.43975 11.8319 0.0118193 
1.4907 11.9829 0.0101655 1.54345 11.5284 0.0164744 0.951204 17.1618 -0.000206445 
0.809539 16.8905 0.00122417 0.666508 17.1707 0.00692376 0.751167 17.018 0.0049495 
-0.129431 18.1589 0.0051837 -1.43954 15.0274 -0.0185757 -1.79581 12.9411 -0.00649737 
-3.38534 22.926 -0.0375328 -3.41797 23.3204 -0.0386007 -0.562748 25.2097 -0.038814 
-0.360941 25.1787 -0.0381124 -1.35719 25.3808 -0.0410811 -1.16277 25.3309 -0.0405951 
-0.964686 25.2882 -0.0400498 -0.767145 25.256 -0.0394782 -0.652644 24.8076 -0.0369978 
-1.05294 24.899 -0.0383156 -2.11924 25.5753 -0.0426674 -1.92858 25.5079 -0.0422302 
-2.49228 25.7359 -0.0435735 -2.30209 25.6588 -0.0431446 -2.19291 25.2094 -0.0413112 
-2.87735 25.8914 -0.0444024 -2.68913 25.8254 -0.0440435 -2.56939 25.3853 -0.0423855 
-3.2364 26.0273 -0.0451595 -3.06555 25.9578 -0.0448003 -2.95143 25.5437 -0.0434064 
-3.58717 26.1877 -0.0460249 -3.40702 26.1032 -0.0455976 -3.30756 25.6879 -0.0443249 
-3.64021 25.8859 -0.0453518 1.92065 11.6761 0.0197495 1.89072 14.7294 0.00803261 
-1.73741 25.4529 -0.0418278 -1.54999 25.4126 -0.0414606 -1.44132 24.9767 -0.0393351 
-1.82232 25.0672 -0.0402845 -1.48194 11.4027 0.0080406 -1.42309 11.2343 0.0111626 
0.234739 25.1464 -0.0359418 0.423298 25.1568 -0.0352541 2.5802 6.81814 0.0620932 
2.57074 6.42418 0.0662616 2.47663 5.27072 0.0794027 2.4167 4.87656 0.0841966 
2.54988 7.61501 0.0542041 2.56708 7.23262 0.0579698 2.41873 7.02476 0.0628315 
2.49107 8.38986 0.0469315 2.52634 7.99638 0.050481 2.38146 7.83042 0.0544211 
2.41159 9.1163 0.040484 2.46108 8.76775 0.043366 2.32672 8.59619 0.0465765 
2.29606 9.82103 0.0347631 2.35909 9.46575 0.0375488 2.24189 9.32743 0.0395362 
2.15393 10.5308 0.0291713 2.23004 10.1666 0.0319493 2.12143 10.0252 0.0331372 
1.98094 11.2922 0.0229798 2.05998 10.9199 0.0258005 1.95991 10.7607 0.0264257 
1.80192 11.526 0.0188723 2.22096 16.9862 0.00107259 2.16166 16.6021 0.00242337 
2.32874 17.7349 -0.00139323 2.27287 17.3659 -0.000162937 2.08361 17.0844 -0.000427154 
2.43371 18.4835 -0.00370658 2.38828 18.1134 -0.00250765 2.19577 17.8423 -0.00249537 
2.52116 19.2498 -0.00606181 2.4798 18.8584 -0.0048347 2.30103 18.5964 -0.00455148 
2.5882 20.0275 -0.00839624 2.552 19.6329 -0.00720705 2.37661 19.3553 -0.0067326 
2.62519 20.8423 -0.0108326 2.61162 20.4459 -0.00962974 2.42827 20.1586 -0.00914009 
2.6502 21.6125 -0.013102 2.6387 21.2332 -0.0119783 2.4606 20.9712 -0.0115953 
2.67232 22.3999 -0.0153005 2.6623 22.0053 -0.014187 2.48176 21.7589 -0.0139401 
2.69558 23.2203 -0.0174929 2.68261 22.8152 -0.0164258 2.50001 22.5713 -0.0163283 
2.74294 24.0502 -0.0195737 2.72472 23.6653 -0.0186277 2.53547 23.4365 -0.0187492 
2.82696 24.8673 -0.0213502 2.78581 24.518 -0.0206453 2.60462 24.3542 -0.0210922 
-0.862859 2.17022 0.130203 -0.931765 2.14111 0.129165 1.79064 2.82064 0.115133 
1.62758 2.44765 0.121738 -3.30458 22.1463 -0.0353558 -3.3445 22.5458 -0.0364841 
-3.21984 22.6747 -0.0362073 -3.44342 23.7549 -0.0397129 -3.46964 24.1929 -0.0408347 
-3.28376 23.4907 -0.0384854 -3.21492 21.3431 -0.0330539 -3.25863 21.7466 -0.034225 
-3.13578 21.8931 -0.0339266 -3.11804 20.5719 -0.0307816 -3.16504 20.9431 -0.031898 
-3.0428 21.0922 -0.0315662 -3.01109 19.7996 -0.0284605 -3.06516 20.201 -0.0296879 
-2.94224 20.3209 -0.0293192 -2.89805 19.0188 -0.0261077 -2.95221 19.4016 -0.0272897 
-2.83266 19.5522 -0.0270634 -2.77251 18.2411 -0.0236768 -2.84162 18.6378 -0.0249758 
-2.71832 18.7748 -0.0248528 -2.62417 17.4459 -0.021159 -2.69932 17.836 -0.0224313 
-2.58891 17.9911 -0.0226617 -2.47853 16.7037 -0.018806 -2.54941 17.0658 -0.0199796 
-2.44009 17.2092 -0.0205183 -2.32553 15.9426 -0.016452 -2.398 16.3293 -0.0177267 
-2.28328 16.4592 -0.0186251 -2.19949 15.1705 -0.0138926 -2.25408 15.5546 -0.0152997 
-2.12784 15.7039 -0.0168497 -2.12668 14.3652 -0.0104079 -2.19503 14.806 -0.0121306 
-2.04386 14.9638 -0.0146106 -2.12416 13.3592 -0.00427046 -2.07262 13.6932 -0.00720424 
-2.11666 13.0035 -0.00198559 -2.20424 12.1635 0.00502569 -2.1628 12.5501 0.00178792 
-2.29625 11.4066 0.0117796 -2.26385 11.7956 0.00841762 -2.08967 12.0033 0.00510738 
-2.31518 10.6881 0.0181406 -2.28239 11.0622 0.0146179 -2.13982 11.2952 0.0117901 
-2.42175 9.86699 0.0263245 -2.37268 10.2632 0.0224262 -2.18906 10.5317 0.0195263 
-2.50639 9.04177 0.0349958 -2.46356 9.45245 0.0307327 -2.29281 9.69403 0.0286296 
-2.57027 8.1969 0.0442925 -2.54045 8.61026 0.0397903 -2.3727 8.84679 0.0381889 
-2.59578 7.40328 0.0533448 -2.58616 7.79919 0.0488894 -2.42475 8.01366 0.0478521 
-2.59016 6.60231 0.0627892 -2.60038 6.99533 0.05818 -2.44732 7.20186 0.05745 
-2.52798 5.77669 0.073046 -2.56718 6.18425 0.0678761 -2.42984 6.36795 0.067417 
-2.41526 4.97851 0.0832924 -2.48309 5.38944 0.0778782 -2.36121 5.55385 0.0774675 
-2.24779 4.17369 0.0944129 -2.34126 4.57162 0.0887897 -2.2452 4.75142 0.0877498 
-1.98449 3.32176 0.107345 -2.13352 3.76081 0.100422 -2.06136 3.92499 0.098996 
-1.5693 2.37087 0.122728 -1.8143 2.89077 0.114106 -1.78643 3.07858 0.111331 
-1.38975 2.22293 0.124523 -1.59065 15.4033 -0.0183801 -1.61607 15.2063 -0.0186902 
0.803736 17.4596 0.00321183 -0.634301 17.8046 0.00376664 -0.786759 17.8815 -5.99598e-05 
1.95569 15.1292 0.00731582 1.77024 14.8458 0.00531696 1.68487 15.0164 0.00355206 
2.01363 15.5059 0.00618468 0.570374 7.87117 0.0959435 0.723069 8.08831 0.09142 
-1.62129 11.7488 0.00321749 -1.5599 11.5485 0.00556615 -1.64686 11.232 0.0103656 
-0.719955 2.27214 0.132035 -0.796711 2.23484 0.130868 -0.948622 2.59985 0.125436 
-0.560279 2.3314 0.134337 -0.641975 2.3089 0.133178 -0.780705 2.70683 0.127525 
-0.385239 2.34666 0.137319 -0.471554 2.33871 0.135889 -0.590473 2.75718 0.130472 
-0.215159 2.33891 0.140775 -0.298026 2.33694 0.139073 -0.391362 2.76027 0.133925 
-0.0538943 2.33929 0.144302 -0.134465 2.34286 0.142419 -0.201718 2.75856 0.137439 
0.122011 2.34134 0.147745 0.0328873 2.33699 0.146156 -0.0111989 2.76294 0.140646 
0.29018 2.33525 0.149577 0.2072 2.33493 0.149056 0.184509 2.75416 0.143201 
0.464026 2.33635 0.148756 0.37807 2.34653 0.149384 0.380048 2.75712 0.143769 
0.640524 2.3434 0.145469 0.552149 2.33787 0.147287 0.579157 2.76616 0.141907 
0.833248 2.34801 0.140816 0.738745 2.34853 0.143018 0.788886 2.76787 0.138264 
1.01571 2.3128 0.136527 0.924063 2.32655 0.138692 1.00239 2.7462 0.133808 
1.17811 2.23103 0.133382 1.10493 2.27008 0.134779 1.20747 2.67787 0.129648 
-1.97936 14.0449 -0.0107323 -0.159386 25.1552 -0.0373893 0.0403202 25.1407 -0.0366835 
0.145859 24.7199 -0.0341973 2.55626 6.03186 0.070534 2.52236 5.66036 0.0747314 
2.35182 5.4127 0.0808863 2.41466 6.20615 0.0716729 2.20923 25.532 -0.0269434 
2.42335 25.5575 -0.025691 1.19005 8.98837 0.0611378 1.237 9.14723 0.0564008 
-1.35666 11.0834 0.014046 -1.30215 10.9041 0.0176644 -1.50417 10.9214 0.0155048 
-1.26059 10.7018 0.0211588 -1.21766 10.5169 0.0246204 -1.39869 10.5581 0.0219742 
-1.18541 10.321 0.0280859 -1.14166 10.14 0.0317851 -1.32718 10.1526 0.0292396 
-1.10767 9.9376 0.0358911 -1.06525 9.75481 0.040285 -1.26028 9.74794 0.0369666 
-1.03307 9.5571 0.0451122 -0.997702 9.37275 0.0505134 -1.18909 9.34005 0.0459702 
-0.947629 9.22039 0.0558257 -0.903177 9.05863 0.0622473 -1.09776 8.97829 0.0559706 
1.0661 8.66019 0.072812 1.13335 8.81695 0.0667638 1.26339 8.57928 0.0663586 
-1.66301 14.5354 -0.0179551 -1.76264 14.3123 -0.0153458 0.722163 18.1176 0.00249965 
0.585497 18.3129 0.00245894 -0.542061 18.1114 0.00339006 -0.266676 7.59056 0.101174 
-0.123462 7.3462 0.103458 1.28451 9.30929 0.0520235 1.31768 9.50692 0.0476051 
1.38003 8.92802 0.0567704 1.34675 9.7094 0.0437426 1.38915 9.89164 0.0401013 
1.46677 9.30484 0.0484172 1.4408 10.0873 0.0365598 1.49127 10.2638 0.0334893 
1.55216 9.71205 0.040804 1.57333 10.4082 0.0309854 1.60952 10.5858 0.0282977 
1.68562 10.0636 0.0345758 1.59752 10.8604 0.0250353 1.62677 11.0604 0.0222762 
1.75236 10.4945 0.028952 1.0923 17.4091 -0.00183571 1.02486 17.5576 -0.000727687 
0.415066 18.5659 0.0013443 0.228825 18.7873 -7.20998e-06 0.580086 18.8353 -0.00217175 
1.51097 15.7644 -0.00035287 1.49196 16.0096 -0.00116523 1.49508 16.3523 -0.00210365 
1.4519 16.5716 -0.00263543 1.66447 16.4422 -0.00116246 1.35512 16.7474 -0.00320037 
1.29604 16.9422 -0.00316201 1.56881 16.9716 -0.00280235 1.21839 17.0906 -0.00306958 
1.15764 17.2479 -0.00231539 1.23941 17.629 -0.00275627 1.3901 17.308 -0.00329086 
-0.185629 18.7449 -0.000331029 -0.3515 18.4514 0.00199993 -1.15055 17.1478 -0.0138429 
-1.19873 17.0257 -0.015302 -1.24883 16.8864 -0.0162514 -1.29102 16.7277 -0.0172254 
-1.36694 17.2988 -0.0161684 -1.3498 16.5605 -0.0176671 -1.39837 16.3925 -0.0182466 
-1.47798 16.9844 -0.017845 -1.47113 16.225 -0.0182591 -1.50866 16.0416 -0.0185592 
-1.60779 16.6399 -0.0186998 -1.48645 15.7449 -0.0181931 -1.52133 15.5416 -0.0185318 
-1.70038 15.7244 -0.0184627 -1.65478 16.1661 -0.0186753 0.22924 7.34577 0.103049 
0.398044 7.59661 0.100406 0.556918 7.30021 0.098818 1.8772 13.3878 0.0131132 
-0.990318 2.0886 0.12864 -1.066 2.06444 0.127828 -1.09565 2.47991 0.123906 
-1.5888 14.93 -0.018624 -1.61995 14.7083 -0.0185932 -1.75644 14.8357 -0.0172012 
-1.74142 15.291 -0.0181355 2.12378 16.2392 0.00380215 2.0725 15.8812 0.0051825 
1.8959 15.6113 0.00411045 1.9929 16.3445 0.0018692 0.862388 8.31621 0.0855933 
0.97438 8.48325 0.0789548 1.10237 8.21402 0.0773733 0.943914 17.7375 0.000687 
0.846061 17.9114 0.00187518 1.08403 17.9819 -0.00189891 -0.248495 24.737 -0.0355646 
-0.979462 8.67318 0.067022 -0.845515 8.92065 0.0683619 -0.786804 8.75853 0.0758482 
2.02235 25.4328 -0.027748 2.1104 25.0939 -0.0260226 1.8186 25.383 -0.0287883 
-3.59046 25.5161 -0.0443694 1.65339 11.7966 0.0147933 0.526919 24.7585 -0.0328625 
0.611677 25.1877 -0.0345442 0.808385 25.2157 -0.0337223 1.4964 2.06966 0.127572 
2.22866 4.6098 0.090902 2.34049 4.47447 0.0892873 2.25228 4.08438 0.0947362 
1.99484 13.9966 0.0136327 2.75084 25.7444 -0.0242151 2.59932 25.3706 -0.0240774 
2.79567 25.1977 -0.0224077 1.40967 2.12548 0.128682 1.00309 25.2626 -0.0329213 
1.20407 25.3063 -0.0320507 0.908063 24.8389 -0.0315035 0.873236 18.3776 -0.000983271 
1.87585 13.7676 0.011697 -1.97598 12.8177 -0.00272062 0.0347349 7.06279 0.1044 
0.197579 6.76493 0.105943 0.865705 7.79882 0.0887329 -0.136753 6.76761 0.105889 
1.7319 15.3507 0.00320682 1.57915 15.1132 0.00220405 1.50272 15.2095 0.00127487 
1.78968 15.721 0.00234978 -1.8507 12.4964 -0.00206645 -1.75613 12.2296 -0.00105406 
-1.68349 11.9683 0.000803796 -1.11896 2.00541 0.127895 -1.23224 2.05691 0.126808 
-1.44767 2.47524 0.120471 -1.22901 2.36745 0.123187 -1.78637 11.6093 0.00626646 
-1.88655 14.2824 -0.0134421 1.26851 2.16317 0.131539 1.41761 2.56759 0.125638 
1.30262 2.0711 0.131572 -1.92019 14.6318 -0.014538 2.16491 3.70386 0.0995594 
2.01818 3.28612 0.106477 1.75621 2.96876 0.115099 2.06457 3.81565 0.101258 
-3.30735 24.3858 -0.0408659 -3.47082 24.6523 -0.0419702 -3.50513 25.0594 -0.0430541 
-0.524464 8.10606 0.0948863 -0.40395 7.86696 0.0986481 -0.423679 7.31076 0.100155 
1.49412 15.4398 0.000517315 -1.93689 12.0989 0.00270881 -0.588813 18.682 -0.00288279 
1.64301 15.7724 0.000752991 0.0286192 19.1056 -0.00344882 -0.190336 19.3503 -0.00533439 
0.214378 19.3889 -0.00604679 -0.95868 18.3214 -0.00570882 -0.962038 17.854 -0.00481967 
-1.0893 17.2442 -0.0120169 -1.2489 17.5445 -0.0135065 -1.04508 17.3997 -0.00952266 
1.41377 25.3274 -0.0309373 1.61386 25.3553 -0.0298927 1.72215 24.9629 -0.0277695 
1.31039 24.9099 -0.029769 -1.03147 17.7095 -0.00733254 -3.02665 25.2008 -0.0424744 
-2.84116 25.1324 -0.0419604 -2.26357 24.8102 -0.0398655 -2.08414 24.7237 -0.0392473 
-3.39075 25.3049 -0.0434323 -3.22271 25.2278 -0.042922 2.1679 8.83198 0.0455694 
2.19901 8.44955 0.0497023 1.1311 7.77086 0.0821496 1.2337 7.96713 0.0763537 
2.18057 8.08734 0.0543682 2.20497 7.69789 0.0586693 2.03072 8.33292 0.0534842 
0.774347 19.1526 -0.00470113 0.612888 19.3966 -0.00520315 2.47249 25.0092 -0.0237178 
2.24904 7.25324 0.0632326 2.26041 6.82731 0.067903 2.06037 7.51873 0.0633177 
2.05384 17.9344 -0.0033748 1.99418 17.5551 -0.00242547 2.16817 18.6926 -0.00523134 
2.12309 18.3167 -0.00421794 1.92644 18.022 -0.00402719 2.23007 19.4653 -0.00734355 
2.20153 19.0807 -0.00625328 2.02853 18.7944 -0.00579844 2.25332 20.2605 -0.00971598 
2.23383 19.839 -0.00844608 2.06255 19.5578 -0.00792002 2.28292 21.0712 -0.0122299 
2.27354 20.6766 -0.0110074 2.08146 20.3513 -0.0102624 2.29723 21.8838 -0.0148476 
2.28927 21.4865 -0.0135662 2.10229 21.1881 -0.0129849 2.30653 22.7377 -0.0174965 
2.30029 22.3174 -0.0161796 2.10582 22.0432 -0.0158566 2.34785 23.6426 -0.0201413 
2.32194 23.1924 -0.0188601 2.11883 22.9383 -0.0188071 2.43057 24.581 -0.022627 
2.38974 24.1083 -0.0214091 2.17186 23.8651 -0.0216215 2.25306 24.7638 -0.0241491 
-0.832794 3.17413 0.122962 -0.933118 3.13161 0.121688 -1.48839 17.7634 -0.0164818 
-1.5444 17.6161 -0.0174084 -3.04668 22.4445 -0.0348666 -3.08501 22.8265 -0.036041 
-3.13933 23.188 -0.037174 -3.16238 23.6238 -0.0384168 -2.96518 22.9561 -0.0358744 
-2.75924 20.0788 -0.0277746 -2.80979 20.45 -0.0288623 -2.96584 21.649 -0.032484 
-3.009 22.0504 -0.0337328 -2.87666 22.1979 -0.0334595 -2.63973 19.2763 -0.0255089 
-2.6968 19.6736 -0.0266027 -2.5696 19.7973 -0.0261732 -2.54464 18.5336 -0.0236429 
-2.60024 18.9126 -0.0246419 -2.46947 19.0292 -0.024213 -2.40742 17.7224 -0.0216372 
-2.48057 18.1249 -0.0226921 -2.36663 18.2584 -0.0225206 -2.24296 16.9565 -0.0199281 
-2.31833 17.333 -0.0207186 -2.21276 17.4615 -0.02089 -2.08049 16.2238 -0.0184607 
-2.16235 16.5934 -0.0191934 -2.04205 16.7098 -0.0195242 -1.92815 14.9873 -0.0160394 
0.0600237 24.254 -0.0321577 0.252951 24.2609 -0.0315456 0.184579 6.11933 0.109902 
0.366584 6.37355 0.107249 -2.16113 9.51093 0.0313608 -2.1167 9.92532 0.0265424 
-2.23318 8.66797 0.0415011 -2.19664 9.10221 0.0363567 -2.02632 9.34079 0.0344306 
-2.27536 7.835 0.0516711 -2.25787 8.23725 0.0468357 -2.09114 8.49957 0.0451423 
-2.28344 7.01473 0.0616713 -2.27776 7.42977 0.0567229 -2.12103 7.66031 0.0558129 
-2.25689 6.14755 0.0721234 -2.27993 6.5739 0.0669421 -2.12291 6.80838 0.0663221 
-2.18161 5.33019 0.0820943 -2.22595 5.72542 0.0772031 -2.08943 5.93757 0.0767679 
-2.05696 4.50624 0.0924069 -2.12826 4.92068 0.0871339 -2.00691 5.09816 0.0869452 
-1.86169 3.66624 0.103567 -1.97087 4.08356 0.0978146 -1.87209 4.25925 0.097277 
0.872618 7.26869 0.0933808 1.00992 7.50451 0.0881038 1.14406 7.27114 0.0866358 
1.47922 8.52976 0.0607424 1.53955 8.70663 0.0565529 -0.618479 3.27132 0.125968 
-0.731126 3.25743 0.124232 -0.86905 3.69137 0.118262 -0.391906 3.25087 0.129991 
-0.502366 3.25544 0.12814 -0.627783 3.76946 0.121763 -0.173623 3.21261 0.133785 
-0.276108 3.20489 0.132167 -0.373535 3.71493 0.126346 0.0417734 3.21371 0.136469 
-0.0688603 3.21452 0.135119 -0.132231 3.6749 0.129862 0.255116 3.18943 0.138157 
0.146963 3.19699 0.137579 0.0995382 3.66196 0.132015 0.483726 3.22622 0.137267 
0.372756 3.21779 0.137958 0.343733 3.6729 0.13252 0.704763 3.24294 0.134851 
0.593352 3.24614 0.136191 0.593237 3.71719 0.13074 0.950294 3.24049 0.130748 
0.828058 3.24083 0.132848 0.847792 3.72793 0.127345 1.18896 3.21836 0.126003 
1.07397 3.24486 0.128076 1.11517 3.72171 0.122831 1.42049 3.12142 0.121476 
1.30453 3.1663 0.123826 1.3762 3.66566 0.117998 -1.64562 10.7695 0.0169726 
-1.581 10.6044 0.0197846 -0.712972 8.56584 0.0827155 -0.624557 8.37782 0.0895847 
-0.8389 8.32862 0.0795029 1.03285 18.6414 -0.0031731 0.907891 18.8563 -0.00316656 
0.944803 19.3943 -0.00630453 -0.333216 24.2805 -0.0334984 -0.133208 24.2569 -0.0328412 
-0.0249982 23.7899 -0.0301811 1.71679 11.4245 0.0186039 1.32837 8.14402 0.0711538 
1.40145 8.3341 0.0659328 1.55147 8.11278 0.0655597 1.36674 7.72418 0.0756444 
-2.87083 20.8324 -0.0300399 -2.918 21.2334 -0.0312644 -2.79497 21.386 -0.0309562 
-2.6894 20.5863 -0.0285 -1.52128 9.91069 0.0307353 -1.48893 9.70785 0.0343879 
-1.399 9.60492 0.0371879 -1.36208 9.39621 0.0414081 -1.58609 9.36679 0.0385634 
-1.35222 9.13741 0.0460757 -1.31151 8.93082 0.0507779 -1.4834 8.99848 0.0460873 
-1.27005 8.70541 0.0558378 -1.2087 8.53869 0.0609099 -1.42212 8.50679 0.0556517 
1.80283 10.9557 0.0239031 1.69106 11.2389 0.0204826 1.79111 9.66517 0.0388653 
1.87055 9.82388 0.0363118 -0.983151 18.9155 -0.00854038 -1.1731 18.8498 -0.0113017 
-0.617804 19.3664 -0.00752197 -0.793087 19.0484 -0.00735098 -1.02041 19.559 -0.0124152 
1.76329 17.2126 -0.002729 1.66369 17.4007 -0.00332286 0.564627 6.68414 0.102861 
0.725609 6.94377 0.0989207 0.531247 6.05376 0.108017 -1.0297 3.03715 0.120708 
-1.11884 2.9687 0.119665 -1.08879 3.50458 0.115884 -2.64707 25.0376 -0.0413092 
-2.45356 24.9457 -0.0406855 -2.34542 24.4617 -0.0387278 -2.72601 24.6951 -0.0403297 
-1.60502 17.4364 -0.018062 -1.66494 17.2613 -0.0187776 -1.72399 17.8942 -0.0186065 
-1.72967 17.0668 -0.0189546 -1.79951 16.8882 -0.0193983 -1.85295 17.5114 -0.0196166 
-1.19832 2.87893 0.119118 -1.27792 2.82598 0.118458 -1.28566 3.31614 0.1141 
-0.31956 6.39698 0.105995 -0.173765 6.13633 0.109041 -1.16587 17.9583 -0.0104714 
1.23199 18.2115 -0.00309126 1.14065 18.4063 -0.00303829 1.18777 18.8612 -0.00458815 
1.8969 10.566 0.0279733 -1.88494 15.1674 -0.0170023 -1.12339 8.39232 0.066321 
-1.05274 8.23706 0.0717523 -1.2835 8.11945 0.0657089 2.06966 24.6619 -0.02479 
-0.740237 24.3767 -0.0350914 -0.53784 24.3287 -0.0343189 -0.422571 23.841 -0.0315885 
-1.97856 24.2306 -0.037088 -1.90336 24.6322 -0.0385776 -1.71553 24.5736 -0.0379964 
-3.11323 24.8196 -0.0415474 0.62518 20.0119 -0.00947575 0.422283 19.7288 -0.00765842 
0.446183 24.2955 -0.0309277 0.632717 24.329 -0.0303637 0.361084 23.8237 -0.0289816 
1.90219 17.1326 -0.0017125 2.21933 5.56257 0.0822153 2.17085 5.16209 0.0872028 
2.0976 4.6991 0.093056 2.01874 4.28698 0.0985656 1.97842 4.8525 0.0942313 
2.07938 9.55226 0.0381034 2.13338 9.19932 0.0416941 1.91051 10.2881 0.0308896 
1.9776 9.93969 0.0344936 2.11468 6.61962 0.073061 2.27221 6.38654 0.0725939 
2.2551 5.98285 0.0772016 -1.98986 11.3967 0.00983991 -1.92773 11.1694 0.0118566 
-1.52652 24.5495 -0.0375539 -1.33647 24.5142 -0.0370357 -1.61234 24.1096 -0.0358251 
1.8491 16.7532 -0.00086364 -1.22671 24.0405 -0.0346874 -1.1374 24.4744 -0.0364746 
-0.941652 24.4289 -0.0358209 0.82776 24.3708 -0.0296881 1.02011 24.421 -0.0290786 
0.748321 23.9041 -0.0279057 -0.413122 19.669 -0.00853076 -0.62868 19.9912 -0.0116852 
-0.206178 19.9917 -0.0100796 0.00471154 6.00425 0.110398 0.16686 5.6427 0.113415 
-0.17342 5.6625 0.112251 -1.90919 15.4561 -0.0174127 -1.98476 15.8351 -0.0179951 
-2.02702 10.7855 0.0165824 -1.82647 11.0069 0.0136333 -1.74776 10.8472 0.0154845 
-2.0877 10.3638 0.0213053 -1.95786 10.1866 0.0237583 -1.86446 15.9593 -0.0185782 
1.63968 2.96918 0.117581 1.51582 3.03379 0.120075 -1.79645 16.1126 -0.0188 
-2.00289 11.7371 0.0065149 0.871935 6.67747 0.0979226 -1.58621 2.83336 0.115436 
-1.74323 3.26255 0.10908 -1.67474 3.42886 0.108009 -1.42969 2.66676 0.118373 
2.01083 9.06345 0.0444749 1.61119 3.52032 0.114109 -0.658604 7.85617 0.0912145 
-1.39656 17.8899 -0.0149565 -1.56402 18.2114 -0.0166616 -1.32503 17.9977 -0.0135187 
1.74401 17.7614 -0.00381356 1.55575 17.5157 -0.00370251 1.47055 17.6753 -0.00366343 
1.81294 18.1477 -0.00449488 1.69493 9.57537 0.0410182 1.8758 9.33287 0.0424258 
1.91366 8.96278 0.0467956 1.64082 9.3708 0.0446402 -1.54008 10.4238 0.0227044 
-1.5012 10.213 0.02639 -1.65914 9.78264 0.031299 -1.6813 10.2695 0.0240299 
1.80941 16.048 0.00135209 0.230956 20.0188 -0.00904062 1.58502 8.91482 0.0524022 
1.62344 9.12653 0.0484506 1.7595 8.99212 0.0485097 1.68666 8.53102 0.0564184 
-1.38006 19.3463 -0.0151696 -1.3386 18.7859 -0.0132691 -1.46442 3.12273 0.113337 
-1.57466 3.52743 0.107984 -3.15238 23.9867 -0.039348 -3.15058 24.4469 -0.0405862 
-2.95712 24.4172 -0.0400437 -3.00745 23.6815 -0.0380493 1.38803 17.8517 -0.00372087 
1.31076 18.0262 -0.00344985 1.37907 18.4335 -0.00460257 1.20459 24.5216 -0.0286607 
1.41192 24.546 -0.0276999 1.12559 24.052 -0.02697 -1.51194 18.804 -0.0159321 
-1.30154 18.3149 -0.0125434 1.8415 3.42784 0.109514 -0.467413 6.70684 0.102412 
-0.487474 6.0912 0.106111 -0.594979 6.97348 0.098635 -1.87979 18.4087 -0.0197376 
-1.94714 18.219 -0.020297 0.845174 20.2728 -0.0104241 0.662999 20.5895 -0.0118581 
1.86139 19.5681 -0.00808942 1.86158 19.1919 -0.00701974 2.0879 5.74678 0.0831146 
-0.105478 23.1676 -0.0272759 0.0877832 23.1657 -0.026649 1.89452 7.72505 0.0637512 
1.93499 7.26672 0.068824 1.91075 18.8894 -0.00618824 1.87909 18.4996 -0.00522066 
1.70154 18.2337 -0.00479736 1.71784 18.8883 -0.00628783 1.88895 8.71319 0.050474 
1.93337 3.81718 0.104305 1.89509 21.2708 -0.0135901 1.89464 20.8489 -0.0121819 
1.89722 22.1845 -0.0169246 1.89968 21.7437 -0.0153452 1.68886 21.4042 -0.0145439 
1.90865 23.122 -0.0201634 1.89769 22.6605 -0.0186237 1.68694 22.3635 -0.018176 
1.9712 24.1405 -0.0234563 1.93208 23.669 -0.0220143 1.70524 23.3955 -0.0219149 
1.8242 24.4705 -0.0253593 -0.607068 4.38996 0.117234 -0.74503 4.39629 0.114928 
-2.78735 22.8392 -0.0348386 -2.83882 23.2037 -0.0361031 -2.26408 18.7015 -0.0225789 
-2.30287 19.0635 -0.0232741 -1.93186 7.54446 0.0600513 -1.92601 7.95353 0.0546972 
-2.02053 17.195 -0.0199537 -2.11004 17.5847 -0.0206969 -0.813261 7.59971 0.0888423 
-0.713819 7.32407 0.0938148 -0.751392 6.74412 0.0967315 -1.03831 20.2008 -0.0152245 
-1.22699 20.0533 -0.0159447 -0.960226 8.13842 0.0771134 -0.87622 7.92977 0.0832285 
-0.936433 7.42242 0.0861861 -1.09635 7.85669 0.0756931 1.81835 3.90835 0.106356 
-1.96089 6.61139 0.0711072 -1.96323 7.05974 0.065694 -1.78247 7.36504 0.0649375 
-1.91593 5.69762 0.0819842 -1.94626 6.12733 0.0768492 -1.80089 6.3864 0.0764358 
-1.82504 4.8504 0.0919939 -1.87648 5.26688 0.0870133 -1.74634 5.46227 0.0872427 
-1.6694 3.96861 0.102674 -1.75102 4.39649 0.0973709 -1.63661 4.5701 0.0976373 
-1.47407 3.66928 0.108261 1.15353 6.80806 0.0913164 1.27933 7.08346 0.0856471 
0.225704 20.6793 -0.0134266 0.0167239 20.3735 -0.0119894 -0.204911 20.6536 -0.0139037 
-0.892559 4.23986 0.113476 -1.01495 4.14608 0.112183 -0.877653 4.8613 0.108894 
-0.0793134 4.15723 0.125787 -0.204766 4.15148 0.124579 0.436344 4.14106 0.127061 
0.296702 4.11473 0.127702 0.715196 4.35419 0.122417 0.583752 4.34047 0.124012 
0.539232 4.79754 0.119532 0.976121 4.1713 0.1209 0.832708 4.1815 0.12283 
0.830142 4.812 0.116277 1.27009 4.24849 0.114752 1.12823 4.25279 0.117394 
1.11177 4.70933 0.112958 1.57882 4.18028 0.109108 1.44162 4.23959 0.111347 
1.44822 4.76672 0.106304 1.84674 16.4072 0.000273314 -2.69232 21.9681 -0.0319742 
-2.72621 22.3648 -0.0332516 -2.60072 22.6085 -0.0333948 1.70047 3.99813 0.108067 
-1.42488 19.9242 -0.0172898 -1.6013 19.8365 -0.0187849 -1.45464 20.5378 -0.0200098 
-1.69866 19.162 -0.0183083 -1.75864 19.6638 -0.019782 -1.91221 19.5456 -0.020985 
-1.81597 20.2227 -0.021572 -1.90159 16.7759 -0.0194292 -1.14721 3.98894 0.111058 
-1.2643 3.88886 0.109745 -1.17727 4.5313 0.105956 -1.37469 3.76015 0.108991 
1.62259 24.4386 -0.0262426 -0.679959 5.6992 0.105715 -0.539874 5.40121 0.110288 
-1.35513 2.72301 0.118312 0.903912 6.0597 0.103148 1.04822 6.37856 0.097813 
1.18234 6.20959 0.0964672 -1.8201 16.4128 -0.0188581 -2.0169 17.7032 -0.0204755 
-2.20645 17.9761 -0.0214618 -2.2705 18.3833 -0.0222462 -1.94957 17.9061 -0.0201626 
0.707434 21.3112 -0.016017 0.482512 21.0771 -0.0151105 0.274528 21.4055 -0.0168667 
-0.827883 23.9442 -0.0332771 -2.05769 23.7549 -0.0354338 -1.88098 23.6585 -0.0345669 
0.288115 23.3681 -0.0269943 0.480595 23.4062 -0.0265245 0.208846 22.7369 -0.023999 
1.87745 8.35315 0.0555506 -0.631784 20.5857 -0.0151199 -0.827548 20.297 -0.0143791 
-1.04451 20.7726 -0.0183188 1.97035 5.94582 0.0833388 1.93281 5.51543 0.0887158 
-0.315692 23.3568 -0.0288263 -0.203462 22.7216 -0.0252014 -0.51978 23.4069 -0.0296196 
1.8005 7.04006 0.0742811 1.95721 6.83057 0.0736572 1.96545 6.37592 0.0787855 
-2.43625 24.0764 -0.0375833 -2.25051 23.9374 -0.0366173 -2.15215 23.3689 -0.034215 
-1.43815 4.2394 0.103765 1.61833 7.68675 0.0700037 1.71028 7.8997 0.0649281 
1.88977 20.4264 -0.0107081 1.87544 20.0041 -0.00945199 1.68742 20.4982 -0.0111286 
-1.68025 23.5643 -0.0336636 -1.49429 23.5347 -0.0329601 -1.76426 23.0844 -0.0319472 
-1.31081 23.6147 -0.0328858 -1.11387 23.5705 -0.0322374 -1.38362 23.0617 -0.0305398 
1.76256 4.56238 0.10178 -2.82645 23.5667 -0.0371187 -0.327791 4.14043 0.123341 
-0.463865 4.18139 0.121024 0.678224 23.395 -0.025737 0.871556 23.4421 -0.0252701 
0.606814 22.9345 -0.0237845 -2.1785 19.1917 -0.0226484 -2.37915 19.5274 -0.0244697 
-2.43834 19.9337 -0.025589 -0.243649 5.21104 0.115146 -0.0821703 5.08357 0.117384 
-1.9446 8.35543 0.0488324 -1.91604 8.78897 0.0431303 -1.82392 10.5355 0.019609 
-1.87006 9.19804 0.0377648 -1.83122 9.60817 0.0323759 1.51943 24.0489 -0.025233 
-2.49805 20.3512 -0.0268516 -2.55515 20.7359 -0.0280851 -2.30951 20.0762 -0.0251492 
0.0452417 4.16007 0.126591 -0.0180038 4.65246 0.121466 0.0601454 5.08881 0.117934 
0.171819 4.14301 0.127235 0.252107 4.62681 0.122397 1.67748 19.6296 -0.00818304 
-0.28469 4.63318 0.11952 1.03205 23.0823 -0.0230584 1.10091 23.5925 -0.0251913 
1.2823 23.6989 -0.0248207 -1.76216 8.25637 0.0529316 -1.72818 9.06815 0.0412797 
-2.63342 21.1406 -0.0294619 -2.67753 21.5584 -0.0308315 -2.53048 21.7201 -0.0305202 
-2.44157 20.9028 -0.0277572 -1.75628 18.563 -0.0186583 -1.9738 18.8918 -0.0206803 
-2.04582 19.3591 -0.0217816 -1.65425 18.7021 -0.0175208 1.15681 19.6313 -0.00766604 
1.02867 19.9232 -0.0084658 1.06777 20.4851 -0.0115941 1.40056 7.27618 0.080605 
1.50617 7.46999 0.075411 1.65928 7.25777 0.0745413 1.41557 6.83392 0.0850847 
-1.63732 8.95359 0.0442966 -1.61965 8.69046 0.0487627 -1.61088 8.29171 0.0550453 
-1.55761 8.05556 0.0597427 1.34148 19.0276 -0.00583728 1.2306 19.2704 -0.00623737 
0.529795 5.36753 0.114071 0.715829 5.66179 0.109653 -2.84104 24.0242 -0.0385289 
-2.80064 24.3967 -0.0395487 -2.60971 24.2995 -0.0388022 -2.67245 23.5431 -0.0365456 
0.223547 5.19442 0.117089 -0.84413 6.17225 0.0991247 -0.880846 5.50301 0.103675 
-1.04678 5.32653 0.101921 -0.961211 6.51673 0.0936941 0.882726 5.39271 0.109696 
1.31891 19.7843 -0.00855883 -1.62216 7.61421 0.0647387 -1.44275 7.82698 0.065803 
-1.34597 7.66277 0.0707835 -1.65351 7.11839 0.0706348 -1.5087 4.69948 0.0985593 
1.82267 6.15802 0.0840905 1.83593 5.03619 0.0955223 1.54811 18.0625 -0.00429204 
-1.37118 4.88924 0.0993723 -1.55671 5.21079 0.0928975 -1.59458 5.65025 0.0879469 
1.82058 8.13346 0.0595233 -1.83708 22.5209 -0.0298393 -1.64168 22.4174 -0.0285653 
-2.108 18.412 -0.021365 1.73075 5.23945 0.0957308 -0.563616 4.82667 0.114309 
1.56412 18.7184 -0.00554146 1.47678 18.9153 -0.00597964 -2.11474 19.8516 -0.0232374 
1.65902 5.7988 0.0913352 1.57335 5.31213 0.0980948 1.39026 5.33826 0.101546 
1.66068 6.24446 0.0864146 1.49317 23.5934 -0.023477 -0.918338 23.421 -0.0309805 
-0.718265 23.3647 -0.0300582 -1.00603 22.9867 -0.0292447 -0.251414 21.3653 -0.018045 
-0.468875 21.0149 -0.016984 -0.672804 21.2929 -0.0193462 -1.85575 10.1009 0.0253293 
-1.81437 9.91121 0.0281302 -0.384726 5.19081 0.113884 0.368547 5.16058 0.117049 
1.01678 5.20207 0.109768 1.27653 20.6506 -0.0120976 1.09934 20.9937 -0.0135542 
-2.37594 22.2904 -0.031465 -2.43195 22.7701 -0.0331852 -2.1682 20.2736 -0.024412 
1.17902 5.27279 0.106119 -1.48173 21.273 -0.0229198 -1.6843 21.1276 -0.0236229 
-1.88521 20.8175 -0.024016 -2.05076 20.63 -0.0245203 -2.24925 20.8554 -0.0264774 
-1.92596 21.5313 -0.0267485 -1.22137 5.05437 0.100832 -1.63053 6.14487 0.0823461 
-1.64508 6.639 0.0765348 -1.49696 6.89504 0.0767147 -1.45199 5.90872 0.0882966 
1.4738 23.0385 -0.0214035 1.28626 5.83308 0.0985145 1.67544 6.80684 0.0798186 
-1.23125 5.67637 0.0950779 -0.61281 22.8725 -0.0274096 -0.984299 21.4071 -0.0208161 
-1.19409 21.302 -0.0215822 -1.43145 21.884 -0.0254737 -0.828882 21.8125 -0.02252 
-2.51351 23.7787 -0.0367916 1.46465 20.5426 -0.0114859 1.46829 20.1078 -0.00980581 
-2.08601 22.814 -0.031965 -1.96101 22.1541 -0.0289843 -2.27345 23.0017 -0.0333556 
-2.50278 23.3184 -0.0352812 1.40871 22.4685 -0.0193101 1.41437 21.9812 -0.0174916 
1.19338 22.6674 -0.0208206 1.49981 21.5198 -0.0151725 1.50189 21.0362 -0.0134429 
0.468202 22.3723 -0.0215187 0.666157 22.3652 -0.020943 1.0062 21.47 -0.0158769 
0.833485 21.9353 -0.0185412 1.39606 6.25257 0.0919891 0.0110529 21.7884 -0.0197404 
-0.251801 22.1177 -0.0223475 1.52902 19.3093 -0.00705305 1.61051 18.4207 -0.00500261 
1.52693 6.46072 0.0868637 -1.35424 7.17817 0.0768688 -1.20548 7.47574 0.0773552 
-1.10337 7.3589 0.081774 -1.34352 6.68733 0.0826026 -1.35037 22.4604 -0.0277468 
0.268709 22.1558 -0.0208143 -0.661975 22.2797 -0.0242801 -0.974887 22.3772 -0.0261585 
-1.26529 6.18618 0.0896472 -1.16722 22.5371 -0.0274896 -2.16617 21.833 -0.0290002 
1.22181 21.6182 -0.0163486 0.968053 22.5061 -0.0207093 -2.32073 21.2663 -0.0280637 
-2.33118 21.6785 -0.0293906 -1.03764 7.02991 0.0872463 1.53564 19.7541 -0.00856603 
-1.13064 6.47727 0.0899695 -0.462339 22.3201 -0.0240807 -4.88675 28.6469 -0.176829 
-0.637292 0.546307 0.0575887 -4.84963 28.3082 -0.175814 -4.8147 27.9848 -0.174851 
-4.77074 27.569 -0.173621 -4.73756 27.2459 -0.172672 -4.69767 26.8466 -0.171498 
-4.66647 26.5249 -0.170525 -4.63033 26.143 -0.169382 -4.56073 25.3838 -0.16704 
-4.60073 25.8233 -0.168383 -4.49843 24.6917 -0.164841 -4.46326 24.3034 -0.163609 
-4.43048 23.9469 -0.162447 -4.39006 23.5186 -0.161071 -4.36145 23.2248 -0.160082 
-4.32459 22.8593 -0.158874 -4.24623 22.1335 -0.156382 -4.29253 22.5537 -0.157817 
-4.16744 21.4711 -0.154064 -4.11788 21.084 -0.152664 -4.07734 20.7836 -0.151533 
-4.02508 20.4122 -0.150136 -3.8699 19.3978 -0.146138 -3.80437 18.9963 -0.144507 
-3.69547 18.3478 -0.141797 -3.63155 17.9705 -0.140132 -3.57968 17.664 -0.138738 
-3.51614 17.2821 -0.13693 -3.46567 16.9716 -0.135472 -3.4098 16.6142 -0.133649 
-3.36078 16.2842 -0.132018 -3.3066 15.8912 -0.12989 -3.26638 15.5715 -0.128214 
-3.22215 15.1731 -0.125932 -3.16354 14.4938 -0.121971 -3.13691 14.0285 -0.119086 
-3.12557 13.7025 -0.117106 -3.11954 13.3152 -0.114564 -3.12156 12.9602 -0.112117 
-3.13354 12.5158 -0.109034 -3.14827 12.1968 -0.106625 -3.17501 11.7762 -0.103431 
-3.22819 11.1419 -0.0981915 -3.26668 10.7515 -0.0948742 -3.2983 10.4523 -0.0921255 
-3.34112 10.0593 -0.0885322 -3.37598 9.7416 -0.0853771 -3.41781 9.34726 -0.0814091 
-3.47153 8.78766 -0.0753048 -3.50081 8.42151 -0.0711414 -3.51905 8.13751 -0.067686 
-3.53541 7.78004 -0.0633416 -3.54203 7.51469 -0.0599412 -3.54235 7.16404 -0.0553512 
-3.53442 6.86586 -0.0513429 -3.51535 6.53282 -0.0466516 -3.46286 6.01832 -0.0389134 
-3.41105 5.67669 -0.033574 -3.35988 5.40873 -0.0290504 -3.27766 5.05521 -0.023158 
-3.20335 4.78644 -0.0183689 -3.09231 4.44277 -0.0121156 -2.87223 3.88391 -0.00100495 
-2.71314 3.54247 0.00621335 -2.57235 3.27266 0.0129294 -2.36923 2.91762 0.0215821 
-2.19032 2.63411 0.0298311 -1.92047 2.2408 0.0411908 -1.67648 1.91692 0.0530979 
-1.35872 1.51846 0.0650236 -1.0696 1.16056 0.0886526 -4.52811 25.0219 -0.165889 
-4.20948 21.8161 -0.155292 -3.98094 20.1123 -0.14895 -3.91754 19.6981 -0.147327 
-3.7468 18.6511 -0.143073 -3.18993 14.8342 -0.123956 -3.19811 11.4792 -0.101011 
-3.44601 9.06574 -0.0784248 -3.49291 6.27507 -0.0428725 -2.98701 4.15819 -0.00670973 
0.596952 0.486685 0.037389 3.9779 28.0834 -0.145842 1.00742 1.08301 0.0492041 
1.31957 1.46784 0.0324999 1.6728 1.90294 0.0137481 1.91903 2.2253 0.00497459 
2.18398 2.60009 -0.00333016 2.3572 2.86778 -0.00921448 2.55713 3.20625 -0.0148907 
2.84709 3.7732 -0.0235688 3.01067 4.15361 -0.0283718 3.10579 4.40813 -0.0314477 
3.2119 4.73262 -0.0349599 3.2852 4.99518 -0.0378239 3.36273 5.32794 -0.0412219 
3.41391 5.6004 -0.0439653 3.4573 5.89638 -0.046726 3.50281 6.38232 -0.0511483 
3.5164 6.69168 -0.0537306 3.494 7.60669 -0.0605073 3.46649 7.93746 -0.0627365 
3.43466 8.23464 -0.0647003 3.38969 8.58591 -0.0668037 3.31133 9.11001 -0.0698848 
3.25583 9.44917 -0.0716379 3.20633 9.74084 -0.0731016 3.15326 10.0503 -0.0744532 
3.10199 10.3511 -0.0758064 3.04692 10.6847 -0.0771045 3.00034 10.9814 -0.0783857 
2.94458 11.3694 -0.079776 2.90369 11.6907 -0.0810825 2.86135 12.0911 -0.0824041 
2.81528 12.7395 -0.0847092 2.80135 13.1665 -0.0861939 2.8008 13.5186 -0.0877218 
2.81147 13.9319 -0.0894555 2.82934 14.2675 -0.0907814 2.85961 14.6615 -0.09258 
2.89371 15.0073 -0.0940119 2.93897 15.3945 -0.0958938 2.98172 15.7188 -0.0973627 
3.03596 16.0982 -0.0992989 3.13118 16.7172 -0.102239 3.20128 17.1577 -0.10448 
3.2484 17.4536 -0.105927 3.30778 17.8318 -0.107853 3.35467 18.1383 -0.109359 
3.40766 18.4991 -0.111147 3.44654 18.776 -0.112517 3.49399 19.1353 -0.114171 
3.56636 19.7432 -0.116872 3.6069 20.1309 -0.118544 3.63435 20.4224 -0.119784 
3.66619 20.7986 -0.121316 3.68933 21.1065 -0.122579 3.71623 21.5148 -0.12418 
3.73648 21.869 -0.125614 3.75488 22.2399 -0.126996 3.7801 22.8449 -0.129206 
3.79202 23.1793 -0.130379 3.803 23.516 -0.131555 3.81507 23.9141 -0.132871 
3.82417 24.2258 -0.133918 3.8354 24.6143 -0.135156 3.84427 24.9148 -0.136135 
3.85496 25.2622 -0.137222 3.86639 25.6113 -0.138342 3.88053 26.0079 -0.139576 
3.89295 26.3293 -0.140532 3.90924 26.7131 -0.141729 3.93984 27.3596 -0.143673 
3.9589 27.7292 -0.144814 3.51881 6.96667 -0.0558398 3.50931 7.33974 -0.0585852 
2.70126 3.47334 -0.0195605 3.48353 6.13323 -0.0489655 3.3513 8.85275 -0.0684094 
2.83497 12.4062 -0.0834987 3.08193 16.4019 -0.100748 3.52997 19.4254 -0.115489 
3.76815 22.5415 -0.128106 3.92466 27.0516 -0.142739 3.86262 28.3734 -0.147417 
-4.79604 28.9503 -0.177345 3.72697 28.3549 -0.148047 3.60335 28.3374 -0.14861 
3.44371 28.3138 -0.149323 3.30361 28.2918 -0.150033 3.13045 28.2632 -0.150806 
3.00055 28.2406 -0.151374 2.84068 28.2119 -0.15208 2.69973 28.186 -0.15268 
2.52328 28.1532 -0.153451 2.24032 28.1008 -0.154578 2.05634 28.0677 -0.155354 
1.9006 28.0408 -0.155957 1.69255 28.0069 -0.156803 1.52706 27.9819 -0.157404 
1.30289 27.9514 -0.158276 0.983674 27.9156 -0.159358 0.785109 27.8983 -0.160046 
0.628592 27.8876 -0.160545 0.436347 27.8781 -0.161172 -0.288014 27.8808 -0.16349 
-0.508829 27.894 -0.164162 -0.679181 27.9083 -0.1646 -0.893887 27.9312 -0.165195 
-1.0529 27.9516 -0.165666 -1.25526 27.9819 -0.166245 -1.43153 28.012 -0.166783 
-1.63031 28.0501 -0.167342 -1.94068 28.1177 -0.168294 -2.15177 28.1689 -0.168877 
-2.32746 28.2145 -0.169415 -2.52789 28.2693 -0.169986 -3.00179 28.409 -0.171458 
-3.19128 28.4676 -0.172061 -3.46598 28.5539 -0.172997 -3.64048 28.6089 -0.173567 
-3.77201 28.6501 -0.174013 -3.93904 28.7019 -0.174554 -4.07239 28.7426 -0.174993 
-4.23306 28.7907 -0.17554 -4.49673 28.867 -0.176383 -4.65229 28.9106 -0.176911 
0.277497 27.8734 -0.161667 -0.117361 27.8745 -0.162972 -2.66714 28.3091 -0.17043 
-2.85323 28.364 -0.170981 0.0379354 27.8719 -0.162445 2.37845 28.1262 -0.154016 
1.15132 27.9331 -0.158819 -1.77912 28.0813 -0.167821 -3.3315 28.5115 -0.172522 
-4.35706 28.827 -0.175918 0.132159 13.4431 -0.103843 0.0711883 14.8353 -0.116413 
0.122729 13.6298 -0.0966773 0.120472 13.7741 -0.0986235 0.114601 13.9617 -0.10101 
0.110079 14.0979 -0.101973 0.103781 14.2691 -0.103162 0.0973579 14.4109 -0.104895 
0.0885256 14.5711 -0.106493 0.0805693 14.6975 -0.111334 0.0791151 14.9898 -0.121112 
0.900236 13.4095 -0.0918294 0.865718 13.5849 -0.094198 0.108692 14.9815 -0.122253 
0.148495 14.9391 -0.121087 0.191435 14.8805 -0.120667 0.241901 14.8027 -0.117169 
0.297392 14.7117 -0.114548 0.357563 14.6088 -0.110395 0.424168 14.4897 -0.109209 
0.490807 14.3673 -0.107409 0.565309 14.2282 -0.105523 0.641636 14.0815 -0.102618 
0.720776 13.9253 -0.0999919 0.802101 13.7458 -0.0971288 0.214955 13.228 -0.0944466 
0.817746 13.2276 -0.0811289 0.284989 13.214 -0.100788 0.422696 13.2132 -0.0950063 
0.344332 13.2133 -0.0982888 0.68269 13.2176 -0.086262 0.611775 13.2168 -0.0890603 
0.745092 13.2155 -0.0845096 0.477444 13.2155 -0.0936575 0.553882 13.2167 -0.0920028 
-0.0755182 13.2313 -0.118199 -0.661253 13.3146 -0.120037 -0.581866 13.294 -0.116481 
-0.152169 13.2298 -0.113335 -0.224446 13.2431 -0.113689 -0.297654 13.2535 -0.113083 
-0.363783 13.2639 -0.114251 -0.503203 13.2842 -0.117006 -0.432576 13.2743 -0.114043 
-0.00833365 15.0086 -0.117663 -0.0312795 15.0064 -0.11394 -0.75373 13.5012 -0.110819 
-0.72887 13.6726 -0.111565 -0.102248 14.9181 -0.113367 -0.0614033 14.9753 -0.114703 
-0.202704 14.7548 -0.112528 -0.150841 14.8421 -0.111875 -0.258064 14.6553 -0.112298 
-0.38505 14.42 -0.113627 -0.318443 14.5448 -0.113152 -0.602377 13.989 -0.113278 
-0.526609 14.1444 -0.114769 -0.670649 13.8348 -0.114243 -0.454931 14.2857 -0.113758 
0.018126 13.4548 -0.0984046 -0.00244558 14.8559 -0.117516 -0.00298274 14.7279 -0.11454 
0.0191056 13.6176 -0.100678 0.00947105 13.8951 -0.104885 0.0115352 13.7587 -0.103279 
0.00534864 14.0417 -0.10621 0.00259103 14.1847 -0.107554 -0.000130145 14.322 -0.109038 
-0.00409884 14.5922 -0.112695 -0.00192985 14.4569 -0.110453 0.222647 13.1231 -0.0985593 
0.825826 13.1085 -0.0861838 0.291738 13.1341 -0.093553 0.349176 13.1297 -0.0963304 
0.42014 13.1251 -0.0928139 0.478866 13.1257 -0.091809 0.556951 13.123 -0.0927491 
0.623766 13.1225 -0.0915413 0.696916 13.1206 -0.0908184 0.755946 13.1216 -0.0878113 
0.917824 12.9182 -0.0890958 0.180714 11.3352 -0.088173 0.201481 11.3401 -0.0897776 
0.890944 12.7411 -0.0892673 0.833716 12.5737 -0.0905131 0.700812 12.2691 -0.088553 
0.624207 12.1078 -0.0896529 0.55548 11.968 -0.0908292 0.491305 11.8401 -0.0911564 
0.430876 11.723 -0.0920141 0.373971 11.6162 -0.0916002 0.322269 11.523 -0.0919113 
0.27546 11.4439 -0.091033 0.229993 11.3754 -0.0898918 0.769042 12.4181 -0.0880505 
0.141607 12.91 -0.0989722 0.177694 11.4802 -0.0874157 0.175886 11.6079 -0.0876405 
0.155087 12.5965 -0.0972707 0.147109 12.7509 -0.0982645 0.166019 12.3086 -0.0930666 
0.160475 12.4537 -0.095084 0.176271 11.8773 -0.0885147 0.173911 12.0222 -0.0897056 
0.177728 11.7352 -0.0875785 0.170174 12.1589 -0.0914281 0.0303507 12.9147 -0.104156 
0.104158 11.482 -0.0869571 0.0969401 11.6065 -0.0877877 0.0411984 12.7587 -0.102015 
0.0453401 12.6058 -0.0996914 0.052192 12.4579 -0.098392 0.0587489 12.3084 -0.0968684 
0.065808 12.1512 -0.0948302 0.0719185 12.0087 -0.0924534 0.0794197 11.8694 -0.0903003 
0.0856563 11.7312 -0.0891643 -0.746002 13.0056 -0.109042 0.100182 11.3367 -0.0914489 
0.0734768 11.3439 -0.0898236 -0.646806 12.6578 -0.102424 -0.711811 12.8343 -0.10226 
-0.413229 12.1656 -0.0969011 -0.494201 12.3256 -0.0979659 -0.256561 11.8708 -0.0951183 
-0.33328 12.014 -0.0960549 -0.118679 11.6257 -0.092767 -0.18816 11.7471 -0.0936667 
-0.00526926 11.4436 -0.091417 -0.0565318 11.5235 -0.0920089 0.0392115 11.382 -0.0896873 
-0.573803 12.4883 -0.10009 -0.0573425 13.128 -0.107397 -0.652644 13.1973 -0.11179 
-0.583191 13.1976 -0.110816 -0.176916 13.1506 -0.105074 -0.12067 13.1476 -0.106789 
-0.310385 13.1651 -0.104468 -0.250827 13.1592 -0.105677 -0.446337 13.181 -0.107451 
-0.385121 13.1734 -0.105236 -0.520489 13.1885 -0.108323 0.945609 13.1878 -0.0856542 
0.0322104 15.1259 -0.132375 0.0616292 15.0737 -0.124802 0.92075 13.2286 -0.087022 
0.893298 13.2788 -0.088401 0.823915 13.3826 -0.0958094 0.747398 13.5145 -0.101593 
0.663389 13.6781 -0.102744 0.586161 13.8361 -0.105189 0.505355 14.0068 -0.107399 
0.433866 14.1604 -0.110145 0.363014 14.3148 -0.112218 0.301755 14.4498 -0.114722 
0.238276 14.5929 -0.117689 0.191663 14.7007 -0.120643 0.146156 14.8099 -0.123056 
0.113861 14.8949 -0.123762 0.0866379 14.9786 -0.125125 0.0781794 15.0234 -0.123325 
0.0767683 15.0516 -0.125919 -0.780935 13.2764 -0.131479 -0.760217 13.1935 -0.135441 
-0.743196 13.1121 -0.142117 -0.696319 12.9748 -0.140745 -0.621744 12.8045 -0.138583 
-0.542912 12.6356 -0.13395 -0.465334 12.4728 -0.131789 -0.387816 12.3109 -0.129157 
-0.313627 12.1594 -0.127238 -0.23914 12.0085 -0.124862 -0.173136 11.8753 -0.122932 
-0.111454 11.7501 -0.120236 -0.0530753 11.6333 -0.117521 -0.000278056 11.5277 -0.114616 
0.0428431 11.4406 -0.112407 0.0761273 11.3728 -0.109024 0.0969393 11.3253 -0.107614 
0.100763 11.3053 -0.11031 0.104677 11.3001 -0.114854 0.11877 11.2566 -0.115393 
0.150241 11.1812 -0.132672 0.170456 11.2537 -0.113595 0.124476 11.3251 -0.115974 
0.0229156 15.0888 -0.154992 -0.0135238 15.0429 -0.148498 -0.0125026 15.0434 -0.139169 
-0.0113371 15.0315 -0.134933 -0.028672 14.9919 -0.134453 -0.0552965 14.9354 -0.138721 
-0.0909901 14.8621 -0.136711 -0.137543 14.7677 -0.13886 -0.187022 14.666 -0.14013 
-0.241002 14.555 -0.141621 -0.301153 14.4326 -0.142749 -0.366672 14.2986 -0.144556 
-0.431941 14.1642 -0.144942 -0.502358 14.0164 -0.14589 -0.576957 13.8582 -0.146073 
-0.648044 13.7042 -0.148549 -0.710637 13.559 -0.149562 -0.755071 13.4226 -0.146218 
-0.766214 13.3472 -0.138924 0.182876 11.3186 -0.105231 0.199139 11.3644 -0.108175 
0.231266 11.4373 -0.111883 0.270961 11.5235 -0.114208 0.315294 11.6199 -0.116529 
0.367798 11.7327 -0.117838 0.422808 11.852 -0.119353 0.482593 11.9808 -0.119934 
0.547354 12.1217 -0.120622 0.611784 12.2616 -0.120544 0.678847 12.4096 -0.121353 
0.751357 12.5725 -0.121785 0.819431 12.7276 -0.123902 0.88143 12.882 -0.124434 
0.923548 13.0161 -0.119828 0.929058 13.087 -0.110806 0.941073 13.1284 -0.104876 
0.951881 13.163 -0.0988089 0.932332 13.2039 -0.104245 0.911617 13.1254 -0.107359 
0.849435 13.4654 -0.131036 0.776965 13.6224 -0.13392 0.703293 13.7761 -0.134144 
0.625526 13.936 -0.135515 0.549038 14.0904 -0.136763 0.474382 14.2402 -0.138408 
0.404404 14.3791 -0.139009 0.339223 14.5085 -0.140008 0.278146 14.6287 -0.141793 
0.225757 14.7307 -0.14293 0.177704 14.8224 -0.144385 0.135916 14.9001 -0.144315 
0.10175 14.9616 -0.142977 0.0794193 15.0022 -0.140799 0.0720617 15.0238 -0.14391 
0.0670434 15.0293 -0.152597 0.184946 11.3051 -0.106639 -0.0890418 13.1928 -0.108628 
-0.00892219 13.1836 -0.131409 -0.217252 13.2025 -0.101478 -0.151261 13.1926 -0.100324 
-0.362212 13.2222 -0.101968 -0.289438 13.2124 -0.101204 -0.568612 13.249 -0.1055 
-0.499234 13.2396 -0.104487 -0.709749 13.2706 -0.133915 -0.638641 13.2622 -0.112919 
0.0791508 13.0361 -0.144314 0.0893759 12.8956 -0.160443 0.101483 12.6078 -0.160629 
0.0941249 12.7486 -0.162916 0.114574 12.3088 -0.156174 0.120437 12.153 -0.153836 
0.124653 12.0165 -0.15031 0.129171 11.8784 -0.148325 0.132216 11.7396 -0.146157 
0.134756 11.6169 -0.145345 0.138556 11.5026 -0.137843 0.145313 11.403 -0.125956 
0.0843542 13.171 -0.132903 0.0807536 13.3202 -0.141861 0.179367 13.1788 -0.122847 
0.240668 13.174 -0.0994767 0.286523 13.1777 -0.0924499 0.339881 13.1755 -0.0895004 
0.399116 13.1726 -0.0875867 0.45777 13.1703 -0.0851455 0.568718 13.1684 -0.0842974 
0.634813 13.1679 -0.082368 0.692782 13.1665 -0.0813341 0.747968 13.165 -0.0793605 
0.802395 13.164 -0.086086 0.0729077 13.6178 -0.164295 0.0756663 13.4658 -0.157895 
0.0682996 13.7542 -0.162388 0.0647733 13.892 -0.163881 0.0577497 14.1713 -0.165226 
0.0616541 14.0271 -0.164509 0.0501886 14.4485 -0.166788 0.0541965 14.3138 -0.165675 
0.040145 14.7067 -0.16898 0.0452404 14.5782 -0.166644 0.0281155 14.9396 -0.157798 
0.0348708 14.8324 -0.168122 0.903351 13.3258 -0.123203 -0.758024 13.2836 -0.133044 
0.015285 15.0235 -0.152016 0.166897 11.3315 -0.117612 0.10848 12.4595 -0.158905 
0.184461 11.2979 -0.114095 0.513083 13.169 -0.0843284 0.917897 13.2501 -0.111045 
0.908345 13.2051 -0.10586 -0.429824 13.2307 -0.104384 0.863125 13.1669 -0.10317 
-0.783206 13.2688 -0.0984497 -0.745052 13.0944 -0.0740128 -0.764271 13.1859 -0.0873783 
-0.622744 12.7992 -0.0651555 -0.691965 12.9584 -0.0680471 -0.460137 12.4593 -0.0641995 
-0.544166 12.6315 -0.0651018 -0.306355 12.1456 -0.0643745 -0.378746 12.2931 -0.0640528 
-0.163595 11.8554 -0.0646384 -0.230521 11.9907 -0.0648031 -0.0409266 11.6093 -0.0652276 
-0.0958875 11.7196 -0.0652134 0.0492003 11.4291 -0.0656491 0.0085821 11.5101 -0.0659369 
0.100504 11.3215 -0.068792 0.08147 11.365 -0.0676719 0.101173 11.2955 -0.0579403 
0.103094 11.2993 -0.0653544 0.142094 11.1871 -0.0377172 0.115665 11.2544 -0.0562088 
0.122903 11.3249 -0.055415 0.167887 11.2505 -0.0531794 0.0294992 15.087 -0.0983106 
-0.0118575 15.0402 -0.0982134 -0.010246 15.0376 -0.0934142 -0.0252874 14.9972 -0.0974383 
-0.0101799 15.0296 -0.0999257 -0.0902315 14.8651 -0.0916657 -0.0538212 14.9396 -0.0924589 
-0.182477 14.6757 -0.0874966 -0.133496 14.777 -0.0891697 -0.29435 14.4458 -0.085266 
-0.236726 14.5647 -0.0864443 -0.42616 14.1715 -0.0821572 -0.358667 14.3113 -0.0836409 
-0.57747 13.8524 -0.0787241 -0.500048 14.017 -0.0805686 -0.722762 13.5335 -0.0767624 
-0.65361 13.6971 -0.0775116 -0.773004 13.3476 -0.0924067 -0.768045 13.414 -0.0817931 
-0.753895 13.2839 -0.0959716 0.0214083 15.0148 -0.0903442 0.0281524 14.9357 -0.0833557 
0.192361 11.3542 -0.0660861 0.177766 11.312 -0.0669876 0.255159 11.4936 -0.0651319 
0.219579 11.4159 -0.0654206 0.348863 11.6975 -0.0628486 0.298893 11.5897 -0.0635186 
0.462405 11.9443 -0.0598699 0.403427 11.8165 -0.0610282 0.59419 12.2318 -0.0561819 
0.525173 12.0818 -0.0576724 0.742837 12.5579 -0.053253 0.671305 12.4001 -0.0535809 
0.880566 12.8775 -0.0518575 0.814751 12.7193 -0.0522633 0.930013 13.0872 -0.0627717 
0.920699 13.0109 -0.0532815 0.952858 13.1639 -0.0737488 0.938518 13.127 -0.0683346 
0.912757 13.128 -0.0653256 0.930461 13.205 -0.0675629 0.763201 13.6429 -0.0647616 
0.842576 13.4769 -0.0593679 0.592439 13.9943 -0.072919 0.676737 13.8236 -0.0686941 
0.440207 14.3004 -0.080273 0.516748 14.1468 -0.0760838 0.305164 14.5694 -0.086989 
0.376854 14.4282 -0.082639 0.149971 14.8715 -0.0989351 0.198218 14.7775 -0.0954085 
0.0828293 15.0012 -0.104896 0.111597 14.9442 -0.102235 0.180794 11.2968 -0.0610797 
-0.0157824 13.1737 -0.0858819 -0.0806926 13.175 -0.109605 -0.13743 13.1831 -0.116996 
-0.191003 13.1907 -0.11643 -0.26074 13.2001 -0.116889 -0.320918 13.2067 -0.116941 
-0.387898 13.2148 -0.117718 -0.449175 13.2234 -0.11923 -0.523581 13.2336 -0.119792 
-0.582633 13.2423 -0.119788 -0.646198 13.2529 -0.113341 -0.704474 13.2704 -0.0972397 
0.0925272 12.7508 -0.0373377 0.0832426 12.8946 -0.0431643 0.10476 12.4544 -0.0348689 
0.0993961 12.6009 -0.0360197 0.116075 12.163 -0.0320999 0.110474 12.3096 -0.0336982 
0.125845 11.8783 -0.030658 0.121443 12.0161 -0.0321533 0.135014 11.6197 -0.0304657 
0.130172 11.7487 -0.0313434 0.147444 11.398 -0.0479308 0.139596 11.4996 -0.0347774 
0.07464 13.0338 -0.0635439 0.302351 13.1689 -0.103644 0.246088 13.1744 -0.100871 
0.44443 13.1679 -0.100924 0.374454 13.1678 -0.104466 0.522363 13.1717 -0.100701 
0.599384 13.1714 -0.0978833 0.737852 13.1704 -0.0946709 0.670002 13.1713 -0.0964813 
0.800513 13.1726 -0.0866012 0.863483 13.1748 -0.0692539 0.0827965 13.3222 -0.0681956 
0.0760049 13.4722 -0.0435554 0.0678894 13.6455 -0.0376364 0.0626356 13.7775 -0.0401051 
0.0584527 13.9628 -0.0420386 0.0543969 14.1055 -0.0442383 0.0490718 14.2756 -0.046748 
0.045068 14.4093 -0.0490461 0.0403824 14.5674 -0.0530097 0.0367318 14.6998 -0.0573769 
0.0330228 14.83 -0.0654842 0.168221 13.1841 -0.0765908 0.0766636 15.0182 -0.102798 
0.892394 13.3376 -0.0562992 0.161482 11.3275 -0.0538063 0.0751691 13.1846 -0.0749211 
0.181813 11.295 -0.0532257 0.915582 13.2448 -0.0636214 0.24962 14.6779 -0.0903469 
0.905768 13.2029 -0.0658912 0.0668414 15.0248 -0.0953705 0.158315 11.191 -0.0859016 
0.181989 11.2425 -0.0812964 0.952238 13.1421 -0.0853376 0.937026 13.1063 -0.0871896 
0.192646 11.265 -0.0797392 0.187352 11.2862 -0.0835481 0.186007 11.331 -0.0828685 
0.200768 11.4044 -0.0854267 0.224546 11.488 -0.0869217 0.258429 11.5891 -0.0877899 
0.300402 11.7014 -0.0883383 0.348776 11.8251 -0.0886217 0.402109 11.9561 -0.0885516 
0.458736 12.0927 -0.0884447 0.523551 12.2452 -0.0875756 0.585477 12.3892 -0.0863783 
0.655645 12.5466 -0.0859326 0.728346 12.7055 -0.086428 0.803536 12.8574 -0.0865945 
0.86981 12.9783 -0.0868767 0.91764 13.0585 -0.0853211 0.00575282 15.143 -0.12845 
-0.0176568 15.0976 -0.124707 -0.796366 13.3061 -0.116897 -0.0234177 15.0775 -0.120681 
-0.0186485 15.058 -0.119844 -0.0182936 15.0208 -0.117334 -0.0297794 14.9629 -0.117017 
-0.0535694 14.885 -0.116204 -0.086144 14.7958 -0.11517 -0.127804 14.6914 -0.114601 
-0.173757 14.5786 -0.115324 -0.225539 14.4568 -0.115071 -0.282167 14.3266 -0.114383 
-0.344476 14.185 -0.113709 -0.40618 14.0471 -0.113012 -0.48146 13.885 -0.111279 
-0.632119 13.5868 -0.113065 -0.706507 13.4567 -0.114402 -0.75939 13.3773 -0.116068 
-0.781154 13.3378 -0.117213 -0.55729 13.7274 -0.112595 -0.787076 13.2577 -0.1143 
-0.136918 13.1852 -0.108463 -0.0743781 13.1834 -0.109092 -0.184982 14.6743 -0.113933 
-0.139538 14.7669 -0.114242 0.042495 14.5722 -0.109977 0.0388846 14.7016 -0.112007 
-0.296241 14.4444 -0.114023 -0.367607 14.2966 -0.113708 0.0938239 12.7461 -0.0992894 
0.100607 12.6035 -0.0982792 0.782141 13.6092 -0.0967302 0.474095 11.9636 -0.0897905 
0.879517 12.8849 -0.0900643 0.863856 12.7838 -0.0679728 0.856045 12.9095 -0.105516 
0.852031 12.9028 -0.0709653 0.296144 13.1713 -0.0979281 0.916449 13.2456 -0.0877548 
0.0608763 13.9632 -0.103306 0.0656466 13.7782 -0.101446 -0.646465 13.7065 -0.112872 
0.607829 12.2555 -0.0879428 0.101165 11.3043 -0.0881918 0.169274 11.2605 -0.0834117 
0.183124 11.2991 -0.0836079 0.163064 11.3323 -0.0851469 0.289808 13.1715 -0.0987176 
-0.0605348 14.9288 -0.113714 -0.014325 15.0265 -0.115909 0.468801 14.2501 -0.108574 
0.145284 11.399 -0.0863259 0.138497 11.4963 -0.0881134 0.140014 14.8953 -0.122523 
0.180604 14.8177 -0.120075 0.618596 13.9475 -0.103511 -0.449877 13.229 -0.111553 
-0.388954 13.2208 -0.110022 -0.383335 12.3002 -0.0963038 -0.0963087 14.855 -0.1149 
-0.707293 13.2684 -0.114574 -0.756125 13.284 -0.115217 0.478606 13.1693 -0.0950759 
0.12759 11.871 -0.0901385 0.381059 14.4249 -0.111472 -0.761088 13.1936 -0.112413 
-0.783208 13.2744 -0.114479 0.112286 12.3119 -0.095004 0.182828 11.3179 -0.0865877 
0.183117 11.302 -0.0841197 -0.0132131 15.0399 -0.119571 0.685842 13.8105 -0.101186 
0.929283 13.0883 -0.0879047 0.912221 13.1289 -0.0887173 0.940031 13.1292 -0.0869095 
0.928992 13.1648 -0.0855682 0.0571085 14.108 -0.104528 -0.579466 13.245 -0.112606 
-0.520297 13.2374 -0.11224 0.415654 11.8363 -0.0900432 0.9313 13.2028 -0.0860798 
0.906267 13.2046 -0.0855532 -0.648841 13.2564 -0.114596 0.864038 12.7806 -0.108531 
-0.714148 13.5501 -0.114116 0.863227 13.169 -0.0846455 0.809686 13.1673 -0.0851974 
0.227885 11.4269 -0.0886166 -0.544158 12.6336 -0.0992896 -0.466902 12.472 -0.0971628 
-0.0278245 14.9966 -0.115311 0.0957341 11.3255 -0.0873871 -0.107561 11.7398 -0.0925417 
0.360277 11.7164 -0.0901616 -0.23657 12.0006 -0.0947609 0.143556 11.2798 -0.084073 
0.123589 11.3288 -0.0849184 0.526126 14.1346 -0.106608 -0.428073 14.1709 -0.113144 
-0.312349 12.1551 -0.0957721 -0.690552 12.9594 -0.10665 -0.883637 13.6939 -0.114953 
-0.917523 13.6347 -0.1174 0.620836 13.1698 -0.0902685 0.555921 13.1697 -0.0923291 
0.104707 14.961 -0.122607 0.0783454 13.035 -0.103838 0.0793163 13.1814 -0.10624 
-0.0100108 13.1788 -0.109391 0.0255066 15.0776 -0.123667 -0.052398 13.398 -0.111095 
-0.243631 14.5534 -0.113945 0.117821 11.265 -0.0849028 0.144105 11.1987 -0.0888188 
0.0692408 13.6391 -0.100899 0.0760081 13.4608 -0.102277 -0.130749 14.4391 -0.112386 
-0.137527 14.6357 -0.109417 -0.0832711 14.5115 -0.110816 0.0665839 15.0229 -0.123862 
0.0194997 15.0161 -0.12244 0.81269 12.7163 -0.0870496 -0.351061 14.1909 -0.111497 
-0.311782 13.887 -0.103546 -0.407033 14.014 -0.1091 -0.363206 13.7031 -0.102862 
0.199434 11.3609 -0.0880814 0.169355 13.1843 -0.102971 0.0803029 13.3181 -0.103013 
0.691855 13.1686 -0.0887897 0.747561 13.1678 -0.0875082 0.150689 11.9496 -0.119978 
0.101172 11.9384 -0.120944 0.0956461 12.0788 -0.123229 0.234505 13.1746 -0.0993418 
0.114785 12.8266 -0.0676484 0.0632519 12.8241 -0.069643 0.0505677 12.9741 -0.0803363 
0.953543 13.164 -0.0853667 -0.770157 13.3449 -0.114684 -0.760834 13.4116 -0.113354 
0.113441 12.9718 -0.125789 0.117362 12.8192 -0.131228 0.851597 13.4518 -0.0959373 
0.900526 13.3206 -0.0915476 -0.0107982 15.0368 -0.122637 0.0278859 14.9367 -0.11861 
0.691756 13.7125 -0.0968849 0.678567 13.5062 -0.0957543 0.761443 13.5358 -0.0980387 
0.353996 13.1715 -0.0968732 0.338169 14.5099 -0.113011 0.0827756 15.0009 -0.122233 
-0.32212 13.2121 -0.109202 0.266312 11.5119 -0.0894452 0.0562756 14.7671 -0.141809 
0.0483534 14.8902 -0.139903 0.0177414 14.7776 -0.144527 0.000970529 11.5217 -0.0901454 
-0.0467885 11.6176 -0.0914478 0.745788 12.5613 -0.0868115 0.280551 14.6233 -0.115115 
-0.0537661 14.943 -0.11377 0.782413 12.7565 -0.0681962 0.229063 14.7247 -0.11818 
0.537187 12.1009 -0.0890344 0.044517 11.4339 -0.0890182 -0.724089 12.9769 -0.0825757 
-0.751631 13.121 -0.091397 -0.748272 13.1278 -0.121918 0.0480887 14.4134 -0.107706 
0.0521306 14.2783 -0.106103 0.676408 12.4072 -0.0871309 0.11242 12.9671 -0.0755545 
-0.498872 14.0232 -0.112742 0.223404 14.396 -0.104504 0.281009 14.5298 -0.11101 
0.217622 14.5904 -0.110486 0.309659 11.6062 -0.0898892 0.103526 11.3008 -0.0864619 
0.0745397 11.3721 -0.0880971 0.135267 11.6176 -0.0870041 0.0744472 15.0199 -0.123031 
0.64023 13.3369 -0.090249 0.614639 13.5786 -0.0912231 0.17174 14.6708 -0.115371 
0.173918 14.4247 -0.102474 0.15849 13.6641 -0.0950695 0.396366 14.0158 -0.101868 
0.391928 13.7896 -0.0999 0.460215 13.8463 -0.0991778 0.454853 13.6136 -0.0968538 
-0.190555 13.1943 -0.108569 0.131739 11.7413 -0.0881377 -0.449423 10.0567 -0.0061175 
-0.308721 10.3629 -0.00285195 -0.442948 10.0632 -0.147836 -0.491573 9.84477 -0.0754363 
-0.360727 10.1477 -0.0754489 0.615755 13.7973 -0.0997085 0.530169 13.6603 -0.100571 
0.0559715 12.9755 -0.128235 0.409865 14.2616 -0.105332 0.474493 14.1352 -0.101995 
-0.317646 10.462 -0.0118613 0.118023 12.1559 -0.0927092 -0.302565 10.378 -0.151504 
-0.224995 10.5023 -0.0757334 0.0477094 14.8901 -0.0979227 0.0553682 14.7589 -0.0857661 
-1.00962 13.9238 -0.113769 -1.03401 13.8239 -0.112909 -0.928017 13.5419 -0.118917 
-0.262471 13.2042 -0.108735 0.099351 14.7118 -0.110866 0.085988 14.8542 -0.126328 
0.161727 13.9247 -0.0984175 0.28341 14.3068 -0.104734 -0.757063 13.1685 -0.0950768 
-0.716415 13.0833 -0.122885 0.525958 13.9509 -0.0992433 0.426454 13.3639 -0.0975169 
0.353464 13.3805 -0.0960131 0.359466 13.5766 -0.0967542 0.343656 14.4145 -0.106926 
0.302383 13.5397 -0.0990982 0.297909 13.7257 -0.0953517 -0.230153 10.5831 -0.0806365 
0.423497 13.1705 -0.0965349 -0.71285 13.0701 -0.0858049 -0.722623 12.9777 -0.125944 
0.714954 13.3456 -0.0882028 0.921507 13.0159 -0.0882774 0.24769 13.913 -0.0966519 
0.203308 13.8244 -0.095977 0.195907 14.0126 -0.099038 -0.171412 11.8685 -0.0936611 
0.192761 13.3918 -0.10211 0.23577 13.4338 -0.100376 0.124603 14.6732 -0.107939 
0.131815 14.4195 -0.100937 -0.622278 12.8012 -0.10206 0.781292 13.3684 -0.0937944 
0.0164515 14.7788 -0.0866779 0.149398 11.9423 -0.0599842 -0.576592 13.8597 -0.113046 
0.141955 14.2769 -0.101184 0.106707 12.4568 -0.096845 -0.323084 10.462 -0.150672 
0.32995 13.9337 -0.0999451 0.146273 14.0467 -0.100394 0.0168131 14.8973 -0.138959 
0.180811 14.2273 -0.101673 3.11425 20.293 -0.122987 3.27403 20.5383 -0.122963 
3.09023 19.9955 -0.121789 3.2513 20.2415 -0.121718 -0.660307 10.7359 -0.0900386 
-0.544618 11.1053 -0.0924051 -0.502654 10.9485 -0.0916638 1.08713 11.8458 -0.091904 
1.2497 11.6442 -0.0904474 1.19134 11.4947 -0.0889231 -2.67347 15.7534 -0.128462 
-2.64456 15.4504 -0.126813 -2.78195 15.6653 -0.128097 1.34125 15.9184 -0.114762 
1.51534 16.0181 -0.113215 1.3604 15.6734 -0.112623 1.94947 16.3609 -0.110703 
1.91181 16.0016 -0.108362 2.12531 16.6754 -0.111108 2.08765 16.3128 -0.10877 
1.02326 15.2985 -0.113659 1.08583 15.1399 -0.111553 1.16445 15.695 -0.115045 
1.22135 15.5338 -0.113232 0.539355 1.82918 -0.00128539 0.413081 1.45746 0.00340398 
0.471763 1.44811 0.00119011 0.466183 1.82186 0.000201301 0.406653 1.82487 0.00101571 
0.363373 1.45951 0.00502943 0.487285 15.4594 -0.120808 0.633464 15.875 -0.124182 
0.668466 15.7494 -0.12087 0.803488 16.1557 -0.123813 1.08908 12.9001 -0.0877561 
1.19259 12.6467 -0.0933863 1.05939 12.8381 -0.0892216 1.15573 12.55 -0.0946238 
-1.25555 11.8756 -0.102688 -1.39637 11.7354 -0.101633 -1.34092 11.5605 -0.0999826 
2.31636 4.88124 -0.0363182 2.19529 5.00183 -0.0371855 2.13232 4.65192 -0.0337897 
0.211736 2.19173 -0.0042593 0.28591 2.59904 -0.00793677 0.143721 2.20405 -0.00565925 
0.2081 2.6133 -0.00888849 0.290194 2.19228 -0.00323553 0.380477 2.6105 -0.00753292 
0.361849 2.19969 -0.00296009 0.462439 2.61584 -0.00747319 0.966139 2.986 -0.0138541 
0.902022 2.59644 -0.0104169 0.818614 2.60656 -0.00974483 0.657841 1.0301 0.00168295 
0.685208 1.00864 0.000387911 0.504317 0.733103 0.00558591 0.519009 0.713182 0.00289558 
-2.92705 14.6533 -0.122586 -2.79292 14.4329 -0.121067 -2.89988 14.3275 -0.120547 
0.150869 0.517467 0.0201588 0.134505 0.520205 0.0205333 0.215434 0.818899 0.0133421 
-0.246098 0.804319 -0.00744014 -0.149058 0.488833 -0.0043497 -0.304274 1.10099 -0.009177 
-0.206879 0.782716 -0.00491183 -1.07114 9.73256 -0.0824476 -0.905869 9.95853 -0.0839779 
-1.10521 9.93239 -0.0845713 -0.936085 10.1535 -0.0859205 -0.319208 14.9271 -0.119419 
-0.468804 15.325 -0.129847 -0.372007 14.804 -0.116632 -0.512159 15.196 -0.128895 
-1.16395 16.5292 -0.134528 -1.01842 16.1031 -0.132912 -1.12348 16.6849 -0.135577 
-0.976119 16.2569 -0.133958 -0.735233 15.2887 -0.129896 -0.925145 15.554 -0.130537 
-0.884801 15.7071 -0.131163 2.93843 9.38169 -0.07137 2.78128 9.56745 -0.072635 
2.87726 9.72252 -0.0732892 -3.22636 28.1875 -0.17144 -3.03811 28.1281 -0.170828 
-3.09856 27.8141 -0.170161 3.54519 23.5167 -0.132975 3.52911 23.1288 -0.13169 
3.41134 23.346 -0.133158 3.39567 22.9579 -0.131862 -0.490861 11.6218 -0.0947899 
-0.398522 11.9696 -0.0947873 -0.551025 11.7823 -0.0960714 -2.77544 25.5759 -0.163425 
-2.70115 25.9255 -0.164225 -2.63434 25.5428 -0.163044 -2.55838 25.8935 -0.163826 
1.5016 18.4912 -0.130204 1.60329 18.9657 -0.131001 1.41742 18.6847 -0.132224 
-0.33185 11.8108 -0.0942755 -0.860283 11.4191 -0.0963044 -0.927267 11.5799 -0.0980079 
-0.770978 11.7611 -0.0985306 -0.842903 11.9173 -0.100356 -0.966605 11.0551 -0.0937758 
-1.01526 11.2335 -0.0954835 3.60177 27.6724 -0.146424 3.53878 27.3716 -0.145748 
3.46569 27.6377 -0.147013 0.993962 12.1945 -0.0962694 1.05625 12.3315 -0.0951926 
0.901434 12.5428 -0.0891042 1.56692 10.6251 -0.0823103 1.71082 10.5304 -0.0814783 
1.72363 10.2527 -0.0797767 -3.11624 10.9663 -0.0963216 -2.99601 11.1028 -0.0972493 
-3.10762 11.286 -0.099114 1.45604 10.0855 -0.0791283 1.61457 9.9131 -0.0778378 
1.49715 10.2576 -0.0801443 0.212282 3.9329 -0.021725 0.29446 4.41084 -0.0259982 
0.1637 4.43936 -0.0265921 1.88319 13.2847 -0.0903015 1.86632 12.9646 -0.0890972 
1.71495 13.1947 -0.090359 -0.686063 15.4358 -0.130663 -0.840572 15.8558 -0.132136 
2.92995 24.9847 -0.141324 2.75101 24.9441 -0.142159 2.90346 24.6685 -0.14046 
2.72525 24.6266 -0.141332 1.63131 13.8142 -0.0934369 1.70512 13.5689 -0.0919647 
1.49138 13.7585 -0.0937127 1.56305 13.5203 -0.0918876 0.695052 22.1087 -0.145396 
0.831024 22.6768 -0.145878 0.635268 22.6788 -0.146829 -0.0111766 26.8315 -0.15983 
0.148027 26.8269 -0.159332 0.0694096 27.1756 -0.160488 2.12533 27.7275 -0.153933 
2.18154 27.4418 -0.152785 2.29219 27.815 -0.153424 -4.26753 27.6497 -0.172548 
-4.18244 27.2995 -0.171393 -4.30674 27.4266 -0.172037 -2.10194 26.4835 -0.164414 
-1.9809 26.0577 -0.163005 -1.94621 26.4203 -0.163885 -1.82596 25.9949 -0.162497 
-2.71398 16.8954 -0.134164 -2.7842 17.261 -0.135883 -2.54594 16.6662 -0.132967 
-2.61632 17.0295 -0.134697 -2.20912 27.8807 -0.168289 -1.95224 19.3971 -0.144016 
-2.01725 19.8925 -0.145847 -1.71916 19.079 -0.143365 -1.78201 19.5787 -0.144778 
-1.51441 3.9574 -0.0320607 -1.33057 3.60402 -0.0291382 -1.42645 3.51365 -0.0285805 
2.84516 25.6255 -0.143784 2.69465 25.2532 -0.143419 2.89958 25.3153 -0.142522 
-0.674488 14.0761 -0.118314 -0.601957 14.2247 -0.119076 -2.71897 27.9842 -0.169711 
-4.64898 27.3394 -0.172674 -4.48973 27.1137 -0.171666 -4.57841 27.0214 -0.171629 
1.77187 13.8316 -0.0932223 -0.710394 9.13276 -0.0711015 -0.758736 9.28514 -0.0739983 
-0.839537 8.88926 -0.0703894 -3.91545 24.9834 -0.164257 -3.78776 25.1517 -0.164441 
-3.95281 25.387 -0.165497 -0.974399 8.61771 -0.0692187 -0.900592 9.0043 -0.0727124 
-2.67978 25.1979 -0.162185 -2.80825 25.1782 -0.162398 -2.56472 24.7592 -0.160713 
-2.69295 24.7405 -0.160945 2.15895 3.08244 -0.0187882 2.21496 3.01139 -0.017655 
2.00597 2.74967 -0.0151808 1.77641 12.6123 -0.0879915 1.87881 12.1852 -0.0866885 
1.94764 12.5304 -0.0872606 2.76716 7.65618 -0.0604561 2.64045 7.50694 -0.0593801 
2.78638 7.28143 -0.0575851 2.65438 7.12693 -0.0563564 -2.85156 5.49563 -0.0392214 
-2.9456 5.41225 -0.0368896 -2.79692 5.18915 -0.0357779 0.833242 12.3833 -0.0892342 
0.93174 12.0353 -0.0917298 -0.579868 8.2981 -0.0609144 -0.611534 7.77058 -0.0566539 
-0.710302 8.04392 -0.0597445 2.6863 11.4434 -0.0808373 2.73711 11.128 -0.0795028 
2.59277 11.3194 -0.0806308 -2.92477 24.4383 -0.160573 -3.03429 24.9089 -0.162127 
-2.8852 24.8361 -0.161605 2.82527 11.2444 -0.0796726 2.80574 11.5787 -0.0808775 
-0.314692 8.43566 -0.0606462 -0.470449 8.11912 -0.0584869 -0.437739 8.67248 -0.0629708 
-3.09609 15.3229 -0.12656 -3.08934 14.925 -0.1243 -2.96265 15.0788 -0.125089 
-2.79439 4.69576 -0.0280313 -2.71905 4.40108 -0.024211 -2.63209 4.45906 -0.0272361 
1.55612 11.2999 -0.0864486 1.73119 11.1905 -0.084906 1.66732 11.0092 -0.0842617 
-2.28406 3.39366 -0.0145334 -2.48536 3.68717 -0.0150639 -2.40927 3.7351 -0.0186938 
2.90768 19.4056 -0.120318 2.94734 19.8034 -0.121981 3.05187 19.5982 -0.120114 
1.81685 10.8721 -0.0827321 1.97393 10.6762 -0.0809972 1.87986 11.0639 -0.0832145 
2.44395 3.81651 -0.0265184 2.62211 4.04212 -0.0286552 2.56106 4.19422 -0.0303059 
2.73048 4.41094 -0.0324505 3.16719 8.58372 -0.0667131 3.29095 8.42721 -0.0658013 
3.20816 8.28973 -0.064832 -3.25272 8.74955 -0.074762 -3.13598 8.87252 -0.0760605 
-3.2258 9.04275 -0.0778234 -2.2748 27.5419 -0.16756 -2.38876 27.8756 -0.168685 
1.65377 12.9115 -0.0893744 -4.27548 26.1761 -0.168506 -4.40474 26.402 -0.169498 
-4.31341 26.5075 -0.169549 0.137644 0.182246 0.00567165 0.154976 0.184354 0.00540359 
0.309537 0.468409 0.00943014 -1.32368 27.6823 -0.165687 -1.20325 27.2941 -0.164384 
-1.13226 27.5938 -0.164976 -3.37824 22.2774 -0.154981 -3.41812 22.6769 -0.156296 
-3.50175 22.1556 -0.154829 -3.54348 22.5538 -0.156163 1.58345 11.4776 -0.0871038 
-3.3613 28.2299 -0.171857 -3.46435 20.6252 -0.14974 -3.50437 20.9392 -0.150876 
-3.61222 20.8566 -0.150807 0.878944 19.7358 -0.139856 1.09684 19.9623 -0.138688 
0.916636 20.3068 -0.140716 -2.98725 26.4004 -0.166135 -2.9153 26.7381 -0.166896 
-2.8434 26.3535 -0.1657 -2.76988 26.6919 -0.166443 -0.421167 27.5689 -0.163039 
-0.204076 27.5577 -0.162352 -4.02156 21.1675 -0.152733 -4.07008 21.5566 -0.154094 
-2.05063 26.8079 -0.16514 -3.93096 20.487 -0.150186 -3.98239 20.8602 -0.151563 
-3.82224 20.6359 -0.150475 -3.89687 26.2067 -0.167679 -4.01248 26.073 -0.167592 
-4.03656 26.5375 -0.16894 -3.50783 27.2744 -0.169679 -3.60822 27.6516 -0.170932 
-3.45027 27.5961 -0.170399 -3.55349 27.974 -0.171675 -3.36746 8.90758 -0.0764953 
2.17446 25.2748 -0.146247 2.08764 25.6138 -0.147678 1.98826 25.1748 -0.146896 
-1.1743 3.25453 -0.0262421 -1.23844 3.67449 -0.0294703 -2.60415 9.26843 -0.0803126 
-2.47251 9.09326 -0.0787889 -2.64357 8.85893 -0.0764019 -3.15455 9.73009 -0.0847863 
-3.03174 9.8678 -0.0859589 -3.10997 10.1154 -0.0884441 -2.98552 10.2547 -0.0895777 
-3.33982 9.19959 -0.0796651 -3.18989 9.43215 -0.081799 -3.06813 9.55996 -0.0830477 
-2.91124 9.77486 -0.0849771 -2.87287 10.0845 -0.0878897 -1.6849 11.9806 -0.10357 
-1.88417 11.8502 -0.102473 -1.78521 11.6566 -0.100967 -1.69295 24.6701 -0.158716 
-1.50984 24.5659 -0.15803 -1.62274 25.1033 -0.159694 -2.83455 16.8164 -0.133912 
-2.88574 17.1154 -0.135349 -2.99538 17.049 -0.135173 -1.88328 25.6367 -0.161682 
-1.72889 25.5436 -0.161086 2.4085 13.7029 -0.0901236 2.53636 13.5477 -0.0889394 
2.54895 13.8699 -0.0903085 -1.74819 26.3509 -0.16325 2.82767 8.47713 -0.0661756 
2.86835 8.15939 -0.0640396 2.97057 8.28962 -0.0648704 -2.1021 6.92936 -0.0583825 
-1.94195 6.73473 -0.0564651 -2.00021 7.29341 -0.0617761 -1.8465 7.10791 -0.0597768 
-3.33068 27.1971 -0.169075 -1.0781 18.2829 -0.14227 -1.01572 17.8947 -0.141604 
-1.17384 18.2316 -0.141774 -2.61309 3.58018 -0.00520703 -2.55127 3.59967 -0.00951672 
-2.7333 3.88062 -0.0100914 -1.26241 8.10402 -0.0664744 -1.11727 8.3359 -0.0674583 
-1.18952 7.86781 -0.0633591 0.0524769 0.510459 0.00657386 0.0170239 0.224328 0.00147454 
0.0291282 0.505189 0.00150267 2.06754 17.3475 -0.116436 1.83475 17.0123 -0.116761 
2.01606 16.9681 -0.114444 -1.41843 1.52391 0.0373871 -1.34446 1.4612 0.0259693 
-1.12044 1.1646 0.0338689 -1.07177 1.14983 0.0224292 1.41936 16.5235 -0.118358 
1.4624 16.305 -0.116081 1.63567 16.7415 -0.117299 -1.48251 25.9104 -0.161486 
-1.59279 26.3056 -0.162753 -1.63714 25.955 -0.161952 3.18336 25.0661 -0.140176 
3.17965 24.689 -0.138984 3.04901 24.8395 -0.140192 3.30095 24.5371 -0.137808 
3.44217 24.3914 -0.136541 3.28215 24.1693 -0.136705 -3.97825 28.4485 -0.17396 
0.152788 1.82359 -0.00129045 1.51551 7.92452 -0.0638889 1.60309 8.13049 -0.0656084 
1.67186 7.70846 -0.0618325 -3.09754 18.9919 -0.143312 -2.93897 18.7618 -0.142214 
-3.03904 18.6721 -0.142007 -1.32366 1.48747 0.0168698 -2.53083 26.9543 -0.166611 
-2.57747 26.627 -0.165846 -2.43388 26.5905 -0.165426 0.662371 7.34662 -0.0556772 
0.509359 7.65195 -0.0580858 0.654067 7.87271 -0.061119 0.49579 8.19808 -0.0634184 
2.2475 18.4478 -0.121259 2.20659 18.0858 -0.119611 2.10985 18.18 -0.121155 
0.653117 8.42061 -0.0676534 -0.326765 16.1175 -0.143134 -0.420071 16.6915 -0.139963 
-0.444766 16.3997 -0.143655 2.47535 16.3628 -0.105441 2.56946 16.2519 -0.103884 
2.4187 16.0607 -0.103802 -0.837301 9.61145 -0.0795514 -0.725904 10.0005 -0.083393 
-0.873867 9.77809 -0.0818476 0.19436 9.33517 -0.0724007 0.0167353 9.71962 -0.0724026 
0.20928 9.86657 -0.0829329 -0.064707 10.8321 -0.076262 1.83958 18.091 -0.123741 
1.98067 18.2695 -0.123129 1.76945 17.7057 -0.122237 1.91206 17.8855 -0.121648 
0.709081 12.0617 -0.0887649 0.866416 11.8785 -0.0903661 0.8063 11.7123 -0.0872481 
-0.922659 6.58017 -0.0493505 -0.805131 6.23394 -0.0460257 -0.765833 6.98444 -0.0517206 
-0.646891 6.63295 -0.0477554 1.43489 12.9556 -0.0896765 1.49879 13.2312 -0.0906052 
-1.258 9.74506 -0.0833056 -1.39681 9.60172 -0.0825163 -1.29388 9.9507 -0.0853911 
2.81625 3.84815 -0.0254165 2.75612 3.88233 -0.0263135 2.9503 4.17988 -0.029264 
-0.684482 12.1114 -0.100275 3.02413 16.8749 -0.104202 2.8871 16.6805 -0.104092 
2.99371 16.518 -0.102209 -1.08594 3.2864 -0.0261811 -0.926337 2.91509 -0.022977 
-1.0068 2.883 -0.0231371 -0.455988 2.60795 -0.0182957 -0.435905 2.18311 -0.015882 
-0.528887 2.58604 -0.0187529 -0.498814 2.1634 -0.0161548 3.03358 26.6605 -0.146061 
3.17317 26.5772 -0.145049 3.01346 26.309 -0.145052 -0.210867 15.4304 -0.129711 
-0.373733 15.8805 -0.141318 -0.215438 15.395 -0.125036 -0.379778 15.8272 -0.142795 
-0.458528 1.80367 -0.013865 -0.524435 1.78458 -0.0139928 -0.575783 2.14206 -0.0164577 
-2.53567 12.3189 -0.106339 -2.55093 12.0193 -0.10409 -2.41876 12.1254 -0.104802 
-2.43828 11.8287 -0.102515 0.993667 0.986891 0.0176308 1.45906 1.57721 0.0198337 
1.07714 1.10583 0.0335166 2.63717 3.58648 -0.0228292 -2.25697 16.5255 -0.132173 
-2.17588 16.1548 -0.130351 -2.43099 16.7972 -0.133498 -2.34991 16.4237 -0.131704 
1.94792 18.5382 -0.124989 3.10325 27.0622 -0.146976 2.95507 27.0476 -0.147687 
3.02856 27.3694 -0.148358 3.67161 28.0779 -0.147417 3.79094 27.7889 -0.14581 
2.35746 27.4864 -0.152088 2.41792 27.1715 -0.150804 2.50065 27.5188 -0.151484 
3.24213 26.9776 -0.146004 3.31103 27.3129 -0.14674 3.20691 27.3436 -0.147361 
3.27778 27.6796 -0.148102 -1.95008 12.8799 -0.109934 -1.82299 12.5585 -0.107829 
-2.00384 12.4315 -0.106909 -0.361679 2.60011 -0.0173169 -0.353994 2.1899 -0.0151858 
2.56927 27.2195 -0.150192 2.64712 27.544 -0.150839 -3.05806 14.5949 -0.122431 
-1.98723 4.40755 -0.0347881 -2.05248 4.75439 -0.0379107 -1.88136 4.5367 -0.0364889 
-3.03209 26.0204 -0.165198 -2.88965 25.9912 -0.164814 -0.768739 12.7476 -0.103438 
-0.693188 12.599 -0.0989939 -0.835019 12.4169 -0.104516 0.339351 0.458734 0.00283441 
0.359085 0.452933 -0.000162514 -2.09114 4.23803 -0.0321469 -2.16507 4.58269 -0.0354079 
-1.74688 6.19074 -0.0511798 -1.72693 5.71195 -0.0469145 -1.88857 5.89909 -0.048797 
-2.73491 5.63141 -0.0424162 -2.6858 5.32072 -0.0389802 -3.64667 27.3253 -0.170145 
-3.56009 26.9531 -0.168933 2.71907 4.02212 -0.0282337 2.51724 3.73936 -0.0255816 
2.81414 4.31537 -0.0314698 -3.29943 26.5022 -0.167106 -3.12753 26.4338 -0.166537 
-3.23795 26.8239 -0.167837 1.96664 14.6479 -0.0973389 2.06386 14.5189 -0.0960043 
2.00553 14.986 -0.099611 2.0979 14.8621 -0.0980136 3.0189 10.2433 -0.0754426 
3.22155 5.77721 -0.0454167 3.18612 5.51028 -0.0429793 3.09347 5.60879 -0.0438213 
2.46241 4.25157 -0.0308514 2.64538 4.50827 -0.0334597 2.54668 4.63323 -0.0345374 
3.12659 5.90181 -0.0463923 2.93763 5.38715 -0.0417134 3.04102 5.25824 -0.0405621 
1.12165 9.36996 -0.076798 1.00307 9.77808 -0.0794161 1.08019 9.21941 -0.076396 
0.971599 9.63617 -0.0795237 -2.68501 11.7834 -0.102403 -2.5803 11.6164 -0.100967 
-2.66038 12.19 -0.105545 2.44947 10.7419 -0.0790258 2.34527 10.5917 -0.0788484 
2.52315 10.3847 -0.0772783 3.03986 4.46755 -0.0324752 2.88396 4.24764 -0.0303723 
3.12807 5.16856 -0.0397393 2.8316 5.51236 -0.0427439 2.78556 5.20278 -0.0400117 
-1.97206 8.18169 -0.0701483 -2.00136 7.70315 -0.0656347 -1.78821 8.07986 -0.0688192 
-1.81421 7.59631 -0.0642537 -2.81061 11.9741 -0.104041 -2.91004 12.1556 -0.105715 
-2.76149 12.3761 -0.107079 -3.81539 21.4146 -0.153075 -3.91275 21.324 -0.15299 
-3.77789 21.0942 -0.151928 -1.09332 6.53841 -0.0505904 -0.911213 7.18487 -0.0544781 
-1.08098 7.12693 -0.0553208 1.77161 11.3969 -0.0850373 1.62364 11.6739 -0.087538 
2.03949 11.445 -0.0835023 2.14893 11.5642 -0.0832453 2.2138 11.2625 -0.0818967 
2.17643 12.3927 -0.086009 2.31376 12.2423 -0.0849661 2.22766 12.0133 -0.0844726 
2.36705 11.8599 -0.0833482 -2.12715 12.1939 -0.105184 -2.29975 11.9864 -0.10369 
-2.13103 12.4701 -0.107189 -2.30169 12.2635 -0.1058 2.58928 12.1398 -0.0835459 
2.48946 12.0118 -0.0834092 2.62808 11.8267 -0.0823431 1.89793 26.3259 -0.15073 
1.98041 26.6937 -0.151437 1.82075 26.6566 -0.152068 0.573228 0.740078 -0.00220093 
0.733003 1.00503 -0.00186848 -0.931968 4.41471 -0.0331643 -0.781146 4.57372 -0.0333213 
-0.793405 3.95523 -0.0291121 -0.801526 0.806617 0.0334706 -0.528358 0.496397 0.0301839 
-0.776057 0.750723 0.0517533 -1.76276 4.70388 -0.0382716 -1.81323 5.08145 -0.0415048 
-1.64719 4.82153 -0.0392035 -0.0236523 26.0566 -0.157836 0.17966 26.05 -0.157143 
0.0843037 25.6603 -0.156458 -0.982787 3.38296 -0.0265462 -0.885463 3.40828 -0.0261217 
-1.02234 3.84504 -0.0296931 0.252896 26.4454 -0.15792 0.0477055 26.4499 -0.158625 
0.361681 25.2558 -0.154416 0.427521 25.6858 -0.155267 0.517864 25.2938 -0.153941 
-4.14358 23.4986 -0.160389 -4.17388 23.8097 -0.161404 -4.27264 23.6949 -0.1613 
-0.19252 25.2456 -0.156295 0.00746265 25.23 -0.155606 -0.116939 25.6732 -0.157142 
-3.09602 22.2048 -0.154256 -3.25264 22.4267 -0.15522 -3.22588 22.0746 -0.15407 
3.24929 23.1089 -0.133285 3.23736 22.7838 -0.132211 3.38232 22.6349 -0.130767 
-2.07569 15.1493 -0.124798 -2.0684 14.7895 -0.12264 -1.95019 14.8164 -0.122803 
3.09757 18.832 -0.115641 2.98233 18.9647 -0.117343 3.13749 19.1573 -0.117093 
3.02022 19.2913 -0.118811 0.333787 26.0676 -0.156683 0.237372 25.6758 -0.155956 
3.468 25.4714 -0.139931 3.4641 25.0917 -0.13872 3.31434 25.2384 -0.14001 
3.33993 26.2988 -0.143276 3.1731 26.1863 -0.143809 3.31953 25.9549 -0.142307 
-0.939369 1.38288 -0.0103796 -1.01686 1.41274 -0.00839712 -0.792477 1.1025 -0.00923737 
2.15409 2.55884 -0.00659233 1.88315 2.17667 -0.00303998 2.13941 2.59197 -0.00951556 
2.24349 27.1262 -0.151507 -2.85862 21.1845 -0.15065 -2.90604 21.6004 -0.152067 
-2.73543 21.2786 -0.150802 -2.78005 21.6962 -0.152197 -0.020618 22.6785 -0.149359 
-0.231335 22.8654 -0.150625 -0.133406 23.3096 -0.151345 2.8622 17.1961 -0.107644 
2.68367 16.932 -0.107473 2.91269 17.5102 -0.109283 2.73513 17.2455 -0.109065 
3.18167 25.7934 -0.142516 -0.274386 25.6951 -0.157703 1.10747 2.05671 -0.0085179 
1.16223 2.01004 -0.00834444 0.974699 1.72129 -0.00550123 0.700866 10.2981 -0.0847556 
0.688094 10.1911 -0.0866951 0.549887 10.591 -0.0864448 -0.150598 9.40143 -0.0662801 
0.0109609 9.16101 -0.0670276 -0.980266 25.8381 -0.160043 -0.78065 25.807 -0.159435 
-0.888383 25.4841 -0.158889 -0.689751 25.4549 -0.158294 0.253746 19.4518 -0.143571 
0.315833 18.8082 -0.142275 0.486424 19.1283 -0.141731 -2.58403 18.3092 -0.140069 
-2.46867 18.4453 -0.140536 -2.6688 18.6179 -0.141363 -2.55169 18.755 -0.141783 
-0.317057 4.43202 -0.0290968 -0.188393 4.44441 -0.028276 -0.235946 3.95545 -0.0248478 
-2.9638 24.0664 -0.15959 -3.07246 24.5354 -0.161143 0.0115144 6.21831 -0.0427074 
0.00290067 5.73987 -0.0385647 0.177627 5.85344 -0.0395178 2.63472 23.3891 -0.137984 
2.82336 23.6159 -0.137571 2.62087 23.0282 -0.136899 2.80842 23.2563 -0.136504 
2.0415 12.2509 -0.0860567 2.07003 11.9662 -0.0850113 -0.109764 26.4567 -0.159163 
-4.1947 22.643 -0.157881 -4.074 22.7978 -0.15807 -4.03324 22.3903 -0.156689 
1.39598 13.489 -0.0927619 1.32777 13.2075 -0.090693 -0.177993 0.175406 -0.00270973 
-2.51183 17.9056 -0.138385 -2.43237 17.5609 -0.136855 -2.40426 18.0373 -0.138879 
-2.32577 17.6923 -0.137413 -2.61834 17.8001 -0.138029 -2.69148 18.2044 -0.139746 
-3.06089 16.5875 -0.133111 -3.16179 16.5082 -0.132847 -2.99362 16.2126 -0.13119 
-3.09611 16.1301 -0.130885 -0.64593 11.4333 -0.0952334 -0.705313 11.5992 -0.097278 
-2.70174 10.5878 -0.0923569 -2.74434 10.212 -0.088988 -2.83146 10.4599 -0.0913025 
1.30264 20.1645 -0.137532 1.13507 20.6062 -0.139857 -2.61344 10.137 -0.0883173 
-2.77822 9.91555 -0.0862873 -2.65975 9.7405 -0.0846984 -2.33863 10.4343 -0.0910156 
-2.21347 10.2792 -0.089637 -2.48109 10.2707 -0.089525 -2.35506 10.1141 -0.0882259 
-1.73429 16.0112 -0.129645 -1.89875 16.2494 -0.130874 -1.80225 15.8609 -0.128898 
1.92101 11.2928 -0.0837698 2.01535 10.9978 -0.0820703 -2.47192 3.26989 2.14127e-05 
-2.28077 2.88787 0.00670464 -2.41786 3.28644 -0.00445684 -2.23268 2.89866 0.00122814 
-1.66208 13.9037 -0.116782 -1.5398 13.58 -0.114387 -1.77798 13.7823 -0.11599 
-1.66461 13.4569 -0.113849 -4.21271 25.435 -0.166268 -4.24243 25.8574 -0.167545 
-4.08595 25.6039 -0.166436 -2.10447 2.96878 -0.0097288 -2.31999 3.27061 -0.00939832 
0.320906 18.2643 -0.142069 0.491658 18.6027 -0.141373 2.67953 13.0208 -0.0862414 
2.67571 13.3478 -0.0874026 2.79333 16.7892 -0.105592 3.49493 26.155 -0.142017 
3.49977 26.5533 -0.143284 -3.37208 25.0316 -0.163182 -3.22912 24.9366 -0.162614 
-3.45677 25.4895 -0.164656 -3.31287 25.3956 -0.164081 -3.4178 8.24736 -0.0691244 
-3.30261 8.06654 -0.0671314 -3.40398 7.96295 -0.0658098 -0.906825 2.04158 -0.0170345 
-1.00582 2.43321 -0.0200052 -1.07277 2.37912 -0.0196543 -0.348339 4.97146 -0.0333991 
-0.210351 4.98849 -0.0329618 -3.23349 5.85849 -0.0394696 -3.10607 5.64644 -0.0379232 
-3.14255 5.92854 -0.0416852 -0.74872 1.70521 -0.0143143 -0.799538 1.69356 -0.0143639 
-0.599203 1.37944 -0.0114492 -0.640281 1.36767 -0.0115702 -0.160286 0.176256 -0.00209146 
-0.357259 0.487505 -0.00791842 -0.321988 0.467453 -0.00503538 -0.966 14.0323 -0.118011 
-0.915055 14.1647 -0.123266 -1.1007 14.2393 -0.11929 -1.06099 14.372 -0.121277 
1.40237 14.1738 -0.0980497 1.56568 14.3263 -0.0977053 1.45147 13.9768 -0.0958137 
-0.36511 0.781733 -0.00692129 -0.497523 1.06669 -0.0090048 -0.464175 1.07406 -0.00914416 
-1.72507 10.4821 -0.0912611 -1.59604 10.5817 -0.0919072 -1.6488 10.7961 -0.0938969 
-1.51924 10.8984 -0.094578 2.88166 26.7494 -0.147128 2.86123 26.397 -0.14611 
1.19418 12.1401 -0.0942994 1.3435 11.9458 -0.0913827 1.29593 11.8043 -0.091203 
-1.41823 6.12997 -0.0493187 -1.19944 5.90351 -0.0458843 -1.38947 6.5755 -0.0528019 
-1.17609 6.36075 -0.04977 -1.29874 4.15683 -0.0331841 -1.45278 4.49286 -0.0361872 
-1.4152 4.02527 -0.032495 -1.57667 4.36395 -0.035504 2.07032 5.15465 -0.0382601 
1.99794 4.68844 -0.0337292 -1.51674 14.6375 -0.121581 -1.48855 14.8489 -0.12299 
-1.39533 14.3294 -0.119259 -1.36846 14.5328 -0.120764 -2.22352 14.9943 -0.123982 
0.523578 1.11279 -0.000804055 0.380496 0.814687 -0.00101426 0.483209 1.11613 -0.00117302 
-1.90807 12.1615 -0.104914 0.636905 2.6167 -0.00826566 0.541423 2.61705 -0.00771391 
0.668715 3.01873 -0.0122168 0.563016 3.0207 -0.0118908 0.737828 1.81946 -0.00462445 
0.89424 2.15265 -0.00766628 0.825067 2.17835 -0.00702313 0.227177 1.13776 0.0117857 
0.258706 1.45728 0.00645049 0.307745 1.46376 0.00625692 -1.9609 14.4476 -0.120485 
-1.80817 14.1286 -0.118481 -1.83919 14.4768 -0.120591 0.27793 1.82727 0.00124427 
-1.69053 14.2485 -0.119166 0.16412 17.9685 -0.141861 0.200465 17.3472 -0.140625 
-0.00231598 17.6183 -0.142585 2.79182 17.6385 -0.111126 -1.36638 12.225 -0.105379 
-1.30847 12.0474 -0.104095 -1.21549 12.3545 -0.106377 2.45751 5.92504 -0.0459725 
2.59016 5.78089 -0.0448274 2.42202 5.60553 -0.0430542 2.5499 5.46496 -0.0419709 
-1.16949 12.1919 -0.105472 0.620518 24.8975 -0.152466 0.754711 24.9892 -0.152168 
0.653413 25.3828 -0.153607 -1.22029 13.5455 -0.114396 -1.31118 13.2907 -0.112359 
-1.13539 13.3 -0.112136 0.785456 14.0398 -0.106457 1.85271 15.6281 -0.106089 
1.71658 15.2563 -0.104368 1.74639 15.7343 -0.107956 1.60987 15.3539 -0.106871 
0.517397 10.3534 -0.0936511 0.590334 9.88855 -0.0867403 0.470124 10.2566 -0.0876248 
1.63245 16.3967 -0.114836 0.895692 9.36235 -0.0794256 0.942306 9.49444 -0.0795545 
0.807252 9.78509 -0.0831685 -0.114983 3.96171 -0.0239623 0.715712 9.55045 -0.082561 
0.639821 9.99823 -0.0881142 -1.58615 2.26118 -0.0100539 -1.32284 1.85127 -0.00869251 
-1.4654 1.94713 -0.00517096 -0.137715 9.93 -0.0691281 -0.162706 10.3372 -0.0709905 
-0.272185 9.94798 -0.0704019 0.337822 10.6661 -0.082337 0.377006 10.0823 -0.0852968 
0.133154 10.4606 -0.0628799 1.68725 16.2307 -0.112915 1.68971 16.5744 -0.115419 
-3.96202 27.4847 -0.171335 -4.12979 27.5596 -0.171965 -4.07071 27.8637 -0.17263 
-1.44255 14.096 -0.117878 -1.53263 14.3822 -0.119808 -1.30014 14.0474 -0.117814 
-2.35075 15.0234 -0.124161 -2.35628 15.292 -0.12564 -1.92853 15.1343 -0.124708 
-1.80088 14.8027 -0.122865 -1.75804 14.9788 -0.123926 1.0691 13.4403 -0.0881275 
1.08795 13.3738 -0.0906208 1.19064 13.6033 -0.0942512 -2.19948 11.1827 -0.0972282 
-2.35537 11.2935 -0.0982319 -2.21361 11.5264 -0.100025 0.992103 13.5815 -0.0960188 
1.07953 13.9406 -0.101244 1.1287 13.8308 -0.0984228 2.72449 12.2913 -0.0834536 
1.03501 13.5139 -0.0910979 2.61467 10.4954 -0.0774385 2.5425 10.855 -0.0790965 
-2.4459 4.20508 -0.026746 -2.54272 4.5962 -0.0310754 -1.55793 11.5943 -0.100573 
-1.72432 11.4363 -0.0993091 -1.48284 11.4243 -0.0990562 -1.6478 11.2534 -0.0977602 
-1.42168 12.4418 -0.107127 -1.51779 12.1169 -0.10448 -0.561552 19.3149 -0.144979 
-0.739736 18.9904 -0.144162 -0.770969 19.6574 -0.145395 -0.62489 10.5685 -0.0887087 
-0.783897 10.3533 -0.0873169 0.579398 1.44238 -0.00180725 0.633143 1.43975 -0.00206291 
2.22111 20.7165 -0.131868 2.20245 20.2992 -0.130426 2.05505 20.4577 -0.132249 
2.03686 20.0392 -0.130907 3.51172 20.5778 -0.121415 3.40814 20.7171 -0.122771 
3.56247 20.9412 -0.122717 -0.572269 10.2395 -0.0853035 -0.598112 10.3966 -0.0873191 
-1.45583 11.9218 -0.103092 -1.62007 11.7959 -0.102134 -2.40231 5.1911 -0.0402782 
-2.23528 4.99465 -0.0392814 -2.34461 4.86436 -0.0370316 1.62771 25.8838 -0.15072 
1.52793 26.2498 -0.152223 1.7084 26.2524 -0.151401 1.61168 26.6183 -0.152922 
0.699073 27.5812 -0.159457 0.5916 27.2046 -0.158779 0.518189 27.5111 -0.159894 
-0.959776 17.2149 -0.140081 -1.09701 17.4685 -0.139801 -1.00025 17.0647 -0.138875 
-0.809301 16.9107 -0.140247 -0.762 17.0319 -0.141129 -0.906681 17.3172 -0.140718 
-0.844473 17.452 -0.140993 2.0654 9.17672 -0.0722029 2.22389 8.94893 -0.0703082 
2.09949 8.80828 -0.0696437 -1.21579 13.0396 -0.111461 -1.39341 13.0044 -0.110973 
-1.31616 12.7575 -0.109494 -2.15569 5.50632 -0.0448627 -1.99074 5.32533 -0.0435069 
-2.02763 5.70795 -0.0470258 -3.44452 26.5543 -0.167585 -3.34888 26.1548 -0.166257 
2.23915 22.5873 -0.137944 2.04756 22.3984 -0.138604 2.23206 22.238 -0.13693 
2.17701 6.69161 -0.052515 2.03195 6.88109 -0.054131 2.18261 6.2466 -0.0485039 
2.04286 6.43038 -0.050028 -3.31916 7.12493 -0.0559244 -3.21798 7.22493 -0.057773 
-3.3201 7.41894 -0.0595364 -3.20344 26.0899 -0.165761 0.388327 10.8305 -0.0815587 
0.361837 10.776 -0.0841933 1.22567 26.9309 -0.155514 1.11409 26.542 -0.154872 
1.01796 26.9096 -0.156293 2.41116 21.3591 -0.132715 2.41439 21.68 -0.133852 
2.22944 21.4798 -0.134533 2.22953 21.8037 -0.135568 1.76296 27.6588 -0.155386 
1.8222 27.3688 -0.154226 1.66387 27.3318 -0.154819 2.53834 16.74 -0.107441 
2.58244 17.0352 -0.109047 2.36395 16.4958 -0.107356 2.40852 16.7893 -0.109002 
-0.787577 14.4651 -0.128199 1.58876 27.68 -0.156223 -0.0617507 0.190757 -0.00474174 
1.83605 21.7356 -0.138087 1.83259 21.2612 -0.136653 2.04194 21.5993 -0.136163 
-3.86636 25.8505 -0.166614 -3.98199 25.7175 -0.166509 2.31665 16.9509 -0.111068 
2.25706 16.5662 -0.10891 2.46745 17.1757 -0.111116 0.347137 9.04949 -0.0727884 
0.505892 9.24151 -0.0764499 0.365507 9.53918 -0.0783916 -1.04482 26.188 -0.161126 
-1.24579 26.2368 -0.161752 -0.98411 26.5408 -0.161868 -1.18758 26.587 -0.162513 
3.16581 24.3623 -0.138001 0.21839 0.181741 -0.00726431 0.230569 0.181795 -0.00221377 
0.322219 0.464756 0.0137586 0.166455 0.178574 -0.00155497 -2.56367 19.0172 -0.1428 
-2.38962 18.6642 -0.141378 0.263728 0.234334 -0.000486308 0.469899 0.50035 -0.00289048 
0.196141 0.170475 -0.00207239 0.509616 0.516068 0.00436459 2.39684 13.3831 -0.0888653 
2.25139 13.5117 -0.0899878 2.24527 13.1967 -0.0886988 1.17417 1.39609 -0.0020556 
1.06413 1.19225 0.0021037 1.4436 1.72394 -0.0032307 1.35435 1.53243 0.00080922 
2.52652 24.0314 -0.140622 2.35207 24.2561 -0.14226 2.56801 24.502 -0.141823 
-4.01538 27.2253 -0.17077 2.74386 7.96602 -0.062729 2.70919 8.35381 -0.0654585 
2.00824 8.63321 -0.0685912 1.88017 8.90512 -0.0707949 1.85467 8.65568 -0.0690905 
-2.26428 12.6526 -0.10861 -2.37941 12.516 -0.107731 -2.72439 18.9978 -0.142855 
-2.73525 19.2617 -0.143865 3.57189 24.5503 -0.136356 3.5653 24.2237 -0.135296 
-0.291449 2.61683 -0.0165643 -0.293018 2.20517 -0.0145731 3.03219 8.76121 -0.0678008 
2.98096 9.10974 -0.0698748 3.11962 8.92787 -0.0687566 2.88061 8.95148 -0.0690781 
3.58502 24.9265 -0.137529 3.45445 24.7672 -0.137721 2.73178 15.679 -0.0989228 
2.67962 15.3031 -0.0970213 2.63222 15.8089 -0.100487 2.57726 15.4375 -0.0985147 
-0.750161 13.9169 -0.117863 -0.822106 13.8001 -0.118318 -2.05011 14.2104 -0.119042 
-2.21855 14.3009 -0.119662 -2.17286 13.9813 -0.117632 -0.466895 0.501069 -0.000426358 
-0.438727 0.498951 -0.00751639 -0.201169 0.180918 -0.00103872 -3.61846 22.001 -0.154566 
-3.66137 22.4037 -0.155925 -0.43045 11.4683 -0.0927965 -0.3831 11.3139 -0.092197 
1.73523 14.4077 -0.0972052 1.67962 14.6401 -0.0996657 -0.835199 18.6261 -0.14385 
-0.868382 19.2857 -0.144854 -3.07134 10.4153 -0.0912053 -2.37167 6.06248 -0.0495197 
-2.22756 6.26873 -0.0520032 -2.20081 5.84619 -0.0479769 -0.247075 10.656 -0.0876829 
0.975405 11.5217 -0.0888452 1.14475 11.324 -0.0875396 1.09033 11.1681 -0.0857561 
0.758689 3.02042 -0.0126997 0.91092 3.49908 -0.0179839 0.78176 3.50342 -0.0173533 
3.36415 22.2582 -0.129467 3.22355 22.4022 -0.130909 3.43054 24.0523 -0.135476 
3.27132 23.8303 -0.135636 3.41777 23.6781 -0.134271 -1.76476 2.26798 -0.000622351 
-1.98291 2.68849 -0.00533003 -1.77779 2.19847 0.00493951 -2.00842 2.6199 -0.0010714 
-1.96081 9.01448 -0.0781286 -1.92529 9.42486 -0.0819108 -2.05329 9.24113 -0.0802599 
-2.01528 9.64965 -0.0840243 0.682663 3.50382 -0.0169425 -2.11573 10.1226 -0.088311 
-2.25404 9.97672 -0.0870024 -0.092787 10.9214 -0.0803642 1.53748 4.74019 -0.032623 
1.5892 5.17018 -0.0367888 1.35921 4.75563 -0.0319183 1.40732 5.19249 -0.036493 
-1.35256 8.26017 -0.068736 -1.50325 8.10889 -0.0680801 -1.41544 8.49095 -0.0715443 
-3.03005 21.4457 -0.151736 -4.57092 26.6173 -0.170506 -4.4514 26.7904 -0.170689 
-0.554433 15.0537 -0.12603 0.145471 12.088 -0.0612457 -2.55743 7.35893 -0.0618508 
-2.71354 7.15631 -0.0592908 -2.56066 6.94988 -0.057767 1.23313 4.95037 -0.0331182 
-3.66013 18.743 -0.143303 -3.56404 18.9121 -0.143766 -3.4969 18.5234 -0.142135 
0.942669 17.2745 -0.133721 1.00337 17.1338 -0.130774 0.859311 16.8711 -0.132378 
-3.69615 21.5753 -0.153355 -3.55099 21.3372 -0.15228 -3.58588 21.6566 -0.153396 
2.48592 14.7575 -0.0950813 2.59888 14.589 -0.0935534 2.3417 14.5884 -0.0949187 
2.45538 14.4189 -0.0934055 -3.5256 20.1719 -0.148294 -3.56664 20.4833 -0.149434 
-3.68614 20.4028 -0.149365 -3.72628 20.7139 -0.150544 -3.2639 19.2224 -0.14443 
-3.36549 19.1449 -0.144311 -3.41655 19.4535 -0.145541 -3.31223 19.5238 -0.145622 
-4.3721 28.0278 -0.173825 -4.20904 27.9545 -0.173236 0.0935241 12.0855 -0.0626968 
2.60951 18.137 -0.115915 2.57027 17.8484 -0.114507 2.72668 18.0198 -0.114116 
2.68615 17.7312 -0.112684 -3.41731 7.32821 -0.0580808 -2.10706 2.57446 0.0122826 
-2.33124 2.90311 0.0122716 0.94246 13.7393 -0.100357 -0.979132 10.3327 -0.0877092 
-1.1395 10.1371 -0.086547 -1.45387 10.7405 -0.0929104 -1.36066 11.0848 -0.0957355 
-1.30766 10.9001 -0.0938986 -2.73998 15.3353 -0.126257 -2.86172 15.1789 -0.125458 
-2.68597 14.924 -0.123878 -2.43101 14.8941 -0.123431 -2.55141 14.7195 -0.122512 
-2.36546 14.4472 -0.120757 0.497543 7.08223 -0.0519602 0.666835 6.73651 -0.0492425 
1.1402 3.46266 -0.0189787 1.29688 3.80826 -0.0230343 1.19234 3.90588 -0.02316 
-2.51716 20.7212 -0.148763 -2.65161 20.5724 -0.148417 -2.70909 20.9567 -0.149705 
-2.66272 16.5984 -0.13272 -1.68739 7.90187 -0.0668289 -1.55567 8.34353 -0.070712 
-2.49553 14.0348 -0.118249 -2.63213 14.218 -0.119571 -2.61331 13.9135 -0.117572 
1.21568 12.7729 -0.0901829 1.48186 14.4815 -0.100333 1.59492 14.8037 -0.101751 
1.44202 14.6593 -0.102632 -1.46151 8.72128 -0.0741225 -1.6123 9.3203 -0.0803836 
-1.66236 8.90734 -0.0765927 -1.7697 9.28899 -0.0804467 -1.81779 8.87884 -0.0766078 
-0.767547 27.5417 -0.163916 1.82527 13.4721 -0.0911841 -3.19093 5.57298 -0.035466 
-0.0215488 0.21665 -0.00195049 -2.95246 15.9035 -0.129553 -2.83995 16.0529 -0.130194 
-1.61323 8.67392 -0.0741573 -1.70651 8.30363 -0.0708005 -0.279728 22.2633 -0.149308 
-0.318898 21.5528 -0.148123 -0.0570317 21.9687 -0.147923 3.51766 22.8152 -0.130611 
3.50356 22.5024 -0.129535 -3.4434 6.96621 -0.053291 -2.11601 25.3141 -0.16132 
-2.02876 24.8944 -0.160016 -1.96593 25.253 -0.16085 -4.31254 25.323 -0.166198 
-4.17766 25.0889 -0.16519 -0.482312 6.95882 -0.0497333 -0.309481 6.75762 -0.0472987 
-0.482259 6.44201 -0.0457062 -0.614294 6.07523 -0.0432676 -1.10722 1.44759 -0.00555483 
-0.935744 1.15832 -0.00339031 -0.856574 1.12615 -0.00712809 -0.30687 9.47159 -0.0667191 
-0.495132 0.507458 0.00486069 -0.736189 0.814605 0.00921927 -0.998339 1.1759 0.00279657 
-0.643452 0.790356 -0.00279908 -0.68082 0.790512 -0.000565551 -0.0279741 0.187566 -0.000991051 
-0.0739161 0.497427 -0.00394385 -0.0536358 0.500425 -0.00714271 0.812546 5.28681 -0.0348922 
0.832179 5.95586 -0.0419921 0.662955 5.5284 -0.0371222 0.670704 6.21268 -0.0439204 
1.45128 9.12138 -0.0734307 1.41514 8.91298 -0.0722237 1.55875 8.7312 -0.0704265 
1.51431 8.51729 -0.0689684 0.0886423 0.809084 0.011912 0.0619485 0.805115 0.00733574 
0.142365 1.13773 0.00850789 0.104686 1.1327 0.00556094 0.0978249 1.45395 0.000909221 
0.0503399 1.46268 -0.00162102 0.0595906 1.1281 0.00142087 2.09691 3.17996 -0.0202029 
1.95475 2.84643 -0.016752 1.51892 5.74033 -0.0421473 0.512871 8.712 -0.0701455 
0.0290323 0.825231 -0.00018492 2.88368 5.09037 -0.0388607 2.72637 4.88873 -0.037009 
2.81077 4.71928 -0.0354713 -0.308453 5.55696 -0.0379374 0.0955299 1.83341 -0.00317206 
0.0224924 1.82869 -0.00565919 1.14477 11.9924 -0.0937967 0.608535 0.736075 -0.00138801 
0.851854 1.0413 -0.00275566 0.418326 0.46883 -0.0041271 0.663972 0.767776 -0.00265898 
-0.140991 5.43479 -0.0362131 -1.02312 25.4058 -0.159074 -1.11071 25.0179 -0.158293 
-0.9133 24.9755 -0.157648 0.961607 26.5247 -0.155447 1.03267 26.1808 -0.154176 
-0.00897628 6.79887 -0.0473464 0.158515 6.52853 -0.045476 0.346263 6.78853 -0.0482571 
0.324785 6.14546 -0.0423059 0.510166 6.5437 -0.0467817 0.478907 5.91397 -0.0403415 
-4.04768 25.2 -0.165191 -4.01345 24.8542 -0.164111 -0.446739 20.3793 -0.146035 
-0.333001 19.7018 -0.144959 -0.572777 19.9436 -0.145184 0.746635 0.815686 0.00583572 
0.927757 1.08167 -0.00103288 -0.813324 23.9572 -0.154915 -0.927167 24.4417 -0.156387 
-1.01336 24.014 -0.155519 3.30957 24.8612 -0.138818 -4.27677 24.9188 -0.164942 
-4.14264 24.6854 -0.163932 -4.24575 24.5772 -0.163865 2.4365 27.8468 -0.15284 
-1.39769 23.2337 -0.154249 -1.294 23.6315 -0.155222 -1.50902 23.706 -0.155796 
-1.40686 24.1019 -0.156653 3.1444 20.68 -0.124533 3.0067 20.5047 -0.124781 
2.97574 20.117 -0.123259 -0.335842 10.5714 -0.152868 -0.468501 10.1821 -0.0132418 
-0.25809 10.7599 -0.0919175 -0.418927 10.4844 -0.08762 -2.87185 11.2401 -0.0981999 
-2.90691 10.9233 -0.0955281 2.9299 18.5952 -0.115729 3.05279 18.4705 -0.113942 
2.88853 18.2943 -0.114316 3.00998 18.1702 -0.112538 1.88581 13.7371 -0.0922943 
-2.26659 4.45556 -0.032957 -3.86224 20.9442 -0.151603 -0.50371 22.9765 -0.151571 
-0.609717 23.4663 -0.153069 -0.702286 22.9352 -0.152121 1.09959 12.9868 -0.0902062 
-0.468341 10.181 -0.148473 -0.545928 10.1018 -0.0827875 -3.98024 24.4437 -0.162832 
-0.999712 19.7722 -0.145495 1.91277 27.0125 -0.152712 1.72619 27.0128 -0.153577 
-2.83589 11.6561 -0.101578 -2.93337 11.8436 -0.10326 -2.96503 11.423 -0.0999048 
-1.56968 11.1038 -0.0964345 1.54663 24.6842 -0.14775 1.61613 25.0893 -0.148503 
1.45245 25.0434 -0.149175 -0.534304 17.8226 -0.142575 -0.621795 17.5248 -0.14125 
-0.749481 18.108 -0.142125 -3.41498 17.4369 -0.137495 -3.32435 17.5134 -0.13768 
-3.48879 17.7369 -0.138897 -1.33888 16.8078 -0.135177 -1.47366 17.2243 -0.136706 
-1.29808 16.9597 -0.136129 -0.742398 2.97864 -0.0225077 -0.778257 3.49378 -0.0260482 
-0.84101 16.7939 -0.139331 -0.696683 16.4888 -0.139661 -0.718948 16.3793 -0.138169 
-3.00544 13.0963 -0.112752 -2.87708 12.8686 -0.110937 -2.86507 13.2964 -0.113884 
-1.21509 18.7167 -0.143074 0.250599 13.6375 -0.0909631 -0.142855 0.181957 -0.00609581 
-0.871796 16.6507 -0.137846 -0.743069 16.2612 -0.13639 -0.585139 15.84 -0.134476 
-0.561299 15.9522 -0.136845 1.35174 6.7351 -0.0517166 1.21779 6.88486 -0.0529189 
1.26644 6.37176 -0.0479563 -2.88855 12.5562 -0.10869 -2.99345 12.7355 -0.110189 
-0.531305 16.1494 -0.140953 -0.389337 15.7612 -0.138533 -0.546324 16.0625 -0.13872 
0.0563709 0.191014 0.00948893 -0.942636 16.4027 -0.135154 -0.768954 16.1302 -0.134766 
-0.89893 16.517 -0.136435 0.666571 14.8733 -0.113805 0.609931 15.0422 -0.116114 
0.497107 14.6645 -0.115276 1.60126 14.107 -0.0956459 -0.561012 8.80475 -0.0648412 
-0.690001 8.53171 -0.0642421 1.07154 24.0724 -0.148403 0.87317 24.0035 -0.149084 
1.05942 23.5049 -0.147019 0.277259 24.8294 -0.153643 0.432853 24.8658 -0.153129 
-0.590878 11.272 -0.0936291 0.120583 15.8787 -0.13283 0.263389 16.2768 -0.148071 
0.231037 15.6776 -0.145009 0.35047 16.1005 -0.150209 0.850416 25.4114 -0.152852 
3.27325 6.40263 -0.0508434 3.17091 6.52698 -0.0516553 3.28764 6.66816 -0.05301 
-3.13432 4.81168 -0.0215783 -0.624456 2.57718 -0.0193515 -3.72459 28.0256 -0.172223 
-3.86041 28.0782 -0.172694 -3.81907 28.3313 -0.173256 0.986983 25.3605 -0.152162 
0.891361 24.9372 -0.151437 1.08455 24.9869 -0.150722 -2.65889 10.9 -0.0950662 
-2.53356 10.7444 -0.0936451 -2.57813 10.434 -0.0909857 -0.671351 16.5879 -0.140916 
0.802939 23.4947 -0.148141 0.990826 22.9941 -0.146007 -2.20947 24.9796 -0.160612 
-2.34768 24.9634 -0.160847 -2.29771 25.3986 -0.161931 -1.13325 25.8377 -0.160446 
-0.890076 26.1912 -0.160768 -1.49217 13.2934 -0.112553 -1.65191 13.1706 -0.11195 
-0.705601 17.166 -0.141212 -3.08449 19.7615 -0.14611 -2.90497 19.5158 -0.144975 
-2.96221 19.9141 -0.146485 -3.64189 23.6158 -0.159615 -3.52823 23.7676 -0.159841 
-3.68004 23.9596 -0.160724 1.7696 18.2761 -0.125626 1.83264 18.6299 -0.12678 
1.60095 17.9872 -0.126111 1.66631 18.343 -0.127267 -0.60895 7.22083 -0.0523016 
-0.463709 7.58424 -0.0545064 -0.170478 5.87239 -0.0399806 -0.336769 6.13222 -0.0424711 
1.65898 17.8249 -0.124341 2.18632 19.9523 -0.129178 -3.18797 10.2915 -0.0903246 
-1.65778 17.5035 -0.137398 -1.53234 17.0528 -0.135669 2.21029 10.7742 -0.0801883 
2.22404 10.5247 -0.079167 1.90755 9.34843 -0.0736893 1.94537 8.97901 -0.0711672 
-1.18854 8.52485 -0.0702809 -1.03808 8.76525 -0.071549 -1.08878 8.97179 -0.0743584 
-2.691 6.46393 -0.0521532 -2.54856 6.64415 -0.0546556 -2.52708 6.22504 -0.0504724 
3.15095 18.3621 -0.112475 2.61991 6.14952 -0.0480841 2.77032 6.30931 -0.0496067 
2.64005 6.44084 -0.0506046 -1.20034 7.37651 -0.0587005 -1.34315 7.5657 -0.0615733 
2.058 26.3721 -0.150101 1.13631 5.44414 -0.0377676 1.0743 4.87603 -0.0319451 
0.99953 5.67801 -0.0398229 0.946779 5.09876 -0.033675 -0.840662 2.06997 -0.0170929 
1.92371 24.7798 -0.146082 2.08993 24.8606 -0.145466 0.692411 14.1616 -0.107355 
2.66209 13.7193 -0.0890611 0.940021 4.03617 -0.0231367 0.921121 4.49448 -0.0276036 
1.05591 3.90702 -0.0225312 1.04793 4.35843 -0.0266857 2.35759 17.2513 -0.11267 
2.16702 16.9743 -0.112824 -0.159659 6.4962 -0.0450644 0.799471 4.04494 -0.0228165 
1.81938 14.7083 -0.0988823 2.22611 14.7306 -0.096351 2.37461 14.9017 -0.0965498 
2.14611 13.7207 -0.0913327 2.28485 13.8883 -0.0915358 0.383073 16.6039 -0.144793 
0.477049 16.5167 -0.143367 0.512566 16.975 -0.142469 -1.4211 7.80918 -0.0645732 
-1.513 7.35672 -0.0607896 -1.56881 7.66511 -0.064047 -1.6148 3.86386 -0.031195 
-1.68444 4.2494 -0.034402 -1.7223 3.72792 -0.0294914 -1.80162 4.11046 -0.0328287 
-3.18131 10.5842 -0.0930444 -3.71043 27.0091 -0.16944 -3.82333 27.3848 -0.170741 
1.95721 11.7887 -0.0849217 1.85963 11.6738 -0.0851124 1.77718 12.0125 -0.086635 
1.22657 18.417 -0.13358 1.12498 18.6481 -0.135528 1.28385 18.897 -0.134423 
1.17272 19.1388 -0.136265 2.74429 21.421 -0.130521 2.72876 21.1025 -0.129387 
2.57514 21.5558 -0.132243 2.56246 21.2348 -0.131178 2.35802 19.854 -0.127232 
2.37988 20.2738 -0.128822 -0.225882 20.7324 -0.146061 0.0560106 20.4294 -0.144831 
-0.166429 20.045 -0.145177 -2.82463 3.89642 -0.00539069 -2.70035 20.113 -0.146892 
-2.88257 20.3568 -0.147931 -2.75268 20.4481 -0.14809 -2.9349 20.692 -0.149119 
-2.88345 16.3588 -0.131784 -2.94515 16.7367 -0.133669 0.646109 8.91821 -0.0732511 
0.77463 8.62334 -0.0706924 -2.73385 16.1376 -0.130538 -2.42274 21.604 -0.151507 
-2.21422 21.1474 -0.149763 -2.40994 21.1937 -0.150158 -0.637728 16.7031 -0.141366 
-0.588125 16.7738 -0.141166 2.36111 18.3422 -0.11952 2.3192 18.0307 -0.118108 
2.4976 18.2305 -0.117539 2.4538 17.9196 -0.116073 -2.82197 9.51956 -0.0825611 
-2.95292 9.38043 -0.0812024 -3.64469 24.9673 -0.163583 -3.69911 25.2953 -0.16465 
1.14548 14.2467 -0.10428 1.29962 14.4636 -0.102607 1.24751 14.6153 -0.104776 
-3.02832 14.1362 -0.119594 -2.59706 4.00563 -0.0189583 -2.79986 4.29623 -0.0197584 
3.83082 27.1704 -0.143588 3.66053 27.4238 -0.145294 3.84939 27.5396 -0.144748 
1.11381 12.4458 -0.0971421 -2.70885 4.77604 -0.0310264 2.75953 27.9048 -0.151452 
2.12362 10.3617 -0.0787103 1.96559 10.4029 -0.0796329 2.15995 10.0767 -0.0772023 
-2.45699 19.4208 -0.144228 -2.25439 19.0892 -0.142947 -2.43 19.0262 -0.142763 
-2.2252 18.6969 -0.141488 -0.274991 0.45532 0.00208338 -0.298813 0.464582 -0.00543393 
-2.17374 2.94761 -0.00554764 -3.73806 26.0004 -0.166734 -1.59293 18.4901 -0.14155 
-1.78286 18.8418 -0.142328 -1.53168 18.7224 -0.142381 -1.34717 9.13241 -0.0777119 
-1.35714 9.39114 -0.0803062 -1.50857 8.95045 -0.0765364 -1.52249 9.21131 -0.0791259 
-3.00362 15.4188 -0.127026 -1.20973 24.0576 -0.156118 -1.3196 24.5313 -0.157533 
-2.51081 12.6288 -0.108652 -2.35741 12.8243 -0.10991 -2.49108 13.0153 -0.111389 
-1.80332 8.48059 -0.0727773 0.517833 1.4425 -0.000235529 0.432883 1.11495 3.61494e-05 
0.395536 1.1214 0.00206424 -0.217461 26.8431 -0.160467 0.510729 18.0211 -0.140514 
0.514658 17.5402 -0.140404 0.650284 17.8244 -0.13926 -0.718915 14.6059 -0.129744 
-0.534364 14.3812 -0.119097 -0.658881 14.759 -0.126627 1.65776 9.39614 -0.0745674 
1.74869 9.0858 -0.0723361 1.5168 9.53632 -0.0757272 1.6116 9.22073 -0.073537 
-0.860183 1.66759 -0.0141611 -0.691593 1.35604 -0.0115153 -2.0277 17.5342 -0.136803 
-2.12417 17.9263 -0.138456 -1.93442 17.6478 -0.137459 -2.0299 18.042 -0.139047 
0.0597588 23.3066 -0.150748 0.130033 23.8829 -0.151821 0.306816 23.4738 -0.15012 
-0.407731 0.491145 -0.00656178 -0.381825 0.487864 -0.00829371 3.59564 25.2424 -0.138506 
0.875229 3.02159 -0.0134911 0.712868 2.6029 -0.00872314 -0.213775 2.20672 -0.0133996 
-0.217073 2.62868 -0.0156178 -0.148362 2.21617 -0.0122553 -0.47272 0.38372 0.0353191 
-0.478082 0.406584 0.0297454 0.595127 1.82214 -0.00233211 0.662385 2.18627 -0.00515228 
0.220379 1.82573 0.000413241 -0.129754 0.185204 -0.000951683 -0.266333 0.469352 -0.00496356 
-2.98808 5.70143 -0.0403618 -3.02944 6.065 -0.0448427 -2.89947 5.86569 -0.0435966 
0.201632 1.46021 0.00549021 0.153796 1.45717 0.00373885 0.616442 16.0303 -0.12704 
0.774185 16.2919 -0.126659 0.742459 16.4247 -0.130412 3.13929 17.579 -0.107739 
3.05203 17.6987 -0.109194 3.00418 17.3949 -0.107709 0.596003 2.19826 -0.00441753 
0.751615 2.18627 -0.00633835 -0.662463 9.70631 -0.0783467 -0.799685 9.45591 -0.0770114 
-0.945981 9.20816 -0.0757569 -1.31018 16.0616 -0.13158 -1.15457 15.6212 -0.130134 
-1.10704 15.7862 -0.131035 0.357184 17.6741 -0.140537 0.363885 17.1633 -0.141419 
-2.95532 4.53973 -0.0204141 -3.05376 4.91401 -0.0261563 -1.72916 7.41101 -0.0622326 
-0.419548 18.1276 -0.142321 -0.650328 18.382 -0.143471 -1.66786 7.09875 -0.059021 
0.233807 16.8916 -0.140704 -0.265896 3.52162 -0.0219225 -0.349985 4.06118 -0.0265511 
0.256179 0.490847 -0.00104799 0.232532 0.487394 -0.00306811 -1.51073 6.87421 -0.0563349 
-1.59457 6.44547 -0.0527761 -1.75957 6.6807 -0.0555763 0.296929 23.9957 -0.151462 
-2.99082 19.0677 -0.143452 -3.04509 19.451 -0.144919 -2.86474 19.2063 -0.143796 
3.35572 18.8951 -0.113918 3.31496 18.5983 -0.11257 3.23657 19.0211 -0.11558 
3.1972 18.7226 -0.114196 0.995769 22.2547 -0.144374 2.6402 17.4272 -0.111136 
0.152 0.814471 0.018103 0.110255 0.511494 0.0289167 0.092578 0.511746 0.0200222 
0.129925 18.5006 -0.142186 -0.0333739 18.171 -0.142545 0.90189 14.9112 -0.111936 
0.434168 21.0787 -0.144629 0.66049 21.3095 -0.144199 0.481171 21.7971 -0.145694 
-2.60388 23.9428 -0.158545 -2.43212 23.7187 -0.157556 -2.52753 24.2405 -0.159215 
0.122171 0.811867 0.0151361 0.220605 22.1617 -0.14715 0.225785 21.4106 -0.145887 
1.56792 6.11971 -0.0461191 1.72456 6.47287 -0.049916 1.72993 6.0305 -0.0457183 
-1.02467 15.2284 -0.12911 -0.971643 15.3908 -0.129673 -0.745405 26.8851 -0.162168 
-0.67401 27.2157 -0.162801 -0.835584 27.2372 -0.163281 -1.57627 1.87597 0.00957723 
-1.62795 1.86469 0.0178813 0.408149 4.4202 -0.025837 0.513851 4.80689 -0.0295326 
0.353825 4.95414 -0.0310682 -1.05426 15.9491 -0.132056 -3.69536 22.7517 -0.157088 
-3.57593 22.903 -0.15731 -3.2492 25.7389 -0.164902 -3.41878 25.8151 -0.165483 
-4.10649 24.3451 -0.162844 0.694888 0.668246 0.0277425 0.726708 0.684089 0.0481338 
-3.06744 23.8207 -0.159086 -3.22249 23.7621 -0.159199 -3.07785 23.4581 -0.158021 
-0.378418 24.3749 -0.154677 -0.178346 24.3496 -0.154014 -0.281586 24.8283 -0.155522 
-0.0808012 24.8072 -0.154842 -1.08615 16.8318 -0.136673 -1.20717 17.2497 -0.13811 
-1.24694 17.1005 -0.137086 1.36466 14.3433 -0.100494 -0.0445616 0.190447 -0.00268632 
-0.753218 10.1743 -0.085537 -2.21126 15.4466 -0.126537 1.29024 13.8778 -0.0967089 
1.33722 13.6916 -0.0940907 -0.639555 8.97988 -0.0679843 -1.18439 9.33574 -0.0789529 
-1.03858 9.53484 -0.0802242 -1.14397 9.13177 -0.0765803 -0.741557 0.778243 0.0182108 
-0.519318 9.24878 -0.0689353 -0.457684 9.71501 -0.0716855 -0.582354 9.42814 -0.0720564 
1.6822 12.364 -0.0880998 0.765493 10.7133 -0.0822718 0.896226 10.3425 -0.0811103 
0.591235 10.9608 -0.0836268 0.730768 10.581 -0.0828467 1.46139 6.35861 -0.048292 
1.3713 5.99629 -0.0441475 3.1673 9.36912 -0.0712243 3.12316 9.64295 -0.0726327 
2.92492 7.18148 -0.0568346 3.04207 7.3239 -0.0579762 2.91645 7.47382 -0.0590862 
-0.484255 4.10193 -0.027848 -0.58623 4.74382 -0.0332074 -0.439076 4.53452 -0.0305946 
-1.2411 1.54024 0.000584452 3.24627 7.94442 -0.0625517 3.14579 7.8171 -0.0616739 
3.11689 8.1086 -0.0636057 -1.53492 1.91545 0.00149628 -2.17355 26.1237 -0.163618 
-2.07499 25.7028 -0.162275 0.287315 15.4372 -0.133992 2.59394 8.15083 -0.0641906 
2.55457 8.54171 -0.0669267 -2.95231 27.7625 -0.16969 -2.76029 27.6976 -0.169079 
-2.99267 27.4575 -0.16899 -2.80235 27.3917 -0.168372 2.58369 27.825 -0.15206 
-1.53388 26.6537 -0.163534 -1.40018 26.2596 -0.16219 -1.33876 26.6103 -0.162957 
0.863152 26.8946 -0.15689 0.948718 27.2377 -0.157535 3.41759 6.82996 -0.0546196 
0.271673 0.200059 -0.00476556 -4.11808 25.9222 -0.167426 3.22012 17.9486 -0.109376 
2.06921 24.4493 -0.144384 2.23303 24.5316 -0.143728 2.61049 24.8734 -0.142729 
2.68295 20.0417 -0.125267 2.70105 20.3696 -0.12658 2.4974 19.7574 -0.125552 
2.51652 20.0853 -0.12685 -3.08001 11.6106 -0.101704 -3.87507 27.1043 -0.170092 
-1.8272 10.5625 -0.0920313 -2.28264 14.7444 -0.122522 3.13513 23.6536 -0.135843 
3.14783 23.9943 -0.136898 -2.48539 27.263 -0.167315 -2.38539 26.9081 -0.166158 
-4.21835 27.0057 -0.170679 -4.09465 26.8782 -0.17001 1.68314 8.31006 -0.0669376 
1.87097 8.13141 -0.0650832 1.76052 7.89536 -0.063369 -3.44746 24.7572 -0.162568 
-3.28733 24.6133 -0.161808 -2.42837 24.6152 -0.160036 -3.44652 24.2972 -0.16122 
-3.39293 23.9405 -0.160063 -3.60959 24.5615 -0.162348 -3.55515 24.2051 -0.161186 
-2.55516 17.4759 -0.136616 -2.74063 17.722 -0.137821 -2.80319 18.048 -0.139217 
0.99073 1.62457 -0.00498498 0.809793 1.33904 -0.0018194 1.44222 24.295 -0.147152 
1.6519 24.1895 -0.145836 -3.81512 19.8598 -0.147754 -1.58264 5.96128 -0.0485873 
0.280582 15.5045 -0.133809 0.260194 15.5645 -0.139384 0.431529 15.9038 -0.141345 
0.405235 15.994 -0.148529 -2.09255 11.0531 -0.0962249 -2.1031 11.3931 -0.0989494 
-2.88158 4.58462 -0.0237154 -2.97536 4.96717 -0.0290542 0.671713 5.00418 -0.0318014 
-1.95574 10.3823 -0.0905182 -2.05257 10.5345 -0.0918633 -0.0541678 10.2215 -0.0733637 
-0.0446838 10.7224 -0.0739263 -3.21654 7.52078 -0.0611537 3.07398 9.21053 -0.0703658 
2.43496 25.0579 -0.144214 2.56213 25.4197 -0.144635 -2.15427 10.7023 -0.0932927 
0.0588555 2.20017 -0.00753609 0.0904162 3.95156 -0.0225056 -2.69458 8.13467 -0.069229 
-2.52812 8.34688 -0.0716219 -2.6667 8.54602 -0.0733325 -1.41432 2.09048 -0.0116056 
-1.24186 1.9489 -0.0136166 -1.4722 2.36991 -0.0157989 1.28673 12.3809 -0.0925127 
1.39458 12.081 -0.0907946 1.43186 12.2578 -0.0899976 -1.30538 8.91556 -0.0752741 
-1.44235 2.51223 -0.0185096 -1.57767 2.8703 -0.0213343 -1.60495 2.68437 -0.0182178 
-0.785265 2.5277 -0.0199678 -0.859203 2.51704 -0.0201607 1.9944 8.27247 -0.0660227 
1.468 12.472 -0.0898556 1.37422 12.7323 -0.0895653 1.54701 12.6593 -0.0891382 
0.00854812 0.500281 -0.00329852 -0.00269028 0.791735 -0.00150883 0.0201613 1.12075 -0.00194329 
-0.401924 1.8075 -0.0136618 -0.0752786 4.62417 -0.0292115 -0.668505 4.53296 -0.0321071 
-0.688163 3.91086 -0.0281411 -1.09198 2.81606 -0.0229086 -1.16354 2.76987 -0.0226551 
-4.142 26.3861 -0.168781 1.41499 2.35087 -0.012089 1.31381 2.41238 -0.0120539 
1.54582 2.68232 -0.0150381 1.4318 2.74471 -0.0151728 1.00851 14.0679 -0.100786 
2.76662 10.3459 -0.0763953 2.66719 10.2038 -0.0760197 2.83041 10.0059 -0.0747259 
1.22643 13.4355 -0.0932912 0.871399 1.78872 -0.00537592 0.812485 1.80707 -0.00511761 
0.980985 2.14038 -0.00818014 0.673224 1.8239 -0.00379774 3.61423 25.9589 -0.140761 
3.72788 25.7887 -0.139594 3.60052 25.6227 -0.139735 2.84865 26.0207 -0.145007 
3.63961 26.6722 -0.142937 3.54372 26.9107 -0.144256 2.0568 20.8375 -0.133597 
1.0802 2.54771 -0.0115671 3.76717 26.1809 -0.140659 -2.74048 9.02729 -0.0779213 
-2.77048 8.71424 -0.0748579 -1.74765 12.206 -0.105223 -1.34341 14.7259 -0.12253 
-1.47553 15.0804 -0.124717 -1.31675 14.9043 -0.124145 -1.44956 15.2692 -0.126018 
-0.773079 20.2472 -0.146236 -0.959276 20.866 -0.147498 -0.953909 20.2899 -0.146591 
1.63841 12.3128 -0.0880091 -3.05337 15.8133 -0.129187 -3.17386 15.6637 -0.128523 
1.16332 10.6368 -0.0823364 1.0395 11.0045 -0.0844128 1.1292 10.4659 -0.0812627 
1.00133 10.8362 -0.0830524 1.65735 1.96926 -0.00491238 1.38199 1.73996 -0.00539472 
1.58066 1.96347 -0.00669304 1.31748 12.5224 -0.0905216 -1.51173 10.2103 -0.08838 
-1.37011 10.3476 -0.0891991 -1.60647 9.88568 -0.085671 -1.46746 10.0172 -0.0864516 
-3.14397 25.3181 -0.163505 -1.6869 10.0168 -0.0869946 3.27798 20.8619 -0.124375 
3.43175 21.0958 -0.124288 -1.2255 11.2253 -0.0965236 -1.28038 11.4031 -0.0983042 
2.1173 5.50004 -0.0415291 2.2479 5.34396 -0.0403853 2.29014 5.74179 -0.0440381 
2.32654 26.7655 -0.149982 2.47794 26.8145 -0.14938 -2.93379 4.18251 -0.0109229 
-2.5116 14.417 -0.120669 -2.32937 14.1474 -0.118835 -2.81293 20.8308 -0.149439 
-2.16066 19.2347 -0.143478 -2.32931 19.5539 -0.144654 -2.15514 19.7009 -0.145153 
2.45338 9.21667 -0.071413 2.56845 9.30809 -0.0716921 2.39815 9.51973 -0.0733397 
1.38035 10.6119 -0.0824898 1.53019 10.4485 -0.0813361 1.41888 10.7857 -0.0837115 
-3.57459 25.8792 -0.16602 2.6562 18.507 -0.117651 2.54236 18.6009 -0.119242 
2.08795 9.66584 -0.0750994 2.03314 10.0566 -0.0775879 2.22516 9.73021 -0.0750737 
2.37417 5.21222 -0.039445 -0.911321 3.86405 -0.0293552 -1.39787 16.6395 -0.134124 
-1.61093 16.935 -0.134901 2.24344 12.8345 -0.0873458 2.08354 13.0332 -0.0886298 
2.08911 12.6764 -0.0873175 -0.156697 8.21988 -0.0589364 -0.308138 7.87646 -0.0558448 
-0.00419004 7.96097 -0.0574925 -0.164091 7.64062 -0.0543942 -0.467595 23.9367 -0.153804 
-0.360644 23.4522 -0.152355 -0.263122 23.8903 -0.15314 0.215391 24.3515 -0.152683 
0.0222676 24.3461 -0.153375 -3.1043 25.673 -0.1644 -2.99422 25.2466 -0.162988 
2.89416 6.1563 -0.0483769 2.91641 6.5258 -0.0515129 3.00708 6.03703 -0.0474891 
3.03427 6.4004 -0.0505494 -3.81466 26.426 -0.168091 -3.95553 26.7583 -0.16935 
-3.76389 26.7296 -0.168806 0.348882 14.1774 -0.102667 -0.200534 10.449 -0.0662829 
-0.0887999 10.8544 -0.0799375 -2.0222 13.2099 -0.112355 -1.88085 13.4339 -0.113893 
-2.02932 13.5538 -0.114598 -3.41771 20.252 -0.148375 -2.80712 6.33992 -0.0500595 
-2.82379 6.63231 -0.0531633 -2.71409 11.4691 -0.099886 -2.61403 11.2989 -0.0983822 
2.80357 10.7565 -0.0779438 2.91233 10.8756 -0.0781295 0.427779 11.2104 -0.0859398 
0.450428 11.3574 -0.0853751 2.86721 5.86899 -0.0458994 2.97925 5.73685 -0.0448524 
0.0105748 7.38198 -0.0523714 -1.11533 12.041 -0.10375 -1.03624 12.3504 -0.105215 
-0.97773 12.2186 -0.104354 -0.903216 12.5477 -0.105882 1.52415 20.5577 -0.136975 
1.52611 20.1254 -0.135736 -2.10199 24.494 -0.159076 -0.320426 19.0568 -0.14379 
-0.10179 18.7878 -0.144134 -0.267543 18.4823 -0.143151 2.14796 7.75163 -0.0616757 
1.97675 7.70177 -0.0614557 2.19309 7.30513 -0.0579513 2.01753 7.24723 -0.0574662 
0.147155 27.4905 -0.1611 -0.0408606 27.5571 -0.1619 0.793921 7.59821 -0.0589865 
0.817365 7.07639 -0.053632 2.33634 6.46271 -0.0505782 0.717424 10.4299 -0.0823209 
0.850694 10.0374 -0.0815029 0.554497 10.7031 -0.0837419 2.02465 3.27327 -0.0211239 
1.97506 3.41619 -0.0224951 2.17316 3.69088 -0.0252208 1.57004 7.5162 -0.0600125 
1.60373 7.08257 -0.0558067 1.72371 7.30913 -0.058025 0.762016 9.08829 -0.0759735 
0.887938 8.78524 -0.0727101 1.57148 23.206 -0.143563 1.35731 23.4061 -0.145201 
1.59205 23.7591 -0.144966 2.36069 23.9104 -0.141181 2.18411 24.1347 -0.142848 
2.14355 23.666 -0.141713 -2.66442 6.15282 -0.0489239 -2.77221 5.9412 -0.0457189 
-2.62343 5.74843 -0.0447142 1.01249 19.437 -0.138415 0.993841 18.8752 -0.137464 
0.635592 9.41167 -0.0788946 -3.28785 24.1532 -0.160488 -1.04671 13.6953 -0.11518 
2.10314 13.3586 -0.0899257 0.172608 25.2474 -0.15509 2.96258 23.4412 -0.136164 
2.95097 23.1045 -0.135113 -1.20839 20.2622 -0.14667 -1.47973 20.6271 -0.147516 
-1.41071 20.1261 -0.146275 -1.67397 20.4947 -0.147529 2.33736 25.3452 -0.145613 
2.27391 24.9618 -0.144791 -2.69932 9.43598 -0.081804 -2.85909 9.21641 -0.0796745 
-2.21185 20.1207 -0.146624 -2.42737 20.3632 -0.147606 -2.36919 19.9448 -0.146052 
-3.13636 27.4993 -0.169422 -3.01505 27.1057 -0.168095 -2.87118 27.0633 -0.167659 
-1.19851 15.4443 -0.12889 -1.23831 15.2688 -0.12754 -1.39238 15.6925 -0.12903 
0.0705386 16.512 -0.137722 0.0375438 17.0135 -0.142504 2.61414 4.9542 -0.0374356 
2.4337 4.74643 -0.0354518 1.229 23.7176 -0.146715 1.25464 24.1756 -0.147789 
-0.550198 0.763733 -0.00661984 0.0126787 8.51354 -0.0613626 0.192689 8.22285 -0.0609538 
0.166602 7.68274 -0.0555253 -2.36608 8.94134 -0.0774522 -2.33551 9.25578 -0.0803979 
-2.24017 9.1211 -0.0791743 -1.1992 1.99675 -0.0149816 -1.0662 1.67824 -0.0126198 
-1.98563 3.82201 -0.0283728 -1.89844 3.98392 -0.0309848 2.6463 11.0071 -0.0793484 
2.71543 10.6396 -0.0777424 -1.15098 1.70773 -0.011066 2.27365 12.5406 -0.086116 
-2.64141 12.4936 -0.107799 -2.76924 12.6771 -0.1093 -2.61911 12.8824 -0.110629 
-1.16041 13.9645 -0.116225 -1.26227 14.2301 -0.118114 -1.13128 14.1036 -0.11684 
-2.6653 17.3314 -0.136065 -2.91518 17.9612 -0.139022 -2.84047 17.5685 -0.13728 
0.968427 8.93551 -0.0747446 1.02016 8.49697 -0.0698402 2.18319 7.00405 -0.0553199 
0.339584 7.94625 -0.0596472 -1.81227 10.1062 -0.0879761 -1.8534 10.2958 -0.0897732 
-1.68439 10.2964 -0.089505 0.84249 9.22351 -0.0783813 0.913333 8.31103 -0.0675506 
-0.989042 9.36701 -0.0780233 0.124486 0.180859 -0.00230147 3.39234 7.14349 -0.0569729 
0.0981937 0.187865 0.000371383 -2.49463 5.90967 -0.0473638 0.514385 4.31993 -0.0248302 
0.665567 4.51614 -0.0269421 0.212775 4.98656 -0.031564 0.328824 5.53024 -0.0365997 
2.25249 26.41 -0.149263 2.17684 26.7304 -0.150614 1.95505 27.751 -0.154802 
-2.40991 15.6798 -0.127903 -2.52141 15.6055 -0.127544 -2.4711 15.2139 -0.125352 
3.2909 7.00413 -0.0556924 -3.7996 23.8808 -0.160752 -3.83822 24.2245 -0.161864 
-1.93148 18.2603 -0.139987 -1.86364 18.4496 -0.140838 -2.08369 18.7705 -0.141828 
1.74999 24.7139 -0.146792 1.82492 24.2568 -0.145113 2.99428 24.1653 -0.138342 
2.97443 23.7825 -0.137215 2.34777 6.77253 -0.0533053 2.33791 7.19559 -0.0569802 
0.932773 7.83332 -0.062246 1.04565 8.04064 -0.0649995 1.81143 9.25291 -0.0732883 
3.17867 6.87028 -0.0545154 3.04505 6.67555 -0.0528464 3.17728 7.14775 -0.0567129 
3.04882 6.95902 -0.055101 -0.558644 3.89988 -0.0272214 -1.38226 5.62749 -0.0449596 
-1.54105 5.46485 -0.0442655 1.46329 26.5898 -0.1535 1.3779 26.2194 -0.152803 
3.40272 7.48767 -0.0595105 -0.310785 0.80279 -0.00733176 -0.42418 1.09177 -0.00918617 
-0.388925 1.09506 -0.00923474 -1.65849 12.5978 -0.108059 1.71381 20.661 -0.135729 
1.65009 21.0051 -0.137183 -2.98536 9.08278 -0.0782621 -2.89076 8.90437 -0.0765625 
1.33792 20.6643 -0.138705 1.39807 11.4811 -0.0886594 3.26944 7.65957 -0.0605039 
3.05805 27.9629 -0.150153 -2.21822 17.8046 -0.137926 -2.12985 17.4145 -0.136295 
-1.40062 27.3327 -0.164979 -1.5054 27.6625 -0.166085 -1.55408 27.3651 -0.165429 
1.76396 23.8098 -0.144197 -0.513261 16.231 -0.143171 1.23865 12.2651 -0.0941987 
2.62638 7.82381 -0.0618273 2.65782 26.8903 -0.14871 2.74885 27.2807 -0.14949 
2.78954 6.9842 -0.0552422 -0.959069 12.6592 -0.108693 -0.883121 12.9502 -0.110231 
-0.996608 12.7727 -0.10933 -3.19454 8.17119 -0.0684788 -3.16378 8.5641 -0.0727912 
-3.04518 8.37048 -0.0709768 -2.88835 5.10301 -0.0330461 -3.03917 5.27026 -0.0330543 
3.21554 19.85 -0.120106 -3.02517 4.51193 -0.0173928 -2.86757 4.25643 -0.0160484 
-0.0101408 0.186976 -0.00144986 -0.364586 3.02661 -0.0198367 -0.290168 3.06079 -0.019121 
0.178983 7.08277 -0.0505274 -2.08091 15.4636 -0.126564 1.01192 3.45961 -0.0181329 
-0.905535 5.47876 -0.0405509 -1.0081 6.02432 -0.0457208 -0.823852 5.86805 -0.043331 
1.27628 25.8277 -0.152162 1.42595 25.8577 -0.151563 2.2704 4.02599 -0.0285299 
2.36951 3.93104 -0.0277517 -1.6755 27.7526 -0.166728 1.71171 20.2347 -0.134391 
1.66649 19.8349 -0.133596 -2.50935 5.01459 -0.0371513 -2.57692 5.42229 -0.0412855 
1.85435 19.7705 -0.131571 2.00779 19.6666 -0.129662 1.66662 22.3433 -0.14086 
1.388 22.4486 -0.142695 1.6639 22.8249 -0.142128 -1.86773 17.848 -0.138405 
-1.73615 17.3823 -0.136667 -0.762752 12.2645 -0.103799 -0.911427 12.0689 -0.102243 
1.47209 11.8029 -0.0895337 1.16888 13.7247 -0.098326 0.574308 16.2709 -0.136523 
0.436654 15.8109 -0.133633 -0.22133 15.5878 -0.135157 -0.369626 15.9995 -0.147948 
-0.218191 15.488 -0.132094 2.41268 11.5502 -0.082115 2.48586 11.1633 -0.0804819 
-4.55426 28.6359 -0.175919 -4.45354 28.3117 -0.174786 -4.67581 28.696 -0.176363 
-4.57528 28.3722 -0.175278 2.04861 21.9598 -0.137314 -0.626276 25.7772 -0.158939 
-0.547708 25.3352 -0.157574 -1.76806 17.8912 -0.138842 2.22405 21.0636 -0.133092 
1.91781 20.5867 -0.133759 1.85295 20.9155 -0.13531 -2.40748 8.20959 -0.0704245 
-2.26209 8.40341 -0.0724235 -2.39865 8.50805 -0.0733153 -2.26002 8.03272 -0.0688698 
-2.11774 8.23296 -0.070801 -0.212573 15.3271 -0.125144 -1.62448 9.58216 -0.0829137 
1.03154 9.08307 -0.075848 -2.92246 8.50076 -0.0724873 -2.92612 21.9594 -0.153232 
-2.74426 22.0362 -0.153209 0.539473 10.4298 -0.0908093 -2.06142 12.7579 -0.109224 
-1.67966 2.28855 -0.00699627 -1.62801 14.6792 -0.121937 -1.67212 14.5052 -0.120945 
-2.87135 13.6361 -0.116166 -3.01639 13.8224 -0.117533 -2.88388 14.0184 -0.118662 
-0.471422 3.52881 -0.0238815 -2.43829 25.4528 -0.162377 -3.19742 27.158 -0.168649 
-3.31732 27.5578 -0.170001 3.00348 7.99347 -0.0627575 -2.36817 25.8165 -0.163217 
-2.22579 25.7638 -0.162768 -0.504577 5.18824 -0.0360012 -0.659488 5.39235 -0.0384098 
2.21878 17.3537 -0.114837 3.0279 7.61868 -0.060164 -0.101483 1.45458 -0.00827035 
-0.063516 1.12099 -0.00669291 -0.155845 1.45639 -0.00958742 -0.107196 1.12452 -0.0082622 
-1.89711 17.056 -0.134815 -1.77743 16.635 -0.132993 -1.99905 16.9395 -0.134132 
3.16488 7.52719 -0.059547 0.968828 14.7583 -0.10987 1.01806 14.5556 -0.107882 
1.12919 14.9357 -0.109065 -0.768847 7.51597 -0.0558071 2.71329 5.65411 -0.043903 
2.67279 5.33937 -0.0410498 2.4087 26.4664 -0.148651 2.70134 14.441 -0.0922425 
2.01386 13.8846 -0.0927198 2.15552 14.0531 -0.0929115 0.69664 20.6606 -0.142382 
0.952521 20.958 -0.141619 -1.25124 6.86377 -0.0543743 -1.40277 7.06501 -0.0574069 
-1.03886 8.13706 -0.0646361 0.567135 10.83 -0.0831507 2.02428 14.211 -0.0944135 
1.74294 6.86244 -0.0537966 1.5889 6.68846 -0.0518879 2.02227 7.9638 -0.0635308 
2.41734 8.36639 -0.0659645 2.25754 8.5684 -0.0676656 2.3054 8.22038 -0.0650844 
-0.205096 17.8494 -0.142641 -0.364572 17.5712 -0.14265 2.02147 6.07679 -0.0466482 
1.87192 6.28722 -0.0484526 1.87295 5.85255 -0.044302 2.66456 8.67482 -0.0676592 
-0.537093 1.05552 -0.00895313 1.74177 23.2596 -0.142855 1.58398 21.9119 -0.140074 
1.39389 21.548 -0.140373 1.30583 22.0135 -0.14227 1.30959 9.30701 -0.075129 
2.24166 4.47568 -0.0325157 2.16243 4.13925 -0.029416 2.36247 4.41483 -0.0322545 
-1.42711 11.2361 -0.0972038 0.841309 1.30529 -0.00202472 0.902049 1.30372 -0.00300909 
1.03366 1.59371 -0.00514159 0.558919 15.1767 -0.117679 0.749991 15.4442 -0.117217 
1.6041 8.93975 -0.0717163 2.29966 10.1604 -0.0770368 2.7699 22.1175 -0.132884 
2.9111 21.9868 -0.131448 2.75556 21.8001 -0.13183 0.955507 18.4039 -0.136947 
0.8298 18.6181 -0.138897 2.54153 12.8268 -0.0860846 2.42295 12.6895 -0.0861676 
2.56281 12.5195 -0.0849896 3.43751 19.5641 -0.116968 3.32063 19.7154 -0.118604 
3.44936 19.8958 -0.118573 1.94296 23.9403 -0.143608 0.115439 2.61935 -0.0102181 
0.279059 3.03163 -0.0125586 0.175245 3.03978 -0.0134915 1.47642 6.93472 -0.0541253 
1.45082 7.31802 -0.0579611 -3.09764 26.7913 -0.167438 0.33179 26.8011 -0.158615 
0.228308 27.1819 -0.159972 0.44054 27.1982 -0.159278 2.89643 7.8536 -0.0618537 
0.408573 26.4626 -0.157406 0.515078 26.8605 -0.158139 -0.278437 1.82541 -0.012744 
1.31454 27.2786 -0.156169 1.10577 27.2567 -0.156953 2.92665 6.81046 -0.0537905 
-3.38014 6.08511 -0.0410838 -3.4104 6.35965 -0.045024 -3.26934 6.14085 -0.0432624 
2.66329 23.8355 -0.139222 2.84227 23.9996 -0.138689 3.44902 21.4358 -0.125641 
3.317 21.2618 -0.125831 0.499156 23.5122 -0.149443 0.489706 24.0325 -0.150844 
2.83195 17.9226 -0.112565 2.78179 18.3917 -0.115844 3.16396 21.0244 -0.125878 
-2.27881 15.6994 -0.127943 -2.15376 15.8471 -0.1287 0.946927 0.959548 0.0111508 
0.774803 0.806141 0.0102585 1.12072 1.20774 0.00605015 1.25138 1.30355 0.0140677 
-2.55856 20.2173 -0.147117 -0.22639 1.1173 -0.00854938 -0.184705 0.790052 -0.00504528 
-0.149604 0.794237 -0.00455701 -1.25425 16.2138 -0.132576 1.26008 14.0201 -0.0989923 
1.13348 6.54255 -0.0492633 1.08074 7.06938 -0.0545596 2.68247 24.1576 -0.140116 
2.86246 24.3206 -0.139596 0.665946 16.6723 -0.138133 0.802576 16.9732 -0.135329 
0.711945 16.5583 -0.134293 1.8083 10.604 -0.0814049 1.64329 10.1017 -0.0788972 
1.90958 2.18607 -0.000468399 -0.410924 15.5589 -0.133549 -0.438054 15.454 -0.132978 
-0.244274 15.1418 -0.12071 -0.282635 15.0415 -0.119265 2.10927 10.6093 -0.080112 
1.39942 1.51539 0.00621335 -0.903839 23.4337 -0.153864 -0.974168 22.9127 -0.152952 
3.18552 19.5438 -0.118761 2.48763 7.33217 -0.0580579 2.34209 7.49276 -0.0594213 
3.34945 20.0196 -0.119908 0.960503 6.80551 -0.0512693 3.6896 24.3836 -0.135149 
1.65665 19.394 -0.132135 2.63929 14.9738 -0.0954348 2.75732 14.8055 -0.0937937 
-3.65047 21.1772 -0.151943 2.94429 16.2139 -0.100677 -2.31884 27.2321 -0.166859 
-2.42221 27.5871 -0.168017 2.83649 16.3791 -0.102542 -0.963472 1.62841 -0.0132856 
-0.914495 1.65063 -0.0138545 -1.08777 1.9461 -0.0157709 -1.90059 10.7174 -0.0934136 
-1.46191 25.0474 -0.159195 -1.37817 25.4511 -0.160041 -1.26959 25.0163 -0.158668 
0.17834 8.79673 -0.0655655 3.15561 6.2576 -0.0494768 -2.59984 13.5951 -0.115507 
-2.47308 13.7116 -0.116139 2.36558 3.34677 -0.0211981 2.32198 3.48358 -0.0229948 
-3.07822 7.70158 -0.063711 -3.20747 7.89485 -0.0654501 -1.72169 10.9424 -0.0952133 
-1.44367 1.56121 0.0494948 3.00711 24.4925 -0.13932 -3.01942 8.68067 -0.0741683 
-3.2342 27.8571 -0.170594 -3.27307 21.1788 -0.151256 -3.30621 21.5227 -0.152442 
-3.42567 21.4074 -0.152264 -0.35711 1.42826 -0.0111772 -0.403661 1.42601 -0.0111043 
-0.130192 0.197888 -0.000844303 -1.64713 1.83263 0.0410099 -3.99857 23.2081 -0.159158 
-4.038 23.5929 -0.160423 -3.87709 23.351 -0.159322 1.62149 1.83814 -0.000172965 
-0.608302 12.4492 -0.0986361 -0.532184 12.297 -0.0995207 -3.62578 26.6381 -0.168229 
-2.90021 15.5129 -0.127404 2.38824 8.74567 -0.0686162 -2.80873 24.0449 -0.159222 
0.927272 1.7486 -0.00538986 1.04004 2.09526 -0.00832013 -2.12934 14.5418 -0.121157 
-3.75174 24.7459 -0.163192 -2.36827 13.8101 -0.116641 -2.35408 4.29545 -0.0297097 
-2.26356 3.96098 -0.0261862 -2.18509 4.11898 -0.0296647 0.764067 12.2321 -0.0900502 
1.18973 1.91609 -0.00793361 -2.19771 3.44448 -0.0183141 -2.34842 3.87928 -0.0231912 
-0.113411 0.184346 -0.000121108 -0.228364 0.476291 -0.0053352 -0.247855 0.474787 -0.0030519 
0.941392 7.31068 -0.0565392 -0.693477 1.73367 -0.0143374 -0.679941 3.50635 -0.0254347 
-2.96917 6.84736 -0.0547651 -3.07657 6.74468 -0.0528591 -3.08713 7.03223 -0.0561305 
-2.97367 7.14676 -0.0580298 1.6438 3.1454 -0.0190292 -3.0841 7.40068 -0.0603296 
-2.96684 7.51981 -0.0621363 -0.469761 10.7881 -0.0913785 3.84588 28.0657 -0.146473 
0.532532 11.6302 -0.0863839 0.593791 11.7578 -0.0874729 0.702136 11.4116 -0.0849578 
0.472612 3.01745 -0.01169 0.582638 3.50379 -0.0167744 0.475521 0.741447 0.00626359 
-0.182337 26.076 -0.158365 1.13846 16.6374 -0.122949 0.980244 16.4102 -0.123409 
1.09839 16.8071 -0.125265 -0.216488 0.18462 0.00051228 -0.250059 0.22364 0.00106738 
2.69892 14.0809 -0.0905436 -2.33232 24.0916 -0.158405 -0.264083 26.4642 -0.159641 
-0.388054 26.0898 -0.159043 -0.47195 26.4804 -0.160319 1.21513 27.6315 -0.157656 
-0.234812 0.178864 0.00374561 -0.20579 0.164198 0.00596592 -0.0268092 1.11881 -0.00491739 
-0.0553326 1.46321 -0.0065039 -2.33597 20.785 -0.148761 -2.59493 21.1264 -0.150148 
-3.51613 28.2386 -0.172271 -3.41477 27.9148 -0.17117 0.395361 11.1237 -0.083814 
-3.77975 20.3213 -0.149284 -3.88713 20.1737 -0.149028 -3.53993 18.0337 -0.140292 
-3.44028 18.1905 -0.140733 -3.37597 17.8101 -0.139039 -0.477317 14.5138 -0.121101 
-1.0508 4.39017 -0.0338148 -1.18856 4.22997 -0.0332436 1.25776 12.965 -0.0892463 
-2.63302 21.8596 -0.152553 -2.61834 21.45 -0.151186 2.33478 9.87443 -0.0754706 
-2.5935 22.2013 -0.1535 -2.55367 15.9049 -0.129183 -2.43512 15.9736 -0.129469 
0.0861369 0.193397 -0.000424167 0.0719966 0.193933 0.00766233 0.0759913 0.511589 0.0197906 
0.0187178 0.193346 -0.00218206 2.16514 19.2417 -0.126213 2.30939 19.1343 -0.124323 
2.33885 19.5183 -0.125878 3.19614 21.723 -0.128504 3.34821 21.9508 -0.128381 
3.20927 22.0927 -0.129846 2.31677 15.407 -0.100178 2.27257 15.0439 -0.0980441 
2.41486 15.2695 -0.0985653 -3.5707 25.243 -0.164204 -0.820807 10.529 -0.0888487 
-0.629407 9.53589 -0.0747078 -0.521874 9.96732 -0.0790956 -4.37276 26.0732 -0.168499 
1.83943 22.1006 -0.139083 -0.519708 0.503496 0.0242202 -3.23055 20.8511 -0.150101 
-3.39018 21.0881 -0.151171 -3.39952 8.53661 -0.0723758 -2.23182 18.3792 -0.140224 
-1.81342 27.0858 -0.165313 -1.68958 26.6918 -0.164004 -1.61081 27.0401 -0.164706 
-3.43408 6.69929 -0.0496689 -3.29971 6.50183 -0.0480656 -2.93078 6.16983 -0.0471107 
-2.11127 5.16541 -0.0416757 1.51183 11.986 -0.0891492 0.555966 14.4994 -0.112033 
0.729029 14.7258 -0.111856 0.630228 14.3615 -0.111063 -0.273935 10.8939 -0.0918954 
0.641512 11.9187 -0.0869805 0.755335 11.5624 -0.0863771 2.66644 3.49672 -0.0208683 
1.59616 12.0797 -0.0882935 1.0274 12.767 -0.0883279 0.968523 12.6691 -0.0888911 
1.70876 11.7714 -0.0867715 0.45724 0.759061 0.00630103 1.43954 17.7801 -0.127105 
1.30026 17.6067 -0.128201 1.34354 17.4001 -0.126004 2.77937 15.9914 -0.100519 
2.8706 15.8705 -0.099114 2.62986 9.75263 -0.0739157 2.56221 10.1053 -0.075913 
2.45966 9.94782 -0.0754205 1.1956 17.1795 -0.126848 1.25161 17.0321 -0.124596 
0.739699 17.1713 -0.137923 0.874787 17.454 -0.135681 0.601125 16.8177 -0.140978 
2.28284 9.42604 -0.0731421 2.33453 9.07543 -0.0708789 0.781818 17.6201 -0.138199 
0.808172 18.1459 -0.138316 2.28989 10.885 -0.0802625 2.39594 11.0377 -0.0803805 
0.5017 13.413 -0.0950251 2.39563 20.6203 -0.130088 2.55008 20.843 -0.12973 
2.5379 20.5048 -0.128479 2.40788 21.0127 -0.131494 2.69617 18.8383 -0.11915 
2.87397 19.093 -0.11896 2.74015 19.2284 -0.120837 1.0429 16.9585 -0.127993 
2.9645 27.6336 -0.14955 2.90446 27.911 -0.150753 2.36687 15.6892 -0.101701 
2.46665 15.587 -0.100253 2.5883 26.5433 -0.147983 2.72527 26.6227 -0.147531 
2.52358 26.0973 -0.146936 2.65984 26.1777 -0.146478 1.76082 14.1122 -0.0950739 
3.78789 26.4961 -0.141623 -1.35233 22.9866 -0.153443 -1.56148 22.5488 -0.152845 
-1.13606 22.4618 -0.151963 -1.34981 22.0168 -0.151124 -4.34208 25.65 -0.167208 
-3.19918 23.3261 -0.157863 -2.77137 16.4415 -0.132085 0.533646 16.3316 -0.141953 
-3.27375 17.2098 -0.136265 -3.17376 17.2826 -0.136439 -1.8692 13.1436 -0.111845 
-2.46732 11.4364 -0.0994024 -2.50425 11.1216 -0.0968519 -3.30153 18.7511 -0.142675 
-3.24253 18.4256 -0.141353 -3.14107 18.5087 -0.141517 -3.53128 18.125 -0.14066 
-1.23994 14.4135 -0.119955 -1.61344 14.9365 -0.123619 -1.76125 15.2749 -0.125617 
-1.64017 15.2141 -0.125318 -1.78835 15.5582 -0.127201 -2.42387 7.80934 -0.0665321 
-2.5715 7.994 -0.0681232 2.1808 14.3774 -0.0945411 2.31043 14.2181 -0.0930347 
-1.73187 12.8195 -0.109355 -2.39747 9.82487 -0.0855748 -2.56947 9.58492 -0.083292 
-2.52911 9.87403 -0.0859563 -3.10124 9.26251 -0.0800412 -2.37158 17.2201 -0.135385 
-2.17523 16.9643 -0.134155 -2.29625 16.8434 -0.133605 0.870356 10.1924 -0.0810718 
2.4759 19.4423 -0.124268 -0.411441 9.14183 -0.0654499 -0.300946 8.96362 -0.063346 
1.78889 25.9217 -0.150046 1.99495 25.9692 -0.149203 2.02857 27.4108 -0.153397 
1.18843 25.4035 -0.151383 -1.77635 24.2338 -0.157746 -1.58925 24.2063 -0.157273 
-1.69535 23.7347 -0.156255 -4.36719 24.4097 -0.163673 -4.40173 24.7988 -0.16491 
-0.318971 10.0746 -0.0711854 -3.13175 24.2135 -0.160337 -1.91574 23.8206 -0.156879 
-1.92238 24.4011 -0.158461 -4.43341 25.1411 -0.165975 -3.67499 28.3441 -0.172943 
3.07439 8.45955 -0.065933 2.44324 19.0598 -0.122651 1.73664 8.5249 -0.0684618 
1.18612 9.72171 -0.0777275 1.05493 10.1199 -0.0798071 1.15819 9.5304 -0.0771424 
1.03111 9.93302 -0.0793443 1.99388 13.5654 -0.091089 3.03027 9.48445 -0.0718657 
2.83748 20.2495 -0.124967 2.80105 19.856 -0.12343 2.64567 19.6479 -0.123764 
2.77132 19.5422 -0.122179 1.85567 7.45567 -0.0593607 -0.0318891 0.499618 -0.00515755 
-0.0129598 0.501191 -0.00468057 1.21623 8.97645 -0.0737006 2.30904 26.0741 -0.147947 
2.88903 27.3112 -0.148862 2.82625 27.6041 -0.150139 -0.22455 15.2362 -0.121567 
0.116979 19.1133 -0.143778 -3.40853 18.6568 -0.142513 -3.46667 18.9826 -0.143894 
1.41423 7.76156 -0.0623392 -1.84181 20.3101 -0.147045 -3.21069 16.8274 -0.134426 
-2.09283 8.66526 -0.0748742 0.865184 14.3889 -0.106396 0.793181 14.542 -0.109494 
-2.43889 9.41029 -0.081769 0.854122 15.1197 -0.113659 -3.21143 6.94221 -0.0543424 
-3.20039 6.58653 -0.0500178 1.43204 15.2851 -0.108534 1.55684 15.5316 -0.108977 
1.42304 15.5171 -0.110383 -1.62733 19.7498 -0.145382 -1.56959 19.188 -0.143674 
-1.77622 25.1962 -0.160278 -0.0896568 0.797962 -0.00584161 -0.123842 0.799003 -0.00481253 
-0.144065 1.13077 -0.00847081 -1.02347 10.5177 -0.0895372 -1.06973 10.6953 -0.0911915 
-0.869517 10.7038 -0.0903538 -0.916288 10.8786 -0.0919958 -3.29321 22.807 -0.156464 
-3.32596 23.1539 -0.157583 -3.45237 23.0226 -0.15743 -0.836068 14.9833 -0.128772 
0.333077 8.50526 -0.065331 -1.56932 12.9471 -0.110466 -1.48664 12.6615 -0.108632 
2.13236 11.1492 -0.0819212 -1.57774 12.3343 -0.106171 2.95366 17.7946 -0.110697 
-0.761104 24.6041 -0.156307 -0.646785 24.1226 -0.154879 0.924851 17.8954 -0.136455 
-3.61027 23.2961 -0.158585 -3.48524 23.4169 -0.158687 3.71161 25.0597 -0.137282 
3.73927 25.4486 -0.138425 -3.76442 23.4578 -0.159402 -3.37471 17.0509 -0.135689 
0.572317 13.4047 -0.0935001 -0.778611 25.0556 -0.157535 2.73459 9.85041 -0.0741837 
0.463369 15.6011 -0.123422 2.57998 18.943 -0.12077 2.62124 19.3342 -0.122416 
2.74806 6.01774 -0.0470775 -4.50289 25.9071 -0.168349 -4.43993 25.5688 -0.167224 
1.31531 1.73752 -0.00657098 1.56445 2.07274 -0.00879888 2.15563 5.92381 -0.0454962 
2.33074 11.342 -0.0817119 2.25822 11.7261 -0.0833538 1.89407 14.0603 -0.0941248 
1.88628 14.3437 -0.0959576 2.51444 17.4787 -0.112659 2.51677 15.962 -0.102342 
2.52853 15.1157 -0.0968677 3.1197 23.2638 -0.134616 2.42036 10.2265 -0.0769484 
2.46645 25.7081 -0.146026 -2.62308 16.2974 -0.131237 -3.51264 26.2131 -0.166799 
-3.74864 25.6638 -0.165809 -3.81598 25.4821 -0.165451 1.81999 25.1181 -0.147598 
-0.651464 20.6665 -0.146951 -0.81738 21.3438 -0.148441 -0.631151 26.4958 -0.160798 
-0.829816 26.5154 -0.161402 -0.537589 26.142 -0.159625 -0.734616 26.1594 -0.160228 
-2.70787 6.76702 -0.0552535 -3.58328 18.4292 -0.141919 -2.83407 7.01804 -0.0573027 
-2.83412 7.32126 -0.0605462 -2.71505 7.45828 -0.0623692 -2.55436 7.66318 -0.0649352 
-2.70442 7.85132 -0.0663859 -3.06188 8.09011 -0.0679201 -1.34118 3.11822 -0.0253192 
-1.24043 2.71716 -0.0222297 1.71344 25.5096 -0.14923 -3.2628 9.89188 -0.0866275 
-3.02898 12.0163 -0.104878 3.05473 21.5448 -0.128779 3.18183 21.4072 -0.12733 
3.04114 21.2044 -0.127513 -1.85839 5.51354 -0.0453243 0.265501 1.13469 0.0104385 
0.186418 0.820437 0.0172758 3.02256 20.8211 -0.126061 -1.37958 5.14373 -0.0410247 
-1.18847 4.78779 -0.0373085 -1.23881 5.24293 -0.040889 -1.05109 4.88829 -0.0371892 
0.992044 6.19136 -0.0449718 0.815528 6.48385 -0.047239 -0.472349 5.77416 -0.0404251 
-0.39277 9.61426 -0.0692435 0.334997 0.784745 0.00079904 1.884 25.5644 -0.148559 
-0.703997 10.9071 -0.091196 -0.136893 11.2774 -0.0895539 -0.301787 11.016 -0.093683 
-0.176933 11.393 -0.0875827 3.3841 20.4097 -0.121529 1.79998 9.66605 -0.0759879 
1.70387 9.57589 -0.0755857 -1.54104 25.5039 -0.160552 -1.0408 16.9495 -0.137784 
-3.91336 23.7728 -0.160687 1.62085 10.842 -0.0836373 1.30915 11.1344 -0.0862674 
1.26699 10.9651 -0.0849512 -3.14944 21.3298 -0.151555 -3.10017 20.9296 -0.150149 
-2.98332 21.0443 -0.150366 -0.299979 27.1877 -0.161674 -0.139516 27.1849 -0.161157 
-2.21566 13.6465 -0.115495 -0.804271 16.0001 -0.133287 2.45441 8.03636 -0.063506 
-3.38989 26.8745 -0.168329 -3.37092 19.9273 -0.147134 -3.19989 19.677 -0.145989 
1.47746 2.29015 -0.0115884 1.62558 2.61587 -0.0147757 -4.51627 28.0656 -0.174304 
0.294058 15.2868 -0.123075 -1.93083 13.9053 -0.117014 1.92666 4.33464 -0.0303533 
2.49749 5.07388 -0.0384092 1.85597 3.07717 -0.0190877 1.89454 2.9354 -0.0177253 
0.794308 15.2584 -0.116146 0.589535 16.1201 -0.132307 2.33964 2.87474 -0.0120469 
-2.25006 10.857 -0.0946031 2.62102 16.5531 -0.105462 3.07016 21.8511 -0.129856 
3.08127 22.2229 -0.131167 -0.992307 11.7378 -0.0998534 -4.1108 21.8878 -0.155298 
-3.99588 22.0553 -0.155539 -4.13096 22.304 -0.156665 -1.12183 10.8707 -0.0928869 
-1.16781 11.051 -0.0946629 -1.26638 10.6978 -0.0919879 -2.72518 27.018 -0.167214 
-3.47639 19.8569 -0.147087 -1.80138 17.1857 -0.135657 -1.43539 9.81569 -0.0845936 
-1.32496 10.1495 -0.0873092 -1.05543 11.8893 -0.101922 -1.19769 11.7171 -0.100928 
-3.18026 21.6747 -0.152719 -1.17353 13.7578 -0.115674 1.3148 14.9032 -0.106787 
1.36522 14.7426 -0.104765 1.48814 15.1146 -0.106027 1.57429 15.8564 -0.111299 
2.39914 17.55 -0.114266 1.61431 4.04765 -0.0264777 1.42585 3.75063 -0.0232446 
1.5328 3.66489 -0.0229868 1.7657 16.0609 -0.110577 3.66704 23.6979 -0.132927 
-3.05582 6.36085 -0.0483445 -3.17956 6.29691 -0.0463849 1.16204 2.91367 -0.0146479 
1.24279 2.8463 -0.0148433 1.35887 3.35827 -0.0195746 1.45085 3.29136 -0.0193891 
2.09184 23.2406 -0.140814 2.27974 23.4276 -0.140217 2.05037 4.24104 -0.0299114 
1.96476 3.8855 -0.0265977 -2.61234 4.91724 -0.0346182 -1.6272 15.4543 -0.126783 
-1.18516 19.6333 -0.145552 -3.70781 24.3971 -0.162084 -2.1383 20.5616 -0.147952 
-1.09957 23.5825 -0.154701 -2.45472 5.5216 -0.0434338 3.71785 24.7854 -0.136342 
1.46472 27.2964 -0.155591 -0.84427 1.331 -0.0109553 -0.666154 1.05322 -0.0097142 
-0.707473 1.05312 -0.00967093 -0.558439 24.5562 -0.155632 -1.47166 19.784 -0.145636 
-1.12304 24.4866 -0.156951 -2.76799 24.4418 -0.160263 -0.469772 3.0327 -0.020831 
0.785781 1.0159 -0.0029301 3.39035 6.2539 -0.0497732 3.40761 6.5722 -0.0524866 
3.6424 22.3809 -0.128223 -0.962366 2.0134 -0.0168635 -2.77854 22.4326 -0.15445 
-2.82834 22.8845 -0.155878 -2.97514 22.7047 -0.155598 -2.59211 23.483 -0.157241 
-4.16222 28.1912 -0.173738 -4.03136 28.1432 -0.173285 0.642771 17.288 -0.139876 
-3.01772 17.8109 -0.138517 -2.96186 17.5018 -0.137137 -3.12008 17.7329 -0.138338 
1.8409 16.754 -0.114982 2.0222 16.7077 -0.112416 1.24345 16.2908 -0.1187 
1.28558 16.0752 -0.116646 -3.33226 5.73422 -0.035929 1.92785 17.4354 -0.118547 
2.00682 17.797 -0.119929 1.83419 17.5371 -0.120357 -2.69828 3.98774 -0.0150591 
1.67942 5.65614 -0.0419452 2.57055 14.2576 -0.0920485 -0.804398 1.35221 -0.0114985 
0.310319 1.13174 0.00809129 0.144786 3.51599 -0.018213 0.245337 3.48167 -0.0172339 
0.171183 0.507033 0.00676721 0.248338 0.804458 0.0109577 0.275533 0.80563 0.00733246 
1.10571 15.8862 -0.117137 -0.331658 1.81248 -0.0132056 -2.03605 11.7516 -0.101772 
-2.18735 11.8275 -0.102383 -1.51739 3.42285 -0.0275138 -1.42661 3.05695 -0.0245391 
-1.38836 2.60055 -0.0202489 -1.51296 2.95881 -0.0230417 -1.31588 2.65775 -0.0212727 
-1.33353 4.62629 -0.0368715 0.116034 0.209891 -0.000456469 2.47638 6.32129 -0.0494673 
2.32208 6.06176 -0.0469949 -1.80867 3.62419 -0.0278304 1.20574 7.34269 -0.0577579 
1.34035 7.18213 -0.0564192 -2.06125 12.0663 -0.104187 -1.02593 12.8974 -0.110472 
-1.05801 13.0721 -0.111472 -0.925187 13.1125 -0.113581 -0.977757 13.2963 -0.11692 
1.15407 13.2013 -0.0927287 -0.467983 18.7078 -0.143401 -1.88494 3.46399 -0.0250267 
2.44011 22.8412 -0.137458 2.43263 22.4225 -0.136189 -1.45268 27.0044 -0.164255 
-0.840358 12.8602 -0.106736 -4.26099 23.3258 -0.160155 0.382487 24.466 -0.152338 
-1.918 16.5764 -0.132536 -2.0945 16.6015 -0.132592 -2.23676 17.3031 -0.135776 
-3.94465 24.1035 -0.161745 -4.07022 23.9223 -0.161493 -0.911507 13.027 -0.111798 
-1.93969 4.91136 -0.0398239 0.260613 20.7464 -0.144691 0.471046 20.4167 -0.143215 
-4.39818 28.5918 -0.175388 -4.33167 24.0652 -0.162561 1.15033 1.42263 -0.00307727 
-0.373804 26.8529 -0.160997 0.895166 16.6976 -0.129033 2.39294 24.6291 -0.143167 
3.01837 25.5213 -0.142523 3.04753 25.1903 -0.141321 -3.27029 16.3738 -0.132307 
-3.18637 16.0362 -0.130491 -1.61425 3.32277 -0.0261074 -0.694845 9.84245 -0.0809578 
1.94148 5.29306 -0.0391311 1.73512 5.01266 -0.0358736 1.88326 4.90283 -0.0353697 
1.67063 4.61759 -0.0319965 1.98832 5.64855 -0.0426212 0.549906 3.87313 -0.0204068 
0.672714 3.88975 -0.0207948 -1.2607 8.69757 -0.0727111 2.40841 18.7168 -0.121159 
1.64193 3.57212 -0.0227495 1.55067 3.20203 -0.0193471 -3.97017 22.8857 -0.158101 
-3.93057 22.4769 -0.156738 -2.65468 27.3474 -0.167921 -2.61291 27.6561 -0.168625 
1.32986 19.3008 -0.135192 -1.20577 16.3793 -0.133613 -2.02618 18.3563 -0.140278 
-0.0628451 23.8831 -0.152541 -3.31432 7.78765 -0.0639084 1.9807 9.54465 -0.0747514 
-0.226084 0.221295 -0.00160729 -0.64956 15.5803 -0.130927 -2.75752 18.5204 -0.141063 
-2.32771 18.2557 -0.139757 -2.09558 6.48369 -0.0541847 1.21733 23.1515 -0.145283 
0.334918 7.35848 -0.0539631 0.569649 24.4969 -0.151647 2.54552 11.6311 -0.081923 
-1.22081 9.53811 -0.0812037 -1.91107 20.9043 -0.148849 -2.125 7.92803 -0.0678654 
-3.70785 19.1636 -0.144982 0.577532 25.7249 -0.154813 -2.60169 19.3811 -0.144173 
1.08764 10.2917 -0.0804182 0.957659 10.6723 -0.0822761 1.16725 21.1121 -0.140775 
1.0753 21.5856 -0.142404 1.377 19.8032 -0.136097 1.51825 19.5149 -0.133828 
3.34109 26.6897 -0.144565 3.62576 22.0071 -0.126851 0.00629571 0.185265 -0.000627922 
-1.8515 26.738 -0.164496 -2.15358 7.21313 -0.0610678 -2.12993 7.52138 -0.0639717 
-2.19841 26.8529 -0.165589 2.85517 10.4578 -0.0766252 2.91788 10.1158 -0.0750583 
2.9812 4.96806 -0.0379454 -0.0970578 0.188403 -0.000995227 1.87862 9.93572 -0.0774952 
3.10921 18.074 -0.111091 1.34903 5.50576 -0.0394256 1.80319 4.43138 -0.030822 
-0.00251094 0.218807 -0.0012913 0.388044 10.9324 -0.081161 1.20221 4.43821 -0.0282526 
-0.908113 17.851 -0.141546 0.434416 0.361873 0.030857 -4.12383 28.437 -0.174288 
-3.15303 19.3755 -0.144819 -3.34238 20.717 -0.149834 -2.81806 7.99796 -0.0676442 
-2.80147 8.30506 -0.0707289 -1.87665 2.64186 -0.00938878 0.776303 25.7507 -0.15409 
0.924922 25.7766 -0.153548 0.67733 26.1292 -0.155496 0.827751 26.1526 -0.154958 
-2.71431 23.5884 -0.157755 -2.86818 23.6116 -0.158087 -1.21597 10.5191 -0.0901965 
-2.42838 6.80184 -0.0566849 -1.77572 3.11382 -0.0218183 -1.69054 3.22042 -0.0242856 
1.8481 3.97592 -0.0269673 1.73016 4.04951 -0.0269687 1.75079 3.50362 -0.022525 
-0.558819 3.49241 -0.0244031 -0.900363 4.83905 -0.0360192 -0.738665 5.00688 -0.0361243 
-1.0606 5.51908 -0.0421877 1.82937 9.85824 -0.0771536 0.628983 1.04566 0.00150524 
-1.83737 27.7895 -0.167211 -1.71464 27.4012 -0.165894 1.82135 10.3269 -0.0798521 
0.642692 0.628066 0.0190916 -0.0794166 0.21541 -0.00229652 -0.128973 0.493061 -0.00716786 
2.7839 6.69558 -0.0528276 3.28624 7.28674 -0.0578674 1.15941 8.80381 -0.0727902 
3.22301 9.0289 -0.0693304 3.26564 8.75041 -0.067788 -3.57812 19.6871 -0.146671 
-3.51883 19.2912 -0.145117 -3.6786 19.6253 -0.146632 -3.61864 19.2299 -0.14503 
2.64895 6.83205 -0.0539012 -1.32808 13.8136 -0.11622 -1.39879 13.5578 -0.114349 
-0.659077 21.7598 -0.149191 -0.552652 22.3812 -0.1504 -0.806772 22.3232 -0.150845 
3.36813 5.98481 -0.0475176 2.39824 12.9885 -0.0872996 2.53154 13.1466 -0.0873761 
-1.18363 25.401 -0.159453 0.754245 26.4991 -0.15621 2.13404 8.09583 -0.0643908 
2.97468 4.53763 -0.0333985 -2.75441 13.0013 -0.111654 -2.74547 13.4251 -0.11453 
2.93537 22.7029 -0.133832 2.92393 22.3783 -0.132773 2.78048 22.5114 -0.134166 
-1.25819 12.5418 -0.107963 -1.16215 12.8156 -0.109526 -0.107422 0.485576 0.000216103 
-3.13963 20.1628 -0.147607 -3.18208 20.4804 -0.14877 -3.30175 20.4032 -0.148701 
3.50672 20.2569 -0.119928 -4.41743 27.7591 -0.173223 -4.45619 27.5353 -0.172733 
-1.46482 13.8437 -0.116384 0.426823 0.773365 0.00569162 0.27696 0.486088 0.00241005 
0.403543 0.787311 0.00347725 0.113179 0.183311 -0.000247403 0.138 0.215225 0.000255969 
-1.66761 1.87471 0.027661 1.47592 10.9434 -0.0847168 0.442934 2.19007 -0.00293868 
0.512107 2.1922 -0.00342784 0.229233 14.1858 -0.10078 -0.198585 15.6904 -0.143058 
-0.205404 16.2853 -0.139795 1.1943 16.4478 -0.120575 1.00723 16.2173 -0.121017 
1.07433 16.0657 -0.118966 0.878446 15.8284 -0.119271 3.20099 5.07279 -0.0387677 
3.06161 4.87946 -0.03685 3.14662 4.79722 -0.0359258 -1.01777 1.02675 0.0711382 
-1.12893 1.15641 0.0457475 -2.50654 16.3629 -0.13146 -3.10966 16.9025 -0.134663 
1.26149 9.14363 -0.0744724 2.7264 11.9485 -0.0823348 -0.584637 27.5824 -0.163559 
-0.0955375 0.495613 -0.00632107 0.212282 0.492143 -0.00112492 1.31802 16.8569 -0.122193 
1.3601 16.6733 -0.120184 1.47769 17.0772 -0.121639 -2.40329 10.9651 -0.0954873 
2.74201 16.4864 -0.103993 2.68354 16.1017 -0.101984 -0.0339151 1.83121 -0.00752538 
-0.0712691 2.21294 -0.0106464 -0.00653718 2.21576 -0.00914451 0.294156 0.468002 0.0137321 
3.25526 23.4409 -0.134403 -0.100233 1.83595 -0.00945988 -0.155743 1.82576 -0.0107419 
-0.226023 11.5165 -0.0915711 1.7465 15.0309 -0.102048 1.56432 15.0194 -0.104374 
0.0581119 4.62804 -0.028683 -0.00836719 4.13417 -0.0247092 3.665 26.9625 -0.14378 
-1.56238 16.1207 -0.130879 -1.53977 15.824 -0.129309 3.55864 21.2649 -0.124178 
-1.42469 17.3777 -0.137581 -2.444 4.69042 -0.0337912 3.48375 22.1282 -0.128219 
0.495678 11.4767 -0.0869269 0.620513 11.1146 -0.0844154 0.919483 11.3608 -0.0867519 
-2.06261 3.09774 -0.0148846 -1.84854 2.78436 -0.0143429 -1.99398 3.1602 -0.0180991 
-3.44513 7.61078 -0.0614843 -2.79353 19.6589 -0.145372 1.19112 14.7805 -0.107226 
1.24491 15.2909 -0.110807 0.438076 14.8035 -0.116029 0.467799 3.48393 -0.016506 
1.35519 4.22385 -0.0268179 -1.45074 16.4838 -0.133181 -3.02936 12.3417 -0.10739 
-2.36035 13.1828 -0.112425 -0.804814 11.2455 -0.0943076 -0.937706 13.4836 -0.116308 
-1.52271 16.3147 -0.132027 -0.783178 15.1452 -0.128872 2.88939 4.62431 -0.0345518 
-1.08276 12.4892 -0.106905 -1.12157 12.6335 -0.108407 2.88388 21.3015 -0.129033 
-1.7576 16.3101 -0.131379 1.0767 18.1904 -0.135055 2.18529 19.5772 -0.127562 
2.006 19.2918 -0.128117 -0.641541 2.13317 -0.0166468 -0.706085 2.12341 -0.016951 
-0.641708 1.74256 -0.0141883 -0.778344 2.08751 -0.0169713 0.865795 19.1635 -0.139279 
0.48546 26.1042 -0.156173 -2.48584 25.1064 -0.161528 0.602716 26.4851 -0.156748 
-1.95632 18.9336 -0.142484 -1.69247 18.354 -0.140814 2.73332 9.12329 -0.0702769 
2.67604 9.46737 -0.0723335 2.82616 9.2933 -0.0710877 0.653015 18.8748 -0.140853 
-0.607713 1.039 -0.00913895 -0.734357 1.33728 -0.0114349 -0.520605 0.773446 -0.00832608 
-2.65291 26.2889 -0.165103 1.21774 10.8052 -0.0835582 0.0328002 0.197448 0.00768679 
-3.03092 10.7907 -0.0945701 -1.96459 22.1299 -0.152334 -1.63746 21.9815 -0.151139 
-1.70992 21.2158 -0.149574 -2.9419 8.19598 -0.0693224 0.0478768 0.195622 0.0111797 
-2.52216 3.24175 0.00687094 -2.67036 3.54321 0.00125561 -1.26123 3.1626 -0.0256987 
-0.547522 2.99938 -0.0212977 -0.19133 3.06848 -0.018024 -0.460714 27.1988 -0.162161 
0.51164 9.72883 -0.0820717 0.872915 11.209 -0.0855586 0.668657 18.3154 -0.139361 
1.45294 23.0192 -0.143682 2.22935 3.51823 -0.0235366 0.3467 15.0604 -0.119869 
0.318766 15.192 -0.122178 -2.89036 28.0772 -0.170347 1.58012 17.4618 -0.123045 
1.42509 17.246 -0.123651 1.50721 17.6118 -0.125044 -1.04146 27.2691 -0.163891 
1.3628 11.2921 -0.0874642 -0.605481 14.9031 -0.126164 -0.857325 14.309 -0.127699 
-0.956462 14.6765 -0.127146 1.28124 8.00072 -0.0647559 1.31217 7.57467 -0.0604495 
-0.27558 11.6731 -0.0921112 2.3234 7.88023 -0.062483 -2.96333 22.3537 -0.1545 
-1.68072 16.7604 -0.133843 1.31177 18.2275 -0.131691 1.37488 18.0003 -0.129375 
3.31154 5.68856 -0.044754 -0.330534 7.31195 -0.0516841 -0.433012 14.6871 -0.120459 
1.22744 17.7761 -0.130713 1.86063 18.994 -0.128292 1.65443 18.665 -0.129117 
2.15306 26.0166 -0.148556 2.25238 25.6833 -0.14707 -0.943634 8.03648 -0.0624757 
-0.899911 8.42801 -0.0659184 -0.821577 8.22629 -0.0630233 -4.21096 24.2314 -0.162757 
-1.19975 2.29132 -0.0184415 -1.13805 2.35248 -0.0193082 -3.17362 18.0406 -0.139692 
-3.22237 17.5796 -0.137826 -3.04422 17.3448 -0.136558 2.64915 25.8008 -0.145378 
-3.34026 18.268 -0.140862 -3.28731 17.9596 -0.139523 1.23854 3.41146 -0.0192026 
-0.774182 8.65948 -0.0667097 -2.79323 10.7532 -0.0938842 -2.9481 10.5476 -0.0922035 
0.921561 1.25679 -0.00325468 1.15997 1.59897 -0.00563006 1.06347 1.54569 -0.0051056 
-2.7557 11.0671 -0.0965609 1.76177 3.1399 -0.0195526 -0.856512 7.69393 -0.0582558 
1.5081 11.1399 -0.0857679 1.44437 11.6345 -0.0891648 -0.898357 18.3274 -0.142687 
1.01429 17.7089 -0.134298 -1.11474 18.8588 -0.143807 -0.209141 0.481012 -0.00359687 
-0.328257 0.766373 -0.00523351 3.5115 28.055 -0.148155 3.3754 28.0194 -0.148694 
-1.05588 19.1507 -0.144353 1.51343 18.1696 -0.128392 1.15161 17.3926 -0.129448 
2.4229 22.0764 -0.135101 -0.960107 27.6269 -0.164619 0.348512 1.12984 0.00543385 
0.774583 9.66537 -0.0830064 0.67486 10.0867 -0.0869958 -1.13663 11.5651 -0.0992099 
0.794302 8.12388 -0.065046 -1.07556 11.3984 -0.0973002 -1.52201 4.94983 -0.0399707 
-1.68955 5.27628 -0.043127 1.25657 10.0832 -0.0791926 1.28648 10.2714 -0.0802644 
0.356374 27.5652 -0.160593 0.977794 15.4987 -0.115647 1.19699 14.1197 -0.101363 
0.938312 14.2161 -0.104518 1.08497 14.402 -0.105658 1.15064 24.5419 -0.149217 
1.24408 25.0204 -0.150099 0.0405277 2.63625 -0.0115644 -0.054623 2.63801 -0.0131349 
2.25633 15.8335 -0.10361 -1.26454 17.7988 -0.140236 -1.40709 18.1461 -0.140907 
-1.33353 17.694 -0.139417 3.36092 7.78337 -0.0615593 3.18312 25.4172 -0.141307 
3.31978 25.5784 -0.141081 -0.135918 17.2896 -0.1424 2.58672 21.9492 -0.133556 
-0.433713 24.8904 -0.156142 -0.345503 25.3048 -0.156894 2.59871 22.2691 -0.13456 
3.38562 27.048 -0.145466 3.80454 26.8795 -0.142816 -0.0543516 21.2125 -0.146485 
-3.95419 21.6561 -0.154155 -2.28651 5.33321 -0.0424916 1.21651 9.90562 -0.0784028 
1.43631 8.32002 -0.0676389 1.35914 8.74292 -0.0712939 3.65787 22.6915 -0.129319 
3.66954 23.026 -0.130506 0.929164 15.6538 -0.117344 -1.88367 15.9438 -0.129313 
-3.05727 20.6022 -0.149006 -0.111941 0.200004 -0.000937204 -0.168536 0.485963 -0.00547906 
-0.0765313 0.179622 -0.00145145 -0.0984619 0.212172 -0.00222586 -3.28416 5.45709 -0.0318253 
-4.20373 23.0174 -0.159069 -2.00453 15.8178 -0.128482 -4.10323 23.1151 -0.159116 
0.195797 0.505806 0.00144834 -2.82435 14.8548 -0.123622 -0.0635754 0.792312 -0.00397717 
-0.750419 11.0777 -0.0928455 -2.12288 9.79425 -0.0853901 -2.18873 9.41228 -0.0818779 
-2.29787 9.56235 -0.0832514 -2.77052 14.1252 -0.119197 -2.10321 8.94776 -0.0775437 
-3.31306 6.77472 -0.0515601 -2.43499 10.5901 -0.0923168 -1.98578 9.94552 -0.0867173 
-1.26241 2.25095 -0.0174242 1.34065 1.90885 -0.00798491 1.57151 2.23459 -0.011232 
2.25925 17.6524 -0.11637 -1.92955 15.4383 -0.12657 1.68209 1.86493 0.0064492 
-0.108878 11.167 -0.0883059 -2.05472 16.2873 -0.130954 0.0841606 3.07153 -0.0147066 
0.00457399 3.08271 -0.0157511 0.367176 3.00847 -0.0118581 -2.6518 14.6031 -0.121914 
1.46369 21.1158 -0.138759 1.39829 27.5985 -0.156796 -1.12107 14.8903 -0.126101 
-1.0765 15.0595 -0.127752 0.668846 26.8722 -0.157573 3.55187 23.8494 -0.134096 
1.54941 25.464 -0.149881 1.07408 25.784 -0.152917 -3.35111 23.5882 -0.158943 
-1.16803 23.0678 -0.153573 1.80801 19.2977 -0.130224 -2.15087 27.1627 -0.166299 
-2.0796 27.4876 -0.166978 -2.01808 27.7757 -0.16759 -1.91851 27.4476 -0.166497 
0.385601 14.9447 -0.118582 -1.89032 11.2676 -0.097895 -1.95283 11.4944 -0.0997537 
-2.96132 7.80355 -0.0651534 -1.9762 27.1327 -0.165823 -0.0415181 0.215152 -0.00182563 
-2.4325 7.52346 -0.0637605 -0.336336 11.1674 -0.0922748 2.6988 12.6034 -0.0847532 
-1.42212 19.2119 -0.143994 -2.27685 22.9776 -0.155253 -2.18696 23.5301 -0.156548 
-0.13922 8.76115 -0.0623794 0.931588 16.56 -0.126088 -0.569489 17.0495 -0.141769 
-0.224053 1.82636 -0.0119833 2.92633 8.6462 -0.0671791 2.7792 8.8373 -0.0684972 
1.88497 15.1052 -0.101568 -3.0288 23.0667 -0.156769 -2.88017 23.2487 -0.157067 
-0.971551 21.865 -0.149895 2.16944 15.9395 -0.105187 2.2206 16.2994 -0.107307 
2.30693 16.1954 -0.105749 -0.301604 1.43413 -0.0110232 -0.258292 1.44566 -0.01083 
2.77577 15.1705 -0.095661 -0.201245 1.45722 -0.0102383 2.89776 21.6784 -0.130396 
2.8698 20.9607 -0.127781 -0.189906 1.12187 -0.00906652 3.46596 21.8087 -0.127055 
3.60632 21.6903 -0.125686 3.33335 21.5755 -0.12699 1.47162 19.0792 -0.132948 
2.71689 20.7646 -0.128121 -4.54671 27.4651 -0.172764 -4.56138 27.7963 -0.17369 
0.758834 24.4249 -0.150691 0.740678 1.41328 -0.00195284 0.776792 1.38486 -0.00182686 
3.70001 24.0704 -0.134029 1.235 1.85167 -0.00774915 3.13409 27.6517 -0.148734 
1.24748 2.4603 -0.0119835 0.608038 1.09243 0.00124693 -3.7309 21.8999 -0.154456 
-3.77536 22.3013 -0.155846 -2.35078 13.489 -0.114517 -2.70048 23.1316 -0.156389 
-2.65332 22.6769 -0.154953 -2.60797 13.204 -0.112834 -1.9471 8.52149 -0.0733739 
0.514413 15.3251 -0.119261 1.3371 10.4436 -0.081356 0.656832 11.2625 -0.0849762 
0.845161 13.8323 -0.102798 -0.102945 16.6588 -0.142336 -1.80058 11.1016 -0.0965651 
-2.95736 6.55952 -0.0515033 -0.898717 14.8419 -0.128878 0.287013 14.0895 -0.0997649 
1.08242 17.5238 -0.131715 0.824282 11.0482 -0.0842496 0.783945 10.8959 -0.0836213 
-0.163392 7.07656 -0.049671 0.42047 22.3757 -0.147187 0.157855 5.43052 -0.0356156 
-0.00143919 5.06108 -0.0327951 -3.81215 22.6412 -0.156996 -0.0347946 0.825025 -0.00539572 
1.54537 26.9375 -0.154168 2.5045 8.86932 -0.0691676 -2.31866 26.1756 -0.164073 
-2.51104 26.2511 -0.164695 3.20426 27.9516 -0.149362 0.180704 22.8777 -0.149115 
1.38242 23.8634 -0.146334 -2.81445 18.9006 -0.142592 1.30131 15.1306 -0.108984 
-2.28826 26.5387 -0.164968 1.78083 2.47299 -0.012961 1.73312 2.56214 -0.014169 
2.09214 27.0919 -0.152118 -1.33003 25.885 -0.161062 -2.08963 22.7897 -0.154258 
-1.75904 22.6493 -0.153477 -0.422617 25.745 -0.158261 -3.76051 27.6986 -0.171418 
-3.90013 27.799 -0.172042 1.34606 24.6552 -0.14861 3.27392 19.3303 -0.11693 
2.0802 3.75458 -0.0257413 1.87509 3.49641 -0.0229127 2.44574 12.3134 -0.0846657 
2.93619 16.9876 -0.105659 -1.25958 1.47782 0.00725827 -1.03713 1.1593 0.0117313 
-2.14151 2.5669 0.0218129 3.47473 25.8119 -0.140969 -0.166703 0.200459 -0.00235118 
1.17707 2.50377 -0.0119241 1.35038 2.80451 -0.0151213 -0.102383 3.08245 -0.0170242 
-3.47101 21.81 -0.153669 2.01547 15.2695 -0.101627 2.07422 15.648 -0.103844 
2.14833 15.1708 -0.0997915 2.20458 15.554 -0.102061 -1.01024 14.5255 -0.124859 
-1.34925 15.8806 -0.13038 -2.31021 16.1235 -0.130192 1.16525 17.9995 -0.13288 
-3.30135 16.744 -0.134151 -2.91761 25.606 -0.163811 -3.89226 22.1385 -0.155601 
-2.32218 11.6826 -0.101295 2.05119 16.0482 -0.107115 1.9561 15.7551 -0.10589 
-1.84072 2.19265 0.0132213 -2.05776 2.57213 0.00628266 -0.54819 1.39826 -0.0115043 
-0.567429 1.04074 -0.00835611 0.314529 0.8188 0.00112597 0.188671 1.13639 0.0108453 
0.449621 15.7105 -0.127858 2.14323 9.31384 -0.0728487 1.03515 11.6802 -0.0900891 
0.69404 15.5681 -0.119586 0.839747 15.9834 -0.121169 -1.16839 14.7253 -0.123857 
-2.53494 8.70467 -0.0750707 -1.20712 14.5648 -0.121753 -1.27933 15.0765 -0.125784 
3.0078 25.9138 -0.143828 0.0836419 24.8221 -0.154325 -0.128584 2.63341 -0.0142876 
2.06091 21.2555 -0.134982 2.50365 6.91551 -0.0545922 2.492 6.6158 -0.0520666 
-1.54439 17.8411 -0.1392 -1.70361 18.0757 -0.139721 -0.48316 16.2795 -0.144125 
-3.34945 21.9265 -0.153811 -3.68586 26.3026 -0.167445 -0.27204 0.783853 -0.0053865 
-0.344645 1.10684 -0.00928998 0.291281 15.3928 -0.127604 0.369848 3.51057 -0.0170255 
0.298868 13.3339 -0.102966 -2.28605 7.69752 -0.0656299 0.625081 23.0415 -0.147786 
-2.20895 22.4265 -0.153598 2.14793 17.7067 -0.117904 -1.25001 19.2872 -0.144676 
-0.264985 16.3953 -0.14182 -0.304279 16.9988 -0.141193 1.48972 4.32393 -0.0283603 
1.64253 17.2984 -0.12116 -3.14867 22.9363 -0.156593 -3.11012 22.5543 -0.155363 
-2.09286 23.9164 -0.15745 -2.23981 24.4786 -0.15932 -2.00136 10.8801 -0.0947759 
-2.47781 13.3235 -0.113507 -1.95483 3.34002 -0.0221856 -1.78804 2.90919 -0.0183194 
-0.65395 2.98778 -0.0220441 -2.27666 8.68734 -0.075088 0.42706 23.0536 -0.148711 
-0.933889 2.45047 -0.0199439 -0.505566 1.40654 -0.0112959 -1.31129 2.20039 -0.0160896 
-1.16742 20.7679 -0.147528 -3.72138 19.921 -0.147762 -1.3821 18.7325 -0.142885 
-1.34054 18.2654 -0.141698 2.44267 3.31804 -0.0201052 2.25373 2.91665 -0.0156182 
0.832075 9.90488 -0.0825136 1.72663 8.83902 -0.070727 0.805001 4.82301 -0.030424 
0.788175 4.34224 -0.02568 -1.99568 23.3458 -0.155783 -1.88139 24.7278 -0.159263 
0.686398 19.4312 -0.140809 -0.584386 26.8676 -0.161643 1.07367 7.57548 -0.0599458 
1.15692 5.94667 -0.0432343 1.83196 5.49423 -0.0407729 1.36433 8.15331 -0.0662858 
1.22877 8.40219 -0.0688105 1.1471 8.23142 -0.0670152 1.17881 7.79374 -0.0625124 
1.34822 25.4376 -0.150752 1.29748 8.5849 -0.0703048 0.658816 20.0848 -0.141952 
2.84254 15.5217 -0.0972184 1.8977 15.3829 -0.103504 1.37902 26.9488 -0.15493 
1.74178 17.1113 -0.118575 -3.27488 8.45495 -0.0714901 -3.26753 9.58768 -0.0835778 
-2.48041 17.0967 -0.13489 -0.467246 17.2455 -0.141952 -2.39815 6.48626 -0.0536364 
-2.44075 7.11216 -0.0597218 -1.40957 10.5548 -0.0911281 -2.15644 6.77022 -0.0568477 
-2.31805 6.97843 -0.0586452 -2.26264 6.58708 -0.0549792 -2.82753 7.71138 -0.0646224 
-0.838221 2.93691 -0.0228471 -1.63663 2.53288 -0.0148277 0.336865 1.83344 0.00136551 
-1.70491 9.71437 -0.0843004 1.07438 2.96035 -0.0144987 -0.625625 0.820981 -0.00786381 
-0.0964065 11.0544 -0.0867798 -1.54848 14.1322 -0.118326 2.4786 7.65351 -0.0606101 
2.49464 23.6713 -0.139697 -1.77918 23.2545 -0.155166 -1.40255 21.4007 -0.149624 
-1.57887 23.159 -0.154439 2.15251 8.45803 -0.0670764 -1.55523 10.4006 -0.0901261 
2.29204 18.8235 -0.122875 2.11592 18.5422 -0.12317 1.57503 16.8967 -0.119197 
1.98022 18.9274 -0.126675 2.15109 18.9296 -0.124865 -3.62885 20.0016 -0.14788 
-0.700164 2.56603 -0.0197292 -2.33176 5.7259 -0.0462947 -1.45154 17.97 -0.140031 
-1.37102 17.5215 -0.13852 0.269554 20.0796 -0.14377 1.09729 8.65571 -0.071665 
-0.168088 3.53888 -0.0211255 1.00012 2.57372 -0.0111896 -3.78057 19.463 -0.146231 
1.05696 27.6117 -0.158215 0.871798 27.5417 -0.158712 2.61693 9.02021 -0.0698884 
3.10667 22.9291 -0.133534 -1.04114 17.578 -0.140724 -1.20225 17.912 -0.140852 
0.788856 27.2245 -0.158113 -1.14414 17.3487 -0.138981 -1.86017 9.84615 -0.0856301 
-0.574837 25.0084 -0.156808 -2.31364 7.39294 -0.0626686 -0.978533 7.51726 -0.0576991 
-1.10983 21.3944 -0.148928 -3.05283 21.8033 -0.152929 0.0323176 3.53223 -0.0192878 
-3.85803 21.8141 -0.15446 -0.0558239 3.54158 -0.0200865 0.317669 3.94549 -0.021456 
3.2567 6.12469 -0.0484641 -1.55826 15.5952 -0.127939 -1.42903 15.4918 -0.127673 
3.28942 5.4211 -0.0422158 1.15281 22.5778 -0.14425 1.96756 23.534 -0.142311 
1.86889 22.9647 -0.141292 2.60879 22.6847 -0.135876 1.26042 19.6566 -0.136733 
-2.55694 27.9808 -0.169335 2.0602 2.69024 -0.0138956 1.8581 2.30907 -0.00919986 
2.08735 2.59781 -0.0116843 1.81577 2.36801 -0.0110904 1.90143 2.27744 -0.00700426 
1.67723 1.86878 0.00225827 2.93801 10.5758 -0.0769364 2.96909 9.82542 -0.0736252 
-0.094063 10.9758 -0.0861723 -4.18029 26.7182 -0.169776 2.8238 18.7224 -0.117371 
2.42742 14.0558 -0.0916991 -4.399 27.1837 -0.171606 0.996471 1.28378 -0.00369239 
0.216152 0.205829 -0.00151724 3.68123 23.3396 -0.131577 -3.20075 18.829 -0.142844 
-3.08741 18.195 -0.140188 -0.193944 0.493943 -0.00556114 -1.93115 2.24083 0.028171 
-1.88322 2.19958 0.0206542 -0.260185 1.10573 -0.00912985 -2.60246 15.1279 -0.124974 
0.397876 10.9981 -0.0839644 -3.11953 5.20443 -0.0303132 0.187263 0.195351 7.73476e-05 
-0.440063 0.74097 -0.00481345 -0.468114 0.742498 -0.00515279 0.571033 1.10515 0.000367296 
0.680013 1.42151 -0.00224409 1.48556 9.32835 -0.0745731 -0.44122 10.6306 -0.0897475 
1.18223 26.1892 -0.153585 1.26692 26.5593 -0.154262 -1.06931 13.5173 -0.114047 
3.35162 8.10417 -0.063759 -4.27024 28.5447 -0.174952 -0.393161 15.6625 -0.137571 
-2.20046 12.9432 -0.110639 -2.37895 22.2666 -0.153324 -2.16915 21.8094 -0.15191 
-4.36027 26.8962 -0.170746 -2.12225 3.52406 -0.0218957 3.09457 22.5454 -0.132258 
3.40181 19.2567 -0.115531 0.502362 5.37757 -0.0352545 2.79836 26.9218 -0.1481 
-0.200839 0.21824 -0.00338035 -2.51589 4.05821 -0.022531 1.40601 9.91457 -0.0781575 
1.56926 9.7365 -0.07687 -0.613005 11.9501 -0.0992874 -2.43515 22.7462 -0.154856 
1.83928 22.5776 -0.140437 2.07898 22.7819 -0.139556 -4.50036 26.3116 -0.169475 
1.88859 6.64461 -0.0518749 -0.0182877 14.2904 -0.107267 -3.00529 20.2311 -0.14765 
-2.83013 19.9863 -0.146576 -0.0191559 15.9709 -0.138979 -2.63913 19.7074 -0.145394 
-2.51899 19.8258 -0.145736 -0.00933597 14.8825 -0.115502 -0.0145061 14.7487 -0.116569 
-0.0256704 14.8835 -0.11407 -0.768456 17.6155 -0.141817 -2.20637 13.2997 -0.113118 
0.453283 3.97135 -0.0214667 -1.18389 10.3233 -0.0883589 -0.0347576 14.723 -0.114059 
-1.03574 1.98942 -0.0164569 -0.274111 14.0906 -0.105879 -0.0201355 14.5929 -0.111766 
2.85435 20.5661 -0.126213 1.83858 16.4081 -0.112369 1.87402 7.08494 -0.0559783 
0.0588233 19.7613 -0.144081 -1.25828 26.9635 -0.163671 0.922494 10.5035 -0.0814646 
-0.173826 14.1831 -0.107243 -0.143709 14.0179 -0.106079 -0.208492 14.0341 -0.106919 
-0.0224894 14.1572 -0.107726 -2.75502 13.7468 -0.116711 -0.0484668 14.6146 -0.110314 
-0.0752153 14.721 -0.112972 2.46744 23.2231 -0.13848 0.951899 24.473 -0.149959 
-0.0207885 13.9984 -0.10563 1.34423 9.49514 -0.0759539 1.37399 9.69845 -0.0769817 
1.65133 21.4837 -0.138595 -0.172559 13.821 -0.105287 -2.05822 6.13497 -0.0509647 
2.79453 22.8523 -0.135243 -1.93154 6.25065 -0.0520096 -0.130755 13.6831 -0.106024 
-0.206708 13.6332 -0.109741 0.0163737 14.8928 -0.0966206 3.05202 9.93263 -0.0740557 
3.24345 18.2617 -0.11113 3.11292 17.266 -0.105968 -1.12603 3.7719 -0.0297725 
-2.96955 18.2738 -0.140325 -2.8704 18.3643 -0.140574 2.58089 3.64351 -0.0241454 
2.50058 3.28195 -0.0190596 -0.288083 14.3216 -0.109643 -3.87073 24.6348 -0.16314 
-3.7317 23.1392 -0.158354 -0.402948 0.742648 -0.00364777 0.548096 10.5045 -0.0908202 
-0.918757 26.868 -0.162569 -4.29074 28.2391 -0.174196 0.870359 21.6348 -0.143602 
2.50776 9.66187 -0.0738025 -0.315306 13.4354 -0.110682 0.390692 0.463315 -0.00347196 
0.17583 0.167949 -0.000929439 -3.24763 20.0012 -0.147201 -0.559774 13.4269 -0.119164 
-0.467998 13.407 -0.114012 -0.384737 0.757841 -0.004171 -3.19601 5.15598 -0.0277458 
-0.108673 19.3939 -0.143964 2.30316 2.88812 -0.0139385 2.51985 3.20039 -0.0170106 
-0.47677 13.8532 -0.106002 -0.440193 13.6927 -0.0993003 -1.53437 9.47282 -0.081628 
-0.070155 13.7347 -0.102385 -0.108537 13.8626 -0.105721 -0.389024 3.567 -0.0234462 
0.498637 19.7549 -0.142634 -0.0264281 13.6549 -0.100068 -0.103019 13.4565 -0.113864 
-0.635667 13.468 -0.115781 -0.609928 13.6215 -0.108242 -0.489207 21.0938 -0.147178 
-1.10479 26.9426 -0.163259 -0.236499 14.2449 -0.107631 1.84896 20.1098 -0.132768 
-4.66866 27.6954 -0.173691 -0.0806945 14.3061 -0.109144 -0.191766 14.5823 -0.109884 
-0.247299 14.4765 -0.109894 -0.0471167 14.2656 -0.110362 -0.050011 14.4576 -0.111522 
-0.459297 12.1209 -0.0975019 3.61853 26.3569 -0.142044 -0.172134 13.4156 -0.112144 
-0.233449 13.863 -0.106057 -0.0577335 14.8228 -0.11389 -0.609868 15.7072 -0.132887 
-3.58625 25.5428 -0.165086 -0.122097 14.2505 -0.108459 -0.0956456 14.0895 -0.106736 
-0.0327053 14.5715 -0.112132 -0.0182504 14.4379 -0.108732 -0.278407 13.6414 -0.108134 
-0.580643 1.77713 -0.01418 -0.558783 13.7916 -0.113079 -1.59633 17.6848 -0.138351 
-2.98037 13.5173 -0.115518 -3.84982 23.0274 -0.158272 -2.06983 3.70498 -0.0256529 
-0.255522 13.4104 -0.111031 0.679151 23.9588 -0.149848 -0.180324 14.3784 -0.110397 
2.25409 23.0426 -0.139238 -0.467927 1.45895 -0.0117089 -0.0261678 13.8322 -0.102852 
-0.0640491 13.9383 -0.106411 -0.0556928 14.1165 -0.107663 -1.09297 7.75759 -0.0613855 
0.385384 10.887 -0.0846257 -0.401341 13.4741 -0.111835 -0.508624 13.6259 -0.107411 
0.103276 0.221719 0.000781636 -0.00851718 1.46078 -0.00472821 0.147086 12.0845 -0.121438 
-4.70759 28.0861 -0.174857 -4.75873 28.6119 -0.176384 -4.65842 28.2881 -0.175278 
-0.0240659 12.9776 -0.108674 -0.241234 12.0923 -0.0957387 -0.170277 12.2414 -0.1035 
-0.245812 12.3259 -0.104121 0.0107752 12.6743 -0.101452 -0.0306558 12.5954 -0.1015 
0.0183933 12.5072 -0.0996489 -0.634876 13.0369 -0.109917 -0.559319 13.0643 -0.112275 
-0.596067 12.8737 -0.101168 -0.135464 12.7895 -0.106909 -0.202733 12.7616 -0.105529 
-0.144471 12.5904 -0.107024 -0.167649 11.9448 -0.0953401 -0.102924 11.827 -0.0952875 
-0.10739 12.0968 -0.100544 -0.0386593 11.7364 -0.0954992 -0.115198 13.0148 -0.101357 
-0.239289 12.5646 -0.105767 -0.311435 12.4785 -0.103715 -0.287791 12.7525 -0.106846 
-0.36303 12.6764 -0.104276 -0.046827 12.1441 -0.100086 -0.0503255 12.3478 -0.101308 
-0.00444232 12.2404 -0.0992259 0.00228794 12.0555 -0.0985368 -0.0295318 12.8161 -0.102911 
-0.0709753 12.7345 -0.10734 0.0327616 12.1983 -0.0971235 -0.00832742 12.4077 -0.0999146 
-0.0766529 12.5469 -0.10269 -0.319518 12.2376 -0.100214 -0.198253 12.9695 -0.106921 
-0.248357 13.0002 -0.10671 -0.392346 12.935 -0.104272 -0.453167 13.0527 -0.0980835 
0.0932274 11.4581 -0.0861669 -0.452652 12.5623 -0.103086 -0.378394 12.398 -0.100746 
0.0355678 12.0042 -0.0960254 -0.343578 12.9714 -0.108984 -0.500656 12.8926 -0.108549 
-0.0469335 11.9443 -0.098591 -0.446678 12.7691 -0.110666 -0.17865 12.397 -0.105244 
0.0668265 11.735 -0.0902073 0.048506 11.8452 -0.0930861 -0.537697 12.6871 -0.104373 
-0.48643 13.0646 -0.0995965 -0.111676 12.3155 -0.10259 0.0742775 11.4657 -0.0838487 
0.0386852 11.514 -0.0845451 0.0072992 11.6433 -0.0905865 0.0250032 12.3611 -0.0986424 
0.0810831 11.5892 -0.0901748 0.0045016 11.8652 -0.0988781 0.193003 11.7491 -0.0869565 
0.203979 11.8624 -0.0889573 0.208441 11.6489 -0.0875095 0.22573 11.7742 -0.0894051 
0.734962 12.9922 -0.0864938 0.79134 12.7909 -0.0932318 0.708554 12.8349 -0.0900944 
0.667699 13.005 -0.0876846 0.228431 11.5562 -0.0942745 0.198959 11.4631 -0.0895214 
0.806643 12.9624 -0.090468 0.189133 11.5926 -0.0861537 0.239279 12.0522 -0.0895672 
0.202104 12.1916 -0.0915093 0.235072 12.2676 -0.0906401 0.19014 12.4993 -0.0945603 
0.249672 11.8547 -0.0882446 0.205676 12.0159 -0.0904366 0.181827 12.7527 -0.0970759 
0.220627 12.6543 -0.0958599 0.245288 12.9692 -0.0921526 0.252617 12.7977 -0.100429 
0.52704 12.1948 -0.0885079 0.282759 12.1626 -0.0889969 0.331181 12.2713 -0.0886816 
0.274804 12.3724 -0.0915292 0.535929 12.9317 -0.0891047 0.405529 11.9265 -0.0912134 
0.351929 11.8142 -0.0914883 0.577588 12.6735 -0.0887357 0.490755 12.7199 -0.0854187 
0.644766 12.7554 -0.0846149 0.590375 12.9279 -0.087251 0.197085 12.3809 -0.0928402 
0.34211 12.0602 -0.0880515 0.29712 11.9566 -0.0855536 0.465757 12.0631 -0.091754 
0.430166 12.9667 -0.100963 0.37345 12.6992 -0.0937027 0.356506 12.9056 -0.0961169 
0.324984 12.5437 -0.0909573 0.435654 12.5786 -0.0880506 0.385048 12.4243 -0.0903396 
0.182574 11.4584 -0.0884524 0.458061 12.3545 -0.0903264 0.657062 12.5442 -0.0895125 
0.740879 12.6147 -0.0906505 0.303468 12.735 -0.100854 0.301508 11.7158 -0.0920656 
0.185771 12.9376 -0.100271 0.294012 13.0047 -0.0950133 0.518508 12.4891 -0.0862092 
0.227227 12.427 -0.0928534 0.396257 12.1945 -0.0860919 0.269838 12.5946 -0.0953698 
0.594907 12.3909 -0.0863142 0.259356 11.6317 -0.0916778 0.787436 12.7664 -0.104758 
0.0995598 11.9455 -0.0616267 0.0656009 12.8296 -0.133793 
Displacement%20Magnitude 1 13529 double
0 0 0 0 29.403014552 29.400000628 28.673076658 28.669761999 14.963118471 
13.297582486 13.296546273 13.378738345 14.978714128 13.296019066 13.099837402 11.364192854 13.063379563 11.366827716 
13.190606048 13.07006251 14.963821065 13.283254012 13.294751448 13.376537029 14.963471217 13.298029342 13.103072367 
11.367255295 13.065441894 11.362538394 13.177577509 13.063095696 13.201325299 13.204487564 15.231486321 15.236008569 
11.091916725 11.070481756 13.315559135 13.316194387 13.607812498 13.891369353 14.162582548 14.445306946 14.704105656 
14.98297467 14.883455711 14.718413569 14.493406565 14.228900946 13.931615301 13.624218842 13.22351163 13.219790464 
13.232443752 13.237414742 13.240161151 13.659862691 14.033780798 14.374381603 14.688013706 14.985205326 14.881399639 
14.711236069 14.498266334 14.249980892 13.955793026 13.599215832 13.216254529 13.225000781 13.232418799 13.239158702 
13.235995352 13.261760257 13.285665225 13.310646315 15.009403676 14.922839239 14.756210206 14.548252185 14.292809865 
14.008279856 13.703665269 13.616637619 13.896615032 14.187800343 14.461497921 14.726611203 13.235828175 13.259951348 
13.282076939 13.310782173 15.007753876 14.915739404 14.756734785 14.549134533 14.293761398 13.992829723 13.680413434 
13.625362742 13.894564359 14.182072695 14.452587229 14.726998507 13.147260908 13.129294151 13.135459882 13.137948119 
13.147106106 12.772620634 12.448278829 12.147828481 11.868982938 11.638981961 11.460640562 11.343554983 12.743484838 
12.459161684 12.158172513 11.887158361 11.609932285 13.13204273 13.126753529 13.131396894 13.137514132 12.778572762 
12.438714629 12.102106552 11.832642294 11.605893938 11.432192808 11.340648987 12.757839756 12.451447423 12.163999147 
11.871498986 11.614588607 12.762703948 12.461365318 12.146121637 11.864037239 11.608868404 12.855983006 12.508165239 
12.179911259 11.883104436 11.644123529 11.452882324 11.346541455 13.145444402 13.16178123 13.183168567 13.206332653 
12.75201551 12.455956834 12.158114136 11.877202768 11.610035153 12.854140333 12.499560553 12.167086928 11.86495956 
11.609689857 11.434801663 11.338916251 13.148330062 13.157232206 13.169333392 13.188082884 13.212781863 0 
0 0 0 0 0 0 0 0 0 
0 0 0 0 0 0 0 0 0 
0 0 0 0 0 0 0 0 0 
0 0 0 0 0 0 0 0 0 
0 0 0 0 0 0 0 0 0 
0 0 0 0 0 0 0 28.602146193 28.535715086 
28.458804487 28.385878601 28.306919353 28.227671639 28.155077991 28.080140937 28.010941359 27.958755218 27.914218868 
27.886931407 27.874237656 27.876731588 27.89678163 27.934867321 27.986558188 28.061826244 28.139464912 28.236210446 
28.356101524 28.460686715 28.580050456 28.698785134 28.814799157 28.930428031 29.048099816 29.156867018 29.278109948 
1.509950272 2.4044931698 3.2047579378 3.840308138 4.44659759 5.083717668 5.6040179055 6.1216587152 6.6406797397 
7.0790331733 7.5309965694 8.0219780746 8.4926202278 9.0135663831 9.4808050804 9.9394604631 10.463612179 11.011605093 
11.559529477 12.160385479 12.757820671 13.404527791 14.094461227 14.759229164 15.451075762 16.105018475 16.72052584 
17.356142436 17.954760362 18.575007505 19.134213948 19.718440333 20.357055077 20.940895665 21.55538965 22.259444892 
22.856995724 23.461158653 24.131091367 24.750439709 25.346945056 26.040224908 26.678996635 27.352505714 27.966637726 
28.722966256 28.073893421 27.426228809 26.78172207 26.14138342 25.41593591 24.75716927 24.045542124 23.457635674 
22.844849247 22.206837962 21.513968886 20.908884516 20.303293761 19.695880618 18.997309618 18.380762691 17.758288632 
17.12925968 16.463190054 15.821655276 15.145969051 14.470396031 13.830714325 13.14182449 12.528847322 11.962782255 
11.334952825 10.78374127 10.203156068 9.6916656765 9.1951949143 8.6876495468 8.2112716554 7.6713595367 7.1985362216 
6.7204730165 6.2090235213 5.6803269866 5.1008110884 4.5115834788 3.9051016392 3.2388532523 2.4456871723 1.5841749201 
13.24236171 13.094902696 12.784673115 12.458055352 12.146305868 11.867798229 11.618571783 11.422305944 11.296244194 
11.245937259 11.241432392 11.284220473 11.411871896 11.605296493 11.847967012 12.119598949 12.409164664 12.734112588 
13.012667793 13.13638113 13.265553441 13.395181745 13.663446018 13.972378147 14.272843547 14.537870328 14.752882608 
14.925350175 15.02894688 15.091619497 15.102353034 15.063136766 14.957764658 14.787597589 14.571522455 14.318751636 
14.049837284 13.741165418 13.488759313 13.367676665 28.596825641 28.51083236 28.414811651 28.324705723 28.226899509 
28.132129102 28.037325367 27.955623104 27.904959931 27.876917719 27.873057914 27.901059518 27.957490855 28.036181923 
28.136370237 28.266731128 28.409695821 28.555630106 28.713766611 28.86598424 29.013099564 29.153819716 29.288743914 
1.4912937899 2.6675592268 3.5864859089 4.3573207122 5.1796766109 5.8373506314 6.4799615298 7.030920955 7.5907634992 
8.2522678488 8.834240156 9.4538434744 10.05256204 10.606404964 11.213383438 11.934741654 12.696106462 13.519467699 
14.33195121 15.116652696 15.893529277 16.65800025 17.552034883 18.317708152 19.046437112 19.77004932 20.547601896 
21.299796545 22.114334024 22.853429989 23.515649169 24.303928608 25.074417894 25.764755307 26.553743376 27.318472389 
28.055391493 28.719826016 27.885355262 27.084892666 26.320598336 25.442738209 24.664562767 23.806489901 23.07447809 
22.23234525 21.452757051 20.703435737 19.86587027 19.051666549 18.288083541 17.515057622 16.792403596 16.000408544 
15.201991387 14.281129424 13.523233321 12.667009385 11.872904788 11.142222543 10.420749009 9.7086556271 9.0484015516 
8.4072296146 7.7761441836 7.1679670086 6.5274754887 5.8414688077 5.1425136684 4.4161198795 3.6134748388 2.6542280448 
1.5903815772 13.238274439 13.068612614 12.781231922 12.432468692 12.126980632 11.84154549 11.601036612 11.412911238 
11.297817197 11.238395304 11.23600727 11.281137217 11.391925207 11.573074904 11.808115547 12.079763141 12.394140406 
12.716787186 13.000834144 13.136121379 13.26382158 13.425687237 13.7288094 14.063348475 14.37043851 14.655497072 
14.872529717 15.028856915 15.078721752 15.104486676 15.062892688 14.973681384 14.810520445 14.592870643 14.345610149 
14.059737081 13.740416599 13.466627784 13.360111739 13.690015872 14.059485552 14.447455897 14.017302998 13.666844514 
13.504563875 13.536390441 14.285453874 13.575648287 13.859066839 13.967271465 14.402287345 14.022464656 13.682891623 
13.606310075 14.327306866 13.523502316 13.6209795 13.735279712 14.51140284 14.361107659 14.737818593 13.715575253 
13.608122455 14.087230671 14.119292536 13.980740185 13.663816542 13.691370722 14.701569955 14.502387929 14.390795083 
13.669253211 13.755861917 14.115290551 14.093948792 14.403455741 14.054960998 12.82806021 12.769278513 12.687226578 
12.334432992 12.053452934 11.853412013 12.562494508 12.845773322 11.696655584 12.244231356 12.466355211 12.628232984 
12.679178402 12.088928433 11.869456403 12.747810134 12.85376969 11.614641544 12.397230656 12.297521659 12.630415567 
12.254862976 11.883493343 12.904118739 12.710931509 12.338061028 12.726133495 12.174998329 12.562216971 12.227405919 
11.855203315 12.886457085 12.64462211 12.328755512 12.028462543 12.838775522 12.78477001 11.601661213 12.459891692 
28.038595121 27.934821677 27.846372608 27.75917401 27.681931885 27.592877435 27.508763528 27.415233965 27.363320306 
27.309793582 27.276414035 27.259125496 27.243085108 27.246600327 27.277615065 27.330965225 27.39313958 27.471740579 
27.566691133 27.67152658 27.786863668 27.897238186 28.030651696 28.14702852 28.298795151 28.439433846 28.572426889 
28.704369221 28.861924668 1.6359043182 2.3961141619 3.1212980587 3.7938179817 4.4581450396 5.0655704999 5.6436439866 
6.2026889894 6.7004447022 7.2083157817 7.6912104601 8.1975270897 8.703036321 9.2210662439 9.7228295003 10.218943451 
10.748910804 11.300935526 11.890692776 12.484986508 13.076498006 13.704848722 14.345035233 15.008855598 15.672907099 
16.306601205 16.919696544 17.541049587 18.156002235 18.737901367 19.339353907 19.960735903 20.569941697 21.183882692 
21.859815522 22.495136601 23.11589099 23.740470226 24.401455424 25.050075734 25.678590494 26.348011684 26.977818552 
27.560816155 28.2380663 27.580154343 26.930036161 26.27105766 25.615783256 24.930957549 24.239413905 23.617076351 
22.982550667 22.31014583 21.641936535 21.021364312 20.387547757 19.790764022 19.146251011 18.471480342 17.870102346 
17.253598213 16.607154999 15.967525108 15.282849624 14.631062547 14.019059136 13.352563574 12.747557649 12.149434218 
11.540278464 10.960500561 10.410204652 9.8669665109 9.3339634276 8.8036147483 8.3008999264 7.7685565463 7.2718679056 
6.7479153861 6.20937152 5.6483714618 5.0862146545 4.4728583726 3.7972276204 3.0854353935 2.3110979089 1.3873049306 
0.64802989068 0.67250944492 0.64226946066 0.60187928405 0.57964416939 0.55091358461 0.56422538139 0.55090732926 0.54545501386 
0.5155159215 0.5138272773 0.52288446644 0.51471151721 0.50968393232 0.50519343348 0.51121201805 0.52407678463 0.51680650288 
0.52309159592 0.5418272096 0.54724605564 0.54973824063 0.5681454333 0.56584314663 0.58187406526 0.61728828845 0.66979593979 
0.7356677132 12.940230013 12.698249336 12.454525397 12.127113135 11.797205043 11.474868226 11.167198206 10.867208048 
10.64871803 10.510804182 10.393318065 10.237242821 10.409537572 10.583460217 10.833167956 11.137890381 11.438706409 
11.74308015 12.066424504 12.36060635 12.589512978 12.831705702 13.666091711 13.905732554 14.13112502 14.422140379 
14.719026896 15.00683423 15.271063331 15.540490928 15.76602026 15.963861372 16.161210768 16.153501188 15.950679389 
15.815681272 15.612435027 15.358537322 15.079759767 14.797680213 14.521288822 14.225407874 13.987332795 13.736993086 
13.341631191 9.8470134765 9.5626581314 13.295692218 16.624592029 12.830867563 27.251721648 27.190045634 27.099521434 
26.97523994 26.881300786 26.785772885 26.711562314 26.661217996 26.618776569 26.584997654 26.546533339 26.557251661 
26.580317101 26.620546085 26.682072631 26.740839802 26.831545109 26.947884471 27.061743532 27.179743713 27.298764233 
27.41455247 27.523881685 27.66070819 27.89762108 28.117956831 11.78600397 2.2959126776 3.083803341 3.7934913493 
4.4969223091 5.108856511 5.7137849295 6.2817365025 6.8387819726 7.3453365677 7.8600864226 8.3913086073 8.9216438586 
9.4696449306 9.966329839 10.486229546 11.026585463 11.603687996 12.192810517 12.764149998 13.337377772 13.963904774 
14.624571789 15.25512981 15.900203532 16.491023741 17.103342256 17.739094084 18.313032323 18.920162742 19.576520807 
20.192370275 20.787382184 21.473389525 22.10129761 22.716482526 23.361469175 24.021502631 24.696667776 25.341829096 
26.017484828 26.704566723 27.425831188 1.4307583535 1.4974638633 27.688938411 27.108726968 26.441650388 25.803191984 
25.109202458 24.425840468 23.764684115 23.118273873 22.43656423 21.785315553 21.140509934 20.513162524 19.875716336 
19.250075604 18.588239199 17.963410504 17.363362171 16.728969899 16.109219461 15.442175729 14.795493386 14.186886717 
13.556177159 12.930024371 12.343412127 11.741243042 11.146788597 10.602114482 10.031161104 9.4860903731 8.92133006 
8.412032102 7.8644654904 7.3363149151 6.7891250519 6.2491232389 5.6553117398 5.079533064 4.4363421229 3.7601832697 
3.0276615022 2.2664226242 13.851786806 1.4200411078 1.327728382 1.2239710351 1.1817186923 1.1458979195 1.1440758939 
1.1329664738 1.1154930503 1.0821131921 1.0909041526 1.0854941593 1.0637969057 1.0566472412 1.0725680663 1.0931812333 
1.1102579966 1.1191280151 1.133305141 1.146536001 1.1709595338 1.1832351554 1.1824786378 1.1738716059 1.2532692177 
1.4110362175 12.103846591 9.2451549685 12.428147892 11.454661626 11.099607842 10.749031869 10.397960251 10.114671932 
9.8622727804 9.6653509459 13.848910575 9.8044509782 9.5522111309 10.37062952 10.711116807 11.052879173 11.375574561 
11.691196892 11.990482739 12.345386233 12.812641342 17.300259582 14.593831737 14.2624545 15.200610425 15.509320911 
15.812794195 16.118942884 16.390953356 16.657634733 16.942944693 17.310163894 16.691396118 16.931317686 16.214732974 
15.930987362 15.630224665 15.3103396 14.97283084 14.651450035 14.293441175 10.070050337 14.896517712 16.472912545 
13.35303971 8.838408126 13.382233051 17.850374412 26.580850604 26.394828731 26.253863354 26.1357004 26.039871439 
25.963345199 25.933324999 25.875093052 25.791752317 25.757185058 25.798450365 25.906429415 25.975608344 25.985675119 
26.049343636 26.160298234 26.309417144 26.437379346 26.539252709 26.662982332 26.761464507 26.901060024 27.120333939 
27.399740828 11.83262587 10.75101388 12.681441635 2.2196920414 8.2263747702 3.1323755862 3.8530266206 4.5536454742 
5.1934921496 5.8175677914 6.4146002138 6.9625776395 7.5000782627 8.0450739986 8.6088261288 9.190291341 9.7150374451 
10.243231238 10.766854942 11.31799609 11.887928517 12.440511262 12.9671108 13.610051164 14.24832166 14.871142857 
15.49906124 16.068525656 16.680648486 17.276177339 17.890045438 18.472804948 19.139722047 19.768629559 20.398142897 
21.029494392 21.707483558 22.320828905 22.965396765 23.633733486 24.313580926 24.965773341 25.662265663 26.439878554 
13.935961076 26.708206342 25.995049385 25.333725045 24.631167049 23.939693224 23.299248016 22.600121982 21.908682287 
21.267164339 20.634512634 19.978661821 19.368439689 18.717905058 18.082502881 17.456088421 16.851615272 16.242234519 
15.637530303 14.989759975 14.382347116 13.740577554 13.141387593 12.543258166 11.968064557 11.366413569 10.781281741 
10.225343841 9.6628420977 9.0860901196 8.5211066212 7.9926277267 7.4345265408 6.8920142834 6.310906143 5.7126729119 
5.0858787666 4.4309969476 3.7111288512 3.1106010373 2.2914514428 8.2720646493 11.109133477 1.9797113314 1.8399187773 
1.8280305543 1.8142324037 1.7968645443 1.7782557569 1.7596239916 1.7402583699 1.7465072759 1.7338967424 1.7463749065 
1.7409898972 1.7294578134 1.7477419656 1.7796724707 1.8010451805 1.8201450493 1.8569506707 1.8700647842 1.8616374472 
1.8473480958 1.8027489051 11.476413512 10.350767536 10.373677262 9.9776302378 9.6357333116 9.2859610835 8.972710162 
16.293178504 12.260840786 10.695854993 9.9704042391 11.026171695 11.360680823 11.765107523 18.402815509 8.7049018798 
18.034167916 16.598307598 15.98931688 16.931831547 17.278568898 17.633339046 18.517424501 12.223443024 16.214903822 
16.804943416 15.843508753 15.398668332 16.511506596 14.438792912 13.145353529 7.7106899557 9.2708488539 13.721753249 
13.918295442 15.685012224 8.6584920748 15.345111921 19.093716586 14.915782386 17.853383776 9.5984660523 17.320505976 
14.47089136 17.093237039 14.938342427 8.984469099 17.52431628 25.829836629 14.418672684 25.608311167 25.440247692 
25.303388875 25.192144202 25.108094016 25.198439197 25.009729835 24.931727455 24.898372015 25.020714064 25.264746596 
25.112818329 25.120594775 25.246868166 25.454708562 25.600809844 25.733821463 25.827989306 25.919429076 26.085470724 
26.254016317 9.6112056211 12.650396397 2.5135693141 3.2285579431 3.9398488337 4.6267135888 5.2924839774 5.9373336035 
6.5502110292 7.1090613539 7.6710386222 8.2681067501 8.8735475085 9.4796315772 10.042650072 10.585028819 15.091822219 
15.650434939 16.253361853 16.790757458 17.395776374 17.998842335 18.626996183 19.315400368 19.94411788 20.599270271 
21.272524355 21.910866899 22.546448174 23.228459792 23.947508835 24.590696752 25.225785457 25.591846291 24.927509474 
24.206448214 23.49914371 22.804183421 22.100623261 21.409644094 20.749426203 20.109171113 19.483932793 18.864043854 
18.218966666 17.557751407 16.948431904 16.339067583 15.752368464 15.221064998 14.650193856 13.31999411 12.223036963 
11.639235141 11.018740081 10.418112772 9.8779241839 9.2860928839 8.6997684754 8.1675946269 7.5991787111 7.0252264879 
6.4264637343 5.7916823074 5.1531797064 4.482611292 3.7369291913 2.9395411899 7.1650500742 10.426879419 10.606793884 
2.4821069635 2.5169370851 2.5370471122 2.5357069832 2.5183805774 2.4941137857 2.4771274654 2.4908230897 2.5044176779 
2.5134998207 2.5174558727 2.4884599833 2.475008804 2.5108520875 2.544092265 2.5565033339 2.589469588 2.5989515619 
2.5752026556 2.5559348594 18.662526923 9.1957045177 10.031574881 19.169805118 8.7720456538 8.3762047128 17.396856851 
10.045851307 19.618437637 9.6830712081 19.819821751 17.803456293 17.070134239 16.775103932 18.243776568 16.256757051 
16.908842389 17.14214815 7.1172472675 10.436444239 17.363732046 11.612778601 15.058552351 11.612383156 16.454041603 
17.662207053 11.066524969 7.6914311784 7.6053253759 6.5670155469 14.005257442 12.770049171 20.465235881 8.8387141925 
11.235909042 8.504074909 10.817508506 7.993425215 16.128301128 18.890642415 9.2624819953 11.142662466 18.002582147 
12.019105263 15.650202833 18.22577063 24.833161348 24.642728269 24.486131029 24.225885693 24.070973466 24.207082904 
23.97574044 23.987356935 24.360507177 24.048056421 24.159531207 24.393932984 24.749961883 24.74279338 25.055822915 
25.046071261 25.225443038 25.450917193 18.315743407 3.2570102807 3.9943063853 4.7146767 5.4151414488 6.0884095321 
6.7120349928 7.3091365559 7.8833127211 8.5328838159 9.1819349999 9.8613936129 17.347931952 18.081253078 18.810137844 
19.431643428 20.103021194 20.794818328 21.48359665 22.124639957 22.817193591 23.584208479 24.307847186 25.055785206 
6.1117039582 24.599855049 23.806162834 23.018347891 22.3206179 21.604635561 20.891973081 20.21421028 19.5565274 
19.031639832 18.396319459 17.691446083 17.002419507 16.365038189 15.750563524 11.339931871 10.675962887 10.102648536 
9.5253278691 8.9314349545 8.362150413 7.8225491807 7.2303156806 6.6125221476 5.9544925357 5.2906098494 4.605226512 
3.8814063932 3.1574381497 20.886425922 3.2832956828 3.3105413373 3.316104275 3.312237973 3.2933654508 3.3360003918 
3.3906132089 3.4121205276 3.3927759912 3.3363218518 3.3078909899 3.3437902409 3.3866767054 3.3680130501 3.3376041499 
3.2831067666 7.8617094292 8.8270793743 9.2946743982 8.3522976337 18.804311541 16.832363458 8.1371596654 17.852103257 
18.164893401 19.214685261 9.814154447 20.493095992 18.093363218 19.798169406 21.397435496 5.955004052 18.160340969 
5.3328534044 9.449910172 6.6810828884 6.500340162 15.124458854 8.097069814 21.822175276 3.2488318358 10.100368685 
7.3467676228 21.805020248 18.714003503 9.0974850927 17.886326437 17.532226621 8.4842657784 19.17282703 10.974518692 
19.87692164 23.743147088 23.617966136 23.093755997 22.440598538 23.165186647 22.822002401 23.044997734 23.022438101 
23.385514188 23.596264084 24.017474471 24.26658897 8.7990739747 18.810792095 4.8013089667 5.5835292189 6.2878649479 
6.9791857172 8.2161838859 18.768297271 19.49896383 20.246470271 21.002351353 21.682834081 22.405193507 23.176518244 
22.42822868 21.761006012 21.114405229 20.384394331 19.59887909 7.736097411 19.195829152 10.335108593 9.7678930359 
9.2203447125 8.6646795933 8.0791023882 7.503136261 6.2379456342 5.4911421809 4.7513904575 3.9887244508 8.5064653434 
4.0783759064 4.1455809746 4.2256120009 4.2161813481 4.0929026062 4.4804171465 4.254678439 4.6045827582 4.2349896795 
4.272895314 4.0990671338 4.4497824454 4.2484265471 4.1214154461 4.0336747436 6.9122036309 10.650870729 24.033707949 
18.241309801 7.6823443531 5.6552897397 23.340295783 5.3436290017 22.166600896 6.9260644344 6.8744601781 8.1187544095 
7.4948939484 21.101482383 19.669008746 9.2916801522 20.228433277 7.2387396183 7.3292251299 5.0594310353 6.2392115722 
6.5591905416 18.928383247 5.7970650464 21.146710368 21.992345992 22.865590077 20.654633716 22.513090874 6.7103423501 
21.203025743 19.85119925 20.472405416 4.9468853753 6.1640401831 4.8843497285 7.5801787608 5.8051987379 5.7768375459 
5.2577672138 5.0647046517 5.1928073974 5.0449252041 6.9844262164 6.0059342516 27.77453523 27.812497077 27.739194625 
27.58375356 27.465114373 27.351332467 27.258192293 27.199230261 27.14654937 27.109079251 27.132436221 27.171416838 
27.249272734 27.347415349 27.463325826 27.601310367 27.773711727 27.943072635 28.100317275 28.246851317 28.423048357 
28.617198889 1.2100210176 2.6309307337 3.5970170354 4.4491499303 5.2061452096 5.8803082822 6.5310653978 7.1762653633 
7.7897099483 8.462986009 9.0800699168 9.6996637625 10.312296338 10.935086488 11.621573249 12.34315792 13.077324032 
13.862255763 14.63031866 15.400240612 16.156825393 16.938238035 17.764690729 18.524309837 19.251031923 20.02710859 
20.808862051 21.564947289 22.307979332 23.055481997 23.826154849 24.569840649 25.317850647 26.07239818 26.86227385 
28.099767028 27.387497453 26.605743028 25.761276736 24.953399634 24.108135793 23.337855008 22.520913746 21.720163944 
20.954354084 20.145361134 19.345457812 18.555890494 17.783647988 17.009933963 16.244028792 15.452554326 14.606658964 
13.853412526 13.023444039 12.255942866 11.462252821 10.759933923 10.050478816 9.3379863272 8.6313766263 7.9559126624 
7.3140669709 6.6379497573 5.9269673082 5.1827471654 4.3966814686 3.5667314831 2.7066609894 1.849350255 0.87449650146 
0.79767447319 0.73827862292 0.69646521897 0.62086391338 0.59354639965 0.57951292041 0.59199000298 0.58565541245 0.57577207094 
0.57304680289 0.5775215024 0.59191670028 0.60215648987 0.62263456076 0.61873171871 0.60521343272 0.63423420487 0.62990321132 
0.63932081076 0.69736113114 0.82411469687 12.921415654 12.681045447 12.428246271 12.125771714 11.785561142 11.469884898 
11.169285013 10.909919709 10.652089122 10.477700172 10.270542007 10.278152127 10.463504804 10.61462007 10.844271669 
11.115824439 11.419766342 11.729378254 12.068497677 12.384306612 12.606218869 12.819796653 13.655620439 13.85979191 
14.088229631 14.417890533 14.77816843 15.11271476 15.406878233 15.685375386 15.880122508 16.065836815 16.097767212 
15.845969889 15.73245534 15.529278968 15.316781439 15.058072621 14.759652028 14.460413485 14.170984582 13.947949076 
13.749004453 9.8747644757 13.358625245 13.25134941 16.44492924 16.700890894 27.228417647 27.093290937 26.759068921 
26.654055244 26.549894932 26.470433185 26.401675584 26.348313308 26.35717701 26.389588755 26.437659322 26.548004889 
26.659698204 26.825801689 26.967408961 27.132930156 27.278158976 27.475794413 27.641579928 12.397938148 3.687317443 
2.8475976371 1.8042166827 4.522549332 5.2703035166 5.991082744 6.6520264846 7.3323777542 8.0049934692 8.6913373574 
9.3393420322 9.9627997051 10.609085729 11.272943825 11.997180739 12.727250737 13.436239225 14.18712474 14.926333152 
15.66363336 16.418027531 17.184739818 17.978524427 18.73043355 19.477538026 20.275151014 21.05015867 21.813696315 
22.550686178 23.312361343 24.087717711 24.821322493 25.570286623 26.316933034 26.054553524 26.979118138 27.838130644 
25.244811234 24.424128758 23.578350909 22.803092406 21.995936052 21.195572779 20.444111664 19.62872692 18.830980851 
18.048866353 17.259020056 16.495593376 15.714874506 14.889762692 14.128718046 13.364267613 12.612690187 11.832503682 
11.07525245 10.371375052 9.6388632522 8.8956604477 8.1769172472 7.4952006318 6.7739034681 6.0777402532 5.2738201481 
4.4643302085 3.5726468815 2.6343850576 1.7186437786 13.832790738 9.2536664231 1.5131040456 1.6733614614 1.3294470566 
1.2441306128 1.2279863371 1.2290483598 1.2235182879 1.2103806867 1.2157604472 1.2037338049 1.2078140729 1.2218904619 
1.2334903563 1.249396462 1.2647194018 1.3062196969 1.3351483337 1.28124915 1.3322469215 1.4552073972 12.817507418 
12.692996731 9.2698157066 12.08037295 11.773133972 11.448172187 11.10641433 10.762692081 10.427739322 10.116944903 
9.8508147115 9.5811848604 9.8316303424 10.075709751 10.391192547 10.719198119 11.054517149 11.38813433 11.730743863 
12.051188104 12.335543979 17.034741739 14.451190988 14.761651924 15.158959891 15.552629869 15.895585652 16.234413934 
16.494957778 16.721412448 13.907451173 16.516107187 16.322313386 16.086994001 15.828725775 15.535982544 15.218846216 
14.895662997 14.581500529 14.285506155 26.944710093 9.602184239 14.227944011 16.638883541 13.229394679 8.7605542577 
13.402244736 17.393848541 17.206566652 12.199093432 12.400838484 25.958628551 14.554261757 25.75616454 25.564859413 
25.588999714 25.66439575 25.740641049 25.85714838 25.958765935 26.120387255 26.306982516 26.476328695 26.653851512 
26.867844907 14.491955646 2.9678147945 26.523519969 3.7699240407 2.2308132698 5.3851404172 6.1295586288 6.8215034272 
7.5453982227 8.2416569892 8.9606061978 9.5986085352 10.253669236 10.931957189 11.639516337 14.461775867 15.148356828 
15.920170282 16.649050704 17.429115344 18.17624855 18.922170555 19.708102014 20.49803386 21.285051224 22.03737868 
22.819319355 23.622844148 24.388011229 25.087539801 1.9564688945 2.5877710361 25.653810897 24.725014429 23.851966763 
4.6303915411 26.282986326 14.862194619 23.063341135 22.262672276 21.452488944 20.704534295 19.894137535 19.119218191 
18.311615898 17.513917512 16.771647515 15.978020075 15.193383839 14.295598015 13.646022222 12.939210625 12.188407302 
11.435493272 10.716491769 9.9706856393 9.206147055 8.4419958169 7.7101696422 6.981647405 6.2154855904 5.4274527375 
4.6462034052 3.7416630896 8.1718984394 12.731936105 2.1486732992 15.025992089 11.803170844 1.9422162999 1.948863809 
1.9731100326 1.9756754342 1.9591927707 1.9438678932 1.9295395037 1.9435069314 1.9615571469 1.9720280044 2.0249543299 
2.0805779286 2.1193334946 2.1043629338 1.9612776651 8.2002062564 8.9931945342 14.072259314 25.538564768 11.473033022 
11.116228433 10.746555803 10.38445465 10.021445005 9.6597324688 9.3463299298 9.2955151717 25.595375389 18.028053702 
9.6032349709 9.9901827102 10.352863781 10.706941114 11.059252008 11.453379334 17.422404228 15.480545902 15.963154739 
16.386224939 16.757281605 17.051782323 25.832185232 26.044993208 16.872346795 16.643315539 16.338348397 16.017372257 
15.666940718 15.279794846 14.911422655 8.6610449896 17.164972021 17.859439133 9.0340741053 12.029327358 13.813615675 
25.737513774 7.6560495971 18.489741832 13.972970825 2.1573434994 13.409096322 8.6651573297 17.647480916 11.810019004 
17.324976788 23.285613458 24.768296812 24.97718088 24.872844367 25.205683526 25.406137114 25.625613177 25.802213556 
25.997146569 25.065605359 11.192701946 24.731646908 7.034304682 5.5181251968 7.8212270409 8.5448954857 9.2637181784 
9.921881925 10.572195797 11.302746577 16.829234883 17.594239666 18.360668741 19.116851526 19.886014484 20.724768657 
21.507335352 22.294272738 23.126175044 24.021655593 24.965687828 2.7374679418 2.9410370704 22.519984625 24.154449074 
21.714486232 20.907904081 20.158673348 19.354967713 18.586857481 17.766885631 16.997028313 16.238180377 15.457949887 
14.744661555 12.53462743 11.836422472 11.160105655 10.355338047 9.5681486879 8.7497795319 7.9932893563 7.216770879 
6.4108193626 5.6554049155 4.8505076744 4.0110572962 3.1031844373 15.673655861 18.394782547 15.35152635 7.5892479736 
11.519124534 2.8092315122 2.835414841 2.8131308201 2.7706287285 2.7686693873 2.7646086989 2.7637717597 2.8108718274 
2.8505277522 2.9163105096 2.942752128 2.9479052825 24.717170966 6.2806666963 25.298535223 8.8594218129 10.860034753 
10.440005184 10.03784351 9.6211591966 9.2113651211 8.8818525833 8.4813926552 14.766980537 18.613442393 7.037586202 
9.2107320245 9.630032354 10.042226066 10.368049044 10.90931743 17.83524656 19.101891214 16.185085993 16.869708172 
17.214820274 17.509448052 19.030451214 17.490078613 17.212990463 16.882602413 16.550984193 15.952813626 7.0331458101 
2.6965499366 15.106048801 16.103909621 8.082186053 18.202307099 8.5761158825 25.067284028 24.803492883 4.7180048694 
24.913650063 6.489503755 15.534538543 11.980060516 2.6513876327 3.9561730915 25.066137107 7.5936948049 19.70371089 
18.316185477 17.684938432 24.980758706 24.961848333 24.420363433 8.9302257506 7.6414997056 8.218768762 19.714768127 
7.3709100753 17.735822255 18.514373866 19.294728831 20.040577244 20.876958229 21.709823888 22.579466747 23.493742927 
24.43414108 3.7373695074 18.153439925 22.780686935 23.513730275 20.37419461 21.987760854 19.554119981 18.824355512 
17.999193988 17.204474041 16.465615604 23.791809366 5.7534060041 9.9493282106 9.165244703 8.3383475963 7.5553277895 
6.704552149 5.881098664 5.0742991572 4.2285640507 7.0658584366 8.4765659173 3.8571716884 3.7918315666 3.6798253328 
3.6787801853 3.6516607213 3.7304341733 3.8030530261 3.851009133 3.9293622147 3.9157871385 10.596160308 8.1579931955 
19.136983845 23.797318755 8.04240366 21.149621526 9.6258845322 9.3792196781 8.8598886789 8.3897830119 9.6353397304 
19.464317254 19.728259272 6.3889616381 3.6149530017 24.728894299 17.799064819 17.417038012 3.510630287 5.7925412489 
18.671493313 8.0543132673 23.90233395 24.205055889 20.35188345 23.869530006 5.6998294744 4.7771822877 6.5249139102 
24.127461047 24.023519099 23.969617208 20.303282405 5.5313376563 10.795484623 3.8433493512 3.4028527357 18.400958821 
17.954145065 9.4086903625 10.217412627 8.9154336387 19.334132382 24.231533613 18.302289827 24.191905133 6.4209130601 
18.845628273 20.859113299 19.263457286 22.535913507 7.690227603 18.672412783 20.995040834 21.948570541 22.90662463 
24.008635718 5.0814615797 23.238761941 8.0451348212 7.1399424917 20.719393193 7.8137799946 7.1076588039 6.1594826004 
5.3082153577 4.3998947868 6.7563075163 21.02931083 4.8115569679 4.6491065668 4.6114555527 5.0431145775 4.7305535735 
4.9524303263 5.026628407 22.277954991 20.472684779 20.140982806 4.5691806294 5.8780087499 18.219449671 21.80152719 
23.266643981 22.950652255 20.895881916 6.0039617321 22.921747325 6.8406047916 23.669981906 20.142935018 23.041192103 
23.173296137 4.636213421 22.944162806 19.78664754 8.8355268489 20.632465636 4.6565683728 23.27434289 21.458491962 
19.140199712 20.186365702 7.1979099703 19.478491662 24.151958116 6.0564978884 7.5288266493 5.5892866115 21.922118197 
6.075132091 22.851195191 21.724366458 21.192061163 22.558505032 21.325372198 6.5775021838 21.958456476 22.11999758 
7.0844688634 11.272694824 13.19743544 11.273549266 13.198731596 12.845649726 14.830401089 13.113474858 12.013875099 
12.895989837 10.282661342 13.451832172 13.750598521 14.027821071 14.305830864 14.577844751 14.839546914 14.995159495 
14.941831413 14.807085634 14.610805836 14.36236947 14.080300073 13.778371059 13.454885006 13.228920446 13.222352143 
13.230050945 13.237101724 13.241818817 13.253993316 13.478605376 13.847826885 14.205931635 14.534439542 14.828119478 
14.989139461 14.94489203 14.803216981 14.60929258 14.376711309 14.103256378 13.777282423 13.433333193 13.240243923 
13.224462711 13.229869024 13.23793641 13.256204517 13.245916285 13.250707195 13.274227568 13.298773249 13.336716981 
15.012095827 14.975817365 14.846513128 14.655851574 14.42311228 14.153777916 13.856906195 13.53346897 13.451839332 
13.756914996 14.043106228 14.326198703 14.596904728 14.85319099 13.227235572 13.250735752 13.274315603 13.297462358 
13.333685291 15.00502161 14.969017184 14.842518239 14.656544252 14.424315739 14.145851 13.838844707 13.516843822 
13.470372458 13.759961686 14.039367439 14.318879033 14.593094654 14.849632118 13.127575309 13.130701975 13.126764493 
13.134229279 13.139048077 13.136398388 12.946831554 12.609623421 12.29743392 12.00632789 11.750617264 11.544860181 
11.392158404 11.339341299 12.901929085 12.601181013 12.307420121 12.021320675 11.746063231 11.482539786 13.120786049 
13.128473278 13.12521659 13.133009454 13.130032387 12.951948239 12.608401234 12.268987909 11.964244019 11.714782345 
11.512570192 11.378042971 11.33202513 12.905949087 12.604856797 12.307124767 12.015645188 11.740861158 11.488231325 
12.916411648 12.611365011 12.302693053 12.003335247 11.732587542 11.482445348 13.032209793 12.681901191 12.341229513 
12.029875376 11.759739224 11.544042132 11.391313268 11.338621085 13.124920931 13.150938244 13.169119818 13.193593909 
13.207684127 12.905704677 12.603533629 12.306183429 12.016155148 11.74045564 11.488004113 13.028932017 12.676503528 
12.331277111 12.012653345 11.731658544 11.516203968 11.37817792 11.334063758 13.127623838 13.149084488 13.160773411 
13.177193924 13.198919939 13.207217291 0 0 0 0 0 0 
0 0 0 0 0 0 0 0 0 
0 0 0 0 0 0 0 0 0 
0 0 0 0 0 0 0 0 0 
0 0 0 0 0 0 0 0 0 
0 0 0 0 0 0 0 0 0 
0 0 0 0 0 0 28.637365659 28.569023265 28.497515844 
28.42245983 28.346439834 28.267123128 28.190963219 28.116814034 28.044330382 27.983687369 27.934763959 27.898899725 
27.878837106 27.873753356 27.884534273 27.913663564 27.95892919 28.022130131 28.099297212 28.186558499 28.294837264 
28.407697151 28.519849323 28.639184114 28.756735818 28.872661802 28.989442249 29.102673087 29.217597146 29.340285683 
0.8050265174 1.9779477687 2.8202342124 3.5301939717 4.1497469545 4.7714500385 5.3473188413 5.8657626981 6.383477907 
6.8610276564 7.3058096952 7.7766573012 8.2567797998 8.7517268028 9.2455839458 9.7083234175 10.198808911 10.734435285 
11.282473175 11.856629425 12.456489465 13.078972951 13.748285312 14.426869087 15.105923281 15.77911925 16.413823425 
17.039410542 17.656276448 18.26559279 18.854995094 19.426562633 20.037780742 20.648758171 21.247678725 21.90651765 
22.557471131 23.158241406 23.795054013 24.439855215 25.0480063 25.69270785 26.359030935 27.015305076 27.659409826 
28.319977574 29.063083535 28.398425105 27.749738146 27.103507222 26.461000061 25.777770688 25.085851681 24.400550264 
23.75104752 23.150732824 22.525470166 21.860132598 21.211321678 20.606222159 19.999845283 19.347187407 18.689557077 
18.070260708 17.444567276 16.797086974 16.142994061 15.484002807 14.80791473 14.149559732 13.484342029 12.833287431 
12.243568149 11.645794846 11.056836443 10.490641241 9.9453791926 9.4417988042 8.9401160658 8.4487100251 7.9410485161 
7.4353441171 6.9604452793 6.4664906339 5.947168062 5.3944263617 4.8110554477 4.2143645997 3.5801611957 2.8564783222 
2.036648884 0.81752413112 13.281741597 13.179368886 12.952640813 12.621126374 12.296558443 12.000609653 11.734676196 
11.511871378 11.34786428 11.263016183 11.184016429 11.179396444 11.260191304 11.33359762 11.498313389 11.718557885 
11.977416073 12.259268724 12.571614139 12.888100625 13.086752474 13.17212881 13.226276226 13.318259726 13.517879412 
13.820741377 14.128964144 14.412824288 14.651253996 14.846596979 14.9885251 15.062886442 15.152729359 15.158390412 
15.088605637 15.020754709 14.879237228 14.686409847 14.451854703 14.187476564 13.89579294 13.605430456 13.410920197 
13.332229017 28.633021595 28.553966436 28.463146134 28.369868037 28.275590156 28.178759027 28.083200387 27.993931217 
27.927837227 27.888446286 27.870761505 27.883386976 27.925919737 27.994003744 28.083858146 28.199249311 28.336628363 
28.481790661 28.6342825 28.789822947 28.93970605 29.08371708 29.221365922 29.344115471 0.8606055938 2.1154545645 
3.1438189159 3.9824133361 4.7788202875 5.5139547448 6.1627091505 6.7575144573 7.3119816315 7.9214273686 8.5419613093 
9.1414686404 9.7501023069 10.326411061 10.906078556 11.569028162 12.310931011 13.104601458 13.924666131 14.72473334 
15.506308162 16.277225309 17.10709314 17.936125698 18.682879747 19.408573151 20.158723582 20.923200057 21.706054051 
22.482845725 23.183561539 23.908267679 24.687837792 25.41867304 26.158183596 26.935488255 27.686798877 28.362663835 
29.060044073 28.302432492 27.484609517 26.701960794 25.880500635 25.052654467 24.234305697 23.43969521 22.652576513 
21.84222619 21.078064465 20.28504596 19.459568532 18.670896082 17.902699062 17.154725243 16.397349273 15.60170741 
14.740755992 13.900535813 13.091491196 12.265645967 11.503256585 10.777069629 10.060671459 9.3757897408 8.7260327075 
8.0909876317 7.4726526085 6.8496859673 6.1882061349 5.497330684 4.7870199975 4.0258065242 3.1527154941 2.1539038398 
0.91514463402 13.277974391 13.170227608 12.934788558 12.603586346 12.273148225 11.9760872 11.712757675 11.497742192 
11.339968785 11.261770373 11.185498905 11.178767012 11.255547821 11.322537752 11.471880568 11.681417061 11.936163741 
12.230052034 12.551441646 12.868521601 13.084675447 13.175669082 13.224717044 13.323076708 13.571188461 13.901507178 
14.224794034 14.521761238 14.772172743 14.9650095 15.059748873 15.135296989 15.154057787 15.085184206 15.033347453 
14.901495754 14.708491418 14.476108178 14.209310687 13.901573153 13.587269313 13.400972722 13.331736116 29.401297544 
28.671205969 13.292587401 14.963145622 13.29006078 13.29384942 13.377357738 14.971170962 13.067477984 13.101940681 
11.3660751 13.068918566 11.365835461 13.184903672 13.20305943 15.212649823 11.097910879 13.316224979 13.389273791 
13.799175537 13.6406983 14.120167391 13.970225996 13.875479833 14.459898115 14.298062706 14.251067041 14.854021277 
14.58703711 14.675576283 14.12269227 14.263987861 13.792824151 13.947179892 13.849058337 13.431452838 13.344423921 
13.354428624 13.42727578 13.432564552 14.680133945 13.377133965 13.571807833 14.722691513 14.4998543 14.378056644 
14.168485517 14.386750434 13.732266839 14.158602061 13.392964836 13.609495044 13.791529955 13.381533108 13.37115409 
13.52910526 13.435188366 13.718553622 13.934639341 14.07147286 13.678557996 13.598748404 13.966918756 13.768814267 
13.597428632 13.455066417 13.793578545 14.007055264 14.204423057 14.397210628 14.187242009 14.82910535 14.635533541 
14.551205608 14.255991541 14.131274306 13.971269938 13.813226601 13.855865989 13.394769035 13.403257155 13.395799442 
13.440178381 13.427283168 14.615464502 14.802245194 14.370203904 14.525405559 14.417822368 14.140461431 13.550693108 
13.37187423 13.740532347 13.599613312 13.630181381 14.180580362 13.362019606 13.619922473 13.792176949 13.994440328 
13.803705591 13.401441349 13.42592903 13.408680438 13.479507904 13.471349653 13.663819836 13.469914687 14.867583499 
14.72522355 14.640432804 14.557614994 14.453477705 14.448658789 14.020471948 13.876290728 14.744365778 14.880538319 
14.839208287 14.595004383 13.653693089 13.816075803 14.342270208 14.498083343 13.460583261 13.650904412 13.440319034 
13.423066482 13.811615995 14.195272182 13.91361131 13.846166567 14.325783801 14.162200031 14.313629324 14.236201818 
14.000791742 13.660489544 13.921885247 14.230540862 14.634327235 13.675314156 14.055747099 14.169987284 14.031179477 
13.842114014 13.801886084 13.435331281 13.429049553 13.448865104 13.453084737 13.475153677 13.668648257 13.47967309 
14.880781141 14.811187285 14.857672075 14.736323313 14.635890951 14.710965681 14.616449273 14.473502708 14.580945849 
14.451481816 13.977987696 13.823545634 13.492945821 13.667743772 13.469378173 13.832839321 13.68083203 14.155040268 
13.997437478 13.939817911 14.57573464 13.50319481 13.708560664 13.892920187 14.186500501 13.982541093 14.31590298 
13.870282227 14.247059314 14.550958263 14.434743189 14.288137732 14.456055517 14.26267065 13.862255978 14.07482897 
14.219083732 13.899863854 13.6739701 14.283403699 14.302205578 14.0886785 12.937143124 12.987183453 12.997687292 
12.963964792 12.963734968 12.809889922 12.959018656 12.417862072 12.569181526 12.091866554 12.23957091 12.502404253 
11.836745419 11.954104317 12.188343809 11.648008315 11.738414678 11.947077281 11.461560773 12.664688083 12.504855983 
11.939762471 12.011066666 11.768938671 12.813464417 13.00698852 13.00728149 12.644618265 12.935287646 12.935852985 
12.740218955 11.629637659 11.515539819 12.189783843 12.05333561 12.151833272 12.358026166 11.571305802 11.79181199 
12.404365323 12.801623084 12.693467842 12.616845034 12.655836023 12.518396307 12.556888307 12.774346015 12.262086276 
12.402707291 12.347974045 12.934117924 12.757742196 12.909495153 12.898300099 12.982879693 12.560817394 12.384130431 
11.963870536 11.849649826 11.739818804 11.655168922 11.968928595 11.476736171 12.585824151 11.857716442 12.024510587 
12.958821366 12.701102167 13.007279529 12.833097482 12.93026588 12.923286725 13.0071875 12.650505772 11.470092388 
11.60013033 12.253687027 12.117205446 11.516919285 12.785715405 12.52125022 12.083708429 12.221149181 12.380390526 
12.197197141 11.746479002 12.235404571 12.522688174 12.534572776 12.771164185 11.733852463 12.361345153 12.455165786 
12.972779042 12.537688683 12.709576228 12.190687402 12.365544953 12.437667578 11.855564283 12.01957953 12.073500641 
11.472175317 13.067726825 12.884972612 12.705819944 13.073860731 12.620860773 12.453494234 12.813717497 12.259262534 
12.109478899 12.520293315 11.761397399 11.668863956 12.959924197 12.959511742 13.058427916 12.894757644 11.657326359 
11.615078079 12.679617916 11.914263222 12.014683754 12.212911044 12.034593075 12.729870343 12.9644956 12.249709322 
12.963905575 12.54076183 12.411941414 12.449217144 12.940657949 12.669721056 12.503630504 12.349536432 12.185757201 
12.396110474 12.014363032 11.854092321 12.040902074 11.473807113 13.046769764 12.700271244 12.878033111 13.045119816 
12.400567347 12.569762938 12.758146625 12.086731296 12.242794812 12.479551044 11.813559273 11.937031887 12.171371672 
11.634906836 11.724777611 13.007965895 13.007128016 12.991282664 12.987647744 12.82366351 13.050140588 11.59308065 
11.465728771 12.9323421 12.724824774 11.744701715 11.927967923 11.509584334 13.050417183 12.809634179 12.696224057 
12.562255265 12.130011179 11.720352447 12.335525566 12.24587471 12.396368565 12.513449627 12.654009908 12.619193568 
0 0 0 0 0 0 0 0 0 
0 0 0 0 0 0 0 0 0 
0 0 0 0 0 0 0 0 0 
0 0 0 0 0 0 0 0 0 
0 0 0 0 0 0 0 0 0 
0 0 0 0 0 0 0 0 0 
28.284214876 28.320408086 28.287114597 28.235428235 28.196674811 27.987027218 28.152752934 28.115868299 27.891094111 
28.072743473 28.032637165 27.803054382 27.994558365 27.954269837 27.720602549 27.91028865 27.873331893 27.637209749 
27.831841881 27.793680487 27.55027192 27.747440691 27.712129433 27.46101165 27.686787379 27.660157311 27.388062754 
27.633773403 27.610919299 27.334993915 27.594657501 27.58071414 27.291202432 27.572350798 27.56571406 27.265956892 
27.557845059 27.559004157 27.24899185 27.560689855 27.57080234 27.242617968 27.586151775 27.605364519 27.259934677 
27.631884013 27.658079349 27.30217166 27.688694434 27.726732776 27.360046659 27.76584675 27.805005868 27.430696041 
27.852054966 27.900994471 27.517561335 27.952866312 28.013457799 27.61777216 28.070834943 28.123553425 27.728337684 
28.178274678 28.238527514 27.841406584 28.304841043 28.364695071 27.963618498 28.422489873 28.481064821 28.088711912 
28.556533264 28.614772997 28.223076678 28.684671449 28.743926428 28.369332806 28.810185762 28.864801542 28.506155999 
28.930554741 28.991304824 28.638674142 29.069997728 29.132375612 28.792379379 28.78319175 0.56449592598 1.5523318481 
2.0151047207 2.3827330242 2.7999147835 2.0311947355 3.1501978973 3.4825010575 2.7700959016 3.8078637379 4.1232071111 
3.4657517487 4.444286556 4.7753876787 4.1328591583 5.0684151613 5.3389542841 4.7671202453 5.6185234096 5.88696746 
5.35863485 6.1577008969 6.4263663423 5.9263665296 6.6671963466 6.8940935457 6.453302873 7.1399495992 7.3738101103 
6.9555892406 7.6080368854 7.8610715374 7.4507959351 8.1075498371 8.3493566013 7.9447663009 8.5962525842 8.8627266872 
8.4499496002 9.117008574 9.3550788737 8.9609046124 9.6020658269 9.8349797345 9.4705043993 10.080022327 10.344350125 
9.9692815224 10.607985859 10.882557844 10.481844281 11.158831604 11.43166111 11.022568773 11.728219363 12.025861693 
11.593132017 12.326138215 12.620741377 12.185468785 12.920709833 13.23816778 12.778826929 13.557481771 13.896084425 
13.389083126 14.221013267 14.547868996 14.02406355 14.884311897 15.225732748 14.676882573 15.56124918 15.885346552 
15.341305059 16.204483118 16.510658424 15.990313351 16.818528304 17.13588535 16.613721006 17.446988914 17.746746235 
17.230952956 18.053742938 18.365071844 17.849040885 18.65515283 18.936278952 18.447309721 19.235580981 19.529673079 
19.038833125 19.838550976 20.160085571 19.650085699 20.462934984 20.756982711 20.265172804 21.062217477 21.371537318 
20.876623569 21.707603789 22.061863447 21.521211105 22.377914862 22.678085892 22.176865912 22.987154937 23.290393935 
22.8048493 23.60165647 23.937399931 23.427374044 24.26728521 24.577341844 24.070060049 24.901337553 25.19963865 
24.724923938 25.513735174 25.860097203 25.363618394 26.194901426 26.513807009 26.012603503 26.828980521 27.165108205 
26.662475051 27.456829184 27.763582508 27.268995695 28.48035947 28.156098764 28.549897355 27.826704687 27.503485176 
27.908847619 27.178031637 26.856347044 27.254609801 26.526528061 26.20693395 26.600018476 25.879022731 25.516615196 
25.942865399 25.174144456 24.844828442 25.272747208 24.499287662 24.143189648 24.584505036 23.832450009 23.537971768 
23.927795507 23.221312238 22.914084274 23.299354283 22.578792732 22.258725026 22.645938686 21.925702647 21.577843533 
21.975810899 21.268669599 20.964717751 21.331566265 20.648890804 20.344902253 20.704528393 20.04735777 19.742401271 
20.089250486 19.420836953 19.070517234 19.468845556 18.733482679 18.424864824 18.809401626 18.123978036 17.812878421 
18.171287757 17.503908923 17.190248797 17.56232067 16.86563926 16.534319052 16.930922594 16.212450437 15.894082051 
16.287661656 15.548801801 15.214257901 15.625164526 14.884832185 14.551265709 14.956529495 14.24172141 13.926038426 
14.324415757 13.588855166 13.249189882 13.68432509 12.943528377 12.640585758 13.04834357 12.338943854 12.0584868 
12.446461689 11.751705172 11.439819793 11.842432492 11.148993558 10.874012819 11.248167313 10.59887142 10.307721012 
10.683300225 10.037567968 9.779957928 10.136755528 9.5159692734 9.264964967 9.5989860444 9.0032796144 8.7455555737 
9.0677484868 8.4983843307 8.2555265117 8.5517445369 7.99474661 7.7186211086 8.0346978968 7.476069697 7.2334632852 
7.5205194166 6.9782251421 6.732208439 7.011144273 6.4706329923 6.2067237851 6.4803834656 5.9346405276 5.6611402568 
5.9315261251 5.3890722813 5.0892244998 5.3706890274 4.7926355695 4.4870733511 4.7844545392 4.1604430384 3.8443425843 
4.1420395744 3.5010113952 3.1513586996 3.4502313119 2.7794020257 2.360324354 2.7107788754 1.9129304546 1.4513266653 
1.8691431006 0.60067383973 0.31818010411 0.30243430629 0.32305716494 0.31035674495 0.65904029579 0.31344550889 0.30537129529 
0.64298039707 0.29991066672 0.29212929229 0.60677144459 0.29302063976 0.28590506195 0.57565358945 0.28258423853 0.26621742886 
0.55153760853 0.26855200358 0.27193306975 0.5552295875 0.26694792077 0.26813737927 0.53891744386 0.26882721328 0.26831386849 
0.53004746726 0.25878960436 0.25463928735 0.51177874434 0.25760144616 0.24584638596 0.49784444673 0.2464788844 0.25546973101 
0.51697021994 0.25052259909 0.25336538786 0.49978832843 0.25053926865 0.25115641007 0.49383122793 0.24927604786 0.24703476381 
0.489144599 0.25230520341 0.24160430678 0.49140455355 0.23763673995 0.24352450797 0.51668099685 0.24116062933 0.2381845727 
0.51960808002 0.24989626021 0.26447233046 0.5206092648 0.26505320444 0.26857238148 0.51663283565 0.26577959015 0.26641322507 
0.52737113905 0.2645220814 0.26277592702 0.53296444783 0.26789962628 0.26986391841 0.55807605568 0.27544933323 0.29224847321 
0.56558348686 0.28582905913 0.29578694468 0.56149032889 0.29782833129 0.30703475215 0.58486282785 0.31203079321 0.32671822816 
0.62932745603 0.32807252973 0.36767430197 0.69359138153 13.055935624 13.141191822 12.887926157 12.978191367 12.81448553 
12.630005625 12.780135211 12.589823027 12.293224953 12.453810777 12.301043744 11.977842638 12.137370444 11.964062818 
11.674009248 11.821512557 11.637815997 11.389818776 11.528577431 11.321583346 11.128403047 11.243030871 11.015221713 
10.948281303 11.032129837 10.752899858 10.855964113 10.915627378 10.576551393 10.719695509 10.83072798 10.455485532 
10.721529772 10.607212448 10.841580091 10.77284638 10.330889302 11.00881971 10.913940542 10.496676695 11.230330263 
11.114885141 10.708372426 11.503752993 11.369084501 10.986306255 11.790035248 11.645031283 11.289233791 12.086211125 
11.937547449 11.593317085 12.397035879 12.238975857 11.907525513 12.679606981 12.548510556 12.22066486 12.857963384 
12.780074671 12.48173399 13.030159745 12.938354464 12.700136404 13.507461133 13.432394931 13.664174493 13.594450494 
13.790767811 13.881080772 13.760258275 14.010216299 14.18392457 14.034779787 14.265463353 14.487971104 14.334988102 
14.565232449 14.769162342 14.629158752 14.85940161 15.012541688 14.895100277 15.136534301 15.241171237 15.138581157 
15.403475986 15.419106963 15.342041343 15.651828206 15.569941492 15.504339722 15.861800375 15.746241561 15.640781014 
16.048779423 15.653893798 15.752519999 15.509058771 15.571582194 16.03932815 15.388386265 15.467007841 15.886436508 
15.200371 15.302152083 15.719344051 14.963870603 15.0848083 15.489398386 14.685976217 14.821304995 15.219263197 
14.422763099 14.556792305 14.938434604 14.135861081 14.281660368 14.657601855 13.867990843 13.981346286 14.367255218 
13.674023749 13.744910256 14.097114915 13.523518408 13.580013537 13.865323683 0.99809074515 13.116589809 13.33648748 
13.556423464 0.61634388072 10.083721693 10.422427216 10.241053218 10.004775824 9.7437474884 13.495896827 13.258058797 
13.043439411 16.328529503 15.962717003 16.313385934 0.97020284491 28.002521791 12.874096401 13.087315682 27.593265887 
27.54864992 27.518285388 27.47411218 27.221349885 27.429355037 27.390071058 27.144993923 27.328507915 27.283328703 
27.037347036 27.236990344 27.194221378 26.927824908 27.147150049 27.099629232 26.832730475 27.063114688 27.036536369 
26.747604422 27.011935907 26.984668401 26.68499079 26.963874889 26.946660362 26.638329265 26.930182615 26.921243788 
26.599964543 26.902254077 26.893992597 26.563660848 26.899452472 26.90125269 26.549623736 26.912660381 26.928319411 
26.566583704 26.948181518 26.975144513 26.598159461 27.005623738 27.037055144 26.649225579 27.06609721 27.105717319 
26.709602893 27.150723922 27.198620265 26.784430463 27.256342838 27.309408447 26.88814581 27.365789163 27.424005362 
27.003730468 27.482484329 27.53824422 27.119933923 27.597359055 27.664569164 27.238802313 27.722039324 27.780731122 
27.35642812 27.834876204 27.911277438 27.469276826 27.979261311 28.049995422 27.592537124 28.168227689 28.235063067 
27.779527549 28.345020802 28.411097212 28.008197125 28.471095841 11.952322248 12.117099605 1.1663540455 27.799668337 
2.330642511 2.7016751172 3.0915417678 3.43580228 2.6990351367 3.7841846751 4.1255808723 3.4457645812 4.4697352528 
4.7826049504 4.1518689819 5.0808182454 5.3784386903 4.8072259765 5.673169169 5.9613023354 5.4150041364 6.2373380861 
6.4939422541 6.0004930611 6.764999666 7.0263471875 6.5620776737 7.2732209061 7.5213827228 7.0933003287 7.7724236249 
8.0322536964 7.6035791368 8.2919291335 8.550475773 8.1260176319 8.8104520942 9.0743562341 8.6561692021 9.3442041777 
9.5987176347 9.1948421428 9.8442698455 10.094840806 9.7170874386 10.352966982 10.61913107 10.225088334 10.888861834 
11.164642425 10.754796965 11.454052711 11.747211478 11.313075695 12.043731923 12.338175603 11.896034405 12.626767525 
12.919102782 12.476825836 13.208916797 13.518913735 13.049544704 13.835971561 14.15173913 13.649432622 14.485978059 
14.813776389 14.293751721 15.132555151 15.460778135 14.939943502 15.786646454 16.100832581 15.577673241 16.398437441 
16.703456421 16.195657426 17.010974502 17.320914058 16.797369083 17.639400854 17.946858421 17.421454657 18.233765063 
18.525381872 18.026286204 18.828419835 19.130187232 18.616685813 19.457403275 19.76941445 19.248345904 20.076220012 
20.382350345 19.884274872 20.678573199 20.987078745 20.489625906 21.328637025 21.668301973 21.129915207 21.980941845 
22.30009287 21.786840197 22.606425946 22.918012497 22.408387519 23.239329076 23.552646452 23.038336184 23.881697529 
24.212901236 23.690752673 24.549737085 24.874559262 24.35831133 25.196538853 25.511143338 25.018591477 25.848627001 
26.183455606 25.678963614 26.526655887 26.841807304 26.360473142 27.201911738 27.493649508 27.732148488 27.064790594 
1.3978181748 1.0381591342 1.8531264611 1.5499694772 1.9341754406 1.9076437947 27.963435894 27.634766298 27.344540899 
27.019674805 27.398564239 26.686132691 26.356773729 26.77470646 26.03750936 25.710041335 26.121911189 25.363212178 
25.020672354 25.455608208 24.679306292 24.333214215 24.767021591 24.003017529 23.69141975 24.094749126 23.368672362 
23.050809847 23.441052578 22.71065346 22.373649499 22.776994818 22.04864215 21.713685376 22.110637015 21.391946688 
21.080840857 21.46268205 20.767691008 20.450105615 20.826758153 20.131724061 19.832788667 20.194506989 19.520135406 
19.19749195 19.5630368 18.866477424 18.529118885 18.919424468 18.216128133 17.916025987 18.27612019 17.61504717 
17.307710477 17.663701959 16.989031002 16.66738136 17.046437442 16.355762453 16.038078432 16.419349403 15.702069785 
15.362522682 15.77581204 15.036459087 14.713726424 15.118598254 14.406804267 14.103812623 14.490630407 13.785572396 
13.455663204 13.87041401 13.139945924 12.840171656 13.241701073 12.544795766 12.248047008 12.635101384 11.945216349 
11.642167516 12.040386877 11.344093897 11.054925801 11.442184431 10.782539668 10.507018335 10.872884769 10.222574665 
9.9495589949 10.315100585 9.6790136859 9.4099330452 9.7574310156 9.1306125972 8.8620101479 9.2028020906 8.610999096 
8.3554120856 8.6663553617 8.0863618177 7.8149144245 8.1383354362 7.55607678 7.3019470629 7.600973488 7.0346850834 
6.7659133252 7.0638388259 6.5024518547 6.2259958745 6.5206912152 5.9364950396 5.6479807087 5.954796725 5.3674544273 
5.0783920724 5.3703537667 4.7650261702 4.448903286 4.762425067 4.1192788222 3.7719937532 4.10428504 3.4123848748 
3.0472339924 3.4017232284 2.6694293352 2.2761886451 1.8589350764 2.6555023277 1.0220102178 13.593478429 13.805971289 
1.042238486 1.0077025865 0.98153409067 0.94606697079 1.3673050486 0.90867230058 0.88789759592 1.2714566698 0.87544841062 
0.85484745827 1.2009759337 0.84566753488 0.84284742131 1.1614687291 0.8466606906 0.83718502629 1.1440284146 0.83511671621 
0.82920345453 1.1388411465 0.82257822511 0.80392144071 1.1243434552 0.78939392602 0.7881439253 1.098825661 0.79507907751 
0.79578246066 1.0858895135 0.79327188696 0.79048131836 1.0871684928 0.77879060025 0.77585238097 1.0741874388 0.77236094711 
0.77037226912 1.0606277435 0.7763277267 0.78354978293 1.0647113794 0.7957842744 0.80117709902 1.0825060823 0.80906689597 
0.80979411614 1.100663586 0.81042653562 0.81655307491 1.1136898901 0.81925345543 0.82845736089 1.1251052993 0.83326389831 
0.83906873088 1.139769777 0.84695216581 0.85329354118 1.1583498796 0.85808013765 0.87097761544 1.1766336422 0.86430641657 
0.87294567818 1.1811611933 0.85912088089 0.87338730589 1.1758568526 0.90035464933 0.93234225897 1.2095839877 0.99083683823 
1.0409836028 1.3243782948 12.267532902 12.402101525 11.947570409 9.736963148 9.5407777137 12.540852446 12.690838111 
12.262180408 11.623481228 11.787984696 11.623025521 11.282785068 11.446826777 11.277581133 10.951704619 11.110886355 
10.922787463 10.62244382 10.781294724 10.571054773 10.36849178 10.48922706 10.252688354 10.165112266 10.256780076 
9.9863740832 10.009784385 10.091151696 9.7683135037 13.767538874 13.570285659 10.192581534 10.08789591 9.979618528 
9.8736607511 9.4148792897 9.6825174145 10.751407118 10.591194605 11.072659504 10.917168532 10.538227904 11.395716701 
11.241318346 10.881165014 11.717492921 11.555759848 11.215040057 12.022422752 11.872399207 11.536393894 12.290687637 
12.160623686 11.842680311 12.591581936 12.443725604 12.161934566 13.055581632 12.809357612 16.737314225 16.945487629 
14.37344987 14.250048343 14.104153839 13.960811534 14.063157038 14.431383408 14.960468668 14.814339631 15.260451764 
15.116405599 15.353829588 15.547567866 15.410972179 15.661979139 15.83834511 15.696414441 15.968152867 16.091798173 
15.967490853 16.258019986 16.327072336 16.21356006 16.526231455 16.570846449 16.449980623 16.792971241 16.955295456 
16.736453407 16.255833282 16.339653014 16.442828412 16.56274481 17.095459443 16.807644341 15.788417617 15.922036761 
15.506155082 15.64997672 16.074650954 15.215863172 15.356256402 15.781088727 14.918994167 15.055319838 15.468856316 
14.603282916 14.749864814 15.138401861 14.32038224 14.450297464 14.809064407 14.010010956 14.161001531 14.475743695 
14.082518006 27.680077797 10.448823498 10.31293745 9.9349231775 10.216627518 14.661834478 14.51694618 14.742671663 
15.045456143 16.044797888 16.157320386 16.584120089 16.346534749 1.131245047 13.083947739 13.347293063 28.178302825 
1.4188313171 9.0665144356 9.3266634058 13.605755627 27.339282855 1.4448236082 1.0601718051 9.2265367932 12.617438022 
13.619401338 13.339303559 13.093022181 9.6410910517 12.567870693 17.549336084 17.257657959 17.098423642 17.553360355 
27.903367095 1.8260037558 26.885436984 26.839680207 26.747083645 26.684224304 26.488115606 26.614447491 26.566690169 
26.324173306 26.508426782 26.459711212 26.194127265 26.412702824 26.374899718 26.08669955 26.337236797 26.311475971 
26.000319174 26.297125957 26.275257352 25.946784113 26.246709858 26.229311991 25.902346034 26.188062383 26.168457003 
25.831393899 26.151459296 26.156678475 25.772164773 26.177351056 26.188906642 25.775335646 26.242885082 26.263023126 
25.850267003 26.297441004 26.328370571 25.938718507 26.333170089 26.362931667 25.978507639 26.39416458 26.440193504 
26.015643906 26.495031082 26.553756607 26.103216437 26.62785883 26.685367577 26.233620182 26.748706357 26.808348699 
26.372571963 26.858722507 26.918836275 26.487710995 26.980136046 27.038561105 26.600712065 27.087306028 27.142486019 
26.712139355 27.211841504 27.280623362 26.831464775 27.390124854 27.508724941 27.011041862 27.648439729 27.758629879 
27.544699645 27.260438607 11.955909758 12.133253794 10.919134655 11.099673212 12.755042337 13.016362613 2.2459187608 
2.6404205567 8.7285576926 8.534950234 3.0995596799 3.4575428355 2.6835109946 3.8155682364 4.1728232592 3.4977773281 
4.5181269951 4.8305683748 4.2080983841 5.1444004774 5.4542648842 4.8771123221 5.759445086 6.0505835515 5.5084314007 
6.3420128108 6.6281080805 6.1183173641 6.895834282 7.15554546 6.6903056269 7.4184516054 7.6819597028 7.2326959329 
7.9489502282 8.2201927169 7.7735394867 8.4970049287 8.7669222403 8.3273523462 9.0531787568 9.3312281043 8.8993729292 
9.5905156315 9.8415342556 9.452257941 10.103471384 10.365170635 9.9786099042 10.626066058 10.896622335 10.50430184 
11.172544294 11.459987836 11.041206581 11.746699512 12.038990546 11.601580638 12.317667519 12.600915718 12.162315256 
12.867165411 13.150358943 12.703457342 13.475050345 13.785347975 13.286639918 14.107796086 14.434551913 13.928688447 
14.749700407 15.061236487 14.55947815 15.378595056 15.697931029 15.184799634 15.985245163 16.278450679 15.783478107 
16.58655285 16.891050327 16.374256713 17.190036068 17.507101481 16.978304104 17.81467719 18.101498791 17.582981371 
18.392963039 18.696758283 18.181378031 19.030020025 19.358857005 18.806109782 19.672752415 19.981507186 19.453959476 
20.295460058 20.593937703 20.083110981 20.908579314 21.252933475 20.713318987 21.59071437 21.905961826 21.367918656 
22.21149402 22.520330543 22.013663517 22.841359087 23.165014892 22.642585053 23.497917626 23.828986613 23.298996707 
24.167788125 24.506302428 23.973100839 24.831533069 25.154702297 24.639138761 25.502296748 25.840653897 25.313328661 
26.228807612 26.573115895 26.050214618 26.977784326 27.254275958 13.643116302 13.894542492 26.908959277 26.575203769 
27.053576622 26.218861532 25.899376506 25.56898464 25.221732301 25.663885964 24.871016542 24.528837875 24.982023542 
24.183637851 23.852592912 24.284902662 23.532971386 23.209232392 23.619022111 22.860195283 22.518677508 22.949193522 
22.173362472 21.847241073 22.254003068 21.526821642 21.204066561 21.587579695 20.887920316 20.573939257 20.950657797 
20.246093774 19.927137928 20.306423148 19.621897908 19.309238043 19.673450709 18.983317261 18.653006971 19.043154619 
18.334488269 18.022949863 18.400238081 17.708371778 17.409693111 17.769312338 17.105767249 16.790327222 17.153938717 
16.483731172 16.175861749 16.547154019 15.871549978 15.54023135 15.940173761 15.214170554 14.893073703 15.313501584 
14.587313996 14.285220867 14.685508893 13.962155466 13.649087174 14.060591859 13.347670496 13.036592817 13.439925048 
12.735784748 12.444197397 12.840931059 12.155306562 11.855452225 12.254102608 11.553712555 11.257115199 11.665620579 
10.964315837 10.6919887 11.072505728 10.414632218 10.127993855 10.502264951 9.8483107041 9.5737733629 9.943173344 
9.2878877265 9.0024093837 9.373862918 8.7233418271 8.4650468969 8.8034885418 8.2047104677 7.9261513733 8.2571373851 
7.6518953962 7.3827319335 7.714167158 7.1164428194 6.8371802425 7.1642190543 6.552240515 6.2760689995 6.6030775424 
5.9829965704 5.6791867444 6.0140456423 5.3719982755 5.0772041221 5.4021484978 4.7559916059 4.427284253 4.7622009915 
4.0733093429 3.7287792632 4.0760070106 3.433414116 3.0645960025 3.4150312986 1.861819775 1.7950214905 1.8399869052 
8.5670536117 8.90055317 11.275158191 11.445339565 10.930542393 1.657253505 1.593115945 2.1221427313 1.5333213962 
1.504832316 1.9040932325 1.5049336802 1.4811142239 1.8314357289 1.4793025058 1.4752468115 1.8190584699 1.4691484456 
1.4611277777 1.8041581631 1.4534262633 1.4430029106 1.7864609422 1.4347218783 1.4168027629 1.7679552042 1.407772069 
1.4118815882 1.7491889652 1.414802947 1.4121081718 1.7429842656 1.4058072266 1.3947729757 1.7398584094 1.4003186429 
1.3970667592 1.7396916112 1.3940800375 1.4029603339 1.7432309235 1.3972910599 1.407722774 1.7348518782 1.4167503482 
1.4252370571 1.738421318 1.4400658998 1.4463809745 1.7632889326 1.4558144218 1.4644293282 1.7897345462 1.4726936057 
1.4808623892 1.8097075739 1.497015201 1.5120225881 1.8370086327 1.5157336172 1.5255129672 1.8618117597 1.5168645346 
1.5217840902 1.8643032815 1.5078065636 1.5113393117 1.8523288359 1.4810854304 1.5308425452 1.8225262412 1.7254972845 
1.8224942332 11.621596155 11.790562739 11.652280869 11.293481453 10.698282792 10.524100896 10.554365563 10.73348711 
10.561892997 10.179370273 10.35991222 10.174463626 9.8644748262 10.014485333 9.8046256862 9.560263665 9.6997661568 
9.4595448671 9.3023912901 9.4202835559 9.1315657992 16.057409212 15.90353138 12.537519415 12.292102217 11.032487408 
10.867526654 10.523376714 10.337330409 10.161115867 10.1597601 11.356072751 11.192516922 10.861727558 11.675287645 
11.514823832 11.193537953 12.056981347 11.864349876 11.560260442 17.86175935 18.112848977 9.1154621048 9.1909303958 
8.8499817642 8.5089266596 17.678184803 17.48688483 16.364227366 16.20743529 16.446615826 15.753784703 15.597276568 
16.141161246 16.668958679 16.527158997 16.766583565 16.979040198 16.835527196 17.105831097 17.300700109 17.143799355 
17.45227387 18.1747215 17.923492161 12.314329518 12.529503395 12.446756031 12.021078709 26.845442159 26.814091367 
15.766309862 15.928066174 16.370349584 16.515497859 15.41181153 15.584361364 16.028321051 15.025546133 15.195776822 
15.619904766 16.073875633 16.225938415 16.363177002 26.510640668 14.190493681 14.1434331 12.910088942 13.249540095 
7.9814153549 8.2617950756 9.668773386 9.5237892774 13.535093398 13.82994429 13.432327119 26.351040908 2.2702818989 
14.374506135 8.0038206692 1.9984752862 17.818822669 13.885117722 13.64890621 18.254260406 15.836530999 15.448925878 
15.292749822 8.9407450971 8.4560674106 9.1056600899 12.002876881 15.130554177 14.969714308 15.514832089 18.735190662 
18.483792344 15.131610092 14.766155771 14.586867771 17.578029578 18.114812265 17.393773879 9.7828315789 9.9814200225 
9.8223160632 16.897908759 17.015719497 14.376030969 14.157639379 14.699758451 18.786778739 16.950415771 16.655993598 
16.790398656 14.806536549 15.169310361 14.613657309 13.175852404 12.88703031 16.658889606 9.394248842 9.2538391793 
9.1289340537 17.108163197 17.238526554 17.680803195 17.422053443 14.196302186 26.204816097 26.111351488 14.175814168 
14.433121183 26.001387949 25.929916026 25.719462021 25.846865008 25.786676994 25.523950647 25.719542746 25.670374297 
25.370892003 25.616109779 25.576804247 25.246448659 25.535806411 25.520165309 25.148457228 25.565818315 25.536123019 
25.151557774 25.442585239 25.40000513 25.102490813 25.361907238 25.343995782 24.968250275 25.327612401 25.348337095 
24.912157012 25.409274587 25.463612852 24.957131936 25.58514443 25.619925688 25.140845848 25.543834878 25.549025247 
25.186822003 25.552518783 25.585009016 25.114327642 25.647106317 25.703532589 25.181767287 25.806553718 25.882003904 
25.349443495 25.954154232 26.018895061 25.52664193 26.08468406 26.136391379 25.666653255 26.182687266 26.245231897 
25.780491995 26.290203243 26.340151272 25.873450396 26.422664241 26.492987204 26.002541005 26.57680327 26.68661604 
26.170185283 26.914095521 9.7869770062 9.9890576439 12.664567269 12.897370963 2.1588412877 2.3643008597 2.8135380349 
3.1740612937 3.534674938 2.8737075239 3.8890853254 4.2427428109 3.5873362617 4.5819025807 4.9074944949 4.2862561031 
5.2347631704 5.5534803964 4.9622317077 5.8698195402 6.1754284317 5.6173577026 6.4757821529 6.7560027407 6.2458675116 
7.0299233312 7.3045658337 6.8312636815 7.5803361994 7.8584411315 7.3915919899 8.1519328658 8.4388088138 7.9708244772 
8.7366441815 9.0319003978 8.5713117214 9.3307967439 9.5964381881 9.1766177045 9.8749392341 10.141233385 9.7610270474 
10.411378973 10.67393136 10.31389917 12.074119876 12.34704776 13.495213578 13.76574327 14.082371882 14.98441494 
15.294869293 15.578750035 15.860512643 15.37164758 16.162824015 16.46702267 15.950897443 16.737111281 17.03355348 
16.521761659 17.337094962 17.643291189 17.092892582 17.945402921 18.236511537 17.697043347 18.550663988 18.884150541 
18.312664036 19.228190412 19.54308722 18.970821542 19.856933983 20.172477961 19.62928978 20.499290199 20.815893215 
20.27116566 21.151255815 21.491621359 20.935234735 21.809532422 22.117425342 21.591169905 22.433851223 22.7574757 
22.228186784 23.096999113 23.432520133 22.886947923 23.790497194 24.131736461 23.587489126 24.452163052 24.779218413 
24.268727324 25.095721035 25.444576822 24.907843036 25.793820096 25.462893076 2.7039872867 2.6458671237 25.131333485 
24.779404237 25.259331798 24.419619949 24.073172858 24.566610619 23.720248322 23.399449858 23.852324845 23.052640208 
22.702489434 23.151140596 22.351170444 22.00498823 22.451882617 21.659750374 21.338789514 21.754748955 21.008782595 
20.692405091 21.079153067 20.372158432 20.044384921 20.42897361 19.731342233 19.426584398 19.796371344 19.116109675 
18.791525394 19.173832627 18.468022361 18.151545708 18.541258374 17.819434513 17.507799921 17.88807361 17.201296982 
16.901037675 17.252982975 16.594164804 16.291568753 16.64389267 15.995950222 15.695728875 16.046137401 15.428157185 
15.10612479 15.487269077 14.818901262 14.517051914 14.935074071 13.529006154 13.231139978 12.382197213 12.095770593 
11.802718928 11.502661376 11.929737466 11.191783709 10.899372899 11.327785303 10.599284712 10.320832388 10.717467465 
10.051719408 9.7690322921 10.147466258 9.4749315031 9.1842493525 9.5816609802 8.8937132217 8.6080479818 8.9929914559 
8.3449522051 8.0771526058 8.4340487415 7.7966721497 7.5131355677 7.8841508115 7.2303899357 6.9543093721 7.3133319072 
6.6596188228 6.3634808682 6.7274340918 6.0513070882 5.7465951672 6.1111700884 5.4323532451 5.1133144698 5.4747574816 
4.7826093652 4.4503759349 4.8207609502 4.0814795349 3.7177798883 4.1137189374 3.3219023815 3.0169897417 3.3430404128 
14.692835912 7.6881456004 7.4401437852 10.725385852 10.555133442 10.981542689 10.805945729 10.513823483 2.2330587159 
2.1565098819 2.1797393635 2.1678386067 2.4964613648 2.1827780187 2.1711644963 2.5238479294 2.1739108846 2.162380585 
2.5340611829 2.1557632773 2.1448440652 2.5250335998 2.133568689 2.1234907879 2.5047416454 2.1151207853 2.1052750125 
2.4844340962 2.1114688711 2.1151266794 2.4831550594 2.1210429718 2.1151525325 2.497137 2.1188478077 2.1257445996 
2.5085701686 2.1271956535 2.1248225507 2.5152241727 2.110405359 2.1045659946 2.502770685 2.0980757837 2.1074066509 
2.481511068 2.1251248079 2.1415812785 2.492555703 2.1578415291 2.169254742 2.5268886185 2.1751239849 2.185651636 
2.5493483215 2.2008847609 2.2211972956 2.5713407708 2.2238977008 2.2334569296 2.5919845387 2.2181154164 2.2183964472 
2.5844247905 2.2026341104 2.2025430627 2.5622988162 2.1711614818 18.353631127 18.146506615 9.406663807 9.5842780442 
9.4026255944 10.195524903 10.388041284 9.8209269457 18.841588348 18.604208546 9.0181175112 9.2030636528 8.983404095 
8.6615809504 8.8327251806 8.5753700154 17.169148375 16.998786766 10.367698269 10.191181224 10.236625587 19.019501133 
19.344710761 10.014063565 9.8202189513 9.8640494418 19.449573491 19.174938102 17.208099894 17.547649133 17.368369731 
17.600231613 16.838317042 16.683165628 17.234315016 26.481735063 16.538515173 16.383817584 16.923209046 17.946354123 
17.760845394 18.021433552 26.135680152 9.4333304187 15.828911929 16.0580662 16.380322901 16.572003787 16.58205749 
16.680745422 16.832829723 17.027561626 12.606030811 7.4192117537 7.6857823152 10.586509752 10.770258322 10.233982131 
16.939299216 17.088574552 17.254204477 11.747059355 11.936251297 11.683242704 11.46402235 2.6202645669 14.743000159 
14.747099199 15.005255569 11.713370479 11.91875797 16.614753187 16.226631288 16.070054288 26.124627758 17.513703711 
17.234819242 17.382388917 12.982233686 13.231754828 13.521429643 14.07017059 10.915463048 11.190562912 2.4563496912 
14.363983693 14.670506921 25.922328258 25.74639079 7.9538778471 7.4368105396 8.1723335936 18.90086611 7.9371155578 
8.1517726291 7.3727388987 6.8724879622 7.1302402069 13.873568444 13.661494365 13.862735186 14.192704402 12.95481359 
12.65697544 2.5300642974 20.035628115 19.787063571 9.2170860122 9.0438839563 2.7012142127 11.535366575 11.419373025 
11.347772145 10.825479844 14.32713498 12.495105239 8.6717647895 8.8870162991 8.7328144348 20.126419303 10.955766834 
11.146322608 11.025628437 10.627009293 19.47616204 8.4850837921 8.1903641038 8.336258986 8.8294375816 15.913863803 
15.736454934 16.292445737 18.644666934 19.246009865 18.378079766 9.4724090014 9.6141581195 9.4223283579 11.454208861 
11.24430853 17.548726407 17.668211232 17.832539423 10.874942674 18.445488768 12.116014468 12.350310074 12.331804962 
11.810100116 15.532059943 15.953393167 15.293325367 6.8474003558 17.773217713 17.883150499 18.114046023 25.220724915 
25.13541216 25.041577916 24.971499839 24.737594235 24.894898216 24.837675419 24.563308573 24.709496144 24.666268037 
24.354134341 24.58977131 24.635452711 24.145181736 24.538238262 11.272334964 11.301352666 24.608906238 24.568410376 
24.135092749 24.454309726 24.436839406 24.088344426 24.442457309 24.505034571 23.976612961 24.688818827 24.813261976 
24.17069534 24.735497604 11.349399274 11.420979952 24.580880252 24.584563319 24.20075016 24.639325214 24.703670322 
24.100072996 24.818954974 24.924549915 24.274403132 25.101175418 25.175375985 24.571197826 25.170427485 25.238165617 
24.745401402 25.393939418 25.441791433 24.899019881 25.435942855 25.482543811 25.050574581 25.571497371 25.655173836 
25.135812108 25.767461483 25.852371198 25.521823894 25.33847088 13.044351681 2.884104206 17.92003679 18.088524681 
18.597066466 3.2361021509 3.5925228204 2.9077999579 3.9595854146 4.3064238937 3.627451924 4.6629030226 5.0008854662 
4.3562559044 5.346154233 5.674238124 5.066884103 6.0051246676 6.3175139442 5.753743261 6.6237318551 6.9085910667 
6.4020771444 7.2017479496 7.4879126904 7.0122297509 7.7708440026 8.0744500005 7.5979149175 8.3948338345 8.7021775757 
8.2096847246 9.0217531937 9.3289932022 8.8578165445 9.6626443127 9.9480172789 9.521102035 25.52708901 16.194094889 
16.460816117 17.374580751 17.675586366 18.041370664 18.355410614 17.714345353 18.719698315 19.064033587 18.445133095 
19.374664691 19.689436539 19.120281312 20.024382934 20.352808721 19.766530393 20.697444685 21.035225801 20.448125233 
21.377989467 21.69878323 21.13835615 22.017616283 22.337146865 21.803453657 22.681306637 23.024276116 22.4703639 
23.405540348 23.766898225 23.20030544 24.1270755 24.450031903 23.94570082 24.822513509 25.141220266 25.442861612 
24.681601968 25.188624757 6.63213984 6.3403347958 14.213781259 24.764344193 24.402793371 24.007147756 23.652505357 
24.202581904 23.259634463 22.911426653 23.41169476 22.563196265 22.210896292 22.66878094 21.853353343 21.507543884 
21.961930386 21.151570284 20.821297593 21.247774222 20.482543954 20.16267387 20.552661259 19.83338188 19.521284423 
19.885016819 19.258024373 18.948633029 19.294001863 18.63084058 18.309108794 18.713646777 17.955938938 17.626751159 
18.043370058 17.280382841 16.977867635 17.346480562 16.656375644 16.354365079 16.683439188 16.043699568 15.753037359 
16.058271563 9.0506672243 11.487324218 11.177826088 10.845823081 10.545297894 11.007389487 10.259146245 9.9879246433 
10.389092613 9.7007767523 9.4030687209 9.8138970604 9.1082425806 8.8126598394 9.228586469 8.5302161645 8.2611883321 
8.647446944 7.9943503068 7.706753192 8.0929763759 7.4137922981 7.1230393189 7.5276278547 6.8170921558 6.5134113002 
6.9231272513 6.1883144112 5.8663676819 6.2853728571 5.5386326064 5.2152201652 5.6243598599 4.8760454805 4.5373772616 
4.9499226191 4.1780377261 3.8031018912 4.245615956 3.4414622672 3.0436668873 2.8212088271 3.5217114778 2.8316538619 
20.25879196 20.662787064 15.008677987 14.779909812 15.282232413 2.9101851673 2.9064163275 2.9220437144 2.9115123952 
3.2940506677 2.9150264085 2.9022738002 3.31083151 2.8998884694 2.8918626247 3.3120371623 2.8811684514 2.8892491108 
3.3014605804 2.9086906031 2.916809286 3.3138851399 2.9421912406 2.9479302223 3.3628588074 2.9572615078 2.9599546774 
3.4012171915 2.9500107388 2.9353905597 3.4025180362 2.9078442414 2.9007367566 3.3645967859 2.8874716018 2.9052421808 
3.3219811219 2.9238474923 2.9401740691 3.3253991228 2.9623075713 2.9682315245 3.3644202272 2.9595215576 2.976627827 
3.3754550518 2.9608184355 2.9672505042 3.3500216933 2.9378737259 2.9294162771 3.3068037503 2.9114134674 8.1069754091 
8.3159787741 9.0020740251 9.2158985222 10.861168677 11.100376158 9.4442820198 9.6591633874 9.0607303037 8.5520894003 
8.7723151717 8.5895320785 8.1081369955 18.531010699 18.305811368 16.4793655 16.813234167 17.114919212 16.646324597 
15.505566032 11.374726449 11.339352117 8.5612292433 8.3871936644 7.9226579838 8.324447201 17.628083626 17.46173736 
17.987978809 17.781286211 18.008847893 18.483035389 10.138469171 9.9445454213 18.943053926 18.729092785 19.0057681 
9.9171023453 10.123495005 9.5549331124 20.151230866 19.8349181 17.618051521 17.733202411 19.484179962 19.231109895 
19.496142081 20.130225223 20.925805004 20.614368639 6.2630294929 6.5287961976 15.890999018 25.331068543 10.589847737 
10.31804711 17.762436238 17.914591018 18.128525457 5.7246554466 5.9416902644 5.6451772862 15.356036875 18.269902321 
12.118404713 11.828139324 9.6548300357 9.7454348325 9.5595006686 9.30952588 7.1811405484 6.9199169102 6.4018168581 
25.025035262 6.8077262936 7.0485195883 6.2335318103 12.709675016 12.436488856 15.436971079 15.173040696 8.4661211184 
8.2890454207 21.347565969 21.148306705 10.23508525 2.8883297554 3.2617828207 2.8839759333 3.2653597132 10.259407833 
10.455563486 9.9554307774 7.8622757395 7.6075978154 7.6581359366 7.8098482679 20.92559219 21.588218926 21.152372519 
18.188935224 18.363429088 18.436574093 17.089906891 24.944662494 9.3887760403 9.1745943827 9.2728877921 17.519084887 
17.991599553 17.396977176 17.304694083 17.154152209 11.47237521 11.678684501 8.8690198421 8.649452072 8.2904024228 
21.592226594 18.942205956 18.587167129 18.705504314 15.438762821 3.1989462511 11.293831042 11.153816626 10.822052392 
11.099268791 17.692811104 19.388871531 19.74009122 20.378150559 24.193244 24.112491198 24.052469843 23.919580204 
23.679225938 23.66055956 23.577109091 23.355678626 11.507727662 11.612149853 22.766986982 23.258006905 23.616934205 
23.687364925 22.796487887 23.566820339 11.727620218 11.857038102 23.400314786 23.405093644 22.985691512 23.513639302 
23.705072346 22.923215348 11.996272836 12.138629797 12.289403321 12.447515644 23.54519394 12.620484458 12.783208898 
23.534162495 23.592226115 23.02400363 23.770132456 23.890250418 23.200136762 23.991288495 24.172269341 23.488467137 
24.169986932 12.940240767 13.084048857 24.378023815 24.535818549 23.805828624 24.532018168 11.251510198 11.19945486 
24.655078153 24.745794197 24.141844011 24.911762546 8.98930075 9.1244961381 8.9432275702 8.6601502603 18.347843155 
18.454569849 3.6348512626 4.7509007688 5.1060737847 5.4916331264 5.8339456717 5.1939338014 6.1805005934 6.4977537975 
5.9374676393 6.8371946281 7.1409256584 6.6354378721 8.0444953016 8.3726300828 8.5085353108 17.44149398 17.809421127 
18.791955737 19.102901824 19.466968123 19.803692695 19.132547565 20.175316001 20.522754715 19.871851784 20.898165051 
21.244645894 20.623143405 21.582253794 21.905247115 21.341373335 22.263427307 22.612305755 22.043459432 22.995340111 
23.381078735 22.790803122 24.569309182 14.534143644 14.770292485 15.094202787 14.889035568 3.5609537958 22.724287802 
22.37459798 22.041420733 21.683085415 22.093495111 21.360263771 21.003597746 21.437091884 20.63979426 20.300490219 
20.749186166 19.907670417 19.579385674 19.990680059 19.184204249 18.923034916 18.604947406 7.9173472831 8.1200849552 
7.9275171699 16.315453012 16.007147048 18.761207983 19.042597636 19.530793881 18.707756109 10.503123959 10.215768199 
10.655046892 9.9329904281 9.6426588959 10.051833813 9.3714402302 9.0727666781 9.4940371063 8.7951140318 8.5084842707 
8.9432897925 8.2177864442 7.9450022052 8.3728096489 7.66124126 7.3624246432 7.7914782204 6.4206452391 6.0881431459 
5.7194352431 5.3836960477 5.8661003224 5.0176703231 4.6718798742 5.1226644743 4.2936630918 3.9297388196 3.6199230139 
8.655252784 8.8954451756 3.6809688388 3.6925598945 3.7269203757 3.7294306697 4.1080794735 3.7678440038 3.7675151019 
4.1818925899 3.7601775308 3.7529646714 4.218582362 3.6894065434 3.7128595516 4.1538228422 3.9009721794 3.9313081708 
4.2843252751 3.8177594246 3.8302248441 4.3681100837 3.999912017 3.9908276031 4.4290745278 3.8098522076 3.78086339 
4.4198842675 3.800382337 3.784690273 4.2544782699 3.7011019518 3.7177400354 4.1857333844 3.8933174537 3.9124195086 
4.2747157562 3.816317732 3.8055164789 4.3457650822 3.7434918079 3.7284797308 4.1811801787 3.6835242358 3.6588121935 
4.0076681312 4.0725700299 7.2510814041 7.4520646125 7.1350144007 3.6325814768 17.303838193 17.791255613 17.066186419 
16.902009498 10.728850864 10.943567912 10.810085455 10.376250246 24.43341267 24.336424784 23.888146628 24.171118529 
24.433675677 17.886585856 18.162473862 18.527004564 18.049010925 24.03564318 6.7137550717 4.3712892764 4.4183100188 
7.4849857683 7.7759370079 6.163055625 5.8803121592 23.803147822 23.574087014 23.17869478 23.605162005 23.807556493 
22.431982877 22.222122203 5.6478630155 5.91669266 7.3322599893 21.530487167 21.98000437 22.883376186 19.204195278 
18.143337344 15.704269642 19.18389181 15.403034635 22.584272538 22.424712226 22.113872212 4.371319461 4.0283970511 
6.7621599752 6.5839303276 7.0734663451 7.0978350806 7.3663820083 8.2268550764 8.4711046385 8.3106374234 7.6659983781 
7.9200387145 7.8085896232 21.435333664 20.792478626 8.7924945891 20.452864533 16.960890901 18.470191132 18.310416039 
8.0801957785 7.8754496145 16.630893597 19.44557493 19.235901672 9.2860455089 9.5476947141 9.6964415397 8.9007388882 
19.721798725 19.943437418 20.01340972 4.9683039772 5.270076293 7.6868445805 7.458096188 6.9658090353 7.4924607278 
7.1862061778 7.5038264142 7.7128985201 7.5214723802 7.1446025088 5.5794175966 5.1972044285 18.504445261 23.67683751 
7.9510667986 6.4527182859 5.9514859949 6.7326736736 6.4146693105 6.7674992987 6.946705162 5.3596553182 18.872157716 
18.510079638 4.9747448711 23.457719712 5.5737831586 6.1426971721 6.352835507 18.546089393 19.584100886 19.96100955 
21.072244929 21.416127726 21.832460981 22.198541561 21.56665596 22.632086842 23.020573916 22.430124302 20.756338657 
21.402062006 22.928039425 22.46956456 13.183301699 13.243722074 4.4598861518 6.7780495857 7.0978619929 21.159464495 
20.791672053 20.120748156 19.726952582 20.525670478 20.070416339 20.358463307 20.738921874 20.350936115 4.5334130692 
4.867126082 5.2640403399 19.908992232 19.931768874 23.305069564 23.239634827 19.157075743 9.5280455941 9.2510436573 
8.9743490478 8.5803789901 8.2858324431 6.7543629989 6.5231367415 6.5262548045 4.4125634376 4.8118387281 4.481737539 
5.1856502077 6.8103475376 6.4638960979 4.6653302139 4.5744070981 18.824904576 22.119469035 21.769322017 8.6380472513 
22.2038115 21.548623119 18.789370039 19.283756964 19.517153043 20.655038211 21.588483613 22.335904684 20.246118425 
19.387869324 8.0453605545 7.8278641832 7.534714313 7.8435697802 4.7962659022 8.3421066666 19.265186697 22.775761589 
22.883927233 23.265479229 5.6852104639 6.0442748683 6.1843021483 5.3763047006 23.050552602 4.7936898769 9.9285378254 
6.0041771656 5.6258928934 5.3314019447 7.2161228847 10.213289566 5.0466119224 4.7494093754 6.2450831736 7.2488668291 
5.4513438298 4.8552873758 4.7497505402 5.7469519592 5.9829042217 4.5141405846 7.1486515465 4.6036461728 4.6456383725 
4.9680963406 4.7051560392 4.7050917335 5.1231605429 4.6254787833 4.5671793688 4.9058894845 4.7779902092 5.0959900669 
4.5978659653 7.1569237676 7.3598449784 7.1056035881 6.7653271784 5.1343429054 5.1174257295 7.5282771774 10.48954107 
22.488336434 22.305210129 20.268184875 6.6160204533 20.807024907 20.931871167 6.4384928459 6.357801098 21.853010929 
6.0757699588 20.690075954 21.483785913 21.116152253 6.0125286911 5.532564638 4.7642062776 22.974140966 6.3977934239 
5.4147408286 5.6072369055 5.6720845939 21.816134651 5.4205299661 5.6019162528 5.5337241846 5.8813140929 22.537250669 
28.325971856 28.142382288 28.185625522 28.113352145 28.161973224 27.794159896 28.031452769 28.077211235 27.776319075 
27.904582038 27.954438335 27.661677797 27.797538282 27.846014604 27.52414541 27.693143251 27.741494404 27.4069376 
27.605301187 27.647298668 27.302879629 27.550721001 27.576749064 27.226020018 27.510495909 27.524854493 27.170056566 
27.489445 27.491385511 27.124096981 27.515214999 27.501429309 27.117006347 27.563090309 27.534697098 27.148050228 
27.641704497 27.601901341 27.206898621 27.741141763 27.690354099 27.295491461 27.864478117 27.79824086 27.40280839 
28.005085899 27.93274666 27.530453452 28.164504401 28.0907111 27.686261481 28.328409664 28.248462523 27.857713818 
28.483359203 28.406476333 28.021626102 28.630201835 28.555993794 28.173858316 28.788542138 28.71786443 28.335470022 
28.952971786 28.885367748 28.520564327 29.004164747 0.65048375604 1.9008640581 1.2895240885 3.1111376885 2.6257213213 
1.9474767581 3.9809148052 3.5786599831 3.1322465222 4.8218871468 4.3936607046 4.0349253702 5.5285609998 5.1856778489 
4.8351819515 6.1879734369 5.8525988648 5.5478192285 6.7877636236 6.5003636476 6.2089280949 7.3894778672 7.0985037995 
6.8559754176 8.0288150359 7.686037248 7.4842347565 8.6549803248 8.3552551173 8.1268140572 9.2730705658 8.9560005076 
8.7704895122 9.8809474452 9.5773586951 9.3881784445 10.463533817 10.184629923 10.003589363 11.077499661 10.773917068 
10.621005589 11.779916159 11.421875694 11.275021992 12.519230697 12.144633471 11.978950451 13.294685848 12.891328422 
12.706956516 14.091589838 13.693796748 13.467542735 14.867579078 14.482163822 14.2456205 15.641430691 15.257942458 
15.015500221 16.403106005 16.023644829 15.779175727 17.242516994 16.796049484 16.548476137 18.040154676 17.656065056 
17.35230465 18.785510908 18.418910588 18.145080497 19.511765986 19.147105223 18.887911134 20.2896175 19.897424068 
19.639186443 21.057013983 20.677758471 20.417700262 21.842817556 21.432550942 21.186293662 22.583880635 22.212415017 
21.935618884 23.288217046 22.95596297 22.680812496 24.067207045 23.672201741 23.439727879 24.823700022 24.438434742 
24.196986946 25.542326855 25.197593733 24.942880776 26.313513249 25.919920438 25.694203535 27.090589002 26.708946689 
26.46657189 0.63632706237 27.992826126 28.409485617 27.236927566 27.636458906 27.743231565 26.464307126 26.845840424 
26.996050287 25.603092128 26.041692235 26.18259749 24.809997871 25.199329341 25.356398812 23.958108847 24.387882651 
24.529751262 23.206666443 23.573988409 23.722288166 22.376667139 22.799508109 22.928614493 21.58602637 21.977691754 
22.120024232 20.828130568 21.204678294 21.337152578 20.00428303 20.425002023 20.550036713 19.196980686 19.605352635 
19.745697919 18.420284976 18.802371259 18.95122052 17.647822576 18.033474632 18.170435392 16.899681879 17.259202873 
17.397443949 16.121248491 16.513695123 16.6273186 15.327269404 15.721527651 15.848582548 14.445602383 14.89937924 
15.029203667 13.691114493 14.064351812 14.228778131 12.848484149 13.27083042 13.436149535 12.067573054 12.461102142 
12.636672453 11.305003792 11.668893823 11.855217774 10.592016327 10.953979785 11.107985541 9.8797278148 10.239686439 
10.402224506 9.1922645389 9.5283001017 9.6919611095 8.5175250375 8.8456277014 8.9829747084 7.8632478433 8.1880103162 
8.2933652603 7.2372703469 7.5511526563 7.6353892684 6.578012225 6.9095199044 6.9777690832 5.8779656201 6.234384436 
6.2860568278 5.1552428031 5.5190283207 5.5599375925 4.3966196234 4.7757116686 4.7974030721 3.5756075135 3.9964673241 
3.992291834 2.6611369257 3.1622309837 3.1501445459 1.7029965415 2.2450968637 2.2953796409 0.70553161401 0.42723015753 
0.47912637309 0.37889293551 0.40292602181 0.81681186544 0.3559531336 0.3682213567 0.75221500383 0.33720139127 0.34468548139 
0.69809282446 0.30226925561 0.30686795294 0.63787750696 0.2916790057 0.30044779122 0.59385067026 0.28452589884 0.29099197909 
0.56570037398 0.2898515241 0.29161788587 0.56318474278 0.28484583787 0.28524232638 0.56561148623 0.27971648211 0.28534389977 
0.56601182171 0.27941869217 0.28198230487 0.55754415837 0.28368159753 0.28181546366 0.55239096756 0.29171358746 0.28750211096 
0.56167632622 0.32959326776 0.32706146148 0.58823900088 0.3399003582 0.34273093583 0.61285339834 0.30314238363 0.3037893088 
0.61064463572 0.30129180971 0.29643091977 0.58936102591 0.31766590564 0.31003673677 0.59786093894 0.34041729603 0.33529165365 
0.62352082165 0.31863771489 0.31293348871 0.62495572441 0.34871561188 0.33898304406 0.64763938118 0.41234634084 0.39179401744 
0.73643418898 13.124312684 13.04583577 12.960610329 12.868676399 12.800026564 12.746963607 12.61704663 12.569201108 
12.463311589 12.28538068 12.282492476 12.112283217 11.956895937 11.960622305 11.801514504 11.652537097 11.629800538 
11.507330594 11.382696022 11.32008409 11.267686924 11.156615009 11.034789708 11.045130123 10.953110015 10.775375716 
10.880216026 10.818683746 10.564609111 10.740038455 10.630211737 10.385227671 10.648643831 10.772112979 10.824940073 
10.88949669 10.384886021 10.932061264 11.004426362 10.534890859 11.106849406 11.210613042 10.72900965 11.337307956 
11.465268676 10.980532331 11.61121231 11.75324089 11.269672645 11.905480444 12.065034964 11.577372405 12.237417008 
12.403894682 11.904702019 12.56543415 12.700750453 12.232410252 12.801449987 12.87933716 12.50380494 12.942023102 
13.016754506 12.703687655 13.422520432 13.485161595 13.555606562 13.641091809 13.760543679 13.759203123 13.895476744 
13.957924027 14.07063101 14.232468154 14.24230092 14.414391809 14.570655091 14.592977995 14.733153456 14.884662143 
14.942323254 15.021934007 15.145170291 15.258226801 15.26830537 15.371836315 15.54571652 15.44467769 15.509010188 
15.779698283 15.56743162 15.693353138 15.966194368 15.704070435 15.595410194 15.497717365 15.439872501 15.963033474 
15.4118335 15.338276826 15.794432759 15.25533611 15.155321013 15.636834807 15.060239885 14.939835391 15.428264092 
14.820637651 14.697356717 15.191621283 14.546232382 14.394521748 14.906489177 14.243213005 14.088185484 14.609864076 
13.932933407 13.81576851 14.307778806 13.720766907 13.661712031 14.04850762 13.589432781 13.529517069 13.852445224 
27.915091711 28.668319687 27.546927818 1.1260833344 1.3357975021 10.131428241 10.460043209 13.341397078 13.119105879 
0.56585732645 13.018424633 13.228295965 10.15856669 13.569724368 13.473690385 16.21766981 15.884485364 16.044621045 
16.364795307 16.530253266 27.317768913 0.98261220548 27.483432 27.520666683 27.452318151 27.434334199 26.978357933 
27.161195595 27.110967331 27.17133098 27.001383252 27.059446049 26.705816035 26.902910449 26.950366228 26.833448816 
26.863837802 26.507901804 26.773093726 26.799802358 26.727434903 26.746555948 26.371799125 26.743739262 26.732140899 
26.348801966 26.779459538 26.759779091 26.369270693 26.842576211 26.803291842 26.409995234 26.947032138 26.897377243 
26.489397747 27.060981354 27.002174456 26.601110072 27.213088282 27.143316215 26.740465068 27.370227656 27.283295143 
26.89507655 27.537849266 27.452307182 27.049181046 27.689211095 27.609723705 27.205228449 27.861364515 27.787471953 
27.377107366 28.032248069 27.943726755 27.559214093 12.66492902 12.520782783 4.0680540852 3.6314332346 3.2168619929 
2.7312228621 3.2772324974 2.1942822257 1.5163821889 2.3360846033 4.8666895661 4.4765882792 4.113047107 5.5792582753 
5.230461734 4.9021109284 6.2650184069 5.9286404073 5.6348478374 6.9189151844 6.5852888258 6.3240978288 7.5654810073 
7.2492508269 6.9946615332 8.2389243069 7.8930525961 7.6700710192 8.889496019 8.5743239797 8.3488489036 9.5226110437 
9.2078778912 9.0147950227 10.139672233 9.8306025626 9.6499491253 10.773333817 10.4611679 10.284218732 11.447310049 
11.105445991 10.938888937 12.169246397 11.811846356 11.63238489 12.900883698 12.537723629 12.359269132 13.646556964 
13.259015262 13.079321584 14.405507546 14.026282009 13.810024686 15.15986405 14.779508705 14.556562805 15.90707372 
15.532601551 15.295234325 16.675797349 16.287637428 16.041011935 17.473303126 17.061207385 16.801391508 18.250969396 
17.870916113 17.581712391 18.991271799 18.626761642 18.354498497 19.753671008 19.363926556 19.103903615 20.543868647 
20.150969837 19.87606995 21.309643454 20.92969988 20.662173355 22.063062058 21.689791844 21.431173767 22.805417756 
22.430034678 22.181443703 23.571570683 23.184786548 22.930662734 24.330698508 23.957947375 23.699158438 25.070939078 
24.696524334 24.453784729 25.822299009 25.444966318 25.194910861 26.590355941 26.195445144 25.942778808 26.704448262 
1.2986129353 25.9085091 26.330736281 28.35839821 26.792857212 27.184036973 26.51576156 27.612889092 27.96935559 
28.227533079 27.408110817 25.099791454 25.504082697 25.648912784 24.2666875 24.689916748 24.833658152 23.458646652 
23.844600619 24.000457334 22.662255019 23.071707343 23.190094756 21.858126219 22.259586907 22.399011503 21.074794936 
21.458760053 21.595405984 20.294332397 20.69974564 20.819638493 19.486633381 19.886998888 20.03644634 18.692970736 
19.087330284 19.229916252 17.915914816 18.300938694 18.440130853 17.134178152 17.51897735 17.654072679 16.369869909 
16.749810326 16.877557411 15.584090343 15.976262398 16.105313275 14.749156272 15.167616097 15.301914273 13.992334164 
14.365135983 14.508755079 13.195733164 13.606896184 13.745049847 12.43622187 12.817289967 12.986301316 11.648792694 
12.044339621 12.219607235 10.91840715 11.269723926 11.451083727 10.210813993 10.56758174 10.721152932 9.4870923409 
9.8475334593 10.0032911 8.7609682982 9.1202818797 9.2661764762 8.0630210126 8.4081750889 8.5360856987 7.4002772417 
7.7294250666 7.8364909622 6.7007591149 7.0484399787 7.1362621187 5.9961104082 6.36165701 6.4282848306 5.2206962985 
5.6041431051 5.6807912647 4.4212326799 4.825588551 4.8752627259 3.5584275052 3.984382939 4.0274946342 2.6554800145 
3.0958661096 3.1149846292 1.7639914359 2.2021900179 2.1903600675 13.539136265 13.757548837 9.7573284642 9.5737399918 
1.0865386153 1.1265227251 1.1846434249 1.2383479417 1.5846285661 1.3049149285 1.2333750577 0.95937065084 1.0116024431 
1.4151808488 0.90689321063 0.92727148289 1.2840046919 0.89142009538 0.90394296707 1.2352114203 0.89839206238 0.89583374799 
1.2277000833 0.89205699374 0.89922529504 1.2258657807 0.88205645913 0.88778792918 1.2168467265 0.88309902046 0.88321436845 
1.2129307497 0.87934373309 0.87738299919 1.2097981925 0.88913317737 0.88138949336 1.2055837335 0.90143130312 0.89635069469 
1.2151072236 0.92146920172 0.90858532774 1.227235961 0.92538354979 0.92608253684 1.2403616618 0.92737419882 0.92903736998 
1.2569283444 0.96421439308 0.94195246341 1.2842714118 0.97603898994 0.9728137033 1.3194852912 0.95636634499 0.94429247074 
1.3068320393 1.0149664617 0.96843374619 1.3038751861 1.1438999232 1.0591853158 1.3880007255 1.6134268538 13.08912016 
12.859559361 12.595303321 12.748931387 12.973691165 9.5858541825 9.7739245387 12.38129655 12.243779396 12.236174866 
12.097096976 11.945684915 11.929899502 11.783670334 11.612922503 11.613456067 11.443001431 11.2831056 11.277573876 
11.113474253 10.957291333 10.933335092 10.794534144 10.657170941 10.592734447 10.509885452 10.367717596 10.269180506 
10.250209573 10.144791094 9.9804847801 10.028433959 9.9040890337 9.4362870646 9.7197078582 10.126534418 10.22114639 
10.329198348 10.458428737 9.951702068 10.606437472 10.751567078 10.2292026 10.909936785 11.066673497 10.55219141 
11.231587225 11.388481506 10.885369276 11.554553295 11.723895622 11.221963596 11.894708796 12.052984203 11.562433608 
12.206587795 12.328704424 11.895111796 12.447414626 12.581698562 12.50056775 12.187791974 16.553505317 16.744150367 
14.155264245 14.274240566 14.428412616 14.588193611 14.60101816 14.791532933 14.96868918 14.95709173 15.166473585 
15.33564695 15.355468114 15.505019478 15.657626999 15.726053356 15.821486682 15.970380596 16.068691129 16.090716695 
16.204999319 16.367868356 16.30241055 16.412936112 16.862869812 16.606422244 13.838311086 13.630081311 16.200619669 
16.126531285 16.040832119 15.927975824 16.42126727 15.817466712 15.703644238 16.207553562 15.577992019 15.445497343 
15.960030357 15.30066019 15.149753491 15.683142173 14.990720914 14.843467524 15.376438478 14.680113645 14.537416026 
15.053342292 14.386187876 14.263062478 14.734583256 14.135254852 14.013951605 14.435469361 27.263385848 27.341901128 
27.0870282 9.9210223696 10.034880887 9.7241064411 13.937852843 14.064095468 14.343679253 16.383579606 16.245157864 
16.57562544 26.600216236 26.432840208 28.130322311 27.74047608 12.953817649 13.241174512 14.042238543 1.6858169827 
13.537133875 9.0309071897 9.2994342148 13.380423393 13.102095263 9.0387938598 14.108103603 26.851962303 9.4629506332 
16.929504753 17.031638414 17.188359342 13.658871422 16.948815108 16.67160303 16.910966159 12.509367652 12.289396729 
12.54695381 12.812856416 26.305070403 26.358832633 14.190305046 14.400658052 26.112054015 26.152907964 25.960042014 
25.956008182 25.967769118 25.994941351 25.573431479 26.050507441 26.026026822 26.143829148 26.08791356 25.698724474 
26.258077498 26.201290791 25.795656205 26.391931794 26.307931009 25.905447483 26.543613727 26.471878992 26.037630179 
26.719728684 26.636049502 26.212422058 26.877103568 26.803620359 26.391025924 27.064686221 26.965215022 26.565115965 
27.254670552 27.171256538 26.761288883 14.397490292 14.1984115 3.3208890239 2.8993710098 26.875499372 26.809210441 
26.420683368 4.144220827 3.7200659654 3.3744727079 2.5289947392 2.0205925725 1.8387174027 2.6052044262 5.6898136027 
5.3195904236 6.3926592012 6.0529711488 5.7605798322 7.0795387121 6.7305353129 6.4780944523 7.7775906154 7.4330247936 
7.185716091 8.4689404692 8.1182984259 7.8948648591 9.1514131561 8.8218973341 8.6019253213 9.7814136299 9.4660592178 
9.2795597091 10.430985538 10.106027232 9.9256365885 11.100833405 10.769208366 10.591923178 11.815507993 11.456135034 
11.284491483 12.561580222 12.199851465 13.332063857 12.980599686 14.691729937 14.326500599 15.403913386 15.039700618 
14.805229697 16.167896626 15.79426947 15.533717233 16.916311641 16.535215862 16.284211416 17.703776174 17.308022793 
17.03854052 18.453880634 18.07796989 17.802397734 19.20095885 18.826815135 18.548903245 19.993216228 19.593326288 
19.314691007 20.775990537 20.387044795 20.102551263 21.551546481 21.168093743 20.89072514 22.296169827 21.926074443 
21.660443471 23.06787801 22.685399913 22.427513692 23.85717052 23.467812026 23.220278081 24.606317327 24.238248312 
24.004760523 25.329755297 24.954653047 24.737421962 1.5947043007 1.644201911 2.0401346951 2.1392058566 26.026562303 
26.06178718 25.702148403 25.61801578 24.5748258 24.985803045 23.715406333 24.138971931 24.28751232 4.9506882621 
4.5687881977 4.2063082227 5.0116715045 26.169020502 26.631260397 27.309743659 14.541586337 14.66752418 14.717473728 
22.933475413 23.321856313 23.456992304 22.129515309 22.533775525 22.662411687 21.324217671 21.724996393 21.857001887 
20.574554641 20.950529744 21.078089468 19.761723365 20.169273558 20.298971735 18.975479495 19.373709205 19.506469943 
18.180795065 18.570478523 18.715255315 17.38725108 17.780056039 17.912588431 16.634809358 17.0137819 17.142579141 
15.847696616 16.234680435 16.374638308 15.042790846 15.45184936 15.585792641 14.212800034 14.590162874 14.743767392 
13.505890833 13.885907461 13.970761275 12.776890305 13.150652362 13.290911635 12.010840284 12.399586097 12.561623152 
11.255229999 11.633370076 11.809506195 10.542931289 10.895878405 11.074149857 9.8028329455 10.171621786 10.34226736 
9.0478848166 9.4237945629 9.587721647 8.3055937407 8.6705499278 8.8240605426 7.5978965559 7.9454282523 8.0769249815 
6.8719118703 7.2405080719 7.3473915655 6.1399753223 6.4964079072 6.6011468974 5.3433943928 5.7541148998 5.8251088572 
4.5481562913 4.959411811 5.0410002733 3.6501436936 4.1002026747 4.2004175544 8.703500008 8.4730606325 13.06649273 
12.772684909 12.458055043 1.7314621773 1.8341354282 2.3539367453 2.0459025568 14.737525355 14.897697757 14.94737928 
12.103014347 11.929121971 11.995612409 1.580297788 1.5926957683 1.9462224286 1.5844842862 1.5864452907 1.9435419638 
1.5938829622 1.5981016948 1.9591392588 1.5885783096 1.5954908127 1.9731095703 1.5831774513 1.5801539549 1.9665001307 
1.5691574639 1.5751636961 1.9509904112 1.5640753102 1.5618083062 1.9363752558 1.5780268041 1.5706429623 1.9361642425 
1.5927730988 1.5867692558 1.9521468289 1.6067227019 1.5975185669 1.9660876017 1.6413726453 1.6320337817 1.9974527771 
1.6907945756 1.6669610253 2.0509960434 1.7261179074 1.7062869497 2.0972786766 1.6924944389 1.7135587783 2.1090542066 
1.649331613 1.6151178114 2.0308912999 8.4881085545 8.7255724156 9.2829890023 9.414467739 13.99103634 13.734617597 
25.391908133 25.797396102 25.910245994 25.130996575 11.776207265 11.61459239 11.635949453 11.442562021 11.27596747 
11.295668369 11.093754908 10.919986777 10.932429482 10.741834829 10.566253406 10.56527388 10.388803595 10.216260727 
10.20151927 10.040696623 9.8781357672 9.8387489979 9.7301733457 9.5856577269 9.5013573193 9.5495395223 9.6848914864 
9.1473590486 25.991590587 25.975557615 25.576028106 17.536037498 17.707683415 9.8277554398 9.9948633577 9.4480915969 
10.181869704 10.351407712 9.7948201086 10.528015573 10.700101292 10.169864958 10.873132408 11.043188742 10.52947184 
11.216223053 11.391047066 10.884021066 11.58289028 11.751005393 11.258010497 17.041022093 16.965265641 15.124152777 
15.323320745 15.250976356 15.564663329 15.762154452 15.720302358 15.9721353 16.147363066 16.174629414 16.328619491 
16.504195625 16.573555092 16.644216327 16.78346588 16.906657418 26.189685436 26.243065186 25.894161671 25.792019291 
26.400634283 26.494460218 26.001416407 26.733725264 16.604189581 16.481101678 16.370661542 16.238097101 16.759755807 
16.08786592 15.939467891 16.491955265 15.780761533 15.620995258 16.177798594 15.447477163 15.283535007 15.840935139 
15.095315232 14.930959973 15.471694903 14.757447797 14.595833054 14.706732813 8.9576725785 9.134001648 16.849164527 
16.743626267 17.020089225 17.290759199 17.604604584 17.298244564 17.516582172 2.1417356808 2.5984941795 26.285235312 
25.625738842 9.1914550781 9.442625637 9.2933024233 14.288958322 8.8392699136 12.175776254 12.361158244 12.208706404 
26.574873769 26.924332438 12.017931392 13.998576179 13.626088525 26.028199647 25.654428806 25.411850093 26.129775021 
7.9255643096 8.1975563272 3.0697737176 3.1741550816 18.239386563 17.952144754 17.312081213 13.601394169 13.90300045 
8.4494597313 7.9401652035 1.811617604 1.7385528144 2.0527901202 2.1876749582 14.267397775 13.741951534 13.405224681 
9.1218929642 8.9500459159 8.4332750451 8.8577773811 17.349271778 17.82172717 14.215626514 14.513414742 11.91918107 
12.075271518 11.631273183 17.18814034 16.909888975 17.183632309 17.034570742 18.159362006 15.096203868 13.065107921 
23.174628619 23.56957923 25.216010111 25.181315785 25.417093874 25.357605897 25.306625265 25.267679078 24.816211048 
24.921283108 25.662988306 25.580738195 25.85633205 25.76190011 25.30463217 26.050829326 25.965065861 25.515035128 
26.227784307 26.138228416 25.713681822 26.432282122 26.324644626 25.900002399 26.140638945 11.833029945 14.85025626 
25.512163011 25.459859127 25.018283184 25.133383952 11.498598963 11.324080812 25.147521293 25.160385734 7.2902894775 
6.9197675842 5.8241300006 5.4431944106 8.0307660531 7.6748975425 7.4297682109 8.7519930947 8.3861215846 8.1847291198 
9.4299698288 9.1067137563 8.9056318049 10.085917423 9.7553646064 9.5931529899 10.748861058 10.408355044 10.24725321 
11.464660143 11.112533432 10.93776074 11.666016795 17.13078092 16.742237134 17.887138115 17.51400642 17.210989343 
18.643034365 18.270170968 17.976904111 19.414198014 19.020743465 18.738219039 20.194048776 19.798068551 19.500665591 
21.006980011 20.61202267 20.30432793 21.774386052 21.396533911 21.115063728 22.558746603 22.165767991 21.899978453 
23.37624413 22.97237509 22.709335092 24.206119536 23.821647092 23.573257982 25.027480256 24.675767214 24.49309184 
2.3390881393 2.3386367064 3.3430012305 2.9419087884 22.391518544 22.792545031 22.902198599 24.003207961 24.440468073 
23.719138841 21.583899573 21.989416827 22.116557029 20.806878443 21.180933249 21.310573176 20.027272234 20.432241389 
20.532817942 19.238350471 19.624942578 19.756346321 18.450612497 18.853196463 18.970582393 17.642169444 18.039116598 
18.176431106 16.886594041 17.255185313 17.381341285 16.111326923 16.504446574 16.61682819 15.329123247 15.717082805 
15.847411845 14.521771489 14.967830165 15.102744373 13.527021054 13.849170798 13.174644805 12.361611201 12.735097842 
11.635438384 12.010881193 12.183840022 10.935989627 11.295210783 11.496108545 10.159874886 10.53391606 10.756815042 
9.3827938414 9.7682589736 9.96152674 8.5905424339 8.9773073211 9.1595227488 7.8453472985 8.2169324188 8.3726010882 
7.0924867744 7.4632434548 7.6065408133 6.3060420197 6.6962652561 6.8161172731 5.5340744765 5.9344641271 6.0354422953 
4.7414303639 5.1370313823 5.2559123931 3.8708930503 4.3250068236 4.4344731094 2.8458371719 3.4148581028 3.561092747 
2.6245625969 15.4852238 15.291945307 17.478090114 17.815895518 17.898799736 15.255080122 14.950971727 15.110627667 
15.636101779 7.8923918316 8.1210802884 11.86013883 11.653375959 11.352095811 2.3871297876 2.3762122541 2.7703497814 
2.4015380379 2.4001848867 2.8200516966 2.3820324831 2.3896429565 2.8227155115 2.3530004216 2.3599680844 2.7910912908 
2.3443560666 2.3510331745 2.7693379902 2.3491675685 2.3417867988 2.7665401057 2.3579589211 2.3488396361 2.7640454778 
2.3866251902 2.3814817961 2.7869009136 2.4337123463 2.4066985926 2.8296999086 2.4954523308 2.4661288458 2.8814167334 
2.5296937099 2.5071822433 2.9264833389 2.5265052525 2.5282996045 2.940370749 14.183694766 25.155732724 25.140759095 
24.720353968 6.5515475494 6.1973833254 5.9021115879 6.6597310563 25.627415928 25.672146219 9.0670145081 9.230664479 
11.166130897 10.981589296 11.024506599 10.775808929 10.587185067 10.650365824 10.388889579 10.204116711 10.239020874 
9.9992057065 9.812884315 9.8291406772 9.6128782966 9.4258370157 9.4155500259 9.2691266569 9.1037564168 9.0453248173 
8.7258673857 8.8897439181 8.6720587564 14.630235056 14.420439194 18.131987078 18.322257481 18.119510247 7.5959168888 
7.3479657636 9.3976354839 9.5979203328 9.0342264085 9.8024536386 9.988788101 9.419862307 10.189743007 10.371624665 
9.8353841224 10.526488238 10.707498169 10.20385002 10.977294069 11.179415236 10.639837125 17.443333554 17.587485787 
18.570539152 18.788693466 18.844230697 15.836645409 16.078968815 16.420504984 16.635081819 16.526233769 16.802135793 
16.991700048 17.043954331 17.133974786 17.28670559 17.672514981 17.363733839 18.745819114 18.45474785 17.186360923 
17.067854237 16.932523304 16.777454415 17.352730846 16.615427542 16.452046312 17.04859486 16.291567815 16.11239678 
16.717404415 15.814921454 15.615893153 15.816080057 16.2505826 7.3500685008 7.6076937296 7.322089094 13.518773637 
2.3150654312 2.3269311359 2.7139924885 15.014310916 14.797252198 14.939323005 15.38985229 16.37748676 16.015860781 
15.726002079 16.46554992 8.3612432114 8.5393899552 8.2880233352 17.762597793 17.931371188 18.014545575 24.738273659 
8.7285674123 8.9608908813 8.7941265197 25.513094389 25.182499529 25.448080944 25.76751309 11.911913738 24.764128206 
25.195149798 25.228677135 2.5571429547 5.1210784615 5.0504205214 4.6651795389 14.138047391 25.890960555 25.503419154 
25.352324512 2.5537019788 25.282528199 25.334948816 24.855512952 18.398334812 13.894810535 12.96911476 7.0636469658 
6.7686438291 7.8472232074 6.7698197151 15.448089797 15.195477413 15.283555191 15.822540916 12.632699938 12.355043903 
12.086121963 2.3000212783 2.4011194128 2.8700304438 2.6702921412 11.745935618 14.406463874 2.5111201838 2.9356296475 
2.4502214728 14.757266421 4.291308225 3.8578455799 3.4512399629 4.3395722589 24.609093354 24.89546642 25.303385511 
8.1235629265 7.8779417802 7.3237112652 15.511925054 12.252956028 18.691276924 15.857745243 19.105621746 19.351236817 
19.390086067 18.346465542 17.879900904 17.278574957 17.588900303 17.43105972 25.366846345 25.406626611 25.022249063 
24.944360608 17.739514491 25.381937179 25.292518273 24.913276831 24.811419177 25.531099388 25.432844805 9.0942694979 
8.7311517282 7.8531777585 8.0624441712 8.3763303243 8.0076741467 8.5769598346 19.168247759 19.406281208 25.131133161 
7.594186578 7.1920946894 7.7961807625 18.051619692 17.668002031 18.817924521 18.439333714 18.12467024 19.592630508 
19.207287313 18.903556251 20.3854214 19.964367979 19.666258314 21.19451209 20.80122335 20.457467897 22.004049367 
21.608114759 21.292143468 22.854395377 22.43563992 22.143563298 23.758900228 23.308349981 23.035958872 24.70088548 
24.226461659 23.963731791 24.866094446 3.283864607 3.2699385871 17.825654434 17.683677605 22.650365449 23.03405496 
23.399575183 23.834555787 23.14683794 20.267520476 20.642147487 21.851234819 22.254782836 22.383544328 19.456221803 
19.857592374 19.96338189 18.707487289 19.090528909 19.188781123 17.885178249 18.293871719 18.411154643 17.104214654 
17.487366075 17.601156935 16.356664265 16.733709973 16.834125027 15.110829923 24.254095592 24.262239141 6.1230995015 
6.3849843993 9.7534227757 10.148551645 8.9511183198 9.363587773 9.5581125769 8.1588698992 8.5412211119 8.7531476916 
7.3772853107 7.7712862743 7.9487252209 6.5491316416 6.9583563619 7.1319831543 5.7599554775 6.1433905864 6.2949462698 
4.9543740689 5.3619189295 5.4796425615 4.1131413199 4.5353454694 4.6535356822 7.3214777514 7.5726726475 7.3611042613 
8.6572852041 8.8418786686 3.3316540566 3.3407826961 3.7941331395 3.2769869896 3.2964649325 3.8233187697 3.2200786302 
3.2194756802 3.7357993272 3.2168774874 3.2180953552 3.6795705166 3.2025982038 3.2033218953 3.6656905018 3.2651689942 
3.2422448904 3.6913288035 3.3213755467 3.3027321242 3.7665003096 3.379486524 3.3475823711 3.8252359547 3.4332701215 
3.4203700739 3.8871347941 3.4315901671 3.4267458454 3.9172583785 10.894516212 10.721625427 8.5958586443 8.4015453827 
8.3711400075 18.669991514 18.87814413 19.417300661 24.282809461 24.257287988 23.789932279 11.55278816 8.2519507682 
8.4513686493 8.2600579032 7.8445303859 21.029299966 21.432988056 21.567888436 20.761248332 10.026814737 9.8214279356 
9.7063418519 9.4945109891 9.5002064992 9.2370386708 9.0267481824 9.1200461572 8.7977444911 8.6240299525 8.6250216527 
11.103068488 11.365429014 9.829806543 10.000444695 18.941034794 18.886271505 19.376253181 19.0649045 19.585603685 
17.30268181 17.480052516 6.708733977 6.9822801103 6.0779849609 3.2092261737 3.1747917015 3.6716445555 25.177174182 
25.066103815 24.573914253 24.845134755 17.510124511 17.341420227 17.977065427 17.154235041 16.983813228 17.609171999 
3.1206406178 3.1037517273 3.5584722769 6.4058337985 6.1397581454 17.996107951 18.253124148 18.441609782 18.898563016 
10.734960089 15.284086844 8.4674340003 8.3043703761 8.2205327207 24.748604378 24.387961889 24.334668548 23.84476557 
24.311274166 24.705658145 24.633438734 25.014125437 20.021665301 19.733320324 24.299616376 24.337244991 23.826453854 
17.237874361 5.9895216845 5.6006577488 5.1468559324 4.7395383621 5.2411622265 9.776039288 9.4435447309 10.464033842 
10.134570976 6.9495739694 6.7790929578 6.3942106799 11.569114509 11.334539245 24.596943384 24.550631873 24.163479383 
16.854936422 24.071802194 24.500842119 24.447068267 24.384871553 24.442313945 23.915826556 19.673339919 20.001086284 
19.992765688 6.0052666868 5.6463057402 5.6662669398 15.573578165 15.959009621 10.974338035 11.157420228 10.987113025 
10.57200528 10.373070895 16.067850283 3.393877674 3.3935247225 16.212447835 11.906768126 6.734869344 3.2492024443 
3.7006731525 3.8175254958 3.028140446 9.2839399615 3.8731908012 7.8842556011 17.944334079 18.278444303 18.04641495 
17.846818074 17.584655762 17.73636831 18.238031334 9.7243087587 9.5196054553 9.1649173347 9.5134733752 10.536980988 
10.322774185 9.9223873406 10.406247036 16.14968329 20.020134261 9.0547805066 9.2699220458 9.1627733539 8.6963387257 
19.395466465 18.833535644 3.4509149316 3.8644504221 24.192991233 24.649111976 24.595646323 23.87173319 17.905581086 
18.073792909 18.485014945 24.551185818 24.586589869 24.078338486 18.864692746 18.361092716 3.8927114755 6.7238877085 
6.1115961814 6.9995108532 18.504438271 18.32276527 20.290412701 20.600175207 19.656433445 19.281974872 6.1148765168 
23.167856166 23.165881648 7.9542232649 7.5202488391 18.985795644 18.594789771 18.312921042 18.966256634 8.9157366327 
4.2801474557 21.355057561 20.934814075 22.265483835 21.826532232 21.47072978 23.200651616 22.739829252 22.427042364 
24.220857125 23.747736287 23.457573275 24.538413131 4.4332859336 4.4604533301 23.008685108 23.376738355 18.838064399 
19.202103639 7.7881041281 8.1835900291 17.313317551 17.710854617 7.6436168463 7.359370907 6.7865382556 20.22747241 
20.090808833 8.195234014 7.9784673168 7.4817547049 7.9331765721 4.3119494482 6.8964210688 7.3279271695 7.5779436776 
6.0116871873 6.4294639525 6.6358987472 5.1832049968 5.5918488391 5.7353036744 4.3066580596 4.7333578412 4.8552898311 
3.9557829222 6.9056970039 7.1985711253 20.680536044 20.373510392 20.654621149 4.3342763168 4.2699751632 4.9410899993 
4.1598887314 4.1583933475 4.165923488 4.1273893505 4.4142339988 4.3813040518 4.8292286238 4.2856939586 4.2653759591 
4.8844651786 4.4357596767 4.4014664679 4.8401013514 4.469823042 4.4793738119 4.9829972173 16.510804358 22.132488042 
22.53037074 22.75761701 4.346069511 19.97509268 19.901036325 20.5892595 19.237152206 19.742295622 19.638927334 
20.304083522 16.88334217 4.152115965 4.0906882739 4.682934018 4.0050442765 24.492420398 5.7405923512 5.4292445923 
3.0438722881 6.1276145851 6.4648557776 6.3218859341 16.513422525 17.817732603 18.11102022 18.522996087 18.011930683 
21.322944563 21.082627696 21.407266999 23.958531075 23.843880089 23.733181474 23.369891668 23.411148488 22.737871805 
8.5617182443 20.59539813 20.313868451 20.798852071 6.2643435371 5.8449630516 23.358951146 22.722524914 23.412689213 
7.2670325949 7.1058273897 6.6724475797 24.199375271 24.042987644 23.467816419 4.4778962647 7.8555724215 8.0829780048 
20.513633571 20.091823744 20.567540284 23.62415306 23.582113838 23.151741993 23.651075249 23.596826394 23.103189041 
4.8920637962 23.735617672 4.1552160626 4.2087812819 23.404842986 23.458309846 22.942538639 19.314961146 19.671814971 
20.082294501 5.2180035759 5.0855889439 8.5788731339 8.9955023854 10.692232177 9.386292688 9.7811730194 24.096864847 
20.503958551 20.892753028 20.208618839 4.1622415232 4.6540801645 5.0905317123 4.1485229147 4.635289607 19.701147232 
4.6434567231 23.105372366 23.618185656 23.733578967 8.442491054 9.2314492117 21.30400754 21.724058738 21.86703008 
21.044930087 18.645906697 18.994641912 19.466910559 18.775127016 19.665355523 19.949740146 20.512912743 7.4101862913 
7.6206945542 7.445400721 6.9795086072 9.1021729746 8.8402340996 8.4469177268 8.204984157 19.074830653 19.30965384 
5.3948191106 5.707915639 24.191634471 24.55695664 24.439267422 23.694321729 5.2005463397 6.2304936583 5.5740252279 
5.4293699542 6.5879036927 5.4655795253 19.828215334 7.7853572872 7.9591126087 7.7804042066 7.308252923 4.9366994942 
6.4226480101 5.361247354 18.128722218 5.0788460524 5.439145925 5.8716049847 8.3349400796 22.595722828 22.477449854 
18.532292477 5.5187404588 4.8608098946 18.783636513 18.972861909 19.963934677 6.0321448026 5.5410989839 5.5172596717 
6.462089928 23.640614023 23.439017588 23.375756976 23.008722879 21.366786813 21.020136875 21.30353562 10.269986877 
10.075952236 5.2062935104 5.1750471781 5.3016434119 20.690020676 21.022468262 22.416690503 22.899627422 20.389226178 
5.4040414309 21.324553409 21.19464334 20.902700777 20.731693559 20.97635659 21.617282833 5.200823768 6.3580528684 
6.8402095569 7.0560860956 6.0851494056 23.085602154 5.974026463 7.0104593992 5.8091473339 22.880724281 21.429727209 
21.335452203 21.930780971 21.828254826 23.911203647 20.594750455 20.161339056 22.909191506 22.240740705 23.113803027 
23.452354488 22.512625991 22.026663431 22.698801997 21.572006218 21.089750229 22.377209018 22.375128487 21.493570911 
21.951137262 6.4071894871 21.788411746 22.119144569 19.369744923 18.490969579 6.6392743162 7.3052035796 7.5727045634 
7.4416074577 6.8214552486 22.500974139 22.157439189 22.289545364 22.398441213 6.314888629 22.567322274 21.940214732 
21.652705563 22.52691929 21.39257093 21.803500321 7.1066126456 19.813700573 6.575824509 22.324900923 29.061253821 
0.84137321676 28.721142194 28.396495206 27.979275641 27.655259123 27.255044424 26.932793042 26.550425518 25.790801906 
26.230476402 25.098667174 24.710376551 24.353840799 23.925365549 23.631318359 23.265315732 22.537673944 22.959096317 
21.872343886 21.482907112 21.1803138 20.805809733 19.780599768 19.37404261 18.716793789 18.334302895 18.023602668 
17.636693872 17.322367845 16.961021188 16.627911492 16.232088973 15.910917302 15.511965482 14.835535066 14.375437318 
14.054942472 13.676227761 13.331297427 12.902566062 12.597019613 12.197141998 11.600551188 11.237212803 10.960741092 
10.600020627 10.310349207 9.9528549746 9.4488178959 9.1204474909 8.8660793645 8.5458854678 8.307835775 7.9921696929 
7.7223567885 7.418732988 6.9435645928 6.6227787727 6.3674168823 6.024843526 5.759496203 5.4130151669 4.8305758529 
4.4620915461 4.1626259942 3.7584868025 3.4259198895 2.9514549536 2.5471526974 2.0386438822 1.5807602466 25.428857209 
22.21904716 20.503040767 20.08442104 19.024261125 15.173809941 11.916800889 9.6989059753 7.181835547 5.1198454895 
0.77111083305 28.364102557 1.4799414718 1.9740505297 2.5336987773 2.9384793648 3.3956218486 3.7122282897 4.101118705 
4.7268927634 5.1300501791 5.3924512588 5.7197216601 5.9787785475 6.300523545 6.559054398 6.8353788274 7.2805427426 
7.5595328665 8.3709873904 8.6616257158 8.9224644227 9.2310514872 9.6934035537 9.9946172846 10.255235727 10.533618656 
10.8061723 11.110917184 11.384170167 11.744793397 12.046180161 12.425329511 13.047139049 13.461490016 13.805966888 
14.213029355 14.545616603 14.938056187 15.284025945 15.672822673 15.99940021 16.382275685 17.008219097 17.454104933 
17.753632756 18.136320797 18.44623802 18.810667217 19.090035989 19.452010365 20.063063798 20.451819359 20.743607928 
21.119598212 21.426864533 21.833744643 22.186262026 22.555008397 23.155891393 23.487791783 23.8218885 24.216865871 
24.526141072 24.911690525 25.210002055 25.555005289 25.901868617 26.29617571 26.615913425 26.997999113 27.642190458 
28.010754951 7.8051029966 8.1357527107 4.4001453335 7.0536436764 9.4661013146 12.726265178 16.689241034 19.743864644 
22.8546404 27.33518599 28.635491834 29.345413969 28.59917092 28.565966725 28.522845341 28.484421991 28.43643673 
28.399959555 28.354962402 28.315410102 28.266467049 28.190386459 28.143355385 28.105570046 28.058434744 28.023979301 
27.982196762 27.933380262 27.9098039 27.895145391 27.881980466 27.882766894 27.899123501 27.917048355 27.945988206 
27.971914239 28.010534495 28.049050585 28.097936295 28.185095618 28.251470064 28.310842124 28.382608153 28.567663924 
28.646432985 28.764007901 28.840117533 28.897864454 28.971461282 29.030191829 29.100756309 29.215670122 29.283064937 
27.875250104 27.875223474 28.434975382 28.507659531 27.872399199 28.227006072 27.95726805 28.13810302 28.705997428 
29.154945515 13.44415066 14.835927536 13.630695395 13.774979888 13.962535704 14.098698532 14.269850304 14.411610609 
14.571758053 14.698142499 14.990498036 13.439998056 13.612782556 14.982393066 14.940328699 14.882220538 14.805140052 
14.71515138 14.613592159 14.496318539 14.376082133 14.239816874 14.096484294 13.944299786 13.769524961 13.230083515 
13.253101229 13.217457129 13.220300766 13.218151236 13.235499859 13.231250985 13.236757315 13.224453287 13.228620815 
13.232043444 13.331550456 13.307237575 13.231160503 13.245489753 13.257324312 13.269379585 13.294242111 13.281836029 
15.009063528 15.006865152 13.522676924 13.692468331 14.918881136 14.975865158 14.756621378 14.843288094 14.658002113 
14.425587496 14.548725592 14.00242161 14.154664967 13.851516617 14.293394544 13.455172056 14.856364993 14.728345688 
13.617985565 13.895499076 13.759092459 14.042102694 14.185107989 14.322415065 14.592635739 14.457322062 13.125358633 
13.13477021 13.137672778 13.134695486 13.132150702 13.134753215 13.135140875 13.137635635 13.139409585 13.143650625 
12.95107062 11.336983332 11.342245043 12.772524381 12.60163508 12.289417964 12.12421102 11.981228317 11.850639565 
11.73127656 11.622579204 11.52787205 11.447576706 11.378079912 12.442201819 12.911155953 11.481907886 11.609563263 
12.597830203 12.752127186 12.310071391 12.455096823 11.878937731 12.023792454 11.736872508 12.160434511 12.91515566 
11.48280168 11.607236808 12.759174349 12.606275728 12.458397867 12.308921378 12.151748224 12.009271235 11.870009183 
11.731851547 13.027434149 11.337511465 11.344493569 12.674728775 12.854430695 12.173001741 12.335892643 11.873953161 
12.019005704 11.626675832 11.748980213 11.443966349 11.524005976 11.382420892 12.50187605 13.128564517 13.213900578 
13.210943861 13.152209707 13.148587411 13.169172731 13.162014529 13.18899251 13.179448409 13.199211148 13.221935632 
15.126513526 15.074342619 13.260890293 13.309106863 13.408280954 13.535532319 13.694563188 13.848910161 14.016324927 
14.167473303 14.319841867 14.453405732 14.59531968 14.702444352 14.81113238 14.895849334 14.979373163 15.024109579 
15.052322463 13.299997863 13.216077951 13.133914266 12.994233504 12.820335062 12.64796756 12.482173044 12.3176841 
12.164109493 12.011529907 11.877198257 11.751243709 11.634014658 11.528269783 11.441232417 11.373577337 11.326226119 
11.30628717 11.301168467 11.257817969 11.182996363 11.25556408 11.326377808 15.089613417 15.04363902 15.044048919 
15.032109888 14.992530317 14.936146571 14.863007283 14.768993313 14.667861795 14.557684001 14.436447387 14.304031136 
14.171525777 14.026158291 13.870974153 13.72031798 13.578433442 13.444616122 13.36989647 11.32056638 11.366659383 
11.44018501 11.527250998 11.624760872 11.739054922 11.860139786 11.991115411 12.134651085 12.277444566 12.428746194 
12.595520044 12.754552937 12.912719569 13.049373888 13.120403795 13.16250371 13.197742596 13.237185697 13.157457835 
13.492802059 13.645196625 13.794692706 13.9506897 14.101755884 14.248771564 14.385457341 14.513140485 14.632031101 
14.733123148 14.824168358 14.901418724 14.962629115 15.003070906 15.02466204 15.030224188 11.307115588 13.193547678 
13.18425792 13.204677295 13.19384855 13.227553358 13.215957414 13.261615696 13.24942113 13.290240827 13.27804812 
13.037139049 12.896907744 12.609231591 12.749988356 12.310323918 12.154570317 12.018086525 11.880028283 11.741254239 
11.618590704 11.504260307 11.404621422 13.171940625 13.321200161 13.180593057 13.176573633 13.181138786 13.180187012 
13.178936064 13.178528189 13.18094476 13.183450324 13.18496433 13.186469551 13.18871277 13.618986204 13.466938251 
13.755328144 13.893117597 14.172380829 14.028200129 14.449549799 14.314861365 14.707725547 14.579222618 14.940459794 
14.83339377 13.356952034 13.305875772 15.024276846 11.333339289 12.460985473 11.299981767 13.179261225 13.282319673 
13.236727805 13.238091523 13.195563058 13.292259305 13.115787881 13.208319497 12.814506466 12.977040361 12.4679591 
12.643383532 12.149633609 12.299099923 11.85670488 11.993090755 11.60955538 11.720173692 11.429394441 11.510292061 
11.322155079 11.365493471 11.296101686 11.299959295 11.18806595 11.255134703 11.32570245 11.251878258 15.087349143 
15.04052534 15.037893634 14.997537848 15.029935626 14.865656472 14.93998305 14.677095217 14.777872019 14.449050137 
14.566880171 14.178144251 14.316038052 13.864654877 14.026148021 13.553003343 13.712904962 13.370284213 13.436218934 
13.305621648 15.01508706 14.935959133 11.356021652 11.313595012 11.496616426 11.418198965 11.702869801 11.593727517 
11.953397228 11.823542195 12.246352494 12.093346271 12.579964034 12.418373538 12.907675698 12.745475399 13.120353208 
13.043544165 13.198546907 13.16068443 13.15985474 13.237913258 13.664384005 13.503343752 14.007024439 13.840325459 
14.307398999 14.156439082 14.572855194 14.433357315 14.872585239 14.779137303 15.001795403 14.944966361 11.298411722 
13.173989391 13.175703 13.184335428 13.192596582 13.203192356 13.211116094 13.2210159 13.231563836 13.244495315 
13.255652367 13.2691287 13.289441498 12.751190377 12.894940932 12.454889396 12.601343492 12.163596212 12.310141845 
11.879006178 12.016756694 11.620524301 11.749462917 11.399054395 11.500499844 13.034168612 13.172778197 13.177084261 
13.175784382 13.17353733 13.182438495 13.185394203 13.191392054 13.188682838 13.197185745 13.203247859 13.322631825 
13.472484799 13.645720784 13.777700747 13.962985634 14.105674259 14.275760883 14.40945395 14.567552421 14.69995787 
14.830181344 13.185395605 15.018747484 13.36753943 11.328778743 13.185027142 11.296588598 13.276560741 14.680300444 
13.234097088 15.025251357 11.192449407 11.244266777 13.176829365 13.140042597 11.266929299 11.288064116 11.332829602 
11.406486964 11.490523064 11.592313463 11.705588707 11.83057431 11.963187712 12.101721137 12.256700134 12.40332702 
12.564013146 12.726652661 12.882775457 13.007704943 13.090980296 15.143545869 15.098125359 13.330422384 15.078001145 
15.058488448 15.021269406 14.96338719 14.885549975 14.796498997 14.69240284 14.580091532 14.459017097 14.329834934 
14.189637714 14.053425643 13.893790402 13.601966489 13.475719456 13.399339545 13.361169459 13.739168845 13.281534641 
13.186356957 13.184061162 14.675908134 14.768001141 14.572676954 14.702078089 14.447887435 14.301777371 12.746832019 
12.604284701 13.63200007 11.973326746 12.915196853 12.813134274 12.938281838 12.931095883 13.174992784 13.277556215 
13.963714846 13.77872984 13.722200965 12.270878953 11.305096667 11.262081133 11.300893128 11.333792973 13.175057726 
14.929355806 15.026953861 14.258222635 11.400252655 11.497471856 14.896461925 14.819287065 13.961594887 13.237117299 
13.226977837 12.306548671 14.85575654 13.28773228 13.306000751 13.178336982 11.872027845 14.43036285 13.216011977 
13.297977875 12.312778546 11.319707766 11.303796352 15.040381106 13.827889503 13.121543012 13.160852295 13.163096299 
13.197814482 14.108502808 13.258147908 13.248096676 11.843938269 13.235885209 13.235939724 13.272764137 12.810233292 
13.569386126 13.197533357 13.192446297 11.429515654 12.645703433 12.481114617 14.997069127 11.326241732 11.740657451 
11.722284657 12.003305601 11.281026754 11.329792355 14.144790242 14.177815589 12.159489718 12.978223478 13.722861427 
13.666040952 13.18473427 13.181751436 14.961868768 13.035649018 13.182066757 13.179257796 15.078128726 13.398563044 
14.555885101 11.265936058 11.199979318 13.639648958 13.461403138 14.440129318 14.636755113 14.512162021 15.023558154 
15.016611835 12.742540106 14.195679562 13.890885457 14.020334328 13.708298538 11.36299173 13.185789724 13.318740475 
13.187060814 13.18929346 11.951152332 11.939441268 12.079807242 13.177061378 12.827291977 12.824445086 12.974447265 
13.198766144 13.367597025 13.433641802 12.97290588 12.820408857 13.479070615 13.351318751 15.03730397 14.937196954 
13.730279287 13.52357425 13.557554671 13.176612229 14.514280133 15.001626362 13.216477321 11.515327357 14.767888107 
14.890935731 14.77831738 11.522052683 11.618054124 12.583719389 14.62644397 14.943529817 12.780653859 14.726955777 
12.113144836 11.434333177 12.997348085 13.142828599 13.149673297 14.413882637 14.278789386 12.425929801 12.967807415 
14.032523731 14.3981126 14.53294111 14.592441148 11.610678154 11.301604927 11.372685509 11.618713209 15.020588371 
13.352563085 13.59280989 14.672258781 14.426112383 13.665349835 14.021773523 13.795530281 13.854301057 13.621540914 
13.196122572 11.742369825 10.066738963 10.367497924 10.074028621 9.8573237241 10.15438978 13.811393242 13.670954238 
12.976254362 14.267877162 14.143529461 10.466827775 12.156826446 10.383514966 10.504982798 14.890498415 14.759253053 
13.960819545 13.862977181 13.574181832 13.207256035 14.712553182 14.854986043 13.925986921 14.309990101 13.190586652 
13.103476259 13.9611637 13.37105814 13.385512152 13.581702571 14.418992436 13.543438707 13.729263717 10.58590942 
13.177660602 13.089806401 12.998413102 13.365028182 13.04877852 13.915540267 13.826228014 14.01431935 11.870107275 
13.393576464 13.436243719 14.674126038 14.420455739 12.816722186 13.39153961 14.779063338 11.943385079 13.872149142 
14.277964247 12.457633466 10.468071901 13.937964404 14.047820316 14.897957564 14.228812154 20.530940745 20.797984499 
20.233249227 20.501319207 10.756563628 11.119030334 10.960415847 11.895935256 11.71141855 11.556613968 15.979160049 
15.675606505 15.910916967 15.975217696 16.090015555 15.732731475 16.477006319 16.115767508 16.810658903 16.44620191 
15.33310411 15.179197702 15.73855788 15.582151961 1.9070408859 1.5148719917 1.5230181603 1.8805585579 1.8696305012 
1.5040726952 15.467549567 15.88811892 15.764043159 16.176141849 12.946288132 12.70314972 12.882044841 12.603458474 
11.942228686 11.818620546 11.638437319 5.4030867658 5.4625071436 5.1174495613 2.2019379347 2.6147306634 2.2087381365 
2.6215875925 2.2114055767 2.6380920648 2.2292553817 2.6564119754 3.1384410945 2.7486820249 2.7321015494 1.2222371389 
1.2193706587 0.88983529234 0.88204721619 14.943287788 14.701144913 14.618518798 0.53938847639 0.53770480141 0.84686798982 
0.8411591021 0.51107231303 1.1422985006 0.80960940173 9.7916731287 9.9999985347 9.9940488572 10.19692109 14.930990224 
15.33271869 14.809132596 15.205174671 16.570676813 16.135819611 16.723231639 16.286729281 15.306919619 15.582036105 
15.732548012 9.8313565594 9.9637790915 10.139595237 28.372062787 28.292212784 27.986678753 23.7827928 23.396866224 
23.59429354 23.208040304 11.632547652 11.976607557 11.795569149 25.726570617 26.066352476 25.678803758 26.020097798 
18.552526326 19.03379827 18.738852065 11.815837208 11.451864747 11.61737981 11.786754794 11.947493297 11.097673411 
11.279689367 27.906198395 27.599795161 27.854534304 12.235320123 12.377019752 12.575466379 10.740333481 10.668780059 
10.396880397 11.400875636 11.500334829 11.706447866 10.19036918 10.044025419 10.366592448 3.9386848101 4.4207343399 
4.4424567572 13.417816999 13.098547317 13.305988364 15.451591403 15.878615017 25.15630763 25.09574446 24.839176742 
24.777336214 13.910500509 13.675925524 13.839411788 13.610660554 22.120100655 22.692490818 22.688170786 26.831978362 
26.827781539 27.176162523 27.809260674 27.528800324 27.909709761 27.977624903 27.618560429 27.763212957 26.567291092 
26.13339367 26.492392186 26.059458191 17.112516723 17.484631962 16.860062667 17.229832961 27.968588896 19.495626946 
19.995052517 19.156834437 19.660163122 4.2373907416 3.8419039186 3.7922701341 25.783364007 25.396964737 25.481214468 
14.092747194 14.237928972 28.116490701 27.73239304 27.483447243 27.407067567 13.94494074 9.1606233563 9.3163823926 
8.9290940408 25.288890933 25.435844384 25.693420659 8.6728986091 9.0495177514 25.340514778 25.334845498 24.892199621 
24.887149761 3.7633568064 3.7382922883 3.4036496892 12.737090966 12.329498812 12.681160836 8.1411253275 7.9579928602 
7.7965667055 7.605395483 6.1915169263 6.1620102455 5.895024959 12.411622531 12.071661024 8.3185588338 7.7948121872 
8.0754409974 11.75474993 11.459950953 11.612827991 24.613219418 25.093554953 25.003646903 11.594180853 11.914067811 
8.4417455927 8.1329485768 8.6837486205 15.633075677 15.241886272 15.367600715 5.4643904695 5.1733281591 5.1780165756 
11.406871737 11.323935627 11.135059077 4.0907297025 4.4466238721 4.4447613435 19.622598981 20.021896613 19.834761937 
11.023173179 10.857449361 11.222775124 4.5320352391 4.81819635 4.9144102576 5.187770788 9.1496334447 9.047239916 
8.889101037 9.3349023539 9.4107261628 9.6012066785 27.636190892 27.978272004 13.017287553 26.523505325 26.767444182 
26.856690208 0.22845490335 0.24090071954 0.56152388479 27.714424299 27.321104068 27.617513071 22.53262247 22.933594711 
22.431157715 22.830999361 11.586638975 28.429828113 20.914660361 21.23095545 21.167631885 19.755857458 19.992891578 
20.327964699 26.569388092 26.89707828 26.506967807 26.83574974 27.572598908 27.558933841 21.546677898 21.938010387 
26.88672269 20.861260062 21.237475026 20.987437437 26.495373878 26.380474064 26.843272222 27.499573772 27.886546073 
27.811474864 28.199316295 9.5231622815 25.368586471 25.699159519 25.253619766 3.4600050085 3.8776898912 9.6276602558 
9.4237408081 9.2452658339 10.229028587 10.323386712 10.58305499 10.680834514 9.7874000801 9.9572859209 10.040575373 
10.199530747 10.486097791 12.098941735 11.999493212 11.792942493 24.728629248 24.612761591 25.156201187 17.054146566 
17.357497857 17.310660706 25.70628856 25.602548902 13.913247749 13.783367062 14.102461762 26.409330731 8.9365446273 
8.6491142879 8.806037363 7.2414268577 7.0093470654 7.5629680522 7.3440806153 27.400807726 18.315211513 17.92406279 
18.269899802 4.4323758069 4.4121075791 4.7466032392 8.2020264578 8.4107117229 7.957474876 0.51319141785 0.22497786341 
0.5060302716 17.47066213 17.1113498 17.087832307 2.0822207252 1.9857876362 1.6164238479 1.5720378592 16.584771439 
16.370861723 16.82162292 25.953279981 26.354279726 26.007085204 25.267821422 24.893296521 25.026323662 24.758524559 
24.633464468 24.391520235 28.725840064 1.8299798705 8.0683870496 8.2872836111 7.887920809 19.24337699 18.991127105 
18.918331018 1.9912125418 27.07336603 26.751971619 26.702168973 7.3766293601 7.669104208 7.9000697413 8.2133029473 
18.584598054 18.220304823 18.302419118 8.4461714149 16.121447483 16.697371695 16.406358939 16.549311142 16.45409281 
16.242135606 9.6481797502 10.027157686 9.8174022334 9.3374737804 9.7199040711 9.8691377308 10.832561715 18.184709165 
18.376965055 17.794316724 17.987825937 12.082850738 11.910399026 11.740345106 6.6447251509 6.2858859531 7.0264911099 
6.6645910787 13.035126488 13.316126847 9.8262759083 9.7031393927 10.034831717 4.7686652727 4.7612368229 5.1162997651 
12.131140946 17.144050581 16.92882931 16.787408086 3.4612679893 3.0588196887 3.053828837 2.647576815 2.2262602451 
2.6396355831 2.2202197964 26.832931291 26.76635214 26.481417301 15.432385881 15.885525719 15.397015053 15.832399742 
1.8610925914 1.8600950632 2.2181564333 12.57760818 12.287459098 12.364736494 12.077825234 1.4005851627 2.148683514 
1.5440900009 4.4517441045 16.679434449 16.301196527 16.972727004 16.5914841 18.640677933 27.239941838 27.208949188 
27.536852437 28.317325442 28.046665575 27.587731573 27.279286853 27.63259943 27.172111178 27.513250602 27.531408391 
27.873392906 13.027153239 12.690580833 12.592418216 2.6252016277 2.2183787708 27.340901342 27.671319678 14.912338057 
4.834955045 5.1786422587 4.9114655429 26.196986016 26.151858791 12.771177112 12.618443264 12.445384122 0.57061722532 
0.578005507 4.7259706097 5.0685135356 6.4326876851 5.9674836403 6.194218322 6.2605359539 5.9602938195 27.568082478 
27.187724781 4.8550579915 4.5077671685 5.1519697713 26.707316742 26.618695703 27.019143226 14.779652302 14.665169352 
15.119929528 15.009757076 10.67916868 6.6148773581 6.3652488995 6.4054665881 4.9132740898 5.2272031995 5.287115668 
6.679002811 6.1361873462 6.0744165005 9.4371683813 9.8297153991 9.2827887799 9.6853549705 12.085871116 11.899953419 
12.477373982 11.017920129 10.848530653 10.687106809 5.4037770551 5.1342568428 6.0415572173 6.1972492584 5.9016832496 
8.4162932865 7.9591626247 8.2756612247 7.810212038 12.299976582 12.499524784 12.680896819 21.752372881 21.680544147 
21.430371173 6.629382576 7.2426261751 7.2086551711 11.534087001 11.786594545 11.625597494 11.762463669 11.478306659 
12.582657048 12.459318355 12.218387029 12.094093626 12.378490538 12.205465441 12.651330853 12.478076885 12.413142023 
12.267343128 12.115461929 26.394656062 26.767491041 26.719142554 0.93611464584 1.2439381778 4.5121312711 4.6400661656 
4.0341273358 1.1376270015 0.72559163831 1.0809846872 5.0234723636 5.3954295273 5.095284423 26.057088771 26.051093483 
25.660915461 3.5229239773 3.5215195053 3.9787426855 26.447080676 26.450418668 25.258861635 25.689826852 25.299569154 
23.861667624 24.173314617 24.077577874 25.246817848 25.230480949 25.673947234 22.420131083 22.661876204 22.309594449 
23.336600215 23.013029395 22.886587483 15.291348992 14.933942192 14.944699079 19.085401142 19.198122505 19.412874531 
19.526651034 26.070207768 25.677370842 25.706785537 25.330073844 25.455476562 26.510423268 26.378240129 26.16670336 
1.671789146 1.7406634019 1.3577965144 3.3448182809 2.8782208833 3.3608740195 27.2192382 21.377030757 21.795537915 
21.454233533 21.874115671 22.679001201 22.867066295 23.310473067 17.433004081 17.143694442 17.751135452 17.461388878 
25.98928276 25.697048895 2.3359405771 2.3218761819 1.9781070922 10.322270112 10.214671243 10.605617823 9.4028697138 
9.1612617614 25.85718366 25.819296717 25.500074958 25.46473537 19.453984756 18.811389632 19.135008672 18.491177221 
18.610297527 18.808739388 18.928318712 4.4434415767 4.4484909467 3.9625588488 24.24873581 24.727552056 6.2184673159 
5.7400002846 5.8562678253 23.537433757 23.784470149 23.177266796 23.42565572 12.420131997 12.1442247 26.457406447 
23.028805516 23.159493668 22.751200198 13.561360032 13.2743834 0.24991221563 18.081453252 17.729082377 18.19736093 
17.845043225 17.992173753 18.4028197 16.868074057 16.808784357 16.487188065 16.425076987 11.451927517 11.621031369 
10.927462545 10.574699282 10.836743509 20.206999932 20.637912257 10.468841272 10.297770811 10.097464243 10.693553694 
10.515200277 10.566508449 10.38504262 16.105374726 16.360482264 15.963485477 11.455331887 11.181233206 4.0990936924 
3.6799116677 4.0800434699 3.6588374228 14.003178984 13.667496787 13.896994634 13.559942686 25.782044054 26.203652768 
25.928408813 3.6390305466 4.0099042009 18.26767141 18.60973297 13.293929112 13.613626558 17.02031371 26.387851931 
26.783328047 25.258237279 25.145331154 25.723354771 25.611296913 8.9277702699 8.716697024 8.6602530836 2.2339808977 
2.6329802477 2.6098723606 4.9837606374 4.9930317948 6.6917053514 6.4444855254 6.7100629423 1.8623983681 1.8728621969 
1.5040046652 1.510170473 0.23824809241 0.60444835965 0.56763891199 14.066006039 14.194761226 14.282276957 14.41162003 
14.243344474 14.41193158 14.052291047 0.86282078072 1.177046209 1.1701055208 10.623493564 10.701783286 10.921681797 
11.004188191 26.904572313 26.552016764 12.199056777 12.021459175 11.875573714 6.2920855738 6.0243001255 6.7209088055 
6.4687560863 4.3551191053 4.7220408958 4.2669245995 4.6401733185 5.5550072331 5.0965058164 14.71637484 14.923831239 
14.397669008 14.597586874 15.158774529 1.2298114297 0.89916246736 1.2162394873 12.310719732 2.6931088337 2.6724799479 
3.0919346394 3.0727441965 1.9633762336 2.3310139365 2.3293762258 1.1602784621 1.4800795255 1.4957738705 14.580562102 
14.244327097 14.593659592 1.8482863106 14.348931823 17.969809464 17.348928193 17.618877113 17.858423507 12.301574047 
12.11869532 12.414604394 6.4146370024 6.3347949859 6.1065539485 6.030716323 12.248316489 24.905698037 25.001057186 
25.391673428 13.6008369 13.35569257 13.348845828 14.062156956 15.737893723 15.352922499 15.831289556 15.438437357 
10.366743063 9.906535177 10.267742607 16.478162859 9.4054330101 9.5414181561 9.8186841837 3.9634506943 9.5775860836 
10.019068727 2.7620477722 2.2753421365 2.4369528382 9.9311955028 10.338724135 9.9519519282 10.671766128 10.089706753 
10.461636403 16.318553393 16.660707572 27.769330065 27.867836112 28.160011696 14.170111564 14.464127541 14.107930072 
15.206708687 15.472979831 15.257189012 14.912350314 15.082125571 13.483041399 13.418285053 13.655631724 11.397365699 
11.536921582 11.737460168 13.61802593 13.982702304 13.877127923 12.589911277 13.553783152 10.816465092 11.149062181 
4.864754872 5.2527559546 11.698933853 11.565988909 11.52055802 11.37382141 12.523219932 12.212037838 19.323605294 
19.005348831 19.673050289 10.587329644 10.383300999 1.5544019342 1.5728173373 20.835644724 20.418749168 20.561084835 
20.142876457 20.875650213 20.995921589 21.242412984 10.255833888 10.41415643 12.010802812 11.907069957 5.7201603893 
5.4721612119 5.4000523702 25.935366949 26.294671361 26.308364803 26.667485679 27.590518716 27.211495043 27.51644434 
17.242203301 17.503470156 17.094553882 16.930635305 17.049521372 17.341490358 17.47298823 9.4065551812 9.2213869955 
9.0553025937 13.096630751 13.079309072 12.82568019 5.9134230341 5.6854268271 6.057572785 26.77729731 26.368849078 
22.698434804 22.492221668 22.350156278 7.0370288302 7.175036624 6.6171104419 6.7472636472 7.8603166698 7.9093834466 
8.1281781056 26.286353618 10.837766372 10.78240189 26.959225255 26.565822891 26.929300812 21.495172915 21.814435483 
21.595608579 21.917812765 27.715363794 27.429827049 27.382836295 16.93169553 17.230174887 16.66466929 16.961528366 
14.487091859 27.72599798 0.20055888436 21.813446655 21.340470604 21.696032352 26.138570162 26.024484161 17.108834389 
16.719604172 17.352386774 9.0564381248 9.2556619635 9.546501751 26.20932953 26.266858028 26.559531968 26.614006195 
24.567520398 0.28421251447 0.29362627022 0.56569649333 0.24412775023 19.189754859 18.817083545 0.35279614232 0.68641353977 
0.25987941878 0.72529559335 13.59632688 13.698280608 13.386634967 1.8242112549 1.5980729473 2.2485463128 2.0451421179 
24.164255913 24.370286383 24.636614888 27.520345184 8.4255668811 8.7823764886 8.8639747041 9.1017148583 8.8524217347 
12.854067326 12.740622195 19.192683847 19.455471636 24.809155996 24.485042593 2.6330621232 2.2246003354 9.2713307464 
9.5853204368 9.4574636743 9.4038119902 25.18336127 25.007326681 15.91550969 15.536236548 16.026852435 15.651465762 
13.937601617 13.825072059 14.358014841 14.472457425 14.149625704 0.68488047539 0.66444712133 0.27055751371 22.297110674 
22.701447455 11.476750554 11.320759652 14.512142891 14.73647124 18.645370777 19.305783964 10.859093972 6.5100640965 
6.6529469936 6.2469035494 10.65922466 11.563255566 11.382051298 11.221525352 3.1142747563 3.6157515835 3.589624149 
22.511368998 22.633315634 24.296092149 24.054170735 23.923870926 2.8736930117 3.3406494814 2.82733656 3.3011555635 
9.225601856 9.6198459958 9.4668328998 9.8582026092 3.569743746 10.341718572 10.22854866 10.922089809 4.9834034802 
5.4090360775 4.9461588429 5.3799473716 8.3704570736 8.2473324472 8.6084157011 21.659230718 27.007462695 27.158233169 
15.064433717 12.089030435 7.7909001066 7.6537303027 7.4068312169 5.1017516158 19.09756886 19.245533929 18.851123561 
17.300718378 17.163652165 16.893488525 21.890148758 21.631200221 21.952001942 14.965715651 14.818969279 14.775452041 
14.626766312 20.4782176 20.792037666 20.733648638 21.046935153 19.498065673 19.438995463 19.751776081 19.803303759 
28.367288316 28.27012732 12.086024487 18.324130204 18.032880588 18.225284588 17.93386609 8.0860399962 3.3268148427 
3.7232886273 13.771952181 10.379358442 10.201311045 10.838851903 11.168408658 10.978659829 15.578666738 15.446817998 
15.164285562 15.091695055 14.939490702 14.640067319 7.0998753984 6.7696130407 3.6456042718 4.0230924102 4.0838841359 
20.874059364 20.743112229 21.131607963 16.811144368 8.0803032499 8.4876146353 14.255429276 14.460080552 14.157284153 
12.830938595 14.557466058 14.889716477 14.73041179 8.8432025004 9.4590678665 9.0614575586 9.456407615 9.0633343194 
27.552880716 13.595492029 6.4219466038 0.2177277605 16.175757054 16.302695019 8.8229756038 8.4774677981 22.265557876 
21.555668029 21.96927203 23.08515415 22.77388236 7.770966816 25.402897104 24.977442295 25.329918328 25.688128621 
25.434878298 6.9756916545 6.7648683447 6.4601978019 6.1063613352 1.8224938388 1.4890713717 1.4149147146 9.4767946988 
0.70900842414 1.0980166414 1.5425399151 1.0191667763 1.0432762886 0.18964318287 0.50290432899 0.50334183014 5.3490006958 
6.0138634474 5.5681319982 6.2489331601 9.2364050805 9.0249127399 8.8695273208 8.6511340505 0.81401245208 0.80752807565 
1.1466340874 1.1375409323 1.457237503 1.4635468956 1.1296737 3.8091449575 3.4530409695 5.9380369543 8.7273650694 
0.82574155279 5.8505544381 5.5976909575 5.4930219301 5.5656434436 1.835899848 1.828837076 12.047279939 0.95505140093 
1.3453507056 0.62834325343 1.0150595417 5.4367391141 25.426890347 25.04304402 24.992690332 26.542580166 26.201611901 
6.7990407803 6.5306124546 6.7975264894 6.1541818057 6.5637236052 5.9334661465 25.523538184 25.176694997 20.384719043 
19.705147196 19.952351562 1.1058216535 1.4250417912 23.971502381 24.459779117 24.035874868 25.080904877 25.283681712 
25.031126883 24.941772283 27.953607326 23.276214163 23.66741055 23.754491149 24.143433452 20.918058223 20.724346486 
20.336270807 10.577837985 10.192881288 10.763387352 10.493132061 11.601595306 11.30388138 18.824961361 18.721428359 
18.52128738 18.418165284 13.866243688 4.9990530409 21.297873014 22.982520527 23.474718755 22.946453876 13.033580075 
10.19284791 10.116879677 24.766172381 19.797991962 27.080568057 27.068333559 11.996551896 12.201892605 11.801962247 
11.214614097 24.733047205 25.141736293 25.085927285 17.831177167 17.536396312 18.124060949 17.768693674 17.826649665 
18.077294312 16.86158395 17.287766565 17.009849114 3.0698465168 3.5795057138 16.815522239 16.504102455 16.395653247 
13.437204185 13.186764664 13.602053103 18.756646096 13.640105586 0.2314153404 16.674076894 16.278740099 15.851374434 
15.962658549 6.869603165 6.991931787 6.4965756809 12.884630109 13.083036527 16.158752214 15.766616636 16.072386861 
0.19938421792 16.430319428 16.149080598 16.542006488 14.88866419 15.05500844 14.673376032 14.197909379 8.822843159 
8.5598074716 24.09669403 24.01983897 23.529222455 24.8314233 24.870038598 11.2878646 15.879713403 16.279604326 
15.679972815 16.105014505 25.426085445 7.190995865 7.2566387824 7.4347659422 5.7425335792 2.6518251317 28.272539447 
28.342863367 28.588072215 25.380154628 24.953584942 25.010880381 11.220014867 11.039466791 10.748180716 16.60207806 
23.508883106 23.015900787 25.077638845 25.074066537 25.502834643 25.8630381 26.206812837 13.377358598 13.274262458 
17.181075915 20.001307681 19.731353681 20.133740953 23.895498517 24.028582269 24.24110061 18.36200145 18.720251509 
18.058746045 18.418969431 7.2466503606 7.5985981182 5.8750000433 6.141607223 17.902366752 20.072143816 10.774334481 
17.582366877 17.122046017 10.998872564 10.757412859 9.5413479436 9.1876084912 8.6075916643 8.8267965258 9.037919388 
7.001899171 7.1163807185 6.718616211 18.63083071 6.6845221758 6.8909017119 6.9610950815 7.4737648909 7.6842475028 
26.452704072 5.5615903434 4.9930761601 5.7654525967 5.1860271903 2.2342293003 24.854788033 24.9487154 14.178923536 
13.97547307 4.144254222 4.5879817268 4.0472532492 4.482720321 17.412015301 17.112438909 6.4983179544 4.1232528513 
14.820729071 14.898168532 15.090021783 13.887826982 14.075290236 16.60894955 16.524209776 16.98333437 7.937694072 
7.5109382592 7.8242685375 4.1878355111 4.5712057459 4.106650041 4.488072388 11.052360844 27.263299204 27.650936256 
11.950369466 11.821297488 12.143559224 18.458282872 18.682493984 18.941038762 19.17517942 21.596467404 21.278589671 
21.709475993 21.389252908 19.99394314 20.413412022 20.734144937 20.429990151 20.0462166 4.8125515595 20.293995082 
20.560408547 20.633079543 20.899634889 16.611501689 16.994378565 8.9418841509 8.6583509866 16.368051495 21.73995031 
21.26353042 21.330805843 16.71586764 16.78470093 18.493929445 18.179625426 18.401167121 18.087196343 9.9293682382 
9.8345715383 25.232451206 25.564872902 14.293056344 14.522233482 14.668819083 14.457426299 4.7739031994 5.1280794287 
27.439505016 27.667406757 27.807702593 12.495917211 5.4908459313 28.041323196 10.577371323 10.58726659 10.30588313 
19.576135324 19.222389673 19.181281702 18.829381389 0.53192169814 0.55240851848 3.6624556074 26.268263988 18.559128762 
18.926496619 18.785488488 9.2315664194 9.4890351757 9.0770147333 9.3366197644 15.709145812 24.08850218 24.567271735 
12.876434349 13.039636981 13.25201574 8.6705055392 1.5326308497 1.1960356163 1.1891135137 26.844460444 18.028883313 
17.548310522 17.836801787 14.624157654 14.391617088 14.774242436 9.5415499482 9.2528325862 9.6564908736 9.3607971874 
1.8764252552 1.522260806 17.651584971 18.052243626 17.754033923 18.156365057 23.307164127 23.883736529 23.476285024 
0.63836591101 0.61957275501 25.497579663 3.1458248426 2.6987673647 2.2170909901 2.6376738133 2.2211643218 0.60987923036 
0.62829749053 1.9168661311 2.2844161064 1.8389826283 0.22613608255 0.53967509088 6.4371232089 6.7796565238 6.5433283672 
1.4740755917 1.4652684387 16.042651215 16.310775902 16.441989623 17.857435157 17.960255904 17.652740431 2.2776273001 
2.3118697619 9.7292059927 9.4899768589 9.256934144 16.115485704 15.664349849 15.825511624 17.678267502 17.16773947 
5.4169623878 5.7856398583 7.6103177609 18.13301292 18.394059759 7.2922899024 16.893804009 3.5317118658 4.076319106 
0.55367820594 0.54003097648 7.0384829245 6.6399941508 6.9087573268 23.998015044 19.301366947 19.688447771 19.419304113 
19.191108307 18.891754675 19.294843594 18.993969552 22.27743414 17.626409365 0.82873079371 0.52404050664 0.52043783788 
18.501602572 18.171589746 14.938869458 21.083666974 21.320221168 21.802897071 24.084497076 23.843589522 24.3724352 
0.82114729522 22.163286457 21.412287459 6.3175430811 6.6988539943 6.2738886042 15.263380509 15.421985276 26.895920306 
27.224531587 27.250503209 2.4503024869 2.475400925 4.4390788681 4.8343672282 4.9668561992 15.984451625 23.050384271 
23.181014447 25.943698012 26.041022048 24.68954581 0.9644644604 0.99919924934 24.017915084 23.98014142 23.65968273 
24.378327981 24.350740189 24.83038378 24.807814832 16.867361755 17.292440079 17.146450134 14.408422913 0.19560933597 
10.202501381 15.604586953 13.937984241 13.757068036 9.0028827204 9.4109008379 9.5915722467 9.2034643062 1.0751281712 
9.2636048463 9.7260491853 9.4463830203 12.478223207 10.740928501 10.381575322 10.977052833 10.606528482 6.5245623594 
6.1512524299 9.8902614609 10.136364664 7.7544852936 7.9307668188 8.0229145062 4.1305094288 4.7800205582 4.5558309224 
1.9780467156 8.582306844 8.4265562838 8.6872575026 2.4545733535 26.214476767 25.786931662 15.440454903 8.5538689986 
8.9157790906 27.91955113 27.835316315 27.620625221 27.535191002 27.945110507 26.6983006 26.297402948 26.644453446 
26.908904753 27.254672708 7.6374903149 0.33742040983 26.247801188 18.235497742 24.537129972 24.633442295 25.010418972 
20.220871678 20.548291845 19.915010038 20.242733015 12.012611609 27.380434206 10.719773125 14.920549198 23.860852592 
24.200289404 27.376565284 27.014135921 27.33370521 27.188834055 8.4790646952 8.3441352549 8.0895089981 24.996606983 
24.832383237 24.735211004 24.540953931 24.180263324 24.82584901 24.46532114 17.662236194 17.933190776 18.264927034 
1.9028395802 1.5648629763 24.33821434 24.246277075 20.223467257 6.1679793558 15.507615915 15.567298708 15.910281271 
15.999822257 11.249846414 11.586006568 5.4150536711 5.7901976724 5.0491610348 10.565285883 10.732994583 10.2219068 
10.722747945 8.1799756207 9.7102094348 25.176341678 25.548905603 10.917362688 2.200969966 3.9526583491 8.5696213475 
8.7216355212 8.952716034 2.5239933405 2.3109766077 2.7899992569 12.447928241 12.161564786 12.341474121 9.0109318746 
2.8968975993 3.2753808742 3.1276250874 2.646942977 2.6597230327 8.5097444296 12.558418771 12.806559485 12.753786185 
0.5003648964 0.79174100841 1.1209330118 1.8516980846 4.624874957 4.5821017189 3.9710434618 3.0204534507 3.0044164828 
26.709753354 2.743890049 2.746965467 3.0959047465 3.0957574902 14.104363178 10.709699775 10.546905514 10.398790292 
13.491682402 1.9896945384 1.9813278502 2.3544903969 1.9441852245 26.20967305 26.057122318 25.8748145 26.176567047 
26.919759374 27.143406855 20.939190067 2.7672715953 26.450914532 9.4344192775 9.1443502729 12.330928124 14.787558786 
15.15292735 14.962867407 15.338369319 20.262481189 20.888559599 20.312840109 12.421641468 16.1059062 15.982534316 
10.700542367 11.05380957 10.526953932 10.882683029 2.5738721999 2.2220230117 2.5206636573 12.591840591 10.321984533 
10.438294097 10.015725358 10.124485595 25.513084268 10.158222379 21.118226574 21.373467973 11.292410157 11.475178703 
5.8936511568 5.7976369207 6.1818146994 26.86684338 26.929164697 5.1088778586 14.634636469 14.33837554 21.020398089 
19.356206283 19.692679225 19.818959575 9.5378812705 9.6562215492 9.8174213217 10.701616341 10.56026748 10.878949975 
26.125432991 18.697012842 18.774218861 9.8890665903 10.260354853 9.9816812076 5.727606518 3.9701700336 16.698652342 
17.011981623 13.029391489 13.198988462 12.84768936 8.2215846808 7.8826829062 7.9611786995 7.6425753886 23.941760747 
23.455467614 23.892239726 24.352931192 24.346593292 25.86052271 25.424058096 6.8028326541 7.1480183622 6.7446657858 
7.0833939489 26.700437478 27.049612121 26.993830398 14.182063669 10.451134307 10.855057567 13.364257349 13.565405912 
13.705355406 20.538896289 6.9337590277 7.2086165272 11.786285104 11.597757245 11.116131172 11.259060601 11.218888032 
11.366648981 6.5320780429 6.46447138 7.382173346 12.092989956 12.394242361 12.258100655 12.580611489 20.614577965 
20.183635975 24.584541955 19.06003606 18.7886286 18.484790633 8.043960698 7.951639988 7.6274456024 7.5230361117 
27.491365882 27.557605876 7.6398026915 7.1236407382 6.8722385941 10.454869102 10.073714398 10.717780985 3.8488894937 
3.9461021463 4.2832062347 7.6786645676 7.262083868 7.5098551532 9.1204964493 8.8302979852 23.259591478 23.445871512 
23.812821571 24.027068434 24.233746845 23.763300385 6.7051265042 6.556302002 6.3189264744 19.463845039 18.901846241 
9.4334370055 24.376480145 13.735723874 13.523441812 25.248466353 23.628061248 23.292582504 20.298730683 20.680633846 
20.176010515 20.563478997 25.453165185 25.065575804 9.8148224088 9.6500236757 20.242439268 20.507896696 20.085553004 
27.67809528 27.273389135 27.215693837 15.491269843 15.319462508 15.754679529 16.512725004 17.014138214 5.6017164337 
5.3341119472 23.749874022 24.208585223 0.94130216019 8.5137705777 8.2253332175 7.6847467878 9.2494267068 9.546231413 
9.3925020846 2.3292306994 1.9883237153 4.3071210748 4.4132361208 11.321018076 10.980924011 2.0594220475 12.745334387 
12.770227421 12.976498028 13.146414178 14.013112426 14.28646291 14.149380869 17.53567118 18.196766388 17.797171345 
8.9881464479 8.5582768862 7.3366269682 7.9537264313 10.267781688 10.461675221 10.433649111 9.2622389166 8.3613372084 
9.4194038056 0.2195724 7.9082656738 0.21197971335 6.4147970876 4.3505176326 4.5650000885 4.9911972632 5.5401280868 
26.506302847 26.819313957 27.82021181 15.864430448 15.808396696 15.413786087 7.7389250875 24.18171644 24.527220246 
18.36270044 18.544021396 18.886332345 24.776215734 24.32578338 24.350494355 23.968174065 7.168125838 7.5660812419 
7.8889062776 8.1086065675 9.4288383849 7.5701824401 7.3374443812 7.8223177265 7.5977824971 3.9397827526 5.7949381164 
5.6781493516 26.630475848 26.256025852 8.2247946434 0.86087911755 1.1713132762 1.1621120168 12.70695993 20.732401889 
21.070259661 9.5611396713 9.3621664315 20.708031377 11.566249065 8.3283798677 28.130019412 17.942778623 17.544789756 
27.369059972 27.703929679 27.409692253 23.875487926 16.239744326 12.327846739 8.2531022916 27.02173858 27.419247183 
7.5208799188 12.695943138 12.980744725 12.811988364 8.773717637 9.1300937157 8.9074740734 5.8638186216 6.0838546451 
20.109117906 5.4322618092 5.1322910674 0.18725640842 3.0485544998 3.074572898 7.0852112746 15.603497359 3.6046098597 
5.5532377177 6.108255681 5.925759065 25.859662241 25.897431418 4.6221343117 4.5900352154 27.803631152 20.307414807 
19.90523285 5.6075244547 6.0036197434 19.857708707 19.769248556 22.405814394 22.491921835 22.885908843 17.945993294 
17.469323054 12.28863398 12.103697783 11.894684261 13.774735516 16.281604805 15.817492953 15.589957127 16.004452888 
15.490100069 11.799783375 11.43701203 28.996327361 28.660372042 29.074984421 28.739270038 22.055576939 25.785296645 
25.341609512 17.978886248 21.181108489 20.676269092 20.997854003 8.5555997761 8.7028498757 8.8400119773 8.3448801099 
8.5012626033 15.329084862 9.7192386645 9.141771618 8.9893797026 22.154026872 22.206948156 10.444137374 12.923830497 
2.838796887 14.769705408 14.601761539 13.935615113 14.148185905 14.312455523 3.5602400262 25.569838722 27.346094806 
27.757266673 8.5393438422 25.925403395 25.860278904 5.2128426346 5.4326640111 17.495344407 8.1985415203 1.458139285 
1.1228079343 1.4647359539 1.1296479437 17.161711378 16.730217259 17.057574638 8.165696575 14.790473894 14.591558383 
14.978721565 7.5553984132 6.271589112 5.9711274871 26.576197278 14.691774143 14.030194091 14.217753642 20.672831743 
20.980112397 6.9770980153 7.2031538596 8.2033623209 10.845158189 14.35476034 7.0805237569 6.8747940141 8.2167951511 
8.7088670689 8.8610690125 8.5377838157 17.851148176 17.575560623 6.4043652082 6.5601499578 6.1450993379 9.075073542 
1.1843443416 23.325161574 21.969523777 21.593492953 22.052655509 9.3989949183 5.0057774909 4.6701562467 5.0072975528 
11.326783954 1.5529284971 1.585366611 1.8995765306 15.187444212 15.462843851 9.0828084919 10.417682033 22.290666442 
22.179070225 21.973958453 18.429196491 18.637100312 13.076451489 12.919037186 12.779401339 19.864142703 19.993440116 
20.192944352 24.019443809 2.6219124689 3.0444723846 3.0448571853 7.0903516868 7.4606738893 26.970301532 26.803622974 
27.183329509 27.202233883 8.370911873 26.466222007 26.86590355 1.8465674211 27.310701604 27.279572145 7.4128630806 
6.9610055316 7.2165090898 6.9570463843 23.984235586 24.167716763 21.711864182 21.519350866 23.517972675 24.037962104 
18.145308001 18.601247386 21.261511788 15.864441521 15.993305607 1.3481570561 1.1181628851 1.6476303682 1.8070396806 
20.37908467 1.1400371985 0.8113714036 0.80821688632 16.262780509 14.07696008 6.640193091 7.1517207218 24.30647888 
24.488869893 16.686166489 16.992703152 16.574142487 10.757387771 10.234792117 2.9026536205 15.564898428 15.460779102 
15.144251316 15.044627909 10.817240145 2.0627219382 23.45162883 22.933909804 19.802064546 7.7428929119 7.8505011863 
20.298216114 6.873147817 24.661536091 19.465076031 15.204921767 15.060359926 21.490063232 16.479366877 27.331156786 
27.69374329 16.623209894 1.8921347547 1.8870804035 2.2295285385 10.885018659 25.090531494 25.488888891 25.048997984 
8.7987818863 7.0084149553 13.841938228 13.933326506 4.0984494054 4.1865796896 8.2942047211 8.5217840878 11.07742749 
2.1269719011 24.67680443 9.1911060119 28.044735199 21.430759087 21.775694671 21.680294602 1.4722700532 1.4820830032 
0.23687619183 2.4643968361 23.550579588 23.936501623 23.671214827 2.4511198481 12.46444307 12.308912754 26.884251026 
15.782189843 9.0661536624 24.208914306 1.9792585411 2.3392021917 14.697371027 25.029217956 14.012179342 4.8983125681 
4.5622091306 4.6627775567 12.256270959 2.2554204271 4.0859157016 4.534801831 0.21643825287 0.52823450998 0.53559696647 
7.3712588912 1.8672781205 3.5717582519 7.463598909 7.4134192753 7.6802201168 7.7409469204 3.5490818123 8.0178162197 
8.0841538173 10.798709508 28.328356179 11.642706066 11.773109194 11.43349585 3.0542598549 3.5519421143 0.88085362451 
26.077118366 16.676758869 16.439913994 16.843418962 0.2845204052 0.33547800581 14.337507179 24.204751585 26.465999069 
26.093170459 26.485090582 27.658654858 0.29519999227 0.26333647584 1.1191419615 1.4642702966 20.916383786 21.285699027 
28.457184988 28.123406841 11.13103934 20.670365973 20.545319678 18.37838736 18.513498386 18.127773368 14.522151611 
4.5143013534 4.393907852 13.026171737 22.018132957 21.609744597 10.146982866 22.352796831 16.109120483 16.158665434 
0.21171241123 0.20700780227 0.51758057387 0.19426217629 19.363542543 19.273561551 19.658334097 21.957243752 22.205058264 
22.324956152 15.580536187 15.214897774 15.459589069 25.494821248 10.56131901 9.5569311245 9.9812863183 26.437873972 
22.177451773 0.72401052849 21.100411248 21.359403894 9.1888892027 18.514742124 27.146940567 26.74572424 27.08853715 
7.5283370641 7.2913777666 6.8307022374 5.5803815591 12.081298503 14.510487585 14.744259245 14.375750574 10.897731065 
11.936268803 11.587367506 4.3974297627 12.185018448 12.808576876 12.70637766 11.895093442 0.88616122816 17.838732777 
17.655112474 17.452348173 16.231447121 16.128327198 10.101258291 10.425342726 10.247669897 17.221520549 17.078480089 
17.187778247 17.476434923 16.829030256 9.6988111804 9.3711516808 17.637977842 18.164414665 11.123545446 11.295034785 
13.422715882 20.759401197 20.998818702 20.661661751 21.150620276 19.030635204 19.308456801 19.423037614 16.991019536 
27.792561494 28.062119224 15.867054337 15.781285812 26.669607623 26.762231171 26.219441518 26.312890034 14.221944837 
26.765864136 23.02685651 22.603317518 22.491024528 22.058656073 26.015459197 23.544991285 16.67395755 16.340932876 
17.518938988 17.572126533 13.276318726 11.699948452 11.400466434 19.04006848 18.709268207 18.773873428 18.466330136 
14.467232723 15.023897715 15.376617027 15.302767758 15.661160974 8.1771244049 8.3976954589 14.542161374 14.404898814 
12.936418069 10.113518476 9.9236991613 10.19314742 9.7682233611 17.383169009 17.103715901 16.999727584 10.229814757 
19.599707973 9.1513181091 8.9688942861 25.983786716 26.046140514 27.48618896 25.431734013 24.2993285 24.258924338 
23.795684721 24.79783441 25.186959001 10.079899554 24.415715191 23.898026176 24.477220757 25.529543301 28.581873025 
9.0011225542 19.216150525 8.7002600833 9.7941088182 10.175049016 9.6008270053 9.9867096519 13.711452579 9.9570323267 
20.447717715 20.05297614 19.825611256 19.738103331 7.6833618938 0.50066122373 0.50138037719 9.0587693311 26.176559072 
27.463981861 27.748812003 15.238339532 19.11419873 18.966142806 19.2970881 7.8895973473 20.393970882 17.131491219 
8.9147223413 14.415280319 14.564027226 9.7215445525 15.144232263 7.6492166544 7.323071444 15.352420011 15.609811829 
15.582606318 19.817263658 19.252625769 25.259238725 0.80300424634 0.80855784915 1.1399417844 10.567758563 10.749050202 
10.739439374 10.917508181 23.044065659 23.392091132 23.280544529 15.007160651 8.5120300807 13.042329792 12.748940413 
11.351578344 12.435251999 18.038407645 24.61636545 24.13176639 17.919802189 23.574721078 23.675372965 25.333445467 
25.72221887 23.75846476 17.382182541 13.417237834 25.068189877 10.223211964 15.608467735 19.118266951 19.511462643 
6.6156817307 26.296048946 25.951964776 2.1792336553 2.5968889715 6.3039936165 11.57929142 11.94185608 14.187614202 
14.467514983 17.65899358 16.159518839 15.326031248 23.472431489 10.509299017 25.826558129 16.50766545 26.447931361 
25.936661792 25.766771195 25.184381993 20.677287593 21.359961218 26.503803976 26.528872618 26.14801419 26.170203324 
7.2889075016 18.774862162 7.5688917158 7.8509075911 7.9373375245 8.0779514298 8.3043073382 8.6504105155 3.3945103951 
2.9869916655 25.567515296 10.41646092 12.392626232 21.760660984 21.642746289 21.421749962 5.818487004 1.1653845457 
0.84152658601 21.039723514 5.3256813945 4.9332328091 5.3874518199 5.0001552325 6.270495388 6.5351073644 5.7935888249 
9.6225286844 0.85325748957 25.634158327 10.930176526 11.278586363 11.020531199 11.394710396 20.688710839 9.8325085692 
9.7265901254 25.550919679 16.981984552 24.093281774 10.962805933 11.211430736 11.03838296 21.561593384 21.158491319 
21.255243368 27.189835549 27.185735677 13.825680836 16.020855697 8.4030496553 27.087975914 20.210938507 19.936021113 
2.7254007715 3.0798546256 28.427187338 15.290123342 14.039201005 4.7436319427 5.6553682304 3.5936004494 3.4937328401 
15.27950214 16.131419053 3.7065065122 11.088109341 16.759653567 22.066112395 22.435880059 11.780093069 22.271025638 
22.414894768 22.683866303 10.928826516 11.112935807 10.772887492 27.155605141 20.159449388 17.280383596 9.9204471021 
10.235990042 11.936489227 11.778585662 21.907304646 13.80824442 14.961466263 14.806047957 15.188052395 15.934748113 
17.713594482 4.357771032 4.0125819532 3.9725839129 16.158045444 23.980311015 7.0569671804 7.0542773479 3.1368813161 
3.1058285525 3.6228287614 3.5969976799 23.334976142 23.538677045 4.7107676774 4.354089979 5.5681925176 15.540245888 
19.669576978 24.677775723 20.673016501 23.608627508 6.0428141899 25.063061483 27.336112858 1.5762210668 1.2462455159 
1.2687290124 24.563042032 19.839194767 24.512842186 24.598557684 3.0689393856 1.2843337477 7.1139451575 7.4032677647 
22.675718372 2.2316389169 22.604550031 23.059144506 22.899324681 23.626151781 28.497333518 28.430997123 17.300510508 
18.065269989 17.751180931 18.005826252 16.855226183 16.830008006 16.338617513 16.126945689 6.6322339079 17.542058949 
17.910190353 17.633168041 4.8148740422 5.9003500435 14.487765804 1.5734230969 1.1735411277 3.5190169621 3.4903457192 
0.53519330873 0.84198842462 0.85147630382 15.925064085 1.8426218188 11.927110283 12.028496936 3.744213074 3.3735384335 
2.9480186244 3.3232718062 2.9657423632 4.8147918888 0.23982979256 6.7892276573 6.4914712003 4.0505326633 7.441252674 
7.3063474175 12.241535941 12.938611332 13.115319652 13.145589674 13.33271438 13.251973357 18.714201901 3.9437104178 
22.971579157 22.554483865 27.043943467 12.888069606 23.712330781 24.46946381 16.68752009 16.733628212 17.447601555 
24.424682952 24.266627457 13.059328957 5.2806666519 20.748541336 20.422635328 28.928632451 24.452477218 1.8295203457 
26.85598421 16.722075752 24.745488992 25.699564665 25.374369447 16.697713265 16.350219941 3.6942232109 9.8672785378 
5.6380280238 5.304591276 5.2522053703 4.9106176578 5.9884346946 3.9120262069 3.947547544 8.7887641508 18.871505517 
3.9314746545 3.5578009894 23.228054379 22.81852276 27.476459199 27.779769622 19.34703298 16.424165191 18.468319712 
23.883669816 8.4638226511 9.7482872282 0.31636693168 15.594384187 18.725090961 18.404030764 6.814149069 23.183937365 
7.3662955407 24.503991642 11.906673367 9.616262968 20.99200093 8.2081599883 19.519547545 25.731847782 19.555475293 
10.349324458 10.715496601 21.144811576 21.612835916 19.851483109 19.574327958 26.898398977 22.304140359 0.18537300363 
26.802532626 7.5280064087 7.8174069414 26.943248962 10.840823216 10.528488357 5.7940153138 0.2119360692 10.112059658 
18.339820175 5.6687590791 4.7843048477 0.21882521684 10.939585687 4.5982404349 17.874644206 0.56623447761 28.734984238 
19.630908562 20.985424544 8.4801770066 8.7651159913 3.2405752007 25.762859712 25.793645831 26.138440037 26.166155057 
23.744577907 23.785691131 10.589531777 7.2225528719 3.5846244642 3.6372544946 4.3845342617 4.4037157238 3.9167749621 
3.5369198173 4.9222307765 5.0612032445 5.6202220782 10.02683615 1.2202568236 27.850676801 27.455295893 10.486589331 
0.89882389622 0.22959472655 0.50970046367 7.2514606461 7.993703885 8.8801238999 9.5871599222 9.3401646126 20.010156459 
19.61003878 19.967623769 19.567949386 7.327806537 13.877782551 13.63024688 21.770290225 22.388527371 22.338283137 
6.8676421249 13.208342385 13.388406213 25.429062237 26.510292113 8.3726182455 5.4258568521 13.290336442 13.703431419 
22.892268923 22.568901307 22.682861361 12.605215005 12.868651519 0.49731638276 20.40631197 20.726662775 20.669161456 
20.558537533 28.108918991 27.894089196 13.921468046 0.88334800113 0.55945884003 0.88471331788 0.21543553553 0.25566749137 
2.5092281337 11.042804007 2.2344139655 2.2512232607 14.188009939 15.692308745 16.287195263 16.491543762 16.248999252 
16.102020195 15.853205969 5.9984196501 5.7605506339 5.7372317206 1.4474570732 1.6167435996 16.554290106 17.186699092 
9.230540219 12.255883821 27.589080117 0.5047767978 0.53597541494 16.908790183 16.729113817 17.141444619 11.225788999 
16.713192943 16.324108875 1.8315394971 2.2141129316 2.215788513 0.55293959427 23.666232794 1.8387083907 1.8324221261 
11.51908173 15.132370299 15.101005508 4.628493702 4.1342523077 27.210830637 16.196762919 15.899263771 21.560967298 
17.436545742 5.2890753087 22.401120271 11.487728055 11.132227787 11.398278445 3.7216360208 3.3421499757 3.7367295671 
8.354440331 19.856920509 14.828804555 15.341893687 14.810435023 3.5152349278 4.4360081107 16.54805264 12.708505558 
13.392912579 11.274656968 13.516667084 16.386137829 15.165983608 5.4528901855 12.536503282 12.683650641 21.496216309 
16.405053496 18.222737854 19.699201108 19.396236676 2.2276144683 2.2377920796 1.8570152985 2.2279599205 19.183553682 
26.109180743 25.229681186 26.492420775 19.034933638 18.432406226 9.5242006221 9.8385729114 9.713787042 18.886618098 
1.2037107671 1.5256896011 0.93237203119 26.422934237 10.873923842 0.2003014043 11.208685295 22.217454704 22.042923139 
21.285120822 8.7082529457 0.20170557889 4.1073448039 4.4367962778 3.4049082654 3.0490185826 3.074492079 27.203185016 
9.7426199978 11.243263844 18.328131406 23.065455725 4.1651527855 15.064866997 15.195835062 28.226093581 17.5335786 
17.305221382 17.676617811 27.289472586 11.374374543 14.915928205 14.335229129 14.708182686 8.1029185966 7.6877220202 
11.676715823 8.2158454549 22.549791543 16.844991595 18.275115302 18.053194537 6.5824019146 7.3195994955 14.693975506 
17.818906421 19.085346181 18.738624144 26.105961231 25.782295168 8.0919317304 8.4761747035 8.2674547394 24.595109675 
2.5864816825 2.6133680873 18.318150183 17.873024383 17.610451741 25.936854303 18.571402827 18.258507767 3.6293814078 
8.6942740826 11.110457161 10.952244558 1.558462824 1.9754156928 1.8762068341 11.405433306 3.6004427293 7.741677169 
11.241845656 11.724152221 18.349959009 17.738431705 18.892264638 0.52452401232 0.8337311454 28.274292337 28.222370762 
19.180329269 18.232973401 17.431164538 22.209370402 27.644068233 1.1823825804 9.6967131608 10.109625175 11.621243839 
8.1628777342 11.44944624 5.1786995593 5.5403582717 10.161503918 10.35196267 27.567971336 15.529943884 14.17070879 
14.247415647 14.443196582 24.569312032 25.051760036 2.6365868642 2.6386081478 15.99379512 17.844215001 18.20111816 
17.744728101 8.4782322067 25.616133128 25.79332064 17.290720622 22.101500813 24.894668093 25.307644914 22.420620305 
27.259455004 27.147788884 21.213075406 22.014678047 5.8028495087 9.9803482486 8.4433579953 8.8482198484 22.984797336 
23.31693015 15.681791026 16.055207659 20.828340008 0.22920136528 0.51438744227 0.19525165677 0.23391592034 6.3691876266 
23.398661321 15.944825022 23.47700284 0.54238203559 15.121419191 0.7948685141 11.103476314 10.022037918 9.663760024 
9.8349211921 14.39483463 9.1919483434 7.5416083222 10.866826432 10.142199474 2.5808445349 2.3326196655 2.7318788967 
17.79676876 15.558929592 2.5114601859 11.167879895 16.416917022 3.0727179876 3.0827536331 3.0308168157 14.842420149 
21.166923539 27.634344612 14.932974704 15.098467243 26.880984302 24.112810757 25.511535267 25.806814748 23.825582477 
23.097863009 19.382649038 27.24823239 27.566660508 27.849420888 27.515071282 14.950144077 11.425484799 11.659533746 
8.3467990098 27.205078074 0.21912888595 7.9071848355 11.172844727 12.889390835 19.265000939 23.090652896 23.632031384 
8.7624781153 16.586661942 17.059597487 1.8400908119 9.1282361243 9.2642601322 15.222696706 23.26522845 23.426952447 
21.887087628 16.086801872 16.450319739 16.359220337 1.4655426779 1.4685928237 15.42264959 1.4710861638 21.871603569 
21.156630746 1.1378658917 22.082762902 21.988416382 21.831847126 19.136332283 20.941979835 27.83943493 28.168611066 
24.437149523 1.5956089971 1.5878433072 24.353484226 2.2257508482 27.829142186 2.7585188135 1.2502460035 22.215964788 
22.619142618 13.692786486 23.289224296 22.832124541 13.459563701 8.7414171597 15.334194923 10.529161228 11.281957077 
13.858477111 16.659726128 11.247085654 7.1955495544 14.869643486 14.092776155 17.557691999 11.0792266 10.924385525 
7.0786203167 22.380134261 5.4329305299 5.0611864574 22.960424055 0.825776016 26.982231977 9.2164061146 26.278606118 
26.371437153 28.135058801 22.878899591 23.903856556 19.109530126 15.186847651 26.637679065 3.047491266 3.0932938875 
27.172987235 25.919647871 22.885820395 22.718022964 25.748954866 27.953233472 28.071783226 24.692364194 19.605935909 
4.2924079059 3.9675395887 12.554227654 17.239806533 1.9417894869 1.5555554475 3.3429801813 26.045110912 0.26072826647 
2.7666767397 3.1127208577 3.084196833 22.085009046 15.402275079 15.785217014 15.322481939 15.709790114 14.561123751 
15.938347809 16.288685412 18.037667945 17.066881505 25.772204371 22.478591634 11.911587778 16.179109286 15.876420123 
2.8628899636 3.2939745637 1.5019239836 1.1854050962 0.87713351301 1.1519967877 15.717452623 9.5575288287 11.726326092 
15.584021623 16.005903052 14.772099913 9.0665779775 14.615244149 15.131204814 26.088169307 24.822720652 2.6365860898 
21.355604661 7.3549658185 7.0697655245 17.908360235 18.156341578 16.287305973 22.181385786 26.560127419 0.82973507916 
1.1592934337 15.396084543 3.5300395374 13.337646467 8.030077586 23.050450955 22.535548689 17.836892373 19.328205814 
16.39805452 17.002109358 4.5734495329 17.376628761 23.151943802 22.76825493 24.008311945 24.581374853 11.063046612 
13.552419654 3.8700886463 3.4147926874 3.0585888696 8.9810186081 23.058034785 2.6224701417 1.4946836954 2.5615340114 
20.801209205 20.266147728 18.783960519 18.315074747 4.1202463991 3.6859720649 9.9401109206 9.0063604206 4.8898238915 
4.413267215 23.431461428 24.799779956 19.443829428 26.874440742 7.6514219592 6.0583180158 5.7917443973 8.2669374083 
8.4918435804 8.3112336427 7.8826317943 25.473749569 8.6826784534 20.096103601 15.780134852 15.499857766 26.9845052 
17.200129223 9.067311032 10.129528386 17.276220072 17.252412569 6.9156033051 7.519550992 10.64889642 7.1055854075 
7.3535896219 6.965068945 8.2136766104 3.0542718908 3.0156688664 1.8641303942 9.8632048119 3.1493133727 1.0322200746 
11.055160981 14.217273585 8.045082154 23.802797896 23.322978545 21.447132543 23.213271266 8.7278903536 10.516622244 
18.96292957 18.662943742 16.970368243 19.031126834 19.051838116 20.328660147 2.6599114326 6.1826514302 18.029073106 
17.575603713 20.081923845 8.725279183 3.5429326153 2.7612315839 19.827316057 27.632375456 27.555951447 9.392411589 
23.138989966 17.609368522 17.952854602 27.236385475 17.386942335 10.020690334 25.015497134 7.7467683099 7.5809006012 
21.423684406 22.016517644 3.5324304975 22.15317612 3.5420768868 3.9583159669 6.9368776301 15.673378884 15.558094176 
6.3411664006 22.607671968 23.616534479 23.041053781 22.834619805 19.697443439 28.097896454 3.3885112343 2.9638529843 
3.3325340721 2.9840601619 2.9668532249 2.5110643682 10.976582693 10.264491915 10.976541311 27.043776726 18.934515683 
14.264161042 27.537868387 1.6251335871 0.29847875362 23.628493286 19.099645179 18.45561644 0.53068341661 2.958285486 
2.8957030823 1.1359658539 15.350627836 11.005614882 6.0678231629 0.27060940551 0.86180923305 0.87775882123 1.2439595429 
1.575789769 9.446193063 10.640130923 26.216320351 26.58994734 13.560008477 8.7701193392 28.862873314 15.668037771 
13.129382752 22.393847077 21.917532177 27.247874837 4.1138088638 22.757172865 19.555207838 5.4010989219 27.067250831 
0.29660820671 4.7748590076 10.014073647 9.8624499083 11.966224264 22.876703223 22.65282974 22.876988467 26.69423639 
6.9079885094 14.290814281 20.453629891 20.186215793 15.971516175 19.883856802 19.985717281 14.882951123 14.749167788 
14.883959258 17.63282385 13.481946608 3.9971924047 10.391338976 14.723482827 2.242948977 14.093663667 14.593341889 
20.76361512 16.511170425 7.3288102264 19.761912792 26.993339716 10.544246958 14.184570566 14.019037964 14.036055835 
14.157627715 14.020637179 14.615096694 14.721625624 23.354224682 24.491964568 13.998813965 9.590120276 9.7955963119 
21.547516447 13.822478177 6.4712227492 23.022929959 6.542490137 13.68413547 13.635208598 14.893122422 10.391219805 
18.547830188 17.544693105 3.9365034704 18.514040206 18.587804381 4.4650578174 4.1260706983 14.324916752 24.937572786 
23.438712369 0.84492984847 10.519181422 26.884195489 28.563745602 21.652776205 9.9822862573 13.439555109 0.60606359616 
0.24315410619 20.263681062 13.439091882 13.415650184 0.84991937129 6.0662492126 19.394738788 3.69404621 4.0733806028 
13.861807108 13.700133712 9.5966282193 13.735260773 13.863428002 3.5882277515 19.761706842 13.655292236 13.457376051 
13.48348997 13.635578123 21.099985386 26.965735837 14.247269641 20.195057229 28.086682537 14.306743907 14.583974835 
14.479029171 14.266104693 14.458116614 12.129990815 26.604513028 13.417172942 13.865371092 14.823349956 15.719596998 
25.793857298 14.251435762 14.090228916 14.57196814 14.43832096 13.644669193 1.8696359011 13.803378422 17.757239693 
13.842447364 23.347533378 4.2440229854 13.413293687 23.968892297 14.379954478 23.153006796 1.5321970755 13.832607134 
13.938853342 14.11702041 7.8344466434 10.894147573 13.480539769 13.635812638 0.2445932503 1.4608124817 12.086005201 
28.47843029 29.005472658 28.669639009 12.978077322 12.095084912 12.243021705 12.328790514 12.674710612 12.595846267 
12.507610485 13.052812375 13.076749516 12.887888986 12.790664184 12.763646485 12.591683691 11.946356891 11.827831672 
12.097694489 11.736852201 13.01570447 12.567323464 12.482816622 12.756194416 12.682025912 12.144602702 12.348318137 
12.240802983 12.05590291 12.816547195 12.735150161 12.198730638 12.408105075 12.547554364 12.242180703 12.97145584 
13.003009969 12.941369056 13.060932509 11.45880324 12.570875142 12.404182189 12.004636754 12.976407103 12.902773891 
11.944799095 12.777389522 12.398733852 11.735536977 11.845665068 12.698917993 13.074031772 12.316433594 11.466247173 
11.514375381 11.64365467 12.361518867 11.589834451 11.865612845 11.751006868 11.864487119 11.651093372 11.776702974 
13.013259052 12.81569483 12.854758799 13.022424334 11.558841933 11.465175985 12.98778931 11.594462838 12.054907779 
12.193618435 12.270186805 12.501103766 11.857657244 12.018000425 12.754365609 12.656586186 12.971846705 12.800586964 
12.206504489 12.166211894 12.276088505 12.375789938 12.943107217 11.933741069 11.819794659 12.686965129 12.729650146 
12.771965864 12.94166735 12.382816586 12.065372616 11.960597112 12.072436788 12.974226189 12.705035448 12.910880928 
12.548238821 12.586450066 12.430593457 11.460195795 12.363318688 12.561715512 12.636762849 12.739014458 11.720040648 
12.939322196 13.008370101 12.500156054 12.429424076 12.20124017 12.597851289 12.40547328 11.634952309 12.791090597 
11.946073843 12.830465315 
Tresca%20Stress 1 13529 double
0.2656979894 0.2822743053 0.28832262636 0.26849609347 0.15386793254 0.15387089267 0.15386347631 0.15387450964 0.37129271797 
0.42364045982 0.49025652824 0.37676628348 0.29838291835 0.57783768669 0.46058000059 0.30794129804 0.54368784882 0.32932769801 
0.4658336792 0.53345912402 0.35175215408 0.39440248217 0.49078748283 0.40278734345 0.35944460744 0.56330624147 0.44897378682 
0.33465745064 0.62858749692 0.33426139496 0.50148802408 0.54568684361 0.11685174674 0.10913799992 0.31782348071 0.33878398593 
0.36398306171 0.39598468325 0.12045391906 0.12144257046 0.37277235793 0.27793445469 0.30980330841 0.26175891883 0.3713856477 
0.1243575727 0.13347142349 0.13593373671 0.15567396124 0.17521150026 0.19572831781 0.25477918257 0.21518645846 0.21091014796 
0.17744843032 0.20442930391 0.21839275226 0.39387272113 0.40807448564 0.39302562623 0.4369665894 0.10310384505 0.1119592661 
0.1312299884 0.1512788544 0.17051367101 0.19179053446 0.26144162443 0.15797754239 0.22200840216 0.21798544256 0.2378460177 
0.19957065605 0.21497855148 0.25012373805 0.26220995663 0.11023056308 0.12035624713 0.13101928912 0.1544174916 0.1970328526 
0.22267729672 0.25370512032 0.42861170892 0.38553923774 0.36132741341 0.39279539435 0.41338553383 0.17666486812 0.19638935847 
0.19210123355 0.19742382464 0.099088872994 0.11112602675 0.14252966298 0.1523894306 0.16019407138 0.1821557166 0.27457658076 
0.30998200967 0.37491796224 0.36658266847 0.30776996662 0.31188944427 0.14221953783 0.19152503722 0.22789579506 0.22913874732 
0.19605251665 0.29993922319 0.23909184022 0.18444512989 0.17741019699 0.15344820495 0.12721946532 0.091090741672 0.38209544962 
0.3744171609 0.34531094424 0.33782632128 0.27706881506 0.20215412666 0.18533882599 0.22200930611 0.1970045474 0.28779440253 
0.18835852599 0.17795353053 0.14950444488 0.13047666741 0.10979161095 0.1217855372 0.48909796826 0.37482105144 0.43069401413 
0.44668622006 0.43240765388 0.34725933842 0.41222218787 0.41166874815 0.37069866783 0.36621589964 0.30960153355 0.19240661054 
0.18300526173 0.15302200051 0.14147375211 0.1165139234 0.10410485201 0.15491456894 0.19500495332 0.19907626623 0.22565844245 
0.47766550193 0.30531821227 0.37256345984 0.41519980512 0.33163906886 0.28849555026 0.21163215484 0.17769271443 0.1717094875 
0.13650654658 0.11983454409 0.10059466873 0.13682319878 0.21016040647 0.21218133346 0.24152416629 0.19000403532 0.15825444116 
0.118303614 0.10668786918 0.099302003791 0.094597496647 0.092603808992 0.090681320773 0.088032791326 0.085664436858 0.085650078953 
0.084653123055 0.084376854172 0.084629100013 0.093421573916 0.092667120435 0.096090396185 0.088749541508 0.090200189653 0.094502711386 
0.10356213341 0.10119895154 0.10680553854 0.11619586496 0.15521730188 0.14251126638 0.12690379121 0.10510518143 0.1024633712 
0.10131649446 0.099767401383 0.097178408873 0.087983408831 0.089277091601 0.091214401598 0.091164728149 0.089166847119 0.0865165024 
0.088233082297 0.088511187912 0.087657991671 0.08474646168 0.086125282359 0.086477504176 0.091867801897 0.090317002362 0.089517028534 
0.096199547056 0.099650451031 0.10404253026 0.10660698775 0.10983059067 0.12751398462 0.15298932907 0.15379180721 0.15385316496 
0.1543612042 0.15531501457 0.15670264408 0.15832209943 0.16003247719 0.16197157274 0.16392897361 0.16555693036 0.16706250325 
0.16819075586 0.16898195852 0.16940660161 0.16948820143 0.16901520695 0.16826735403 0.16705595427 0.16578717533 0.16417362209 
0.16225446966 0.16065461951 0.15894387337 0.15744291898 0.15614961478 0.15506485117 0.15425288779 0.15385579115 0.15384869841 
0.28966968976 0.15327963459 0.13988973134 0.13153624985 0.12595363881 0.12221532789 0.12021097561 0.1190094562 0.1185246089 
0.1186185596 0.11916057479 0.12059028053 0.12245458507 0.12513829578 0.1280043136 0.13109975268 0.13509904991 0.13938106886 
0.14361725993 0.14775267197 0.15085664185 0.15286817996 0.15288982053 0.15147562026 0.14899624189 0.14630214036 0.1438791155 
0.14177287484 0.14011569327 0.13894543223 0.13826698132 0.13820458898 0.13861430885 0.13941127742 0.14063840724 0.142347917 
0.14404737632 0.14579710222 0.14773647487 0.14944955901 0.15093891705 0.15236561319 0.15337552243 0.1539270347 0.1540130727 
0.1539333526 0.15394785958 0.15352727279 0.15277590022 0.15176483173 0.15039785292 0.14902270554 0.14748027716 0.14624128122 
0.14506307514 0.14402970927 0.14320465367 0.14283753106 0.14289709832 0.14329241951 0.14428551703 0.14545218256 0.14709394482 
0.14895803077 0.15103280553 0.15292527627 0.15441464091 0.15518939993 0.15476860745 0.15322290216 0.1507580527 0.14780709106 
0.14401086886 0.14030056789 0.13642406415 0.13314313548 0.13019668144 0.12759939038 0.12548880604 0.12357684036 0.12256259344 
0.12190756524 0.12199433629 0.12266977884 0.12439438928 0.12726223765 0.13264233802 0.14090315208 0.15614277703 0.29681525602 
0.13289027317 0.19705713146 0.21294556657 0.21957014926 0.21215754412 0.20419559374 0.18583222193 0.18237273488 0.18229680567 
0.23467962618 0.22809293529 0.18427595868 0.19130435635 0.19688464741 0.20379164072 0.21102780769 0.21803670875 0.21850320196 
0.19095283051 0.13058735529 0.13856668749 0.20491795886 0.21408393428 0.21130163369 0.20155655085 0.19911659283 0.18725167408 
0.18023295638 0.15103570617 0.25149014446 0.23804670134 0.16976981576 0.18194436105 0.18288521691 0.18623349665 0.20483874812 
0.19449526699 0.19622438978 0.19785589943 0.1507675149 0.15387372899 0.15391040779 0.15485444324 0.15629825986 0.15828643329 
0.16054127796 0.16306377633 0.1655258179 0.16729782237 0.1685469136 0.16937240374 0.16933875803 0.16865385657 0.16742816731 
0.16576151328 0.16361532054 0.16137812073 0.15925921989 0.15723799446 0.1556111505 0.15444726426 0.15386350714 0.15383147189 
0.20780474886 0.15424836153 0.13520578227 0.12714127218 0.12198017914 0.11968854326 0.11865145895 0.11869804836 0.11952399637 
0.12151341538 0.12420124917 0.12791158972 0.13207778061 0.13633222612 0.14106440361 0.14628469161 0.15061478364 0.15275896672 
0.15247535559 0.15024278415 0.14718385072 0.14410626622 0.1411672906 0.13939947956 0.13846769779 0.13825886053 0.13886496097 
0.14011009481 0.14203110319 0.1440553616 0.14598913998 0.1482622374 0.15028392127 0.15184477443 0.15316287704 0.15390384177 
0.15396851613 0.15400041312 0.15386715519 0.15317630202 0.15209019884 0.15045951986 0.14882354287 0.14698400304 0.14551123514 
0.14408342991 0.14321886867 0.14287865573 0.14315812564 0.14415153168 0.14577017438 0.14782688571 0.15002929242 0.15240830108 
0.15438301208 0.15511863773 0.15431041189 0.1515310503 0.14740263718 0.14277597553 0.1380060731 0.13336475849 0.12957307521 
0.12642530873 0.12406994864 0.12262797621 0.12208299359 0.12256429227 0.12442821875 0.12866166877 0.13639655986 0.1521829208 
0.19791735021 0.13393275796 0.20709790667 0.23294008682 0.2212297158 0.21459545916 0.2072216139 0.21424641995 0.20986526818 
0.15934924348 0.22000757202 0.23979613104 0.16296758501 0.19534690622 0.20021135768 0.20645350041 0.21437197518 0.21999884567 
0.24832214785 0.21375509523 0.13914545204 0.13585566566 0.19549536917 0.21768180095 0.21143803953 0.20056043796 0.19797425505 
0.18794397424 0.18087900155 0.21437794608 0.29694077461 0.15209607528 0.18833289882 0.2008295908 0.21199196136 0.20601874216 
0.23637168773 0.23430584691 0.19235798755 0.1581639796 0.10582758949 0.094666715283 0.10934676265 0.12049582808 0.13390441094 
0.11056230716 0.13873999258 0.10508731327 0.1177130438 0.10473133524 0.098373925478 0.097628897655 0.11097821889 0.13078421426 
0.11304643476 0.11243584492 0.13668097482 0.11745528169 0.13781498425 0.10532304092 0.10623560896 0.10372292929 0.10827300664 
0.14765039381 0.12062170208 0.095000176552 0.10506771082 0.11533322413 0.12530488581 0.10028234197 0.10662000147 0.11380727146 
0.11509475462 0.096621102743 0.094844186285 0.11111565072 0.093353041742 0.10200926234 0.10775976748 0.1161640605 0.13548069478 
0.12091277595 0.11695776597 0.1110343878 0.096845777927 0.14174650966 0.10233301871 0.097394268392 0.10579924313 0.11696216241 
0.13243957252 0.106685594 0.10057738232 0.11155684273 0.1317185005 0.10567643051 0.11391931569 0.095620199319 0.10040968 
0.096253732508 0.10580635697 0.14384014582 0.12752177325 0.11869166777 0.11784252584 0.10711973859 0.096959117439 0.096276200318 
0.1076259173 0.13173790144 0.13398755079 0.12060683514 0.11530125787 0.11181051697 0.11898878678 0.10852405206 0.10512186229 
0.15391240393 0.15436107743 0.15514748312 0.15616327115 0.15746973407 0.15885694732 0.16041467344 0.16195585724 0.1633687792 
0.16462372635 0.16573126971 0.16647354727 0.16698585084 0.16709090131 0.16698689751 0.16648716686 0.16572136888 0.16472395182 
0.16350860589 0.16209623263 0.16074695292 0.15934212925 0.15802599435 0.15685649051 0.15583567332 0.15496146526 0.15435433397 
0.15395973847 0.15384904466 0.18246777914 0.16263496443 0.14938760796 0.140738379 0.1351753223 0.13115783398 0.12856083865 
0.12667128609 0.12597863315 0.12594187647 0.12586534596 0.1265797952 0.12784791075 0.12974267945 0.13192189549 0.1341850558 
0.13686813973 0.13978761923 0.14272764288 0.14521465111 0.14672657379 0.1476859856 0.1474235399 0.14631451569 0.14475099948 
0.14334120539 0.14205876141 0.14103317114 0.14032214121 0.13991827325 0.13990286604 0.14016815528 0.1408600745 0.14182054441 
0.14313279089 0.14449169123 0.14590046236 0.14737611847 0.14892248026 0.1503126677 0.15148249282 0.15251952352 0.15321536998 
0.15369344054 0.15372271017 0.15333760221 0.15271086116 0.15187355773 0.15087591477 0.14970279964 0.14849043211 0.14740417525 
0.14634056035 0.14536112405 0.14459886947 0.14412587026 0.14385304499 0.14392147911 0.1442896949 0.14497679564 0.14593506748 
0.14698443236 0.1482758861 0.14961073628 0.15069613632 0.15112415498 0.15117141656 0.15022695575 0.14866710408 0.14658895715 
0.14390464387 0.14120384059 0.13850328965 0.13595125688 0.13365688439 0.13170128086 0.13024103719 0.12912677026 0.12836428609 
0.12844112874 0.12885535623 0.13015812389 0.13220380598 0.13575987343 0.14151796687 0.15058759999 0.16481252658 0.21825680114 
0.21646708035 0.1882117116 0.17679293963 0.16876462228 0.16599091814 0.16546386891 0.17061084969 0.16559719827 0.16522078767 
0.16451825696 0.16636942826 0.17132504937 0.16856964913 0.16638488179 0.16655069393 0.17095163251 0.18637434699 0.18331019832 
0.17025145533 0.16561829292 0.16549883752 0.16919940739 0.183086623 0.16983215559 0.16893975178 0.17414450499 0.19106166307 
0.22707230022 0.11203492935 0.13033829089 0.15103241829 0.15837131484 0.15843112269 0.15757016647 0.1564510689 0.15483489289 
0.15605476868 0.18901529449 0.22843918737 0.20586667214 0.1745957713 0.16425057697 0.15686508837 0.15468291965 0.15496946903 
0.15493271286 0.15283989899 0.14232906952 0.11993704667 0.11742214439 0.11627490966 0.12634348213 0.14732369659 0.15531467478 
0.15514348963 0.15301440852 0.1512374273 0.15336276962 0.16082348501 0.16897737204 0.20584170102 0.20149357728 0.16915040142 
0.15329928631 0.15072085023 0.15305305005 0.15537826041 0.15651109265 0.15678927475 0.14892455464 0.1343992037 0.11224392691 
0.14794664976 0.2429381541 0.22389776574 0.14275686773 0.24156421335 0.13709812605 0.15440456742 0.15537858441 0.15645220901 
0.15770320593 0.15902245657 0.16042841283 0.1616812394 0.16286110665 0.16388457448 0.1646808149 0.16520078101 0.16546971962 
0.16549252823 0.16519029023 0.164643885 0.16383785401 0.16284034689 0.16168715111 0.16052121122 0.15933114122 0.15813171428 
0.15700423694 0.1560350474 0.15515710226 0.15448805436 0.15399142546 0.14430364269 0.16209144046 0.15291578018 0.1466142839 
0.141126282 0.13761409688 0.13499368305 0.13317624965 0.13215273779 0.13150982185 0.13118919723 0.13142911705 0.13217341161 
0.13320093811 0.13427811233 0.13554675091 0.13719031047 0.13938603532 0.14171630921 0.14342501697 0.14447106417 0.14455164521 
0.1435675086 0.14225296285 0.14140926002 0.14117068822 0.14089628866 0.14065847565 0.14063500615 0.14083264084 0.14130612758 
0.14196514142 0.14279720397 0.14396036104 0.14512570151 0.14626647235 0.1475420137 0.14892751505 0.15021935538 0.15135919866 
0.15243307451 0.15327973292 0.15382551529 0.1779661288 0.17342898439 0.15353562979 0.15304133877 0.15230387936 0.15146279564 
0.15043774589 0.14936769135 0.148351917 0.14738553618 0.14646149004 0.14566682227 0.14502782062 0.14459195563 0.14434273508 
0.14432227713 0.14449930203 0.14482586237 0.14528919784 0.14589669046 0.14689262686 0.14793474158 0.14862381126 0.14881263443 
0.14842245784 0.14737655699 0.14578755525 0.14373437884 0.14161694217 0.13971016301 0.13791371109 0.13635758893 0.13503033275 
0.13418093804 0.13357404889 0.13346498024 0.1337836614 0.13456061958 0.13608628129 0.13820794918 0.14169402764 0.1468080159 
0.15412028413 0.16360144167 0.14063911856 0.16490502011 0.1597255451 0.15567862074 0.15352671671 0.15241348066 0.15173577221 
0.15189968305 0.15264014802 0.15293062172 0.15363911565 0.15339230618 0.1545557093 0.15500503569 0.15555597069 0.15557032571 
0.1546434728 0.15457129019 0.15436429034 0.15341555866 0.15311442638 0.15357807039 0.15461449211 0.15644164833 0.16019443999 
0.16603749482 0.13181467593 0.20197362808 0.1246685159 0.15108656805 0.15215981173 0.15087225971 0.15082210103 0.15491346828 
0.16498307395 0.18610714327 0.1354246502 0.16177378777 0.17887605046 0.1485538332 0.1483399381 0.14889092114 0.14641011722 
0.13843947392 0.1268779046 0.12468759122 0.13825192536 0.19325943396 0.12997514768 0.12478652502 0.14639912235 0.14778625617 
0.14650241639 0.14620161556 0.149530409 0.15824414834 0.17791551025 0.20018721751 0.15712138239 0.17299213916 0.14708264068 
0.14786002775 0.14970486556 0.14838242069 0.14242930025 0.13087506449 0.12632348618 0.15288879582 0.1404342434 0.14985044778 
0.14620544183 0.21001756678 0.142210332 0.19816143504 0.15534644866 0.15632869207 0.15760357518 0.15896600259 0.16033061383 
0.16152453007 0.16259712839 0.16347168897 0.16409069003 0.16448107636 0.16459310925 0.16450576603 0.16407121717 0.16331177097 
0.16236267081 0.16132327143 0.16020851347 0.1590849078 0.15794060392 0.15684884946 0.15579700966 0.15486453412 0.15418631689 
0.15372509317 0.1315481432 0.14586443182 0.14216004912 0.15978579033 0.19144753591 0.15360280761 0.14937024382 0.14545214636 
0.14256209328 0.14026129379 0.13857030658 0.13717563288 0.13607142228 0.1353114664 0.1350229578 0.13510482263 0.13523300205 
0.13535192662 0.13562096555 0.136590263 0.13828341971 0.14091751864 0.14244948199 0.14315808396 0.14148795759 0.13965419941 
0.13864847787 0.13912657768 0.13973016085 0.14016765156 0.14062777458 0.14113524208 0.14185414595 0.14267195405 0.14359015669 
0.14466323087 0.14585141929 0.14688234935 0.1479392319 0.14925664346 0.15050121524 0.15158729056 0.15275752484 0.15397239277 
0.14404800099 0.15314338348 0.15223812626 0.15130747736 0.15031001146 0.14924019027 0.14841490571 0.14749155493 0.14659095104 
0.14584413932 0.14521687294 0.14468764327 0.14430064733 0.14402845144 0.14387593685 0.14379283235 0.1437966692 0.14436474047 
0.1455679122 0.14661992767 0.14728050771 0.14741833194 0.1468060023 0.14542346632 0.14360464287 0.14170310058 0.14007316445 
0.13911132656 0.13826301868 0.13758253363 0.13726373415 0.13729132683 0.13750850324 0.1380523486 0.13914204551 0.1408189777 
0.14296300112 0.14605613974 0.14998880907 0.15414699451 0.16003847175 0.1990987597 0.14267446571 0.15754614252 0.15541450681 
0.15429229304 0.15384076908 0.15420305493 0.15475645008 0.15551254006 0.15617581722 0.15708883484 0.1578229052 0.15854483756 
0.15868664783 0.15825619977 0.15777734837 0.15739125385 0.15687938713 0.15638679817 0.15576377267 0.1550000776 0.15510957332 
0.15612016697 0.15799589338 0.13642350957 0.14407996841 0.14709054587 0.14932753774 0.15250100581 0.15875917071 0.17111117537 
0.14317921856 0.13606858517 0.14219979504 0.14659410542 0.13756251282 0.13221820064 0.12956238809 0.17999455305 0.18968902418 
0.17789023588 0.14485314656 0.14180888006 0.14738553548 0.15272981192 0.16361098112 0.18697214686 0.1353617283 0.14236132167 
0.14577217195 0.13935723551 0.13487312819 0.14426753564 0.13693279771 0.14605123356 0.1930766153 0.15591007068 0.14659781722 
0.14038750046 0.13840140026 0.18097621041 0.13409610532 0.18273978939 0.13100984963 0.17294672309 0.14997491243 0.15218908062 
0.1354908982 0.1479726681 0.13213992054 0.16587132175 0.16028801972 0.15445684901 0.14396327015 0.15587112329 0.15728539773 
0.15883075437 0.16030078157 0.16165093207 0.16268758179 0.16348547544 0.16414573354 0.16446586828 0.16433106138 0.16399292161 
0.16334007639 0.16230701898 0.16108140415 0.15992894148 0.15871369513 0.15756038756 0.15639163908 0.15527268588 0.15434004863 
0.15344931557 0.1473958761 0.14436707183 0.15650810261 0.15399466489 0.15155493564 0.14917344242 0.14697965984 0.14490170639 
0.1430149408 0.14139273899 0.13982770846 0.13853828706 0.13771595133 0.13697329601 0.13616171055 0.13514650528 0.13551994973 
0.1357869567 0.13802800027 0.1390382128 0.14004694493 0.14098438987 0.14194859129 0.14307660857 0.14422134978 0.14545589887 
0.14669410147 0.14774970123 0.14868742109 0.14992920123 0.15123327072 0.15221355123 0.15304607696 0.15228306256 0.15145209541 
0.15043516103 0.14943198848 0.14857370605 0.14761704802 0.14668382616 0.14586398453 0.14510017735 0.14440061154 0.14378081958 
0.14314484686 0.14251361116 0.142015299 0.14175030587 0.14295245862 0.14464892978 0.1454759753 0.14671004968 0.14354784996 
0.14148124824 0.13992023561 0.13934570079 0.13926609431 0.13923725898 0.1394803508 0.13988818995 0.14062416242 0.14161002159 
0.14294160222 0.14463926114 0.14653759894 0.14877196212 0.15169537577 0.15528956034 0.18299389126 0.13856689416 0.13570355271 
0.15578917761 0.15518970814 0.15510918325 0.15555017294 0.15635662468 0.15737577956 0.15854609862 0.15981025928 0.16089305631 
0.16177921269 0.16223424495 0.16211175858 0.16161753643 0.16099035449 0.16014281422 0.15908601568 0.15797256407 0.15681313811 
0.1560242567 0.15579681721 0.16530987881 0.15034431291 0.14486786754 0.17429036964 0.15499336177 0.16281817642 0.14556129207 
0.14135833103 0.17150507644 0.14423224138 0.17848065076 0.14920275102 0.14334293898 0.14142805559 0.15564006039 0.13818730042 
0.14046233186 0.14245241487 0.18713243655 0.14194295708 0.1443677723 0.13423195725 0.13805676046 0.13635383199 0.13942594141 
0.14641669774 0.1345610542 0.17811828129 0.18451274519 0.18293621703 0.14671025549 0.1455127005 0.17316112483 0.151705934 
0.13554515656 0.158398484 0.13878040628 0.17407946727 0.13719568127 0.16727257693 0.14732688718 0.13308430832 0.14954456026 
0.14067541034 0.1361658516 0.15448593557 0.15545231528 0.15703850405 0.1588680063 0.16081263545 0.1627722421 0.16406926029 
0.16499110216 0.16509808294 0.16418580629 0.16329444857 0.16143687997 0.15960912409 0.15841057337 0.15688820252 0.15598548269 
0.15470296209 0.15369014571 0.15294160376 0.1619224024 0.15508023053 0.15384852532 0.15248734358 0.1506868294 0.14881615087 
0.14687998689 0.14498380468 0.14292926857 0.14097969172 0.13965321694 0.13838693291 0.1406344897 0.14186680281 0.1432865054 
0.14474572582 0.14623707155 0.14762371505 0.14892159252 0.14995983086 0.15115998019 0.15240600921 0.15334711439 0.15411999841 
0.17669712936 0.15199179116 0.15083366318 0.14983247733 0.14882324923 0.14773897949 0.14673266937 0.14576188354 0.14473107889 
0.14392936064 0.14300901835 0.14186399262 0.14066895911 0.13956421484 0.13980635834 0.1390337486 0.1388408949 0.13943048289 
0.14008956405 0.14082152903 0.14184361944 0.14273499096 0.14406013945 0.14584797726 0.14763178992 0.1492748236 0.1509495603 
0.15272789013 0.154452765 0.16355836511 0.15562916372 0.15680406505 0.15830768895 0.1600715513 0.16184134161 0.16351817376 
0.16499596344 0.16603964699 0.166263781 0.16575952037 0.16478953762 0.16357802628 0.16203781352 0.16004152795 0.15809856954 
0.15637986585 0.15709475457 0.14798158325 0.14520998976 0.1518362042 0.14992461478 0.13908066191 0.16830786768 0.14418859864 
0.14669629284 0.15698016482 0.14295722522 0.17132687287 0.1436818502 0.16399165939 0.17118730844 0.17903855108 0.14520634569 
0.17531596664 0.14162610958 0.17379214227 0.17890517397 0.1424686692 0.15287712715 0.16653067998 0.15471632939 0.14060822492 
0.16506886693 0.16800337198 0.14765935975 0.14477917325 0.14238867376 0.1421937682 0.14768640158 0.15173382748 0.13738185194 
0.16186371648 0.15676828653 0.15905861239 0.16092559433 0.16370517025 0.16517578617 0.16711880375 0.16575028555 0.16293038935 
0.15976410007 0.15676627063 0.15438342719 0.1527552316 0.14304506443 0.14395263083 0.15582206777 0.15442413881 0.15252333461 
0.15041143941 0.14475418829 0.14547111649 0.14740609765 0.14898297832 0.15062370758 0.15188481978 0.15310499553 0.15414243462 
0.15050434468 0.14900826763 0.14795080497 0.14713763882 0.14559209284 0.16030528862 0.15766859021 0.139063019 0.14048205134 
0.14148059881 0.14306196752 0.14457305804 0.14560591519 0.15012320441 0.1516995331 0.15300770993 0.15399462897 0.14565682394 
0.15573161577 0.1576986656 0.16024849197 0.16289621742 0.1649312825 0.16818509445 0.16916294307 0.17173180888 0.1700788278 
0.169441796 0.16715628463 0.16596256622 0.16219543643 0.15916078924 0.15642914099 0.17334491047 0.13826411093 0.15485183014 
0.14328337692 0.14834719004 0.16986012297 0.15156583075 0.17375517251 0.1585303272 0.14800871595 0.15818567245 0.14895557798 
0.15260909469 0.16266430493 0.15155462922 0.14276828406 0.15697478351 0.16822500107 0.15443926946 0.17138715096 0.16519264578 
0.15708887043 0.14546295712 0.1714237879 0.15464237912 0.15739534617 0.15688894727 0.1547221945 0.15293259517 0.15246592462 
0.15021824456 0.14845537323 0.15238952941 0.15975199275 0.16516490671 0.15534161927 0.14817942041 0.15923516713 0.15426932263 
0.16435805893 0.15829583497 0.1622687507 0.16656546079 0.16115778602 0.15843176581 0.1538794486 0.15470610094 0.155831074 
0.15733236846 0.158983485 0.16099405361 0.16282718462 0.16452591361 0.16569962412 0.16647303282 0.16681190014 0.1664877397 
0.16572539366 0.16459788614 0.16304526605 0.1613687073 0.15967098652 0.15796017199 0.15648861717 0.15529613573 0.15441262563 
0.15390958644 0.18620204117 0.1594735579 0.144084396 0.13582660205 0.13140774911 0.1289753685 0.12767458713 0.1270637241 
0.12723654623 0.12818794196 0.12999519477 0.13214707826 0.13479550419 0.13769535019 0.14091773554 0.1438392188 0.14627652359 
0.14704126613 0.14630314021 0.14473472713 0.14315832467 0.14180283925 0.14076394945 0.14022315972 0.14019154235 0.14063404768 
0.14157825097 0.14291210141 0.14443368451 0.14602334972 0.14776325703 0.14938281461 0.150863823 0.15213926395 0.15317948664 
0.15364900675 0.15316788393 0.15235477756 0.15117204465 0.14987336364 0.14840675936 0.14715436195 0.14591373387 0.14489705976 
0.14428041275 0.14404056818 0.14423693278 0.14488475709 0.14582499313 0.14706605155 0.14827311599 0.1495976882 0.15057202524 
0.15036380516 0.14912700583 0.14671844072 0.14345449631 0.14033547913 0.13727280396 0.13459282034 0.13233601228 0.1309330586 
0.13002876259 0.13003953828 0.13139611554 0.13378052955 0.13829253101 0.1461641338 0.15796460584 0.17922504692 0.18282102184 
0.18533383719 0.17579963108 0.17187876588 0.16603894861 0.16457478706 0.1657972144 0.16753358606 0.16731590183 0.16731681482 
0.16863037815 0.17057690449 0.1688176607 0.15244977264 0.15034948514 0.16760781249 0.1682550794 0.16709906075 0.15232729374 
0.16848045326 0.17551572041 0.18445916439 0.11191137164 0.12985380625 0.14944543746 0.15815195832 0.15668827692 0.15527156043 
0.15457774966 0.16352958885 0.16904371319 0.17653161464 0.21277808603 0.24116362928 0.19506068669 0.16563094146 0.15516985349 
0.15260747541 0.15317232114 0.15417508777 0.15528732247 0.14980542885 0.13090119623 0.11164532749 0.11251866842 0.13856496318 
0.15189506329 0.15519307313 0.15361614173 0.15225656708 0.15138165568 0.15635166499 0.1795118022 0.21486886909 0.22204316924 
0.18864041546 0.16709142608 0.1586999989 0.1561769621 0.15359337193 0.15769911781 0.15961540329 0.15399493479 0.12683278396 
0.11687968532 0.26189580799 0.14603446957 0.14181532329 0.23529953102 0.22040234252 0.15509917556 0.15406748598 0.15750208094 
0.15921909969 0.1610088367 0.16254478777 0.16383900343 0.16465772304 0.16517456355 0.16513525696 0.16461795017 0.16374566246 
0.16255277007 0.16113138714 0.15965079613 0.1580976793 0.15668797641 0.15552134058 0.154484217 0.12475856895 0.14784408956 
0.15578811455 0.1661751021 0.14212784096 0.1383316572 0.13590990745 0.13451243976 0.13328460167 0.13283135637 0.13289001604 
0.13363294716 0.13461223997 0.13584656934 0.13751190035 0.13998654995 0.14265256735 0.14412351587 0.14386777913 0.14226690865 
0.14076555727 0.14047105216 0.14052439188 0.14070177212 0.14106260659 0.14163998474 0.14258869148 0.14375036109 0.14508830471 
0.14644866284 0.14789428957 0.14939965383 0.15069777473 0.15197641742 0.15311301713 0.15208041326 0.15326976518 0.15382275113 
0.15093903542 0.14964668842 0.14836137394 0.14729367096 0.14627610411 0.14541073801 0.144782617 0.14440857121 0.14432742527 
0.1444920475 0.14473594788 0.14523982208 0.14635383664 0.14744026988 0.14817887179 0.14777120163 0.14620736477 0.1437655119 
0.1412406611 0.13925117598 0.13768507622 0.13653196267 0.13589495608 0.13564680199 0.1361805639 0.13739326264 0.14013514462 
0.14401685666 0.15013282083 0.1584041168 0.17035078179 0.13523480533 0.20661227217 0.15811287867 0.16250346283 0.15470976697 
0.15295598444 0.15245666976 0.15308236553 0.15378546737 0.1544905483 0.15562772168 0.15582935213 0.1558812304 0.15571274995 
0.15520822383 0.15479157366 0.15417815339 0.1537550715 0.15410827839 0.15443496262 0.15735031315 0.1617972751 0.13794845967 
0.13619556152 0.21315336998 0.13315404878 0.14503654665 0.15133657025 0.15243370881 0.15130580712 0.15131656123 0.1548580773 
0.16315105233 0.18206150272 0.16534375328 0.15421661431 0.14889608876 0.14911022424 0.14948574779 0.14726039735 0.14080222024 
0.12874175876 0.12244869607 0.19288907291 0.13344861056 0.14519911156 0.1485707513 0.14816282031 0.1456948487 0.14781011241 
0.1548604483 0.17101749731 0.13931096552 0.15953818149 0.15105581163 0.14763703628 0.14889277103 0.15045079737 0.14968083609 
0.14405601452 0.13277506199 0.12432236684 0.15607783444 0.18791754996 0.123283735 0.17513700525 0.14288967398 0.20863541607 
0.14646110385 0.20599927892 0.18599900648 0.13479277905 0.13918022941 0.15753670483 0.13312894007 0.16105543911 0.16428521966 
0.16363301043 0.16418195991 0.16340354719 0.16226971902 0.16088743464 0.15941759596 0.15794740946 0.15650840197 0.15534355714 
0.15428701841 0.13547790037 0.15464924229 0.15451277643 0.15034678535 0.1591828184 0.14343441028 0.14121717772 0.13941374596 
0.13791157476 0.13692822945 0.13618378508 0.1358198288 0.13550562992 0.13513275612 0.13602314165 0.14000915837 0.13772521825 
0.13803780192 0.13906530834 0.14015496851 0.14107970145 0.14206808754 0.14323564193 0.14447478624 0.14590361425 0.14719264183 
0.14842568975 0.14999480635 0.15128670638 0.15216006547 0.15463175012 0.15701137002 0.16253324348 0.15094484698 0.14945522072 
0.14612189901 0.15307632258 0.13052646955 0.14844104421 0.14742111756 0.14641290039 0.14556664706 0.14474815035 0.14412859195 
0.14363866134 0.1432228848 0.14285203083 0.14315308069 0.1447635696 0.14649729656 0.14724011535 0.14618054861 0.14403060022 
0.14156306971 0.1397024345 0.13918189444 0.13894293613 0.13907118308 0.13961187256 0.14052553842 0.14210661685 0.14432774211 
0.14704112364 0.15113946254 0.19259694666 0.14319468048 0.15587916098 0.13599650794 0.13187393377 0.15440018534 0.15482992512 
0.15578379565 0.15703789088 0.15814147744 0.15893400821 0.15930477301 0.15936944511 0.15903467251 0.15828231702 0.15737012044 
0.15642811271 0.15576654911 0.15563085515 0.15603960485 0.1968443193 0.17069990138 0.1448474679 0.15216942319 0.13645741051 
0.14280962194 0.14587219591 0.14715832527 0.14948931701 0.15236897205 0.15767761311 0.15802558158 0.16451236279 0.18446787866 
0.15120055355 0.14725802588 0.14440429204 0.14219839621 0.13849705476 0.13247774296 0.16601527513 0.14067930365 0.1424977584 
0.1436674187 0.14590063665 0.15026557903 0.15934423881 0.1556303157 0.1485683374 0.14620674288 0.14472339532 0.14406091684 
0.14123223407 0.1355771854 0.13159984481 0.18810346184 0.15439653003 0.19332672467 0.16802682389 0.1324071905 0.1425733912 
0.15344255689 0.19293091952 0.18994328609 0.13947607416 0.15741126674 0.14690235285 0.1827182266 0.17302877758 0.12831748496 
0.15894409161 0.1495282382 0.16439433052 0.16238375175 0.16362027028 0.15918731396 0.15768391051 0.1561626859 0.15478969945 
0.15374891996 0.16085749998 0.13582816083 0.16397195778 0.1436478448 0.14768171699 0.1417968837 0.14000542088 0.13824982627 
0.13688102154 0.13523785033 0.1324556637 0.13918957385 0.14080502647 0.14216814681 0.14357148803 0.14512971517 0.14681823299 
0.14825816587 0.14944181668 0.15099422307 0.15242608057 0.15360281244 0.15599147242 0.15518466084 0.1486026145 0.15094651236 
0.14755487287 0.14645544322 0.14543049606 0.14434173685 0.14336449747 0.14234785685 0.14127262293 0.13998357723 0.14032877593 
0.14370926543 0.14417251131 0.1416229612 0.13909925772 0.1392882385 0.14007644638 0.14116688715 0.14239843695 0.14376102491 
0.14551880132 0.14732916746 0.14936308951 0.15181166702 0.15455209042 0.13608750073 0.17252822743 0.13419938262 0.18272677245 
0.13619803126 0.15735580905 0.15905961692 0.16075805281 0.16206841272 0.16298006588 0.163336062 0.16300428265 0.16224609127 
0.1609526218 0.1592962355 0.15756826399 0.15607980753 0.1645083559 0.14554447126 0.15586409989 0.15339407023 0.13885128611 
0.1422606368 0.14483331094 0.14733318796 0.15008533645 0.15409046455 0.16169815051 0.14007155131 0.1709844256 0.18269873615 
0.14833735065 0.14498424594 0.14160225532 0.13788820685 0.13471038066 0.15261315251 0.17855921045 0.13875114396 0.14125578745 
0.14394756915 0.14718383775 0.18096575398 0.14709244856 0.1448616008 0.14282008761 0.14030152167 0.13773093509 0.18570179919 
0.1552604408 0.13604732363 0.13710375762 0.17302591643 0.16146334217 0.16034507038 0.15750131866 0.16293713444 0.14992807815 
0.16143843073 0.18254248345 0.13540247268 0.13975799271 0.15506890751 0.1517113098 0.15274352175 0.17798784402 0.17923347111 
0.15782902105 0.15083511467 0.1595385574 0.15424528479 0.15730867053 0.14177971801 0.16392316835 0.14515473772 0.16695508455 
0.14727666392 0.14254088235 0.14397484783 0.14588124362 0.14798727584 0.14966453672 0.15104766374 0.15254416627 0.15413040341 
0.15509895524 0.15970686565 0.14604536522 0.14995195841 0.15068497872 0.14657319537 0.14893659919 0.14517280977 0.14383611198 
0.14242316648 0.14088136838 0.13903180545 0.16509253984 0.17751639804 0.14012675934 0.14206768178 0.14402114655 0.14611094358 
0.14814279798 0.15006189063 0.15169775335 0.15320977741 0.17205118639 0.14945008858 0.1625769468 0.16493804166 0.16643113923 
0.16739115637 0.16730623864 0.16661783686 0.16507407814 0.16247433297 0.15972448261 0.15681045658 0.13862462695 0.16990625982 
0.16149583225 0.16535785633 0.15590802479 0.14771626036 0.14287765946 0.14544947484 0.1478229183 0.1510799199 0.13955257502 
0.16068892374 0.16861313842 0.17640158349 0.15727363092 0.15572594408 0.14380939813 0.14194520572 0.15558874047 0.17508816795 
0.15446824223 0.15598690126 0.16467085239 0.15915809259 0.17217702034 0.16394845148 0.15141889581 0.15335388095 0.14924151663 
0.16131077396 0.1631924113 0.16218052444 0.17417247513 0.17643981182 0.13798850378 0.15435388283 0.15441333454 0.14985210688 
0.14508439669 0.14260415208 0.14065150489 0.14548843399 0.15307117268 0.15239434742 0.14899586155 0.16018186848 0.17276779259 
0.14502516653 0.16481448936 0.15000884279 0.16761446187 0.15107354622 0.14651706957 0.15366428208 0.15500160154 0.15659683862 
0.15752392252 0.16718087724 0.151785583 0.14806656229 0.16777184616 0.16048077905 0.16230818957 0.15037698545 0.1526756326 
0.15420950166 0.15531700588 0.16459742264 0.17246761974 0.16201305664 0.17135164877 0.1712197539 0.17062206301 0.16619928574 
0.16243330235 0.15727037687 0.15079829919 0.15496942078 0.15023243509 0.15803107932 0.1680465363 0.1433192359 0.16724010702 
0.1566908858 0.16566997415 0.16739858339 0.15458678033 0.16645811425 0.15334649902 0.15479907329 0.15230705241 0.15967087869 
0.16242462062 0.16920408979 0.16357132729 0.14692104587 0.14500469312 0.1484725416 0.17217490417 0.16025086817 0.14945934253 
0.14805264889 0.15879955116 0.15782331499 0.15531352981 0.15377652079 0.16375987416 0.15285681794 0.15772218638 0.15631823681 
0.16014765337 0.16504675813 0.16879004273 0.15832795265 0.15306456996 0.15182413806 0.15582997705 0.16315661662 0.16117556254 
0.15963040691 0.43908956598 0.28987014341 0.3991940485 0.30013431975 0.33337422111 0.53456126552 0.34850899522 0.63576588649 
0.64055236308 0.16098625207 0.37806662405 0.38021890141 0.37149736976 0.36076446181 0.26719254711 0.31729021272 0.14317195794 
0.13108674796 0.1397417165 0.13420898198 0.1732277529 0.19527074476 0.22672551362 0.30266244891 0.23067361762 0.22756681867 
0.2272890713 0.23800101309 0.24183316796 0.22626493112 0.47308681082 0.46916492227 0.4550401236 0.43005771952 0.40426858831 
0.13166709524 0.11062441272 0.1200020372 0.15346022938 0.14491011191 0.19114665198 0.22528086205 0.30202233504 0.23735370892 
0.21811065899 0.24943156914 0.26083104387 0.31123969383 0.26418076561 0.23644204098 0.2459267326 0.25958221169 0.30307813711 
0.115746185 0.11740143753 0.13888684173 0.13275003968 0.17381981235 0.21159786033 0.24775549687 0.24475345984 0.39087176407 
0.4738318242 0.36683218192 0.35557126391 0.42784479279 0.41375425148 0.19498437806 0.22215459829 0.23723569373 0.18978416736 
0.27779554317 0.15230292308 0.12023520111 0.13037096129 0.14871525456 0.14597357497 0.17075219748 0.19143073351 0.32312380171 
0.39392201996 0.37527950116 0.37203401351 0.3607229859 0.25764826533 0.40652648183 0.23074664961 0.20429945559 0.22475976313 
0.2507116538 0.25776270311 0.26733201651 0.31297596844 0.26715288947 0.20576519549 0.18046117222 0.16075880936 0.1408560441 
0.12605479087 0.13768791757 0.39808572583 0.47295177261 0.37590274459 0.36714981645 0.2603130852 0.33228921155 0.22230413856 
0.23865740974 0.22745875257 0.23943603361 0.3119017856 0.31190900227 0.19707019798 0.1967106977 0.14960356693 0.13500699945 
0.12084619897 0.12407858414 0.12621855892 0.51205689518 0.38273727338 0.46714243748 0.45846324503 0.43237470405 0.40171535652 
0.39618546043 0.28196474773 0.46936389653 0.3654629088 0.35108421628 0.33873848439 0.32217294756 0.23912155713 0.1731193568 
0.18255001123 0.13838034578 0.14484582012 0.1092915278 0.13497489363 0.2484494004 0.22007903492 0.23527031226 0.23671666095 
0.28781319115 0.49547513935 0.38126123757 0.27875580648 0.46239753876 0.34722394677 0.33764998179 0.39205613267 0.19747205769 
0.19494807745 0.17677785068 0.15414273377 0.13548121582 0.11676243512 0.12446051749 0.20514083906 0.2237100913 0.24156988074 
0.25160059447 0.21269709062 0.29947194343 0.25898759709 0.2682893855 0.21585354193 0.13550555679 0.12183169337 0.11087644002 
0.10462942421 0.10035170399 0.099180142531 0.097138599387 0.093933123135 0.09115817128 0.090419871315 0.090957279295 0.091351133804 
0.091158350213 0.095942045631 0.09728039472 0.094830866285 0.097195724303 0.099052173887 0.10139883779 0.10731989073 0.11287213871 
0.12061454906 0.13101716826 0.21529898971 0.2033658514 0.13452535543 0.11644794132 0.10995513939 0.1079336886 0.10650483741 
0.10240108452 0.09460774876 0.093462631805 0.094532527672 0.095843063099 0.092220037276 0.089214349659 0.090855564789 0.091332176906 
0.091023561167 0.088788522584 0.084759536312 0.085258383538 0.093255377623 0.094553350123 0.093852826375 0.094928480357 0.097187329875 
0.1073812144 0.11238026872 0.11468059387 0.12084573104 0.14004229081 0.21420762003 0.15380288767 0.1538429689 0.1539977381 
0.15478173757 0.15595780302 0.15748066248 0.15917345351 0.16100086027 0.16296360097 0.16475998366 0.16635427559 0.16768962355 
0.16866116684 0.16925005799 0.16950185016 0.16928885514 0.16871126396 0.16772701802 0.16645532348 0.16499787859 0.16322604056 
0.16145149541 0.1598065345 0.15817777396 0.1567649976 0.15556082975 0.15460526713 0.15398181262 0.15385647986 0.15386176373 
0.27776349607 0.16767328857 0.14585550275 0.13497837232 0.1284058735 0.12380857857 0.12102834839 0.11944717431 0.11862566214 
0.11849072997 0.11881545608 0.11983203515 0.12142818879 0.12369245917 0.12651577145 0.12949967943 0.13310581028 0.13723127915 
0.14152828959 0.14577623114 0.14941060042 0.15203864819 0.15305775463 0.15242298102 0.15036815001 0.14768904277 0.14509350299 
0.14278141359 0.14086664256 0.13944519632 0.13857809496 0.13817652554 0.138335834 0.13894632149 0.13996564871 0.14146197704 
0.14317948628 0.14491206286 0.14679504291 0.14862829738 0.15023236413 0.15170992143 0.1528996656 0.15369813633 0.15401678334 
0.15394750179 0.15391064204 0.15399596842 0.15379384651 0.15320937489 0.15232410023 0.15111683848 0.14972342483 0.14824767691 
0.1468487801 0.14563356729 0.14451748321 0.14357444305 0.14299784713 0.14283404638 0.14302968516 0.14370536965 0.14482211212 
0.14625499755 0.1479855781 0.14997940219 0.15199676214 0.15370599007 0.15488924537 0.15509850064 0.15421731113 0.15218027929 
0.14939327052 0.14594722685 0.14217057312 0.13835583239 0.1347800383 0.13163954709 0.12886693811 0.12648975448 0.12451443627 
0.12301487667 0.12217563358 0.12189734208 0.12221346609 0.12336999172 0.1256264663 0.12970033202 0.13606130408 0.14685165365 
0.17213161967 0.26603689239 0.1325537349 0.16440565674 0.22342344507 0.22047643952 0.22411835263 0.21589287742 0.20761334901 
0.17768271493 0.17771932976 0.19509734205 0.33181178681 0.28446679301 0.19695022374 0.20614479077 0.20417627963 0.20856258865 
0.21519037068 0.22233152876 0.19460287662 0.21376348488 0.14863242028 0.12730629353 0.12536648848 0.1555340018 0.22645956265 
0.22490716698 0.21682983584 0.20835978886 0.20674213355 0.19366747865 0.17961531366 0.18540752895 0.33847686028 0.29401429329 
0.18462114363 0.17491073357 0.18529282588 0.17450303549 0.20867867196 0.18819445194 0.19864342186 0.19624027549 0.16201177522 
0.14732871535 0.15384062922 0.15385752274 0.15427851524 0.15551845074 0.15724784653 0.15939376405 0.16179999759 0.16433104056 
0.16646708741 0.16797867159 0.16905600805 0.1694470513 0.16909270626 0.16810476517 0.16664627904 0.1647263834 0.16250633567 
0.16030448809 0.1582209635 0.1563741012 0.15497588151 0.15406046386 0.15385604443 0.15382177473 0.26424689918 0.17306982714 
0.1412642387 0.13033178539 0.12402176067 0.12062708547 0.11900949539 0.11854274483 0.11898678833 0.12034360635 0.12275824654 
0.12594471432 0.1299291885 0.13414495128 0.13865581878 0.14373879912 0.14867426947 0.15199758921 0.15304007019 0.15157263311 
0.14876791558 0.1456323479 0.14254099012 0.14018463101 0.1388098212 0.13826736308 0.13845263727 0.13941343424 0.14099799484 
0.14300984306 0.14501569813 0.14713503162 0.14931264645 0.15112286333 0.15260400257 0.1536190225 0.15398033462 0.15395720178 
0.15394152508 0.15398624988 0.15359013576 0.15268636292 0.15132103171 0.14965188839 0.14789743709 0.14622598917 0.14475427567 
0.14359231976 0.14297049419 0.14292167676 0.14358717491 0.14488811596 0.14673242715 0.14890394941 0.1512588744 0.15349619402 
0.15494613528 0.15497908167 0.15313962149 0.14960092861 0.14514077329 0.14038562987 0.13563838629 0.13138406236 0.12788985021 
0.12515612844 0.123265906 0.12221146928 0.12212283774 0.12328184545 0.12611889589 0.13176007107 0.14291808957 0.16901617825 
0.25793372148 0.12330265994 0.18213219417 0.23067623453 0.23105752114 0.22701031141 0.22039546242 0.21307371362 0.20479151704 
0.19271534614 0.1852715149 0.31001053883 0.35576056932 0.18737338406 0.19596002318 0.20930214548 0.21268074269 0.21936956135 
0.22660624506 0.22684626545 0.24086663913 0.15356810938 0.11543956668 0.12599303536 0.15968749166 0.22726236419 0.22732317249 
0.21789989297 0.20991715405 0.20640652659 0.20144364965 0.1949426297 0.36099877998 0.36649679525 0.18738936084 0.18558937252 
0.19096805505 0.20265428896 0.21089810992 0.2166586766 0.23874532126 0.20962203415 0.15444292887 0.15237082741 0.15386281257 
0.1538617951 0.47077583335 0.34854210841 0.41223220741 0.57102508623 0.39604725794 0.31634392389 0.55948975534 0.45776303039 
0.31890590219 0.53054735922 0.32665242496 0.49101593122 0.11213779673 0.32937646432 0.40510478626 0.11942083295 0.081073389512 
0.088908310922 0.1044562533 0.086860984632 0.087503181807 0.094310108343 0.10315643404 0.090676254185 0.096082659523 0.083089352491 
0.10050066413 0.096204817177 0.11476975369 0.11139856105 0.12174872051 0.11704602205 0.1167824816 0.12389125726 0.091009085341 
0.093845388435 0.10668542227 0.10993074934 0.093500099864 0.12244482932 0.1294064685 0.091193408037 0.10133099304 0.1025041617 
0.099387472536 0.1031194548 0.12377936519 0.1108284223 0.10034477064 0.11733717584 0.11019250818 0.098646458889 0.10914965947 
0.10810954123 0.091241570323 0.107550035 0.10926276881 0.10417437927 0.10107371198 0.12774061882 0.099798284724 0.10143852916 
0.11122046523 0.087544567913 0.089655197023 0.089305306739 0.088949534565 0.088752513884 0.097601648865 0.088685628571 0.096798061767 
0.096728807753 0.10859007607 0.1089070494 0.11524612891 0.12044768117 0.11629586431 0.11958397012 0.096855357641 0.09787737179 
0.1080634291 0.10316869058 0.090049514262 0.090589244433 0.10225806569 0.10261149917 0.10697959961 0.10078616559 0.13545308216 
0.11194555823 0.12271935094 0.12529583382 0.11455844338 0.10818974165 0.10786302155 0.090605727774 0.10012956022 0.10335062334 
0.10704591184 0.085143131095 0.097278127865 0.095262646743 0.10977002421 0.10454977421 0.11801942382 0.12166661396 0.086581620607 
0.097865666451 0.10081624213 0.10218261744 0.10332052884 0.10260619505 0.11718549463 0.12248113206 0.091197481369 0.09622785793 
0.094716063035 0.087668477829 0.10467425047 0.091630206365 0.089294886458 0.089995867638 0.090514651539 0.14307935697 0.11117353274 
0.10732488259 0.12605752714 0.11471123817 0.12603381107 0.11002044792 0.11148285029 0.086865342912 0.096127259249 0.10001574437 
0.087295880056 0.10740111477 0.096602400906 0.11210560719 0.10032265678 0.14398471231 0.10034317194 0.10498657627 0.10997677479 
0.10300814122 0.10586435877 0.091647580453 0.10019353554 0.099087958857 0.10326634113 0.10998481051 0.11557581767 0.12159452462 
0.082576494319 0.094059913078 0.092079340227 0.095902177136 0.10189302371 0.09864138748 0.098766579612 0.11012375872 0.10656251174 
0.11228863101 0.1188482393 0.12219972833 0.11324676112 0.12629183696 0.10886094604 0.088240307397 0.088234246399 0.087089557677 
0.086642896158 0.096036253513 0.090185946077 0.093041076117 0.10220273515 0.11279317267 0.11329830953 0.11500857184 0.11097247288 
0.10796842426 0.10950196194 0.093182559301 0.086285967277 0.085584760279 0.097088045305 0.093834735985 0.10311094499 0.1066697438 
0.10415707418 0.099447684851 0.11550873214 0.10047140078 0.096333741797 0.097385965209 0.092971730601 0.094448628227 0.095675993099 
0.097736191693 0.097075564718 0.10424114572 0.12524638463 0.11736969133 0.12274631804 0.11281104316 0.11583468916 0.11813619902 
0.10520307278 0.10851400858 0.11883342278 0.099080881949 0.10168370184 0.11339280827 0.081589919204 0.089659913711 0.088162455595 
0.088529868158 0.091068001389 0.10785921779 0.13267435277 0.12278620393 0.10992365691 0.12518513714 0.11076068806 0.10716483572 
0.11973926109 0.097217422 0.091186977333 0.088631461543 0.098944824466 0.10102174984 0.088820500403 0.094539170817 0.091183885214 
0.095689963519 0.093250030181 0.096507323072 0.1080513086 0.10053433919 0.10080974351 0.11097033598 0.13560826859 0.10553796311 
0.10988648787 0.10094856242 0.098473220624 0.095219442211 0.096747943045 0.10085623725 0.1210107743 0.12415474634 0.11710135317 
0.10697924091 0.10387491136 0.10044217037 0.098101719288 0.10201868624 0.088422962062 0.088457155058 0.090586374572 0.089542547326 
0.090763280333 0.10987297372 0.11213993417 0.13417096668 0.10470833517 0.1091346199 0.10859604433 0.12269075584 0.098020096512 
0.093094910516 0.11067111227 0.11035875263 0.098882927131 0.10200390484 0.1124248615 0.095760882219 0.087527112574 0.086880009866 
0.099702265354 0.0891919821 0.10881787576 0.094558235436 0.11891890178 0.12428295405 0.09930064228 0.10321806968 0.10011898504 
0.086231297504 0.090183321866 0.095438115855 0.088262279589 0.087949874506 0.097016176072 0.094411938841 0.092225535684 0.097138502087 
0.0874738642 0.12407342728 0.14469319384 0.12305916854 0.1159483786 0.11989863991 0.11709136884 0.12170465452 0.11600657566 
0.11364387153 0.11606105738 0.10090085071 0.099179512019 0.098312865329 0.10004915071 0.11291097367 0.091369778038 0.089956022226 
0.089369428991 0.10588656301 0.10490453101 0.10478088218 0.10093909753 0.10690737925 0.11840212119 0.10418252506 0.11151611474 
0.11024638536 0.11155451869 0.10272850602 0.10588282637 0.089423461355 0.089093501947 0.088431885794 0.088551406035 0.088667605931 
0.095213386906 0.090612552923 0.091677223934 0.096805008946 0.08879224448 0.12607580758 0.12730812292 0.12849425134 0.11689241971 
0.11854499807 0.12508583349 0.13118118542 0.11362787687 0.11456372233 0.12016482659 0.1040078441 0.10777934129 0.11993653541 
0.10005021914 0.10176404849 0.093278346796 0.095277098764 0.09955199331 0.099489352409 0.10948196338 0.10633349199 0.093583583371 
0.095614433956 0.10690533272 0.12062498048 0.090523954305 0.10575528716 0.093269762599 0.10623045014 0.094679166243 0.10134235497 
0.1108220388 0.10210847695 0.1102272963 0.10050487743 0.10596570347 0.10953801644 0.099899526884 0.10338676065 0.10830850726 
0.19440573705 0.19041190316 0.1337804158 0.13488169432 0.10507555922 0.095023581838 0.091970050219 0.088868542513 0.086614215926 
0.083574039429 0.082047208073 0.079154379637 0.081035250988 0.075257187631 0.070044293218 0.071957172188 0.069092670972 0.06971736334 
0.069262750066 0.066349076168 0.072871464363 0.070796404356 0.062633451495 0.067950222782 0.064614687663 0.066042659106 0.066678233957 
0.063939044196 0.07079968333 0.054334041542 0.053196566198 0.055380738065 0.061671253518 0.073663269238 0.069641194125 0.070566555361 
0.071629791228 0.071283303857 0.074861381864 0.071285273454 0.078870410985 0.088001466127 0.089979564348 0.094079082968 0.097011158955 
0.099713877029 0.11500403483 0.085559628844 0.084426274677 0.097932295893 0.072920441017 0.059405628113 0.056206287339 0.069370773777 
0.15385321632 0.15383869465 0.15384693505 0.15409252819 0.15439337312 0.15410717481 0.15479048662 0.15525412348 0.15472996253 
0.15576697193 0.15644258608 0.15563954199 0.15709714286 0.15789618506 0.15679261434 0.15859719728 0.15944339045 0.15815731626 
0.16023195921 0.16118006065 0.15963753574 0.16196365084 0.16291486882 0.16119190616 0.16362990869 0.1644368742 0.16266566847 
0.16507457622 0.16581831093 0.16401129653 0.16637149974 0.16692393715 0.16520974356 0.16730889369 0.16769291593 0.16612997189 
0.16794298324 0.16815964055 0.1667573246 0.168213062 0.16825320134 0.16708146329 0.16818258645 0.16795988131 0.16708006071 
0.16771882601 0.16735219411 0.16676667107 0.16696026788 0.16636738292 0.16613505696 0.16586662341 0.1652415532 0.16524822776 
0.16462513054 0.16382248294 0.16413228396 0.16310970745 0.16217231748 0.16280674471 0.16148781102 0.16070686904 0.16142504365 
0.15999178789 0.15915771938 0.16004399029 0.15848736224 0.15775112981 0.1586779997 0.15715941665 0.15652621215 0.15742113018 
0.15600160564 0.15546966424 0.1563300436 0.15503416261 0.15463349788 0.15538336355 0.15432054782 0.15409313931 0.15463088665 
0.15390712281 0.1538412854 0.15413548168 0.15383432977 0.15384475364 0.15387615556 0.15389989404 0.2160770514 0.18776928831 
0.16653333319 0.15935842332 0.15097392189 0.17182081501 0.14467901268 0.14060375418 0.15436016541 0.13636369249 0.13335807498 
0.14444113728 0.13063740867 0.1286397633 0.1377123043 0.1267472279 0.12578495653 0.13280463156 0.12442888431 0.12381771195 
0.12966343404 0.122900556 0.12262981622 0.12744319401 0.12229940822 0.12229600402 0.12622844028 0.12235199056 0.12255960725 
0.1258900111 0.12259552882 0.12325983626 0.12580972985 0.1236104636 0.12455942179 0.12611790519 0.12518261448 0.12650397486 
0.1271499663 0.12747053236 0.12885262271 0.12874661482 0.13003371387 0.13149086818 0.13080481118 0.13271297769 0.13463557825 
0.132995946 0.13599734396 0.13811274488 0.13549159992 0.13958028354 0.14162161501 0.13832219607 0.14311091682 0.14505359623 
0.14127911313 0.14634724555 0.14787208228 0.14402582271 0.14863882048 0.14962288707 0.14606729813 0.15005370781 0.15007469107 
0.14732712039 0.14996735461 0.14934799773 0.14763129274 0.14877855365 0.14763051302 0.14695362518 0.14684392199 0.14555342302 
0.14556677133 0.14481499176 0.14364467389 0.14404137489 0.14295702145 0.14195333763 0.14268907974 0.14142809322 0.14060653507 
0.14151518143 0.14024639094 0.13965979818 0.1406306447 0.13945785877 0.13914746742 0.14005501885 0.13908958352 0.13909756283 
0.13985456897 0.13919316145 0.13941317923 0.13999779447 0.13976063548 0.14016346412 0.14046427893 0.1406306435 0.14124352649 
0.14128903749 0.14190083162 0.14275031788 0.14243393657 0.14342739956 0.1442612153 0.14380363043 0.14498780967 0.14584054558 
0.14518497741 0.14658912452 0.14754429407 0.14664079179 0.14832402564 0.14915787208 0.14816169319 0.14986327342 0.15058042491 
0.1496322396 0.15118089053 0.15186854799 0.1509125541 0.15239704407 0.15288648513 0.15201941672 0.15325974936 0.15353249605 
0.1528950676 0.15377033269 0.1538474081 0.15348271934 0.15382814582 0.15380461809 0.1538212791 0.15362037501 0.15339508276 
0.1535369266 0.15309025009 0.1527110737 0.15303944293 0.15229664129 0.15179320848 0.15230860173 0.15130090103 0.15062096673 
0.15139077982 0.15003214646 0.14935352701 0.1503051865 0.14874327439 0.14798520652 0.14909799846 0.14744120465 0.14682785664 
0.14794006892 0.146292984 0.14571066712 0.14685856178 0.14521444802 0.14470148848 0.1458324439 0.14433213363 0.14390816012 
0.1449664544 0.14370559712 0.14349259316 0.1443250904 0.14337786509 0.14340525969 0.14394623057 0.14342687037 0.14364324437 
0.14383596394 0.14381347731 0.14430406659 0.14406671402 0.14467461711 0.14519886847 0.14460477524 0.14574211995 0.14650579287 
0.14542759346 0.1470495691 0.14798513148 0.14640443838 0.14863788574 0.14964198894 0.14760889555 0.15031181482 0.15118762745 
0.14894513846 0.15176667226 0.15248481817 0.15016927934 0.15270576071 0.15306632972 0.15096260858 0.15306755848 0.15282968145 
0.15121700309 0.1523720682 0.15159448187 0.15076575485 0.15083280123 0.1496292457 0.14950351626 0.14858702983 0.14712275013 
0.14768984767 0.14578595518 0.14390991693 0.14529855929 0.14252136011 0.14073218372 0.14258420861 0.13938176073 0.13748288562 
0.13985810482 0.13617855569 0.13454920059 0.13722427977 0.13337106559 0.13193371922 0.13476639748 0.13093318942 0.12967523002 
0.13265630578 0.12892281778 0.12788282639 0.13093355481 0.12729848808 0.126390058 0.12963869047 0.12599103524 0.12551254418 
0.1287058547 0.12549934992 0.12520222946 0.12833395146 0.12539827056 0.12547444708 0.12857409925 0.12607990913 0.1264603037 
0.12938611385 0.12744931518 0.12830771701 0.13108988992 0.13008791424 0.13153232006 0.1337857543 0.13440099517 0.13721010512 
0.13834831318 0.1415889915 0.14605984888 0.14540522231 0.15291038612 0.16128679184 0.15660012353 0.17597180172 0.23815517158 
0.17565905088 0.20772791509 0.16614218849 0.16354653869 0.16000197639 0.15156793033 0.20415402346 0.14722651069 0.14313536844 
0.17063730739 0.14273458952 0.13937831979 0.16289698241 0.13994000303 0.13690586706 0.15908862154 0.13587425604 0.1344292178 
0.1561229345 0.13963518872 0.1343073774 0.1751030028 0.13505188189 0.13346765874 0.15714753184 0.13516764318 0.13445913725 
0.15768235487 0.13499233339 0.13418165652 0.15628701013 0.13435642304 0.13525318821 0.15588469905 0.13722795383 0.13441303828 
0.17639169049 0.13476189551 0.1342918081 0.1581753871 0.13496686342 0.1347951343 0.15761706719 0.13472999133 0.13507753846 
0.15804699336 0.13449305708 0.13480882366 0.15809825764 0.14016268559 0.1409104264 0.18081811912 0.13876632915 0.13815675728 
0.18283714649 0.13390115171 0.13495015556 0.18125018937 0.13477984773 0.13572582249 0.15640381988 0.13373606382 0.1358837861 
0.1574302915 0.13517969891 0.1382511942 0.15680451581 0.14153432947 0.14185908471 0.17845519738 0.13589154737 0.13810611016 
0.17874882716 0.13928154148 0.14299629011 0.15876278274 0.14336561286 0.14838160775 0.1633368328 0.1532136414 0.15877225172 
0.17050172163 0.16423662796 0.17587773796 0.21209358242 0.11439267107 0.11272586394 0.13985818069 0.12714068375 0.1180068883 
0.15923655219 0.15425658693 0.13990813639 0.15665966898 0.16177866858 0.15490943023 0.1566697315 0.15957593732 0.158422316 
0.15573779468 0.15866697123 0.15789521001 0.15726306342 0.1579708999 0.15686609526 0.15624566435 0.1572431751 0.15496065168 
0.15239088703 0.15716884117 0.15393988773 0.1801326361 0.16498779411 0.16665612329 0.24155890982 0.20234080694 0.21028642808 
0.20112624753 0.23634811741 0.16440116387 0.18337972006 0.18906897242 0.15692569805 0.15919636113 0.1660460981 0.156205328 
0.15360027777 0.15750966871 0.15579427837 0.15307671775 0.1543671325 0.15585036894 0.15308771129 0.15456658473 0.15621176533 
0.15339274717 0.15488228952 0.15652105902 0.15217895275 0.15436653135 0.14623468968 0.15308915118 0.14846837579 0.11912282223 
0.13450807067 0.13161287834 0.11402691012 0.11581086442 0.11422663687 0.1204504117 0.11494353073 0.13837015184 0.12729122676 
0.11862724567 0.1548097393 0.15147659258 0.1376743473 0.1541231779 0.15966465758 0.15167253629 0.15172046142 0.15654174483 
0.15502465625 0.15010253421 0.1542268523 0.15414484157 0.15024320404 0.15239648734 0.15184731437 0.15128498713 0.15215953369 
0.15028613662 0.15486779433 0.1530866891 0.15276335282 0.17451123581 0.16220334458 0.16076206038 0.23667299398 0.19458408154 
0.18112619806 0.197253839 0.22883159273 0.16009836056 0.17744207733 0.17969971262 0.15371948682 0.15355750035 0.16005869986 
0.15336570293 0.15319303165 0.1510769391 0.15514896223 0.15267902535 0.15153149851 0.15558674697 0.15531530536 0.15348846897 
0.15790066257 0.15288045561 0.15652016215 0.16107571556 0.15749797174 0.15669121502 0.15714471855 0.15857252561 0.15408094921 
0.12815095985 0.14667021599 0.1382789795 0.11240533186 0.12132969232 0.12381314157 0.24742601446 0.1311816046 0.14440493245 
0.13182140445 0.18697745079 0.2227392816 0.28230922013 0.26692234612 0.22405093746 0.22891850096 0.12995959815 0.13717272786 
0.13204781523 0.2238214171 0.27837923973 0.22244395571 0.22039091099 0.15388893429 0.12659524154 0.14278295236 0.15439440758 
0.15479894105 0.15527722754 0.15579636948 0.15488119782 0.15631107344 0.1569764841 0.15589577248 0.15758793757 0.15828618923 
0.15705977363 0.1589323943 0.15971813662 0.1583646095 0.16041322059 0.16118626169 0.15973271634 0.16180242045 0.16251309498 
0.16105903655 0.16309757194 0.16372240345 0.16227741245 0.16422764145 0.16478397565 0.16340614548 0.16516454668 0.16553901098 
0.16430625991 0.16580287946 0.1660511458 0.16496636076 0.16620281157 0.16625561523 0.1653671472 0.16626551011 0.16620359256 
0.16552160007 0.16605184395 0.16580423911 0.1653623029 0.16553089958 0.16514386817 0.16494277086 0.16475844153 0.16425296849 
0.16425911649 0.16376173689 0.16315788205 0.16337093247 0.16258709355 0.16187590555 0.16227312204 0.16130159608 0.16062408833 
0.16110901647 0.16003453848 0.15933171707 0.15992747815 0.15874155934 0.15808059271 0.1587324987 0.157523934 0.15693858188 
0.15755013287 0.15646769528 0.15595135406 0.15650498317 0.15551621265 0.15507951223 0.15558089177 0.15474239862 0.15443941954 
0.15481733823 0.15419466333 0.15398500166 0.15422764906 0.15384227431 0.15229216094 0.14496369999 0.19632881953 0.15378118745 
0.16323229631 0.15624505464 0.15164619194 0.14710298123 0.15684220277 0.14381050935 0.14104610311 0.14940116209 0.13833204048 
0.13618863117 0.14357255223 0.13455024289 0.13322382669 0.1392182459 0.13188735492 0.13092224222 0.13611172235 0.12996569583 
0.12968176313 0.13403175757 0.12911607567 0.1290832805 0.13258554871 0.12880173095 0.12870124589 0.1317598952 0.12864059727 
0.12888883858 0.13127616247 0.12906619957 0.12968261119 0.1312336831 0.13004421098 0.13099980843 0.13177540544 0.1315021384 
0.13256034766 0.13264057486 0.13314621388 0.1342186476 0.13371095319 0.13491927911 0.13619140013 0.13487266391 0.13701636716 
0.13847732344 0.13631667655 0.13955439728 0.14103962251 0.13830614413 0.14216592248 0.14341684116 0.14053460655 0.14425126508 
0.14505596203 0.14261115711 0.14555359285 0.14599216065 0.14401966927 0.14607577669 0.14588643428 0.1445439469 0.14549274307 
0.14486074855 0.14412040302 0.1442728323 0.14344081041 0.14292994946 0.1430512477 0.14239754213 0.14180130896 0.14224397078 
0.14166324269 0.14128227413 0.14147962104 0.14097125017 0.14102935082 0.14086361629 0.14051821918 0.14076285237 0.1404722037 
0.14033853612 0.14061074039 0.14038691935 0.14039762648 0.14071996573 0.14062359454 0.14075070378 0.14103889851 0.14110894648 
0.14141843871 0.14160245585 0.14185246693 0.14233379577 0.1423595145 0.14290510409 0.14356129281 0.14334734261 0.14413838929 
0.14481580651 0.14453746116 0.14537626243 0.14607556588 0.14568992772 0.14671070738 0.14745414455 0.14687596974 0.14813891314 
0.14891427594 0.14824664587 0.14955133976 0.15025101531 0.14959241774 0.15081013168 0.15140614898 0.15081128871 0.15192902514 
0.15244656632 0.15191382308 0.15287913657 0.15323029529 0.1528597044 0.15351119551 0.15374572555 0.15389975701 0.15356915413 
0.18926412273 0.17962914332 0.17128849596 0.17855538966 0.16831796807 0.16755113986 0.15362308767 0.15343341952 0.15317714138 
0.1528689915 0.15329555943 0.15249446156 0.15207075028 0.15268079202 0.15166175038 0.15115140897 0.15189486705 0.15065050745 
0.15005957103 0.15096465697 0.14953506344 0.14892195587 0.14991436456 0.14841249161 0.14787715622 0.14883877593 0.14739781749 
0.14686493084 0.14786646744 0.14640562356 0.14592872689 0.14691373528 0.14551940618 0.14516121928 0.1460493174 0.14481513156 
0.14458988694 0.14532978869 0.14438122146 0.14422986313 0.14478848532 0.14414879979 0.14413680629 0.14444229614 0.14415476049 
0.14433878926 0.14430069161 0.14441337259 0.14478064952 0.14439209255 0.14492409397 0.14537730885 0.14463761628 0.14564205078 
0.14612756041 0.14504583314 0.14647445146 0.14708601288 0.14556778564 0.14756588692 0.14824673539 0.14640508864 0.14873211978 
0.14928197112 0.14743325824 0.14960141641 0.14985597656 0.14827917898 0.14992618014 0.14995978296 0.14875587041 0.14970477805 
0.14928263303 0.14867401836 0.14875339413 0.1479653676 0.14792666736 0.14717916676 0.14610899116 0.14662692789 0.14514037467 
0.14377636272 0.14481021368 0.14272890756 0.14139309144 0.14270965764 0.14042979546 0.13911140786 0.14062031806 0.13819243335 
0.13694994206 0.13881621352 0.13614042357 0.13503918069 0.13711546751 0.13434632887 0.13338328536 0.13566534517 0.13297395668 
0.13221522298 0.13458591213 0.13192169187 0.13139437186 0.13383499479 0.13130568735 0.13099884282 0.13346896565 0.13108579772 
0.13117551355 0.13358702614 0.1315585414 0.1317488739 0.13410072805 0.13256909134 0.13314319341 0.13523595623 0.13423673202 
0.13537112704 0.13701787143 0.13694639139 0.13890130276 0.13979803883 0.14146651551 0.14430901126 0.14405364976 0.14824476899 
0.15245155459 0.15014792255 0.15734253959 0.16467400472 0.16942085231 0.15873757101 0.17118846941 0.14516591785 0.13016135322 
0.16421065102 0.16275692455 0.15788343605 0.15819055766 0.16246706398 0.15397492187 0.15463826897 0.15812625479 0.15195935254 
0.1523888348 0.15486855337 0.15029728554 0.14867076182 0.15336773542 0.14908459576 0.1515449599 0.1516478831 0.15060442613 
0.15164160018 0.15219538385 0.15074726435 0.15153827429 0.1525659349 0.15101348697 0.15101650253 0.1531678969 0.15032886622 
0.14929763873 0.15355230258 0.15098250003 0.15190673987 0.15342541227 0.15236054157 0.15313490149 0.15401579648 0.15312621091 
0.15312926701 0.15520318796 0.15381590366 0.15353334347 0.1557695124 0.15322691414 0.15193431406 0.15532038062 0.15147063846 
0.15443558229 0.15501659173 0.15284190701 0.15251887499 0.1546103268 0.15377737591 0.15200550182 0.15464888572 0.15293143 
0.15117645318 0.15424821386 0.15268726212 0.15041919107 0.15373909789 0.15110562027 0.15031301187 0.15300189869 0.1512153612 
0.15390647637 0.15403387543 0.15593491643 0.15484797626 0.15572690914 0.15857654004 0.15896264741 0.15849535043 0.16395108136 
0.16687880202 0.16366910704 0.14155203516 0.12790645122 0.13857701463 0.20451336693 0.22166054802 0.12407400151 0.11941407091 
0.12708150217 0.15440011597 0.15361609107 0.1482968268 0.15436470367 0.15392219163 0.15171632624 0.15289105851 0.15269109834 
0.15166288302 0.15099838158 0.15084487992 0.14975744945 0.15533119851 0.15251324693 0.15258652705 0.16983990455 0.16134147363 
0.15993898211 0.19657863567 0.18230891116 0.17488732053 0.12725079772 0.13910055777 0.15868152485 0.16675066468 0.17665642313 
0.19032517466 0.18989521359 0.17024777443 0.14849209883 0.15022171589 0.15039224195 0.15131602213 0.14738851387 0.15057688206 
0.15191004761 0.14872658044 0.14880553737 0.15044389552 0.14782462497 0.13930027634 0.14562546039 0.14280868008 0.12290140622 
0.13344884561 0.13289758524 0.12122490181 0.11923563017 0.12436470417 0.14232195356 0.12926152915 0.19996741628 0.21255400984 
0.13739577505 0.1269166356 0.12299335406 0.12116647259 0.12903246003 0.126619397 0.15130728805 0.14899271071 0.1513971159 
0.14941025135 0.14732907583 0.14989838451 0.14789685466 0.14733382932 0.14830789847 0.14595229766 0.14539020304 0.15326040051 
0.14813515389 0.14772968368 0.16444074051 0.15578907094 0.15335281601 0.191888302 0.17308285244 0.16733284818 0.21782938833 
0.20487912529 0.15440857846 0.16061981411 0.16999051129 0.18706584653 0.18207121957 0.16478849137 0.14873381039 0.14713412457 
0.1504803226 0.15029489752 0.14649870649 0.15277043297 0.15221561279 0.1488500708 0.15200821485 0.1524458878 0.14924228499 
0.14496745908 0.14985658565 0.14583588109 0.12851856201 0.13944021155 0.13706930421 0.1220662039 0.12658902272 0.12775852925 
0.13168384809 0.15410591087 0.15145935548 0.15575671756 0.15710691467 0.15072782308 0.14820910213 0.14126629033 0.13546650824 
0.14383849802 0.14834316165 0.15055544134 0.15326845945 0.14838351102 0.18290516314 0.1425917087 0.14477061862 0.15383026257 
0.17091545508 0.20590307178 0.22359734555 0.14404662226 0.15409279274 0.17019653064 0.17074701689 0.2171921203 0.12919573469 
0.13945390081 0.14127302828 0.14093157753 0.20511231793 0.13055850858 0.19594724785 0.21029840445 0.18830749705 0.2004202274 
0.15375924694 0.16472710063 0.15536484881 0.15592188526 0.15638338821 0.15702966658 0.15583228671 0.15764285738 0.15831870828 
0.15696134964 0.15897439585 0.15969544055 0.15829734208 0.16036830827 0.16101130255 0.15965631515 0.16158331589 0.16218804494 
0.16092610887 0.16270533807 0.16323141458 0.16206810712 0.1636411725 0.16405436759 0.16306709482 0.16434029564 0.16460704197 
0.16380202805 0.16480683535 0.16494250629 0.16430526624 0.16499858399 0.16502057743 0.1645680144 0.16496539419 0.16482134174 
0.16457774833 0.16460398076 0.16432155954 0.16431345368 0.16396318547 0.16353981574 0.16370877401 0.16309366849 0.16258189173 
0.1628614809 0.16207743617 0.16148604555 0.16185969966 0.16094320504 0.16035305038 0.16076523912 0.15980543199 0.15919887902 
0.15964394535 0.15864277218 0.15803174901 0.15852007875 0.15749901925 0.1569223205 0.15739261834 0.1564186903 0.15591904862 
0.15630856758 0.15545887151 0.1550090346 0.15532091905 0.15468063327 0.15434185695 0.15452108675 0.1541091108 0.15387049689 
0.15362229819 0.15394936785 0.13126386484 0.12854872441 0.14902030713 0.14830028425 0.13975325499 0.14441992882 0.16107841735 
0.15656353056 0.1968179667 0.20078422857 0.15334868592 0.15018812746 0.1566313388 0.14814048932 0.14518599177 0.15139021541 
0.14351870365 0.14156821455 0.14719715122 0.14027990476 0.13880264835 0.14388461382 0.13778288483 0.13678197636 0.14130687819 
0.13590051996 0.13544707338 0.13932294589 0.13468525295 0.13438246642 0.13781559177 0.13386934215 0.13364574094 0.13657726231 
0.13333883475 0.13338168507 0.13562863943 0.13328968921 0.13362506831 0.13512114497 0.13364743345 0.13416854502 0.13504111798 
0.1342192634 0.1347478393 0.13514858697 0.13486185051 0.13545501949 0.13528564575 0.1356339715 0.13638690787 0.13543102086 
0.13688969028 0.13802038814 0.13598244221 0.13882358228 0.14007514555 0.13739395553 0.14125692311 0.14219875569 0.13954287179 
0.14278381564 0.14341995679 0.14174461549 0.14386095092 0.14378282067 0.14281672761 0.14310038824 0.14243458077 0.14236238889 
0.14167762826 0.14088514725 0.1405603397 0.14046498057 0.14002243279 0.13914053653 0.14028677374 0.14017508047 0.13885130786 
0.14043037844 0.14031695008 0.13944617155 0.14051822264 0.14042463753 0.1399600882 0.14065975873 0.14065210978 0.14039187719 
0.14089449539 0.14101801018 0.14086310455 0.14134543665 0.1415990933 0.14148633942 0.14200300005 0.14232072086 0.14225178084 
0.14279717255 0.14319906559 0.14311491202 0.14374728398 0.144311181 0.14411448424 0.14492161516 0.14548827867 0.14524366873 
0.14600135007 0.146568808 0.14636830123 0.1470977643 0.14774418666 0.14741361298 0.14838504136 0.14909229633 0.14859805697 
0.14969613024 0.15035675256 0.14989047166 0.15088273125 0.1514654056 0.15105656139 0.15203764656 0.15258702729 0.15219377801 
0.15317421864 0.15360366781 0.15337304714 0.15384697927 0.15336840858 0.14567392768 0.14235656149 0.15308073312 0.1527139675 
0.15343369485 0.15226306303 0.15183436159 0.15138074503 0.1508554293 0.1517849886 0.15037417155 0.14982634226 0.15081601813 
0.1493065492 0.1487957103 0.14977917605 0.14838080475 0.14790007896 0.14883184993 0.14744129262 0.14698170756 0.14795476529 
0.1465395809 0.14614438994 0.14703453745 0.14575936078 0.14546065304 0.14620402946 0.14512650794 0.14491985127 0.14551570547 
0.14466449438 0.14452358048 0.14494092282 0.14435787912 0.14432151302 0.14447711046 0.14420577459 0.14427419705 0.14414728752 
0.14419200373 0.14435815683 0.14394186621 0.14431543811 0.14454254384 0.14382303058 0.14456807443 0.14485077502 0.14379201666 
0.14509790055 0.1456543884 0.14391308217 0.14619064341 0.14675861059 0.14498013388 0.14725213066 0.14764243345 0.14608207521 
0.14789148298 0.1480335875 0.14694625544 0.1480706883 0.14788737793 0.14739057391 0.1475939008 0.14705455455 0.14713923523 
0.14638708913 0.14555609076 0.14611426243 0.14469780958 0.14362665249 0.14453790972 0.14273559988 0.14164008332 0.14269275975 
0.14084550076 0.139868701 0.14089456842 0.13938853313 0.1385213656 0.13956400654 0.13809506222 0.1373410297 0.13868024473 
0.13697694204 0.13634347289 0.1378938912 0.13617988001 0.13573502352 0.13738833552 0.1357621988 0.13545045879 0.13725381547 
0.13558421791 0.13554610158 0.13734543043 0.13577383874 0.13601676218 0.13772597678 0.13646774725 0.13695178975 0.13851248022 
0.13774340907 0.13848154792 0.13993264641 0.13964850367 0.14064202421 0.14182703829 0.14225083444 0.14410880487 0.14435074727 
0.14580525958 0.14854762354 0.1478733007 0.15053633257 0.15406370664 0.15191992054 0.16287448971 0.16028498713 0.1641182044 
0.20667967628 0.20924842857 0.14686799227 0.14353887992 0.14444132864 0.15863483182 0.1566334679 0.15874200234 0.15555014653 
0.15448645555 0.15638819745 0.15395444571 0.153615632 0.15488329847 0.15330255378 0.15314083789 0.15399178991 0.1533150307 
0.15324886398 0.15406962425 0.15354495655 0.1537346403 0.15445166477 0.15411959133 0.15437335824 0.15517640599 0.15471058514 
0.15521019232 0.15585599121 0.15568312772 0.15583830483 0.15654779718 0.15622573032 0.15639761085 0.15747179756 0.15673976639 
0.15690488153 0.15820066196 0.15701029437 0.15725022256 0.15859701593 0.15703921333 0.15692940722 0.15850051058 0.15673889662 
0.15617814092 0.15798138586 0.15606703388 0.15605635333 0.15755034722 0.15593900112 0.155663815 0.15709312069 0.15538682633 
0.15510834482 0.1566746344 0.15475276247 0.15474503977 0.15603705932 0.15420356946 0.15430817 0.15544214355 0.1544844559 
0.15476012101 0.15503610728 0.15548644505 0.15630906024 0.15553655981 0.15721749517 0.15910116179 0.15708605246 0.16022469034 
0.16250040077 0.14031883397 0.13458742678 0.13368409339 0.13964747811 0.14617500874 0.14584086975 0.14841127341 0.14907989334 
0.14620426051 0.15006301256 0.1489925139 0.14825073178 0.15375936867 0.15167478934 0.15083278872 0.16195312623 0.15693408443 
0.1554383832 0.17760480434 0.16830763925 0.16453044113 0.14442322504 0.14516277657 0.13679088731 0.13102576788 0.14414909482 
0.1454954761 0.14291284311 0.14636955761 0.1476830443 0.1453170377 0.13789469228 0.14189867469 0.14007144261 0.12977278592 
0.13472816227 0.13480451037 0.12741412666 0.12747632559 0.13043630968 0.18532683929 0.18956227865 0.2042594665 0.18934847837 
0.1801998061 0.19377083861 0.18827351494 0.17893309872 0.14562853 0.14486110088 0.14401279478 0.14485398577 0.14395461582 
0.14228586909 0.14857022495 0.14686923309 0.14600797096 0.15562140614 0.15115082202 0.14983294212 0.17080610815 0.16154865812 
0.15772635693 0.19305457354 0.19337640462 0.12996660364 0.13588717412 0.13863371041 0.13270988989 0.15419606969 0.15469628343 
0.14509753108 0.14595207591 0.14578132541 0.14644855916 0.14049506507 0.1436027977 0.14099204558 0.13304434149 0.1381374732 
0.13723728043 0.14631729703 0.1454246223 0.14326333924 0.15464461661 0.14036234828 0.13831290309 0.14445569386 0.14589635719 
0.1930658715 0.20090880377 0.15445496066 0.15848930436 0.14644465317 0.14575679249 0.14621663828 0.15269197151 0.16216662197 
0.13145450124 0.19634192332 0.15879382584 0.17059310087 0.13824771701 0.14147636913 0.18185958692 0.14021613459 0.14225866917 
0.13916081884 0.19148901791 0.18615645999 0.18042551917 0.13229314868 0.13636378923 0.13199829993 0.13602894153 0.18192959706 
0.18970676417 0.13244378946 0.13006718733 0.12821013337 0.18272653009 0.17699484474 0.17330151459 0.14825699813 0.1493726481 
0.15133689683 0.15108075153 0.15442163098 0.13045755458 0.13540591656 0.13251322259 0.18544921889 0.14685876053 0.14748661343 
0.14881564619 0.13088382681 0.13327168324 0.12957435763 0.14271844041 0.14078722493 0.14502442037 0.16427176974 0.17190750648 
0.16076469337 0.15916172828 0.16620351688 0.16630359597 0.15588396317 0.13767658872 0.15490848293 0.15540310597 0.14392702067 
0.141026487 0.15609173312 0.15675194726 0.15516089092 0.15742960966 0.15813716999 0.15658886636 0.15887563045 0.15958865981 
0.15806826471 0.16029921345 0.16092109083 0.15957408567 0.16156175819 0.16212058322 0.16097293115 0.16261646004 0.16306955336 
0.16217417403 0.16343400455 0.16376205666 0.16311544459 0.16408727711 0.1642833598 0.16383732954 0.16444123641 0.16449627344 
0.16432530464 0.1644354154 0.16438719977 0.16441936107 0.16422579355 0.16400716924 0.16418989796 0.16367665537 0.16327773624 
0.16368262802 0.16279712833 0.16230214189 0.16282804517 0.1617134878 0.16118111338 0.16171110933 0.16062859261 0.16004887369 
0.16051816387 0.15946621469 0.15888153125 0.15931683226 0.15833271609 0.15774125013 0.15814188111 0.15717523088 0.15661693809 
0.15697813357 0.15607214155 0.15553421956 0.15581891969 0.15508564876 0.15460157588 0.15479803478 0.15416366072 0.15382129642 
0.15388386341 0.15365666315 0.14837880957 0.14723388015 0.14329657041 0.1453253511 0.15736048694 0.15802808204 0.15492107199 
0.15381854193 0.15170887031 0.15520538509 0.15056492444 0.148467603 0.15272603448 0.1474807084 0.14589035061 0.15024479398 
0.14490013692 0.14373062863 0.14796944857 0.14263044773 0.14181179655 0.14588953776 0.14082067973 0.14015900058 0.14391707893 
0.13930954742 0.13877626743 0.14215946693 0.13800858399 0.1375874586 0.1405655949 0.13698019688 0.13680976697 0.13912991832 
0.13639260424 0.13640229564 0.13811464469 0.13605055989 0.1360914644 0.13735393262 0.13571172262 0.13573571953 0.13657860037 
0.13528631249 0.13537944925 0.13565088117 0.13716061672 0.13877601862 0.14263529547 0.14210031166 0.14091026698 0.13759072961 
0.13707259691 0.13714285995 0.13751791551 0.13526063456 0.1385288547 0.1388321146 0.1370216332 0.13934986448 0.13959596656 
0.13855958762 0.14007946096 0.1403452373 0.1395547346 0.14080326909 0.14107409031 0.14051385602 0.14154322349 0.14191532389 
0.14147536207 0.14246783973 0.14287896643 0.14251413294 0.14344461326 0.14390566422 0.14364843325 0.14452215226 0.14505932947 
0.14483787691 0.14568288418 0.14626690724 0.14607755712 0.14680263976 0.14730146131 0.14723442515 0.14778120624 0.14829419675 
0.14823157102 0.14891781104 0.14959236534 0.14922463058 0.15022544385 0.15086277777 0.15059303507 0.15133944737 0.15189155976 
0.15173096293 0.15229856295 0.15289247588 0.1526276725 0.15225913191 0.15177871875 0.15691116375 0.15699124631 0.15137996339 
0.15086543487 0.15186040931 0.15037705428 0.14982221324 0.1509513091 0.14932938179 0.14892147039 0.1498496255 0.14848691935 
0.14803335871 0.14901037858 0.14755251703 0.14710643867 0.14810386032 0.14664371326 0.14627165102 0.14715191947 0.1458577746 
0.1455518433 0.1462660898 0.1451619969 0.1448978705 0.14547163686 0.14455552537 0.14435543465 0.14474689061 0.14405945394 
0.14390821108 0.14408507869 0.14360225378 0.14350026262 0.14346838482 0.14320331783 0.14313827595 0.14283516861 0.14291067095 
0.14289584045 0.14225517997 0.14280497037 0.14303276158 0.14187781674 0.14362795592 0.14428775379 0.14224048181 0.14508275907 
0.14567666784 0.14374472694 0.14598976734 0.1464649513 0.14506022405 0.14705204038 0.1466689252 0.14451512116 0.14354475155 
0.14258215458 0.14157481732 0.14253133459 0.14082732338 0.14000136634 0.14070066796 0.13967693219 0.13923714121 0.13947241996 
0.13916722342 0.13879204712 0.13931569199 0.13874151042 0.13845360128 0.13922535406 0.13852697247 0.13840282275 0.13931795817 
0.13861473421 0.13862002246 0.13964793518 0.13899148744 0.13908382888 0.14023457934 0.13960162431 0.13990640865 0.14106344053 
0.14050948823 0.14112357438 0.14219498702 0.14197194567 0.1427751947 0.14373379632 0.14377829714 0.14480046897 0.14553036833 
0.14599496385 0.14746034321 0.14762327178 0.14897085885 0.15104881968 0.15013764002 0.15276411617 0.15490014189 0.15324213813 
0.13386070191 0.18720191922 0.188066246 0.13773620925 0.13987503954 0.13423626287 0.13614306729 0.13706587171 0.15671458458 
0.15572646733 0.15529422022 0.15480996526 0.15546895193 0.15471142246 0.15458200352 0.15514612164 0.15473875703 0.1549322108 
0.15535241148 0.1552706173 0.15561202338 0.15596327799 0.15605900977 0.15649212025 0.15687383241 0.15702728111 0.15746809003 
0.15795883117 0.15805339992 0.15853706206 0.15915745544 0.15903831688 0.15943506026 0.16034005771 0.159831632 0.16016584152 
0.16133763267 0.16038366367 0.16047825331 0.16200253664 0.16040697988 0.16024469888 0.16217451959 0.16000424886 0.15978601653 
0.16185093856 0.15950904399 0.15922974006 0.16128946538 0.15887734166 0.1585465634 0.16055343717 0.15808671167 0.15773794918 
0.15961146994 0.15725101448 0.15682763819 0.15853325095 0.15629914708 0.15594491693 0.1573923818 0.15558555506 0.15558790481 
0.15645720797 0.15558380812 0.15600059071 0.15591767009 0.15642938242 0.17151176521 0.16477651677 0.1514622091 0.14982461601 
0.14884287425 0.14600975654 0.14469247719 0.14616298027 0.18061583604 0.17558180261 0.15687130878 0.15373805173 0.15254701001 
0.16700759331 0.16098738386 0.1586447967 0.14649854635 0.14516230575 0.14121593626 0.14276092982 0.14001559264 0.17520434001 
0.17709881423 0.14413432071 0.14544324969 0.14279021303 0.18092575595 0.18245904073 0.15007262399 0.15103596273 0.1482704593 
0.14728268766 0.14410966605 0.1432437678 0.14441417164 0.15329367622 0.14229905584 0.14131868779 0.14239139471 0.1592914899 
0.15455013021 0.15211138138 0.1542054416 0.15280053662 0.13651860329 0.13858296863 0.1396159604 0.14117449443 0.13933555576 
0.14222703704 0.14337875763 0.14140885042 0.13946746053 0.19067199609 0.19206613047 0.14332347752 0.1415477 0.14338876241 
0.14426277185 0.14508086544 0.1434088698 0.13641796445 0.13501570679 0.13182843381 0.13552464245 0.15708023764 0.14089102003 
0.13758526259 0.13510288078 0.13380493364 0.13588105853 0.14043284174 0.1403484712 0.13874066751 0.15282704122 0.14540381498 
0.14606695601 0.14714521666 0.14564428476 0.14637432423 0.14678938427 0.14523096 0.13514172323 0.13552269872 0.15675613593 
0.13878228478 0.13763787465 0.1528745657 0.15358315833 0.18485687414 0.18078033118 0.17973210884 0.16909912777 0.19184601705 
0.18714873714 0.1861119411 0.18343745215 0.18738044553 0.14709500991 0.14671817025 0.14658971898 0.14693082488 0.14620601376 
0.1454418073 0.15614401437 0.17251804022 0.17746820625 0.15085773541 0.15361675248 0.15553690732 0.13365606995 0.13548685685 
0.13553045497 0.13474470772 0.14615925718 0.14444648447 0.15497117865 0.15737219853 0.16186633042 0.17593302625 0.14004840755 
0.13730115108 0.13695738971 0.14039659071 0.17680102386 0.17324339198 0.16817161982 0.1814804094 0.17311673594 0.13752318621 
0.13573856206 0.13815923798 0.17352256755 0.16887419527 0.16976900266 0.14573806691 0.1469267515 0.14858856336 0.13152495609 
0.13243336645 0.14879105011 0.1507758308 0.14798680635 0.1342831885 0.16040654981 0.13820881855 0.14148570951 0.14243649124 
0.13838958652 0.1354066788 0.13716624312 0.13436208338 0.18542224183 0.15361356628 0.15725310898 0.1518262617 0.15563825017 
0.15638369233 0.15713855722 0.15795227351 0.15626370551 0.15881797416 0.15959849236 0.15794612401 0.16051385945 0.16124919329 
0.15983702903 0.16217512591 0.16269304817 0.16182264699 0.16314277603 0.16871304269 0.16448096499 0.16374901241 0.16411397301 
0.16345111548 0.16453061117 0.16470208524 0.16458271217 0.16476155963 0.1646776241 0.16504601844 0.16427440137 0.16406275702 
0.16468647527 0.16375778244 0.19801065081 0.18962984093 0.16330416696 0.16275848649 0.16375520833 0.1618801437 0.16122677115 
0.16239273395 0.16035733261 0.15973650315 0.1605390182 0.15918344209 0.15854759764 0.15901245874 0.1578111715 0.1572062505 
0.15761899083 0.15678151065 0.15618069747 0.15645113727 0.15556034418 0.1549839812 0.15532560489 0.15449361899 0.15401225062 
0.1541843749 0.15364871796 0.15318979726 0.15261232017 0.15331383882 0.14616916793 0.15484364409 0.16130876237 0.16730862077 
0.1646750581 0.1545857987 0.15332267909 0.15538606144 0.15279697602 0.15150206096 0.15449143834 0.15090696002 0.14972273327 
0.15310459797 0.14892612691 0.14782048237 0.15153675946 0.14687269604 0.14594114685 0.14973575741 0.1449531385 0.14414319185 
0.1478398076 0.1432274951 0.14240469694 0.14593108812 0.14142565292 0.1407181352 0.14391687956 0.13979691222 0.13931045802 
0.14192376912 0.13867147574 0.13823739897 0.14033020329 0.13767655131 0.13720697611 0.13907805283 0.15377037509 0.13750128895 
0.13811372401 0.14033291856 0.1407939826 0.14140682757 0.14188653893 0.14126646204 0.14261796459 0.14317429659 0.14258943462 
0.14390534763 0.14446638791 0.14401473669 0.14521393326 0.14584273546 0.14549821775 0.1465270318 0.14715380142 0.14694546953 
0.14780545765 0.14831320276 0.14830310646 0.14885086246 0.14929110453 0.14946830467 0.1498048788 0.15053671869 0.15038514038 
0.15114623357 0.15181245244 0.1517923496 0.1522805022 0.1527759512 0.15287304612 0.15316063707 0.15357684109 0.15427460784 
0.15373168587 0.15219567988 0.1797803405 0.17986192469 0.14545045814 0.1517235641 0.15119675653 0.15063317633 0.15002977275 
0.15141431965 0.14961309844 0.14920032756 0.15023270261 0.14867840785 0.14822008413 0.14934610383 0.14766234595 0.14721079893 
0.14829972783 0.14670470156 0.14629211238 0.14725445481 0.14581339697 0.14542222053 0.1462448349 0.14491766269 0.14455275312 
0.14524622666 0.14415597919 0.14384612121 0.14432320087 0.14339040889 0.14306416817 0.14348473547 0.14250865963 0.14215150798 
0.14248906221 0.14159567485 0.14131217702 0.14128421606 0.14081042464 0.14064896482 0.14010721865 0.14074943765 0.14144267273 
0.13925797767 0.14945234778 0.14028757633 0.13946390335 0.13923982602 0.13909577131 0.13865729784 0.13940845503 0.13937398522 
0.13914992822 0.13964509904 0.13968762685 0.13977102212 0.14005288508 0.14015748141 0.14045273185 0.14070501532 0.14089114469 
0.14129490804 0.1413480737 0.14171185298 0.14226371222 0.14235246833 0.14290851348 0.14335187539 0.14373063707 0.14447801877 
0.14491284417 0.1452985926 0.14621948242 0.14669178114 0.14699830044 0.14793588495 0.14844431781 0.14881220271 0.14990079925 
0.15010069709 0.15080032937 0.1522785933 0.15180140816 0.15302836951 0.15487704322 0.15509151614 0.15351115144 0.15484770149 
0.16715822177 0.16828305648 0.13316159481 0.13548859415 0.13373244812 0.15529344782 0.1556187065 0.15612893407 0.15662977723 
0.15623916449 0.15731060162 0.15787508397 0.15760100868 0.1587070905 0.15935924111 0.15917387391 0.16018771415 0.16086494635 
0.16094449439 0.16165868098 0.16222271051 0.16266783572 0.16290471764 0.16342165671 0.16426461447 0.16387098908 0.16414837906 
0.16550001583 0.16423167951 0.16418305995 0.16615534957 0.16394973963 0.16365745379 0.16601321291 0.16324074287 0.16285658821 
0.16525981167 0.16232683892 0.16183256484 0.16417985964 0.16115575211 0.16055537642 0.16280769491 0.15961724498 0.15897684292 
0.16103485418 0.15805456132 0.15742624097 0.15906457 0.1566389529 0.15617028359 0.15726902064 0.15554148925 0.15977914226 
0.15625326709 0.1491892121 0.14767846406 0.13424301982 0.13386284289 0.14629245441 0.14499292877 0.14658066467 0.15345891846 
0.15108055489 0.14985111171 0.15433111453 0.15254634393 0.14971769283 0.13824947027 0.13902180934 0.13956318093 0.1392411969 
0.13481836647 0.13301929831 0.13438714375 0.16736238546 0.1745391658 0.17308418938 0.16313035081 0.14489043691 0.14374450784 
0.14802158894 0.14609516592 0.14538827486 0.14825605168 0.13845134556 0.13979123378 0.16095453162 0.15649848703 0.15331068101 
0.1439036134 0.14247440987 0.14407206915 0.17497279758 0.17264724651 0.14301472008 0.14399591407 0.16879225759 0.1647228528 
0.16040492522 0.16751264748 0.17238450539 0.17446656644 0.18113289098 0.18257246522 0.13640485974 0.15500320112 0.13536534517 
0.13594922239 0.14476954679 0.14581138716 0.14442580045 0.17627379389 0.17869299928 0.17735606262 0.13686050494 0.15804334555 
0.14222982993 0.14106259749 0.1399474152 0.14148483518 0.14294709304 0.14062791965 0.17598904492 0.17841912876 0.17546574686 
0.15245803963 0.18316982163 0.18150116619 0.17919022453 0.14500262235 0.14392472814 0.14268665125 0.14360270477 0.15240954107 
0.15548247712 0.16535173039 0.16952805825 0.13712583699 0.15497447894 0.15517715998 0.15490379853 0.15573681211 0.14119438078 
0.13977683536 0.14174162799 0.16425380516 0.16093046071 0.16945983012 0.17896180591 0.17151036759 0.16970040307 0.16958449537 
0.14704887515 0.1485127828 0.14641230681 0.13986340814 0.15478631361 0.14449428714 0.14609172262 0.14318539668 0.14237264999 
0.14300648948 0.14148960924 0.14273638502 0.14179505886 0.13765616178 0.13977932917 0.14750577285 0.14959530072 0.15023251547 
0.16893661842 0.14951333272 0.15075760124 0.1529916173 0.14097703285 0.15456212429 0.13673601953 0.13792415053 0.138052683 
0.13628881523 0.14315737927 0.1643501622 0.16599029818 0.16228294715 0.15688264871 0.15785955488 0.15893055662 0.15993684116 
0.15790703565 0.16082271193 0.16188329111 0.15996489836 0.20443486462 0.19502219458 0.16225822954 0.16321737205 0.1639508054 
0.16457467258 0.1645320251 0.16513772442 0.20024234617 0.20362093701 0.16595221363 0.16603765963 0.1662409365 0.16544445451 
0.16491628855 0.16643869219 0.20859995153 0.21162049462 0.21635554069 0.21914920483 0.16450531013 0.22283107936 0.21838879823 
0.16312838709 0.1620917018 0.16438703954 0.16065268201 0.15965523869 0.16139889017 0.15822728721 0.15763997094 0.15817400039 
0.15680382303 0.19789700188 0.194334665 0.15564985763 0.15519621979 0.15556314323 0.15453250632 0.21712957873 0.2923223862 
0.15375086289 0.15321716435 0.15354825404 0.15284361634 0.1413075149 0.14235858094 0.14390449474 0.14199381823 0.1432048912 
0.14378561041 0.15512059137 0.15417484661 0.15323101279 0.15258405604 0.15159983218 0.15512584435 0.15065774601 0.14967968376 
0.15349058916 0.14863617173 0.14766950157 0.15149573519 0.14388399907 0.14284904814 0.14388069183 0.14140294017 0.14199740085 
0.14434926726 0.14505727036 0.14603102663 0.1468239624 0.14643346907 0.14754920543 0.14828475094 0.14828362106 0.14906919657 
0.14972887752 0.14989748613 0.15039200064 0.15088824921 0.15130918383 0.15128141886 0.15210481621 0.15225405834 0.15263259794 
0.15326589901 0.15363542158 0.15440499785 0.14468187687 0.14315868636 0.14036684258 0.1439967138 0.15371820483 0.1501319686 
0.1496533446 0.14888144689 0.14836845606 0.14977284134 0.14782045493 0.14733062119 0.14849912077 0.14692179474 0.14642973328 
0.14755672719 0.14566918168 0.1451429401 0.14637511066 0.1443474051 0.14391516906 0.14345754809 0.15638979441 0.15948155703 
0.16425136044 0.13885234738 0.13796287411 0.15970372239 0.1623855928 0.15979739341 0.15626851044 0.13896110001 0.13920781664 
0.13832198686 0.13994568973 0.14029328658 0.13978400498 0.1407547606 0.14115887839 0.14099193464 0.1419392552 0.14244137874 
0.14225775492 0.14322524173 0.14368075257 0.14377502236 0.14416976279 0.14486380461 0.14507743961 0.14798474007 0.14890298691 
0.14967450404 0.15050208826 0.1509309238 0.1511553655 0.15199345368 0.15236785389 0.15248344664 0.15336208118 0.1543540145 
0.14679620451 0.14541930542 0.15563370497 0.15630144667 0.15720083701 0.15805558108 0.15673049675 0.1592224787 0.16026392241 
0.1590214092 0.16148998718 0.16246378781 0.16157297652 0.16338792678 0.16425268712 0.16388408786 0.16579884751 0.16664946662 
0.16652240539 0.16702204943 0.16765357383 0.168658575 0.16881970404 0.16896284815 0.17051479305 0.16820617139 0.1678974725 
0.17097494746 0.16762679309 0.16704719133 0.16973821374 0.1660475416 0.16533121752 0.16829179206 0.16486094556 0.16396382619 
0.1665883633 0.1622001112 0.16114433602 0.16405904548 0.15961349627 0.15858490035 0.16074897469 0.1572142912 0.15638538709 
0.15512445167 0.15780858504 0.17863436844 0.17402247415 0.16893181721 0.15485247443 0.14112636336 0.14207077063 0.14098303448 
0.14002868406 0.13848697026 0.13707645258 0.13774123384 0.13941742467 0.15513963595 0.15597115354 0.15581680973 0.15409767344 
0.15236592178 0.14273713413 0.14256091431 0.14325865417 0.14373267642 0.15178286461 0.17614757445 0.15446837084 0.15610323328 
0.14666414776 0.14562801563 0.17181625261 0.17326977408 0.1521656172 0.15119230007 0.15058635317 0.15448315278 0.15363598272 
0.16625114458 0.16833425662 0.17651188573 0.17620642171 0.14943262949 0.16084630614 0.16247650723 0.15096235593 0.14478251279 
0.14265978782 0.1379771949 0.15467886736 0.13897703112 0.16091051495 0.16459148204 0.16897330603 0.15351189366 0.15484887353 
0.14696695618 0.14905244864 0.14603121532 0.16151335252 0.15773324359 0.15043143116 0.14846443046 0.14726529049 0.15478703223 
0.1522831579 0.1507333411 0.16556371258 0.1669041415 0.14614995464 0.16294876224 0.14054096773 0.14607288245 0.14484084061 
0.14807220025 0.15052742624 0.13935653827 0.15412223808 0.15090445955 0.14399833828 0.14283453948 0.14173054879 0.14417377687 
0.15703017562 0.15418469358 0.16052920604 0.17362997533 0.17509528373 0.16839417717 0.17315735869 0.17107758962 0.16416899711 
0.15532445727 0.15126930473 0.15373465116 0.1573140433 0.15238500358 0.17389804255 0.17331761484 0.14435087605 0.1529815339 
0.14648754744 0.16938335277 0.16755774209 0.16665946319 0.1547571086 0.15366322872 0.15587814012 0.17076120681 0.14464074534 
0.14461233338 0.17282278275 0.15547760814 0.17259215539 0.17511430332 0.17250869611 0.14533639601 0.1493261118 0.15018093688 
0.15259840074 0.15318032927 0.15428989543 0.15513672777 0.15570714878 0.15499872986 0.15551024248 0.15710319397 0.15855813122 
0.15626329221 0.15216850918 0.15171709433 0.16100472008 0.12875703073 0.15747152956 0.1552655298 0.15256109543 0.14903860256 
0.14861061029 0.14777141338 0.14692493536 0.14937486985 0.15207757291 0.15060192282 0.15144253462 0.15460863824 0.15942519772 
0.15779312688 0.1570258986 0.15346145387 0.15593230065 0.15679096489 0.15802619926 0.14859064501 0.14157194123 0.14209900607 
0.14292634158 0.14437283014 0.14511761405 0.16526632409 0.16173532766 0.16913636815 0.15438729468 0.15416035894 0.15551559978 
0.15351089284 0.15021193735 0.15128798268 0.17054083226 0.16921122225 0.14655368319 0.16585416752 0.16329543756 0.14534517114 
0.16058826862 0.15986739375 0.14753091989 0.14814625979 0.14995886552 0.15907518508 0.15362336677 0.15557398674 0.15146931488 
0.14695542868 0.14691614141 0.14632929134 0.14688672272 0.14858712682 0.17225257866 0.14623355971 0.1455284889 0.15917664531 
0.15750102394 0.15362562529 0.1567835992 0.15580109673 0.15822085117 0.15956007496 0.15488169862 0.17139850041 0.14052501402 
0.15216131883 0.1529793847 0.15486119932 0.1467770234 0.13978461768 0.16785825592 0.1686740525 0.1534293639 0.14811530849 
0.16710124456 0.16523425985 0.16324560893 0.16486931218 0.1681760446 0.15654214305 0.15027141625 0.15796458527 0.15932831788 
0.15680516214 0.16117801199 0.16276067403 0.16033080258 0.16460018888 0.16576560929 0.17092254669 0.17259259278 0.16206248869 
0.16096601462 0.15761081166 0.16078775077 0.16470320164 0.15904054239 0.16990569061 0.16442960542 0.15036763788 0.13859572871 
0.16644494132 0.16764863105 0.1580824191 0.16329452949 0.1536367348 0.15233932676 0.15837282385 0.15533844854 0.1516281771 
0.1617791888 0.15572331768 0.14957905151 0.15811237401 0.16218855452 0.16181483884 0.16731968106 0.15891929012 0.16114826022 
0.16888957208 0.16613376133 0.16352054793 0.15033573264 0.15628979069 0.16041599342 0.15834932244 0.15630597409 0.1593714456 
0.15387894655 0.15396070256 0.15385837596 0.15481074386 0.1543422187 0.15426068752 0.15608352274 0.15537170567 0.15522298581 
0.15781781361 0.15684450733 0.15655928886 0.1597491436 0.15865029664 0.15815155188 0.16200461984 0.16077504999 0.15998902825 
0.16413440711 0.16293902646 0.16191887772 0.16586257106 0.16500241767 0.16370487161 0.16707590492 0.16647124678 0.16514919374 
0.16786523333 0.16748094204 0.16614220535 0.16802331808 0.16803136471 0.16668480087 0.16753587886 0.16786913292 0.16669500827 
0.16654729627 0.16714715963 0.16615688074 0.16515731877 0.16596502755 0.16519559499 0.1633223078 0.16436667107 0.16384627605 
0.16137630841 0.16246660713 0.16221935072 0.1594804067 0.16051150172 0.16052377248 0.157617842 0.15861052528 0.1588100832 
0.15607357812 0.15686530792 0.15720423905 0.15490394814 0.15547455548 0.15586201481 0.15414431321 0.15447046205 0.15483139861 
0.15383881793 0.15389875673 0.1541481036 0.15386194815 0.190581845 0.16961608285 0.20013054432 0.14744762273 0.1573056436 
0.17053030295 0.13578174356 0.13976255166 0.15022610399 0.12898578334 0.13157114359 0.13935448587 0.12556320536 0.1267847539 
0.13337702112 0.12383445092 0.12439852034 0.12989038233 0.12322789103 0.12325050384 0.12817615448 0.12331420757 0.1229452048 
0.12725494363 0.12439420886 0.12346600739 0.12703010587 0.12621950221 0.12489595885 0.12759021772 0.12892763167 0.12715331633 
0.12900802484 0.13207495158 0.13006241042 0.13100925348 0.13553294654 0.13348450859 0.1334333941 0.13929420083 0.13704217751 
0.1362294296 0.143437422 0.14097358238 0.13934608489 0.14690605889 0.14494190901 0.14244911044 0.14923251319 0.1481808178 
0.14510274804 0.1495650664 0.14970498825 0.14675176489 0.14817254577 0.14919509991 0.14679087624 0.14594386524 0.14737051342 
0.14559212519 0.14368845701 0.14512871126 0.14395721627 0.14156300443 0.14294454837 0.142429326 0.14013664235 0.14099782571 
0.14123679703 0.13941532912 0.13985635872 0.14041944045 0.13926442688 0.13936030077 0.14014598072 0.13978863184 0.13949430808 
0.14033946895 0.14086983214 0.14025571834 0.14103999321 0.14247334844 0.14153664738 0.1421748396 0.14422653884 0.14324601236 
0.14364767226 0.1459923317 0.14504916081 0.14522207292 0.14797292063 0.14687806799 0.14689490413 0.14978497758 0.14880046435 
0.14859097264 0.1512978811 0.15054235465 0.15015492775 0.15258616899 0.15193676266 0.15154011405 0.15344578925 0.15308388414 
0.15268962197 0.18096847899 0.15371108984 0.15382341958 0.1531190343 0.15346756801 0.15343604951 0.15217918143 0.15270742085 
0.15278039773 0.15080085344 0.15158343083 0.1517948122 0.14934024156 0.15014101343 0.15053605726 0.14770512922 0.14859973749 
0.14913656189 0.14634962176 0.14707137273 0.14776791109 0.14503204142 0.14572027588 0.14651211201 0.14410286534 0.14449900879 
0.14536719437 0.14359860529 0.14376711133 0.1445615163 0.14362752339 0.14350469744 0.14410489746 0.14422204169 0.14373362742 
0.14407472309 0.14534051497 0.14453318151 0.14450309087 0.14682174401 0.14580701919 0.14531429246 0.14852821347 0.14746916868 
0.14642728769 0.1502642279 0.14916421062 0.14767978132 0.15182288628 0.15095219197 0.14897681708 0.15269188919 0.15233473139 
0.1501324328 0.15216962779 0.15259157101 0.15052909952 0.15020740355 0.15155501333 0.14986143343 0.14700296089 0.14897114661 
0.1479946126 0.14309487776 0.145316439 0.14514019912 0.13919204371 0.14149091818 0.14188480044 0.13539311667 0.13762381689 
0.13877368202 0.13212864059 0.13397215006 0.13585695406 0.12944149424 0.13094699941 0.13339254202 0.12759051988 0.12870137647 
0.13155668917 0.1264552703 0.12705776604 0.13039274214 0.12611976125 0.12634408555 0.12996103285 0.12710107423 0.12676811743 
0.13055912977 0.12933955985 0.12822884896 0.13240919921 0.13364530192 0.13139876032 0.1357550486 0.14166459223 0.13756398687 
0.14165279804 0.15578613868 0.14743280243 0.15123374365 0.18632781242 0.16538741481 0.16597679295 0.19483371044 0.16068771579 
0.18338046185 0.15041334546 0.15935441045 0.17958505539 0.14225041656 0.14717242921 0.17279801583 0.13876239489 0.14229050268 
0.16688782535 0.13837442102 0.13813412183 0.16219023929 0.13440418373 0.13546039653 0.1574348476 0.13396545694 0.1352879962 
0.15834791518 0.13458844056 0.13649969965 0.15848931942 0.13751305636 0.13643512261 0.16015293979 0.13512216521 0.13491813197 
0.15929557169 0.13600971133 0.13633740931 0.1605782632 0.13655774076 0.1366158132 0.16230515493 0.14068357037 0.13688274045 
0.16240058054 0.1382817924 0.13536409853 0.15538068657 0.13546471599 0.13802168813 0.15042998606 0.13872103024 0.14214595748 
0.15436762057 0.13740223228 0.13594211223 0.160990325 0.14033367563 0.13645802764 0.16067709382 0.13808934455 0.13518911463 
0.15472525507 0.14186189332 0.14361199752 0.1554634245 0.14656932216 0.14219898238 0.16525039172 0.15910699937 0.15040707224 
0.17344602878 0.11289024092 0.11409808667 0.12629040683 0.14117976013 0.11681792248 0.15353289142 0.15683985301 0.13813334058 
0.16223626335 0.15928905018 0.15564067784 0.15972635069 0.15612493644 0.15680305327 0.15816764252 0.1551801552 0.15628335255 
0.15650340504 0.15408794441 0.1548606791 0.15725635701 0.15721080844 0.15984647455 0.15903809954 0.16101934071 0.16628582441 
0.16730280588 0.18118565067 0.1671180416 0.20202825069 0.23903244593 0.19049166807 0.25443920221 0.21014218951 0.18679136519 
0.16902962584 0.21692977242 0.15615853365 0.15457295948 0.18181821122 0.15347483218 0.15531550025 0.1549444685 0.15325252581 
0.15551280431 0.1520256201 0.1529125552 0.15594289701 0.15310229338 0.15346859421 0.15702361386 0.15390567993 0.15606817818 
0.15843007043 0.15404439055 0.15430621667 0.14923562221 0.15336925653 0.13790317005 0.12097394325 0.14121972429 0.11162715347 
0.10675927634 0.11924210988 0.11148770957 0.1188837804 0.13054322161 0.1471643297 0.12648921509 0.15755278687 0.15554715144 
0.1424933032 0.1591041927 0.15344528397 0.15386672747 0.15560474358 0.15132802474 0.15426546791 0.15372877651 0.15054624987 
0.15266555741 0.15309834419 0.15050764602 0.15126593194 0.15264101786 0.15044518238 0.15063282725 0.15786016833 0.1717131536 
0.15984115076 0.19379409184 0.23416022697 0.19834427263 0.24613211534 0.19896258955 0.18153203749 0.16487175969 0.20392855708 
0.15612405959 0.15442227753 0.17633348364 0.153599742 0.15256442418 0.16262666836 0.15340704806 0.15353269165 0.15730396561 
0.15110097832 0.15448833411 0.15548222977 0.15614790625 0.1586463204 0.15462775714 0.15867309378 0.16135423683 0.15902249376 
0.15873226075 0.15215260616 0.15772010515 0.14008487189 0.12887030976 0.14000920531 0.12111130416 0.11539089332 0.11922544006 
0.15385279167 0.15389098309 0.15377519424 0.18171950428 0.18082715655 0.24108646107 0.29217128508 0.14212339248 0.13250910838 
0.16062060735 0.13135055001 0.13703474933 0.25729585217 0.13394805658 0.13041986251 0.22552600778 0.27778088362 0.27052485652 
0.21725188481 0.22371401538 0.15355791496 0.1804940644 0.15548103508 0.15489777286 0.15440187117 0.1539682957 0.15359107806 
0.15455977047 0.15825896717 0.15742239917 0.16010553468 0.1590961206 0.15835488551 0.16190565357 0.16098281388 0.16350774393 
0.16265660279 0.16179057281 0.16474395505 0.16414059994 0.16552531197 0.16514004689 0.16428526823 0.16594430733 0.16578745088 
0.16495224653 0.1657798809 0.16591662195 0.1651833544 0.1651327353 0.16551411749 0.16491936444 0.16412942282 0.16471364544 
0.16421812591 0.16277226345 0.16355166174 0.16316825166 0.16123361207 0.16207549951 0.16185742188 0.15965697818 0.16050996636 
0.16039519184 0.15803641115 0.15889160124 0.15887165233 0.15659278877 0.15734530416 0.15738428833 0.15541947108 0.15601998939 
0.15608867434 0.15447188305 0.15490914248 0.15498092222 0.12010257295 0.12458981281 0.14187456004 0.1462888317 0.15023838168 
0.1575473615 0.15146650006 0.16216785287 0.17420684726 0.16112834493 0.13679484367 0.13939919091 0.14467976796 0.13380358135 
0.13507229656 0.13995381131 0.13188642398 0.13249071066 0.13693427146 0.13088721133 0.13113122069 0.13512617677 0.13029205519 
0.13024597032 0.13382323592 0.13051122943 0.13015365111 0.13297391919 0.13147313405 0.13059316842 0.13276716473 0.13290976135 
0.13182892893 0.13323022406 0.13470616552 0.13340973598 0.134101478 0.13672460628 0.13538141609 0.13522275516 0.13920196556 
0.13758103801 0.13657221205 0.14190817082 0.1403826601 0.13874341969 0.14437059227 0.14316432856 0.14132029565 0.14548183269 
0.14508618299 0.14337743747 0.14497316178 0.14544454917 0.14409081592 0.14344288542 0.14433066913 0.14310726642 0.1420098482 
0.14279047783 0.14152158356 0.14115696381 0.14181382425 0.14057201158 0.14068644893 0.14116302292 0.14049502517 0.14053293687 
0.14072942067 0.14058095196 0.14070009222 0.1406496362 0.14085737645 0.14115553374 0.14094153597 0.14133103055 0.14209435475 
0.14165031804 0.14208137238 0.14335634069 0.14269392553 0.14312926194 0.14476770333 0.14400553789 0.14439132665 0.14622881372 
0.14544698794 0.14576893176 0.14782100663 0.14694722301 0.14713624521 0.14937143082 0.14856056909 0.14865372834 0.150752881 
0.15000960426 0.15005719251 0.15203284367 0.15138234483 0.15136072836 0.15311012515 0.15259602417 0.1525685385 0.153599194 
0.16655236643 0.15159385422 0.15220355602 0.15378996637 0.1527871809 0.15320345405 0.15269817209 0.15348351252 0.15372199198 
0.15391011107 0.15356094664 0.15037980029 0.15104460006 0.15151587253 0.14901429191 0.14975274052 0.15029864901 0.14776123188 
0.14837494352 0.14896685361 0.1466175095 0.14722735709 0.14782505808 0.14562180554 0.14610099067 0.14677022407 0.14489051897 
0.14516868596 0.14581990865 0.14442035058 0.14455486031 0.14507500105 0.14432638462 0.14426663305 0.14456667138 0.14461133783 
0.14430510098 0.14433005789 0.14516135491 0.14469182912 0.14439543805 0.14589038941 0.14530267179 0.14461170728 0.14675056022 
0.14615653192 0.14494586917 0.14796987457 0.147249799 0.14580383094 0.14893820266 0.14844206948 0.14692179 0.14921027116 
0.14925377675 0.14782353789 0.14838010167 0.14897813917 0.14801802735 0.14639732127 0.14760677054 0.14703712402 0.14356641388 
0.14522190166 0.14502340998 0.14077931293 0.14233968084 0.14250946016 0.13830945639 0.13974880727 0.14012954527 0.13622293704 
0.13746246222 0.13843515421 0.13447940019 0.13557507198 0.13704842431 0.13347595268 0.13415761046 0.1361544528 0.13297373333 
0.13331328681 0.13569880684 0.13327625244 0.13313231487 0.13583114698 0.13448071426 0.13377415699 0.13666899498 0.13712145739 
0.13590151144 0.13865424089 0.14168071645 0.13896478516 0.14187502918 0.14835521057 0.14427874156 0.14674464848 0.15848206493 
0.1527305406 0.15400095364 0.17540636376 0.1651751671 0.16332258391 0.13871457683 0.12571335617 0.21181152138 0.22639394852 
0.1576945906 0.15850989377 0.16167413716 0.16406088219 0.16027287543 0.17210622351 0.16897531448 0.15384163581 0.15426778749 
0.15623973435 0.1509967751 0.15064285516 0.15394851621 0.15228303581 0.15119162214 0.15272695287 0.15253927816 0.15091332702 
0.15282597137 0.15306716662 0.15182099787 0.15336955802 0.15258931455 0.15141722728 0.15421456746 0.15339161714 0.15325100017 
0.15514919134 0.15480491499 0.15440873251 0.15566935211 0.1545602269 0.1547780813 0.15587383679 0.15257578865 0.15279611789 
0.15562480875 0.15229786142 0.15179725895 0.15543764706 0.15119851736 0.15296010019 0.15517404271 0.15220069663 0.15380729679 
0.15439346075 0.15242810424 0.15379255454 0.15407549083 0.15138497363 0.15208365011 0.15376583067 0.15189911172 0.15210963526 
0.15440295523 0.15756367637 0.15641581333 0.15581238365 0.16488954197 0.16139249152 0.1592698565 0.16393664336 0.1420778778 
0.12863984775 0.12987183637 0.12921070073 0.13928669773 0.23136742165 0.21900534596 0.12865693644 0.14257971304 0.12773037803 
0.14651146324 0.15175146857 0.13943752308 0.15355030993 0.15589674394 0.14859353616 0.1547965221 0.15599703191 0.15195815761 
0.1538148474 0.15500460091 0.15201301249 0.15334544868 0.15290028356 0.15037047021 0.15394985676 0.15660661935 0.15307176281 
0.16012836774 0.16849721426 0.15826530032 0.17833189647 0.19519453236 0.1944052654 0.17147728104 0.17137381437 0.16278888769 
0.15719398818 0.15194098876 0.15979805112 0.15161754298 0.14893398522 0.1514327529 0.1525932655 0.15136685896 0.14785376191 
0.15324834718 0.15171653076 0.14939971832 0.15245135453 0.14959167785 0.14845862106 0.1474300036 0.14251802784 0.14415992975 
0.13635025948 0.12615123782 0.13498779026 0.12090688484 0.11974117246 0.12889527263 0.12437547167 0.19687956235 0.2118927226 
0.130964596 0.14407683115 0.14717007013 0.15222728873 0.13969350144 0.15117390152 0.15265455076 0.14720647263 0.14953920484 
0.15150787927 0.14861477456 0.14732157694 0.14891931429 0.14709040829 0.14606237945 0.14979473449 0.14631837122 0.15194072582 
0.1612299513 0.15104131608 0.16971746191 0.18499991184 0.18104530383 0.16205146943 0.13001484596 0.14357413205 0.16407235251 
0.15804443949 0.1526992358 0.15055687996 0.15520136237 0.14848981009 0.14998276917 0.14930308931 0.1508230228 0.15257800971 
0.14767500766 0.15393410083 0.15260522703 0.14977427083 0.15294441418 0.1535556885 0.15004094251 0.15119491802 0.14598254266 
0.14741013793 0.14153762506 0.12918350694 0.1388484987 0.12368214454 0.12007578805 0.12760222787 0.15673392324 0.15596374148 
0.15557319707 0.20546102887 0.18541712779 0.17625694668 0.11901824657 0.12536469692 0.12694114008 0.19052172076 0.17377024616 
0.1667825943 0.16012224423 0.16321581299 0.15413542081 0.15414226805 0.14035744616 0.14114505279 0.12752356416 0.16647434522 
0.14061920826 0.20795965633 0.22333743531 0.14535846068 0.14331527113 0.21297994517 0.13078468487 0.15679387845 0.1989683972 
0.21663068064 0.21468615187 0.19767499805 0.14388662907 0.20301763328 0.19469880178 0.17994406765 0.13606425103 0.12988600825 
0.13757407995 0.14105710909 0.15840100015 0.1575073391 0.13388187887 0.1281656362 0.16179502105 0.1610086554 0.16469104217 
0.16445246684 0.16413234501 0.1636902051 0.16398504244 0.16437760323 0.16463219302 0.16353000619 0.16400270029 0.1638241964 
0.16238172503 0.16299435711 0.16284899479 0.16099603608 0.16171511335 0.16159026586 0.15952023209 0.16028015183 0.16016234361 
0.15801321733 0.15880138829 0.1586857655 0.1565920869 0.15731376533 0.15722567157 0.15542519459 0.15603053689 0.15592021802 
0.15439098558 0.15491204381 0.15480115839 0.130145171 0.13725463688 0.15142669641 0.15519727249 0.15480315485 0.15427433286 
0.15378855379 0.14622856128 0.14928360652 0.15248244284 0.15759770654 0.16243201122 0.16035437948 0.15665493604 0.13967282462 
0.14104419355 0.13794176215 0.13864177699 0.14220400729 0.13641321344 0.13699879491 0.14024473383 0.13539137813 0.13564362121 
0.13859389298 0.13489412375 0.13496670795 0.13736286759 0.13490141116 0.13458839226 0.13650918833 0.13519766803 0.13474258828 
0.13597653683 0.13566291462 0.13508074135 0.13567325529 0.13620817934 0.13555071474 0.13535774811 0.13812205554 0.13679036915 
0.13541088041 0.14107975585 0.13947049846 0.14316094711 0.14243976733 0.14106952893 0.14207670842 0.13923878743 0.14013166208 
0.13883537068 0.13927194181 0.13939594582 0.13753319269 0.13980075281 0.13975396986 0.1385661066 0.14044067748 0.14030724821 
0.1396406419 0.14110356369 0.14088748689 0.14061204582 0.14188573373 0.14156794855 0.14157091688 0.14292425998 0.14244049144 
0.14264226657 0.14410902635 0.14355296817 0.14384592564 0.14549683015 0.14484179768 0.14517470857 0.14680794663 0.14614584827 
0.14655812768 0.1481542591 0.14743857898 0.14782458202 0.14969170773 0.14892232049 0.1492044323 0.15097769925 0.15031813564 
0.15064426042 0.15205323797 0.15140241585 0.15172332514 0.15387527423 0.15453086819 0.15757820539 0.15935423962 0.16316783937 
0.16250364471 0.16180367392 0.16310657596 0.15027312295 0.15094066866 0.14891017929 0.14955202725 0.15020535268 0.14219570896 
0.14435425485 0.14802699489 0.14463252065 0.15255908419 0.1531713233 0.153887813 0.12722781736 0.13053694074 0.13073543413 
0.14787067278 0.14839433731 0.1489565808 0.14685418192 0.14735741592 0.14793540793 0.14592904322 0.14634897289 0.14691208994 
0.14519376563 0.14549385842 0.14597665362 0.14458367497 0.14477744224 0.14514097867 0.14422454544 0.14429488157 0.14442544362 
0.1440580106 0.1440014167 0.14386642364 0.14396658297 0.14386601166 0.14343420326 0.14400604992 0.14380491791 0.14304768799 
0.14478659994 0.14416018737 0.14274712483 0.14615982067 0.14548533148 0.14393811659 0.14731773318 0.14686829249 0.14560379168 
0.14746936699 0.14769551281 0.14695941716 0.14614701377 0.1469731853 0.14669927611 0.14383360495 0.1451504351 0.14510193192 
0.14137347454 0.14268334674 0.14276969166 0.13951495906 0.14046235533 0.14054095025 0.13847767085 0.139220619 0.13943914959 
0.13782032737 0.13832525515 0.13900974124 0.13752417792 0.13780120541 0.1389507911 0.13767610392 0.13779691257 0.13928840918 
0.13849013749 0.13811542141 0.13999698193 0.13981833407 0.13919217728 0.14123640998 0.14228704398 0.14097263156 0.14312306846 
0.14562185476 0.14370313311 0.14559553825 0.15094472733 0.14757310014 0.14894494793 0.19881180958 0.20164484696 0.14487224742 
0.14084827053 0.13908943295 0.15530196691 0.15679686143 0.15634976095 0.15524621271 0.13446294094 0.14049498219 0.13257307329 
0.12886688183 0.13166326029 0.13275740854 0.1534594434 0.15366216349 0.15451462886 0.15392683192 0.15363101472 0.15460339668 
0.15472597862 0.15437273253 0.15531036741 0.15584541836 0.15534165062 0.15640839526 0.15678828902 0.15640716074 0.15758078221 
0.15732220425 0.15716334672 0.15852403728 0.15754050332 0.15746391163 0.15911178189 0.15751355154 0.15754949121 0.15931418543 
0.15715128635 0.15739038507 0.15917710429 0.1565333934 0.15681769211 0.15867257858 0.15565815476 0.15604963792 0.15779410898 
0.15501393375 0.15529450477 0.15687858885 0.15484906035 0.15471036119 0.15611748514 0.15510941273 0.15487759089 0.15571465657 
0.15645187817 0.15527015556 0.15579685376 0.20304866108 0.20497965136 0.17876299942 0.16867152883 0.14244330561 0.14587823163 
0.15152914871 0.15212022284 0.15262142635 0.1515601315 0.13486791075 0.14022922121 0.13367553455 0.14358219094 0.14690242427 
0.13983841459 0.14832714479 0.14903569613 0.14458199321 0.14935611255 0.14873696885 0.1462219599 0.14936414283 0.15044921085 
0.14829585746 0.15192823364 0.15366387777 0.15084760824 0.15639608284 0.16029963014 0.15479064751 0.16138331665 0.15640229889 
0.16413404409 0.16479397914 0.16480668302 0.16442028258 0.18862687316 0.19479122058 0.15265537362 0.15011412253 0.15462688832 
0.14816331699 0.1469041608 0.14921416596 0.14636844536 0.14661137107 0.14584253138 0.14579044712 0.14445581084 0.14322112053 
0.14258162315 0.13916803626 0.14046775218 0.13616914103 0.13054298554 0.13556994499 0.16928527518 0.16297901194 0.1425209184 
0.14471888403 0.1385535222 0.14547680271 0.14530015405 0.14180514802 0.1451550189 0.14448201636 0.14281912839 0.14559656432 
0.14692662547 0.14471754782 0.14918052242 0.15261892944 0.14783165257 0.16018177501 0.15926341984 0.15844561342 0.16021347655 
0.15658617411 0.15585153617 0.15656136246 0.15529559618 0.14964827246 0.1480622848 0.14696835118 0.14627628126 0.14742160129 
0.14664298196 0.14744124056 0.14549005122 0.14716021903 0.1466026042 0.14445330229 0.14543390054 0.14234501683 0.14285310219 
0.13951139645 0.13406840847 0.13850399894 0.13139140315 0.12863064242 0.13269764438 0.20012369594 0.18783280656 0.15641097852 
0.15265859348 0.15144282132 0.15999093532 0.20126946598 0.20441881007 0.19040847691 0.1606980603 0.15819292762 0.1550668044 
0.16437607553 0.16239016701 0.16596717466 0.17480320857 0.14057962832 0.17874182183 0.12762361444 0.13371142781 0.13615292374 
0.15368710452 0.1537470795 0.13742295069 0.14318087205 0.14346090901 0.15327098164 0.15268516525 0.15282987641 0.15398791659 
0.19340170291 0.19976863018 0.15393494917 0.15396596831 0.18797790286 0.19700588852 0.17602996867 0.14163853729 0.13779194821 
0.19274171576 0.19545643114 0.15910755319 0.15730767067 0.15671040455 0.15870107538 0.13611129729 0.14611103915 0.14631999687 
0.18315638817 0.19365665355 0.18801501195 0.17479680691 0.18263272955 0.17832279028 0.13967763028 0.1369408407 0.12774816727 
0.12595293897 0.13010701866 0.15431763289 0.15725247845 0.17238005961 0.16463469681 0.19221884124 0.13330314116 0.14545410819 
0.14898338017 0.14947525195 0.16425511746 0.16441884206 0.16228866896 0.16289002763 0.16347211872 0.1638812145 0.16403080459 
0.16301848938 0.15928365502 0.16005216747 0.15779872895 0.1585673109 0.15843764934 0.15632715815 0.15706694503 0.15692092496 
0.15505779564 0.15566542765 0.15546516592 0.15401306438 0.15455739183 0.15426913082 0.15340395344 0.13433527268 0.13551072389 
0.16084424254 0.16156469462 0.16163839057 0.16003824335 0.13394589104 0.13562971062 0.1641123626 0.16376878661 0.14077464018 
0.14157051068 0.14449398537 0.14560388377 0.13936311429 0.1399419486 0.14268965648 0.13806487234 0.1385009248 0.1408475866 
0.13698540082 0.13722961913 0.13910906087 0.13611993171 0.13635535532 0.1375864642 0.13510178689 0.13532642108 0.13613218406 
0.13407576462 0.13385843381 0.13405527713 0.1320571025 0.13964356804 0.13904278446 0.14092900748 0.14043081935 0.14002262297 
0.14211194233 0.14160083825 0.14152854817 0.14339435466 0.14280402903 0.14287665341 0.14479019256 0.14417168993 0.1443697434 
0.14634601044 0.1456362415 0.14597856034 0.1476906609 0.14707405576 0.14755174638 0.14890008997 0.14831087519 0.148880309 
0.15049110898 0.14966578218 0.15008476021 0.15185624117 0.15119096975 0.151731006 0.15285921546 0.1524364687 0.15301337354 
0.15545742991 0.15514285958 0.1530138849 0.15502112832 0.14801265976 0.1485096028 0.14907648483 0.15016785915 0.15094691071 
0.1501026263 0.14698168293 0.1474794931 0.14809387683 0.14601062207 0.14643374132 0.14701093136 0.14508088716 0.14549705022 
0.14593846431 0.14422386156 0.14454653941 0.14488396846 0.14348225758 0.14375102823 0.14385608866 0.14274103648 0.14300263747 
0.14286265255 0.14202661226 0.14224362839 0.14183398984 0.1413908875 0.14142825366 0.1406805697 0.14267192504 0.14171675969 
0.13990707588 0.14522452851 0.14420471425 0.14189466883 0.14695704647 0.14677514068 0.14648938756 0.14402632728 0.14528108212 
0.14159628777 0.14293046107 0.14285282269 0.13939149876 0.14042642877 0.14025970827 0.13927800283 0.13951383919 0.13890151659 
0.13956073304 0.13962811582 0.13966872347 0.14015607771 0.14007678316 0.14058954443 0.14104351406 0.140779855 0.14170629863 
0.14218613315 0.14173032855 0.14304356627 0.14391630739 0.14303871365 0.14456222673 0.14588004553 0.14471752892 0.14634425613 
0.14823380224 0.14689355618 0.1483064275 0.15149299297 0.14944895445 0.15056276668 0.15555306638 0.15276333787 0.15311050282 
0.15541454616 0.13528760199 0.133917138 0.16550539058 0.1780609417 0.16974215898 0.13565581207 0.13325800331 0.1321366727 
0.13616683208 0.18981054157 0.18571774211 0.13562086232 0.13404124264 0.13556336355 0.15667701342 0.15605468563 0.15667181276 
0.15810160795 0.15743686727 0.15821884299 0.15950156641 0.15888713361 0.15990584503 0.16053786479 0.16008474897 0.16141813227 
0.16116555665 0.1609182741 0.16251168357 0.16134446577 0.16131223334 0.16314184933 0.1609936063 0.16121267891 0.16314724667 
0.16024282974 0.16071226451 0.16262644432 0.15914026937 0.15965619416 0.16159625146 0.15781992349 0.1584025074 0.16011493431 
0.15659291577 0.15710259604 0.15845378204 0.15583192663 0.15598611788 0.1568698819 0.14561295731 0.16447309708 0.16436612564 
0.16426622181 0.14252022878 0.14341148098 0.14656558695 0.14457407214 0.1567320387 0.15574041045 0.15549288625 0.15236099764 
0.1374605379 0.14035804997 0.13717681905 0.14179413144 0.14347397806 0.14051953791 0.14465822809 0.14602429587 0.14359276189 
0.14722600318 0.14837415146 0.14607623803 0.14977155638 0.15121531535 0.14868882734 0.15322906868 0.15585233425 0.15196159537 
0.16600921068 0.16014801915 0.15742422579 0.13803417566 0.14229451411 0.1720895657 0.17751049044 0.18195815337 0.18676281782 
0.18807459571 0.1496820465 0.147778277 0.15085698817 0.14613589673 0.1446966774 0.14667116263 0.14306279188 0.14137756169 
0.14328555835 0.13953107818 0.13754990259 0.13967000499 0.13616973029 0.13349933561 0.13637052738 0.15149144692 0.15546419269 
0.18139292809 0.18440727475 0.17386665817 0.13895244381 0.14022631553 0.14139568913 0.14246860237 0.14013876609 0.14378618248 
0.1449452093 0.1426167235 0.14652459636 0.14867496248 0.14976642219 0.14546502637 0.18600565804 0.18631199714 0.14779111104 
0.14661429802 0.14556176341 0.14473255265 0.1459894856 0.1438293755 0.14273215659 0.14385156111 0.14152304821 0.13989056707 
0.14156144701 0.13899064464 0.13639920823 0.13670861966 0.13907078187 0.18973770959 0.19094977861 0.18451026421 0.14268182225 
0.15486866219 0.15486482379 0.15564867144 0.13379732102 0.13584565403 0.13789366513 0.13580238189 0.13804643109 0.13754470969 
0.13578250756 0.138200036 0.18035122252 0.17202685782 0.16699775149 0.16050802406 0.16714024871 0.15672116944 0.16446784086 
0.15706048852 0.15909218588 0.16403389532 0.15749034586 0.15670125953 0.15844954311 0.15294805218 0.13008082076 0.16347562694 
0.16328018699 0.16269055863 0.15619834652 0.14866280189 0.14667574474 0.14815506713 0.14120576209 0.15451384973 0.15465115579 
0.1535116825 0.15589699052 0.16200068049 0.16122898031 0.16219957259 0.16593250553 0.141263309 0.14563992325 0.18686135915 
0.1844999611 0.17782390255 0.18285703806 0.13461360793 0.13336180347 0.13506508422 0.1360076792 0.14361696422 0.14126744274 
0.13758947157 0.15497012573 0.15536665516 0.15481671722 0.15519147612 0.13785345281 0.14416678889 0.15552236066 0.15561608394 
0.15578427135 0.14199546764 0.14888022376 0.15108384561 0.15358499853 0.15074347613 0.15186566694 0.15181682452 0.1524562759 
0.18057181039 0.18517037605 0.18061530843 0.13741647487 0.14210905648 0.1757053538 0.13718473998 0.18400923153 0.18051328029 
0.17910969619 0.16476599985 0.16162708793 0.14976520714 0.14901972124 0.15252362859 0.16030808702 0.15940712348 0.15852193022 
0.16051017636 0.15658843723 0.15451110259 0.15522244828 0.15747714994 0.15827719332 0.15324961234 0.15377819666 0.13994998557 
0.14091174917 0.16839962233 0.16288748537 0.14253924292 0.14351316665 0.14341742973 0.16869872206 0.17255372506 0.15471902068 
0.14451025359 0.14546886064 0.14624032254 0.14229028381 0.14161543208 0.14373696304 0.14303299089 0.14328322292 0.14547536106 
0.14469744072 0.14493897193 0.14738596228 0.14652908184 0.14695058387 0.14893645078 0.14821274717 0.1489046321 0.15018010076 
0.14963578144 0.15042560658 0.15174755121 0.15079427125 0.15157592085 0.15326695284 0.15253245541 0.15336238451 0.15434664853 
0.15375679377 0.15461143774 0.15546610786 0.1594551024 0.15854790178 0.14651547519 0.14541378739 0.14927727172 0.14971894672 
0.15006390443 0.15081884366 0.15029662097 0.14596961368 0.14650430482 0.14824263888 0.14874303722 0.14946467356 0.14472317765 
0.14529018393 0.14587695006 0.14357948094 0.14407497401 0.14451520781 0.1423428557 0.14286961297 0.14314682337 0.1409199367 
0.14161034311 0.14173381653 0.1393977135 0.1400960261 0.13999923027 0.14024861614 0.16477549008 0.16450552875 0.18029455623 
0.18122199255 0.14010376132 0.13968502362 0.14162518939 0.14104203626 0.1410956416 0.14322303229 0.14260919464 0.14305057431 
0.14498223387 0.144242177 0.14502430391 0.14688513897 0.14594925822 0.14710681242 0.14870716558 0.14778233204 0.14908714064 
0.15055304177 0.14952822993 0.15087307068 0.15253161569 0.15129805539 0.15246841456 0.1773482517 0.17277977622 0.16795725196 
0.15129058362 0.14894540646 0.16177374079 0.16081974705 0.1611509211 0.16359900535 0.16280974755 0.16377440648 0.16474511238 
0.16416758354 0.16569471952 0.16538171735 0.16515056217 0.1669079075 0.16512191595 0.16532983956 0.16733216174 0.16434864119 
0.1648719697 0.16697485197 0.1629724058 0.16375637254 0.16589209754 0.16086672982 0.16182995429 0.16375596591 0.15859890492 
0.15960892122 0.16107806593 0.15632160159 0.15732097889 0.15835868555 0.13736641828 0.13864660435 0.16917905735 0.17621418185 
0.16485360531 0.16156355395 0.1662149217 0.16399502792 0.16484266827 0.16490275553 0.16520767382 0.13040270563 0.15871118567 
0.15479681742 0.15257416845 0.15967340714 0.14707064139 0.14761079296 0.14835613329 0.14716476267 0.14252049566 0.14380891259 
0.1451538808 0.14637382183 0.1441293732 0.14755941884 0.14894798887 0.14659070338 0.15059409645 0.15255897442 0.14942171677 
0.13332802135 0.13214572614 0.14055098321 0.13886820473 0.16610070043 0.15948815983 0.17486379427 0.17041761476 0.16410750623 
0.14190258845 0.14324302597 0.18104479425 0.17952885588 0.17717822883 0.15736147317 0.15659353766 0.15851685736 0.15592795035 
0.1567300152 0.15652324083 0.15497019896 0.14432542339 0.14325200441 0.14491777575 0.14240416267 0.14114736135 0.14286302634 
0.15582188628 0.1554292694 0.15645306869 0.17840377594 0.17891001236 0.15416592782 0.15379634978 0.15781631026 0.15795718586 
0.13480041766 0.13823481145 0.15507044888 0.15803507669 0.15342192745 0.15632324165 0.16408717703 0.16452052291 0.16505107739 
0.15824959926 0.15914863415 0.16003150097 0.15347622413 0.16980009233 0.1751005793 0.16395058477 0.16339559595 0.1645588216 
0.14090975915 0.14847343076 0.14958138233 0.15049857741 0.15169521239 0.15235705727 0.13807769856 0.1389153967 0.13638396564 
0.1373551603 0.14827688971 0.14643256533 0.14740431065 0.13947141936 0.13776988357 0.1610362857 0.16184553809 0.16022823826 
0.14014278041 0.16224767913 0.16275482253 0.16341009971 0.16256772534 0.16175193567 0.16307566962 0.17718327255 0.17171996295 
0.1768749396 0.17919379917 0.17717937624 0.17595105225 0.13786537938 0.13796643378 0.13825426803 0.13683135058 0.13686688163 
0.13861203086 0.13906834578 0.13768821753 0.15448034702 0.15537901879 0.13812961879 0.14073760356 0.17436018735 0.15446509236 
0.15307079307 0.15382636459 0.15477078513 0.14068922792 0.15563502633 0.17391821643 0.14847107298 0.1478957136 0.15027608309 
0.14377428342 0.14450065702 0.14612504528 0.14453052747 0.14208598628 0.14104815688 0.14220267025 0.14381321221 0.13978008146 
0.1414669952 0.14179877055 0.13958255564 0.13778449352 0.17581351659 0.14687432821 0.1452181573 0.14402578338 0.14745956484 
0.15672455844 0.15528706441 0.15500444302 0.15441262494 0.15164051063 0.15256965007 0.15334033284 0.1515560206 0.14809443954 
0.150767001 0.15154258673 0.16084021594 0.15983223762 0.16122819922 0.1515589866 0.15356190705 0.15305085823 0.17773428314 
0.17403413495 0.17519192765 0.1454733586 0.14443779528 0.16570038416 0.16849411034 0.14891074331 0.14785444614 0.15033403814 
0.16642828052 0.16625706818 0.14803590717 0.14912934835 0.14619875467 0.14520092695 0.14579155913 0.14818743972 0.14359181032 
0.15220211714 0.15229666957 0.15155776043 0.15371260067 0.15272196895 0.15417599138 0.15533517478 0.15453023453 0.15582285229 
0.15629571257 0.15582395929 0.15706974225 0.15747985871 0.16622085441 0.16479445499 0.15076060011 0.15121590081 0.14437549256 
0.14507360922 0.14709604444 0.14600065037 0.1413616229 0.14210733352 0.16890116958 0.17292235145 0.17042172066 0.16434586186 
0.16098420529 0.16146930548 0.16608786965 0.16505306226 0.15895519463 0.15380159625 0.14924333233 0.14822431662 0.14925783652 
0.15134931767 0.15037531601 0.15156843342 0.15295490813 0.15210403047 0.1534952779 0.1542647427 0.15350223431 0.15483367742 
0.15550741571 0.16829915423 0.1643433923 0.1723911041 0.17549043544 0.17345792503 0.16240950857 0.16087545308 0.16463058462 
0.16937664407 0.16879367283 0.16891261972 0.16932772623 0.16768223298 0.16869543647 0.17098055214 0.1642748447 0.16581270548 
0.16845777795 0.16095802733 0.16262934812 0.16422086579 0.15694316183 0.15854833663 0.15988056199 0.13885842706 0.14988450462 
0.15034075364 0.15118811187 0.15505319341 0.15769908534 0.15424529392 0.15753495468 0.15050230761 0.15151332491 0.14919355841 
0.15264157177 0.14044609463 0.15892798015 0.15763923882 0.16001934983 0.15632988048 0.15859717035 0.16968142579 0.17108007088 
0.15484271274 0.17222646862 0.17002424083 0.16654979536 0.13962472959 0.14263723077 0.14284740341 0.14354594068 0.14355571142 
0.16618631248 0.1694074822 0.16987537382 0.16392784862 0.15698064619 0.15796801635 0.16539282681 0.16472307019 0.16675697017 
0.14534236414 0.17083210188 0.16805839193 0.16390706631 0.15184124024 0.15297077625 0.16591924263 0.16711984088 0.16550052887 
0.15225559351 0.15022528252 0.15128475203 0.1552510139 0.15607737382 0.15577032151 0.15666682572 0.15343921915 0.1503308155 
0.15084675357 0.15003308812 0.15308309031 0.15936174875 0.16054652002 0.15817700158 0.16181704957 0.16284670064 0.1610028373 
0.15537822473 0.15208738581 0.16791782896 0.16700610784 0.16379248541 0.16281434435 0.16456528141 0.14599825948 0.14599505782 
0.14672145879 0.17335550123 0.17390986872 0.14449312396 0.14350885849 0.13823542601 0.14244913737 0.14144691439 0.15886617718 
0.14750016108 0.14803972885 0.14774109678 0.16974453983 0.17170603956 0.17435309087 0.16970084208 0.17168219602 0.15137029966 
0.17026565669 0.1619614335 0.16125657748 0.16019439456 0.14647127745 0.14396922595 0.14857432662 0.14914407021 0.15017907183 
0.14898340478 0.14707014288 0.14645434279 0.14743268257 0.14886431166 0.15998690001 0.16267243932 0.1611659204 0.16082221528 
0.1569172581 0.15429099659 0.16104239974 0.14523702729 0.1464002953 0.14796314887 0.14949512898 0.15499141391 0.15836293418 
0.17409020913 0.17348432401 0.15306320298 0.15399453447 0.15476349723 0.15279896613 0.17483580829 0.16821418927 0.16563146709 
0.16287036103 0.16547289207 0.16952320176 0.15710156772 0.1503878164 0.1520084371 0.15436412444 0.15157396081 0.15611773005 
0.15401270417 0.15435699724 0.14696054965 0.1579443601 0.1559219259 0.15511675063 0.14723242324 0.15645654945 0.15811258195 
0.14416516354 0.15599175209 0.16825119807 0.14962018435 0.15212675212 0.14849549718 0.15732353451 0.15850984609 0.16150113718 
0.1567246861 0.15886356462 0.16403242857 0.16486715092 0.16379890541 0.17078909575 0.17108623623 0.16825692569 0.13947646931 
0.14027950627 0.17199763646 0.17415347034 0.16723533408 0.15836356833 0.16143754993 0.15187056729 0.15239621514 0.14935784566 
0.16499200017 0.15823311794 0.15575826948 0.15327376494 0.15113783461 0.15006233447 0.15388313904 0.15985784108 0.15421132916 
0.15302046914 0.15447042881 0.156874574 0.15846369507 0.16406195127 0.15555020934 0.16055399644 0.16575152213 0.16518459882 
0.1620166433 0.15962996911 0.16605727647 0.15426964417 0.15607663538 0.15543578907 0.1549061098 0.15460707428 0.1539384427 
0.15323969455 0.15878683783 0.15806784516 0.16062485361 0.15656845205 0.15561915574 0.16644751827 0.16525456246 0.16286055358 
0.16422189418 0.16227191619 0.16982078192 0.16833544145 0.15257446535 0.1477886792 0.15915034994 0.15610844441 0.15799998206 
0.16084206799 0.15747828646 0.1612548572 0.16757799123 0.1668515363 0.16424790128 0.15968804958 0.16275204539 0.15257270057 
0.15994484856 0.16248540999 0.15057384623 0.15131652437 0.16362438403 0.15370160631 0.16194028555 0.16768484694 0.15392555166 
0.28960120802 0.15396290525 0.15400072003 0.15392998232 0.15372529532 0.15338154989 0.15299901271 0.15245893961 0.15114001552 
0.15194481937 0.14974928964 0.14892524621 0.148145926 0.1472249521 0.1466050671 0.14586258466 0.14454679835 0.14527460091 
0.14357647712 0.14320410022 0.14295616356 0.14284631901 0.14320109395 0.14365751461 0.14474861524 0.14561612331 0.14638075662 
0.14744163859 0.14838309992 0.1494895611 0.15054545098 0.15174131079 0.15270628059 0.15367297399 0.15493319075 0.15517869894 
0.1550630296 0.15464429096 0.15386339982 0.15246474647 0.15119751812 0.14917490743 0.14572475118 0.14341925286 0.14156021893 
0.13915743045 0.13720971986 0.13488128559 0.13169374659 0.12987516762 0.12851329249 0.12696791376 0.12592860867 0.12473179573 
0.12380118023 0.12303109164 0.12213342537 0.12196826912 0.12194942119 0.12216917662 0.1225593951 0.12339253084 0.12545234957 
0.12786364537 0.13022702284 0.13409722851 0.13811028326 0.14544125011 0.15344284236 0.17360401265 0.22081788468 0.15043199608 
0.14404653134 0.14284078377 0.14297694713 0.14420263793 0.15442071793 0.14760824095 0.13323835337 0.12256308883 0.12433946479 
0.28312765973 0.1539451762 0.22161091143 0.1746524929 0.15276020927 0.14397874588 0.13695749338 0.13287475798 0.12895141436 
0.12416911796 0.12198665511 0.12095009791 0.11985394572 0.11926300627 0.11873013842 0.11853299992 0.11850511528 0.11879210254 
0.11932253427 0.12194344728 0.1232567922 0.12463280418 0.12642933582 0.12943513891 0.13158188411 0.1335720751 0.13570047235 
0.13785088475 0.14022505348 0.14236840792 0.14499745922 0.14710569653 0.14924974075 0.15200672144 0.15282731362 0.15303685181 
0.15281437427 0.15208236866 0.15093654434 0.14966445454 0.14811586989 0.14674438797 0.1452076381 0.14286553032 0.14143441406 
0.1405907001 0.13970833763 0.13912289592 0.13863526165 0.1383546476 0.13816208336 0.13835257198 0.13870480133 0.13909358213 
0.13972357227 0.14034495571 0.14128633923 0.14218851436 0.14316973538 0.14491691837 0.14589117955 0.14687284391 0.14800857558 
0.14887173033 0.14988657605 0.15063188485 0.15141989499 0.15213814717 0.15281012801 0.1532727548 0.15371096053 0.15400547611 
0.15399546138 0.11995408358 0.12099196062 0.12646396585 0.11863203172 0.1279415145 0.15078426414 0.14397590662 0.13821091317 
0.14404995746 0.15393570998 0.15383205121 0.15384857136 0.15384363657 0.15385111252 0.15385329803 0.15407082545 0.15457683869 
0.15505922388 0.15577372451 0.156485137 0.15746260341 0.15914881513 0.1602823205 0.16125126624 0.16252276762 0.16350562152 
0.16475206273 0.16633835755 0.16720055879 0.16778215947 0.16839515442 0.16952485325 0.16942740474 0.1692341527 0.16887065574 
0.16848970248 0.16788550655 0.16726450833 0.166442207 0.1649932614 0.16390341831 0.16294216269 0.16181526405 0.15909566957 
0.15805858327 0.15666354701 0.15585797981 0.15531643018 0.15472416597 0.15432697593 0.15398578673 0.15384559444 0.15384024316 
0.16880471052 0.16940775489 0.16101391362 0.1599515105 0.16922795279 0.15829494365 0.16555496666 0.16578581276 0.15733490608 
0.15385648326 0.36537614913 0.32153915561 0.38153538926 0.31901416786 0.31434907997 0.36771415227 0.30526659093 0.35667811861 
0.29036322577 0.41931671293 0.13805994789 0.30438611436 0.25419444225 0.1088692105 0.1138485937 0.11833262648 0.12610940409 
0.13418130403 0.14521052196 0.15350705523 0.175711325 0.17139778643 0.18259163702 0.19312204716 0.21476070152 0.24242667405 
0.27239281561 0.18173075623 0.22447350268 0.17039549634 0.19481905518 0.22096344235 0.23112409294 0.18526946309 0.18995984583 
0.23525704722 0.23559353019 0.23003015678 0.19081187966 0.1792492162 0.21106219575 0.18846204807 0.22294156295 0.21781479458 
0.141942075 0.098963588854 0.34036738697 0.25900423201 0.11791322784 0.1007354154 0.13345680258 0.11631501181 0.15092275215 
0.17413511585 0.15261260594 0.19751132381 0.18331805976 0.22131209217 0.17368389041 0.40591871668 0.27580640312 0.33610054602 
0.37528502211 0.3735126523 0.31670098071 0.36945218771 0.36432826057 0.35841926055 0.34254561879 0.35105587688 0.24386559414 
0.29180311385 0.18868106396 0.20096982722 0.18235186472 0.20401732231 0.21718796427 0.22037837999 0.1946260835 0.20450216784 
0.31706415338 0.1314306849 0.10173915498 0.28696906808 0.22374415214 0.19150895462 0.17992340896 0.18494235075 0.15913633582 
0.1612060129 0.13770984083 0.13424124939 0.11409090283 0.098408357701 0.20463154825 0.39273790992 0.27536630705 0.33862620395 
0.31933484241 0.44652201528 0.3146002556 0.3755731188 0.35763133909 0.36421601395 0.34933879207 0.41014175734 0.39276643772 
0.34141456191 0.3339457095 0.38753106528 0.43907977345 0.37797642981 0.37517963239 0.37186171764 0.36558856106 0.39637629931 
0.34844101326 0.30987079879 0.14104616887 0.097089353117 0.2518991584 0.29379738679 0.17929626719 0.20718108963 0.15876743479 
0.16955666818 0.13757449912 0.16009130869 0.11526690987 0.12771439138 0.10772718271 0.20772536192 0.22505842088 0.27437122055 
0.20495049116 0.17566829461 0.1579258534 0.18411103027 0.20890768593 0.21962465267 0.1991848004 0.22421995765 0.11952031578 
0.29378646068 0.22268162674 0.13419428324 0.16675545708 0.19597363759 0.19605823209 0.2155413281 0.2132542739 0.21040630878 
0.20449265736 0.2008145044 0.1924446849 0.1943127396 0.19059497081 0.17351631176 0.18589932266 0.17069360471 0.16371709011 
0.15948992217 0.19880423172 0.29753152403 0.35273595941 0.33451690995 0.36588437636 0.33268529489 0.33241329918 0.30551283102 
0.29545419841 0.27977372058 0.26816839162 0.24957120919 0.23493405004 0.21639279003 0.20450954295 0.18175808079 0.17687940685 
0.20358929678 0.29789126825 0.34962866754 0.45684082427 0.34683152054 0.4323545244 0.3478239968 0.297926585 0.19024491072 
0.17292984742 0.17949693728 0.200859141 0.19902878615 0.22439941122 0.23410849366 0.25226186402 0.26344967785 0.28318723162 
0.29592050149 0.31360169756 0.31526002597 0.34693156527 0.32442083087 0.36236197466 0.28428713632 0.17788529198 0.17985112057 
0.20797096744 0.21968943061 0.24169231824 0.25214949709 0.27117131912 0.27930710112 0.29833203796 0.30710192295 0.32936142622 
0.3334305178 0.36544041438 0.31542689521 0.3477400508 0.2823253506 0.21084429648 0.20432573641 0.2181565157 0.39009479402 
0.31798253044 0.3478525253 0.30773205779 0.30467472922 0.29003297995 0.27576437305 0.26346829062 0.24913188788 0.23764250769 
0.2202048666 0.20776285707 0.19172727353 0.17824012182 0.15868295283 0.19086446268 0.33491061523 0.2208404264 0.36660344941 
0.62013249192 0.33333663226 0.30385807823 0.35440230314 0.33680463645 0.3559012019 0.35942573046 0.51232544735 0.38880277258 
0.68210954301 0.65209536109 0.67388831754 0.68011902536 0.66493727721 0.6609699537 0.64658378043 0.62831942967 0.61175137902 
0.60211782193 0.52241183667 0.43893492193 0.76764641441 0.7373970193 0.64974710835 0.30943734137 0.28840199129 0.3353215049 
0.32601378702 0.32965870053 0.35754330671 0.35119035768 0.36194401096 0.32751500794 0.36015975213 0.69374208755 0.65676164708 
0.66055510401 0.66123544285 0.6502878002 0.65692120678 0.6305778092 0.63784698939 0.58840795712 0.60127695293 0.45571634428 
0.50241008156 0.35092362117 0.35033530674 0.38488858122 0.40452165015 0.67128215227 0.29771655882 0.34267664587 0.27330183626 
0.40067375236 0.35362175554 0.53888936614 0.19353972354 0.34268395259 0.29952082282 0.35780002512 0.359968145 0.3158503 
0.3157352811 0.29333764071 0.30188237829 0.26430915509 0.27829123209 0.23625123117 0.2472345224 0.20423856389 0.21255324306 
0.15126926588 0.18408430553 0.30913664786 0.19882799087 0.51950673736 0.3012615869 0.3990480411 0.31030314545 0.29104816843 
0.21577235725 0.33482633178 0.16432797806 0.1429186192 0.20811581996 0.18198310371 0.23270182113 0.22434603024 0.26212630145 
0.24781840939 0.28448909469 0.27497211062 0.31066292066 0.30589230741 0.34189051878 0.35019715825 0.30905321675 0.33426783525 
0.37926958029 0.39690672923 0.43727760661 0.20348419829 0.17623690487 0.21431031162 0.20472020967 0.24894931167 0.23713681303 
0.27906195217 0.26716963959 0.30271678819 0.29432203219 0.3135308167 0.31844746922 0.35488271467 0.35418888305 0.28241747498 
0.35534411014 0.1973076533 0.21224648196 0.40726412858 0.21666553781 0.33379403259 0.34272397656 0.29832747247 0.30710494464 
0.27045714044 0.28568886698 0.24698253669 0.25809350431 0.20670721683 0.21359066209 0.1734596899 0.18333310703 0.20164437581 
0.6311559664 0.33070318905 0.28849063868 0.32626748681 0.33215605675 0.34961756099 0.35383945267 0.35433338073 0.35963773484 
0.34486384375 0.34562346281 0.5399831316 0.6712223629 0.63609444826 0.67261087969 0.6728132933 0.65982251946 0.66643284083 
0.63319848594 0.64214077026 0.57974672794 0.60552030968 0.45767137951 0.52532903705 0.73923740788 0.29706021141 0.3851399771 
0.33967352112 0.32972600209 0.36655603309 0.3533142797 0.34849182723 0.361459828 0.36724688019 0.51129612179 0.69522547214 
0.62796725829 0.66091454415 0.66249426828 0.66224558155 0.65381507082 0.6407030364 0.62705163584 0.60131121693 0.57979931129 
0.52881398515 0.61786886593 0.21584866082 0.35804013074 0.39696384343 0.80406934769 0.31746625029 0.26487607925 0.23506224277 
0.37274205954 0.29659848067 0.31831417781 0.226049906 0.1100710723 0.13388049504 0.17885153073 0.17170261495 0.18257819392 
0.1927219423 0.19436778046 0.1964235572 0.2005750805 0.20321943628 0.20828368813 0.21098580393 0.21549707613 0.21702087067 
0.23587699145 0.23210459567 0.20780851173 0.19424517615 0.15918363176 0.33395023185 0.25409035978 0.14411232603 0.17489793593 
0.15515800488 0.1808615032 0.1846674412 0.18885139898 0.18755320401 0.20172389984 0.1953164024 0.19990473468 0.20407539563 
0.22416677038 0.21221161575 0.21650535204 0.21817556944 0.19286739855 0.1549184225 0.14906987113 0.21851228493 0.12248247026 
0.27080264542 0.32432138567 0.23194017924 0.21451943143 0.6025263362 0.57911584492 0.25999739706 0.27439239994 0.6729149192 
0.67340126089 0.34469679602 0.27810883452 0.34401402085 0.38716511814 0.29124068625 0.3103314845 0.29770932486 0.26171917907 
0.65840965806 0.66385657294 0.33864411694 0.30338341961 0.1894579481 0.33365077227 0.29885090704 0.39133437539 0.24520479845 
0.19236464314 0.15068141531 0.27170720391 0.42189047372 0.53058717592 0.18348030932 0.19387140749 0.29823748212 0.33580500092 
0.33020379521 0.30215140935 0.19279018063 0.5082433726 0.34881087087 0.32652928298 0.62657052737 0.2549835853 0.28546391393 
0.18988039229 0.66273005079 0.14183379649 0.186516447 0.18481391076 0.30422911799 0.27541932093 0.40815767675 0.20065214432 
0.29050903355 0.65088779686 0.32603204063 0.34170007432 0.26476777154 0.21614696711 0.38514117976 0.35739824924 0.36850565072 
0.33203932053 0.49183517911 0.33584554049 0.19720779304 0.31850266927 0.31608884319 0.16330387715 0.16382900367 0.24705858651 
0.24924316031 0.2749237253 0.40850617551 0.39455137622 0.28243958614 0.28560893664 0.29076273311 0.3403585132 0.14316458518 
0.12883042834 0.33156253433 0.3289902209 0.16347089948 0.71791477225 0.77791155597 0.59737034349 0.32464657378 0.08999285812 
0.24765265887 0.31640435098 0.42599631505 0.67324894301 0.65666151017 0.1058003491 0.10113798894 0.10289537127 0.28757159895 
0.38242981857 0.34332337366 0.11560839902 0.1166240261 0.12061663871 0.12593096792 0.17302863626 0.61948535318 0.67291109271 
0.34007277117 0.31935406216 0.6385686155 0.63326843298 0.64973114852 0.32652495934 0.66693528682 0.66679087461 0.64692166023 
0.19026347973 0.28272297393 0.32373673094 0.66525584115 0.66933596883 0.3365196383 0.34487230045 0.30692691093 0.42500409459 
0.12494823832 0.13394610096 0.14107701275 0.29925624212 0.24225183292 0.14042794821 0.3216562091 0.21533466678 0.57710328352 
0.48899455672 0.55945738342 0.21281759438 0.22944562608 0.32279512094 0.22742018263 0.1869394834 0.31640559725 0.21297164752 
0.29150853777 0.19573984622 0.42268364089 0.42214702843 0.44215550979 0.62595572054 0.63809326966 0.31645443314 0.69470553149 
0.29750541961 0.11024442961 0.10309636716 0.10068746148 0.23352328851 0.28103018741 0.17944221994 0.58424032278 0.1799278125 
0.1069574879 0.13614935799 0.10044271861 0.10005411757 0.090166577594 0.11409042986 0.11039079073 0.12152007139 0.12182848763 
0.30368595336 0.60863005304 0.16177028481 0.16843556555 0.16314585467 0.16436578823 0.17028496479 0.1196321208 0.12851389072 
0.62678784106 0.11105879472 0.11341375778 0.16083288408 0.65583183967 0.16853792592 0.1792885481 0.50699089834 0.56504453088 
0.12830406606 0.11972771279 0.12019458284 0.3114970088 0.093629770626 0.086458985996 0.089858180454 0.10816416761 0.24001100292 
0.30235564876 0.1176948779 0.097418809866 0.097018675994 0.11614800128 0.10601937184 0.10942166482 0.10599729915 0.17708533133 
0.31672112661 0.30142728181 0.4108741238 0.11166146787 0.34705425607 0.10101090362 0.09809030845 0.09620252206 0.26320826826 
0.09001601317 0.096826603332 0.094672034986 0.092178488019 0.35512012357 0.12515969404 0.57910752559 0.63328733222 0.30444642551 
0.089200931746 0.67074463665 0.15902956435 0.10777207486 0.086978826268 0.52211030856 0.096260454933 0.14266959035 0.14220160012 
0.14228479205 0.14175741528 0.15116351018 0.15302138071 0.15335149948 0.14678035494 0.13971649989 0.14379308993 0.14538048009 
0.14595876509 0.14659814625 0.14213696648 0.13996941495 0.14142373943 0.13828157813 0.13712304069 0.13909027663 0.13811115052 
0.14818902968 0.14744935334 0.14514139378 0.14433593024 0.15716588487 0.15578137215 0.15551695033 0.15755724298 0.15791960394 
0.15612468384 0.15085433215 0.14821629933 0.14690841041 0.14705351817 0.11043462986 0.11320723744 0.1205411989 0.12193377635 
0.13130236871 0.1318360222 0.13382273754 0.1473168319 0.14921166196 0.15004306364 0.16050916054 0.16228762696 0.16072148046 
0.16252868292 0.16029529908 0.16192964076 0.16002434109 0.16160731259 0.15966430353 0.15858693407 0.15917857496 0.15517998132 
0.15548837463 0.15553803859 0.15600430307 0.15068417238 0.14959220433 0.150874018 0.15528801728 0.1572167976 0.1528618075 
0.15152967966 0.16667079513 0.15387744589 0.15319696323 0.14837672603 0.14943918469 0.14722736065 0.14827976142 0.15398740139 
0.15225626076 0.15268347697 0.15352772143 0.14525615705 0.14612602253 0.1460336483 0.14602425605 0.15235063318 0.15011783281 
0.14930515389 0.13324398781 0.1344468065 0.13448087893 0.15763981959 0.15862490068 0.15798640038 0.14756992447 0.14669060768 
0.14765150563 0.14677054222 0.15734134714 0.15515988928 0.15810062715 0.15627468692 0.15717819618 0.15686267654 0.15774790698 
0.14955656211 0.15001545736 0.15209814953 0.1593785764 0.15120891679 0.1484044781 0.1536110144 0.15174601927 0.14826987612 
0.146982583 0.15390659512 0.15386684511 0.15410383901 0.15004357123 0.14405339583 0.15501201352 0.13800327765 0.13670408468 
0.13819728678 0.14365246955 0.14367380413 0.1455826416 0.14286540135 0.14149859447 0.14134710595 0.16866423599 0.17062866548 
0.17110938871 0.14264799142 0.14247804606 0.14249894155 0.15084542507 0.14832760001 0.15259949417 0.15331819673 0.15218560452 
0.15290348648 0.13762448382 0.14092271199 0.13518418904 0.13944706131 0.16542490687 0.1636507805 0.1647477633 0.16598646419 
0.16582558993 0.1667432871 0.15950268272 0.15891545376 0.15858209005 0.15391114827 0.15377554793 0.15367516512 0.16067303672 
0.16055163834 0.16122107917 0.16111080114 0.14333605568 0.14351440291 0.14243192494 0.14263362416 0.16284108123 0.14832085772 
0.14931450855 0.14976421373 0.15093090821 0.15549545094 0.15652882785 0.15563245979 0.15393662 0.15404338188 0.1532541388 
0.16195689721 0.15895219555 0.1601611013 0.15357242838 0.15326176148 0.15329584197 0.1398755728 0.16321172455 0.15827216942 
0.1598058343 0.15111886216 0.15172928818 0.15170203314 0.15755638542 0.15636455344 0.15606553243 0.15544474249 0.15585613047 
0.15519934076 0.14862159207 0.1472169947 0.15079598445 0.13946828807 0.13766167964 0.1409204076 0.13613202104 0.13832778671 
0.13657880452 0.13888851907 0.13825539562 0.13600474361 0.1391197936 0.15712702319 0.15352474953 0.17843593643 0.17597975377 
0.17192452623 0.14185728353 0.14035295697 0.14012821696 0.15351156382 0.15396272409 0.15447561926 0.14218242663 0.14438705674 
0.19110483067 0.18370313278 0.18618117058 0.15118174065 0.15242905188 0.15017019161 0.13812691356 0.13910872013 0.14154957369 
0.13240456992 0.13210587632 0.13359837317 0.14682395448 0.14298606742 0.14505281039 0.14215498968 0.14262555354 0.14177722099 
0.13369266344 0.13428220491 0.13282902367 0.14386083593 0.139633434 0.14178329741 0.13792778653 0.12986331191 0.12761031895 
0.12887700834 0.1341375265 0.13548712386 0.13522222057 0.16173175491 0.1618021912 0.14099854504 0.15233184051 0.15253994401 
0.15270788208 0.1428070148 0.14474024182 0.15650165067 0.16654681686 0.16573887986 0.16696050215 0.14799995951 0.14850254104 
0.14745459564 0.14796776704 0.13015270822 0.15705828522 0.14530573158 0.14563351141 0.14522846179 0.16542821154 0.16138459642 
0.16411798588 0.15667549788 0.15748062231 0.15721795245 0.15801161622 0.16821216117 0.1682240102 0.14391331833 0.14433354702 
0.16141547551 0.14347466787 0.1436588393 0.14420560096 0.15310982764 0.1526222139 0.15321150223 0.15577034932 0.15570010421 
0.1562663852 0.15614584683 0.13343739375 0.15659745691 0.15739857655 0.15738044263 0.15699903927 0.15745210867 0.13916441723 
0.1396916275 0.13908026196 0.13787326248 0.13853397222 0.13942260443 0.14001850517 0.13467778077 0.13660210004 0.13760109311 
0.13858278101 0.13948159739 0.13762850867 0.14024626229 0.13787717885 0.16024201071 0.16111177509 0.16097199656 0.14427847099 
0.14426509994 0.14501582454 0.16041253418 0.16096548134 0.14578022255 0.1474032556 0.14731493435 0.16193932473 0.13403197795 
0.13397766777 0.13255298443 0.14704868359 0.14920019691 0.14714079261 0.14928755673 0.15635111057 0.15979759195 0.15931383553 
0.15612872089 0.13706579317 0.14012577915 0.13503567305 0.15385620065 0.15563042696 0.1566439052 0.16443747944 0.13814279858 
0.16856765644 0.14071296781 0.14090562043 0.13995017377 0.17030189558 0.16842890262 0.17977330079 0.17396265631 0.14257416013 
0.141583661 0.14134429114 0.16231839493 0.16244382374 0.16181425994 0.1517892251 0.15113661265 0.15186776743 0.15045324268 
0.1497918045 0.14982298795 0.15472708842 0.15886187368 0.15435269678 0.15118886531 0.152004504 0.14421601745 0.14395617162 
0.14406873805 0.16650516607 0.15948628958 0.15879692866 0.1593643085 0.18287203056 0.18946625638 0.18705517545 0.19406645562 
0.14275157618 0.14202975425 0.14269349177 0.18973707887 0.20544117849 0.19472187187 0.18762069642 0.14009982724 0.14081948497 
0.13980977752 0.15247882645 0.15171491779 0.15081463581 0.22561128361 0.23937315972 0.25033464075 0.20733055044 0.14409388179 
0.14363807353 0.14336266968 0.14295376971 0.1573016487 0.15495493124 0.15503110933 0.16643119622 0.16885695493 0.17058459032 
0.17305462303 0.14001561216 0.14027419133 0.1461176234 0.14516391847 0.1448463078 0.12905663472 0.13327857258 0.12667344452 
0.15783132295 0.14186389407 0.14191980554 0.14303468191 0.15780638235 0.15781442931 0.15710881225 0.16026875287 0.15838504471 
0.1596152974 0.15779266741 0.15454622027 0.15401634202 0.15423895196 0.16433925597 0.17338878568 0.15638947045 0.16423884229 
0.15623529341 0.15564117741 0.15713775012 0.1458120387 0.14493604605 0.14476369835 0.14378074559 0.18576528262 0.16688253444 
0.19334329563 0.13542582627 0.14045611444 0.1397704918 0.1416547578 0.14103995754 0.14473056224 0.15473877942 0.15523861783 
0.15513719927 0.15383201551 0.15387894832 0.15807613064 0.15750769276 0.15739173175 0.15423441307 0.15424127361 0.15455624092 
0.1545240382 0.14570174736 0.14366131052 0.14425186974 0.16091506366 0.15898527336 0.15690094272 0.15672724968 0.15273790224 
0.15131335791 0.15047580197 0.15231632185 0.15590181168 0.15643973919 0.15523153084 0.15671669248 0.14969274412 0.16417739595 
0.16869451511 0.15012591346 0.14926605197 0.15258758829 0.1534382606 0.15137700728 0.14065826993 0.14142837635 0.15532933749 
0.15518939581 0.13621698875 0.14168014934 0.13463614866 0.15556943066 0.15614232394 0.15624750378 0.13767553297 0.13975801224 
0.13660417053 0.13877443289 0.13661430686 0.1268026825 0.12709689104 0.1304431928 0.14418664044 0.14048620117 0.14301991786 
0.12989772373 0.13455517042 0.13106153758 0.15354451042 0.15209369841 0.15697919632 0.15574571887 0.14480297567 0.14366375627 
0.14599246593 0.13639935503 0.13539772547 0.13573732385 0.12585157713 0.13124172208 0.1277671138 0.13722947811 0.13813688045 
0.14484625463 0.14603769415 0.1468617396 0.14814968844 0.14622462754 0.1477296796 0.14734695372 0.1452917986 0.14475314881 
0.14495766412 0.16258412738 0.16635586804 0.16226953849 0.1311011225 0.1290663218 0.13522307317 0.13719667792 0.13626468523 
0.14179415054 0.142185482 0.14038606324 0.14088345903 0.14371497559 0.14377408216 0.14483883998 0.14473611101 0.14455509414 
0.14280243997 0.14334078526 0.15908357103 0.15911679802 0.15982103402 0.15639331218 0.15744784238 0.16250676298 0.16492007094 
0.16272778068 0.1807219862 0.19018619493 0.19550626289 0.15360712773 0.15293698763 0.15477339953 0.16480958292 0.16458039752 
0.16439336747 0.15895505956 0.15988845763 0.15995436142 0.16493937703 0.16521662262 0.16388073672 0.16387701245 0.16354156725 
0.14790332349 0.14844821498 0.14795023901 0.16446736425 0.16436583692 0.16452392591 0.14870379711 0.14858308279 0.14811645556 
0.14771692452 0.1470427326 0.14614246595 0.14135706308 0.14303111711 0.14134848286 0.14053713494 0.14120885975 0.14074530682 
0.14148038459 0.16436869744 0.16421151537 0.15174984762 0.15110083816 0.1516658366 0.15319664921 0.15352938134 0.1527795159 
0.15664951449 0.15780929176 0.15733118476 0.14235096674 0.1535481961 0.14622038336 0.15834480816 0.14772213901 0.14834740446 
0.14838624127 0.14896037992 0.16737027294 0.16681149056 0.1661497161 0.14084595866 0.14072464016 0.14071770542 0.14058777898 
0.15294310936 0.16456251147 0.15577606242 0.15570236603 0.15544154995 0.15649528276 0.16214078459 0.16154455427 0.21490531361 
0.21469435329 0.16375758921 0.164145394 0.16370226892 0.16407904164 0.1785465626 0.182643567 0.1762785076 0.14318335292 
0.14342277134 0.14365475082 0.14387673321 0.16918963868 0.17021381884 0.16775686885 0.15257472483 0.15305516214 0.18059960264 
0.17762308096 0.17844797702 0.15112263219 0.15060453554 0.15045723823 0.14997412143 0.1400615056 0.13853902975 0.16533253666 
0.14593197631 0.14673923387 0.14611577158 0.13890001803 0.14236742545 0.1376037278 0.14267766158 0.14210064172 0.1427137849 
0.14216583713 0.14274949452 0.14325474986 0.14649220086 0.14765908793 0.14706553589 0.14828163578 0.15385953714 0.15442431263 
0.14067762618 0.13963917567 0.14045589609 0.15798574905 0.16014301487 0.13942742461 0.13918916107 0.13915346607 0.13930609338 
0.13906144666 0.13952009746 0.13933754568 0.13791468636 0.13858843724 0.13717092869 0.1330796046 0.13358566459 0.13964707986 
0.14365152281 0.1425099676 0.14620746527 0.14441655828 0.14548523244 0.14572651556 0.14617599266 0.15131665272 0.15192517899 
0.15176093191 0.1499979422 0.14564953555 0.18573369622 0.17880616438 0.14962494228 0.15004031915 0.14134265489 0.15272260565 
0.15322408516 0.15283796503 0.15321667142 0.15334304747 0.15371884951 0.13063117565 0.13200389601 0.13000251357 0.15493822914 
0.15573502833 0.15538390802 0.17139405747 0.17255863126 0.12924618564 0.1322925083 0.1319577718 0.15429822343 0.15415000454 
0.15338239999 0.15318616247 0.1348705479 0.16616640799 0.16618537712 0.14450617579 0.14979907875 0.1303507798 0.14026372843 
0.12424261779 0.12921293081 0.12871028933 0.15156842621 0.15266340934 0.1523358224 0.13842288366 0.13863465612 0.13721558024 
0.13721963422 0.15521797143 0.15492155043 0.13494519593 0.12813016342 0.1338910307 0.1571193903 0.16101285119 0.1569604434 
0.16109042051 0.15783492861 0.15667490729 0.15648657701 0.15530493887 0.15104506624 0.15195808229 0.13331855009 0.13200757996 
0.13099053252 0.12946512721 0.14366594695 0.15387412726 0.15232035832 0.15394714337 0.14209503476 0.16053424571 0.16113942394 
0.16222172736 0.16292266074 0.15604870766 0.15666047717 0.15719052633 0.15568589959 0.15650045095 0.1563794595 0.14380509865 
0.14422877831 0.14206133757 0.15850912749 0.14174692572 0.19498427579 0.2024400103 0.20211914661 0.14067202382 0.1302310992 
0.12909361134 0.12478499366 0.14427952577 0.14209083182 0.14518499151 0.14307470061 0.12766344861 0.16323049611 0.16281479769 
0.16318568954 0.14338185913 0.14422444067 0.14614498155 0.15898711662 0.1357362577 0.13397672643 0.13628190997 0.13481810702 
0.1958262864 0.19710376354 0.21810615196 0.14021139313 0.1668598895 0.15988235993 0.1639744489 0.16831357669 0.18374233053 
0.18251237362 0.15605990937 0.15722128395 0.15823590963 0.2227056558 0.2144468336 0.19891021772 0.25479017482 0.23811580354 
0.30020180662 0.13911690761 0.14039115939 0.15447921393 0.15413875542 0.15445246574 0.13790459393 0.13621521378 0.13169530757 
0.14470052557 0.14384401289 0.13929434046 0.13898328962 0.13705876466 0.11970973657 0.11106666248 0.11332725533 0.14027685016 
0.14151498464 0.14152383208 0.14454981629 0.14353921714 0.12938270424 0.14769599498 0.1302855085 0.13646542306 0.13731200204 
0.14501739104 0.14360809307 0.13420461181 0.13632330945 0.13393485612 0.13542058244 0.13609267623 0.13509476704 0.17606804349 
0.17149065746 0.1700684816 0.15011199283 0.14912580667 0.1550474439 0.15481688735 0.14864760881 0.147837687 0.14938001884 
0.14851740953 0.14052798338 0.14166827369 0.14097836464 0.15298752601 0.15133681905 0.13252655626 0.13576855017 0.14600968032 
0.14828355229 0.14691692896 0.15984356251 0.16066736766 0.15987637636 0.16072591701 0.16648786108 0.16573061553 0.16690795416 
0.15328999901 0.15162647882 0.15043374732 0.1557901145 0.16206716146 0.15754084335 0.16313066874 0.13964307173 0.13893294412 
0.14070676124 0.14116790609 0.14267046382 0.13723802416 0.14885374114 0.15085063097 0.15008992364 0.15509873612 0.15484459277 
0.15185203216 0.1528306518 0.15103782432 0.14709112183 0.148826287 0.14805524397 0.14983317865 0.13001549653 0.13227019008 
0.13056064709 0.15529888107 0.18852489695 0.21360833261 0.16284350717 0.16270882892 0.16369539353 0.14858521765 0.14913411022 
0.14998112873 0.15047987759 0.16147367723 0.16071017121 0.16147314084 0.14014721805 0.14034548935 0.13939742392 0.13964436953 
0.1571152172 0.16249692632 0.13231477964 0.15316483596 0.15279134852 0.15145571829 0.15264302922 0.15216305365 0.1396223691 
0.13905349989 0.14016186596 0.21171416489 0.20710808212 0.22680424524 0.16398618148 0.16351672421 0.16464042619 0.16422251591 
0.15060339344 0.15963992928 0.17006699112 0.15666871325 0.13994321465 0.14429784893 0.1439016822 0.15493623465 0.17966646018 
0.1423595807 0.18094859862 0.14572444383 0.14435325694 0.14430377753 0.16227998751 0.16617738824 0.16056262501 0.16399216194 
0.15288200229 0.15422046871 0.15347073599 0.15410026584 0.13595818377 0.13558964355 0.14240474609 0.14282765346 0.14427359465 
0.14586434951 0.14576247796 0.14413936821 0.14453895922 0.14986638579 0.14915595975 0.16145445546 0.15948234578 0.13161390441 
0.13268592219 0.13091073495 0.1334357957 0.1505967762 0.15053104608 0.14394099477 0.14474896635 0.1423009133 0.14300840518 
0.15991546032 0.15650080867 0.14526027331 0.14600208763 0.14661901024 0.18406578048 0.17212059321 0.14334134868 0.14687635712 
0.14739059461 0.15683830507 0.15619502633 0.13437010314 0.13163180742 0.16995857631 0.16773055401 0.14077500238 0.14568137258 
0.14702040918 0.14793350024 0.16086950517 0.15075324885 0.14687795559 0.14820948049 0.16150806922 0.16224983497 0.16347580671 
0.14535334962 0.1463579784 0.14914879084 0.1491596898 0.1483353785 0.15605475274 0.15200292791 0.15617775175 0.15183614507 
0.14240732713 0.14142178796 0.14127390099 0.140311123 0.16430307914 0.13915389582 0.1393596577 0.1691308659 0.15853464506 
0.15819967445 0.16109582713 0.16095505372 0.15147341253 0.15001673932 0.14951662923 0.14763709544 0.15290848479 0.15295406059 
0.154597748 0.64752323056 0.14153798995 0.14012867991 0.14220720771 0.1633268551 0.14423675355 0.1442536611 0.14454732471 
0.1556870077 0.15153441306 0.15403464187 0.14597852123 0.14605078074 0.14643644249 0.1442660133 0.14636257879 0.14293506594 
0.14492908164 0.14469326342 0.14488838214 0.14444114766 0.14466927069 0.14436028851 0.14434340547 0.14437718536 0.14452987242 
0.15396808905 0.15419998717 0.64985107432 0.14111495357 0.14084299391 0.14089503779 0.14066579726 0.12823329805 0.14792377641 
0.13962456539 0.15493700036 0.14710510193 0.14600347139 0.13885561383 0.13747523446 0.14024139797 0.14717828503 0.14876372072 
0.14767253044 0.14570786565 0.14705605766 0.14646478897 0.18429318717 0.17956758858 0.15988495273 0.15948576339 0.16093698537 
0.14820038125 0.1472750953 0.14782119401 0.14332993024 0.14851706012 0.14841403951 0.14773441697 0.14840955057 0.14849511587 
0.1148362375 0.12773531921 0.13075166026 0.13009858416 0.1479039709 0.1440538803 0.14514765388 0.14284696052 0.14387576098 
0.16770748951 0.14223077473 0.12937771777 0.13811085792 0.147570803 0.14609286525 0.14650666389 0.14691947605 0.16805902801 
0.17001081938 0.16922968541 0.14595954633 0.14524847497 0.12661705981 0.15894218604 0.15880273069 0.15956353382 0.15102709042 
0.15081133608 0.17801324741 0.18060526455 0.17583652199 0.17201826388 0.15973104513 0.16124605714 0.15916745372 0.19735091497 
0.1803400645 0.16839217068 0.16380146134 0.16106730427 0.16560328307 0.13217127493 0.17166638355 0.16468644038 0.17033260014 
0.17303907093 0.17350550795 0.17652824878 0.14782033685 0.15002400668 0.14844252547 0.15057379839 0.15604593781 0.15524572769 
0.15628901848 0.15569821292 0.15705997578 0.15734477974 0.15620039911 0.14984476917 0.15187999373 0.15965070717 0.20163000657 
0.15367188583 0.13543182912 0.13914246589 0.1365343126 0.17439772945 0.15900159868 0.15897908782 0.14084598556 0.1602181499 
0.16152511844 0.17254233712 0.1612371522 0.17516436618 0.16335354791 0.16287477181 0.16349511958 0.16324169454 0.16255576568 
0.18453137053 0.18303149606 0.18414349403 0.17995713075 0.1809167996 0.17715561748 0.15121128896 0.15068370117 0.17360089845 
0.17801050932 0.17298619769 0.1681844561 0.16419976469 0.16397267542 0.16346063948 0.16323914882 0.15104971216 0.15038221851 
0.1501435727 0.14979163683 0.15786996454 0.16109483113 0.16189450561 0.1605714908 0.16136781972 0.14326554026 0.14365383946 
0.14309676754 0.15547988052 0.15750102686 0.15755093325 0.15383074333 0.14357218976 0.14254307823 0.14095176954 0.14048703224 
0.14083026323 0.14043564137 0.14158766751 0.14794988945 0.14440616352 0.16607502282 0.16516585088 0.16540104018 0.11617528981 
0.15779693806 0.15521600964 0.15004776009 0.16487015399 0.15981130622 0.1607026336 0.14523864607 0.14666433841 0.14505481736 
0.13571926651 0.15920700523 0.15916444208 0.15992557199 0.1825888537 0.17922977379 0.17252313756 0.14645791238 0.14587418829 
0.14585571351 0.14453744746 0.14463860752 0.14534176105 0.15955253774 0.16128397944 0.15229690036 0.15416989647 0.15071544417 
0.15211945764 0.1497139142 0.15037892896 0.15790205512 0.10586610383 0.13294417857 0.14926181991 0.14884676657 0.14787327111 
0.14963857108 0.16284352253 0.1663934006 0.16492524923 0.14894007156 0.15102845884 0.15681349307 0.15572835836 0.15179658161 
0.14469136585 0.14668890913 0.14761454732 0.14790554916 0.15325580027 0.15225233612 0.15318088429 0.13397878607 0.1770036879 
0.17102163301 0.16151129647 0.16247816063 0.16156316932 0.16407043495 0.16374067247 0.15466410309 0.27044734235 0.2198966213 
0.23068162812 0.20452032948 0.16259306104 0.12650711557 0.129314939 0.12637458588 0.12641218387 0.15879431129 0.15554877982 
0.15511749999 0.15520928636 0.16209813112 0.16230079544 0.16155312323 0.14144719789 0.14061312809 0.13985907924 0.15862018105 
0.16314109871 0.16226210609 0.15802626865 0.15728087573 0.15820916088 0.16335362411 0.16434181586 0.14622004715 0.14577032046 
0.16936988248 0.14492768418 0.14473001284 0.14526953657 0.14934808751 0.14993265061 0.14988550085 0.14530861983 0.14600567092 
0.14587956702 0.1466366468 0.17557944464 0.1811119563 0.17720221225 0.17681736671 0.14464800349 0.14712129973 0.14029466229 
0.14409929298 0.14360430989 0.13482110452 0.13511537084 0.14056499214 0.14172623564 0.15297400896 0.15457266113 0.15216732014 
0.14107260815 0.14270766558 0.14351688781 0.14004875757 0.14122276515 0.13831200426 0.14038991965 0.15843784368 0.15493644314 
0.15841828819 0.16614303929 0.16524647702 0.16896167968 0.1679475668 0.15522748792 0.15726443818 0.15649348825 0.15447255269 
0.14973807689 0.16413287516 0.16606835324 0.16234753493 0.16408350989 0.14009181956 0.13962640276 0.18095316354 0.16553639935 
0.13439766734 0.14097739092 0.1422424149 0.14350049677 0.1442284783 0.20216483376 0.18943383987 0.185158155 0.15241941047 
0.1527449637 0.15088138912 0.15462465134 0.15414157467 0.15355439063 0.15308401558 0.14194560136 0.15473414948 0.1548079931 
0.13589649851 0.13333599452 0.13441319129 0.15512830485 0.15876246725 0.15578682998 0.1592458701 0.1468340111 0.14629533307 
0.14799179655 0.14747800656 0.14569333502 0.14654751779 0.17309767593 0.17513056708 0.1764085312 0.12992552354 0.14615962834 
0.14611551962 0.14665324404 0.14659254238 0.14554952777 0.14530001589 0.19510859462 0.18429653312 0.14478670088 0.15051975204 
0.15103344221 0.14982870382 0.16662403813 0.17446614711 0.14206117433 0.14157844751 0.14151336201 0.14102955819 0.138405201 
0.13778464815 0.15181476891 0.15222188788 0.13988938504 0.13190380951 0.13731687035 0.15307265345 0.14104219818 0.13604976255 
0.15375057268 0.15378011374 0.15383613898 0.13321375921 0.14038498386 0.15624759162 0.13517147732 0.13543653008 0.13573093841 
0.14539378519 0.14532922636 0.14458589624 0.14446831499 0.15810748343 0.16086989364 0.14848197285 0.15326650163 0.14871148515 
0.14790626707 0.15086894915 0.14761694484 0.14643204887 0.1464841304 0.14532181617 0.14962349813 0.16233624836 0.16192976387 
0.14651530453 0.14650062794 0.14729152489 0.14531818832 0.15535272859 0.15423079828 0.15466020189 0.16613090946 0.18070416486 
0.18524662345 0.17536357112 0.15731515925 0.15791275968 0.15653468257 0.14342332927 0.14368423857 0.14459465871 0.14490082579 
0.1542499875 0.15332266483 0.1421683232 0.14287967523 0.14281269165 0.14350607213 0.16602605433 0.16505041397 0.16514910819 
0.17212019674 0.16789541644 0.15119695584 0.16061914895 0.15996539332 0.15993458666 0.16191729311 0.16033064947 0.22094649316 
0.20263133395 0.15685106271 0.15823759018 0.15863850619 0.13601020702 0.16087448989 0.13549349511 0.13499927436 0.13759484919 
0.15679066549 0.15691863495 0.15038951709 0.14886629034 0.1521450879 0.140489256 0.14052080564 0.14088268762 0.15873703081 
0.15769504787 0.15655761402 0.15500547896 0.15340382876 0.14321711713 0.14599439036 0.14683246536 0.19149664504 0.19574650736 
0.13189631981 0.13070049345 0.14969381439 0.18625924643 0.17655794167 0.15146916383 0.21422718179 0.16567851931 0.16736211896 
0.16769651208 0.16364136012 0.15428537453 0.15412191212 0.15141152871 0.16462074051 0.14425526288 0.14458024043 0.14437268819 
0.13913235253 0.13921817336 0.14005212873 0.1400127721 0.16239638733 0.14044207281 0.1539799388 0.15919907422 0.15745713884 
0.18826057776 0.19354243831 0.15164832535 0.16987031256 0.16661440124 0.16760149204 0.15408623453 0.15458423366 0.15506148499 
0.15420889458 0.16785468566 0.17017644067 0.15858957804 0.15519038842 0.1558373868 0.1490549171 0.14977039425 0.16582636174 
0.16675430798 0.16651769544 0.16061721814 0.16098610788 0.17033632847 0.17134097563 0.17311921071 0.14696778353 0.14785386321 
0.14842573279 0.15455676544 0.15405036122 0.14962437226 0.19739514209 0.21535713461 0.15160966821 0.15089385805 0.15076404818 
0.1647217131 0.16479233593 0.16445463656 0.16449550945 0.14710521744 0.14755752648 0.14644416167 0.12664543123 0.13372386156 
0.15020066227 0.14168187028 0.11999241115 0.12655325515 0.16964883415 0.14871440173 0.14974976235 0.15022738305 0.17647560379 
0.17647641674 0.17317223324 0.16704604117 0.13573384238 0.14999853235 0.14891683058 0.15410353938 0.15024676195 0.16070138659 
0.16264899294 0.13187594773 0.13314198035 0.13438453989 0.13201274856 0.13408724767 0.16649611102 0.16774620169 0.16871062547 
0.16121136679 0.12800105667 0.12982943349 0.13021445114 0.15931548151 0.15982118556 0.15965731885 0.16201745542 0.13733184292 
0.13695796996 0.15863800508 0.15950301519 0.15804295512 0.15889433951 0.15703736366 0.16322033015 0.16306544403 0.16379280488 
0.16418681749 0.16458819857 0.12273010158 0.18837635502 0.15219990945 0.13988998207 0.15609416248 0.15526957216 0.15386130506 
0.14435090625 0.14496881058 0.14467099435 0.14529920097 0.14694180711 0.15433788521 0.13801269531 0.14508985243 0.1493384498 
0.14994262029 0.16019188896 0.16009032588 0.15340696371 0.15350007585 0.1485562884 0.14642830362 0.14942532128 0.15208946007 
0.15237317625 0.15632616936 0.15120906077 0.15068648612 0.15119115241 0.15070554951 0.14242579271 0.14310264645 0.14339243237 
0.15558139035 0.15483599692 0.15951224026 0.15822459112 0.14350711529 0.15508271037 0.17709668512 0.20027959057 0.17113950271 
0.18562949867 0.13908575536 0.14027213975 0.13487917542 0.13375092336 0.17099504169 0.13856084792 0.13841779712 0.24968348421 
0.24600359878 0.13255290767 0.13203316609 0.15497991214 0.15489341339 0.13871184855 0.16069966977 0.16873946439 0.13926480993 
0.14035670598 0.13917535903 0.15618982 0.15588496336 0.15513613138 0.11963413855 0.12423285694 0.12375077692 0.14904199189 
0.15475467585 0.15439417164 0.15450792856 0.15735625793 0.15681209298 0.14409988893 0.12940252913 0.12999539589 0.13705172465 
0.16560986524 0.15473649545 0.15583284809 0.15664329883 0.17156504353 0.16607971527 0.16370724117 0.15636156394 0.15584820831 
0.15279489737 0.15548340057 0.15586559967 0.15504847678 0.15555401461 0.14995434165 0.13653286559 0.1356917443 0.13518515649 
0.12746195573 0.15541873782 0.15574596195 0.15624796785 0.15639060112 0.15234448285 0.15219215018 0.15182580593 0.15449151543 
0.15320262485 0.15351119047 0.15017561574 0.15713121586 0.15279345576 0.13856709905 0.13828171558 0.14090588559 0.13108650179 
0.1332644719 0.13369543526 0.13527604416 0.16928547363 0.16539648221 0.16593055478 0.13438837892 0.14895876386 0.15096982275 
0.14629776821 0.14918929827 0.14601440316 0.14898982474 0.15849457862 0.15948129249 0.1577710454 0.12036061947 0.14130817283 
0.14210559914 0.14185922835 0.14261950706 0.15424799818 0.1406201525 0.14282179334 0.14233986358 0.13975531932 0.1364858421 
0.1500923161 0.14823238244 0.14717439104 0.15759656837 0.15696399 0.12839795727 0.14733404318 0.14686183583 0.14722989893 
0.14623527091 0.14625056085 0.14767523133 0.13639182954 0.13554010187 0.13602289706 0.14217093164 0.13987569856 0.14055843871 
0.15359503027 0.14159032726 0.142009276 0.13759427835 0.13636402357 0.13652877009 0.14627207423 0.16125052463 0.1435743303 
0.14268294801 0.14361106445 0.14321424664 0.14242936318 0.19619581322 0.18805922819 0.19565729545 0.18921431641 0.16491710453 
0.16574953471 0.16522416124 0.16446059513 0.16472592794 0.15503194875 0.15473655736 0.13582683276 0.13524902162 0.13334918266 
0.1326561247 0.15364515823 0.15371362919 0.15423464597 0.11620554626 0.19549636528 0.1841277579 0.14672959434 0.14667326728 
0.14675024095 0.14500853687 0.13932817625 0.13900303962 0.14372729606 0.14276614522 0.13875283287 0.14037950733 0.15660872757 
0.15223459396 0.13656195908 0.13376036752 0.18955803689 0.13248528684 0.12951331791 0.14048538735 0.14046955703 0.15524831128 
0.15458613638 0.15786394182 0.18178337251 0.18633125335 0.18744728408 0.14406603109 0.14673765963 0.14508287755 0.14783727852 
0.16768145854 0.16813390365 0.18031559861 0.17809481031 0.14526001807 0.15237011656 0.1537816825 0.16016754947 0.15094801174 
0.15159680888 0.14878175078 0.15523177535 0.15609218676 0.15271469683 0.18467427669 0.17561250354 0.15787139316 0.15964987721 
0.15828922121 0.15362646744 0.15496792374 0.15448756785 0.14166571667 0.14003126835 0.14253583212 0.1627181868 0.1634193778 
0.19463792989 0.15146841447 0.1154706622 0.14360652401 0.16420113764 0.14962466798 0.14896907689 0.16122941161 0.15755464867 
0.15816586295 0.15486672657 0.15586155032 0.15565181035 0.13873609087 0.13798037406 0.14851462125 0.14780160921 0.14705053897 
0.1574922713 0.15753600694 0.1581093092 0.14474819203 0.14168855203 0.14028151546 0.23892888496 0.2169803929 0.14179120724 
0.1452569335 0.16051598351 0.16051458127 0.1560514643 0.2041851538 0.20004749301 0.19320545127 0.14044679176 0.14008724461 
0.14074963508 0.15542713955 0.15564516796 0.15132503432 0.15205863538 0.13899197015 0.13741283002 0.15658702508 0.14303856315 
0.14680496668 0.1482361029 0.14759640897 0.12229076324 0.12573106577 0.12525598988 0.14286490277 0.14376019366 0.14355362301 
0.1682671018 0.16970433234 0.14612761456 0.19508413244 0.13971578183 0.13887168675 0.13943163546 0.17493593609 0.17699944652 
0.15138409332 0.13976057376 0.12394827617 0.13352628198 0.14426595164 0.1691867692 0.16882199508 0.17373184235 0.1763498363 
0.1575349203 0.15825291578 0.16047700173 0.14305454888 0.14439566455 0.14511246454 0.12652399516 0.14945021453 0.14996817456 
0.14464283159 0.14572369121 0.14525626955 0.15815885178 0.15724789801 0.15088786141 0.15025396316 0.14432620798 0.14336002136 
0.17552148378 0.17054889628 0.14212114915 0.12930700107 0.1324093082 0.12924072608 0.13217641937 0.16496035932 0.1580612169 
0.15596924537 0.16135026969 0.16125911918 0.12407226883 0.15160113021 0.1529988615 0.15315630105 0.14258302948 0.15310413031 
0.15418727746 0.13702776211 0.13759792308 0.15744343776 0.1352734756 0.12735566578 0.15502563554 0.14239925419 0.14167457858 
0.16517875066 0.16579165192 0.16467223553 0.15714063227 0.16400960894 0.12434763873 0.13774744258 0.15626742201 0.15613790071 
0.13700438316 0.12811518828 0.1281164202 0.11941934251 0.13367038768 0.13478942727 0.13580385725 0.13669167091 0.13291778958 
0.14130160796 0.12826967872 0.13298200694 0.13215059882 0.16281783342 0.16348821993 0.18696610881 0.14003888444 0.16120651261 
0.16531111801 0.16442425604 0.16755794686 0.16129790966 0.16069233649 0.14769457164 0.14582541276 0.16523817598 0.15238081258 
0.15202836214 0.14441636088 0.14334204674 0.14964412211 0.14775545801 0.15596220396 0.15894069263 0.15675792229 0.14375991226 
0.1431269037 0.15457158235 0.14625933808 0.12733046833 0.11831117755 0.16326931808 0.16765155906 0.2048842804 0.1885602386 
0.18054859128 0.13964945604 0.13848632679 0.15384799302 0.15392658467 0.15383384672 0.1538689032 0.15183868353 0.16435352613 
0.16425591073 0.14451930319 0.14931313912 0.15091220704 0.15210872892 0.14147155935 0.14210954775 0.14098626629 0.14295760261 
0.14354097239 0.15488337353 0.14289689271 0.16206846262 0.13706055954 0.14886870665 0.14973611171 0.17934255749 0.14554642087 
0.1557190164 0.13634318814 0.13867957861 0.15079259886 0.15304708153 0.15095064918 0.1642023218 0.15761358372 0.15684670557 
0.15674512915 0.1321396503 0.15849924838 0.15906060788 0.17039908431 0.16924751131 0.140407109 0.13208008363 0.15680109973 
0.15564555405 0.15660384305 0.1552708844 0.14124892107 0.14035873934 0.14067633902 0.12959696214 0.14986112771 0.15018788922 
0.1458775378 0.1710070089 0.13989755982 0.14067017541 0.15692814105 0.14874145515 0.14192652308 0.14268582844 0.16798396356 
0.16370760247 0.15887259979 0.15550830656 0.15922532393 0.15387435894 0.14076477626 0.15391997404 0.15753747553 0.14496083533 
0.1388483771 0.1398460628 0.14050458631 0.19554868473 0.19216230565 0.15086230876 0.15296880047 0.15350982546 0.1356462981 
0.15267349247 0.15667113638 0.15616079565 0.15782050363 0.15933225841 0.14915835082 0.14831909916 0.14956371306 0.1462625405 
0.13564093824 0.1552551266 0.1566831146 0.15606957031 0.15158973478 0.14914363775 0.14642006105 0.13535391838 0.14794838129 
0.14703388148 0.14746325495 0.16337682175 0.16807281201 0.14654470178 0.14483415441 0.14583619074 0.13923513497 0.14039083223 
0.1396615098 0.15617904705 0.16270708272 0.1643491156 0.16454495657 0.15943798482 0.15910302335 0.15675673941 0.16550750949 
0.16650708726 0.16611138469 0.13401766694 0.16467824606 0.16517448783 0.15762798937 0.16310450289 0.1639829027 0.13469195799 
0.12546989137 0.1255231479 0.12912047781 0.15182989419 0.15126736789 0.14300904134 0.14344204343 0.16451972301 0.16400480145 
0.14067539245 0.14110405561 0.1438392604 0.14153344794 0.13972544515 0.17765843257 0.17328760494 0.17044304001 0.17396933096 
0.14685932238 0.1546943076 0.15485898467 0.15613067047 0.14382084343 0.12347530748 0.16847597338 0.17008292183 0.1523227279 
0.15174810864 0.16449768865 0.15929779527 0.1567937574 0.13521969377 0.14007324421 0.15000688919 0.15080558295 0.15161527959 
0.15365483127 0.15360510593 0.13482130851 0.16628463754 0.16410810371 0.16396734916 0.14095511266 0.14083217691 0.14235643675 
0.1407035774 0.17290501566 0.14938342506 0.15087343349 0.14554825961 0.14820219399 0.14552185728 0.14375246385 0.16093855094 
0.1610633723 0.1425208334 0.15497291415 0.1544809855 0.1549504241 0.13774325942 0.16159904671 0.16226618112 0.16234587386 
0.20996697867 0.12964862678 0.14835831243 0.14778969434 0.14412036122 0.14565969376 0.13505107853 0.13325808394 0.13654070225 
0.16719289374 0.15144111868 0.13639986037 0.15738934376 0.1465487387 0.14701007882 0.14649803439 0.15495994612 0.15469129739 
0.13460631968 0.15894166919 0.14775150449 0.14837349827 0.14835690444 0.16089303999 0.16053051323 0.15879059617 0.15457296864 
0.14825202039 0.1379895768 0.15326055524 0.15532937278 0.15593093291 0.14461112828 0.15113247641 0.14730265836 0.14669747354 
0.1478765846 0.1490497031 0.15539842511 0.15590137264 0.1485429751 0.1464955996 0.13352118115 0.16220891847 0.16733814727 
0.17507562094 0.15449494327 0.16221915112 0.13659216917 0.13457669323 0.13460091099 0.13643470997 0.1546414504 0.13471364926 
0.1366042353 0.15116337972 0.15386844072 0.15219572357 0.15654050417 0.15439695426 0.1634729094 0.16498164937 0.15449929961 
0.16487909924 0.14536954256 0.14620939846 0.14663182512 0.15956232135 0.15213523491 0.14980251413 0.15586712322 0.16537969268 
0.16486498703 0.16532318164 0.16441766384 0.17894467908 0.16555755316 0.15577253013 0.15720877008 0.14933431274 0.1487114838 
0.15633503367 0.15666592579 0.15222224263 0.14402880975 0.1433817518 0.14536998735 0.14493985261 0.14537944013 0.15552723945 
0.16106313891 0.1591714138 0.13111507794 0.14992920437 0.14921802281 0.13581764246 0.15064024156 0.14374666583 0.14239174987 
0.1389513884 0.14445277507 0.15702630822 0.13876296478 0.14529610526 0.14418300623 0.14495036831 0.14510686829 0.1447815545 
0.14578207293 0.13970032739 0.14046495663 0.14155473007 0.15255667243 0.14857923857 0.16110255557 0.15878714528 0.1521262518 
0.1540473338 0.18201327929 0.14613629596 0.14613462225 0.13164224736 0.14364075893 0.1629383167 0.16270187741 0.1637207573 
0.12615010841 0.12919495848 0.13713079276 0.14966203958 0.12663906959 0.15237380774 0.15417907874 0.15581814143 0.15486589042 
0.15270280685 0.1547311992 0.13114094793 0.12888783924 0.1373435782 0.14878487134 0.13078300404 0.15317358637 0.14696413393 
0.14821061104 0.14637779761 0.14323887218 0.14470979266 0.13501070352 0.13555772271 0.13543230916 0.14737638803 0.14577579294 
0.16758746366 0.16137946877 0.17465335572 0.13695176769 0.13759693628 0.16821670667 0.16915934406 0.13574898853 0.13705902367 
0.10743255313 0.14722781376 0.14676053318 0.1461400454 0.14795910416 0.14196376401 0.14175663872 0.14252803224 0.14878565201 
0.15546494007 0.15559663311 0.13991259261 0.14107535951 0.15619320297 0.15571648552 0.15597268529 0.15547923975 0.13723546466 
0.1531730062 0.16132418232 0.15914090621 0.16301352936 0.16075549735 0.15153480543 0.15007497961 0.14447217458 0.17198508459 
0.14637774545 0.14557540414 0.14639053201 0.14259117442 0.14160426385 0.14431490665 0.14442073139 0.14418515428 0.14516837014 
0.12747988476 0.13418728704 0.13601085257 0.13428717781 0.13619372283 0.14209629747 0.14050451676 0.14180071912 0.14372689322 
0.1448279836 0.13932660066 0.13922895067 0.13927307057 0.13674845709 0.1415503571 0.14075024506 0.14095524744 0.15082383468 
0.14409024553 0.18714157268 0.19775735356 0.15914926968 0.15826592915 0.15968888578 0.16132993597 0.15938389319 0.16046257606 
0.15940865766 0.14926751055 0.15006474938 0.18243660802 0.1521902567 0.15799292648 0.15878701999 0.15065274425 0.15573550007 
0.13108504562 0.14331741151 0.1465840265 0.14861538127 0.14798830838 0.150566688 0.14998774944 0.14286812692 0.13311562829 
0.14404052206 0.14341141846 0.14373624743 0.14295873378 0.14968364802 0.16739170578 0.16653416995 0.15464313497 0.15692178333 
0.15561148018 0.15599087886 0.1540423841 0.18280063351 0.14437614 0.14428771762 0.15802882386 0.15247833343 0.14702473866 
0.14257454633 0.15548841939 0.15490895869 0.13965406418 0.15069558572 0.13212308667 0.13177130081 0.13747839691 0.1367591206 
0.13951475257 0.15361297152 0.15242843336 0.16039982464 0.15534820799 0.15465427183 0.15517726396 0.14623456032 0.14584953747 
0.1491867937 0.14891606689 0.14905741538 0.14947519444 0.14893904257 0.15298258912 0.20309441753 0.14453115402 0.1399943098 
0.13518471531 0.13859208958 0.14063416694 0.16389053775 0.16442807271 0.16275608535 0.14893998946 0.14943936301 0.15086402968 
0.1516181196 0.14880387143 0.14742449392 0.10867130198 0.16381703019 0.13505622063 0.15412419462 0.14257489819 0.14315679203 
0.13893564571 0.15194687705 0.15143665858 0.15849236382 0.15691452192 0.14902208988 0.13789096849 0.13917529307 0.14001873844 
0.13787362622 0.14039947496 0.14092728496 0.14348556877 0.14856423559 0.13553692425 0.15574036282 0.14345566707 0.15431871699 
0.15268227886 0.15221097312 0.15818226993 0.17018471874 0.1669891743 0.16519715986 0.16491439631 0.16481288346 0.16457636991 
0.14051920055 0.14461323354 0.13855241357 0.1384627062 0.13971675856 0.14117645754 0.13947204888 0.1353521897 0.15557311489 
0.15540161825 0.15908270292 0.13825570358 0.14863671987 0.14547390363 0.14452301005 0.14486435902 0.15219440161 0.15540180002 
0.15314505014 0.14420849523 0.1580269266 0.16013613363 0.16000278725 0.16211995905 0.17082588518 0.17510067616 0.17329561255 
0.18460131958 0.15303086122 0.15832879972 0.15177517201 0.15677780577 0.15456635003 0.1544085694 0.14120321225 0.14039454661 
0.14197565459 0.16168385111 0.1483107549 0.14897064372 0.13580078373 0.14231851327 0.14409401072 0.14712089507 0.14656767409 
0.14710138021 0.16696895068 0.16694763351 0.14697120287 0.147069967 0.1392844952 0.15569870359 0.14473949429 0.14472372542 
0.15566708564 0.15459826445 0.1538103469 0.15374816977 0.14575842778 0.15291089284 0.14411977597 0.15279070915 0.15217449084 
0.15015820643 0.15550834658 0.13801861198 0.1395187457 0.14069372944 0.14598815965 0.14666110703 0.14460152735 0.14473851068 
0.14563289371 0.14549802729 0.14451806669 0.14275485577 0.141733759 0.15871145976 0.14454059494 0.14222430631 0.14387752081 
0.14358589219 0.13906698112 0.13505004384 0.14758248364 0.13008582835 0.13829929955 0.13324525944 0.13455214326 0.13842438847 
0.14055999483 0.15624287956 0.15796901281 0.15661727028 0.13790448037 0.14772823077 0.13475918489 0.13186697105 0.15779563906 
0.15699752342 0.15749466773 0.15654979368 0.15413698485 0.15327012522 0.15120912017 0.15189585979 0.14259711006 0.13538902806 
0.16140633003 0.15062429989 0.15029236926 0.16292444596 0.14508775338 0.15026626188 0.16240322924 0.15508749218 0.15462708022 
0.15538592068 0.16429694401 0.15622326689 0.1628052844 0.15424425745 0.16209339839 0.15894005118 0.122329968 0.12264472043 
0.14426080326 0.15480160746 0.15021661517 0.15066690768 0.14988716901 0.15308684344 0.15437359787 0.15466904172 0.1762114008 
0.1441872192 0.14415064479 0.14466834989 0.14012795287 0.13912551916 0.14341576242 0.14260164757 0.12526893339 0.14157245909 
0.14218468416 0.14239074625 0.13756131981 0.15687863991 0.14690515164 0.15449475792 0.15543100806 0.16676868388 0.16651458751 
0.16362927358 0.15438601016 0.15388432675 0.14518031729 0.15717929666 0.14110732844 0.14266563307 0.15478321644 0.1551032417 
0.15486174002 0.15452967311 0.15500723751 0.15813952257 0.13777605492 0.14331281346 0.14620108617 0.15293047779 0.16604937771 
0.16260501129 0.14294465859 0.1116421744 0.13124113953 0.11306544552 0.1406303694 0.13616232673 0.18038004586 0.15225733313 
0.15108484821 0.15015047806 0.16419995919 0.13907760531 0.1471948665 0.16401397029 0.13979839251 0.13986498909 0.14139982451 
0.1495079853 0.14887646347 0.11230236723 0.15167509909 0.17193689409 0.17171281257 0.15389924824 0.14864737704 0.16059439472 
0.16613124979 0.1501975104 0.15460033403 0.15309749539 0.15247335991 0.1491486915 0.14962880536 0.15418434717 0.15379752507 
0.15292222471 0.15584547383 0.15361844385 0.15656987516 0.15196419118 0.16692480723 0.16609125961 0.15076194052 0.14274517509 
0.15535603721 0.15542597635 0.14726660283 0.14664606707 0.15949559891 0.16020494866 0.15620045849 0.14454056441 0.14439803196 
0.1651741262 0.13125811666 0.13894818222 0.14662389741 0.15069628767 0.14357194009 0.14320691049 0.14805832003 0.16058226373 
0.18911396681 0.16347733794 0.1413262117 0.14736609549 0.15315783349 0.14428606151 0.14380655392 0.16355327237 0.144951389 
0.14666754457 0.14865846406 0.16047543186 0.16194559942 0.15618326803 0.15337157783 0.15367315319 0.14327505256 0.13238834899 
0.16213484094 0.14585492791 0.14532934712 0.16082874796 0.13726936932 0.13579617974 0.13205986136 0.13306970535 0.13821305776 
0.14022852969 0.16235072596 0.15461172933 0.13849471814 0.15704592392 0.16229442322 0.16409740838 0.22029413736 0.15437093318 
0.1445134703 0.14570027832 0.13818303668 0.13827123848 0.15297526823 0.16302510012 0.16256951876 0.16364214046 0.16323175778 
0.15269016695 0.15198665757 0.14342749826 0.1439035263 0.15303283983 0.1535452179 0.15354098904 0.15488759684 0.15406022022 
0.16334237678 0.16423997959 0.16685904345 0.16292680195 0.13909933187 0.15472715313 0.16460968994 0.16408730234 0.13679178503 
0.18267642212 0.13807072199 0.16131875712 0.13749934598 0.12682726909 0.15906214363 0.12995283704 0.12881513484 0.14419608166 
0.14424948767 0.14394359167 0.14406163655 0.13963701236 0.13981189298 0.14389926454 0.16755806078 0.16724524467 0.16578596034 
0.12235912092 0.14531164697 0.14708460645 0.1628681951 0.16386478201 0.14303758256 0.12983231558 0.14880154739 0.14939058979 
0.14818005833 0.14766328401 0.14854992383 0.1293403175 0.12787458899 0.15962670494 0.14533016458 0.14572145031 0.14539928768 
0.13988800435 0.1537993851 0.15360064818 0.14186493744 0.15482217094 0.1621575713 0.15334330813 0.133285095 0.13761588122 
0.16066140272 0.13809143265 0.15961499724 0.15921059472 0.10056639665 0.23621178313 0.23458266885 0.14423430442 0.14513669697 
0.14430262618 0.14612876756 0.12404666982 0.12866370416 0.12415491782 0.20268177374 0.1888782552 0.14232616371 0.14614210336 
0.15178421963 0.14560373881 0.16812817585 0.16281370683 0.16531173262 0.1444014708 0.14351859373 0.14364629788 0.1407593647 
0.14149457035 0.14212801986 0.15889658306 0.16054723433 0.16076135332 0.15620456958 0.14841564241 0.15871361443 0.15838176623 
0.15869453219 0.13279159675 0.13250218368 0.17197418587 0.16951299764 0.15346246237 0.13967910744 0.1384810148 0.1417984995 
0.14565754834 0.14541444936 0.144466522 0.1563386519 0.15328988619 0.15071984698 0.15069191702 0.15304868463 0.1514129022 
0.1283532133 0.1450887402 0.14292520049 0.14354826183 0.15150011481 0.16565771363 0.15971098372 0.14246810893 0.14999045957 
0.14700982452 0.15180184327 0.11538503587 0.14123833704 0.15298372527 0.13361783183 0.12488793154 0.11986846038 0.14587115324 
0.13929867756 0.15846048849 0.14606518442 0.14667292277 0.15658903973 0.15612100997 0.15477851436 0.15557195657 0.16598571051 
0.16408364798 0.15684616133 0.16428939801 0.14673284201 0.14690701027 0.1344520987 0.1349194998 0.13388237276 0.17197295431 
0.15342452745 0.15360661361 0.15326257281 0.15793602919 0.14552163997 0.14421480168 0.14235313097 0.15447868752 0.15744372544 
0.15550265227 0.13688701225 0.14374543997 0.13506722313 0.13211601396 0.15617895724 0.1613009041 0.16400696593 0.16694392162 
0.21476422244 0.15195400096 0.17443650613 0.15860310668 0.14765663978 0.1517519798 0.15051175222 0.15930485941 0.14409644396 
0.14474804945 0.14536228011 0.16613040103 0.13839643941 0.15627920088 0.15402274358 0.15040788732 0.16110360732 0.16205413651 
0.15404874832 0.14142590676 0.14940046371 0.14141346781 0.15203526807 0.14919584868 0.12316631878 0.18350442736 0.15678444938 
0.15091767031 0.1469770936 0.14818090576 0.15756734972 0.15671264475 0.16272266473 0.16164867326 0.16626879875 0.14918997743 
0.15508763797 0.15514448762 0.14447472846 0.14532677138 0.14477911586 0.15504413069 0.14469043311 0.14485681577 0.15887419396 
0.16546793211 0.14142637242 0.14097862328 0.15770511742 0.15762873002 0.15694368048 0.14248031242 0.15345752852 0.16755210261 
0.13518388127 0.13020107303 0.16709089645 0.15766817489 0.16134131058 0.16451507568 0.15151431066 0.1539282723 0.15416616706 
0.16383174524 0.14789376989 0.14976021308 0.14969049454 0.16754532131 0.15462826896 0.17267438841 0.16971423675 0.14024776552 
0.18312116045 0.14363267912 0.15619076699 0.15423165965 0.14551023021 0.14424059822 0.16748555035 0.14796473742 0.12945074109 
0.1539723215 0.14413257726 0.16112425454 0.16088053606 0.16276168863 0.16259780201 0.13856379929 0.15022515053 0.14976429311 
0.14837321448 0.12537284208 0.1523613183 0.15222724919 0.20751027337 0.14860639915 0.164369007 0.16441041303 0.14905477622 
0.15393338315 0.15353878884 0.17181351584 0.1451016229 0.14747031294 0.14692755157 0.15391391417 0.15253856403 0.14498729384 
0.1459220734 0.14735212871 0.13768490745 0.14616075647 0.13534364306 0.1630037529 0.13165596308 0.13771626573 0.12548485805 
0.14670708367 0.13810674565 0.14727276755 0.16596929354 0.14911808334 0.15457061473 0.15232161906 0.13975954782 0.14028427757 
0.13976380413 0.14967398792 0.14177510002 0.12952104141 0.13975059327 0.13961201307 0.15510026908 0.15685589514 0.15559955293 
0.14089777639 0.13815102945 0.15788190582 0.15623629256 0.13925918681 0.16477694117 0.16468942126 0.16391946202 0.14804052903 
0.156191668 0.1633547326 0.1433086622 0.14657430952 0.16479025917 0.14834978308 0.15981350405 0.16203952919 0.15009877226 
0.16265889201 0.148635276 0.16159915482 0.16258680964 0.16358940615 0.16328208509 0.15158229453 0.13771049581 0.13940630718 
0.13655161735 0.16236096983 0.13576108433 0.14256678857 0.15514960269 0.14860476384 0.15536654484 0.1538534211 0.15580184692 
0.2023388106 0.14780775816 0.18009724388 0.15796824279 0.13285363937 0.13437345259 0.13465201044 0.15023002344 0.15111424384 
0.16486018798 0.13802570132 0.13854226744 0.13908739821 0.1553191293 0.15571266439 0.14681828651 0.15629728773 0.14652532034 
0.14528795709 0.15431615655 0.14376997747 0.14258481488 0.14401396452 0.15265868379 0.14567830792 0.15350973232 0.15368604685 
0.16285302665 0.15444943758 0.15462503806 0.14857227333 0.15632698955 0.15490447994 0.15600126005 0.15446130868 0.14636325758 
0.14687049877 0.14733158368 0.15168641702 0.15106524133 0.1481063019 0.14402768539 0.15058274623 0.14304846853 0.15389889281 
0.15591301898 0.22923549378 0.1366826614 0.13678535075 0.15260696872 0.10556324231 0.15289707917 0.15051261177 0.15116582642 
0.18509171045 0.16671038657 0.17603663566 0.17400274846 0.14733985895 0.1536523902 0.16146409369 0.13660525706 0.15924404454 
0.15852237853 0.15457452523 0.16650344429 0.15961503816 0.14405349122 0.14051926695 0.15992793698 0.15402024252 0.15429133972 
0.15899906821 0.16280866931 0.15480355254 0.15753631089 0.16453612113 0.15522932522 0.15488800687 0.16021769372 0.14013331027 
0.15028917372 0.15279326435 0.14364158081 0.14140451883 0.1632519886 0.16761746115 0.14361059758 0.15227939171 0.1395575295 
0.1564578807 0.15616672571 0.16447930661 0.1470032443 0.13632042634 0.13693335349 0.13817177605 0.13831258854 0.14588522493 
0.14201791695 0.14088804956 0.15427767009 0.14801258325 0.15570658087 0.14619204497 0.14276890352 0.13756873068 0.13650988392 
0.15569375707 0.15008687627 0.15362800856 0.15334960227 0.15250266544 0.15585871392 0.15613490075 0.1383712432 0.14921453179 
0.14808885029 0.1457067947 0.13792272005 0.13988831903 0.13182074621 0.13881912094 0.15371438005 0.16434497333 0.16235573115 
0.15085489337 0.14169407445 0.14253090481 0.14624266889 0.14564045226 0.17314714324 0.14751412636 0.15386657958 0.15216406871 
0.1534771624 0.15118160965 0.16618821872 0.09100568818 0.14349521331 0.16438097345 0.15301587117 0.14137210244 0.1592429804 
0.21538525314 0.20582539168 0.15820928447 0.14308285325 0.14967342246 0.14922687708 0.15704368078 0.15708994797 0.13800729642 
0.14760003059 0.15173603605 0.15305467914 0.1604011417 0.14134745537 0.16541356232 0.15616557828 0.15396933943 0.15533659872 
0.1619536871 0.14393151204 0.15381362209 0.15206778328 0.14118931256 0.14521166805 0.15812517536 0.14514419842 0.16876186185 
0.16680271348 0.15671075599 0.15936426204 0.17060949673 0.16599361092 0.17070809545 0.16661994923 0.15449197693 0.15719165418 
0.16000518025 0.16487896929 0.16614136404 0.16068679573 0.15595358691 0.16913931194 0.14595870501 0.13502815837 0.16224858653 
0.14176634944 0.13312735304 0.13683774982 0.14191213129 0.19030875255 0.14473938569 0.14320810404 0.14039815067 0.14684713031 
0.14470696041 0.14608780944 0.13818766363 0.15866122302 0.15476447567 0.1582412164 0.14176997198 0.15873761772 0.15629332771 
0.15777452788 0.13983066144 0.14012507174 0.15241776022 0.15818520188 0.15943656322 0.15972227215 0.14139441695 0.13981215661 
0.1434315394 0.14361698473 0.1423270795 0.14569213861 0.14455770271 0.14428629176 0.15819002236 0.14651655062 0.14812266382 
0.14674752622 0.17537456169 0.16383554189 0.16622825149 0.15775848811 0.14355823934 0.16506969057 0.16575615155 0.13545281616 
0.14792397137 0.15524129823 0.15272909809 0.16515193402 0.14952934528 0.1403501823 0.16420788793 0.14396261417 0.16378451435 
0.16343435185 0.14820209054 0.1668182912 0.1457740846 0.16669480948 0.16840089905 0.126452157 0.13638617866 0.13767720986 
0.12269793779 0.16101163548 0.15544761839 0.15534416471 0.1497486814 0.15792870714 0.16105930038 0.15010770717 0.15413347977 
0.14866848412 0.15445292021 0.15303239628 0.16109998649 0.1385055089 0.13447266909 0.15784370333 0.15315230735 0.14144350951 
0.14553242779 0.15335836177 0.15960537006 0.1467309799 0.14668194816 0.14428495551 0.14411706229 0.16415189571 0.14964986825 
0.15385650753 0.1539283132 0.14648895531 0.15787348517 0.13007487978 0.1425225558 0.15385490776 0.1534084366 0.15362588656 
0.15435811739 0.14615123775 0.15223607787 0.16203633852 0.16212438651 0.13276962182 0.12603982958 0.15409109565 0.15271132855 
0.1464059474 0.15186976763 0.15243200937 0.15311901397 0.14980348895 0.14719466013 0.13907598359 0.17433204274 0.15570695087 
0.14356294805 0.14333654601 0.14434588568 0.14293043603 0.15820454051 0.15230244119 0.15485054238 0.15335937597 0.15251930936 
0.15185085387 0.085317714106 0.14565118287 0.14560155538 0.28897526627 0.14548080294 0.14609368841 0.089978083298 0.10028353013 
0.090139242115 0.16971420342 0.14690183433 0.16796267274 0.14466601648 0.099778232163 0.1548103521 0.11408030466 0.089705656857 
0.14456500444 0.13887694241 0.15078132119 0.17876529759 0.16478098457 0.1476381087 0.1067751223 0.10396066334 0.10835796922 
0.086179441165 0.14962046274 0.10327194402 0.097625579004 0.15169799298 0.16206387961 0.086268353116 0.1474629286 0.14579797122 
0.15455621473 0.10643995358 0.14910959648 0.14915729202 0.15032261103 0.11362077892 0.11423794338 0.49370620631 0.13492233876 
0.13962722 0.14112009929 0.15872910552 0.14383055609 0.14369335823 0.13862511881 0.13792623961 0.11287530761 0.15063456928 
0.14838566525 0.15455518722 0.16787148244 0.16549782298 0.15415099663 0.1642181365 0.1353849906 0.10214116498 0.1699506043 
0.13797025442 0.14497822381 0.12338708829 0.11230108162 0.15246359615 0.12675845472 0.18114294551 0.14223503969 0.13400732475 
0.12577972177 0.12214615928 0.14422185513 0.099776123968 0.10080388713 0.16499347904 0.17329580176 0.093746243061 0.098805505997 
0.12556247473 0.13515600145 0.17073781252 0.1651678019 0.11686638322 0.15054777257 0.15376540084 0.098531993767 0.1036612757 
0.1060675146 0.093543055886 0.096966310457 0.16075817815 0.15287074623 0.096484501132 0.11212094318 0.090818646653 0.14918826608 
0.1530074732 0.10218452162 0.099209003421 0.095528249216 0.085650771217 0.1236226554 0.15524914741 0.12739181423 0.14520013272 
0.15240688308 0.14787128222 0.15027589359 0.098528136455 0.16337352307 0.10909963572 0.15265926425 0.15430122501 0.088316459219 
0.095306480571 0.0944074204 0.15954483428 0.17074182033 0.11477360058 0.12833182318 0.13971775507 0.15720835235 0.65197403725 
0.15385061914 0.15386276266 0.15388102391 0.08523346564 0.11406296023 0.11165905248 0.11770640323 0.089845840457 0.097590800455 
0.088225459381 0.12915304615 0.12315495725 0.13641790188 0.11322446679 0.1177780467 0.10751795139 0.10925633297 0.10608756056 
0.1095244932 0.099481730463 0.092884328025 0.11325707583 0.12531707487 0.12442681076 0.12847418888 0.10183559607 0.1002817435 
0.096198726521 0.098406886829 0.10669296429 0.10445583835 0.08860259203 0.096075095873 0.1022109123 0.11332804815 0.099574028772 
0.099754201059 0.11011672759 0.10503222808 0.088813816533 0.12541630104 0.12074647733 0.091622220552 0.10463961486 0.13525038421 
0.11003826139 0.13183668339 0.1111518186 0.096460596095 0.094810856678 0.12754404416 0.11071487578 0.10594658334 0.092229815405 
0.093924578509 0.10104580395 0.088168507327 0.1024636636 0.10383725404 0.089664842047 0.091619236299 0.10059469428 0.098458207725 
0.11351707751 0.14425458932 0.13412216978 0.10525175155 0.095753253189 0.090623947303 0.12818958884 0.099481621959 0.098374693962 
0.088453633348 0.096083150134 0.087768355698 0.10185553372 0.08998846984 0.094943467703 0.098281987659 0.096854571455 0.11107861568 
0.11450348595 0.10136149061 0.10544949887 0.10047099061 0.10646201317 0.10846143193 0.1053334796 0.12928451013 0.12385072467 
0.13335878503 0.11143254117 0.087687877021 0.10842546129 0.10565900299 0.11258014348 0.097457974365 0.11664478244 0.10240626213 
0.10655280817 0.11477233607 0.10913466978 0.091261933891 0.11452254436 0.12110422325 0.12598736056 0.11085179651 0.10286479501 
0.094417982207 0.087798742639 0.12257600274 0.095951728922 0.11223867382 0.10288178349 0.11915017912 0.0996907728 0.34108023806 
0.63967081499 0.68427473243 
Strain%20xx%20component 1 13529 double
8.47441e-07 1.1347e-06 9.81273e-07 1.07411e-06 -0.123051 -0.123057 -0.123049 -0.123039 -0.0288887 
-0.0442575 -0.0650112 -0.043797 -0.0172002 -0.0794493 -0.0532632 -0.0160968 -0.084204 -0.0217855 
-0.0587083 -0.0709791 -0.0258464 -0.0496889 -0.0659112 -0.0462167 -0.0212222 -0.077531 -0.0558353 
-0.0176891 -0.0845235 -0.0205434 -0.0510243 -0.0723981 -0.10204 -0.0881016 -0.168353 -0.22491 
-0.15404 -0.161898 -0.106854 -0.121834 -0.0455015 -0.0392359 -0.0368987 -0.0178859 -0.0205347 
-0.0254807 -0.0318446 -0.0468079 -0.0444335 -0.0508316 -0.0600544 -0.0679615 -0.0600429 -0.0561469 
-0.0560292 -0.0601644 -0.0630665 -0.0487988 -0.0452706 -0.0403314 -0.0399085 -0.0172447 -0.0271118 
-0.0340337 -0.0451836 -0.0488205 -0.0560173 -0.0656524 -0.054801 -0.0590851 -0.0598747 -0.0641062 
-0.0570904 -0.0575395 -0.0601929 -0.0633897 -0.0151031 -0.0310684 -0.0445895 -0.0459661 -0.0404247 
-0.0403431 -0.0671833 -0.0465833 -0.0447997 -0.042694 -0.0391175 -0.034759 -0.0642253 -0.0585733 
-0.0599465 -0.0603328 -0.0238871 -0.028594 -0.0310009 -0.046571 -0.0587846 -0.0714894 -0.0686538 
-0.0461414 -0.0430662 -0.0398104 -0.0331221 -0.0146743 -0.0470756 -0.0546981 -0.0579369 -0.0620801 
-0.0549446 -0.0449893 -0.0436051 -0.0523389 -0.0381332 -0.0336155 -0.0279775 -0.0200648 -0.048596 
-0.0444181 -0.0373379 -0.0321456 -0.0161662 -0.0555826 -0.0577905 -0.0602255 -0.0589602 -0.066438 
-0.0647961 -0.0477401 -0.0495693 -0.0426104 -0.0332256 -0.0137297 -0.0446156 -0.0443767 -0.0447949 
-0.0418021 -0.0373439 -0.0472167 -0.046455 -0.0424908 -0.0341971 -0.017376 -0.0517408 -0.070528 
-0.0531072 -0.0514683 -0.0408648 -0.0356492 -0.0261695 -0.0532242 -0.0576013 -0.0577168 -0.0599004 
-0.051619 -0.0402713 -0.0404417 -0.0383023 -0.0280786 -0.0675206 -0.0541462 -0.0506276 -0.037262 
-0.0370653 -0.0259879 -0.0155664 -0.0435174 -0.0560581 -0.0593121 -0.0621509 -0.0555003 -0.015202 
0.00110675 -0.000720394 -0.0011311 -0.000901407 -8.67162e-05 -0.000807762 -0.00097027 -0.00155493 -0.000179541 
-0.00137128 -0.0017879 -0.00136812 0.000283436 -0.00151857 -0.000655183 -0.000783763 -0.00135212 -0.000620659 
-0.000383592 -0.000324615 -0.000795381 0.00147543 -0.00778095 -0.0114743 -0.00112724 0.00457967 0.0047966 
0.00487702 0.00282921 -0.00264631 0.000853225 0.00326247 0.0039692 0.00253185 -0.00356194 0.00216361 
0.0039275 0.00425353 0.00395892 -0.00132405 -0.00121412 -0.000772454 0.00472354 0.00398935 0.0025669 
-0.00189161 -0.00102963 0.00368585 0.00477545 0.00701405 0.000328567 -0.000289274 -0.12283 -0.122828 
-0.124079 -0.125994 -0.128779 -0.132023 -0.135435 -0.13933 -0.143263 -0.146513 -0.149532 
-0.151794 -0.153385 -0.154235 -0.15438 -0.153452 -0.151948 -0.149517 -0.146972 -0.143754 
-0.139902 -0.136688 -0.133269 -0.13026 -0.127669 -0.125494 -0.123863 -0.122959 -0.122731 
-0.234402 -0.121051 -0.112866 -0.105557 -0.100979 -0.0980561 -0.0963057 -0.09529 -0.0948949 
-0.0949624 -0.0953511 -0.0965363 -0.098008 -0.100157 -0.102447 -0.10489 -0.108117 -0.111521 
-0.114827 -0.118006 -0.120521 -0.12219 -0.122072 -0.121042 -0.119167 -0.117067 -0.115114 
-0.113425 -0.112127 -0.1112 -0.110634 -0.110601 -0.110937 -0.111562 -0.112534 -0.113886 
-0.115248 -0.116631 -0.118186 -0.119536 -0.120707 -0.121835 -0.122672 -0.123106 -0.12321 
-0.12315 -0.123133 -0.122784 -0.122191 -0.121399 -0.120308 -0.119216 -0.117979 -0.117003 
-0.116071 -0.115245 -0.114584 -0.114285 -0.114344 -0.114657 -0.115439 -0.116408 -0.117714 
-0.119176 -0.120794 -0.122237 -0.123442 -0.124101 -0.123656 -0.12248 -0.120558 -0.118201 
-0.115124 -0.112242 -0.10917 -0.106541 -0.104177 -0.102116 -0.100444 -0.0988702 -0.0981094 
-0.0975539 -0.0976805 -0.098277 -0.0996545 -0.101963 -0.106513 -0.113631 -0.126609 -0.232311 
-0.0632434 -0.0727582 -0.0919027 -0.0772539 -0.0760097 -0.0767005 -0.088503 -0.0878866 -0.0721475 
-0.0711293 -0.107065 -0.0962812 -0.0774228 -0.0768948 -0.0757455 -0.0744475 -0.0750421 -0.087874 
-0.0640696 -0.0736817 -0.0692123 -0.0660596 -0.0810969 -0.0760767 -0.0747499 -0.0656652 -0.0680351 
-0.0712489 -0.0682348 -0.10783 -0.101225 -0.0826493 -0.0877643 -0.0766892 -0.0860857 -0.0747822 
-0.100292 -0.109697 -0.0825684 -0.0633721 -0.122737 -0.123177 -0.125055 -0.127951 -0.131943 
-0.136469 -0.141525 -0.146464 -0.150025 -0.152532 -0.154178 -0.154109 -0.152742 -0.150282 
-0.146932 -0.142623 -0.138142 -0.133888 -0.129847 -0.126578 -0.124247 -0.122964 -0.122851 
-0.167866 -0.12674 -0.109008 -0.10201 -0.0977701 -0.0958882 -0.0950379 -0.0950438 -0.0956988 
-0.0973037 -0.0994353 -0.102378 -0.105716 -0.109082 -0.112804 -0.116902 -0.120271 -0.121992 
-0.121771 -0.120083 -0.11771 -0.11532 -0.112992 -0.111585 -0.110831 -0.110664 -0.111147 
-0.112131 -0.113644 -0.115258 -0.116793 -0.118583 -0.120186 -0.121413 -0.122471 -0.123038 
-0.12317 -0.123169 -0.123052 -0.12249 -0.121619 -0.120353 -0.119053 -0.117598 -0.116431 
-0.115294 -0.114612 -0.114342 -0.114581 -0.115375 -0.116644 -0.118281 -0.120009 -0.121865 
-0.123374 -0.123975 -0.123254 -0.121069 -0.117874 -0.114221 -0.110419 -0.106732 -0.103694 
-0.101201 -0.0993135 -0.0981863 -0.0977358 -0.0981852 -0.0997398 -0.103224 -0.109866 -0.122789 
-0.166519 -0.0520312 -0.0707801 -0.0694074 -0.0808431 -0.0800067 -0.0809936 -0.06789 -0.0694883 
-0.0773015 -0.120124 -0.0936529 -0.0549078 -0.0826732 -0.0805952 -0.0791534 -0.0782542 -0.0786186 
-0.0500497 -0.0623855 -0.0402032 -0.0510259 -0.0932699 -0.0797935 -0.0763309 -0.0756321 -0.0817838 
-0.089983 -0.0865179 -0.0910851 -0.0859001 -0.0649723 -0.0594624 -0.0803922 -0.0652597 -0.0782245 
-0.0555411 -0.0647178 -0.0730508 -0.0602318 -0.0476299 -0.0410592 -0.0348499 -0.068554 -0.0747062 
-0.0592973 -0.0753691 -0.0638201 -0.0633361 -0.0605691 -0.0487829 -0.0430557 -0.0708436 -0.0725028 
-0.0601056 -0.0564164 -0.0785593 -0.0622511 -0.0693865 -0.0389011 -0.0642128 -0.0202165 -0.052415 
-0.0782777 -0.0674297 -0.0425221 -0.060666 -0.0604326 -0.071431 -0.0256344 -0.046175 -0.0602258 
-0.0866695 -0.048285 -0.0369179 -0.0747163 -0.0278157 -0.0579389 -0.0586927 -0.0633082 -0.0782405 
-0.069691 -0.0568973 -0.0395016 -0.046434 -0.079365 -0.0275039 -0.0426521 -0.0616094 -0.0617726 
-0.0784147 -0.0621486 -0.0376463 -0.0539534 -0.083147 -0.0197226 -0.0753969 -0.043409 -0.0532156 
-0.0391312 -0.0391658 -0.0767299 -0.0799465 -0.0727068 -0.0632016 -0.06287 -0.0442195 -0.0453386 
-0.0332704 -0.0825085 -0.0746839 -0.0722132 -0.0563215 -0.0542339 -0.0642957 -0.0142249 -0.0595505 
-0.123359 -0.124267 -0.125811 -0.127794 -0.130344 -0.133104 -0.136165 -0.139209 -0.141996 
-0.144509 -0.146697 -0.148177 -0.149185 -0.149394 -0.149191 -0.148206 -0.146688 -0.144722 
-0.142292 -0.139505 -0.136835 -0.134065 -0.131457 -0.129142 -0.127131 -0.125411 -0.124205 
-0.123408 -0.1231 -0.130476 -0.123048 -0.115593 -0.110335 -0.106612 -0.103888 -0.102203 
-0.100827 -0.10033 -0.100258 -0.100234 -0.100811 -0.101889 -0.103427 -0.105145 -0.10697 
-0.109218 -0.111706 -0.114324 -0.116602 -0.118018 -0.118818 -0.118398 -0.117252 -0.115748 
-0.114407 -0.11343 -0.112502 -0.111874 -0.111556 -0.111565 -0.111811 -0.112375 -0.113211 
-0.114326 -0.115477 -0.116673 -0.117881 -0.119162 -0.12032 -0.121295 -0.122161 -0.122722 
-0.123087 -0.123127 -0.122772 -0.122265 -0.121567 -0.120732 -0.119771 -0.118779 -0.117862 
-0.11696 -0.116124 -0.115474 -0.115062 -0.11483 -0.114874 -0.115185 -0.115757 -0.116505 
-0.117437 -0.118595 -0.119772 -0.12078 -0.121224 -0.121312 -0.120565 -0.119195 -0.117372 
-0.115162 -0.112883 -0.110653 -0.108502 -0.106676 -0.105123 -0.103896 -0.102952 -0.102374 
-0.102399 -0.102707 -0.103568 -0.105025 -0.107568 -0.111483 -0.116847 -0.124534 -0.126724 
-0.0408838 -0.033713 -0.0259025 -0.0193837 -0.0163401 -0.0160994 -0.0159332 -0.0141257 -0.0137624 
-0.0132076 -0.0151014 -0.01782 -0.015392 -0.0152939 -0.0156692 -0.0185326 -0.0157854 -0.0156449 
-0.0165251 -0.0157454 -0.0155372 -0.0168497 -0.0156672 -0.017981 -0.0186092 -0.0238226 -0.0347664 
-0.0609854 -0.091262 -0.0961981 -0.122333 -0.138472 -0.134945 -0.133041 -0.128952 -0.123712 
-0.110939 -0.0866581 -0.080799 -0.109346 -0.0990366 -0.104782 -0.119051 -0.127268 -0.130656 
-0.131401 -0.132554 -0.118237 -0.0936883 -0.100028 -0.0996858 -0.095826 -0.114282 -0.128599 
-0.130047 -0.12754 -0.122486 -0.113537 -0.0981441 -0.099235 -0.127248 -0.117622 -0.0971223 
-0.109047 -0.121909 -0.130022 -0.130197 -0.136263 -0.135601 -0.123408 -0.0906252 -0.0937322 
-0.145281 -0.191096 -0.160186 -0.13557 -0.199064 -0.121466 -0.124832 -0.126602 -0.128589 
-0.130907 -0.133361 -0.135983 -0.138336 -0.140575 -0.142526 -0.144048 -0.145021 -0.14555 
-0.145606 -0.145043 -0.144017 -0.142474 -0.140588 -0.138414 -0.136211 -0.133969 -0.131705 
-0.129594 -0.127785 -0.126148 -0.124831 -0.1238 -0.119741 -0.102816 -0.107756 -0.108207 
-0.107367 -0.106219 -0.105074 -0.104148 -0.103536 -0.103175 -0.103046 -0.103333 -0.103988 
-0.10494 -0.106039 -0.107447 -0.109268 -0.11164 -0.114431 -0.11692 -0.118504 -0.118077 
-0.11622 -0.11418 -0.112739 -0.111988 -0.111481 -0.111172 -0.111025 -0.111159 -0.111603 
-0.112247 -0.113093 -0.114275 -0.115477 -0.116684 -0.117945 -0.119226 -0.120425 -0.12149 
-0.122511 -0.123289 -0.123618 -0.0875664 -0.0907767 -0.123224 -0.122814 -0.122153 -0.121391 
-0.120458 -0.119475 -0.11849 -0.11752 -0.116574 -0.115762 -0.115111 -0.114674 -0.114384 
-0.114346 -0.114513 -0.114938 -0.115614 -0.11657 -0.117746 -0.119034 -0.12009 -0.120589 
-0.120355 -0.119163 -0.117423 -0.115266 -0.113114 -0.11128 -0.109529 -0.108055 -0.106863 
-0.10605 -0.105492 -0.105248 -0.105343 -0.105747 -0.10645 -0.107446 -0.108854 -0.110127 
-0.110034 -0.105364 -0.128298 -0.0670955 -0.0521127 -0.0412509 -0.0359109 -0.0322637 -0.0320256 
-0.0315801 -0.031322 -0.031019 -0.0315598 -0.033012 -0.0330545 -0.0335742 -0.0339713 -0.0322834 
-0.0300867 -0.0327588 -0.0339096 -0.0344884 -0.034661 -0.0333821 -0.0348376 -0.0398527 -0.0494806 
-0.0668709 -0.106398 -0.137311 -0.101902 -0.127512 -0.127469 -0.123073 -0.11422 -0.102286 
-0.0918602 -0.100141 -0.117969 -0.0924874 -0.0999417 -0.113451 -0.121144 -0.12454 -0.122849 
-0.113746 -0.101349 -0.102007 -0.121683 -0.143748 -0.102726 -0.1007 -0.121476 -0.122647 
-0.11895 -0.111323 -0.10108 -0.0934931 -0.111443 -0.158364 -0.0950247 -0.103749 -0.112795 
-0.120167 -0.124424 -0.123374 -0.116021 -0.103883 -0.104041 -0.102042 -0.114172 -0.102642 
-0.131949 -0.165 -0.12515 -0.16342 -0.126868 -0.128557 -0.130704 -0.13301 -0.135345 
-0.137407 -0.139307 -0.140823 -0.141844 -0.142489 -0.142751 -0.142749 -0.14203 -0.140608 
-0.138932 -0.137145 -0.135241 -0.133281 -0.13128 -0.129397 -0.127593 -0.126005 -0.124777 
-0.123816 -0.105916 -0.118121 -0.121799 -0.0848016 -0.138329 -0.0982577 -0.103432 -0.105542 
-0.106069 -0.105871 -0.105376 -0.104811 -0.104336 -0.104053 -0.104141 -0.10453 -0.105093 
-0.105876 -0.107078 -0.108923 -0.111781 -0.115941 -0.120309 -0.120594 -0.117214 -0.113278 
-0.110831 -0.109898 -0.109658 -0.109487 -0.109545 -0.109752 -0.110289 -0.11114 -0.112246 
-0.113566 -0.115129 -0.116562 -0.11803 -0.119451 -0.120798 -0.121969 -0.123266 -0.124679 
-0.126955 -0.123325 -0.122368 -0.121393 -0.120356 -0.119216 -0.118096 -0.116867 -0.115726 
-0.114789 -0.114008 -0.113402 -0.113033 -0.112842 -0.113012 -0.113438 -0.114243 -0.115665 
-0.117463 -0.119308 -0.120871 -0.121543 -0.120538 -0.118458 -0.116021 -0.113456 -0.111399 
-0.109772 -0.108515 -0.107533 -0.106936 -0.106609 -0.106528 -0.106625 -0.106887 -0.107133 
-0.107206 -0.106815 -0.105185 -0.102928 -0.0887736 -0.149733 -0.115994 -0.0676963 -0.0563914 
-0.0518258 -0.04868 -0.0471693 -0.0465047 -0.0463638 -0.0467992 -0.0480545 -0.0487947 -0.0497327 
-0.0498662 -0.04911 -0.0486539 -0.049078 -0.0496065 -0.0500895 -0.0509723 -0.0520369 -0.0537988 
-0.0576166 -0.0625671 -0.109953 -0.114055 -0.115618 -0.109053 -0.100789 -0.0940948 -0.0991172 
-0.112807 -0.112696 -0.114965 -0.108712 -0.110831 -0.105293 -0.103832 -0.141599 -0.125237 
-0.133108 -0.108203 -0.11376 -0.10133 -0.0975878 -0.106394 -0.152974 -0.112304 -0.113639 
-0.108463 -0.111327 -0.107538 -0.112837 -0.116031 -0.126129 -0.145629 -0.0948031 -0.126922 
-0.11978 -0.110669 -0.115104 -0.105686 -0.150487 -0.10418 -0.119849 -0.100951 -0.0984899 
-0.111878 -0.102346 -0.106905 -0.0970231 -0.101485 -0.125701 -0.122089 -0.127829 -0.129919 
-0.13224 -0.134485 -0.13656 -0.138409 -0.139431 -0.140385 -0.140841 -0.140839 -0.140699 
-0.139295 -0.137545 -0.13568 -0.134018 -0.132141 -0.130351 -0.128537 -0.126825 -0.125398 
-0.124027 -0.105727 -0.121178 -0.079965 -0.0914019 -0.0985183 -0.10243 -0.104311 -0.104971 
-0.104856 -0.104443 -0.103975 -0.103741 -0.10383 -0.104258 -0.104778 -0.105331 -0.108912 
-0.106812 -0.107775 -0.107737 -0.107776 -0.107874 -0.108322 -0.109238 -0.110562 -0.112309 
-0.114319 -0.116251 -0.118068 -0.11985 -0.121518 -0.122767 -0.123809 -0.122564 -0.121606 
-0.120363 -0.11893 -0.117389 -0.11581 -0.11437 -0.113109 -0.112099 -0.111481 -0.111043 
-0.110738 -0.110906 -0.111616 -0.113075 -0.11538 -0.11801 -0.120507 -0.123577 -0.117577 
-0.114169 -0.111387 -0.10952 -0.108358 -0.107349 -0.106749 -0.10647 -0.106389 -0.106441 
-0.10644 -0.106113 -0.105181 -0.103213 -0.0992032 -0.0919346 -0.130344 -0.10843 -0.105596 
-0.0748884 -0.0703135 -0.0663138 -0.063813 -0.0622035 -0.0615929 -0.0618919 -0.0633182 -0.0648955 
-0.0661687 -0.0668434 -0.0663906 -0.0656596 -0.0657705 -0.0658776 -0.0657964 -0.0665425 -0.0677477 
-0.0697006 -0.0735267 -0.120511 -0.100371 -0.109667 -0.139296 -0.0961212 -0.0978177 -0.102771 
-0.108052 -0.137243 -0.106022 -0.147906 -0.100727 -0.106275 -0.108165 -0.105232 -0.107974 
-0.107623 -0.107652 -0.136621 -0.110621 -0.106075 -0.107716 -0.113423 -0.109995 -0.108128 
-0.102967 -0.106457 -0.120162 -0.128323 -0.130538 -0.123375 -0.120458 -0.14272 -0.0971695 
-0.10766 -0.0971515 -0.109306 -0.110103 -0.106664 -0.124659 -0.101263 -0.104841 -0.101321 
-0.115509 -0.108904 -0.103486 -0.126983 -0.129067 -0.131522 -0.134009 -0.136669 -0.138881 
-0.139836 -0.13997 -0.139287 -0.137283 -0.134665 -0.132271 -0.13091 -0.128672 -0.127597 
-0.125801 -0.12447 -0.12347 -0.110926 -0.0853246 -0.0939705 -0.0993384 -0.102247 -0.103328 
-0.103327 -0.102859 -0.102581 -0.102754 -0.103483 -0.104894 -0.106486 -0.10648 -0.107026 
-0.108283 -0.110481 -0.113149 -0.115903 -0.11835 -0.120635 -0.122575 -0.124054 -0.125249 
-0.120108 -0.122172 -0.120528 -0.118515 -0.116431 -0.114396 -0.112461 -0.11076 -0.109647 
-0.109511 -0.108638 -0.108436 -0.108902 -0.110026 -0.112563 -0.111401 -0.109103 -0.107767 
-0.106754 -0.106051 -0.105503 -0.105278 -0.105175 -0.104746 -0.103953 -0.102412 -0.0994726 
-0.0943697 -0.0865034 -0.131018 -0.0785463 -0.0766105 -0.0757819 -0.0760397 -0.0770123 -0.0794111 
-0.0819438 -0.0837503 -0.0840501 -0.0829556 -0.0816491 -0.0812376 -0.0809231 -0.0801226 -0.0803706 
-0.0816461 -0.0975627 -0.100847 -0.10396 -0.0978948 -0.105414 -0.106869 -0.105316 -0.10393 
-0.10293 -0.113561 -0.106622 -0.140374 -0.105389 -0.1279 -0.142876 -0.122604 -0.104134 
-0.114589 -0.104205 -0.116659 -0.122361 -0.11711 -0.098349 -0.137307 -0.0821117 -0.106724 
-0.102835 -0.139539 -0.103911 -0.102041 -0.106769 -0.105595 -0.0994539 -0.106938 -0.108479 
-0.123447 -0.127895 -0.130721 -0.132431 -0.134999 -0.138474 -0.14051 -0.138984 -0.134855 
-0.131019 -0.127329 -0.124726 -0.122912 -0.101968 -0.107129 -0.0974538 -0.100931 -0.102008 
-0.101626 -0.101163 -0.105333 -0.108097 -0.111696 -0.115636 -0.119213 -0.122097 -0.124157 
-0.117852 -0.115051 -0.11275 -0.110198 -0.107958 -0.101285 -0.112813 -0.107238 -0.106141 
-0.105368 -0.10421 -0.103514 -0.103555 -0.101538 -0.0998186 -0.0963828 -0.0905905 -0.102069 
-0.0880321 -0.0868162 -0.0875093 -0.0888544 -0.0894595 -0.0971549 -0.0966668 -0.103843 -0.098474 
-0.0983249 -0.0939393 -0.0967619 -0.0921254 -0.0904467 -0.0909081 -0.112967 -0.107528 -0.125733 
-0.105293 -0.10057 -0.109253 -0.12088 -0.111081 -0.127454 -0.102497 -0.0990307 -0.0997501 
-0.0986183 -0.130796 -0.110862 -0.104548 -0.119761 -0.109189 -0.100594 -0.107374 -0.106321 
-0.102068 -0.105406 -0.109155 -0.120781 -0.126238 -0.126987 -0.116818 -0.121224 -0.0995202 
-0.114052 -0.108086 -0.11532 -0.0977454 -0.102732 -0.0944036 -0.101089 -0.101693 -0.0982503 
-0.101862 -0.0941748 -0.0962746 -0.0991048 -0.103652 -0.0981008 -0.123455 -0.124992 -0.127174 
-0.130112 -0.133332 -0.137283 -0.140893 -0.144245 -0.146556 -0.148079 -0.148763 -0.148123 
-0.146622 -0.144403 -0.141346 -0.138039 -0.134695 -0.131334 -0.128453 -0.126119 -0.124385 
-0.123361 -0.0905903 -0.119428 -0.111885 -0.107066 -0.104059 -0.102314 -0.101402 -0.100975 
-0.101162 -0.10193 -0.103383 -0.105199 -0.107435 -0.10991 -0.112751 -0.115593 -0.117962 
-0.118498 -0.117546 -0.11589 -0.114332 -0.112973 -0.112081 -0.111653 -0.111577 -0.112023 
-0.112855 -0.113997 -0.115336 -0.116741 -0.118211 -0.119566 -0.120807 -0.121908 -0.122841 
-0.123056 -0.122714 -0.122042 -0.121021 -0.11992 -0.118678 -0.117586 -0.116504 -0.115627 
-0.115055 -0.114834 -0.114982 -0.115518 -0.116386 -0.117534 -0.118683 -0.11998 -0.120984 
-0.120895 -0.119743 -0.117619 -0.114728 -0.112068 -0.109478 -0.107179 -0.105348 -0.104158 
-0.103438 -0.103349 -0.104218 -0.105759 -0.108504 -0.112876 -0.118712 -0.126969 -0.0622317 
-0.0361726 -0.0260942 -0.0216779 -0.0177733 -0.0159633 -0.0163089 -0.0167497 -0.0171263 -0.0174239 
-0.0178049 -0.0179136 -0.0193077 -0.0193911 -0.0185093 -0.0188484 -0.016651 -0.0180633 -0.0170546 
-0.0201379 -0.0231949 -0.0377666 -0.0934258 -0.0936821 -0.1194 -0.129505 -0.131695 -0.129183 
-0.124631 -0.11447 -0.100687 -0.0988832 -0.115237 -0.102314 -0.0827819 -0.096577 -0.115389 
-0.124499 -0.128262 -0.130145 -0.126083 -0.112579 -0.0861532 -0.0925314 -0.0872327 -0.0914417 
-0.121463 -0.129405 -0.12869 -0.125963 -0.120566 -0.107117 -0.083127 -0.0863868 -0.0893996 
-0.0830686 -0.0979723 -0.113037 -0.120934 -0.127218 -0.12813 -0.127301 -0.113968 -0.101967 
-0.101598 -0.210818 -0.144 -0.134778 -0.174852 -0.174921 -0.126091 -0.124351 -0.13055 
-0.13366 -0.136964 -0.139807 -0.142214 -0.143724 -0.144723 -0.144673 -0.143706 -0.142117 
-0.139904 -0.137289 -0.134522 -0.131639 -0.129044 -0.126885 -0.12498 -0.101765 -0.107203 
-0.105317 -0.0875671 -0.107194 -0.106291 -0.10523 -0.104479 -0.103826 -0.103651 -0.103963 
-0.104811 -0.105963 -0.10752 -0.109676 -0.113136 -0.117226 -0.118924 -0.117547 -0.114838 
-0.112469 -0.111099 -0.110648 -0.11046 -0.110702 -0.111287 -0.112303 -0.113625 -0.115103 
-0.116634 -0.118196 -0.119668 -0.120926 -0.122193 -0.123371 -0.122101 -0.123343 -0.123667 
-0.120977 -0.119709 -0.118362 -0.117158 -0.115992 -0.115021 -0.114352 -0.113973 -0.113969 
-0.1143 -0.114927 -0.116131 -0.117787 -0.119691 -0.120869 -0.120362 -0.118387 -0.115552 
-0.112713 -0.11045 -0.108564 -0.107194 -0.10642 -0.106041 -0.106156 -0.10652 -0.107245 
-0.107782 -0.107191 -0.102564 -0.0913519 -0.118926 -0.143822 -0.0531428 -0.068816 -0.0415338 
-0.0353289 -0.0345546 -0.0347304 -0.0351452 -0.0345792 -0.0359066 -0.0370228 -0.0377165 -0.0374204 
-0.0368615 -0.036819 -0.037129 -0.0379211 -0.0390616 -0.0393556 -0.0463739 -0.0591295 -0.121996 
-0.117894 -0.156165 -0.10752 -0.120485 -0.12787 -0.127973 -0.123718 -0.11492 -0.103654 
-0.0920606 -0.0998709 -0.0920067 -0.101583 -0.11415 -0.122433 -0.125612 -0.123945 -0.116152 
-0.102607 -0.0993193 -0.136975 -0.105678 -0.119957 -0.124517 -0.122686 -0.116703 -0.106055 
-0.0963936 -0.100604 -0.12512 -0.0940428 -0.103082 -0.114008 -0.12169 -0.125624 -0.125006 
-0.118006 -0.105954 -0.101558 -0.127973 -0.105225 -0.098325 -0.102764 -0.124177 -0.164115 
-0.132168 -0.16888 -0.129968 -0.111721 -0.115697 -0.130526 -0.108858 -0.136362 -0.141801 
-0.140674 -0.141751 -0.140431 -0.138532 -0.13617 -0.133699 -0.131233 -0.128819 -0.126875 
-0.125071 -0.114321 -0.0945897 -0.125509 -0.101596 -0.0850089 -0.10578 -0.105625 -0.10507 
-0.104406 -0.10407 -0.104272 -0.104793 -0.105566 -0.106699 -0.109338 -0.115319 -0.1108 
-0.108889 -0.108456 -0.108522 -0.108764 -0.10934 -0.110523 -0.112257 -0.114239 -0.116246 
-0.11826 -0.120132 -0.121663 -0.122661 -0.0549696 -0.0864451 -0.138822 -0.121019 -0.119331 
-0.105057 -0.12345 -0.103138 -0.117795 -0.116247 -0.114771 -0.113584 -0.11262 -0.112169 
-0.112049 -0.112355 -0.113191 -0.115067 -0.11814 -0.121953 -0.122139 -0.120763 -0.117198 
-0.11356 -0.110726 -0.10875 -0.107486 -0.106744 -0.10651 -0.106553 -0.106612 -0.106278 
-0.105017 -0.101062 -0.138936 -0.123207 -0.0655826 -0.108823 -0.106244 -0.0516282 -0.0505663 
-0.0510069 -0.0518093 -0.0526377 -0.0535251 -0.0540799 -0.0547697 -0.0549277 -0.0544185 -0.0547486 
-0.0557321 -0.0577452 -0.0601858 -0.0606076 -0.148029 -0.0999828 -0.125526 -0.122435 -0.109979 
-0.116165 -0.118093 -0.116008 -0.110125 -0.101568 -0.0944972 -0.0944075 -0.142249 -0.145163 
-0.100117 -0.108846 -0.114356 -0.114941 -0.112034 -0.106187 -0.105456 -0.113661 -0.11447 
-0.111652 -0.105103 -0.0987979 -0.13348 -0.127457 -0.102729 -0.109584 -0.114838 -0.116231 
-0.114028 -0.108555 -0.106033 -0.125034 -0.0973603 -0.155693 -0.0961844 -0.10808 -0.119712 
-0.124223 -0.145643 -0.156757 -0.11876 -0.0727816 -0.125805 -0.114925 -0.118511 -0.102713 
-0.0997355 -0.118722 -0.140445 -0.137457 -0.139332 -0.13257 -0.130367 -0.128122 -0.126089 
-0.124541 -0.135086 -0.107776 -0.139717 -0.103981 -0.104084 -0.103268 -0.103215 -0.103872 
-0.104628 -0.105098 -0.104885 -0.107026 -0.106752 -0.106991 -0.107999 -0.109922 -0.112742 
-0.115574 -0.118245 -0.120779 -0.122848 -0.12455 -0.0673411 -0.0834375 -0.11684 -0.120852 
-0.114807 -0.112877 -0.111314 -0.110157 -0.109714 -0.10971 -0.110166 -0.111143 -0.113978 
-0.119667 -0.120199 -0.115084 -0.110961 -0.108416 -0.10682 -0.105809 -0.105354 -0.105279 
-0.10509 -0.104221 -0.101971 -0.097132 -0.0869392 -0.108398 -0.127334 -0.106064 -0.12754 
-0.109488 -0.067442 -0.0682342 -0.0692455 -0.0701498 -0.071608 -0.0723915 -0.0723216 -0.0724464 
-0.0721601 -0.0726982 -0.0737566 -0.0766627 -0.140549 -0.104493 -0.127745 -0.0966302 -0.109817 
-0.111019 -0.109605 -0.106009 -0.100876 -0.0966102 -0.0984675 -0.116746 -0.128531 -0.128395 
-0.100479 -0.105485 -0.108436 -0.106924 -0.106078 -0.101061 -0.144515 -0.108501 -0.107628 
-0.105142 -0.101436 -0.147357 -0.102706 -0.106532 -0.109228 -0.109006 -0.108747 -0.135285 
-0.0691722 -0.110831 -0.106712 -0.110554 -0.110419 -0.0958557 -0.130042 -0.138175 -0.101863 
-0.135947 -0.129778 -0.10665 -0.114728 -0.0726008 -0.0979565 -0.123183 -0.118395 -0.148537 
-0.106527 -0.100071 -0.133037 -0.125131 -0.128985 -0.102691 -0.103964 -0.101121 -0.132021 
-0.101876 -0.105335 -0.10548 -0.107329 -0.110483 -0.114534 -0.11836 -0.121739 -0.124427 
-0.126325 -0.0816453 -0.103446 -0.118163 -0.120162 -0.110543 -0.115649 -0.108478 -0.107742 
-0.107643 -0.107885 -0.108311 -0.139588 -0.120218 -0.106404 -0.104858 -0.103595 -0.102913 
-0.102658 -0.101604 -0.0989948 -0.0936694 -0.113899 -0.0987517 -0.084743 -0.0864441 -0.0873756 
-0.0890688 -0.0890868 -0.0895699 -0.08892 -0.0878286 -0.0883201 -0.089504 -0.107428 -0.104328 
-0.119039 -0.139997 -0.0987258 -0.11294 -0.105538 -0.104468 -0.100974 -0.0982196 -0.104486 
-0.118952 -0.133777 -0.120252 -0.0806609 -0.127037 -0.105347 -0.106969 -0.0815361 -0.115171 
-0.107583 -0.0970679 -0.139127 -0.131369 -0.141247 -0.138049 -0.102339 -0.0989822 -0.102813 
-0.134396 -0.137082 -0.135607 -0.143679 -0.116944 -0.108222 -0.0920355 -0.0848272 -0.102692 
-0.103407 -0.104132 -0.107366 -0.101255 -0.108798 -0.122483 -0.10301 -0.133062 -0.112351 
-0.105621 -0.132987 -0.1079 -0.140682 -0.0998997 -0.104812 -0.119058 -0.123448 -0.126684 
-0.129159 -0.1004 -0.121009 -0.100391 -0.105913 -0.126636 -0.0996193 -0.100213 -0.099494 
-0.0968882 -0.0910302 -0.106303 -0.143691 -0.0933958 -0.103508 -0.103974 -0.106966 -0.0995056 
-0.0988108 -0.09845 -0.117813 -0.116579 -0.110209 -0.0906513 -0.108206 -0.106191 -0.138446 
-0.126826 -0.138737 -0.136132 -0.10163 -0.139753 -0.101506 -0.124912 -0.113782 -0.130395 
-0.134409 -0.0999815 -0.135818 -0.10796 -0.102742 -0.111161 -0.105302 -0.131861 -0.114384 
-0.105354 -0.122205 -0.101669 -0.11352 -0.124072 -0.101093 -0.0982929 -0.0966856 -0.124277 
-0.102847 -0.137518 -0.140315 -0.125801 -0.121514 -0.11606 -0.0986641 -0.133014 -0.131126 
-0.0994116 -0.0440675 -0.0329332 -0.043001 -0.0353976 -0.00618499 -0.0315127 -0.0101047 -0.0527149 
-0.0471204 -0.100921 -0.0510607 -0.0451349 -0.0402709 -0.0361683 -0.0107709 -0.0194841 -0.014966 
-0.0283481 -0.0346641 -0.0539657 -0.047908 -0.0547451 -0.063151 -0.0543742 -0.0598761 -0.054628 
-0.0586256 -0.0603628 -0.0610851 -0.0692759 -0.0582631 -0.0485408 -0.0444493 -0.0404938 -0.0339139 
-0.0111973 -0.01953 -0.0325175 -0.0279162 -0.0602736 -0.0499307 -0.0585558 -0.0536264 -0.0625927 
-0.0570933 -0.058973 -0.0618981 -0.0706107 -0.0600238 -0.0565104 -0.0589923 -0.0620307 -0.0684507 
-0.00941555 -0.0171148 -0.0313611 -0.0564691 -0.0509236 -0.0381687 -0.0431326 -0.0659181 -0.0566024 
-0.0482267 -0.0431954 -0.0399677 -0.037018 -0.0316624 -0.0613223 -0.0557521 -0.0600478 -0.0608309 
-0.0670961 -0.0126969 -0.025751 -0.0256122 -0.0431512 -0.0624536 -0.0694497 -0.0811474 -0.0587698 
-0.0605736 -0.0435839 -0.041794 -0.0371153 -0.0214561 -0.0221884 -0.0635417 -0.0552493 -0.0581741 
-0.0607573 -0.0629807 -0.0699112 -0.0585151 -0.0424892 -0.0556682 -0.0498517 -0.0449379 -0.0383535 
-0.0269436 -0.0100274 -0.0631255 -0.0486392 -0.0411602 -0.0355503 -0.021817 -0.0168371 -0.057012 
-0.0554739 -0.0587288 -0.0609362 -0.0775399 -0.0617344 -0.0842163 -0.0503123 -0.0603864 -0.053676 
-0.0436186 -0.0197589 -0.0050732 -0.06318 -0.0441283 -0.0459798 -0.0430153 -0.0378885 -0.0308442 
-0.0611294 -0.042202 -0.0470277 -0.0360433 -0.0243733 -0.0177394 -0.0601086 -0.061323 -0.0733628 
-0.0488154 -0.0563992 -0.0350058 -0.0355761 -0.0155044 -0.0616834 -0.0557792 -0.0591157 -0.0607411 
-0.0719794 -0.0638888 -0.045607 -0.0379244 -0.0417959 -0.0305864 -0.0272997 -0.0410508 -0.0870732 
-0.0549024 -0.0459528 -0.041458 -0.0317977 -0.0257416 -0.00672678 -0.0549855 -0.0562586 -0.0587457 
-0.0605912 -0.0613068 -0.0748304 8.62775e-07 9.81273e-07 1.1347e-06 2.42457e-07 7.81733e-08 5.95262e-08 
5.35092e-08 5.05289e-08 3.95478e-08 5.41472e-08 4.82451e-08 4.89039e-08 3.54542e-08 4.93037e-08 5.11969e-08 
4.10272e-08 8.84121e-08 9.14356e-08 4.25181e-08 5.13021e-08 3.92692e-08 9.19187e-08 5.00651e-08 5.92831e-08 
8.00235e-08 3.07638e-07 1.12053e-06 8.32106e-07 1.06176e-07 1.10064e-07 7.28022e-08 6.12352e-08 5.11611e-08 
7.8175e-08 7.19194e-08 3.78926e-08 3.53444e-08 4.51063e-08 7.33034e-08 8.00716e-08 4.97353e-08 4.55436e-08 
4.97529e-08 7.57911e-08 5.28231e-08 5.05337e-08 6.2396e-08 4.28228e-08 4.4191e-08 7.28248e-08 6.2079e-08 
6.40444e-08 5.75017e-08 6.98832e-08 1.10873e-07 1.97039e-07 9.81273e-07 -0.12293 -0.122716 -0.12335 
-0.124905 -0.127273 -0.13034 -0.133719 -0.137382 -0.141327 -0.144926 -0.148108 -0.150803 
-0.152757 -0.153927 -0.154429 -0.154007 -0.152859 -0.150872 -0.148313 -0.1454 -0.141849 
-0.138288 -0.134988 -0.131722 -0.128901 -0.12648 -0.124568 -0.123332 -0.122767 -0.122921 
-0.179975 -0.123898 -0.117451 -0.108754 -0.102985 -0.0993134 -0.0970888 -0.0956948 -0.0949827 
-0.0948519 -0.0951296 -0.0959365 -0.0972073 -0.0989936 -0.101232 -0.103662 -0.106517 -0.109814 
-0.113198 -0.116477 -0.11936 -0.121466 -0.122205 -0.121683 -0.120183 -0.118144 -0.11609 
-0.114205 -0.11272 -0.111608 -0.110915 -0.110588 -0.110703 -0.111208 -0.112008 -0.113178 
-0.114549 -0.115937 -0.117427 -0.118875 -0.120133 -0.121304 -0.122263 -0.12292 -0.123187 
-0.123154 -0.12314 -0.123153 -0.123002 -0.122527 -0.121829 -0.120886 -0.119761 -0.118589 
-0.117484 -0.116525 -0.115634 -0.114887 -0.114434 -0.1143 -0.114452 -0.114959 -0.115898 
-0.117047 -0.118412 -0.119972 -0.12153 -0.122891 -0.123831 -0.123928 -0.123204 -0.121612 
-0.119466 -0.116687 -0.113713 -0.110708 -0.107843 -0.105328 -0.103123 -0.101241 -0.099654 
-0.0984624 -0.0977877 -0.0975868 -0.0978982 -0.0988115 -0.10067 -0.104046 -0.109499 -0.118481 
-0.127753 -0.155429 -0.046384 -0.0626513 -0.0772121 -0.0782057 -0.0737368 -0.0740032 -0.0750063 
-0.102364 -0.0980348 -0.0835829 -0.0819152 -0.1291 -0.105358 -0.0748139 -0.0754587 -0.074079 
-0.0729558 -0.0723165 -0.0986514 -0.0764938 -0.0775172 -0.0567693 -0.0798631 -0.0822282 -0.0561996 
-0.0743812 -0.0727926 -0.0731464 -0.052976 -0.0554808 -0.0571689 -0.108054 -0.0984636 -0.128926 
-0.105878 -0.0998253 -0.0783342 -0.0989067 -0.0733117 -0.0981641 -0.101231 -0.105769 -0.0702271 
-0.0739801 -0.122814 -0.122862 -0.123887 -0.126379 -0.129841 -0.13416 -0.138994 -0.144072 
-0.14838 -0.151414 -0.153574 -0.154348 -0.153649 -0.151658 -0.148734 -0.144858 -0.140403 
-0.135985 -0.131804 -0.128098 -0.125289 -0.123453 -0.122802 -0.122947 -0.0984624 -0.139627 
-0.114871 -0.104923 -0.0994685 -0.0967138 -0.0953773 -0.0950015 -0.0953243 -0.0963894 -0.098327 
-0.100859 -0.104023 -0.107359 -0.110917 -0.114882 -0.118655 -0.121282 -0.122052 -0.121011 
-0.118947 -0.116505 -0.114125 -0.112243 -0.111144 -0.110707 -0.110844 -0.111604 -0.11285 
-0.114422 -0.11603 -0.117686 -0.119403 -0.120824 -0.121982 -0.122794 -0.123092 -0.1232 
-0.123147 -0.123156 -0.122794 -0.122063 -0.121008 -0.119704 -0.118326 -0.117005 -0.115839 
-0.114916 -0.114436 -0.114407 -0.114941 -0.115971 -0.117423 -0.119132 -0.120951 -0.122647 
-0.123794 -0.12369 -0.122283 -0.119523 -0.116098 -0.112332 -0.108555 -0.105169 -0.102406 
-0.100232 -0.098717 -0.0978681 -0.0978727 -0.0988697 -0.101233 -0.106177 -0.115346 -0.132213 
-0.099747 -0.0646308 -0.04375 -0.058432 -0.0821754 -0.0792214 -0.0793068 -0.0816921 -0.0844335 
-0.0830572 -0.106188 -0.126686 -0.114731 -0.092982 -0.0576227 -0.0813576 -0.0790988 -0.0776806 
-0.077342 -0.0810867 -0.0548991 -0.0659954 -0.0446524 -0.065845 -0.0683509 -0.0774002 -0.076073 
-0.0744368 -0.0745935 -0.0737734 -0.0735759 -0.0831358 -0.107864 -0.117846 -0.0920454 -0.0846109 
-0.0812057 -0.0813207 -0.0790053 -0.0798509 -0.0569681 -0.0822505 -0.063598 -0.0682666 -0.123061 
-0.123046 -0.0647478 -0.0266063 -0.0473143 -0.0777119 -0.0455829 -0.0196236 -0.0817996 -0.0530771 
-0.0176996 -0.0711913 -0.0210907 -0.0602073 -0.0951056 -0.198811 -0.159191 -0.120947 -0.0583283 
-0.0392298 -0.0451388 -0.0339853 -0.0362649 -0.0447746 -0.0239971 -0.0324894 -0.040657 -0.0186092 
-0.0578262 -0.0496004 -0.0835681 -0.0788622 -0.0917605 -0.0868641 -0.0759788 -0.105795 -0.057515 
-0.0577767 -0.0658988 -0.0701694 -0.0361912 -0.0641419 -0.101575 -0.0195968 -0.0720639 -0.0507108 
-0.0528738 -0.0711422 -0.0990413 -0.0681937 -0.0589895 -0.0739698 -0.0681982 -0.0591518 -0.0727629 
-0.0645941 -0.0589489 -0.063371 -0.0680012 -0.0606704 -0.0610053 -0.0823165 -0.051731 -0.0540952 
-0.0507953 -0.0510276 -0.0441721 -0.0403624 -0.0370714 -0.0340667 -0.0458858 -0.0224738 -0.0465497 
-0.0547823 -0.0821269 -0.0808751 -0.0850783 -0.0906289 -0.0727189 -0.095677 -0.0600098 -0.0582367 
-0.0665645 -0.0652694 -0.0359813 -0.032155 -0.0548348 -0.0622307 -0.0730667 -0.0565517 -0.103746 
-0.0729326 -0.0978111 -0.0785883 -0.065493 -0.0635774 -0.0710068 -0.0524767 -0.0548033 -0.0604895 
-0.0638529 -0.0535908 -0.0604811 -0.0581019 -0.0693663 -0.0667757 -0.0703624 -0.102067 -0.018329 
-0.0517333 -0.0556108 -0.0695781 -0.0715704 -0.052707 -0.0837406 -0.0908187 -0.0207969 -0.0240373 
-0.0414498 -0.0221982 -0.0461756 -0.0413245 -0.0344727 -0.0308795 -0.0625165 -0.106396 -0.0741802 
-0.0712379 -0.100479 -0.0843689 -0.0679213 -0.0686436 -0.0778688 -0.0344611 -0.040478 -0.0540049 
-0.0372313 -0.0617985 -0.0478567 -0.0671634 -0.0318992 -0.0739858 -0.0523068 -0.0608569 -0.0680554 
-0.057785 -0.0620306 -0.0584219 -0.0584861 -0.0600296 -0.0638683 -0.0641783 -0.0679671 -0.100648 
-0.0191665 -0.0395865 -0.0346758 -0.0176365 -0.0599926 -0.0528631 -0.0376781 -0.076372 -0.0715982 
-0.0524753 -0.0946994 -0.0976256 -0.0693317 -0.104576 -0.07242 -0.0400441 -0.0450179 -0.0315464 
-0.0341367 -0.0426738 -0.0269358 -0.0593268 -0.0549543 -0.075468 -0.0846775 -0.0864975 -0.0861401 
-0.0666863 -0.0677377 -0.0291594 -0.0244786 -0.0287744 -0.0436012 -0.0329042 -0.059821 -0.0654788 
-0.0618417 -0.0539897 -0.0823151 -0.0555105 -0.0477953 -0.0505558 -0.047187 -0.0566433 -0.0594127 
-0.0616988 -0.0581188 -0.0596543 -0.105598 -0.0891657 -0.0937943 -0.0822764 -0.0864699 -0.0772241 
-0.068082 -0.0740377 -0.0633389 -0.0504742 -0.0594106 -0.049459 -0.0179442 -0.0433455 -0.0392911 
-0.0296606 -0.0376311 -0.0321904 -0.106556 -0.0693015 -0.0759697 -0.100007 -0.0725974 -0.0686555 
-0.0748222 -0.0184488 -0.0318292 -0.0352392 -0.0465672 -0.0556414 -0.0376207 -0.0422898 -0.0258825 
-0.0452673 -0.0529745 -0.0534939 -0.0630416 -0.0601483 -0.0552677 -0.0679938 -0.0805675 -0.0635245 
-0.0679445 -0.0530095 -0.0604359 -0.0457519 -0.0596623 -0.0595357 -0.0931544 -0.0957415 -0.0883625 
-0.0721989 -0.0661665 -0.0559061 -0.0490677 -0.0530677 -0.0153548 -0.0415023 -0.0296528 -0.032875 
-0.0598651 -0.0583929 -0.0716031 -0.105591 -0.0672615 -0.0686734 -0.0718171 -0.099157 -0.0219681 
-0.0209319 -0.0826777 -0.0812252 -0.0384086 -0.0679153 -0.067046 -0.0411997 -0.0359915 -0.0376886 
-0.0545088 -0.0246422 -0.0696144 -0.0477738 -0.0775456 -0.0829913 -0.0294723 -0.0613943 -0.0532495 
-0.0524722 -0.0417725 -0.0479399 -0.033532 -0.0357339 -0.0464771 -0.0306888 -0.0372533 -0.0436734 
-0.0190609 -0.0999893 -0.103487 -0.0957356 -0.0721865 -0.0954028 -0.0937653 -0.08465 -0.0864178 
-0.0791472 -0.0758593 -0.0560511 -0.0481706 -0.0578045 -0.0603468 -0.0697462 -0.0602192 -0.0329442 
-0.0271514 -0.0584592 -0.0717274 -0.050937 -0.0535493 -0.0725303 -0.0700161 -0.0669235 -0.0701725 
-0.0678037 -0.0723888 -0.0580331 -0.0623177 -0.0459371 -0.0431358 -0.0385042 -0.0377311 -0.0350808 
-0.045556 -0.0314494 -0.0288923 -0.0402416 -0.0155976 -0.103098 -0.106802 -0.106795 -0.0719573 
-0.0895851 -0.0939873 -0.0779979 -0.085319 -0.0862109 -0.0800391 -0.0658143 -0.0725648 -0.0617679 
-0.0499236 -0.0555972 -0.0575026 -0.0559453 -0.0624653 -0.0583841 -0.0613413 -0.0710145 -0.016898 
-0.0196425 -0.0686248 -0.0748611 -0.0235854 -0.0514603 -0.0395416 -0.0680456 -0.0495235 -0.0489817 
-0.0674469 -0.0546093 -0.0218568 -0.0526168 -0.0608137 -0.0663179 -0.0530746 -0.0566161 -0.0628982 
8.47441e-07 9.16687e-07 -0.00314424 -0.0170118 1.20709e-07 0.00683518 -0.00273852 0.00375436 -0.000881691 
0.0011637 0.00215556 -0.00152022 0.00478037 0.00464634 -0.00430435 0.00383533 -0.000901377 0.000616354 
0.00230132 -0.00241912 0.00521599 0.00526704 -0.0036335 0.00398356 -0.00132226 0.000692998 0.00245899 
-0.00241312 0.00670475 -0.00293295 5.80274e-08 5.72351e-08 -0.00255022 0.00467559 0.000232482 0.000391929 
0.00302542 -0.0036592 0.0056282 6.64996e-08 -0.00293739 0.00208014 0.00140361 -0.000741895 0.00626865 
-0.000343598 1.89252e-07 0.00528968 -0.000708869 -0.00129688 -0.00507092 -0.00578205 -0.00121308 -0.0030727 
-0.123041 -0.123144 -0.123152 -0.123637 -0.124245 -0.123748 -0.125023 -0.125963 -0.124948 
-0.12696 -0.128319 -0.126743 -0.129601 -0.131195 -0.129011 -0.132594 -0.134282 -0.131704 
-0.13583 -0.137743 -0.134624 -0.139275 -0.141195 -0.137703 -0.142598 -0.14421 -0.140629 
-0.145488 -0.14697 -0.143293 -0.148062 -0.149169 -0.145687 -0.149925 -0.150705 -0.14753 
-0.151193 -0.151637 -0.148784 -0.151733 -0.151826 -0.149392 -0.151672 -0.15123 -0.149403 
-0.150756 -0.150017 -0.148803 -0.149246 -0.148058 -0.147543 -0.147072 -0.145825 -0.145777 
-0.144592 -0.142992 -0.143548 -0.141588 -0.139702 -0.140925 -0.138361 -0.136782 -0.138181 
-0.135381 -0.133711 -0.135441 -0.132372 -0.130908 -0.132731 -0.129725 -0.128459 -0.130261 
-0.127434 -0.126359 -0.128083 -0.125507 -0.124695 -0.126212 -0.124078 -0.123622 -0.124729 
-0.123245 -0.123102 -0.123755 -0.122961 -0.123075 -0.123119 -0.123225 -0.140834 -0.144766 
-0.127677 -0.122323 -0.118476 -0.126181 -0.114365 -0.11078 -0.119706 -0.108135 -0.105926 
-0.113153 -0.103822 -0.102346 -0.108278 -0.101079 -0.100152 -0.105268 -0.0992831 -0.0987057 
-0.103148 -0.0981164 -0.0978644 -0.101537 -0.0976618 -0.0976748 -0.100612 -0.097652 -0.0978571 
-0.100232 -0.0978692 -0.0983945 -0.100255 -0.0987449 -0.099406 -0.100574 -0.100006 -0.101006 
-0.101369 -0.101852 -0.102958 -0.10266 -0.103848 -0.105052 -0.104229 -0.105995 -0.10752 
-0.106094 -0.108735 -0.110343 -0.108135 -0.111659 -0.113216 -0.110492 -0.114582 -0.116083 
-0.112999 -0.117277 -0.118495 -0.11542 -0.119188 -0.119946 -0.117326 -0.120359 -0.120339 
-0.11845 -0.12018 -0.1197 -0.118538 -0.119105 -0.118215 -0.117818 -0.117436 -0.11645 
-0.116509 -0.115726 -0.11479 -0.115111 -0.11429 -0.113456 -0.113947 -0.112959 -0.112367 
-0.112931 -0.112 -0.111591 -0.112196 -0.111392 -0.111165 -0.111751 -0.111131 -0.111116 
-0.111564 -0.111228 -0.111405 -0.111659 -0.111681 -0.111997 -0.112107 -0.112396 -0.112881 
-0.112814 -0.113451 -0.114135 -0.113765 -0.114702 -0.115373 -0.114894 -0.115966 -0.116655 
-0.116055 -0.11726 -0.118028 -0.117288 -0.118681 -0.119338 -0.118528 -0.119932 -0.120493 
-0.119739 -0.120999 -0.121541 -0.120794 -0.121985 -0.12237 -0.121714 -0.122669 -0.122899 
-0.122441 -0.123072 -0.12314 -0.122915 -0.123128 -0.123098 -0.123157 -0.12295 -0.122754 
-0.122939 -0.122519 -0.122211 -0.122508 -0.121874 -0.121465 -0.121913 -0.121059 -0.120502 
-0.121149 -0.120037 -0.119486 -0.120268 -0.118997 -0.118381 -0.119265 -0.117917 -0.117443 
-0.118317 -0.116979 -0.116535 -0.117417 -0.116099 -0.115704 -0.116552 -0.115378 -0.115066 
-0.1158 -0.114845 -0.114712 -0.115257 -0.114585 -0.114616 -0.114936 -0.114629 -0.114792 
-0.11488 -0.114939 -0.115324 -0.115036 -0.115611 -0.116135 -0.115472 -0.11649 -0.117107 
-0.116108 -0.117611 -0.118302 -0.116991 -0.118914 -0.119673 -0.118029 -0.120298 -0.120961 
-0.119171 -0.121516 -0.122077 -0.120247 -0.122302 -0.122572 -0.121001 -0.122637 -0.122417 
-0.121287 -0.122074 -0.121449 -0.120909 -0.120797 -0.119841 -0.11984 -0.11893 -0.117716 
-0.118295 -0.116676 -0.115149 -0.116314 -0.113965 -0.112581 -0.113991 -0.11141 -0.109966 
-0.111754 -0.108814 -0.107538 -0.10961 -0.106603 -0.105454 -0.107626 -0.10466 -0.103681 
-0.105847 -0.102977 -0.102238 -0.10451 -0.101664 -0.100997 -0.103436 -0.100655 -0.100278 
-0.102719 -0.100248 -0.100038 -0.102371 -0.100159 -0.10028 -0.102495 -0.100593 -0.101034 
-0.103188 -0.101626 -0.102406 -0.104365 -0.103626 -0.104882 -0.106285 -0.106918 -0.109154 
-0.109351 -0.111709 -0.115487 -0.11439 -0.119315 -0.125135 -0.120806 -0.127775 -0.139401 
-0.127047 -0.120489 -0.0268497 -0.0208325 -0.0186699 -0.0147659 -0.0349916 -0.0105575 -0.00983044 
-0.0339217 -0.00786981 -0.00727381 -0.0240065 -0.0062986 -0.00658897 -0.0202206 -0.00923499 -0.011171 
-0.0185053 -0.0106245 -0.00975189 -0.00803367 -0.00620601 -0.00597722 -0.0169819 -0.0049555 -0.00490592 
-0.0165875 -0.00525376 -0.00540222 -0.0163302 -0.0090556 -0.0109479 -0.0174462 -0.0123568 -0.00993979 
-0.0077761 -0.00618279 -0.00666323 -0.0173608 -0.00591089 -0.0057244 -0.0182476 -0.00621089 -0.00585639 
-0.0181622 -0.00823863 -0.0112375 -0.0195855 -0.0103327 -0.00886137 -0.0130014 -0.00866707 -0.0100186 
-0.0124595 -0.00890856 -0.00695368 -0.012314 -0.00471159 -0.00575792 -0.020436 -0.00597737 -0.006214 
-0.018651 -0.00823615 -0.0108709 -0.0187978 -0.00976573 -0.0110225 -0.0108605 -0.00968728 -0.00803357 
-0.0122145 -0.00697083 -0.00743552 -0.0213366 -0.00912408 -0.00841791 -0.0232153 -0.0128923 -0.0171268 
-0.032069 -0.0325209 -0.0326073 -0.0431909 -0.100626 -0.113326 -0.118667 -0.107845 -0.094179 
-0.140031 -0.134688 -0.113017 -0.143199 -0.148393 -0.13342 -0.142376 -0.144738 -0.137165 
-0.140889 -0.144975 -0.135326 -0.138869 -0.14258 -0.132504 -0.13367 -0.138628 -0.127991 
-0.119384 -0.131769 -0.119626 -0.123889 -0.110043 -0.10522 -0.149782 -0.131737 -0.0873146 
-0.136725 -0.141305 -0.122688 -0.12538 -0.103665 -0.130179 -0.123029 -0.102251 -0.138158 
-0.132004 -0.115836 -0.141205 -0.136749 -0.126469 -0.142161 -0.138569 -0.13068 -0.141316 
-0.139111 -0.13247 -0.141687 -0.138479 -0.132995 -0.124881 -0.135127 -0.126738 -0.0996551 
-0.111488 -0.107057 -0.113075 -0.100951 -0.0936028 -0.102294 -0.114615 -0.114916 -0.103151 
-0.0942893 -0.136255 -0.127615 -0.106977 -0.138519 -0.144977 -0.123693 -0.136812 -0.142597 
-0.130994 -0.134731 -0.140147 -0.130984 -0.133403 -0.136499 -0.127297 -0.129383 -0.132834 
-0.120772 -0.120823 -0.125132 -0.109458 -0.125953 -0.127079 -0.0981589 -0.159951 -0.139538 
-0.109581 -0.137 -0.147691 -0.116817 -0.12483 -0.103546 -0.128628 -0.1204 -0.104427 
-0.133856 -0.131484 -0.116264 -0.140257 -0.134591 -0.126239 -0.139019 -0.138295 -0.130772 
-0.142923 -0.138976 -0.134475 -0.14476 -0.141673 -0.136129 -0.139065 -0.140516 -0.131284 
-0.103677 -0.1194 -0.108274 -0.112994 -0.107979 -0.0876505 -0.115141 -0.119151 -0.157441 
-0.120813 -0.0768818 -0.15152 -0.224724 -0.212228 -0.119912 -0.183275 -0.119871 -0.144886 
-0.11898 -0.165847 -0.231113 -0.177242 -0.0803875 -0.123181 -0.111489 -0.135191 -0.124591 
-0.125368 -0.126248 -0.127247 -0.125671 -0.12821 -0.129492 -0.127555 -0.130659 -0.132014 
-0.129714 -0.13324 -0.134765 -0.132117 -0.136069 -0.137592 -0.134681 -0.13875 -0.140142 
-0.137178 -0.141268 -0.142489 -0.139493 -0.143474 -0.144572 -0.141616 -0.145295 -0.146031 
-0.143349 -0.146523 -0.147016 -0.144622 -0.147321 -0.147404 -0.145383 -0.14744 -0.147335 
-0.145678 -0.147033 -0.14655 -0.145395 -0.146037 -0.145283 -0.144612 -0.144544 -0.143554 
-0.143295 -0.142603 -0.141423 -0.141594 -0.140328 -0.138938 -0.139542 -0.13785 -0.136513 
-0.137328 -0.135401 -0.134022 -0.135091 -0.132893 -0.131605 -0.132821 -0.13054 -0.129397 
-0.130615 -0.128513 -0.127501 -0.128658 -0.126687 -0.12583 -0.126913 -0.125149 -0.124556 
-0.125467 -0.124055 -0.123615 -0.12429 -0.123296 -0.129895 -0.120606 -0.0962032 -0.123204 
-0.1115 -0.110766 -0.1113 -0.109837 -0.106171 -0.109194 -0.107828 -0.107855 -0.106994 
-0.105967 -0.107741 -0.105063 -0.104329 -0.106857 -0.103708 -0.10309 -0.105702 -0.102552 
-0.102318 -0.104609 -0.102003 -0.10193 -0.1038 -0.101729 -0.10173 -0.103305 -0.101703 
-0.10197 -0.103138 -0.102149 -0.102633 -0.103233 -0.102998 -0.103722 -0.103636 -0.104234 
-0.105045 -0.104401 -0.105596 -0.106518 -0.105429 -0.107228 -0.108339 -0.106789 -0.109226 
-0.110515 -0.10844 -0.11161 -0.113043 -0.110496 -0.114266 -0.115592 -0.112954 -0.116648 
-0.117576 -0.115638 -0.118219 -0.11857 -0.117771 -0.118521 -0.11813 -0.118274 -0.117397 
-0.116643 -0.117183 -0.115753 -0.114858 -0.115209 -0.114272 -0.11355 -0.113506 -0.113221 
-0.112688 -0.112423 -0.112451 -0.112011 -0.111678 -0.111846 -0.111564 -0.111282 -0.111464 
-0.11133 -0.111116 -0.111373 -0.111385 -0.111119 -0.111575 -0.111733 -0.11137 -0.112036 
-0.112353 -0.111911 -0.112731 -0.113177 -0.112677 -0.113745 -0.114334 -0.113684 -0.114892 
-0.115504 -0.114868 -0.116074 -0.116695 -0.116066 -0.117293 -0.117925 -0.117298 -0.118535 
-0.119196 -0.1186 -0.11977 -0.120368 -0.119841 -0.120879 -0.121388 -0.120974 -0.121871 
-0.122324 -0.122004 -0.1227 -0.122991 -0.122879 -0.123186 -0.123326 -0.123521 -0.123473 
-0.106168 -0.0642087 -0.108891 -0.108062 -0.109914 -0.0979842 -0.123175 -0.122989 -0.122798 
-0.122531 -0.123017 -0.122208 -0.121841 -0.122472 -0.12148 -0.121044 -0.12178 -0.120601 
-0.120098 -0.120939 -0.119637 -0.119114 -0.119984 -0.11865 -0.118168 -0.11897 -0.11771 
-0.117238 -0.117992 -0.116796 -0.116352 -0.117043 -0.11597 -0.11561 -0.11618 -0.115315 
-0.115086 -0.115439 -0.114872 -0.114756 -0.114879 -0.114641 -0.114647 -0.114532 -0.11465 
-0.114777 -0.114389 -0.114875 -0.115169 -0.114417 -0.11538 -0.115757 -0.114692 -0.116072 
-0.116547 -0.115237 -0.116982 -0.117606 -0.116123 -0.118121 -0.118778 -0.117201 -0.119322 
-0.119921 -0.118414 -0.12034 -0.120694 -0.119499 -0.120891 -0.120936 -0.120339 -0.120785 
-0.120394 -0.120497 -0.119876 -0.119144 -0.119732 -0.118305 -0.117305 -0.1183 -0.116348 
-0.115124 -0.116407 -0.114132 -0.112976 -0.11424 -0.112097 -0.110965 -0.112125 -0.110104 
-0.109061 -0.110351 -0.108294 -0.10739 -0.108847 -0.106764 -0.105989 -0.107509 -0.105591 
-0.105011 -0.106406 -0.104713 -0.104287 -0.105725 -0.104131 -0.103861 -0.105389 -0.103907 
-0.103904 -0.10534 -0.10407 -0.104226 -0.10555 -0.10467 -0.105054 -0.106029 -0.105665 
-0.106277 -0.10692 -0.107159 -0.108182 -0.108185 -0.109202 -0.110693 -0.109619 -0.111732 
-0.113333 -0.110002 -0.113175 -0.113945 -0.0980358 -0.10797 -0.0577314 -0.139282 -0.11941 
-0.051008 -0.0464105 -0.0392191 -0.035896 -0.0595082 -0.0304304 -0.029504 -0.0453338 -0.0256232 
-0.0274241 -0.037514 -0.022542 -0.0211814 -0.033991 -0.0237947 -0.0229304 -0.0321244 -0.0234237 
-0.0230796 -0.0308509 -0.0234482 -0.0225789 -0.0304189 -0.021996 -0.0247647 -0.0303022 -0.0214599 
-0.0219573 -0.0312027 -0.0255062 -0.0233278 -0.0316603 -0.0253577 -0.0245399 -0.0331111 -0.025172 
-0.0251934 -0.0322635 -0.0251172 -0.0276934 -0.0331032 -0.0237172 -0.0231702 -0.0330373 -0.021494 
-0.0212664 -0.0317281 -0.0237416 -0.0235493 -0.0312438 -0.0276718 -0.0249229 -0.033365 -0.0262125 
-0.0254187 -0.0333977 -0.0257935 -0.0262747 -0.0338882 -0.023062 -0.0222773 -0.0337884 -0.0237469 
-0.0253028 -0.0343063 -0.0313062 -0.0286668 -0.0373786 -0.0347195 -0.0368831 -0.0434436 -0.0465387 
-0.0524227 -0.0570014 -0.116861 -0.100499 -0.114051 -0.123581 -0.163506 -0.100375 -0.0986392 
-0.103798 -0.133341 -0.132254 -0.124311 -0.131878 -0.132064 -0.127552 -0.127552 -0.128235 
-0.125393 -0.119205 -0.122803 -0.118725 -0.105744 -0.112721 -0.108589 -0.0966566 -0.100314 
-0.0972194 -0.100734 -0.101747 -0.0947919 -0.111018 -0.127526 -0.0987374 -0.0962874 -0.098142 
-0.108253 -0.116339 -0.0947843 -0.119278 -0.118611 -0.126563 -0.126369 -0.117608 -0.128762 
-0.129707 -0.122991 -0.127399 -0.129246 -0.123871 -0.115769 -0.123348 -0.11883 -0.0976275 
-0.109201 -0.108065 -0.101127 -0.0968734 -0.100285 -0.131991 -0.113946 -0.132521 -0.169131 
-0.110595 -0.0990701 -0.0978168 -0.100187 -0.108083 -0.100817 -0.128836 -0.125632 -0.128664 
-0.12588 -0.122359 -0.124576 -0.122695 -0.121111 -0.116742 -0.116761 -0.11548 -0.105528 
-0.107742 -0.106293 -0.0973396 -0.0978598 -0.0966031 -0.119735 -0.102264 -0.0994293 -0.176361 
-0.147446 -0.101456 -0.0976447 -0.0996354 -0.111009 -0.12261 -0.0976409 -0.121412 -0.116917 
-0.126507 -0.124895 -0.116704 -0.130307 -0.129604 -0.122397 -0.129546 -0.130138 -0.124143 
-0.118844 -0.126185 -0.120264 -0.10077 -0.111853 -0.11049 -0.103402 -0.101087 -0.103407 
-0.114288 -0.123982 -0.108933 -0.105931 -0.0967114 -0.107942 -0.123909 -0.115052 -0.108815 
-0.118293 -0.112367 -0.105435 -0.0982329 -0.107763 -0.0780101 -0.128153 -0.134674 -0.123419 
-0.0759096 -0.154745 -0.178723 -0.130859 -0.124169 -0.0763681 -0.0620081 -0.166212 -0.109307 
-0.122641 -0.128862 -0.124483 -0.127635 -0.111105 -0.156596 -0.173426 -0.134793 -0.163776 
-0.123514 -0.0869023 -0.126753 -0.127762 -0.128575 -0.12974 -0.127703 -0.130813 -0.132029 
-0.129624 -0.133179 -0.134486 -0.13186 -0.135658 -0.136834 -0.13419 -0.137856 -0.138966 
-0.13639 -0.139904 -0.140895 -0.138388 -0.141612 -0.142386 -0.140132 -0.142865 -0.143345 
-0.141387 -0.143693 -0.143952 -0.14224 -0.144073 -0.144141 -0.142703 -0.144091 -0.143852 
-0.142835 -0.143474 -0.142959 -0.142466 -0.142275 -0.141485 -0.141363 -0.140686 -0.139734 
-0.139825 -0.13884 -0.137765 -0.138083 -0.136802 -0.135721 -0.136206 -0.134741 -0.133626 
-0.134266 -0.132631 -0.131509 -0.132277 -0.130565 -0.129501 -0.130323 -0.128623 -0.127713 
-0.128469 -0.126919 -0.126085 -0.126769 -0.125489 -0.124816 -0.125375 -0.124334 -0.123829 
-0.123504 -0.124285 -0.106 -0.10372 -0.122696 -0.122872 -0.121644 -0.127552 -0.0928839 
-0.0972479 -0.139329 -0.150481 -0.102542 -0.103793 -0.0919393 -0.105488 -0.105761 -0.100905 
-0.106258 -0.106144 -0.104538 -0.106093 -0.105736 -0.105825 -0.105476 -0.105154 -0.106029 
-0.104822 -0.104549 -0.105616 -0.104233 -0.104054 -0.105061 -0.103786 -0.103716 -0.104548 
-0.103583 -0.103704 -0.104238 -0.103768 -0.104086 -0.10412 -0.10429 -0.104752 -0.104297 
-0.105045 -0.105577 -0.104757 -0.105959 -0.106664 -0.105428 -0.10724 -0.108199 -0.106527 
-0.109047 -0.110358 -0.108082 -0.111667 -0.113352 -0.110251 -0.115053 -0.116572 -0.113762 
-0.118309 -0.119393 -0.11825 -0.119716 -0.119214 -0.120527 -0.117831 -0.116495 -0.119044 
-0.114881 -0.113581 -0.115235 -0.112571 -0.1117 -0.11207 -0.111355 -0.110926 -0.110423 
-0.110805 -0.110574 -0.109787 -0.110489 -0.110334 -0.10951 -0.110349 -0.110298 -0.10949 
-0.110403 -0.110476 -0.109675 -0.110728 -0.110972 -0.110036 -0.111355 -0.11172 -0.11071 
-0.112223 -0.112703 -0.111687 -0.1133 -0.113955 -0.112904 -0.11467 -0.115341 -0.114354 
-0.116004 -0.11666 -0.115834 -0.117338 -0.118013 -0.117282 -0.118675 -0.119354 -0.118728 
-0.119979 -0.120617 -0.120137 -0.121165 -0.121729 -0.121393 -0.122346 -0.122898 -0.122635 
-0.12356 -0.123951 -0.123975 -0.124091 -0.123301 -0.130764 -0.127645 -0.123065 -0.122723 
-0.123562 -0.122273 -0.121852 -0.121395 -0.120895 -0.12189 -0.120418 -0.119889 -0.120886 
-0.119368 -0.118839 -0.1198 -0.118326 -0.117797 -0.118643 -0.117235 -0.116706 -0.117474 
-0.116179 -0.115733 -0.11629 -0.115305 -0.114939 -0.115265 -0.114591 -0.114342 -0.114399 
-0.114062 -0.113901 -0.113692 -0.113732 -0.113692 -0.113229 -0.113609 -0.113689 -0.11296 
-0.113772 -0.113998 -0.112907 -0.114193 -0.114554 -0.113188 -0.114897 -0.115434 -0.113799 
-0.116039 -0.116751 -0.114985 -0.117498 -0.118318 -0.116607 -0.119114 -0.119819 -0.118341 
-0.12038 -0.120766 -0.120054 -0.121031 -0.120909 -0.121255 -0.120503 -0.119782 -0.121048 
-0.11887 -0.117853 -0.119453 -0.116788 -0.115536 -0.117288 -0.114411 -0.113227 -0.114803 
-0.112276 -0.111321 -0.112449 -0.110564 -0.109652 -0.110513 -0.109022 -0.108285 -0.10909 
-0.107811 -0.107225 -0.108087 -0.106909 -0.106517 -0.10727 -0.106364 -0.10608 -0.106728 
-0.106022 -0.105927 -0.106528 -0.105989 -0.105997 -0.106595 -0.106161 -0.106333 -0.1068 
-0.106599 -0.106836 -0.106984 -0.107067 -0.107311 -0.107132 -0.107396 -0.107719 -0.107001 
-0.107498 -0.107477 -0.106152 -0.107234 -0.106176 -0.104348 -0.0788647 -0.0709652 -0.0863938 
-0.158669 -0.15676 -0.121605 -0.118116 -0.117321 -0.0601172 -0.0543142 -0.0775662 -0.0488517 
-0.0458091 -0.0615277 -0.0439482 -0.0417218 -0.0538461 -0.0401509 -0.0404169 -0.0499965 -0.0392497 
-0.0391817 -0.0478617 -0.038682 -0.0386992 -0.0467417 -0.0387174 -0.0384029 -0.0463422 -0.0388382 
-0.0389027 -0.0465154 -0.0395503 -0.040252 -0.0472994 -0.0408459 -0.0408457 -0.0482746 -0.0411363 
-0.0414404 -0.0492493 -0.0414612 -0.0416635 -0.0498387 -0.041367 -0.0405729 -0.0494125 -0.0404999 
-0.0399269 -0.04868 -0.0397834 -0.0408095 -0.0488884 -0.0409735 -0.0417853 -0.0491405 -0.0417598 
-0.0420581 -0.0497309 -0.0425061 -0.0426434 -0.0505226 -0.0431852 -0.0425883 -0.0513965 -0.0438245 
-0.0444021 -0.0527389 -0.0460661 -0.048831 -0.0554791 -0.0510147 -0.0562365 -0.0598422 -0.0672511 
-0.0763665 -0.114646 -0.108619 -0.107967 -0.113303 -0.119442 -0.117342 -0.119157 -0.121501 
-0.117276 -0.111402 -0.116142 -0.112467 -0.101651 -0.107477 -0.104996 -0.093912 -0.0981772 
-0.0969921 -0.101401 -0.0952138 -0.0951989 -0.115645 -0.117761 -0.116547 -0.10864 -0.118931 
-0.11947 -0.11464 -0.115112 -0.110822 -0.111544 -0.112338 -0.116571 -0.113265 -0.103639 
-0.108899 -0.108234 -0.102974 -0.102245 -0.104418 -0.143161 -0.152223 -0.142549 -0.111532 
-0.110528 -0.13869 -0.143887 -0.123767 -0.10953 -0.11361 -0.110693 -0.118044 -0.117667 
-0.113544 -0.101049 -0.106171 -0.104728 -0.096356 -0.0988999 -0.0987541 -0.109438 -0.0997235 
-0.101091 -0.158224 -0.156109 -0.10771 -0.116017 -0.116792 -0.108434 -0.124776 -0.12567 
-0.118413 -0.118731 -0.114391 -0.110345 -0.113495 -0.116736 -0.112707 -0.106006 -0.110999 
-0.109735 -0.118644 -0.116223 -0.113505 -0.125735 -0.12125 -0.121003 -0.124528 -0.128724 
-0.14353 -0.154636 -0.0980912 -0.0939897 -0.129449 -0.127609 -0.126418 -0.122834 -0.0960256 
-0.110498 -0.148919 -0.0732815 -0.119 -0.119268 -0.122952 -0.14474 -0.112405 -0.115573 
-0.112353 -0.125053 -0.127551 -0.10807 -0.107871 -0.109063 -0.104511 -0.108451 -0.146792 
-0.156577 -0.104999 -0.103091 -0.102724 -0.129802 -0.131216 -0.112667 -0.104812 -0.107226 
-0.101392 -0.10029 -0.0972378 -0.107107 -0.114461 -0.10757 -0.153035 -0.10539 -0.107464 
-0.10239 -0.105088 -0.107127 -0.105486 -0.123421 -0.121458 -0.110787 -0.0944207 -0.0991228 
-0.0951899 -0.097824 -0.103127 -0.109851 -0.0995918 -0.11549 -0.126294 -0.127121 -0.12425 
-0.120198 -0.128194 -0.129271 -0.126755 -0.130319 -0.13146 -0.128879 -0.132618 -0.133781 
-0.13108 -0.134907 -0.135922 -0.133382 -0.136961 -0.137909 -0.13554 -0.138816 -0.139585 
-0.137507 -0.140068 -0.140559 -0.13897 -0.141064 -0.141358 -0.139977 -0.141608 -0.141736 
-0.140685 -0.141721 -0.141751 -0.140902 -0.141649 -0.14132 -0.140836 -0.140595 -0.139881 
-0.140044 -0.139045 -0.138203 -0.138447 -0.137266 -0.136396 -0.136648 -0.135555 -0.134612 
-0.134886 -0.133679 -0.132702 -0.133083 -0.131824 -0.130829 -0.131241 -0.129917 -0.128987 
-0.129431 -0.128116 -0.127225 -0.127658 -0.126521 -0.125711 -0.126097 -0.125027 -0.124409 
-0.124692 -0.124045 -0.107318 -0.110754 -0.121522 -0.123906 -0.0710397 -0.0822691 -0.0895658 
-0.0944612 -0.0977483 -0.0857918 -0.100717 -0.102301 -0.0949956 -0.103783 -0.104454 -0.100547 
-0.105113 -0.105267 -0.103436 -0.105404 -0.105305 -0.104666 -0.10515 -0.104922 -0.104896 
-0.104656 -0.104437 -0.104628 -0.104185 -0.10406 -0.104225 -0.10391 -0.103965 -0.103898 
-0.10398 -0.104215 -0.103767 -0.104391 -0.104705 -0.104011 -0.104922 -0.105315 -0.104451 
-0.105593 -0.106183 -0.104996 -0.112137 -0.114761 -0.122786 -0.120676 -0.118346 -0.111132 
-0.109793 -0.108823 -0.108363 -0.107916 -0.108744 -0.108672 -0.107414 -0.108686 -0.108606 
-0.107728 -0.10863 -0.108632 -0.107732 -0.108726 -0.108806 -0.107816 -0.109044 -0.109308 
-0.108134 -0.109763 -0.110218 -0.108798 -0.110819 -0.111441 -0.10988 -0.112224 -0.112972 
-0.111432 -0.113886 -0.114767 -0.11332 -0.115655 -0.116453 -0.115277 -0.117289 -0.118094 
-0.117147 -0.118914 -0.119678 -0.118939 -0.120444 -0.121162 -0.120696 -0.121749 -0.122369 
-0.122148 -0.12286 -0.123539 -0.123278 -0.122479 -0.121953 -0.0962913 -0.100545 -0.12151 
-0.120949 -0.122074 -0.120381 -0.119765 -0.121 -0.119105 -0.118488 -0.119634 -0.117787 
-0.117102 -0.118152 -0.116386 -0.115744 -0.116593 -0.115083 -0.114556 -0.115086 -0.113981 
-0.113537 -0.113746 -0.113082 -0.11274 -0.112601 -0.112453 -0.112254 -0.111777 -0.112042 
-0.111945 -0.111273 -0.11179 -0.111891 -0.110919 -0.111954 -0.112194 -0.110796 -0.112519 
-0.112963 -0.111225 -0.113597 -0.114418 -0.112313 -0.115425 -0.116499 -0.114209 -0.117651 
-0.118764 -0.116609 -0.119787 -0.120889 -0.119278 -0.122566 -0.121888 -0.118128 -0.116674 
-0.11518 -0.113706 -0.115936 -0.112473 -0.111364 -0.112798 -0.110483 -0.109621 -0.110435 
-0.109088 -0.10841 -0.108877 -0.10796 -0.107437 -0.107877 -0.107168 -0.106865 -0.107084 
-0.10674 -0.106556 -0.106623 -0.106546 -0.106474 -0.106398 -0.106529 -0.106552 -0.106379 
-0.106608 -0.106676 -0.106453 -0.10665 -0.106615 -0.106321 -0.106409 -0.106168 -0.105648 
-0.105574 -0.104924 -0.104209 -0.103452 -0.102022 -0.101264 -0.0988984 -0.097014 -0.0956644 
-0.110727 -0.134729 -0.137903 -0.10951 -0.111425 -0.105613 -0.107822 -0.107067 -0.0715206 
-0.0660747 -0.0634492 -0.061259 -0.0724585 -0.059198 -0.0576565 -0.0680726 -0.056434 -0.0556429 
-0.0649114 -0.0548574 -0.0544503 -0.0628385 -0.0541755 -0.0541042 -0.061745 -0.0542179 -0.0544907 
-0.0615868 -0.0551336 -0.0557936 -0.0624894 -0.0565763 -0.0568716 -0.0639819 -0.0575914 -0.0580022 
-0.0654134 -0.0583848 -0.0584771 -0.066452 -0.0581419 -0.0578401 -0.0665933 -0.0573798 -0.0572748 
-0.0659303 -0.0573766 -0.0575018 -0.065623 -0.0576084 -0.0577851 -0.0657012 -0.0578258 -0.0580074 
-0.0656967 -0.0584541 -0.0589404 -0.0660162 -0.0594664 -0.0600734 -0.0669968 -0.0609757 -0.0619576 
-0.0685054 -0.0638192 -0.0656726 -0.0713648 -0.0688236 -0.12617 -0.113658 -0.100695 -0.104681 
-0.103027 -0.112424 -0.113905 -0.107755 -0.14559 -0.136831 -0.0955328 -0.0983426 -0.0978967 
-0.0987304 -0.0956658 -0.0964841 -0.102215 -0.105394 -0.111544 -0.110929 -0.10836 -0.139414 
-0.143681 -0.109983 -0.107323 -0.107233 -0.14914 -0.150685 -0.100053 -0.0995956 -0.10085 
-0.101288 -0.107183 -0.109535 -0.104475 -0.123685 -0.110245 -0.110896 -0.107288 -0.106176 
-0.100901 -0.102545 -0.125206 -0.0974547 -0.107904 -0.109258 -0.109209 -0.109923 -0.107902 
-0.110503 -0.109877 -0.107744 -0.11705 -0.141221 -0.143055 -0.114042 -0.113338 -0.11035 
-0.109423 -0.107141 -0.107036 -0.109975 -0.109781 -0.105764 -0.108419 -0.0906318 -0.117772 
-0.114759 -0.110445 -0.108179 -0.110984 -0.108374 -0.110554 -0.109266 -0.123168 -0.104553 
-0.105705 -0.102768 -0.122651 -0.12481 -0.125519 -0.124602 -0.10676 -0.107698 -0.0803874 
-0.115092 -0.112552 -0.123303 -0.124436 -0.12839 -0.126077 -0.118345 -0.130389 -0.138088 
-0.127193 -0.133152 -0.131128 -0.138212 -0.122564 -0.123497 -0.125004 -0.122026 -0.12064 
-0.119392 -0.07648 -0.139968 -0.146491 -0.0988736 -0.0962457 -0.0833514 -0.106865 -0.108625 
-0.108447 -0.105946 -0.122114 -0.118893 -0.0968182 -0.0958304 -0.0974319 -0.145577 -0.112209 
-0.109674 -0.108647 -0.110155 -0.144617 -0.104506 -0.103112 -0.117269 -0.104826 -0.108158 
-0.106209 -0.107531 -0.132369 -0.131445 -0.12271 -0.103611 -0.104954 -0.101204 -0.104266 
-0.104976 -0.101727 -0.100187 -0.101832 -0.105235 -0.112228 -0.114272 -0.118701 -0.118308 
-0.112635 -0.107973 -0.108428 -0.108065 -0.133803 -0.100744 -0.102884 -0.102051 -0.127401 
-0.128461 -0.129493 -0.130653 -0.128028 -0.131873 -0.133004 -0.13029 -0.134198 -0.135264 
-0.132751 -0.136587 -0.137483 -0.135385 -0.138033 -0.0717066 -0.0786469 -0.139114 -0.139594 
-0.137849 -0.140064 -0.140279 -0.139457 -0.140369 -0.140368 -0.139974 -0.140056 -0.13996 
-0.1397 -0.139248 -0.0670592 -0.0832911 -0.138264 -0.137375 -0.138336 -0.136081 -0.135146 
-0.136033 -0.133958 -0.133121 -0.133493 -0.132463 -0.131524 -0.131604 -0.130405 -0.129514 
-0.129753 -0.128985 -0.128082 -0.128143 -0.127169 -0.126322 -0.126668 -0.125655 -0.124946 
-0.125111 -0.124444 -0.123756 -0.123012 -0.123969 -0.122134 -0.0828397 -0.106472 -0.115206 
-0.117967 -0.0881312 -0.0921688 -0.0794503 -0.0959537 -0.0983993 -0.0897499 -0.100687 -0.101952 
-0.0967246 -0.10318 -0.103741 -0.100867 -0.104113 -0.104173 -0.102815 -0.104098 -0.103933 
-0.103312 -0.103673 -0.103457 -0.103078 -0.10327 -0.103191 -0.102754 -0.103203 -0.103351 
-0.10269 -0.103578 -0.103939 -0.103082 -0.10445 -0.104851 -0.104163 -0.124773 -0.107103 
-0.107142 -0.107155 -0.107082 -0.107202 -0.107353 -0.106548 -0.107674 -0.10812 -0.106735 
-0.108744 -0.109452 -0.107647 -0.110446 -0.111431 -0.109368 -0.112643 -0.113772 -0.111829 
-0.115056 -0.116123 -0.114537 -0.117252 -0.118249 -0.117107 -0.119305 -0.120262 -0.11947 
-0.121179 -0.122051 -0.121604 -0.122763 -0.123416 -0.123311 -0.123985 -0.124516 -0.125471 
-0.124668 -0.12253 -0.125339 -0.125261 -0.122931 -0.121899 -0.121237 -0.120466 -0.119692 
-0.12135 -0.118764 -0.117909 -0.119509 -0.116959 -0.116082 -0.117457 -0.115151 -0.114347 
-0.115415 -0.11345 -0.112743 -0.113431 -0.111965 -0.111403 -0.111606 -0.110888 -0.110558 
-0.110211 -0.110479 -0.110254 -0.109554 -0.109824 -0.109687 -0.109105 -0.109576 -0.109697 
-0.108582 -0.109865 -0.11025 -0.108593 -0.110816 -0.111611 -0.109465 -0.112807 -0.114069 
-0.111246 -0.0989448 -0.112873 -0.111338 -0.110259 -0.109332 -0.110204 -0.108681 -0.108051 
-0.1084 -0.107587 -0.107028 -0.107245 -0.10674 -0.106393 -0.106399 -0.106155 -0.105997 
-0.105756 -0.10594 -0.105849 -0.105404 -0.105832 -0.105798 -0.105201 -0.105646 -0.105582 
-0.104961 -0.105301 -0.105026 -0.104382 -0.104457 -0.103748 -0.10319 -0.102597 -0.101198 
-0.100957 -0.0991148 -0.0966229 -0.096994 -0.0930718 -0.089001 -0.0806611 -0.090524 -0.0785093 
-0.133825 -0.136799 -0.106756 -0.110199 -0.105511 -0.0726343 -0.0713363 -0.0704261 -0.0695917 
-0.0773457 -0.0691713 -0.0689162 -0.0759586 -0.0689194 -0.0691668 -0.075717 -0.0695749 -0.0703529 
-0.0763668 -0.0714455 -0.072307 -0.07799 -0.0735192 -0.0741248 -0.0805764 -0.075082 -0.0753883 
-0.0827076 -0.0755864 -0.0753549 -0.0838883 -0.0747239 -0.0744496 -0.0834249 -0.0737298 -0.0738584 
-0.0822233 -0.0736573 -0.0736372 -0.0812721 -0.0736039 -0.0734606 -0.0809385 -0.0731801 -0.0734372 
-0.0803364 -0.0736443 -0.0742098 -0.0799948 -0.0747895 -0.0758205 -0.0807331 -0.0777402 -0.0978837 
-0.0965719 -0.100663 -0.1032 -0.105195 -0.105682 -0.104772 -0.10674 -0.102376 -0.0972178 
-0.0990431 -0.0991673 -0.0975557 -0.105525 -0.102828 -0.106871 -0.107342 -0.10736 -0.107371 
-0.106034 -0.105994 -0.107108 -0.101371 -0.109877 -0.112764 -0.100595 -0.103427 -0.104991 
-0.102031 -0.102727 -0.103192 -0.10405 -0.106595 -0.106329 -0.116668 -0.109323 -0.109132 
-0.108051 -0.10855 -0.105334 -0.143956 -0.139954 -0.106426 -0.105502 -0.133142 -0.1244 
-0.12074 -0.13452 -0.14286 -0.145286 -0.12665 -0.129643 -0.106631 -0.126542 -0.105259 
-0.105075 -0.105002 -0.103617 -0.104862 -0.117722 -0.122644 -0.118685 -0.110994 -0.106386 
-0.116767 -0.114712 -0.104688 -0.106169 -0.105018 -0.103719 -0.118696 -0.123086 -0.118918 
-0.122808 -0.129085 -0.125502 -0.122888 -0.120869 -0.119264 -0.116169 -0.117643 -0.0977178 
-0.0979398 -0.134366 -0.139776 -0.105295 -0.0743501 -0.0800568 -0.0763953 -0.0832414 -0.108334 
-0.107961 -0.106758 -0.100375 -0.0999055 -0.106222 -0.119189 -0.142161 -0.141263 -0.140077 
-0.103282 -0.102838 -0.10378 -0.106725 -0.126125 -0.103968 -0.101762 -0.103235 -0.106873 
-0.106155 -0.107245 -0.105867 -0.106836 -0.110718 -0.11333 -0.100196 -0.0984967 -0.0987629 
-0.140392 -0.105124 -0.103984 -0.105507 -0.114684 -0.0841429 -0.109147 -0.10986 -0.108805 
-0.108037 -0.104795 -0.124046 -0.129717 -0.127243 -0.128484 -0.129727 -0.131113 -0.132386 
-0.129291 -0.133216 -0.134629 -0.13156 -0.0672819 -0.0832704 -0.133613 -0.135848 -0.137524 
-0.138631 -0.136863 -0.139168 -0.0794218 -0.0805906 -0.140085 -0.140161 -0.139633 -0.139437 
-0.139099 -0.139847 -0.077994 -0.0797523 -0.0778306 -0.0800638 -0.138111 -0.0827215 -0.0861012 
-0.136056 -0.134707 -0.137096 -0.132895 -0.131655 -0.13293 -0.129803 -0.129178 -0.129054 
-0.128007 -0.096452 -0.080072 -0.1267 -0.126174 -0.125984 -0.125284 -0.0993458 -0.112314 
-0.124385 -0.123698 -0.123789 -0.123322 -0.102844 -0.102982 -0.101921 -0.102305 -0.106952 
-0.10615 -0.0881008 -0.0981818 -0.0999363 -0.101454 -0.102173 -0.0993007 -0.102609 -0.102668 
-0.101464 -0.102476 -0.102225 -0.10181 -0.101852 -0.102034 -0.10159 -0.10609 -0.105868 
-0.10622 -0.10681 -0.108074 -0.109325 -0.106686 -0.110974 -0.112473 -0.109838 -0.114307 
-0.115825 -0.11369 -0.117493 -0.118817 -0.117436 -0.120155 -0.121365 -0.12063 -0.122368 
-0.123365 -0.123134 -0.125519 -0.121176 -0.119452 -0.11543 -0.118837 -0.0885045 -0.118229 
-0.11707 -0.115791 -0.114676 -0.11646 -0.113614 -0.112564 -0.113882 -0.111386 -0.110422 
-0.111468 -0.109396 -0.108816 -0.109044 -0.108355 -0.108322 -0.107864 -0.0994661 -0.0992649 
-0.103191 -0.108922 -0.109535 -0.111956 -0.117991 -0.11842 -0.108356 -0.108145 -0.107509 
-0.107844 -0.106969 -0.106408 -0.106653 -0.106111 -0.105675 -0.105815 -0.105182 -0.104841 
-0.104718 -0.104534 -0.104377 -0.103831 -0.10446 -0.104344 -0.10357 -0.103193 -0.102744 
-0.102003 -0.101057 -0.100689 -0.0995834 -0.097796 -0.0981347 -0.0952957 -0.0923132 -0.0864178 
-0.101425 -0.102828 -0.0834675 -0.0825041 -0.0819508 -0.0815202 -0.0871798 -0.0818807 -0.0820408 
-0.0868932 -0.0825875 -0.0831722 -0.0879899 -0.0834033 -0.0847091 -0.088953 -0.0883841 -0.0896554 
-0.0931928 -0.0894625 -0.0903143 -0.0968404 -0.0939104 -0.0941255 -0.100187 -0.091347 -0.0908522 
-0.101207 -0.0906913 -0.09012 -0.0983278 -0.0878703 -0.0878031 -0.0960269 -0.0892993 -0.0889388 
-0.0953917 -0.0868638 -0.0862543 -0.0941636 -0.085543 -0.0854883 -0.0910102 -0.0858715 -0.0863934 
-0.0922278 -0.0904242 -0.120106 -0.111848 -0.107857 -0.0847753 -0.107867 -0.107611 -0.107042 
-0.107215 -0.108316 -0.10762 -0.107916 -0.107194 -0.126364 -0.127429 -0.126801 -0.124887 
-0.122543 -0.105407 -0.105908 -0.106101 -0.104622 -0.121702 -0.117963 -0.0952791 -0.0943116 
-0.101734 -0.101626 -0.113061 -0.114317 -0.121913 -0.120716 -0.119637 -0.124947 -0.124161 
-0.138214 -0.14086 -0.116707 -0.116822 -0.101104 -0.129117 -0.132251 -0.119344 -0.10757 
-0.10762 -0.110811 -0.109416 -0.112846 -0.131269 -0.136001 -0.141531 -0.0935466 -0.0890887 
-0.103627 -0.102021 -0.103866 -0.100836 -0.0982879 -0.0989277 -0.100279 -0.100944 -0.0981757 
-0.0981096 -0.099136 -0.135605 -0.135167 -0.100585 -0.129423 -0.10822 -0.104103 -0.104552 
-0.0999897 -0.0995517 -0.108458 -0.112108 -0.10807 -0.104272 -0.105374 -0.10573 -0.103221 
-0.116782 -0.115184 -0.123549 -0.109353 -0.113284 -0.107491 -0.114169 -0.11335 -0.105125 
-0.0987187 -0.100424 -0.0994756 -0.10088 -0.101066 -0.113818 -0.110951 -0.105201 -0.1228 
-0.100813 -0.11105 -0.108203 -0.107909 -0.101934 -0.10171 -0.101406 -0.108538 -0.106329 
-0.10528 -0.107779 -0.126051 -0.110404 -0.11554 -0.111013 -0.104664 -0.109333 -0.111381 
-0.118089 -0.120012 -0.122569 -0.124017 -0.123473 -0.124562 -0.125546 -0.126639 -0.123623 
-0.122511 -0.121079 -0.119431 -0.064687 -0.0638238 -0.0940663 -0.0990359 -0.0990586 -0.11327 
-0.111901 -0.109269 -0.107925 -0.111017 -0.113122 -0.113392 -0.115485 -0.117345 -0.0942557 
-0.097271 -0.0994486 -0.111947 -0.114861 -0.127445 -0.128865 -0.106903 -0.105418 -0.104905 
-0.104322 -0.103198 -0.102713 -0.10292 -0.100885 -0.107724 -0.0924062 -0.0952411 -0.0913632 
-0.097256 -0.100997 -0.100582 -0.103071 -0.100604 -0.104781 -0.137188 -0.133096 -0.100798 
-0.130716 -0.128396 -0.105238 -0.105762 -0.107501 -0.125537 -0.119192 -0.124098 -0.111982 
-0.106688 -0.101585 -0.102338 -0.102299 -0.100352 -0.106495 -0.100354 -0.106665 -0.129306 
-0.127376 -0.12305 -0.101126 -0.101782 -0.101809 -0.0997357 -0.124308 -0.10382 -0.106302 
-0.09993 -0.0989401 -0.0964441 -0.103006 -0.106958 -0.103207 -0.101894 -0.0989491 -0.101828 
-0.105326 -0.0995885 -0.0971277 -0.104214 -0.105773 -0.0907802 -0.100334 -0.0907257 -0.0910956 
-0.0940766 -0.0921002 -0.092797 -0.0949262 -0.0941017 -0.0943482 -0.104033 -0.106468 -0.0995207 
-0.0951972 -0.1019 -0.102517 -0.106132 -0.102808 -0.103524 -0.0975698 -0.0998288 -0.107371 
-0.138978 -0.140024 -0.119968 -0.105252 -0.118179 -0.115222 -0.098622 -0.0988285 -0.11778 
-0.099937 -0.120378 -0.114572 -0.125445 -0.10382 -0.101824 -0.098143 -0.129693 -0.103959 
-0.104061 -0.101146 -0.0996789 -0.116101 -0.0963518 -0.0973856 -0.0963658 -0.098003 -0.129527 
-0.123012 -0.12343 -0.123193 -0.125096 -0.124162 -0.124132 -0.127615 -0.126184 -0.125964 
-0.131056 -0.129114 -0.128584 -0.13489 -0.132697 -0.131682 -0.139368 -0.136911 -0.135304 
-0.143594 -0.141209 -0.139116 -0.147028 -0.145317 -0.142655 -0.149446 -0.148227 -0.145493 
-0.151 -0.150237 -0.147484 -0.151334 -0.151355 -0.148555 -0.150353 -0.151013 -0.14857 
-0.148388 -0.149591 -0.147528 -0.145632 -0.147239 -0.145601 -0.141981 -0.144065 -0.142953 
-0.138113 -0.140293 -0.139724 -0.134342 -0.136409 -0.136376 -0.130642 -0.132622 -0.132989 
-0.127576 -0.129169 -0.129841 -0.125261 -0.126403 -0.127193 -0.123745 -0.12441 -0.125187 
-0.123126 -0.123273 -0.123818 -0.123044 -0.0979916 -0.119766 -0.124729 -0.114753 -0.12268 
-0.112005 -0.107217 -0.110464 -0.115362 -0.102479 -0.104543 -0.109315 -0.0999401 -0.100905 
-0.105527 -0.0986643 -0.0991678 -0.10319 -0.0981966 -0.0982866 -0.101811 -0.0983823 -0.098111 
-0.101172 -0.0992124 -0.098502 -0.101091 -0.100668 -0.0996911 -0.101518 -0.10282 -0.101491 
-0.102629 -0.105448 -0.103872 -0.104263 -0.108222 -0.10668 -0.106345 -0.111329 -0.109578 
-0.108704 -0.11478 -0.112822 -0.111381 -0.117792 -0.1162 -0.11416 -0.11977 -0.118895 
-0.116691 -0.120026 -0.120188 -0.118194 -0.118759 -0.119598 -0.118007 -0.116801 -0.117941 
-0.116717 -0.114893 -0.116002 -0.115161 -0.113051 -0.114149 -0.11367 -0.111902 -0.11255 
-0.112509 -0.111303 -0.111636 -0.111861 -0.11121 -0.111265 -0.111624 -0.111624 -0.111362 
-0.111811 -0.112515 -0.112016 -0.112425 -0.113829 -0.113092 -0.113438 -0.115308 -0.114514 
-0.114658 -0.116769 -0.116016 -0.116031 -0.118383 -0.117516 -0.117481 -0.119859 -0.119077 
-0.118896 -0.121096 -0.120496 -0.120198 -0.122163 -0.121637 -0.12137 -0.122862 -0.122581 
-0.122367 -0.0525169 -0.123024 -0.123127 -0.122573 -0.122859 -0.122898 -0.12181 -0.12224 
-0.122368 -0.12068 -0.121307 -0.121548 -0.119479 -0.120128 -0.120475 -0.118146 -0.118858 
-0.119292 -0.117022 -0.117595 -0.118126 -0.115927 -0.116481 -0.117035 -0.115144 -0.115508 
-0.116065 -0.114736 -0.114893 -0.11535 -0.11472 -0.114622 -0.114946 -0.115182 -0.114829 
-0.114894 -0.116092 -0.115499 -0.115228 -0.117324 -0.11655 -0.115924 -0.118756 -0.117943 
-0.116976 -0.120243 -0.119368 -0.11813 -0.121592 -0.120891 -0.119359 -0.122374 -0.122051 
-0.120452 -0.121998 -0.122367 -0.120894 -0.120363 -0.12146 -0.120352 -0.117723 -0.119289 
-0.118641 -0.114478 -0.116255 -0.116213 -0.111294 -0.11311 -0.113383 -0.1082 -0.109936 
-0.110759 -0.105518 -0.107014 -0.108343 -0.103344 -0.104483 -0.106268 -0.101852 -0.102683 
-0.104731 -0.100913 -0.101429 -0.103811 -0.100627 -0.100835 -0.103412 -0.10127 -0.100956 
-0.103772 -0.102916 -0.102035 -0.104924 -0.106073 -0.104421 -0.107137 -0.111466 -0.108152 
-0.110602 -0.121094 -0.114947 -0.115598 -0.139184 -0.126814 -0.124191 -0.100655 -0.0334739 
-0.0405237 -0.0149252 -0.0167157 -0.0498071 -0.0119806 -0.0132615 -0.0304971 -0.0105802 -0.0109265 
-0.0225488 -0.00679227 -0.00880712 -0.0183108 -0.00781664 -0.00959589 -0.0198695 -0.00891205 -0.00880188 
-0.0152019 -0.00922833 -0.0085331 -0.0153137 -0.00706046 -0.00852182 -0.0155838 -0.00818292 -0.0100818 
-0.020396 -0.00918926 -0.0101271 -0.0174239 -0.00936805 -0.00978002 -0.0160358 -0.00769646 -0.00875849 
-0.0169928 -0.0117952 -0.0104077 -0.0206443 -0.0111669 -0.0111179 -0.0200061 -0.00819599 -0.00770765 
-0.0201008 -0.00900479 -0.00828789 -0.0161893 -0.00830823 -0.00805736 -0.0159261 -0.00992477 -0.0102785 
-0.0202487 -0.00904417 -0.00844612 -0.0206877 -0.0114798 -0.0110132 -0.0203358 -0.0167334 -0.0156669 
-0.0280188 -0.112449 -0.0997414 -0.104528 -0.1194 -0.0914787 -0.135024 -0.14032 -0.107609 
-0.146674 -0.143827 -0.123548 -0.146033 -0.141886 -0.1333 -0.144095 -0.140066 -0.132745 
-0.140401 -0.137312 -0.129801 -0.135938 -0.133482 -0.119929 -0.129602 -0.124147 -0.108899 
-0.126358 -0.127126 -0.101203 -0.139817 -0.146136 -0.103923 -0.157869 -0.144335 -0.12764 
-0.11637 -0.0928087 -0.118644 -0.124772 -0.0898641 -0.131563 -0.136011 -0.111301 -0.136523 
-0.140191 -0.122973 -0.138399 -0.142385 -0.128539 -0.139531 -0.143796 -0.131611 -0.140684 
-0.142795 -0.131448 -0.13633 -0.128207 -0.119855 -0.114842 -0.0984019 -0.0997097 -0.0972996 
-0.103491 -0.0832252 -0.109815 -0.102833 -0.105413 -0.121607 -0.0847476 -0.137669 -0.13713 
-0.111047 -0.143567 -0.137621 -0.127854 -0.140564 -0.135954 -0.130476 -0.138494 -0.134767 
-0.129012 -0.136343 -0.131643 -0.125514 -0.129895 -0.121705 -0.117758 -0.110794 -0.120757 
-0.103425 -0.134755 -0.137358 -0.0843098 -0.156095 -0.138564 -0.125083 -0.116247 -0.0862067 
-0.122192 -0.126333 -0.0948626 -0.13195 -0.132835 -0.107663 -0.136956 -0.137184 -0.118173 
-0.137182 -0.139721 -0.122967 -0.140626 -0.143153 -0.131376 -0.142542 -0.144998 -0.127669 
-0.139593 -0.127011 -0.120726 -0.119263 -0.106031 -0.111687 -0.104394 -0.114729 -0.0996374 
-0.123219 -0.123182 -0.123188 -0.1118 -0.0953183 -0.168466 -0.239651 -0.153624 -0.124598 
-0.0418185 -0.121759 -0.144049 -0.16558 -0.127192 -0.118704 -0.124368 -0.229009 -0.231531 
-0.138998 -0.185125 -0.123155 -0.0601966 -0.126666 -0.125558 -0.124696 -0.123917 -0.123548 
-0.125175 -0.131963 -0.130364 -0.135468 -0.133521 -0.132078 -0.138891 -0.137106 -0.141973 
-0.140315 -0.138426 -0.144334 -0.143168 -0.14581 -0.145066 -0.143065 -0.146657 -0.146328 
-0.144329 -0.146345 -0.146597 -0.144796 -0.145091 -0.145825 -0.144306 -0.143198 -0.144324 
-0.143003 -0.140594 -0.142107 -0.141061 -0.137645 -0.139285 -0.138636 -0.134621 -0.13628 
-0.135918 -0.131521 -0.133178 -0.133064 -0.12877 -0.130216 -0.130317 -0.126544 -0.127703 
-0.127914 -0.124738 -0.125581 -0.125871 -0.100265 -0.101383 -0.107855 -0.109214 -0.10974 
-0.11137 -0.106376 -0.104967 -0.0888308 -0.0970216 -0.105936 -0.10703 -0.107342 -0.104398 
-0.10515 -0.106668 -0.103442 -0.103816 -0.105737 -0.102835 -0.103044 -0.10482 -0.102524 
-0.102524 -0.10414 -0.102823 -0.102466 -0.103754 -0.103715 -0.103028 -0.103809 -0.105039 
-0.104161 -0.104357 -0.106671 -0.105655 -0.10536 -0.1087 -0.107473 -0.106759 -0.111291 
-0.109714 -0.108625 -0.114553 -0.112796 -0.111356 -0.117592 -0.116272 -0.115129 -0.118574 
-0.118372 -0.118036 -0.117387 -0.11811 -0.118328 -0.115242 -0.116315 -0.116217 -0.11332 
-0.114273 -0.113687 -0.112056 -0.11272 -0.111778 -0.111412 -0.111841 -0.110856 -0.111103 
-0.111295 -0.110533 -0.111214 -0.111194 -0.110592 -0.111709 -0.111465 -0.111013 -0.112631 
-0.11216 -0.111805 -0.113841 -0.113225 -0.112954 -0.115271 -0.114535 -0.114364 -0.116728 
-0.115984 -0.115859 -0.118215 -0.117454 -0.117407 -0.119612 -0.118906 -0.118936 -0.120851 
-0.120207 -0.120299 -0.12205 -0.121452 -0.121573 -0.123103 -0.122598 -0.122788 -0.123858 
-0.0626576 -0.121513 -0.122073 -0.123241 -0.122658 -0.123017 -0.122728 -0.123202 -0.123338 
-0.123578 -0.123522 -0.120405 -0.121 -0.121541 -0.119175 -0.119824 -0.120346 -0.117967 
-0.118553 -0.119029 -0.116822 -0.117412 -0.117754 -0.115812 -0.116294 -0.116567 -0.115055 
-0.115377 -0.115506 -0.114593 -0.114766 -0.114687 -0.114489 -0.114439 -0.114164 -0.114769 
-0.114517 -0.113971 -0.115373 -0.114938 -0.114118 -0.116249 -0.115663 -0.114592 -0.117431 
-0.116771 -0.115544 -0.118949 -0.118108 -0.116975 -0.120357 -0.119699 -0.118722 -0.120829 
-0.12077 -0.120256 -0.119945 -0.120597 -0.120618 -0.117911 -0.11908 -0.119362 -0.115025 
-0.116627 -0.117008 -0.11237 -0.113771 -0.114152 -0.109978 -0.111311 -0.11156 -0.107902 
-0.109046 -0.109485 -0.106348 -0.107228 -0.107896 -0.105371 -0.10594 -0.106804 -0.104836 
-0.10516 -0.10623 -0.104851 -0.104881 -0.106103 -0.10544 -0.105106 -0.106388 -0.106546 
-0.106013 -0.106872 -0.108184 -0.107244 -0.107507 -0.109818 -0.108688 -0.107525 -0.109921 
-0.109494 -0.105163 -0.10724 -0.107372 -0.0982715 -0.126508 -0.110071 -0.130671 -0.174304 
-0.0368496 -0.0400975 -0.0473174 -0.0524691 -0.0591997 -0.0781098 -0.0646429 -0.029578 -0.0312902 
-0.045568 -0.0256522 -0.0259494 -0.0374698 -0.0245039 -0.0255424 -0.03395 -0.0252892 -0.0249475 
-0.0337856 -0.0260518 -0.0253426 -0.0337857 -0.0261308 -0.0250254 -0.0339574 -0.0261005 -0.0263651 
-0.0350805 -0.0271864 -0.0272088 -0.0352841 -0.0283818 -0.0271886 -0.0363307 -0.0283813 -0.0279768 
-0.0364949 -0.0282192 -0.0288249 -0.0371793 -0.0269414 -0.0284295 -0.0370925 -0.0262239 -0.0278532 
-0.0358977 -0.0279549 -0.0267384 -0.0365322 -0.0286913 -0.028439 -0.0372944 -0.0290365 -0.0289266 
-0.0393228 -0.0346474 -0.0327621 -0.0416622 -0.0488364 -0.0407585 -0.0507177 -0.0710449 -0.132889 
-0.114142 -0.109948 -0.113814 -0.126926 -0.179728 -0.141983 -0.101647 -0.117307 -0.103407 
-0.122366 -0.129664 -0.114623 -0.131964 -0.134408 -0.12453 -0.132539 -0.133619 -0.12785 
-0.129518 -0.129701 -0.125947 -0.12494 -0.120254 -0.119947 -0.114836 -0.106483 -0.109432 
-0.0993921 -0.0958616 -0.0972377 -0.0981048 -0.107409 -0.119923 -0.0939106 -0.0962541 -0.101548 
-0.107475 -0.110013 -0.0968521 -0.119888 -0.120495 -0.107807 -0.127915 -0.127947 -0.118233 
-0.131718 -0.13018 -0.124027 -0.131404 -0.127798 -0.124669 -0.125064 -0.118514 -0.120056 
-0.11081 -0.0990454 -0.109902 -0.0971003 -0.100241 -0.108335 -0.100266 -0.11919 -0.157908 
-0.101562 -0.117753 -0.122649 -0.129765 -0.113038 -0.128976 -0.130826 -0.122399 -0.126024 
-0.128282 -0.123612 -0.121296 -0.121948 -0.120029 -0.112622 -0.11016 -0.111638 -0.0998947 
-0.100561 -0.100795 -0.0976129 -0.106609 -0.115381 -0.0969967 -0.117062 -0.135874 -0.0971852 
-0.102674 -0.105511 -0.113758 -0.0983061 -0.117388 -0.122616 -0.108828 -0.125817 -0.128871 
-0.118319 -0.131316 -0.129622 -0.123781 -0.130579 -0.130663 -0.125189 -0.127231 -0.119892 
-0.121962 -0.114192 -0.101709 -0.11285 -0.100129 -0.100384 -0.102885 -0.12908 -0.127606 
-0.127001 -0.116413 -0.102024 -0.0966141 -0.0971424 -0.0986995 -0.10084 -0.106892 -0.101708 
-0.096745 -0.135327 -0.141074 -0.124062 -0.124293 -0.122594 -0.12715 -0.106444 -0.0778642 
-0.123934 -0.15795 -0.177551 -0.136276 -0.129031 -0.164326 -0.112209 -0.129259 -0.128418 
-0.176777 -0.173989 -0.155988 -0.130142 -0.152403 -0.124448 -0.116647 -0.116246 -0.1074 
-0.116358 -0.120216 -0.132109 -0.130553 -0.113043 -0.104492 -0.138036 -0.136652 -0.143174 
-0.142728 -0.142163 -0.141383 -0.141327 -0.142695 -0.143142 -0.141219 -0.142042 -0.141182 
-0.139191 -0.140282 -0.139519 -0.136729 -0.137994 -0.137386 -0.134115 -0.135472 -0.134961 
-0.131456 -0.132867 -0.132462 -0.128944 -0.130233 -0.130008 -0.126885 -0.127982 -0.12783 
-0.12505 -0.125994 -0.125937 -0.108586 -0.119372 -0.101895 -0.0994344 -0.125785 -0.124934 
-0.1244 -0.104945 -0.104133 -0.0983303 -0.0953678 -0.0859778 -0.0722727 -0.0901732 -0.105697 
-0.105937 -0.105171 -0.105454 -0.105677 -0.104543 -0.10483 -0.105339 -0.104071 -0.104184 
-0.104737 -0.10408 -0.1039 -0.104258 -0.104583 -0.10416 -0.10416 -0.105406 -0.104839 
-0.104499 -0.106516 -0.105782 -0.105132 -0.108231 -0.107091 -0.106128 -0.111521 -0.109479 
-0.107984 -0.116787 -0.114143 -0.120913 -0.119954 -0.114911 -0.116717 -0.111525 -0.113063 
-0.113093 -0.109953 -0.110686 -0.109804 -0.109548 -0.109769 -0.10865 -0.109483 -0.10959 
-0.10845 -0.109744 -0.109625 -0.108633 -0.110358 -0.110027 -0.10906 -0.111471 -0.110899 
-0.109933 -0.112987 -0.112249 -0.111406 -0.114734 -0.113875 -0.113243 -0.116497 -0.115641 
-0.115232 -0.118273 -0.117415 -0.117249 -0.119917 -0.119122 -0.119184 -0.121294 -0.120621 
-0.120899 -0.122424 -0.121754 -0.122164 -0.0452635 -0.0478294 -0.0699471 -0.0780609 -0.14047 
-0.139281 -0.137631 -0.139807 -0.120314 -0.121016 -0.118814 -0.11955 -0.120179 -0.105912 
-0.105969 -0.103439 -0.105444 -0.122738 -0.123412 -0.124179 -0.100829 -0.10357 -0.105127 
-0.117454 -0.118125 -0.118557 -0.116094 -0.116756 -0.117017 -0.11487 -0.115433 -0.115501 
-0.113957 -0.114342 -0.114177 -0.113293 -0.113534 -0.113091 -0.113077 -0.113092 -0.112395 
-0.113202 -0.113031 -0.11211 -0.113679 -0.113332 -0.112176 -0.11471 -0.114034 -0.112735 
-0.116529 -0.115479 -0.114108 -0.119113 -0.117792 -0.116615 -0.121413 -0.120623 -0.120021 
-0.121219 -0.121515 -0.122198 -0.119458 -0.12065 -0.121425 -0.116199 -0.117921 -0.118934 
-0.113008 -0.114634 -0.11538 -0.11056 -0.111797 -0.112132 -0.108665 -0.109686 -0.109712 
-0.107319 -0.10805 -0.108104 -0.106614 -0.107013 -0.107116 -0.106329 -0.106533 -0.106612 
-0.10639 -0.106391 -0.106531 -0.106622 -0.106528 -0.106618 -0.106759 -0.106705 -0.106457 
-0.106213 -0.106518 -0.105669 -0.103858 -0.105055 -0.103132 -0.142171 -0.151387 -0.127787 
-0.122784 -0.117482 -0.0531744 -0.0593214 -0.075474 -0.0598962 -0.107052 -0.113722 -0.105629 
-0.10417 -0.105966 -0.108438 -0.0426263 -0.0434963 -0.053114 -0.0421887 -0.0422133 -0.0509417 
-0.0426457 -0.0424281 -0.0506461 -0.0431891 -0.0429028 -0.0512998 -0.0442572 -0.0435806 -0.0521238 
-0.0447455 -0.0444848 -0.052969 -0.0454133 -0.0450601 -0.0537089 -0.0460006 -0.0457094 -0.0543648 
-0.045876 -0.0462758 -0.0548147 -0.0457383 -0.045782 -0.0546203 -0.0454733 -0.0456396 -0.0544553 
-0.0465207 -0.0459104 -0.0550801 -0.04839 -0.0473478 -0.0565334 -0.0499617 -0.0497346 -0.0587672 
-0.053165 -0.0500958 -0.0603919 -0.156569 -0.15307 -0.103317 -0.0954876 -0.125638 -0.129453 
-0.121658 -0.122283 -0.122935 -0.121724 -0.108933 -0.114456 -0.107804 -0.118202 -0.121514 
-0.113485 -0.122706 -0.122577 -0.117461 -0.12191 -0.119537 -0.117174 -0.116952 -0.112444 
-0.113375 -0.108204 -0.102187 -0.105845 -0.0983888 -0.0936003 -0.0976484 -0.0939346 -0.097999 
-0.0960005 -0.14341 -0.143416 -0.142106 -0.142322 -0.155765 -0.100365 -0.107081 -0.096891 
-0.110852 -0.115596 -0.104515 -0.117932 -0.119881 -0.111899 -0.1199 -0.119245 -0.114996 
-0.117304 -0.113857 -0.113668 -0.110456 -0.104584 -0.109445 -0.104253 -0.0991821 -0.116489 
-0.118882 -0.111496 -0.119416 -0.118437 -0.114288 -0.117194 -0.114007 -0.113235 -0.110813 
-0.105495 -0.108534 -0.102251 -0.0978046 -0.101658 -0.135208 -0.133573 -0.131995 -0.134951 
-0.129006 -0.127728 -0.128951 -0.126738 -0.102822 -0.108715 -0.111575 -0.115858 -0.106261 
-0.118034 -0.120275 -0.112396 -0.120588 -0.120575 -0.115788 -0.119293 -0.116056 -0.115414 
-0.112739 -0.107142 -0.111574 -0.105171 -0.104068 -0.109143 -0.138063 -0.115498 -0.0963868 
-0.100182 -0.0994289 -0.0998201 -0.164667 -0.164684 -0.14457 -0.0871122 -0.0935208 -0.126495 
-0.142094 -0.0942175 -0.0939807 -0.098177 -0.120457 -0.110929 -0.104245 -0.112128 -0.112375 
-0.124271 -0.124149 -0.112252 -0.118532 -0.119553 -0.123814 -0.123171 -0.123468 -0.124872 
-0.143103 -0.153965 -0.0978833 -0.0946507 -0.152633 -0.162535 -0.115389 -0.122557 -0.119393 
-0.138316 -0.148219 -0.0655271 -0.0594316 -0.0664052 -0.0783864 -0.113359 -0.126085 -0.128123 
-0.107471 -0.127655 -0.128196 -0.104624 -0.126387 -0.132393 -0.116738 -0.112757 -0.102096 
-0.10137 -0.104342 -0.0981911 -0.0979809 -0.109497 -0.100694 -0.157128 -0.107229 -0.125303 
-0.118223 -0.119078 -0.141058 -0.141272 -0.137959 -0.138907 -0.139838 -0.140471 -0.139979 
-0.138454 -0.133133 -0.134352 -0.13081 -0.132034 -0.131474 -0.128482 -0.129681 -0.129225 
-0.126484 -0.127462 -0.127084 -0.12481 -0.125721 -0.12531 -0.123983 -0.108814 -0.109796 
-0.135613 -0.136779 -0.136305 -0.133847 -0.107122 -0.108576 -0.140699 -0.140155 -0.104261 
-0.104562 -0.105024 -0.104835 -0.103737 -0.103873 -0.103626 -0.103839 -0.103633 -0.103259 
-0.104405 -0.10406 -0.103528 -0.105122 -0.104684 -0.104242 -0.10574 -0.105282 -0.104783 
-0.107075 -0.105874 -0.105119 -0.106258 -0.107656 -0.107664 -0.107681 -0.107657 -0.106822 
-0.108129 -0.107867 -0.106881 -0.109283 -0.108651 -0.107493 -0.111141 -0.11018 -0.108957 
-0.113546 -0.112404 -0.111327 -0.115962 -0.114821 -0.114159 -0.118304 -0.117188 -0.116897 
-0.12048 -0.119465 -0.119504 -0.122269 -0.121447 -0.121831 -0.123574 -0.123065 -0.123699 
-0.0590949 -0.05968 -0.0930703 -0.0883208 -0.116509 -0.117374 -0.117777 -0.120034 -0.120963 
-0.119776 -0.114745 -0.115585 -0.115824 -0.113186 -0.113871 -0.113833 -0.111937 -0.112481 
-0.112087 -0.11115 -0.111409 -0.110719 -0.110881 -0.110933 -0.109934 -0.111042 -0.110866 
-0.109712 -0.111689 -0.111243 -0.109902 -0.113126 -0.112154 -0.110592 -0.116279 -0.114429 
-0.112491 -0.121008 -0.118763 -0.116717 -0.123744 -0.124157 -0.123103 -0.118494 -0.120714 
-0.114188 -0.11634 -0.117545 -0.110803 -0.112411 -0.112956 -0.108545 -0.109613 -0.109596 
-0.107122 -0.10785 -0.107588 -0.106278 -0.106689 -0.106265 -0.105938 -0.106097 -0.105591 
-0.105933 -0.105987 -0.105306 -0.105832 -0.10593 -0.105217 -0.105183 -0.105585 -0.104685 
-0.103371 -0.104379 -0.103118 -0.0987587 -0.101433 -0.0996289 -0.0867171 -0.0941803 -0.0921512 
-0.0763986 -0.107996 -0.107379 -0.10764 -0.129094 -0.116659 -0.108391 -0.107203 -0.104738 
-0.107531 -0.137094 -0.127167 -0.110465 -0.108088 -0.108443 -0.0593607 -0.059231 -0.0671842 
-0.0602192 -0.0597601 -0.067628 -0.0611035 -0.0606168 -0.0685665 -0.0619258 -0.0614845 -0.0695446 
-0.0629144 -0.0626774 -0.0707771 -0.0637004 -0.06331 -0.0719108 -0.0637707 -0.0636234 -0.0722866 
-0.0635384 -0.0637789 -0.0723112 -0.063594 -0.0634485 -0.0721501 -0.0644027 -0.0639191 -0.0722031 
-0.0660217 -0.0649484 -0.0729921 -0.0685656 -0.0674646 -0.0749348 -0.123488 -0.141324 -0.141127 
-0.140221 -0.10489 -0.105078 -0.104279 -0.104248 -0.129161 -0.127628 -0.0958808 -0.0984379 
-0.110056 -0.112659 -0.108738 -0.113631 -0.114338 -0.110691 -0.113971 -0.112653 -0.11049 
-0.110886 -0.107875 -0.108036 -0.105288 -0.101134 -0.103393 -0.0989077 -0.0957509 -0.0985056 
-0.0994896 -0.0960636 -0.0969293 -0.115779 -0.121008 -0.123923 -0.136152 -0.140436 -0.133864 
-0.136687 -0.100368 -0.104677 -0.0983564 -0.106976 -0.109969 -0.102976 -0.111129 -0.111761 
-0.107129 -0.110433 -0.109445 -0.107942 -0.108755 -0.106242 -0.106656 -0.0998276 -0.100763 
-0.145055 -0.150417 -0.137229 -0.111078 -0.111417 -0.110915 -0.10945 -0.108186 -0.108382 
-0.105209 -0.106516 -0.103206 -0.100339 -0.100703 -0.103161 -0.152502 -0.151292 -0.102622 
-0.106108 -0.107802 -0.110702 -0.104621 -0.111709 -0.112774 -0.108052 -0.112105 -0.111402 
-0.109303 -0.11095 -0.108704 -0.10844 -0.108939 -0.140528 -0.141481 -0.13246 -0.121802 
-0.0605464 -0.0622967 -0.0680298 -0.108591 -0.112416 -0.113438 -0.109478 -0.107587 -0.107715 
-0.106398 -0.106824 -0.11695 -0.105159 -0.103707 -0.104581 -0.114117 -0.105309 -0.140571 
-0.0956912 -0.0951318 -0.0964392 -0.130291 -0.128908 -0.131767 -0.123467 -0.104911 -0.13902 
-0.139387 -0.138453 -0.0842293 -0.103064 -0.104037 -0.103218 -0.117357 -0.125776 -0.126042 
-0.124407 -0.0785909 -0.137352 -0.136148 -0.137107 -0.119389 -0.119681 -0.123332 -0.137558 
-0.132961 -0.119414 -0.129534 -0.106054 -0.104876 -0.107687 -0.106625 -0.121375 -0.118645 
-0.113646 -0.0640647 -0.0692605 -0.0796995 -0.0707797 -0.111968 -0.12235 -0.0719808 -0.0794819 
-0.0724359 -0.11843 -0.101874 -0.0996229 -0.0911607 -0.100087 -0.122035 -0.122039 -0.122829 
-0.117512 -0.127682 -0.124063 -0.10974 -0.117726 -0.138376 -0.107671 -0.152337 -0.148592 
-0.147069 -0.115328 -0.106334 -0.101259 -0.101288 -0.0989517 -0.134676 -0.133256 -0.131542 
-0.134519 -0.101538 -0.12562 -0.126635 -0.129673 -0.130787 -0.123878 -0.124629 -0.103444 
-0.102869 -0.10697 -0.101105 -0.102279 -0.102156 -0.10184 -0.130338 -0.137725 -0.1261 
-0.102568 -0.102935 -0.101446 -0.106038 -0.106086 -0.106715 -0.106233 -0.105353 -0.108659 
-0.107613 -0.106376 -0.111675 -0.110082 -0.108916 -0.115099 -0.113499 -0.112525 -0.118335 
-0.116851 -0.116435 -0.121279 -0.119923 -0.12004 -0.12365 -0.122553 -0.123091 -0.12545 
-0.124567 -0.125383 -0.12703 -0.0752921 -0.0747116 -0.102989 -0.104918 -0.117456 -0.118493 
-0.1194 -0.120547 -0.119141 -0.11086 -0.111749 -0.115176 -0.1163 -0.116905 -0.109294 
-0.109914 -0.10949 -0.108714 -0.108932 -0.108082 -0.108689 -0.108615 -0.107694 -0.108983 
-0.108724 -0.107799 -0.109594 -0.109161 -0.10804 -0.115356 -0.139995 -0.139632 -0.125041 
-0.127659 -0.106528 -0.107398 -0.105266 -0.10592 -0.105653 -0.104427 -0.104754 -0.10419 
-0.104063 -0.104196 -0.103252 -0.103814 -0.10401 -0.102814 -0.102833 -0.103416 -0.102146 
-0.100371 -0.101784 -0.100321 -0.0951934 -0.0980757 -0.0964213 -0.120173 -0.112612 -0.108951 
-0.0979218 -0.099632 -0.0773003 -0.0766588 -0.0829609 -0.0784778 -0.0780062 -0.0854046 -0.0795698 
-0.0789733 -0.0867647 -0.0807802 -0.0804675 -0.0881295 -0.0808566 -0.0808115 -0.0889909 -0.0812429 
-0.0810223 -0.0892066 -0.0807073 -0.0808855 -0.0892209 -0.0804865 -0.080298 -0.0880874 -0.0812796 
-0.0808616 -0.0877477 -0.0835124 -0.0819819 -0.0884679 -0.10764 -0.108345 -0.100496 -0.10939 
-0.0994007 -0.114824 -0.123337 -0.125708 -0.140159 -0.140213 -0.13982 -0.103932 -0.0987797 
-0.0974886 -0.0984124 -0.100912 -0.112845 -0.113922 -0.114299 -0.111723 -0.108122 -0.107172 
-0.106987 -0.105197 -0.105112 -0.103419 -0.10101 -0.102641 -0.0994935 -0.0975412 -0.0994889 
-0.105324 -0.104933 -0.106126 -0.105701 -0.122598 -0.112863 -0.140193 -0.131137 -0.126265 
-0.10644 -0.105166 -0.127403 -0.124127 -0.120968 -0.0742556 -0.0742085 -0.0808751 -0.127582 
-0.128723 -0.128005 -0.126055 -0.105764 -0.107302 -0.104362 -0.107797 -0.108081 -0.106274 
-0.0746595 -0.0754656 -0.080891 -0.12185 -0.122235 -0.102737 -0.104051 -0.109053 -0.113025 
-0.105429 -0.112554 -0.0968465 -0.0967945 -0.0973115 -0.128188 -0.139155 -0.139736 -0.139688 
-0.130183 -0.131972 -0.133213 -0.124118 -0.137115 -0.14282 -0.138811 -0.138061 -0.138923 
-0.106819 -0.103503 -0.103074 -0.101727 -0.100206 -0.100688 -0.104726 -0.104094 -0.105944 
-0.105548 -0.102344 -0.103446 -0.103639 -0.11273 -0.110382 -0.134721 -0.135894 -0.132877 
-0.107326 -0.135748 -0.137252 -0.138165 -0.136861 -0.135742 -0.136871 -0.145322 -0.139367 
-0.146118 -0.123281 -0.118751 -0.116374 -0.111 -0.109743 -0.109586 -0.108827 -0.108028 
-0.108306 -0.107268 -0.108472 -0.0881202 -0.0847452 -0.108367 -0.114944 -0.117773 -0.0858025 
-0.0911536 -0.0893235 -0.0787066 -0.103648 -0.0903333 -0.111789 -0.102507 -0.102916 -0.101246 
-0.104387 -0.104218 -0.102551 -0.104463 -0.10635 -0.104533 -0.103258 -0.104805 -0.108771 
-0.108978 -0.106553 -0.107453 -0.107334 -0.144657 -0.100936 -0.103354 -0.102653 -0.0998349 
-0.113257 -0.107938 -0.0829994 -0.0878563 -0.121607 -0.122863 -0.12383 -0.12134 -0.102137 
-0.102279 -0.10507 -0.134529 -0.133034 -0.13437 -0.105811 -0.104087 -0.0947492 -0.119886 
-0.114172 -0.11576 -0.104526 -0.105377 -0.132518 -0.13694 -0.109233 -0.107428 -0.102587 
-0.140261 -0.140021 -0.100374 -0.100887 -0.106027 -0.105037 -0.104039 -0.106213 -0.10213 
-0.0973449 -0.118724 -0.116648 -0.122584 -0.120799 -0.121267 -0.12553 -0.124168 -0.12506 
-0.127709 -0.126775 -0.127946 -0.129602 -0.0938182 -0.0927485 -0.119533 -0.120571 -0.106722 
-0.107041 -0.101599 -0.102099 -0.107452 -0.107119 -0.105452 -0.111565 -0.109651 -0.130004 
-0.122796 -0.0975696 -0.101884 -0.102983 -0.0980717 -0.0956249 -0.101393 -0.101562 -0.100283 
-0.100456 -0.101078 -0.0998582 -0.0978514 -0.0993635 -0.0982083 -0.0921757 -0.095224 -0.0940975 
-0.0864501 -0.109836 -0.105236 -0.142621 -0.146112 -0.143731 -0.0895285 -0.0877598 -0.0965514 
-0.0963882 -0.0955682 -0.0968795 -0.0965872 -0.0980978 -0.0986027 -0.10561 -0.0938133 -0.0945532 
-0.103076 -0.0938486 -0.0936765 -0.0989042 -0.094242 -0.0937938 -0.0982106 -0.107564 -0.116657 
-0.118016 -0.119399 -0.0946029 -0.117732 -0.112766 -0.121429 -0.10676 -0.109675 -0.107803 
-0.113153 -0.108124 -0.086397 -0.0858876 -0.0917091 -0.0860672 -0.131142 -0.106564 -0.10723 
-0.077228 -0.113794 -0.111163 -0.107514 -0.10851 -0.106619 -0.106934 -0.106868 -0.105749 
-0.13586 -0.139751 -0.140978 -0.138131 -0.127923 -0.129104 -0.13914 -0.138326 -0.139803 
-0.101112 -0.139772 -0.135118 -0.131517 -0.102283 -0.101932 -0.139849 -0.140245 -0.13937 
-0.100684 -0.101624 -0.102117 -0.12598 -0.126981 -0.125887 -0.0906303 -0.0993754 -0.0992281 
-0.114236 -0.111995 -0.116427 -0.130888 -0.132446 -0.128556 -0.134357 -0.135764 -0.132387 
-0.0982763 -0.121782 -0.0937225 -0.0934386 -0.136938 -0.13567 -0.137211 -0.106753 -0.108146 
-0.109308 -0.109718 -0.110262 -0.10305 -0.103875 -0.107793 -0.104953 -0.10605 -0.131126 
-0.110758 -0.112102 -0.109522 -0.0972337 -0.104284 -0.111163 -0.09732 -0.104646 -0.110887 
-0.101668 -0.133852 -0.13377 -0.132444 -0.101509 -0.104142 -0.113584 -0.115057 -0.116164 
-0.112744 -0.10439 -0.105389 -0.106737 -0.104126 -0.120621 -0.126656 -0.127752 -0.10273 
-0.10015 -0.100566 -0.103779 -0.103421 -0.102001 -0.100574 -0.0993513 -0.110448 -0.116137 
-0.113335 -0.113761 -0.123242 -0.124604 -0.125576 -0.122527 -0.11296 -0.106198 -0.101152 
-0.0976131 -0.103658 -0.108164 -0.117989 -0.0992475 -0.0983117 -0.0977496 -0.0992882 -0.0939117 
-0.101633 -0.100414 -0.102941 -0.093873 -0.096671 -0.0981008 -0.100049 -0.125581 -0.127404 
-0.105845 -0.10021 -0.100208 -0.105307 -0.107911 -0.108846 -0.101936 -0.100785 -0.101027 
-0.102169 -0.1305 -0.137228 -0.138308 -0.136002 -0.142078 -0.141863 -0.138453 -0.106939 
-0.10671 -0.107429 -0.11195 -0.104149 -0.124107 -0.129074 -0.11958 -0.121283 -0.110715 
-0.103682 -0.125429 -0.120445 -0.116422 -0.113134 -0.113426 -0.120052 -0.0952302 -0.0990301 
-0.0993535 -0.0984647 -0.0975965 -0.129325 -0.105088 -0.101533 -0.0985852 -0.138761 -0.134574 
-0.130082 -0.128508 -0.136762 -0.124483 -0.120452 -0.117557 -0.12423 -0.122851 -0.123229 
-0.12289 -0.128808 -0.127238 -0.131433 -0.124576 -0.122341 -0.138622 -0.137075 -0.132003 
-0.134741 -0.104581 -0.142079 -0.140651 -0.110452 -0.104049 -0.102567 -0.0985728 -0.0982668 
-0.099668 -0.0990771 -0.131562 -0.139808 -0.13882 -0.135403 -0.0995335 -0.13369 -0.118753 
-0.128629 -0.133588 -0.115133 -0.117012 -0.102249 -0.113698 -0.100365 -0.140188 -0.123151 
-0.158241 -0.123142 -0.123178 -0.123109 -0.122935 -0.122654 -0.122347 -0.121918 -0.120893 
-0.121516 -0.1198 -0.119141 -0.11852 -0.117785 -0.117297 -0.11671 -0.115663 -0.116248 
-0.114869 -0.114581 -0.114382 -0.114286 -0.11462 -0.114967 -0.115844 -0.116521 -0.117145 
-0.117984 -0.118726 -0.119587 -0.120406 -0.121345 -0.122059 -0.122836 -0.123899 -0.124092 
-0.123882 -0.12349 -0.122929 -0.121826 -0.120827 -0.119265 -0.116544 -0.114681 -0.113237 
-0.11133 -0.109781 -0.107935 -0.105368 -0.103921 -0.102853 -0.10164 -0.100803 -0.0998517 
-0.0990284 -0.0984655 -0.0977366 -0.0976064 -0.0976626 -0.0978713 -0.0982258 -0.0988692 -0.100465 
-0.102427 -0.10466 -0.108008 -0.111521 -0.117455 -0.124389 -0.139247 -0.194862 -0.120335 
-0.115252 -0.11432 -0.11443 -0.115411 -0.123455 -0.118055 -0.106604 -0.0981076 -0.0995711 
-0.164181 -0.123158 -0.189396 -0.13587 -0.12217 -0.116454 -0.110696 -0.106997 -0.103655 
-0.0995756 -0.0978986 -0.0969615 -0.0960664 -0.0955598 -0.0951032 -0.0949608 -0.0949105 -0.0950719 
-0.0954746 -0.0976522 -0.0986707 -0.0997883 -0.101209 -0.103573 -0.10526 -0.106911 -0.108584 
-0.110302 -0.112152 -0.113828 -0.115892 -0.117477 -0.119209 -0.121509 -0.122161 -0.122199 
-0.121952 -0.121473 -0.12059 -0.119652 -0.118454 -0.117386 -0.116192 -0.114345 -0.113199 
-0.112528 -0.111835 -0.111367 -0.110973 -0.1107 -0.110558 -0.110735 -0.111034 -0.111331 
-0.111829 -0.112323 -0.11306 -0.113763 -0.114543 -0.115935 -0.116706 -0.117491 -0.118386 
-0.119069 -0.119869 -0.120451 -0.121079 -0.121632 -0.122191 -0.122598 -0.122942 -0.123188 
-0.123187 -0.0960439 -0.0968843 -0.101398 -0.0949728 -0.102397 -0.120469 -0.115199 -0.110606 
-0.115249 -0.123107 -0.122901 -0.122941 -0.122744 -0.122695 -0.123 -0.123491 -0.124492 
-0.125465 -0.126901 -0.128326 -0.130284 -0.133673 -0.135938 -0.137892 -0.140437 -0.142418 
-0.144906 -0.148102 -0.149832 -0.150995 -0.15223 -0.154456 -0.154258 -0.153907 -0.153183 
-0.152416 -0.151198 -0.149953 -0.148308 -0.145387 -0.143212 -0.141276 -0.139021 -0.133574 
-0.131499 -0.128688 -0.127072 -0.125985 -0.124801 -0.124 -0.123317 -0.122747 -0.122783 
-0.153051 -0.154239 -0.137408 -0.135281 -0.153893 -0.131963 -0.146516 -0.146976 -0.130043 
-0.122936 -0.0548566 -0.0223313 -0.0488516 -0.0441173 -0.0419416 -0.0419409 -0.0367992 -0.035011 
-0.030989 -0.0338467 -0.0138318 -0.0561478 -0.070887 -0.0243884 -0.0272499 -0.031059 -0.03629 
-0.0390905 -0.0442603 -0.0467054 -0.0391467 -0.0512417 -0.0534397 -0.059898 -0.0636526 -0.0668343 
-0.0708379 -0.0588722 -0.0591928 -0.0529791 -0.0591901 -0.0614339 -0.0644495 -0.0576272 -0.0580582 
-0.0629541 -0.0669587 -0.062991 -0.0617941 -0.0546099 -0.0594173 -0.0574697 -0.0621557 -0.060776 
-0.013128 -0.0219033 -0.0458792 -0.0692857 -0.0283814 -0.0323894 -0.0433576 -0.0430584 -0.0367219 
-0.0403317 -0.0487946 -0.0590989 -0.0570578 -0.0639134 -0.0540202 -0.0603818 -0.0148314 -0.0266841 
-0.0472474 -0.0449312 -0.0442816 -0.0440465 -0.0425786 -0.0404506 -0.0335118 -0.0376554 -0.0553914 
-0.0758921 -0.0569154 -0.0555585 -0.0562299 -0.0579341 -0.0582124 -0.0620964 -0.0599661 -0.0585454 
-0.0621666 -0.0106709 -0.0192796 -0.0600773 -0.0651863 -0.0542787 -0.0516604 -0.0393557 -0.0476537 
-0.0355525 -0.0419391 -0.0306259 -0.0346595 -0.0256171 -0.059888 -0.0597012 -0.0133254 -0.0281631 
-0.0445856 -0.0485785 -0.0414506 -0.0450662 -0.0367103 -0.0389948 -0.0329754 -0.0432079 -0.0640236 
-0.020667 -0.02499 -0.0499562 -0.0495165 -0.0453738 -0.0445468 -0.0418061 -0.0399964 -0.038414 
-0.0323212 -0.0618739 -0.0114994 -0.0238065 -0.0535995 -0.0595851 -0.0541676 -0.0463763 -0.047866 
-0.0482113 -0.0409271 -0.0367445 -0.0340617 -0.0343879 -0.0241135 -0.060781 -0.0604799 -0.0718051 
-0.0583227 -0.0560004 -0.0490687 -0.0582404 -0.0572325 -0.05944 -0.0590759 -0.0630016 -0.055139 
-0.107146 -0.103605 -0.0655591 -0.0538367 -0.0790843 -0.0948747 -0.0806729 -0.0774375 -0.0774595 
-0.0754872 -0.0765705 -0.0760323 -0.0764929 -0.0773108 -0.0919515 -0.0794259 -0.0930667 -0.0775272 
-0.0744816 -0.0156151 -0.0240513 -0.0101707 -0.00464591 -0.000844207 0.000847258 0.00415457 0.00234156 
0.00321711 0.00127721 0.00187381 0.000575339 0.00137514 -0.00108347 -0.00149443 -0.00318569 -0.00185102 
-0.00427551 -0.0140896 -0.0269887 -0.0273113 -0.0292692 -0.0398866 -0.0254644 -0.0167195 -0.00383082 
-0.00276003 -0.00464734 0.00021131 -0.00307331 -0.0007529 -0.000296625 0.00105627 9.26217e-05 0.00135145 
0.00159744 0.00249607 0.000423549 0.00122053 -0.00434459 -0.0126693 -0.0144019 -0.00105113 -0.00285276 
-0.0004232 -0.00111518 0.0010111 0.000548596 0.00245863 0.00190454 0.00377118 0.00231971 0.00325502 
0.0017306 0.00140929 -0.0032447 -0.0109492 -0.018328 -0.0178508 -0.0192939 -0.0193772 -0.0421788 
-0.00498733 0.00158744 0.000838206 0.00303159 0.0015449 0.00265324 0.000317444 -0.000243463 0.000629257 
0.000286462 -0.000726753 -0.00177538 -0.00345908 -0.00135494 -0.00362866 -0.0230831 -0.00127361 -0.0527797 
-0.0798329 -0.0547793 -0.0505744 -0.0591791 -0.0563331 -0.0590151 -0.0596225 -0.066375 -0.0586403 
-0.0734151 -0.05959 -0.0520639 -0.05076 -0.0523025 -0.0508546 -0.0498118 -0.0477467 -0.0452936 
-0.0370294 -0.0344707 -0.0342738 -0.0984539 -0.0836846 -0.0850021 -0.0457485 -0.0512557 -0.0541386 
-0.0558528 -0.05885 -0.0600008 -0.0587738 -0.0598352 -0.0552227 -0.0549085 -0.0508076 -0.057304 
-0.0522754 -0.0523949 -0.051331 -0.0517641 -0.0483765 -0.0496759 -0.0401475 -0.0457516 -0.0356373 
-0.0385313 -0.0114936 -0.0407291 -0.0331208 -0.0365145 -0.0541378 -0.0122273 -0.058074 -0.0177958 
-0.0427123 -0.0593038 -0.0680479 -0.0176239 -0.0109687 -0.0169027 0.001376 -0.00280356 0.00202673 
0.000758676 0.0031233 0.00194166 0.00200021 0.00175127 0.00048331 -4.90241e-05 -0.00128728 -0.00127254 
-0.00156917 -0.00398015 -0.0102203 -0.00057426 -0.0246533 -0.0259961 -0.0393142 -0.0282058 -0.0277547 
-0.00415098 -0.0219716 -0.00482953 -0.00278483 -0.00157103 -0.00518769 8.01003e-05 0.000976479 0.00145263 
0.00133142 0.00172052 0.00263482 0.000126816 0.00266187 -0.00263611 -0.00255478 -0.0206093 -0.0114694 
-0.0434988 -0.036036 -0.035329 -0.00256277 0.000392496 -0.00117421 -0.00104779 0.000612264 0.000824629 
0.00182906 0.00226884 0.00199195 0.00317772 0.000709047 0.00370179 -0.00217487 -0.000648952 -0.0125125 
-0.0109934 -0.0210608 -0.0176732 -0.0404908 -0.0195639 -0.00105079 -0.00331121 0.00338125 0.000860642 
0.00243401 0.00152677 0.00260782 0.0023657 -0.00128833 -0.00090755 -0.00333616 -0.00358198 -0.00279906 
-0.0789804 -0.0492648 -0.0511224 -0.0545004 -0.0562469 -0.058807 -0.059736 -0.0598304 -0.0597856 
-0.0583364 -0.0538437 -0.0696303 -0.0520044 -0.0540982 -0.0532159 -0.0545726 -0.0518643 -0.0528295 
-0.0470104 -0.0494548 -0.0408686 -0.0455726 -0.0336977 -0.0333034 -0.0853578 -0.0504986 -0.0554102 
-0.0565113 -0.0551981 -0.0598853 -0.0592616 -0.0574869 -0.0596931 -0.0553609 -0.0673658 -0.0762554 
-0.053047 -0.0512408 -0.0524503 -0.0522354 -0.0512744 -0.0495481 -0.0477667 -0.0457111 -0.0399317 
-0.039119 -0.0767101 -0.00337449 -0.0128503 -0.033829 -0.100896 -0.0145201 -0.0133984 8.09708e-05 
-0.0429195 -0.0159617 -0.0933733 -0.107648 -0.0706219 -0.0601759 -0.074445 -0.0795703 -0.0936424 
-0.0819445 -0.0788072 -0.0804403 -0.0778405 -0.078949 -0.0767933 -0.0779504 -0.0760592 -0.0782595 
-0.0653111 -0.0703655 -0.0797991 -0.0664137 -0.0509972 -0.0976269 -0.0969955 -0.0743943 -0.0744978 
-0.0803345 -0.0676289 -0.0716822 -0.0815823 -0.0811913 -0.0651159 -0.080484 -0.0767791 -0.0781141 
-0.0642623 -0.0803489 -0.0820692 -0.0724111 -0.0799603 -0.0701575 -0.0636971 -0.0858001 -0.0758611 
-0.0505133 -0.0526659 -0.00167537 -0.00157161 -0.0466651 -0.0424826 -0.000759568 0.001474 -0.054839 
-0.054974 -0.00267183 0.000489629 -0.00307725 -0.00270355 -0.00684222 -0.00494021 -0.0517173 -0.0153645 
-0.0537089 -0.0547884 -0.00161488 0.00114562 -0.00400768 -0.0283513 -0.0150394 -0.0365737 -0.0477093 
-0.00361679 -0.00444998 0.00109189 -0.0325354 -0.0328429 -0.00401645 -0.00347764 0.00097304 -0.0601293 
-0.0590738 0.000624149 -0.00374057 -0.0669318 -0.0422908 -0.0585088 -0.0495512 -0.000622997 -0.0175545 
-0.0185404 -0.0545708 -0.00382093 -0.00499225 -0.00531312 -0.000246845 -0.017596 -0.0453322 -0.0177646 
-0.0337732 -0.0534024 -0.0579056 -0.0608039 0.000959411 -0.0204067 -0.0420048 -0.058135 -0.000248484 
-0.00593425 -0.0648558 -0.0542349 -0.00274374 -0.000891133 0.00146562 -0.00598472 -0.00367294 -0.00117387 
-0.000800363 0.000162473 -0.0416197 -0.0380132 0.000660003 -0.000362376 0.00136526 -0.00520516 -0.114885 
-0.0988216 -0.0594685 -0.0592544 -0.00652355 -0.0782891 -0.0987078 -0.0779312 -0.0292482 -0.0563937 
-3.72659e-05 -0.0283027 -0.0277334 -0.0527153 -0.0532681 -0.0542115 -0.0581642 -0.0422347 -0.0190139 
-0.0371135 -0.00137867 -0.0816384 -0.0715806 -0.0841749 -0.074405 -0.00548331 -0.082334 -0.07507 
-0.0603804 -0.0571665 -0.0497873 -0.0508171 -0.0527052 -0.0532114 -0.0462818 -0.0533922 -0.0590382 
-0.0213292 -0.0160725 -0.0120015 -0.0627349 -0.0536701 -0.00486847 -0.0148524 -0.0196647 -0.0362224 
-0.0989554 -0.0797299 -0.0973228 -0.0543049 -0.000457329 -0.00524805 -0.0580963 -0.00239469 -0.0368668 
-0.0360452 -0.0370223 -0.00291489 -0.00129724 -0.000686742 -0.00201749 -0.00385366 -0.00547385 -0.00237878 
0.00201578 -0.00237437 0.000593703 -0.0149548 -0.0134261 -0.0497481 -0.0518907 0.00248667 -0.0687634 
0.000106028 -0.0467201 -0.0662344 -0.0532596 -0.000520363 -0.0150391 -0.0046966 -0.0399085 -0.00635058 
-0.0705183 -0.0745825 -0.0414383 -0.039943 -0.0447106 -0.0698814 -0.0668642 -0.0692045 -0.0683229 
-0.0550006 -0.0476744 -0.0959825 -0.099237 -0.0970626 -0.0922574 -0.0944544 -0.0904701 -0.0765239 
-0.0545343 -0.0784998 -0.0829382 -0.104169 -0.0532655 -0.101081 -0.0948527 -0.0375859 -0.0398437 
-0.0968258 -0.0949141 -0.103894 -0.0567256 -0.0121544 -0.0141019 -0.0400968 -0.0598982 -0.00306391 
-0.0071216 -0.086135 -0.06123 -0.0576553 -0.0611186 -0.0699492 -0.0616263 -0.0592087 -0.0941314 
-0.0565497 -0.00871413 -0.00460591 -0.0725246 -0.0126717 -0.0548518 -0.0480826 -0.0445076 0.000607571 
-0.0531655 -0.0577758 -0.0274672 -0.0310351 -0.00179043 -0.0985338 -0.0339437 -0.0505533 -0.00181742 
-0.0340387 -0.0548364 -0.1037 -0.06475 -0.0371818 -0.0329925 -0.040795 -0.112698 -0.11296 
-0.112252 -0.112571 -0.123356 -0.127846 -0.126919 -0.123536 -0.114578 -0.119564 -0.116795 
-0.11763 -0.117719 -0.114062 -0.111034 -0.114009 -0.106968 -0.106696 -0.107397 -0.107253 
-0.123415 -0.122674 -0.118415 -0.118043 -0.0521575 -0.0430396 -0.04293 -0.0518198 -0.0517001 
-0.0429389 -0.117327 -0.111741 -0.116948 -0.108755 -0.094859 -0.0897988 -0.0947736 -0.0925865 
-0.105893 -0.106264 -0.107973 -0.104104 -0.103121 -0.10191 -0.0601903 -0.0689925 -0.0605835 
-0.0692262 -0.0602966 -0.0689845 -0.0603141 -0.0691213 -0.0764687 -0.0694868 -0.0692445 -0.0370835 
-0.0391787 -0.0275646 -0.0292661 -0.120889 -0.120586 -0.121174 -0.0148202 -0.0168935 -0.0259741 
-0.0249419 -0.0132506 -0.032742 -0.0232599 -0.107474 -0.109602 -0.110798 -0.113056 -0.134273 
-0.126767 -0.134529 -0.129664 -0.111889 -0.117359 -0.108957 -0.11498 -0.128948 -0.124855 
-0.12311 -0.10562 -0.105982 -0.106722 -0.130685 -0.132636 -0.131391 -0.118046 -0.117309 
-0.118095 -0.117325 -0.13036 -0.140145 -0.134169 -0.128331 -0.129878 -0.129227 -0.130797 
-0.104177 -0.106807 -0.106593 -0.145682 -0.127312 -0.124221 -0.130587 -0.1284 -0.122748 
-0.12169 -0.123416 -0.123554 -0.123822 -0.124997 -0.117194 -0.132396 -0.110272 -0.10746 
-0.107724 -0.114898 -0.11494 -0.116521 -0.111016 -0.10822 -0.111591 -0.0937898 -0.101092 
-0.101875 -0.121777 -0.121897 -0.124605 -0.125788 -0.120575 -0.123226 -0.12418 -0.122725 
-0.123641 -0.118557 -0.122367 -0.118495 -0.123154 -0.136652 -0.135449 -0.136961 -0.146849 
-0.146508 -0.148659 -0.13439 -0.133211 -0.132567 -0.123739 -0.123743 -0.12345 -0.136259 
-0.135725 -0.13723 -0.136657 -0.113293 -0.112916 -0.112427 -0.111976 -0.141039 -0.106752 
-0.109137 -0.106056 -0.108794 -0.0895553 -0.084251 -0.0848107 -0.12494 -0.125167 -0.124038 
-0.139932 -0.138174 -0.135704 -0.122906 -0.122747 -0.122716 -0.119225 -0.0946995 -0.0943767 
-0.0952892 -0.121179 -0.121896 -0.121764 -0.095901 -0.0958533 -0.127867 -0.126967 -0.127319 
-0.126399 -0.104915 -0.107496 -0.10304 -0.118722 -0.114275 -0.118345 -0.10402 -0.104021 
-0.104225 -0.104164 -0.106595 -0.106094 -0.106821 -0.13746 -0.130993 -0.112684 -0.114359 
-0.107366 -0.113595 -0.112209 -0.112203 -0.124041 -0.124793 -0.125466 -0.113785 -0.115596 
-0.132629 -0.121868 -0.12043 -0.121067 -0.122035 -0.120416 -0.106848 -0.107176 -0.107183 
-0.105701 -0.104938 -0.105846 -0.106686 -0.108145 -0.107144 -0.111195 -0.111739 -0.111756 
-0.105359 -0.105097 -0.104901 -0.106184 -0.106583 -0.106074 -0.106171 -0.103393 -0.10179 
-0.10261 -0.1069 -0.107585 -0.107826 -0.138772 -0.138969 -0.12368 -0.122109 -0.122159 
-0.122427 -0.012154 -0.0131751 -0.0152023 -0.148423 -0.146688 -0.149208 -0.116787 -0.117611 
-0.116573 -0.117309 -0.104052 -0.129525 -0.114526 -0.114889 -0.11505 -0.129829 -0.124966 
-0.130662 -0.129109 -0.13052 -0.130028 -0.131465 -0.151758 -0.151767 -0.115063 -0.115391 
-0.137858 -0.114711 -0.114839 -0.115029 -0.123395 -0.122709 -0.123345 -0.127309 -0.127064 
-0.128138 -0.127749 -0.106684 -0.128854 -0.130222 -0.12998 -0.0786284 -0.0837679 -0.108026 
-0.107081 -0.107403 -0.110082 -0.110404 -0.111341 -0.1117 -0.107645 -0.108961 -0.109487 
-0.109947 -0.110894 -0.113691 -0.11515 -0.11218 -0.133669 -0.134847 -0.135387 -0.114551 
-0.114208 -0.115262 -0.135086 -0.135925 -0.11835 -0.118693 -0.118467 -0.138509 -0.104264 
-0.104054 -0.103975 -0.102713 -0.10135 -0.101986 -0.100678 -0.12839 -0.108565 -0.104521 
-0.105036 -0.107841 -0.108471 -0.106627 -0.0973482 -0.0966372 -0.0973142 -0.0221097 -0.00666213 
-0.0154329 -0.106613 -0.106948 -0.106799 -0.125715 -0.108101 -0.106234 -0.089218 -0.109813 
-0.11127 -0.107917 -0.138731 -0.139409 -0.137883 -0.122102 -0.121439 -0.122309 -0.120673 
-0.119986 -0.120062 -0.124889 -0.0519358 -0.0986011 -0.0984629 -0.0992501 -0.112593 -0.111604 
-0.112513 -0.0984651 -0.134242 -0.132885 -0.133901 -0.129075 -0.138207 -0.132355 -0.143227 
-0.107043 -0.106737 -0.106171 -0.132126 -0.109531 -0.126146 -0.109626 -0.11041 -0.111543 
-0.110483 -0.101266 -0.107748 -0.105437 -0.178424 -0.181141 -0.198308 -0.127868 -0.104724 
-0.10538 -0.10469 -0.105319 -0.143406 -0.127886 -0.131627 -0.104503 -0.107273 -0.109486 
-0.112652 -0.12796 -0.126655 -0.107916 -0.10707 -0.10967 -0.102599 -0.105334 -0.100836 
-0.135408 -0.113242 -0.11318 -0.114365 -0.0780929 -0.0716619 -0.0719574 -0.0662631 -0.0575113 
-0.0654534 -0.0568989 -0.125394 -0.124523 -0.12509 -0.112933 -0.0939883 -0.115753 -0.100862 
-0.0490345 -0.0486497 -0.0563871 -0.118432 -0.11731 -0.117922 -0.116541 -0.110751 -0.130096 
-0.146074 -0.106745 -0.110095 -0.110587 -0.110931 -0.111384 -0.105418 -0.125429 -0.126345 
-0.125991 -0.123098 -0.123183 -0.131561 -0.130512 -0.130214 -0.124581 -0.124365 -0.124935 
-0.124593 -0.123747 -0.121927 -0.120639 -0.0666036 -0.058045 -0.129364 -0.128911 -0.122305 
-0.0990865 -0.100708 -0.0977313 -0.127835 -0.128684 -0.136996 -0.136539 -0.120724 -0.02225 
-0.0176826 -0.100741 -0.102078 -0.0995433 -0.0989008 -0.100499 -0.106745 -0.106784 -0.126492 
-0.126452 -0.105956 -0.107053 -0.105092 -0.127228 -0.128196 -0.128331 -0.112067 -0.114171 
-0.109838 -0.112227 -0.109166 -0.100837 -0.10106 -0.10278 -0.10551 -0.106062 -0.105808 
-0.102478 -0.104627 -0.103219 -0.0974361 -0.101152 -0.0948226 -0.098107 -0.11656 -0.115741 
-0.117867 -0.108405 -0.106899 -0.107274 -0.100176 -0.103874 -0.101525 -0.105228 -0.105538 
-0.102852 -0.102366 -0.101357 -0.100731 -0.117499 -0.118403 -0.118741 -0.115682 -0.115524 
-0.115385 -0.101217 -0.104374 -0.101157 -0.104498 -0.103476 -0.108648 -0.110657 -0.109055 
-0.116671 -0.115774 -0.11437 -0.113888 -0.118627 -0.117363 -0.120328 -0.118738 -0.116136 
-0.115124 -0.11495 -0.133335 -0.133513 -0.134816 -0.0330581 -0.0426444 -0.0912772 -0.094464 
-0.0868018 -0.0735878 -0.052692 -0.09487 -0.0965516 -0.098368 -0.0956633 -0.14356 -0.143138 
-0.142147 -0.0786767 -0.078922 -0.084606 -0.144395 -0.144939 -0.140541 -0.141275 -0.140019 
-0.118266 -0.118731 -0.11833 -0.141502 -0.141317 -0.142435 -0.116657 -0.117137 -0.116302 
-0.118072 -0.117429 -0.116731 -0.115514 -0.118328 -0.117019 -0.111369 -0.111195 -0.111573 
-0.111425 -0.142764 -0.141884 -0.121713 -0.121142 -0.121842 -0.12334 -0.124006 -0.122945 
-0.0542531 -0.0601204 -0.0466473 -0.112212 -0.116954 -0.113564 -0.132107 -0.113703 -0.114995 
-0.113985 -0.115375 -0.140577 -0.140162 -0.140137 -0.111795 -0.111073 -0.111622 -0.110896 
-0.123339 -0.142502 -0.064933 -0.0668408 -0.0569566 -0.103781 -0.0974652 -0.102693 -0.153666 
-0.165135 -0.141254 -0.141942 -0.140592 -0.141195 -0.146659 -0.148261 -0.141684 -0.109187 
-0.108227 -0.109619 -0.108647 -0.0981761 -0.100053 -0.092067 -0.122693 -0.123506 -0.126113 
-0.119659 -0.121458 -0.121185 -0.120811 -0.120317 -0.12002 -0.115855 -0.113393 -0.145139 
-0.116696 -0.117264 -0.11673 -0.128031 -0.135558 -0.0108033 -0.109195 -0.109112 -0.108126 
-0.108117 -0.110211 -0.110253 -0.117022 -0.118082 -0.117644 -0.118627 -0.130378 -0.132287 
-0.112113 -0.110879 -0.111982 -0.120957 -0.126743 -0.110221 -0.110128 -0.109308 -0.109978 
-0.108764 -0.110156 -0.10901 -0.108306 -0.1082 -0.108329 -0.106238 -0.1058 -0.109598 
-0.112089 -0.109475 -0.110939 -0.126171 -0.130194 -0.126383 -0.128858 -0.121205 -0.121741 
-0.121732 -0.1059 -0.108182 -0.149442 -0.141567 -0.119921 -0.120327 -0.112238 -0.122594 
-0.123073 -0.123328 -0.123824 -0.124002 -0.124522 -0.104419 -0.105221 -0.103759 -0.0578026 
-0.0655593 -0.0663205 -0.105411 -0.107331 -0.102815 -0.104545 -0.10431 -0.0493227 -0.0501319 
-0.0404607 -0.041052 -0.00916073 -0.0206202 -0.0152835 -0.103231 -0.12017 -0.101843 -0.112767 
-0.0997591 -0.105479 -0.108066 -0.0250387 -0.0327986 -0.0328131 -0.107501 -0.108238 -0.107768 
-0.108609 -0.126485 -0.126177 -0.1092 -0.101925 -0.108606 -0.0983844 -0.0993509 -0.0988709 
-0.100054 -0.0887514 -0.0924168 -0.0887979 -0.0927004 -0.102244 -0.100636 -0.109933 -0.106654 
-0.109648 -0.105328 -0.117695 -0.0359358 -0.0276686 -0.0358783 -0.118051 -0.0690069 -0.0690163 
-0.0766178 -0.0767957 -0.0533031 -0.0616814 -0.0612375 -0.0335758 -0.0425929 -0.0429759 -0.120804 
-0.12355 -0.119552 -0.0517726 -0.121384 -0.159014 -0.163362 -0.166142 -0.110818 -0.107779 
-0.104691 -0.101684 -0.104665 -0.105192 -0.104646 -0.105303 -0.103593 -0.138815 -0.138293 
-0.139571 -0.136056 -0.134251 -0.144151 -0.142025 -0.106315 -0.105768 -0.106691 -0.106256 
-0.0995037 -0.108041 -0.108808 -0.108685 -0.0959657 -0.094139 -0.0923734 -0.0929185 -0.102709 
-0.099093 -0.0893545 -0.077063 -0.0872329 -0.139441 -0.103656 -0.107607 -0.14725 -0.152788 
-0.250417 -0.108359 -0.108025 -0.124901 -0.124219 -0.124621 -0.119948 -0.115274 -0.113718 
-0.118076 -0.116779 -0.113718 -0.115004 -0.112194 -0.0989564 -0.108078 -0.0944864 -0.112628 
-0.113818 -0.114566 -0.116453 -0.103018 -0.0963589 -0.118363 -0.10028 -0.108445 -0.109419 
-0.106188 -0.106576 -0.108493 -0.109721 -0.107234 -0.108405 -0.116002 -0.111961 -0.142006 
-0.133299 -0.135477 -0.119069 -0.116577 -0.0437704 -0.0441078 -0.113806 -0.111924 -0.113168 
-0.111068 -0.112236 -0.113029 -0.112672 -0.109093 -0.114302 -0.108353 -0.11089 -0.105154 
-0.103322 -0.104559 -0.134414 -0.136147 -0.134721 -0.136491 -0.148301 -0.146659 -0.149097 
-0.0981654 -0.0994615 -0.100389 -0.0969167 -0.0995997 -0.0991708 -0.103591 -0.103988 -0.103718 
-0.103176 -0.131929 -0.12835 -0.121347 -0.102763 -0.100736 -0.101542 -0.126425 -0.126143 
-0.121206 -0.121938 -0.120003 -0.102611 -0.101771 -0.103068 -0.102219 -0.103514 -0.104797 
-0.104018 -0.126854 -0.120408 -0.134869 -0.140758 -0.140195 -0.142406 -0.115757 -0.116942 
-0.117081 -0.118392 -0.138304 -0.136736 -0.138245 -0.110134 -0.110075 -0.10907 -0.108977 
-0.133238 -0.140348 -0.00931738 -0.121289 -0.1192 -0.118822 -0.122882 -0.122246 -0.108131 
-0.108137 -0.109036 -0.161341 -0.146019 -0.170785 -0.14219 -0.141346 -0.143889 -0.14312 
-0.120882 -0.0159877 -0.031926 -0.0152301 -0.00848608 -0.10868 -0.107453 -0.0131435 -0.0298661 
-0.0122964 -0.0398764 -0.118428 -0.118501 -0.11877 -0.0763651 -0.0762101 -0.0930618 -0.0953664 
-0.123442 -0.125186 -0.124311 -0.124391 -0.104114 -0.104165 -0.102372 -0.102935 -0.101697 
-0.120676 -0.119511 -0.109825 -0.109909 -0.119957 -0.119364 -0.067496 -0.0587712 -0.104197 
-0.105092 -0.104279 -0.104866 -0.120566 -0.120616 -0.115067 -0.115803 -0.113496 -0.114366 
-0.134138 -0.130259 -0.122011 -0.121306 -0.122716 -0.0286834 -0.0280658 -0.0130202 -0.116399 
-0.117021 -0.131997 -0.1269 -0.110507 -0.106252 -0.126026 -0.129514 -0.112487 -0.104872 
-0.103671 -0.103243 -0.10684 -0.12879 -0.123135 -0.124331 -0.0765701 -0.084406 -0.0847432 
-0.115993 -0.116667 -0.119404 -0.119446 -0.118703 -0.10206 -0.105281 -0.10623 -0.107879 
-0.104669 -0.105591 -0.105589 -0.106263 -0.0851392 -0.107845 -0.108109 -0.11366 -0.0979497 
-0.100085 -0.0981391 -0.100359 -0.0980854 -0.0991314 -0.0994329 -0.114616 -0.122372 -0.12249 
-0.12967 -0.0530153 -0.105856 -0.106429 -0.105878 -0.100333 -0.11529 -0.115078 -0.115336 
-0.0987524 -0.0981521 -0.0975533 -0.115861 -0.115408 -0.115857 -0.116031 -0.117416 -0.115545 
-0.116936 -0.114499 -0.114728 -0.114864 -0.115073 -0.113497 -0.114151 -0.114161 -0.113672 
-0.123602 -0.124095 -0.0517125 -0.109256 -0.109181 -0.110097 -0.110004 -0.102343 -0.114365 
-0.109839 -0.13252 -0.115846 -0.112564 -0.109534 -0.110084 -0.112574 -0.118496 -0.11953 
-0.119286 -0.118793 -0.119572 -0.120454 -0.132808 -0.124893 -0.0842453 -0.0893262 -0.0900203 
-0.112011 -0.111636 -0.112869 -0.113727 -0.100058 -0.100342 -0.120916 -0.120459 -0.120757 
-0.0981779 -0.101998 -0.103764 -0.103108 -0.100965 -0.104888 -0.103337 -0.105014 -0.103675 
-0.15069 -0.12222 -0.102951 -0.00720342 -0.118198 -0.116997 -0.101912 -0.101222 -0.140626 
-0.141571 -0.141685 -0.116702 -0.116099 -0.101153 -0.132359 -0.13174 -0.133291 -0.120875 
-0.120754 -0.120397 -0.125193 -0.117228 -0.110522 -0.067901 -0.0599046 -0.0522437 -0.118927 
-0.0381918 -0.0511305 -0.0680452 -0.0389636 -0.0463024 -0.00887152 -0.0131843 -0.0195297 -0.108211 
-0.114387 -0.113274 -0.120201 -0.100938 -0.0987781 -0.0998394 -0.0981723 -0.0259529 -0.025972 
-0.0348852 -0.0350413 -0.0428951 -0.0433083 -0.0354621 -0.102358 -0.099799 -0.102297 -0.145619 
-0.0274158 -0.105027 -0.105764 -0.105653 -0.113116 -0.0521468 -0.0519473 -0.1163 -0.0364302 
-0.0536741 -0.0238909 -0.042691 -0.114033 -0.139833 -0.138404 -0.139339 -0.141219 -0.139545 
-0.13316 -0.130102 -0.132963 -0.125163 -0.127198 -0.120286 -0.121205 -0.12071 -0.143238 
-0.146683 -0.140631 -0.0524176 -0.0624622 -0.138215 -0.1383 -0.13718 -0.12123 -0.120338 
-0.120173 -0.119852 -0.131136 -0.132707 -0.134521 -0.132751 -0.134519 -0.113345 -0.112952 
-0.112255 -0.11111 -0.102533 -0.114867 -0.112136 -0.11496 -0.113986 -0.110918 -0.111374 
-0.110856 -0.111322 -0.119977 -0.103606 -0.115241 -0.139352 -0.138982 -0.138295 -0.117021 
-0.10124 -0.10314 -0.1201 -0.12834 -0.13491 -0.136626 -0.11652 -0.117497 -0.1161 
-0.107789 -0.13228 -0.132639 -0.133765 -0.137796 -0.124682 -0.123793 -0.117068 -0.116444 
-0.116569 -0.109714 -0.106311 -0.107462 -0.0721773 -0.0802801 -0.0997528 -0.0988229 -0.102662 
-0.121865 -0.120192 -0.120768 -0.110224 -0.0550583 -0.00969039 -0.102819 -0.10856 -0.116702 
-0.111907 -0.104946 -0.107684 -0.10652 -0.119471 -0.121043 -0.100354 -0.105516 -0.104976 
-0.00982131 -0.11107 -0.113109 -0.107847 -0.127365 -0.126101 -0.137426 -0.112653 -0.106335 
-0.102174 -0.134831 -0.136126 -0.134053 -0.14005 -0.13962 -0.131208 -0.204426 -0.153027 
-0.128682 -0.105141 -0.138599 -0.100546 -0.102066 -0.100526 -0.100867 -0.0650669 -0.126579 
-0.125744 -0.125874 -0.137681 -0.137404 -0.136249 -0.113023 -0.112083 -0.111061 -0.0946978 
-0.13622 -0.134141 -0.130632 -0.129517 -0.131262 -0.140513 -0.142855 -0.132072 -0.128204 
-0.105719 -0.112353 -0.111142 -0.111705 -0.119273 -0.119826 -0.119866 -0.104397 -0.105067 
-0.1031 -0.103946 -0.11566 -0.12316 -0.118874 -0.118738 -0.103694 -0.110482 -0.11215 
-0.105673 -0.107897 -0.106564 -0.106007 -0.104496 -0.103329 -0.0975261 -0.0963977 -0.098428 
-0.106454 -0.105836 -0.105819 -0.11159 -0.104965 -0.104911 -0.104716 -0.0985415 -0.0980942 
-0.13217 -0.105041 -0.100657 -0.108843 -0.10433 -0.0571544 -0.129548 -0.128512 -0.138992 
-0.120177 -0.0920562 -0.0982174 -0.0900091 -0.0955808 -0.108161 -0.107368 -0.126073 -0.0928029 
-0.10884 -0.114083 -0.114451 -0.118799 -0.117812 -0.134898 -0.108933 -0.123366 -0.0981219 
-0.0984812 -0.0990068 -0.0906106 -0.0937404 -0.092173 -0.0949554 -0.113549 -0.125637 -0.125535 
-0.110731 -0.107872 -0.110675 -0.106637 -0.112151 -0.11048 -0.116238 -0.11521 -0.114281 
-0.115947 -0.114915 -0.110195 -0.111665 -0.143471 -0.145661 -0.145761 -0.103606 -0.110641 
-0.111848 -0.111548 -0.112676 -0.116325 -0.115755 -0.130694 -0.120104 -0.115861 -0.116065 
-0.11508 -0.114243 -0.0972426 -0.102967 -0.107655 -0.107467 -0.108562 -0.108322 -0.109164 
-0.109065 -0.122024 -0.122494 -0.111762 -0.10431 -0.110607 -0.122571 -0.107635 -0.106509 
-0.123049 -0.123279 -0.123105 -0.104834 -0.107041 -0.12792 -0.105242 -0.105351 -0.104966 
-0.108244 -0.106834 -0.107819 -0.10646 -0.0138201 -0.0196082 -0.108403 -0.123739 -0.103496 
-0.104649 -0.104937 -0.103277 -0.105106 -0.102507 -0.104233 -0.11987 -0.135908 -0.136049 
-0.119417 -0.120705 -0.120494 -0.102354 -0.0431265 -0.0354496 -0.0351911 -0.147131 -0.139173 
-0.13451 -0.125985 -0.133671 -0.138298 -0.134024 -0.105025 -0.103141 -0.105766 -0.103745 
-0.0516658 -0.0419658 -0.106803 -0.106591 -0.106303 -0.105834 -0.139987 -0.139699 -0.139035 
-0.0222054 -0.021259 -0.121068 -0.0766852 -0.0688128 -0.0592162 -0.0680332 -0.0598883 -0.13464 
-0.0784744 -0.0522446 -0.0603206 -0.0518693 -0.0124615 -0.0168993 -0.10589 -0.1057 -0.10652 
-0.042971 -0.0430871 -0.105336 -0.103504 -0.0987978 -0.112149 -0.111948 -0.112296 -0.06031 
-0.0607686 -0.0985104 -0.0976186 -0.0987273 -0.114834 -0.119689 -0.120121 -0.150219 -0.147958 
-0.104601 -0.103816 -0.0999707 -0.148338 -0.134267 -0.0994457 -0.167778 -0.0846666 -0.0922781 
-0.0146382 -0.0178571 -0.0986954 -0.0990836 -0.099871 -0.139319 -0.111821 -0.112049 -0.110826 
-0.111202 -0.111214 -0.111533 -0.111539 -0.133043 -0.109979 -0.0257099 -0.0171337 -0.0168256 
-0.154593 -0.159308 -0.128931 -0.140361 -0.136598 -0.138974 -0.12441 -0.124814 -0.125895 
-0.0255336 -0.140103 -0.141388 -0.102458 -0.101815 -0.101827 -0.123839 -0.124631 -0.146539 
-0.148688 -0.148243 -0.103462 -0.111864 -0.101136 -0.105771 -0.109125 -0.119598 -0.117601 
-0.117959 -0.125736 -0.124975 -0.119716 -0.0739768 -0.114968 -0.121487 -0.120711 -0.120361 
-0.140174 -0.140256 -0.1407 -0.140696 -0.106096 -0.102648 -0.105555 -0.100219 -0.0135717 
-0.111937 -0.114701 -0.0980071 -0.110377 -0.0977461 -0.103339 -0.104872 -0.100661 -0.0610563 
-0.100648 -0.0943211 -0.0943334 -0.114546 -0.121439 -0.113534 -0.12085 -0.116615 -0.103469 
-0.104461 -0.105406 -0.106357 -0.103972 -0.103291 -0.103832 -0.0918275 -0.0987818 -0.0985718 
-0.0789664 -0.101905 -0.10264 -0.10302 -0.095389 -0.134475 -0.133861 -0.110754 -0.103937 
-0.104066 -0.132669 -0.134376 -0.131534 -0.133175 -0.129511 -0.141239 -0.14053 -0.142292 
-0.143356 -0.144398 -0.0979831 -0.0365215 -0.122146 -0.111749 -0.127705 -0.126653 -0.124897 
-0.111445 -0.112264 -0.110246 -0.111174 -0.117592 -0.12489 -0.107829 -0.119257 -0.11959 
-0.12022 -0.135675 -0.135369 -0.123289 -0.123588 -0.0991743 -0.100363 -0.0996108 -0.122376 
-0.122692 -0.12787 -0.121262 -0.120606 -0.121301 -0.120721 -0.110344 -0.111474 -0.111408 
-0.0571418 -0.0466325 -0.13228 -0.130364 -0.114626 -0.0984476 -0.117796 -0.123802 -0.0923286 
-0.0991025 -0.111178 -0.113221 -0.10598 -0.10531 -0.107079 -0.107739 -0.108685 -0.150827 
-0.132572 -0.105118 -0.105128 -0.12647 -0.126383 -0.110011 -0.0602756 -0.0937587 -0.106716 
-0.10629 -0.107123 -0.0802539 -0.0703171 -0.0807757 -0.0959308 -0.0998205 -0.100642 -0.100988 
-0.0795084 -0.0854814 -0.0866976 -0.0644943 -0.0648371 -0.101543 -0.109558 -0.115056 -0.119572 
-0.0181585 -0.0254468 -0.0352906 -0.0492889 -0.103511 -0.095053 -0.0869493 -0.0720288 -0.0728848 
-0.122742 -0.078477 -0.0748695 -0.0842563 -0.080845 -0.118295 -0.108649 -0.107463 -0.107405 
-0.114417 -0.0548782 -0.0542136 -0.0627998 -0.0528985 -0.122049 -0.121845 -0.121607 -0.125633 
-0.122804 -0.123247 -0.115094 -0.0707581 -0.122299 -0.108026 -0.107474 -0.118165 -0.105172 
-0.106955 -0.106979 -0.107995 -0.13651 -0.133559 -0.132273 -0.113364 -0.119258 -0.120826 
-0.119531 -0.124842 -0.117585 -0.123441 -0.103958 -0.0846951 -0.0951192 -0.100031 -0.108877 
-0.110821 -0.10716 -0.108858 -0.125288 -0.107008 -0.113446 -0.113604 -0.11332 -0.110046 
-0.102822 -0.103604 -0.103912 -0.130726 -0.129554 -0.102441 -0.120205 -0.121382 -0.112671 
-0.10671 -0.107955 -0.108069 -0.104561 -0.104955 -0.104766 -0.114864 -0.111324 -0.113832 
-0.12428 -0.109546 -0.108825 -0.104805 -0.105105 -0.104764 -0.1045 -0.0850774 -0.110921 
-0.108388 -0.117967 -0.119537 -0.11857 -0.144064 -0.133268 -0.147438 -0.137304 -0.139615 
-0.139808 -0.139983 -0.139772 -0.140146 -0.126461 -0.12595 -0.104608 -0.104324 -0.103965 
-0.10363 -0.124134 -0.124034 -0.124919 -0.0621954 -0.0967449 -0.121282 -0.124544 -0.126256 
-0.124567 -0.114169 -0.106558 -0.10655 -0.115379 -0.1146 -0.110849 -0.112268 -0.137002 
-0.135036 -0.10492 -0.104232 -0.140965 -0.106866 -0.102626 -0.114821 -0.106427 -0.119406 
-0.116586 -0.12994 -0.148703 -0.153668 -0.153111 -0.101842 -0.100811 -0.102248 -0.101244 
-0.150634 -0.151582 -0.123917 -0.12169 -0.103663 -0.111521 -0.101937 -0.109213 -0.0997372 
-0.0981753 -0.102054 -0.099786 -0.101131 -0.100243 -0.111341 -0.107167 -0.128743 -0.131289 
-0.129952 -0.124271 -0.126023 -0.125086 -0.106476 -0.106651 -0.106453 -0.123593 -0.119941 
-0.120512 -0.121504 -0.100167 -0.119729 -0.141054 -0.119798 -0.119065 -0.12497 -0.121608 
-0.119855 -0.116704 -0.127792 -0.127369 -0.108593 -0.108526 -0.109806 -0.110673 -0.10915 
-0.130482 -0.130589 -0.131668 -0.118413 -0.115169 -0.112525 -0.187381 -0.176906 -0.105777 
-0.105015 -0.132945 -0.133552 -0.0314207 -0.156197 -0.15388 -0.145535 -0.106417 -0.106799 
-0.106148 -0.0678772 -0.0610544 -0.0981914 -0.0966101 -0.111015 -0.109554 -0.0663396 -0.117121 
-0.118796 -0.119481 -0.119735 -0.102241 -0.103367 -0.0990609 -0.111647 -0.112549 -0.112668 
-0.0987955 -0.103109 -0.102367 -0.146712 -0.107123 -0.107387 -0.107492 -0.10101 -0.112916 
-0.101122 -0.00938897 -0.0988882 -0.00798204 -0.105732 -0.0989108 -0.100467 -0.109929 -0.117365 
-0.130619 -0.131924 -0.136335 -0.115228 -0.116371 -0.117686 -0.100675 -0.119487 -0.120014 
-0.105244 -0.104455 -0.105521 -0.130776 -0.129098 -0.121225 -0.120489 -0.103396 -0.103067 
-0.115526 -0.108015 -0.104192 -0.102141 -0.103453 -0.102078 -0.103382 -0.0879643 -0.0973695 
-0.0974179 -0.137653 -0.1372 -0.0990711 -0.0250468 -0.032722 -0.0325668 -0.122469 -0.117226 
-0.119961 -0.108273 -0.108043 -0.123047 -0.109666 -0.101323 -0.125499 -0.107221 -0.107408 
-0.14559 -0.146884 -0.144583 -0.128514 -0.0955217 -0.0979549 -0.1039 -0.12829 -0.127892 
-0.104345 -0.0947826 -0.109147 -0.0894952 -0.10609 -0.107015 -0.107017 -0.10636 -0.104913 
-0.11211 -0.102104 -0.10529 -0.00880787 -0.0748145 -0.0761192 -0.136481 -0.113223 -0.0838678 
-0.10046 -0.101879 -0.104788 -0.136885 -0.135873 -0.103567 -0.105156 -0.145827 -0.114592 
-0.112395 -0.106061 -0.106349 -0.110662 -0.10932 -0.125243 -0.128954 -0.126851 -0.105384 
-0.106625 -0.130286 -0.121122 -0.101967 -0.0905429 -0.0951559 -0.0933398 -0.125025 -0.0984448 
-0.120861 -0.112288 -0.110751 -0.123107 -0.12339 -0.122987 -0.123201 -0.120218 -0.142247 
-0.141317 -0.104818 -0.115293 -0.114896 -0.117293 -0.105672 -0.105043 -0.105944 -0.10456 
-0.1039 -0.123482 -0.106056 -0.0952039 -0.107308 -0.116072 -0.116714 -0.0941187 -0.122206 
-0.0945852 -0.113077 -0.116746 -0.121118 -0.122609 -0.121203 -0.0829234 -0.130356 -0.129323 
-0.129038 -0.103578 -0.13202 -0.132915 -0.104962 -0.104764 -0.107327 -0.103472 -0.0423798 
-0.0347081 -0.0420954 -0.0338406 -0.107492 -0.108263 -0.107776 -0.102428 -0.125431 -0.125742 
-0.120844 -0.108001 -0.105468 -0.105631 -0.129567 -0.11922 -0.118336 -0.117401 -0.1364 
-0.131826 -0.0992932 -0.0985459 -0.0976608 -0.11747 -0.116304 -0.101091 -0.101989 -0.101165 
-0.103566 -0.103278 -0.102986 -0.159087 -0.150054 -0.10242 -0.101768 -0.101844 -0.104409 
-0.0333266 -0.127304 -0.124803 -0.125998 -0.128746 -0.100806 -0.103083 -0.102017 -0.104299 
-0.10854 -0.048361 -0.0514806 -0.0591036 -0.12391 -0.124063 -0.10131 -0.105422 -0.117134 
-0.116426 -0.116266 -0.115427 -0.124432 -0.118103 -0.1175 -0.117306 -0.111257 -0.111906 
-0.111515 -0.127422 -0.0693776 -0.0776469 -0.0776535 -0.102632 -0.101568 -0.129222 -0.145838 
-0.148216 -0.147436 -0.103964 -0.143914 -0.145261 -0.0503104 -0.141455 -0.143201 -0.104047 
-0.100269 -0.100309 -0.102789 -0.122185 -0.121607 -0.114158 -0.114135 -0.138223 -0.138443 
-0.11072 -0.110216 -0.113963 -0.113872 -0.111908 -0.0897459 -0.0627543 -0.0887264 -0.113349 
-0.110394 -0.0329951 -0.0235203 -0.0249254 -0.114873 -0.0968765 -0.109844 -0.111609 -0.122827 
-0.122213 -0.096754 -0.0977829 -0.0948615 -0.105865 -0.108606 -0.116368 -0.119169 -0.123751 
-0.130064 -0.131769 -0.105713 -0.107781 -0.137344 -0.136182 -0.111818 -0.103606 -0.102895 
-0.112182 -0.11544 -0.119545 -0.109396 -0.11658 -0.118658 -0.115393 -0.114878 -0.137116 
-0.137451 -0.113674 -0.0554431 -0.0534004 -0.0626972 -0.108375 -0.136342 -0.138016 -0.137502 
-0.164327 -0.10227 -0.120668 -0.121203 -0.107234 -0.105659 -0.106225 -0.105688 -0.108163 
-0.12837 -0.12183 -0.107605 -0.130202 -0.114572 -0.115255 -0.115263 -0.0403103 -0.0402508 
-0.00752309 -0.123281 -0.118025 -0.118598 -0.118434 -0.110315 -0.141674 -0.141483 -0.125525 
-0.118909 -0.103808 -0.123486 -0.055952 -0.0636196 -0.120111 -0.121231 -0.121585 -0.104952 
-0.104104 -0.102373 -0.137629 -0.0671959 -0.104149 -0.105665 -0.00739354 -0.0176236 -0.012741 
-0.116788 -0.0488328 -0.0809109 -0.106249 -0.105598 -0.105752 -0.106303 -0.0888456 -0.105924 
-0.106496 -0.12188 -0.123041 -0.137397 -0.142385 -0.130195 -0.0770749 -0.0852621 -0.0263523 
-0.143722 -0.106695 -0.108027 -0.103261 -0.016463 -0.0140085 -0.120072 -0.126823 -0.145264 
-0.143725 -0.145138 -0.14417 -0.0277311 -0.0231228 -0.0349408 -0.0429435 -0.112532 -0.113527 
-0.128108 -0.128783 -0.129527 -0.114906 -0.114597 -0.116212 -0.115633 -0.116055 -0.13725 
-0.0904326 -0.0889862 -0.121664 -0.116419 -0.114737 -0.105211 -0.117844 -0.115324 -0.114084 
-0.00792905 -0.0126841 -0.0155497 -0.00902055 -0.107812 -0.108157 -0.109135 -0.115294 -0.115421 
-0.116037 -0.111628 -0.112915 -0.113425 -0.12296 -0.119305 -0.0940457 -0.0974254 -0.121811 
-0.122797 -0.0432263 -0.113965 -0.114768 -0.105218 -0.106606 -0.140983 -0.14025 -0.142491 
-0.100823 -0.102847 -0.106322 -0.101925 -0.102287 -0.136975 -0.128922 -0.140097 -0.121182 
-0.138195 -0.128375 -0.104234 -0.105622 -0.109256 -0.123569 -0.105771 -0.0255718 -0.102304 
-0.101005 -0.102093 -0.114357 -0.115723 -0.105898 -0.106716 -0.10573 -0.101635 -0.104029 
-0.10447 -0.102908 -0.105592 -0.104418 -0.104112 -0.112276 -0.119519 -0.107903 -0.109336 
-0.0636556 -0.112941 -0.113592 -0.112507 -0.114414 -0.109817 -0.110788 -0.110377 -0.100089 
-0.126433 -0.126645 -0.111239 -0.112564 -0.128266 -0.12743 -0.127997 -0.12716 -0.114917 
-0.122586 -0.132631 -0.128956 -0.133913 -0.13011 -0.121301 -0.119594 -0.115237 -0.0987697 
-0.116904 -0.115977 -0.125819 -0.114854 -0.113465 -0.114129 -0.114245 -0.113411 -0.115966 
-0.102327 -0.109119 -0.109817 -0.107932 -0.108701 -0.105426 -0.106155 -0.11576 -0.116866 
-0.125136 -0.108363 -0.108547 -0.109098 -0.108722 -0.109289 -0.108424 -0.109555 -0.108446 
-0.109529 -0.113033 -0.133541 -0.133248 -0.131769 -0.134728 -0.136459 -0.131817 -0.133354 
-0.131171 -0.119407 -0.120063 -0.0994661 -0.122331 -0.129352 -0.131154 -0.120532 -0.126896 
-0.103689 -0.108635 -0.100307 -0.105119 -0.110965 -0.100636 -0.106797 -0.120164 -0.106041 
-0.112238 -0.111413 -0.110535 -0.110827 -0.100258 -0.0156233 -0.0172456 -0.0961017 -0.12954 
-0.12691 -0.127469 -0.127918 -0.150856 -0.114765 -0.114663 -0.0999476 -0.113334 -0.117477 
-0.104512 -0.129177 -0.127721 -0.107663 -0.127612 -0.104628 -0.104317 -0.11026 -0.108717 
-0.112051 -0.111872 -0.107931 -0.134578 -0.0252086 -0.0246846 -0.0345539 -0.117287 -0.118092 
-0.121731 -0.122506 -0.118034 -0.118843 -0.118334 -0.129856 -0.154926 -0.127633 -0.121726 
-0.107856 -0.116968 -0.111503 -0.139298 -0.139216 -0.108761 -0.118692 -0.119153 -0.120752 
-0.121349 -0.118761 -0.117866 -0.0688859 -0.140022 -0.106674 -0.109893 -0.109302 -0.109879 
-0.105151 -0.121586 -0.121196 -0.0783298 -0.0897752 -0.103028 -0.110661 -0.112553 -0.117199 
-0.113831 -0.109022 -0.111932 -0.115031 -0.118801 -0.106313 -0.127644 -0.11447 -0.125297 
-0.123013 -0.122421 -0.131147 -0.139279 -0.136782 -0.144936 -0.144396 -0.143681 -0.143269 
-0.106428 -0.115502 -0.106487 -0.106568 -0.106444 -0.105943 -0.106614 -0.106629 -0.0800475 
-0.0738801 -0.132857 -0.110536 -0.119055 -0.115116 -0.114662 -0.114371 -0.0996054 -0.0347122 
-0.024251 -0.113573 -0.0954831 -0.0936077 -0.0963752 -0.0948036 -0.112087 -0.11855 -0.112075 
-0.100704 -0.0251848 -0.13169 -0.125538 -0.133917 -0.125483 -0.134364 -0.112598 -0.106098 
-0.106136 -0.137098 -0.102564 -0.119092 -0.108313 -0.117099 -0.118858 -0.114562 -0.11365 
-0.113609 -0.149088 -0.149079 -0.122794 -0.117446 -0.103438 -0.127362 -0.113875 -0.113007 
-0.0815768 -0.0874101 -0.123243 -0.129291 -0.124332 -0.099086 -0.105264 -0.0947679 -0.0966621 
-0.126338 -0.100958 -0.108848 -0.111166 -0.111295 -0.115798 -0.116615 -0.119772 -0.115731 
-0.116302 -0.116307 -0.117352 -0.116042 -0.113553 -0.132788 -0.114338 -0.107276 -0.107939 
-0.110575 -0.114065 -0.108972 -0.115335 -0.116994 -0.111509 -0.106212 -0.107115 -0.109528 
-0.10821 -0.0936838 -0.0897158 -0.0901484 -0.107589 -0.118197 -0.105671 -0.104382 -0.0771261 
-0.0774877 -0.0849285 -0.0856219 -0.124301 -0.123512 -0.100441 -0.0981312 -0.106729 -0.107966 
-0.121249 -0.12068 -0.11218 -0.135899 -0.10543 -0.120251 -0.14008 -0.0485236 -0.0383356 
-0.0411216 -0.139866 -0.114809 -0.13735 -0.124966 -0.0742268 -0.0474602 -0.0976693 -0.097993 
-0.11537 -0.0590024 -0.118042 -0.119467 -0.118364 -0.122853 -0.124278 -0.124853 -0.116383 
-0.113666 -0.113853 -0.114622 -0.10731 -0.107018 -0.112245 -0.113804 -0.100103 -0.106045 
-0.105879 -0.105474 -0.107323 -0.10156 -0.117978 -0.0461353 -0.0347227 -0.0864308 -0.0860178 
-0.0207169 -0.0256473 -0.025734 -0.117499 -0.0496506 -0.11525 -0.116481 -0.0861276 -0.0815411 
-0.0774646 -0.083494 -0.0756696 -0.0923981 -0.00698079 -0.104384 -0.103873 -0.0938113 -0.106648 
-0.103913 -0.118051 -0.0930161 -0.124055 -0.115221 -0.153406 -0.144273 -0.144739 -0.0957343 
-0.120731 -0.119421 -0.143411 -0.115536 -0.117732 -0.139264 -0.108006 -0.108637 -0.108144 
-0.119594 -0.119059 -0.0996141 -0.099323 -0.14223 -0.140718 -0.123235 -0.118919 -0.0718743 
-0.147129 -0.100025 -0.125805 -0.123742 -0.122983 -0.119312 -0.11974 -0.0877035 -0.102073 
-0.101597 -0.0997121 -0.100068 -0.0978046 -0.102117 -0.0917225 -0.0914934 -0.0992911 -0.108154 
-0.0911188 -0.0869089 -0.117558 -0.116994 -0.134336 -0.135758 -0.113689 -0.113737 -0.10547 
-0.139944 -0.104591 -0.10478 -0.00980659 -0.124816 -0.110377 -0.107391 -0.102567 -0.132144 
-0.140156 -0.138509 -0.113512 -0.105939 -0.116471 -0.103532 -0.114858 -0.140749 -0.109085 
-0.115161 -0.121404 -0.128228 -0.131019 -0.116755 -0.112126 -0.123819 -0.114578 -0.00892495 
-0.1392 -0.103222 -0.103246 -0.136764 -0.109547 -0.108329 -0.103697 -0.00699705 -0.105866 
-0.111762 -0.102387 -0.0980405 -0.00719971 -0.114824 -0.0955766 -0.108789 -0.125662 -0.124209 
-0.112809 -0.114203 -0.106832 -0.107126 -0.0997127 -0.139862 -0.139066 -0.141497 -0.140774 
-0.122486 -0.121712 -0.114254 -0.105204 -0.0920058 -0.0896456 -0.0964992 -0.0951655 -0.0929859 
-0.0815755 -0.0960887 -0.0996746 -0.0988311 -0.106364 -0.0365079 -0.144558 -0.143425 -0.106381 
-0.0550358 -0.00790765 -0.0195026 -0.104572 -0.100962 -0.0964521 -0.1038 -0.102908 -0.114594 
-0.114654 -0.114847 -0.114912 -0.104424 -0.126198 -0.130733 -0.138716 -0.139605 -0.137394 
-0.0977069 -0.118186 -0.118448 -0.138991 -0.142368 -0.102025 -0.103053 -0.120031 -0.120655 
-0.118161 -0.117389 -0.118191 -0.109458 -0.113066 -0.0134985 -0.112856 -0.113335 -0.113785 
-0.111773 -0.123399 -0.12315 -0.126229 -0.025834 -0.02046 -0.0257512 -0.00833919 -0.00678742 
-0.121246 -0.111443 -0.0600357 -0.0601543 -0.0517846 -0.134375 -0.150745 -0.110024 -0.112258 
-0.115116 -0.117742 -0.098834 -0.102243 -0.0990018 -0.146981 -0.127229 -0.113096 -0.116587 
-0.0986299 -0.116709 -0.151571 -0.0187887 -0.0164053 -0.10663 -0.108975 -0.10574 -0.112559 
-0.112455 -0.113181 -0.0518389 -0.0601435 -0.0605237 -0.0148471 -0.118721 -0.0515069 -0.0511623 
-0.142891 -0.105292 -0.104666 -0.104415 -0.0964441 -0.122979 -0.110221 -0.110091 -0.113291 
-0.104897 -0.105714 -0.115402 -0.141029 -0.126092 -0.127678 -0.102944 -0.0965373 -0.100016 
-0.102552 -0.110501 -0.116912 -0.117483 -0.135423 -0.085653 -0.0933908 -0.111522 -0.120108 
-0.121312 -0.127522 -0.116178 -0.111125 -0.12943 -0.104342 -0.101296 -0.0991174 -0.114712 
-0.108534 -0.107957 -0.108973 -0.107727 -0.0563502 -0.0565219 -0.048475 -0.0564613 -0.12677 
-0.142304 -0.128976 -0.143188 -0.105462 -0.103669 -0.104955 -0.105556 -0.105436 -0.134235 
-0.03539 -0.0435459 -0.0295986 -0.131252 -0.119638 -0.012403 -0.113814 -0.122663 -0.125865 
-0.120786 -0.107063 -0.00978622 -0.107341 -0.105408 -0.078943 -0.0731667 -0.0767707 -0.149073 
-0.134032 -0.129259 -0.13068 -0.12944 -0.103614 -0.134177 -0.128382 -0.134004 -0.104554 
-0.103986 -0.103227 -0.147481 -0.11302 -0.128211 -0.126556 -0.125775 -0.100123 -0.102667 
-0.138453 -0.102908 -0.117273 -0.108624 -0.104078 -0.101979 -0.0981656 -0.128462 -0.141219 
-0.101011 -0.106456 -0.105135 -0.130617 -0.12917 -0.0988804 -0.0968845 -0.100788 -0.119353 
-0.0693126 -0.0677333 -0.114381 -0.115669 -0.114914 -0.12657 -0.115012 -0.115225 -0.0842161 
-0.0976793 -0.112919 -0.112571 -0.0542306 -0.067572 -0.0612713 -0.114011 -0.0917875 -0.103742 
-0.108863 -0.104422 -0.118519 -0.103649 -0.115341 -0.0144692 -0.0233208 -0.123302 -0.123782 
-0.1216 -0.103035 -0.100049 -0.118325 -0.150406 -0.0348587 -0.0947519 -0.0948997 -0.114582 
-0.122652 -0.118259 -0.0953857 -0.0975365 -0.111817 -0.114121 -0.150287 -0.122455 -0.100003 
-0.122872 -0.116853 -0.134958 -0.135241 -0.0695543 -0.0691187 -0.109392 -0.100951 -0.102045 
-0.101968 -0.100009 -0.122724 -0.122379 -0.169107 -0.117211 -0.14064 -0.141513 -0.118183 
-0.123962 -0.12288 -0.143252 -0.115864 -0.104011 -0.108745 -0.097822 -0.0970339 -0.115973 
-0.116732 -0.120808 -0.108691 -0.112983 -0.00760156 -0.0164752 -0.00816622 -0.00675563 -0.100225 
-0.117302 -0.110084 -0.117726 -0.0167336 -0.119992 -0.024923 -0.127496 -0.107089 -0.106457 
-0.107271 -0.120766 -0.105131 -0.103163 -0.111021 -0.106805 -0.0714541 -0.0764847 -0.0872703 
-0.107305 -0.11145 -0.124572 -0.129784 -0.109179 -0.078249 -0.078076 -0.0769371 -0.119943 
-0.123194 -0.142045 -0.116623 -0.120901 -0.144537 -0.118693 -0.133997 -0.138152 -0.119861 
-0.134622 -0.10799 -0.138384 -0.140461 -0.142524 -0.141828 -0.134537 -0.11059 -0.113027 
-0.106625 -0.139861 -0.00729807 -0.105304 -0.12749 -0.11912 -0.11067 -0.123125 -0.126134 
-0.14843 -0.103684 -0.116477 -0.0505543 -0.104349 -0.104683 -0.107648 -0.119319 -0.120516 
-0.135182 -0.108315 -0.108089 -0.109145 -0.0406512 -0.0411883 -0.117513 -0.0419641 -0.115657 
-0.113881 -0.0331504 -0.114811 -0.114 -0.114711 -0.109245 -0.113318 -0.122925 -0.123087 
-0.137396 -0.0454044 -0.0463397 -0.118873 -0.0701784 -0.125346 -0.0732195 -0.0362158 -0.116286 
-0.116843 -0.121866 -0.120963 -0.119425 -0.120402 -0.103467 -0.120635 -0.114895 -0.125902 
-0.138509 -0.184987 -0.109016 -0.106295 -0.129026 -0.0603832 -0.0995701 -0.12556 -0.12565 
-0.132318 -0.139038 -0.115813 -0.11039 -0.117348 -0.0271377 -0.138063 -0.104256 -0.13349 
-0.132256 -0.124625 -0.13975 -0.13189 -0.110592 -0.114188 -0.134904 -0.0963671 -0.092502 
-0.133361 -0.139605 -0.124011 -0.127116 -0.142565 -0.126153 -0.125459 -0.133757 -0.111662 
-0.100258 -0.0956907 -0.116197 -0.112732 -0.086627 -0.0774616 -0.113231 -0.122215 -0.0079308 
-0.0720923 -0.0791981 -0.0777174 -0.115962 -0.10873 -0.10791 -0.110761 -0.109922 -0.119634 
-0.114195 -0.112191 -0.102988 -0.118375 -0.127461 -0.116533 -0.115782 -0.107319 -0.106839 
-0.11329 -0.111661 -0.0403891 -0.0336577 -0.0273777 -0.0343707 -0.102954 -0.104295 -0.126515 
-0.121125 -0.113974 -0.111294 -0.106801 -0.104654 -0.112007 -0.124471 -0.140523 -0.0688721 
-0.117063 -0.103977 -0.104195 -0.103254 -0.103806 -0.0984456 -0.116042 -0.124551 -0.0237168 
-0.0329143 -0.116771 -0.086139 -0.0577768 -0.104426 -0.137131 -0.121372 -0.106699 -0.115834 
-0.148756 -0.159421 -0.0947489 -0.105452 -0.118644 -0.117642 -0.128191 -0.128823 -0.109754 
-0.120941 -0.0979341 -0.0931703 -0.0725146 -0.105523 -0.138628 -0.0646457 -0.0401243 -0.073555 
-0.128817 -0.114827 -0.106562 -0.103087 -0.107944 -0.109544 -0.0971294 -0.101638 -0.103286 
-0.0969971 -0.12708 -0.132403 -0.135463 -0.146881 -0.110024 -0.10726 -0.101253 -0.098248 
-0.0979625 -0.101731 -0.104758 -0.135418 -0.0966594 -0.136423 -0.11674 -0.106453 -0.139597 
-0.106693 -0.106135 -0.109352 -0.110533 -0.135876 -0.105 -0.105252 -0.110528 -0.103122 
-0.104385 -0.103944 -0.106664 -0.0715972 -0.0891507 -0.0519577 -0.106294 -0.0767854 -0.0369993 
-0.123722 -0.120684 -0.103544 -0.122723 -0.128857 -0.127101 -0.130717 -0.102656 -0.108463 
-0.107506 -0.106282 -0.107054 -0.10638 -0.107141 -0.114728 -0.0648057 -0.104522 -0.102565 
-0.102902 -0.144406 -0.098345 -0.085399 -0.0701159 -0.114738 -0.145487 -0.146806 -0.104638 
-0.118137 -0.100633 -0.101567 -0.145523 -0.101173 -0.10656 -0.140614 -0.104496 -0.101402 
-0.132106 -0.115596 -0.0864884 -0.116141 -0.0863858 -0.0936778 -0.100589 -0.108445 -0.110343 
-0.0979353 -0.131741 -0.126149 -0.125398 -0.119389 -0.118129 -0.137496 -0.106988 -0.106584 
-0.109876 -0.101002 -0.110534 -0.120731 -0.110746 -0.107192 -0.116655 -0.123086 -0.110488 
-0.117849 -0.122984 -0.0602819 -0.00901112 -0.117335 -0.113481 -0.113495 -0.0159575 -0.116667 
-0.117612 -0.0325046 -0.118507 -0.129597 -0.103432 -0.00793629 -0.0244478 -0.0262151 -0.0362853 
-0.044359 -0.103484 -0.117775 -0.138593 -0.139108 -0.127112 -0.100672 -0.123612 -0.114376 
-0.122095 -0.119469 -0.118706 -0.122784 -0.101977 -0.117303 -0.111133 -0.113602 -0.127251 
-0.00810191 -0.107244 -0.110087 -0.107393 -0.131115 -0.121157 -0.124377 -0.122959 -0.122089 
-0.101551 -0.0293428 -0.11224 -0.111036 -0.246378 -0.109663 -0.109291 -0.0116121 -0.00888589 
-0.031841 -0.11279 -0.122753 -0.0938541 -0.113893 -0.0241528 -0.0607553 -0.0711242 -0.0212273 
-0.112937 -0.107497 -0.100831 -0.14802 -0.144544 -0.118073 -0.0623137 -0.0580696 -0.065257 
-0.0329134 -0.120769 -0.0290647 -0.0499763 -0.121668 -0.136286 -0.0351472 -0.104442 -0.107024 
-0.122181 -0.0608295 -0.102093 -0.119027 -0.101015 -0.056399 -0.063024 -0.0293839 -0.107799 
-0.11147 -0.112767 -0.0841045 -0.112428 -0.111543 -0.10704 -0.108297 -0.0780826 -0.120688 
-0.118245 -0.0243624 -0.10015 -0.145847 -0.12382 -0.134065 -0.105328 -0.0626818 -0.0223885 
-0.00986258 -0.113325 -0.0665693 -0.071974 -0.0233667 -0.100994 -0.149476 -0.111007 -0.106345 
-0.0875157 -0.0791892 -0.105668 -0.0501789 -0.0547735 -0.0840856 -0.140638 -0.0476619 -0.0596742 
-0.0977274 -0.10237 -0.141348 -0.145278 -0.0630844 -0.112749 -0.123074 -0.0461187 -0.069924 
-0.0737929 -0.0351551 -0.0344759 -0.147403 -0.122506 -0.0572544 -0.0674478 -0.0414153 -0.121075 
-0.123531 -0.0535453 -0.0498172 -0.0217515 -0.0243662 -0.0637039 -0.0487259 -0.0972276 -0.104712 
-0.122202 -0.117925 -0.100244 -0.0607979 -0.137387 -0.0619153 -0.122523 -0.0410337 -0.0404818 
-0.0460748 -0.0406616 -0.0984439 -0.112799 -0.0679975 -0.0817308 -0.00631262 -0.043052 -0.0512039 
-0.123137 -0.123036 -0.123184 -0.0481967 -0.0815354 -0.0666908 -0.072306 -0.0444958 -0.0488776 
-0.0385495 -0.0990807 -0.06681 -0.102571 -0.0596819 -0.0647701 -0.0612449 -0.0715419 -0.0665738 
-0.059867 -0.0538507 -0.0591805 -0.0706257 -0.0734171 -0.0690876 -0.0804193 -0.0517023 -0.0507805 
-0.0418456 -0.0362116 -0.0502443 -0.05186 -0.0335958 -0.0414159 -0.0557369 -0.0853374 -0.057473 
-0.0609469 -0.0695224 -0.0672958 -0.01027 -0.0923581 -0.0872108 -0.0299291 -0.0701203 -0.0810448 
-0.0466563 -0.0769678 -0.068829 -0.0166635 -0.0231965 -0.0985352 -0.0750301 -0.0603658 -0.0297827 
-0.0382207 -0.0472786 -0.0347112 -0.00434104 -0.0386853 -0.0185314 -0.0268053 -0.024017 -0.0340542 
-0.0722827 -0.100804 -0.0835923 -0.0735094 -0.0378494 -0.0282906 -0.0996997 -0.0114188 -0.0386401 
-0.0360576 -0.0423239 -0.0399793 -0.0414102 -0.0299108 -0.0472455 -0.0490417 -0.0546204 -0.0563073 
-0.0826999 -0.0522542 -0.061017 -0.0530511 -0.0652074 -0.071776 -0.0662562 -0.0810118 -0.0700581 
-0.0793219 -0.0703231 -0.0381557 -0.0610476 -0.0523549 -0.0779791 -0.0623458 -0.0634281 -0.056768 
-0.0611758 -0.0676009 -0.0678251 -0.0108639 -0.0740307 -0.092325 -0.100612 -0.0603568 -0.0555017 
-0.0673676 -0.0595368 -0.0732245 -0.0442783 -0.0673377 -0.0545626 -0.0911861 -0.0469655 -0.0027327 
-0.0496795 -0.0471717 
Strain%20xy%20component 1 13529 double
-0.311335 -0.282586 0.328473 0.298245 -3.77272e-05 -1.76951e-05 3.22358e-05 4.42818e-05 -0.0349223 
0.0399554 0.0147629 -0.0354067 0.0460654 -0.00943753 -0.0429261 0.0360108 -0.018493 -0.0404493 
0.0412643 0.0168708 -0.0364952 0.0304612 0.0155559 -0.0324157 0.0378099 -0.0157484 -0.0423564 
0.0392327 -0.0146885 -0.0441958 0.0487799 0.0173267 -0.00809789 -0.00819306 -0.0152014 0.012823 
0.0105104 -0.0346536 0.0110898 0.00627339 0.0164077 -0.00926064 -0.0191037 -0.0447902 -0.0439328 
-0.0313505 -0.017271 -0.0119998 -0.000211915 0.00532682 0.013016 0.0296378 -0.0162751 -0.00631343 
-0.0104035 -0.0071006 0.00073094 0.003136 -0.0102855 -0.021592 -0.0237145 -0.0373074 -0.0225801 
-0.00631609 -0.000792167 0.00506765 0.0112973 0.0316317 -0.0108576 -0.00779939 -0.00415075 0.00766228 
0.0146486 0.00918508 0.00335646 -0.00643743 0.0364242 0.0188186 0.00972664 0.000140005 -0.011675 
-0.0213196 -0.0281108 -0.0156213 0.0057345 0.0166758 0.023061 0.0302554 0.0174965 0.00812075 
0.00675283 -4.2546e-05 0.0318578 0.0147298 0.00237866 0.00158946 5.13334e-05 -0.00362387 -0.0364239 
-0.00933005 0.00604794 0.0165873 0.0317629 0.0561425 0.0107611 0.00763785 0.00390598 0.00013838 
-0.00890839 -0.0397189 -0.0228149 -0.0103919 -0.00908133 -0.00155634 0.00861298 0.0252373 -0.00933085 
0.00466526 0.0175089 0.0289319 0.0582652 0.00807866 0.00550391 -0.00182212 -0.0161793 -0.0353325 
-0.0147444 -0.00816378 0.00159854 0.00956607 0.0211257 0.0428025 -0.011129 0.00566779 0.0118576 
0.0189494 0.0277311 0.0128439 -0.00635125 -0.016103 -0.0283474 -0.0490932 0.0405021 0.00862899 
0.00803226 -0.0022983 -0.00651556 -0.0207846 -0.0326936 -0.0133979 -0.00666719 -0.000295539 0.0114255 
0.00499144 -0.00892686 -0.0171812 -0.0239787 -0.0455145 0.0367018 0.0204586 0.00936475 0.00714056 
-0.00762799 -0.0131054 -0.0365439 -0.0117097 -0.00710689 -0.00571349 0.0019233 0.00849452 -0.166538 
-0.113619 -0.10164 -0.0893124 -0.0773672 -0.0698055 -0.060377 -0.0477691 -0.0359212 -0.0277404 
-0.0185481 -0.00663436 0.0048797 0.00962869 0.025156 0.0425729 0.0477402 0.0585985 0.0648931 
0.0825584 0.0893783 0.102101 0.115013 0.166887 -0.155659 -0.114314 -0.0967688 -0.0900645 
-0.0848784 -0.0809263 -0.0660338 -0.0506098 -0.0464974 -0.0446941 -0.041908 -0.0264488 -0.00940662 
-0.00514794 -0.00194699 0.000755067 0.0144746 0.0260643 0.0357312 0.0471254 0.048237 0.0517898 
0.0642476 0.0786044 0.0916438 0.0965064 0.102013 0.117409 0.165072 8.60935e-05 1.56931e-05 
-5.25329e-05 -3.57571e-05 -4.5556e-05 -0.000113014 -0.000115187 -0.000108743 -0.000116251 -0.000112814 -2.61745e-05 
-3.41363e-05 -6.93914e-05 -2.61247e-05 2.22133e-05 6.31856e-05 3.01272e-05 4.52466e-05 9.96682e-05 0.000113638 
9.92442e-05 9.44341e-05 7.67601e-05 8.58868e-05 3.97179e-05 5.29804e-05 6.14204e-05 -2.16389e-05 -8.35581e-05 
0.015139 -0.00354101 -0.00192117 -0.00042835 -0.000667416 -0.000873106 -0.000364447 -0.000184585 -9.5297e-05 
-0.000167789 -0.000147705 -0.000237239 -0.000154966 -0.000168938 -0.000292989 -0.000253738 -0.000399892 -0.000424987 
-0.000460964 -0.000550979 -0.000347261 1.61025e-05 0.000352728 0.000359317 0.000379542 0.000383127 0.000341036 
0.000171753 0.000173565 0.000168413 8.95911e-05 4.89993e-05 -7.64502e-05 -4.046e-05 -3.63111e-05 -7.74696e-05 
-0.000109353 -8.55897e-05 -9.14805e-05 -8.68559e-05 -0.000101385 -8.84833e-05 -3.02772e-05 7.16047e-05 0.000145764 
-0.000134273 -1.65842e-05 1.2217e-05 2.07658e-05 1.83286e-05 6.85045e-05 5.69173e-05 6.61788e-05 7.01897e-05 
8.79251e-05 5.47215e-05 4.26826e-06 1.11835e-06 -3.33308e-05 8.04365e-06 -7.23308e-05 -0.000218641 -0.000223721 
-0.000215468 -0.000242525 -0.000298499 -0.000205963 -4.28451e-05 8.48013e-05 0.000112534 0.000121306 0.000284099 
0.000354298 0.000300409 0.000299055 0.000259083 0.00017866 0.000232426 0.000310307 0.00016665 0.000253509 
0.000237682 0.000381781 0.000639695 0.000542268 0.000616374 0.000923241 0.00260871 0.00691203 0.001509 
-0.0150932 -0.0210496 0.00274945 0.012663 0.0123521 0.00891612 -0.000718994 -0.00842041 -0.014653 
-0.0309084 0.0505845 0.0292107 0.00244669 -0.00464811 -0.00976678 -0.0135035 -0.0134839 -0.000923843 
0.0186479 0.0235239 -0.0253745 -0.0203884 0.00569077 0.0111779 0.00938014 0.00956116 0.00420055 
-0.00207686 -0.0113772 -0.051269 0.0487558 0.0213181 0.0108065 0.000631378 -0.00139105 -0.00785593 
0.00057535 0.011211 0.0214893 0.012307 0.00018599 -3.0837e-05 -6.01674e-05 -9.38685e-05 -9.11544e-05 
-0.000116896 -0.000122921 -9.67249e-05 -0.000118292 -9.08815e-05 -4.96017e-05 7.14928e-05 6.25817e-05 0.000104451 
8.32277e-05 0.000103319 0.000105043 0.000106619 5.68364e-05 5.95074e-05 -1.17304e-06 -2.92989e-05 -0.00010519 
0.0306409 -0.00460934 -0.00106677 -0.00019317 -0.000267648 -0.000287203 -0.000332803 -0.000155965 -0.000298957 
-0.000297691 -0.000341455 -0.000318096 -0.000452947 -0.000450478 -0.000531797 -0.000540029 -0.000474654 9.68254e-05 
0.000218253 0.000393783 0.000404253 0.000321599 0.000259032 0.000152276 0.00015016 1.2699e-05 3.71633e-06 
-6.91964e-05 -9.35317e-05 -0.000121185 -0.00012551 -0.000116863 -8.47754e-05 -6.6322e-05 -6.74207e-05 5.43029e-05 
0.000200778 -0.00018878 -6.06438e-05 2.78764e-05 7.42524e-05 7.00676e-05 8.6596e-05 8.18139e-05 6.71144e-05 
6.92954e-05 1.99003e-05 -6.64838e-05 -0.000104468 -0.000154996 -0.000165063 -0.000223377 -0.000268025 -0.000264724 
-0.000298767 3.8634e-05 4.48104e-05 0.000293709 0.000273067 0.000323167 0.00029582 0.00026195 0.000187517 
0.000202274 0.000225482 0.000164958 6.39063e-05 0.000137337 0.000360448 0.000291284 0.000671726 -2.97446e-05 
-0.0202034 -0.0109886 -0.0126689 0.0140562 0.0140959 0.0125271 0.00867384 0.00956125 0.00326497 
-0.0130493 -0.062833 0.035662 0.00307503 0.00169508 -0.0045504 -0.00961316 -0.0131789 -0.0145631 
-0.0202965 0.00881281 0.00414064 -0.0128336 -0.0204981 0.00713293 0.0102536 0.0071465 -0.00116825 
-0.00916277 -0.0209704 -0.0353085 0.0289194 0.00837698 -0.00308739 -0.0019121 -0.0110768 -0.00955313 
-0.0202787 -0.0154882 0.0293698 0.014025 -0.0108732 -0.022446 -0.0447218 -0.0278331 -0.0145341 
-0.0205605 0.00256976 -0.0259765 -0.0172419 -0.0183355 -0.0200252 -0.0350382 -0.0206567 -0.0170133 
-0.0144252 -0.0351339 -0.00307546 0.0127478 0.0198118 0.0457265 0.0278265 0.0599917 0.00982465 
0.00550731 0.0297342 0.0248123 0.021548 0.0178536 0.0168305 0.0549218 0.0416575 0.0357782 
0.0013122 0.0110139 0.0240981 0.0204086 0.0401996 0.0224894 0.0118856 0.00897541 0.00837119 
0.0236934 0.0319908 0.0427008 0.00627764 -0.00564556 0.052777 0.0197262 0.0152333 0.0121406 
0.00964603 0.0246079 0.0366693 -0.00260211 -0.00840636 0.0573748 0.0146461 0.0176055 -0.0118149 
-0.0237939 -0.043151 0.00373934 -0.00777867 -0.0236428 -0.0123151 -0.0245588 -0.0125175 -0.0253892 
-0.0452435 -0.000632796 -0.0162861 -0.0244456 -0.0352544 -0.012875 -0.0110638 -0.0648993 -0.017728 
-0.000315311 -0.00125321 -0.0022542 -0.00307268 -0.00365536 -0.00403881 -0.00422006 -0.00425774 -0.00390627 
-0.00346211 -0.00271771 -0.00191117 -0.000990857 -2.74461e-05 0.000921464 0.0018363 0.00264487 0.00327395 
0.00367352 0.00395611 0.00397703 0.00390613 0.00357771 0.00318948 0.00251057 0.00179372 0.00103643 
0.000353024 -0.00011618 0.0644054 0.0398886 0.0259953 0.0166607 0.0111228 0.0071316 0.004262 
0.0020642 0.000417778 -0.00114208 -0.00246693 -0.00388283 -0.00525972 -0.00676464 -0.00794932 -0.00863512 
-0.00920801 -0.00931444 -0.00873798 -0.00700087 -0.00415605 -0.000586658 0.00266634 0.00472729 0.0054798 
0.00523085 0.00451893 0.00346965 0.00232504 0.00118569 7.14944e-05 -0.00107797 -0.00216973 -0.0030779 
-0.00394093 -0.00427477 -0.00439274 -0.00434214 -0.00419832 -0.00383857 -0.00320701 -0.00235057 -0.00139138 
-0.000499284 0.000467431 0.00100859 0.00173099 0.00230203 0.00271243 0.00297566 0.0031443 0.00307253 
0.00273867 0.00227817 0.00165193 0.000859171 2.00132e-05 -0.000865689 -0.0018437 -0.00277634 -0.00346282 
-0.00392674 -0.00402118 -0.00361396 -0.00265507 -0.00101479 0.000970077 0.00346956 0.00547507 0.00693193 
0.00782667 0.00795361 0.00748172 0.00683417 0.006161 0.00534638 0.00434449 0.00321401 0.00206326 
0.000743081 -0.000769371 -0.00276512 -0.00510953 -0.00846754 -0.0140944 -0.0237456 -0.0419486 -0.0948918 
-0.141672 -0.119918 -0.106896 -0.0906417 -0.0776615 -0.0664552 -0.0636246 -0.0574374 -0.0466469 
-0.0347852 -0.026826 -0.0235345 -0.0174262 -0.00521311 0.00671998 0.0167642 0.0219744 0.0280805 
0.0344991 0.0455078 0.0578014 0.0673649 0.0724398 0.076561 0.0899834 0.105651 0.123106 
0.145891 0.0116285 -0.039673 -0.0438682 -0.0245195 -0.0218125 -0.0189517 -0.0194774 -0.0198962 
-0.0266415 -0.0632772 -0.100272 0.0827073 0.0517474 0.0321384 0.0207698 0.0170049 0.0164957 
0.0196013 0.0234336 0.0352714 0.0253467 -0.0188285 -0.0012388 -0.0395614 -0.0503514 -0.0355742 
-0.0257776 -0.0220031 -0.0226755 -0.0256331 -0.0364116 -0.0535976 -0.0870459 0.0835694 0.0537649 
0.0288038 0.0199593 0.0174792 0.023465 0.0230825 0.0328238 0.0463921 0.0497929 0.00296825 
0.0107959 0.0471872 -0.0605024 -0.00306129 0.0168511 0.0213292 -0.0035438 -0.00499749 -0.00615848 
-0.00720777 -0.00773695 -0.0078538 -0.00753216 -0.00674634 -0.00563156 -0.00429775 -0.00269077 -0.000907294 
0.000892487 0.00261863 0.00414984 0.00543815 0.00644556 0.00707305 0.0073172 0.00726772 0.00693918 
0.00634523 0.00557061 0.00445542 0.00297112 0.00157022 -0.0208694 0.0657002 0.0437783 0.0302749 
0.0198275 0.0134764 0.00838969 0.00453969 0.00120665 -0.00172695 -0.00447028 -0.00710176 -0.0095046 
-0.0117562 -0.0133991 -0.0145096 -0.0151473 -0.0149888 -0.0130657 -0.00956695 -0.00440834 0.00147497 
0.00584326 0.00782669 0.00789237 0.0070552 0.00567953 0.00399508 0.00225442 0.00030907 -0.00179471 
-0.00368272 -0.00526027 -0.00678041 -0.00770594 -0.00813048 -0.00819213 -0.00801464 -0.00732314 -0.0064126 
-0.00528131 -0.00368214 -0.00173079 -0.0997545 0.0949222 0.00181362 0.00287492 0.00395604 0.00475801 
0.00540113 0.00578891 0.00578316 0.00535646 0.00470149 0.00369112 0.00242193 0.00097151 -0.000550501 
-0.00210891 -0.00368253 -0.00502016 -0.00599298 -0.00645287 -0.00615534 -0.00487461 -0.00251191 0.000737735 
0.0046849 0.00824943 0.0110065 0.0128012 0.0135027 0.0132158 0.0123936 0.0111043 0.00938991 
0.00760993 0.00549344 0.00323957 0.000603956 -0.00234772 -0.00619379 -0.0105452 -0.0168223 -0.0264537 
-0.0414511 -0.064739 -0.00632462 -0.0939459 -0.0883112 -0.0805576 -0.0720544 -0.0636561 -0.0548263 
-0.0475332 -0.0408239 -0.0332258 -0.0252447 -0.0163053 -0.00846978 -0.000916031 0.006536 0.0151994 
0.024661 0.0347235 0.0421718 0.0489724 0.0556445 0.0655173 0.0741828 0.0834092 0.0920619 
0.0951326 -0.0175502 0.0622255 0.00327543 -0.0157915 -0.0111435 -0.00958574 -0.0118528 -0.0207033 
-0.0393516 -0.0669066 0.00580632 0.0361775 0.0597916 0.00853245 0.00628393 0.00811348 0.0122902 
0.0155259 0.00922679 -0.0116483 -0.0192961 0.0559884 -0.0217603 -0.00437136 -0.020871 -0.0160392 
-0.0135318 -0.0150443 -0.0230617 -0.042027 -0.0636356 -0.0428996 0.0377516 0.0593644 0.015023 
0.0142719 0.0174186 0.0233451 0.028782 0.0244617 0.00594704 0.0175197 -0.0254698 0.0218872 
0.00965802 0.0149931 -0.00452196 0.0095076 -0.00759613 -0.00923115 -0.0103818 -0.0108932 -0.0107174 
-0.00998793 -0.0086166 -0.00695664 -0.00498189 -0.00258023 7.69417e-05 0.0024378 0.00466341 0.00677056 
0.00842908 0.00954628 0.0100377 0.0101291 0.00992639 0.00926665 0.00838042 0.00701979 0.00533237 
0.00344692 0.00442104 -0.00658322 0.0178488 0.0730953 0.0380206 0.0507864 0.0368618 0.0258559 
0.0181166 0.0119173 0.00681145 0.00240334 -0.00168998 -0.00549662 -0.0090615 -0.012218 -0.0145918 
-0.0164399 -0.0175755 -0.0182109 -0.0178258 -0.014974 -0.0107934 -0.00171233 0.00505951 0.0077951 
0.00811709 0.00740485 0.00616205 0.00444261 0.00242017 0.000194202 -0.00248545 -0.0049629 -0.00717784 
-0.00915251 -0.0106546 -0.0113806 -0.0116309 -0.0113492 -0.0105936 -0.00946871 -0.00819719 -0.00647743 
-0.0016719 0.00514156 0.0063626 0.00721009 0.00802248 0.00833564 0.00816809 0.00744934 0.00618022 
0.00470482 0.00296854 0.000948421 -0.000996633 -0.00299591 -0.00480581 -0.00627959 -0.00726645 -0.00750418 
-0.00663135 -0.00439583 -0.000850359 0.00431754 0.00918938 0.0131274 0.0158748 0.0171283 0.0170202 
0.0161931 0.014605 0.0124452 0.00986777 0.00706116 0.00378766 0.000276155 -0.00399772 -0.00916352 
-0.0154378 -0.0237265 -0.0350977 -0.0466633 -0.069318 -0.0244348 -0.00789229 -0.0733786 -0.0691992 
-0.0627829 -0.0554754 -0.0491505 -0.0426735 -0.0356261 -0.0283096 -0.0206705 -0.0130928 -0.00520905 
0.00285274 0.0112296 0.0201467 0.0289059 0.0372219 0.0440379 0.0511714 0.0582828 0.0653526 
0.0724428 0.0785715 -0.00529502 0.00221474 -0.0057422 -0.00793313 -0.0148973 -0.0289103 -0.04743 
-0.0112203 -0.0190569 0.00255171 0.00411235 0.0023521 -0.00199238 -0.011444 0.0357256 -0.0535666 
-0.0455825 -0.0126499 -0.0122664 -0.0189047 -0.0313996 -0.0461747 -0.0182784 0.0168904 0.0132359 
0.0135528 0.013685 0.0115616 0.0124398 -0.0042599 0.0117841 0.0098377 0.0248855 0.00397916 
0.00350153 -0.012393 0.0518322 -0.00868223 0.0113436 -0.00157813 0.050686 0.011295 0.0287656 
0.00647444 0.0188604 0.00395426 0.0416458 0.0420166 -0.0100283 -0.00367777 -0.012215 -0.013407 
-0.0137434 -0.0131906 -0.0118468 -0.0096976 -0.00784556 -0.0049304 -0.00139491 0.00187541 0.00445463 
0.00728581 0.00992568 0.0116762 0.0124414 0.0127695 0.012587 0.0120624 0.0111243 0.00963663 
0.00772518 -0.00468016 0.0162634 0.0652922 0.0514622 0.0396856 0.0300089 0.0221538 0.0153996 
0.00953471 0.00444488 -0.000501781 -0.00529632 -0.00931378 -0.0124431 -0.0143874 -0.0161473 0.00620419 
0.003593 0.00432172 0.00307499 0.00133902 -0.000842148 -0.00340829 -0.0065185 -0.00929276 -0.01175 
-0.0136048 -0.0145758 -0.0148864 -0.0146214 -0.0137568 -0.0124869 -0.0108544 0.00842455 0.00964773 
0.0105741 0.0108618 0.010465 0.00933029 0.00767811 0.00587944 0.0037354 0.00132787 -0.000873742 
-0.0028324 -0.00464205 -0.00609397 -0.00715796 -0.00731758 -0.00612373 -0.00357205 0.00898828 0.0171862 
0.0189957 0.0190443 0.0180633 0.0165112 0.0141219 0.0110907 0.00786456 0.00392086 -0.000472175 
-0.00561022 -0.0117566 -0.0187631 -0.027355 -0.0390886 -0.0543835 0.0269822 -0.0039095 -0.00970709 
-0.0618492 -0.0578133 -0.0529336 -0.0481697 -0.0430096 -0.0374043 -0.0310952 -0.0243188 -0.0173678 
-0.00961876 -0.00161914 0.00677881 0.0156598 0.0243652 0.0320986 0.038873 0.0451974 0.05097 
0.0563355 0.0610026 -0.0399722 -0.0108728 -0.00166094 -0.0292903 -0.0213841 -0.0343217 -0.0156487 
-0.00243307 0.0268618 0.000730113 -0.00676745 -0.0242969 -0.0106879 -0.00804807 -0.0347411 0.00254444 
0.00420304 0.00849241 -0.0123042 3.06654e-05 0.0117068 -0.0182078 -0.0046773 0.0160609 -0.00609562 
0.0163486 -0.0177864 0.0398159 -0.0356538 0.00893422 0.00170441 0.0135349 0.0132798 0.0167166 
0.00777397 0.0292983 0.00237613 -0.0425242 -0.00170264 0.0379105 0.00672067 -0.0130799 0.0235467 
0.0193329 -0.000712525 0.0320639 -0.0148618 -0.0159251 -0.0160189 -0.0151704 -0.0124598 -0.00816579 
-0.00411203 0.00135255 0.00560414 0.010146 0.0135372 0.0150969 0.0150122 0.0153277 0.0143196 
0.0136773 0.0121253 0.010249 0.040225 0.0506059 0.0406957 0.0324569 0.02512 0.0187619 
0.0130262 0.00758499 0.00200858 -0.00363349 -0.00746075 -0.00900361 -0.00345269 -0.00486223 -0.00831436 
-0.0117061 -0.0145881 -0.0165975 -0.0178801 -0.0183178 -0.0179445 -0.0166985 -0.0150771 -0.012973 
0.022285 0.0121088 0.0132277 0.0135944 0.0127172 0.0112064 0.00956196 0.00767018 0.0049916 
0.00216248 0.000744791 -0.000922069 -0.00252336 -0.00425323 -0.0060748 0.0191774 0.0181228 0.016521 
0.0143921 0.0113197 0.00749122 0.00359405 -0.00129363 -0.00719158 -0.0136618 -0.0206079 -0.0286829 
-0.0386481 -0.0501165 0.0241705 -0.044198 -0.0411033 -0.0374754 -0.0328285 -0.0273315 -0.0212603 
-0.0148392 -0.0064141 0.00163757 0.0110769 0.019888 0.0275865 0.0339683 0.039583 0.0441225 
0.0479915 -0.0246538 -0.00601475 -1.71181e-05 -0.0147405 -0.0248277 -0.000955141 0.0402311 -0.0126045 
-0.0185488 -0.0328869 0.00320931 -0.018861 0.00855404 -0.0315586 0.000565407 -0.00579024 0.0132096 
0.009263 -0.00364774 0.0324349 -0.0233242 -0.00625554 0.0195936 0.014885 -0.0471666 0.00802238 
-0.0335757 -0.0125155 0.0187791 0.00211567 0.00385526 -0.00772163 0.00903658 0.0258619 0.0154759 
0.031293 -0.0184407 -0.0181751 -0.0183266 -0.01746 -0.0100453 -0.00213744 0.00722346 0.0148936 
0.0175189 0.0181648 0.016606 0.0144549 -0.000713713 0.00581738 0.0337887 0.0277534 0.0223257 
0.0170141 0.00387169 -0.0149885 -0.0184581 -0.0203246 -0.0215488 -0.021837 -0.0209534 -0.0193164 
0.0166457 0.0147117 0.0133788 0.0129725 0.00995102 0.0306257 0.0328996 0.0142565 0.0123244 
0.0104388 0.00622698 0.00179759 -0.00217058 -0.0152218 -0.0218261 -0.0290569 -0.037542 -0.000186348 
-0.0363184 -0.0349417 -0.0327468 -0.0296117 -0.0253257 -0.0206976 -0.012239 -0.00351974 0.00602469 
0.0151504 0.0232396 0.0296265 0.0350549 0.0384224 0.0404429 -0.0344242 0.00999917 -0.0171623 
-0.0095614 0.0118059 0.0294767 0.0161486 -0.016033 0.0216262 -0.00869946 -0.0258603 -0.0082779 
-0.0163646 -0.0247179 -0.0255693 0.00630023 -0.0290999 0.0359125 0.0224604 0.0222898 0.0325632 
0.0269152 0.0121 -0.0270372 -0.0252493 -0.0233064 -0.0208372 0.0261104 0.019996 -0.0172447 
0.0188261 0.0183253 -0.0247613 0.0339801 -0.0310166 -0.0296095 -0.00707034 0.0305671 -0.0232448 
0.032577 -0.0300314 -0.0302402 -0.0280111 0.0305502 -0.0270652 -0.000750232 -0.00197482 -0.00299281 
-0.00410816 -0.00475178 -0.00493235 -0.00465719 -0.00381027 -0.00281199 -0.00153968 -3.51699e-06 0.0015091 
0.0026966 0.00364434 0.00435785 0.00462761 0.00443206 0.0039984 0.0033588 0.0025653 0.00145408 
0.000342255 0.112293 0.0411778 0.0211741 0.011778 0.00681535 0.00388742 0.00125467 -0.00116393 
-0.00342055 -0.00548737 -0.00738056 -0.00887583 -0.0102679 -0.0110651 -0.0110273 -0.00925542 -0.00473445 
0.000519658 0.0042118 0.00595484 0.00602557 0.00505139 0.00343969 0.00181143 8.56531e-05 -0.00160427 
-0.00309535 -0.00424904 -0.00507812 -0.00527537 -0.00510792 -0.00464988 -0.00394399 -0.00319386 -0.00209413 
0.000598817 0.00166838 0.00271759 0.00330198 0.00370622 0.00377112 0.00363043 0.00302934 0.00208006 
0.00102012 -0.000352542 -0.00171141 -0.00306039 -0.00412193 -0.0047596 -0.00488735 -0.00375618 -0.00116009 
0.00199243 0.0052741 0.0076133 0.00922459 0.00953219 0.00886805 0.00785409 0.00614863 0.00442039 
0.00245194 0.000155235 -0.0027219 -0.00642058 -0.0122451 -0.0222845 -0.0379025 -0.0661586 -0.122035 
-0.10777 -0.0951636 -0.0832872 -0.0722309 -0.0596684 -0.0503739 -0.0421448 -0.0315324 -0.0199153 
-0.00996353 -0.0011805 0.00862063 0.019096 0.0319054 0.041385 0.0503853 0.0592854 0.0719903 
0.0836554 0.0962256 0.109626 0.00870411 -0.0393451 -0.0439118 -0.0324878 -0.0219387 -0.0195328 
-0.0215945 -0.0277577 -0.0378375 -0.0566992 -0.0892159 0.104959 0.0694767 0.0381229 0.0222716 
0.0172548 0.0165031 0.0190413 0.0305871 0.0453788 0.0406916 -0.0128198 -0.010255 -0.0564988 
-0.048146 -0.0316656 -0.024054 -0.0222316 -0.0236863 -0.0320519 -0.0587361 -0.0883843 0.0974627 
0.0645184 0.0417202 0.031072 0.0277085 0.0248279 0.0304978 0.0413444 0.0576169 0.0403908 
0.00262626 -0.0196824 0.00839703 -0.00749586 -0.0632254 0.0434336 -0.00449357 -0.00354035 -0.00815416 
-0.00874584 -0.00854341 -0.0075816 -0.00590784 -0.00386731 -0.00128834 0.00139514 0.00376772 0.00572458 
0.007142 0.00784587 0.00803118 0.00762446 0.00679867 0.00541251 0.00380996 0.00278717 0.0335713 
0.0522084 0.0869412 0.0210782 0.0131184 0.00741127 0.00292542 -0.00152506 -0.00559147 -0.00918219 
-0.0121526 -0.0144229 -0.0161682 -0.016941 -0.0159191 -0.0112518 -0.00359964 0.0034306 0.00732861 
0.00825902 0.00727011 0.00544745 0.00295822 0.00038031 -0.00223151 -0.00486019 -0.0069331 -0.00850041 
-0.00936326 -0.00953557 -0.00900392 -0.0079589 -0.00681336 -0.00537803 0.00551898 0.00421694 0.00206593 
0.00647695 0.0068806 0.00674254 0.00612938 0.005006 0.00332746 0.00137492 -0.000928233 -0.00311811 
-0.00507235 -0.00657646 -0.0071697 -0.00641291 -0.0035987 0.00106746 0.00646628 0.0109822 0.0142751 
0.0153134 0.0149337 0.0133387 0.0108048 0.00762912 0.00412259 -8.30137e-06 -0.00472768 -0.0116177 
-0.0206928 -0.0351945 -0.0573135 -0.089719 0.00710728 -0.0621004 -0.0808349 -0.0866581 -0.0722568 
-0.0631582 -0.0543009 -0.0449778 -0.0350329 -0.0256863 -0.0157468 -0.00579027 0.00493799 0.0154477 
0.0252887 0.0339228 0.0446381 0.0543934 0.0647794 0.0729493 0.0831429 0.0909704 0.0196657 
-0.0187061 0.0519669 -0.0185356 -0.0212785 -0.0159458 -0.0117803 -0.0101023 -0.0112892 -0.0184681 
-0.0376259 -0.0630015 0.040054 0.0202657 0.00975804 0.00700363 0.00854191 0.0128556 0.017657 
0.0150509 -0.00774083 -0.0626302 -0.0309688 -0.0292219 -0.0208088 -0.0152328 -0.0140679 -0.0196255 
-0.0341983 -0.056458 -0.00591068 0.0398518 0.0230054 0.0157769 0.0152027 0.0181547 0.0236971 
0.0303756 0.0283084 0.00813276 -0.00662318 0.0649213 -0.00947859 0.0599224 -0.00784155 -0.00800041 
0.00812214 -0.0184742 0.0594681 0.0163862 -0.0171826 -0.0115505 0.00490724 -0.011002 -0.00352719 
-0.00663325 0.00361973 0.0066159 0.00889092 0.0104241 0.0110043 0.0107361 0.0098308 0.00841055 
0.00644562 -0.00450773 0.0554233 -0.00688817 0.0394236 0.0731969 0.0175444 0.0105071 0.00452387 
-0.00128271 -0.00639736 -0.0110074 -0.0141983 -0.0165004 -0.0180749 -0.0187686 0.00650886 0.00770224 
0.00662617 0.00481372 0.00263458 -9.43798e-06 -0.00317681 -0.00650347 -0.00926654 -0.0116427 -0.012937 
-0.0133949 -0.0129646 -0.0118327 -0.00999153 -0.0616291 -0.0627764 -0.00924119 0.00934364 0.00949903 
0.0261386 0.00689014 -0.00869601 0.00910591 0.00812687 0.00645122 0.00438583 0.00169744 -0.00109385 
-0.00369765 -0.00582584 -0.0071824 -0.00762032 -0.00607621 -0.00091656 0.00522817 0.0116059 0.0160688 
0.0183115 0.0183612 0.0166739 0.0137761 0.00973562 0.00508435 -0.000169915 -0.0065618 -0.0143864 
-0.0237642 -0.0378999 -0.0369937 0.0175817 -0.0665057 -0.0194184 0.00463403 -0.0540752 -0.0467775 
-0.0385638 -0.0299704 -0.0206288 -0.0109827 -0.001225 0.00966204 0.01952 0.0292637 0.038314 
0.0472581 0.0554571 0.0627089 0.0704847 0.0247998 0.0462344 -0.0015727 0.00840182 -0.00616745 
-0.00827159 -0.00672902 -0.00588717 -0.00746501 -0.0139105 -0.0263882 0.0280982 9.05909e-05 -0.0379911 
0.0134868 0.00522951 0.00264514 0.00295023 0.00352538 0.0016504 0.0487643 -0.0163292 -0.0124931 
-0.0114085 -0.0150901 -0.0254051 -0.0118781 -0.0102486 0.0193822 0.0139674 0.0131019 0.0149386 
0.016902 0.0152362 0.00710377 0.051618 0.0327852 0.0302407 -0.0438818 -0.0173856 0.000979353 
-0.00904489 -0.00861952 -0.00564027 0.00419568 0.0726521 0.00822665 -0.0536798 -0.0514704 -0.00604322 
-0.0411218 0.0118691 0.00246513 0.00997859 0.00663347 0.0135205 0.0135205 0.012638 0.0111422 
0.00922023 0.0123572 0.00776285 -0.00647839 0.00705927 0.0210055 0.000474355 -0.00534261 -0.010215 
-0.0128747 -0.0138694 -0.0140886 -0.000568195 -0.00240006 -0.00508514 -0.00847407 -0.0119496 -0.0148351 
-0.0164737 -0.016998 -0.0166189 -0.015139 -0.0127682 -0.0458684 0.0562167 0.0113967 0.0119495 
0.0101725 0.00817866 0.00578467 0.00278091 -0.0002184 -0.00280185 -0.0045834 -0.00565982 -0.00638535 
-0.00489757 0.0165947 0.0190863 0.0192056 0.0174669 0.0145747 0.0102117 0.00500599 -0.00102241 
-0.00808101 -0.015535 -0.0246585 -0.0361795 -0.0513159 0.000854095 0.0428317 0.00187273 0.0355945 
0.0154274 -0.0397255 -0.0331816 -0.0253378 -0.0164605 -0.00705815 0.00356095 0.0139538 0.0237449 
0.0324512 0.040342 0.0466722 0.0520199 -0.00217036 0.0136534 -0.0133807 0.0196102 0.00134914 
-0.000381511 -0.00149404 -0.00424379 -0.00989581 -0.0191072 0.0334508 -0.0052818 -0.0400552 -0.0258015 
0.00855173 0.00188394 -0.00199944 -0.00607088 -0.00643885 -0.0305193 -0.0243709 -0.00715363 -0.00744493 
-0.0119456 -0.0194387 0.0208424 0.0174881 0.0125015 0.0100159 0.00767932 0.00783867 0.0154664 
-0.0510292 -0.00245922 0.000869471 0.0425421 -0.0407453 -0.0311861 -0.0146623 -0.00998226 0.0298853 
-0.0125979 -0.00697066 -0.00804402 0.0190918 -0.0559356 0.039598 0.0114921 -0.0389582 -0.00364097 
0.0365278 0.025894 -0.014334 0.0135948 0.0160949 -0.00345893 0.0340212 0.00433379 -0.0302925 
0.0105894 -0.00829489 -0.011039 -0.015054 -0.018632 -0.02024 -0.0206977 -0.020023 -0.0183885 
-0.0159985 -0.0342527 0.0152599 0.0145001 0.014089 0.0107094 0.0138966 0.00795816 0.00460086 
0.00163391 0.000499099 0.000365663 -0.00529262 0.0107275 0.0124283 0.00899125 0.00359949 -0.00279172 
-0.00982279 -0.0171727 -0.0250477 -0.0345661 0.0355858 0.0122535 -0.0290924 -0.0221912 -0.0128974 
-0.00288283 0.00774679 0.0186529 0.0272171 0.0343333 0.0385037 0.0410706 0.00980834 -0.0415221 
-0.0356953 0.00024813 0.0242569 0.0124527 0.00464864 -0.000463058 -0.00526162 -0.012863 -0.00751843 
0.0333043 0.0286232 0.0269184 -0.0385223 0.0151811 0.00977102 0.00544898 -0.0419176 -0.0201789 
-0.0316811 -0.0228584 0.00591908 0.0158282 -0.017351 -0.0101759 0.0238307 0.0323078 0.0168369 
0.0138847 0.0105539 -0.0139417 0.0127148 -0.00521059 0.0155464 0.0425005 -0.045306 0.0237877 
-0.0147469 -0.00213844 0.00617006 0.00359997 0.0276468 0.014066 -0.0234369 -0.0158362 -0.0307018 
0.010798 -0.024034 -0.0238728 -0.00310694 0.0163092 -0.0175873 -0.0248048 -0.0230774 -0.020685 
-0.0177429 -0.0270206 0.0167282 -0.00610882 -0.0346242 0.026408 -0.0321578 -0.0123882 -0.0193733 
-0.02583 -0.033437 0.0327205 -0.00352504 -0.0307651 -0.00967251 0.0129873 0.0236132 0.0303762 
0.0334697 0.0326636 0.0174868 0.0265186 0.0211938 -0.0324382 0.0315693 0.00630817 -0.0145652 
0.0189631 -0.00989908 0.0198609 0.0256482 0.0044056 0.0214334 0.0177214 -0.0254644 0.018427 
0.0149213 -0.0191346 -0.015261 0.0140727 0.00137922 0.0161163 0.0015577 -0.0183092 0.0165561 
0.0189035 -0.0297569 0.0268581 -0.0302536 0.0157571 -0.0306763 -0.016896 -0.027657 0.0227699 
0.0303318 0.0110279 0.00906453 -0.0255479 0.0199667 0.0211206 -0.0227745 0.0191532 -0.0212355 
-0.0276968 -0.00222424 -0.00333607 0.000123616 3.00005e-05 -0.0338737 0.000610048 0.0273812 -0.000402497 
-0.000572284 -0.0310147 0.0239865 -2.11086e-05 -0.0116101 -0.0215151 -0.0525699 -0.050914 -0.0493611 
-0.0245683 -0.013626 -0.0111697 0.00169591 0.00718935 0.0177463 0.0470147 0.000185109 -0.00464853 
-0.00973683 -0.00805204 -0.000731698 0.0124654 0.00654128 -0.00313856 -0.0133755 -0.021969 -0.0345985 
-0.0512047 -0.0320305 -0.0141323 0.00232153 -0.00516697 0.00579447 0.0174992 0.0441956 0.00312534 
-0.0122991 -0.00459901 0.00139035 0.0104166 0.00169158 0.00971972 0.00598584 -0.000267 -0.0106893 
0.0604439 0.0196854 0.0155663 0.0112259 -0.00343924 -0.0171526 -0.0270112 -0.0343312 -0.0165986 
-0.00304768 0.0116856 0.0219438 0.0254999 0.0404704 0.00122018 0.00790456 0.00497437 0.00159136 
-0.0103101 0.0533466 0.0276347 0.00603968 0.00361625 0.00713709 0.00284067 -0.0101242 -0.0526348 
-0.0173215 -0.00052876 0.011418 0.0219007 0.0472615 0.0434133 -0.00688032 0.0108464 0.00470733 
0.00238488 -0.00684613 -0.0193216 -0.0536108 -0.0307664 -0.0132269 -0.00705557 -0.00176869 0.00717627 
0.0229602 0.0367637 -0.0159802 -0.00205465 0.011149 0.021335 0.0458957 0.0514689 -0.000753719 
0.0053988 0.00100358 -0.00844441 -0.02538 -0.0476135 -0.0157271 -0.0103634 0.00226487 0.00957835 
0.0199018 0.0272776 0.0625569 -0.0136269 -0.00220865 0.00681887 0.0152499 0.0246138 0.0383467 
0.0198036 -0.000175252 -0.00969588 -0.0236618 -0.0396632 -0.0582803 0.0495526 0.0251789 0.00375772 
0.00269032 -0.0102872 -0.0142605 -0.0322774 -0.0487117 -0.00328088 -0.00896841 -0.00297235 0.00325165 
0.0221951 0.00816309 -0.00123493 -0.0153855 -0.017082 -0.0371648 -0.0563136 0.0562266 0.0166633 
0.0121156 0.00482351 -0.00260981 -0.0135123 -0.026007 -0.0627805 0.00440632 -0.00872873 -0.00612478 
-0.00220781 0.00684862 0.0179599 -0.31196 0.32238 -0.227552 -0.133119 -0.110695 -0.0963848 
-0.0834757 -0.0703257 -0.0673198 -0.0552069 -0.0416747 -0.02779 -0.0248401 -0.0133975 8.39992e-05 
0.0112675 0.0178413 0.0332575 0.0422552 0.053919 0.0655665 0.0734432 0.0828659 0.0960486 
0.111025 0.135306 0.230023 -0.236934 -0.1265 -0.10162 -0.0916808 -0.0866772 -0.0832732 
-0.0752347 -0.0564895 -0.0473262 -0.0457725 -0.0444871 -0.0365481 -0.0158608 -0.00624067 -0.0033204 
-0.00110989 0.00458889 0.0196985 0.0318291 0.0442407 0.0468357 0.0485068 0.0552885 0.0725908 
0.0873303 0.0935277 0.0984552 0.104563 0.136427 0.243393 7.44401e-05 6.16007e-05 -2.41105e-05 
-5.37912e-05 -6.16506e-05 -7.06482e-05 -0.000112515 -0.000132134 -0.000138229 -0.000118287 -5.39304e-05 -4.04235e-05 
-5.66387e-05 -6.60379e-05 5.42353e-06 4.72038e-05 5.41424e-05 4.76262e-05 5.80203e-05 0.000110733 0.000124465 
0.00011524 9.48816e-05 8.05086e-05 5.81088e-05 5.83807e-05 6.26257e-05 3.41374e-05 -5.92505e-05 -7.46843e-05 
0.150994 -0.00395896 -0.0017198 -0.00131308 -0.000492079 -0.00083745 -0.000618303 -0.000327728 -0.000157385 
-9.98608e-05 -0.000150379 -0.000223862 -0.00022865 -0.000209544 -0.0001969 -0.000257112 -0.000364161 -0.000469632 
-0.000515965 -0.000588677 -0.000496478 -0.000137131 0.000195097 0.000413407 0.000439644 0.000440199 0.000366852 
0.000207202 0.000213494 0.000201713 0.000139266 7.25e-05 -3.0266e-05 -6.05141e-05 -4.80938e-05 -6.04265e-05 
-8.86091e-05 -9.61307e-05 -9.58248e-05 -0.000106386 -0.000112704 -0.000109948 -7.04686e-05 7.24075e-06 0.000116658 
8.83377e-05 -0.000101551 -8.71812e-05 -8.38405e-06 1.21855e-05 1.97723e-05 3.19642e-05 6.15165e-05 7.00343e-05 
8.15031e-05 9.18488e-05 8.25728e-05 3.00456e-05 1.4531e-05 -1.89815e-05 -8.27297e-06 -2.33563e-05 -0.000146491 
-0.000215853 -0.000250577 -0.000268249 -0.000307802 -0.000273446 -0.000124859 9.39294e-06 8.8944e-05 0.000133986 
0.000146199 0.000338801 0.000374093 0.000354673 0.000275462 0.00020554 0.000242696 0.000316224 0.000273333 
0.000200789 0.000236595 0.00034704 0.000580218 0.000618903 0.000578487 0.000837095 0.00191099 0.00415405 
0.00819864 -0.15369 -0.00363987 -0.0215686 -0.00518103 0.00995338 0.0113826 0.00882584 0.00384673 
-0.00981474 -0.019398 -0.0309964 -0.0189785 0.0529861 0.0507815 0.0127464 0.00116325 -0.0051678 
-0.00979598 -0.0122301 -0.00265022 0.00653114 0.0275435 0.011891 -0.0254162 -0.0323526 0.00120894 
0.00748788 0.00839808 0.0058712 0.00973515 0.00340231 -0.00453817 -0.0448085 -0.0466677 0.0574387 
0.0479061 0.0216382 0.00462259 0.00632124 -0.00470556 0.000102141 0.00289381 0.0185251 0.0220689 
0.0142175 9.6879e-05 8.35028e-05 -3.16484e-05 -8.88949e-05 -0.000122276 -0.000121859 -0.000141326 -0.000123571 
-0.000141479 -0.000113213 -5.15705e-05 4.30673e-06 4.68624e-05 9.31606e-05 0.000122058 0.000103857 0.000122232 
0.000118979 9.58576e-05 9.15529e-05 3.99797e-05 -2.22723e-05 -8.3877e-05 -6.4976e-05 0.135058 0.00721731 
-0.00285437 -0.00100621 -0.00022758 -0.000321582 -0.000348401 -0.000337094 -0.000228811 -0.000306829 -0.000347895 
-0.000435777 -0.00041381 -0.000485696 -0.000540846 -0.000620346 -0.000525146 -0.00024196 9.02671e-05 0.000370093 
0.000468918 0.000407344 0.000387347 0.000231533 0.000136869 7.33067e-05 4.75622e-05 -4.03435e-05 -0.000116434 
-0.000124821 -0.000132511 -0.000144727 -0.00011577 -8.21957e-05 -5.62753e-05 -1.48297e-05 0.000142325 0.00011138 
-6.9437e-05 -0.000139739 -1.36711e-05 6.45559e-05 0.000100844 8.31866e-05 0.000102541 8.27869e-05 5.61125e-05 
5.20304e-05 -2.49581e-05 -7.2599e-05 -0.000168214 -0.000188046 -0.000233396 -0.000278098 -0.000313598 -0.000275432 
-0.000193441 7.84583e-06 0.000201356 0.000381394 0.000367683 0.000364965 0.00032572 0.000267145 0.000274019 
0.000222502 0.000211361 0.000156791 0.000211271 0.000222728 0.000458449 0.000846524 0.000350087 -0.00863384 
-0.130917 -0.0110535 -0.0117286 0.00524831 0.0129125 0.0115095 0.00873009 0.00568159 0.00213903 
-0.00964302 -0.0448397 -0.056024 0.0287359 0.0293782 0.000235334 0.00118171 -0.00492902 -0.00958763 
-0.0122297 -0.0138403 -0.0072873 0.014066 0.00505231 -0.0198099 -0.0202408 -0.00329648 0.00757824 
0.00710451 0.00255281 -0.0040315 -0.012851 -0.032582 -0.036468 0.0345416 0.0260564 0.010217 
0.00134263 -0.00448642 -0.00712408 -0.0117353 -0.0187722 0.00542237 0.028562 0.0170341 -8.24857e-06 
1.4434e-05 0.0169815 -0.0366053 0.0329618 -0.0132965 -0.0348214 0.042865 -0.0174682 -0.0421298 
0.0389359 0.0184927 -0.0420666 0.0436966 -0.00802992 -0.0108398 -0.00543799 0.00852068 0.000740551 
-0.0110535 0.00223391 -0.0249898 -0.0181602 -0.0157494 -0.0516486 -0.0342248 -0.0307642 -0.066095 
-0.0370662 -0.0405292 -0.0205131 -0.0247159 -0.0121018 -0.0156796 -0.0223637 0.00923058 -0.0215134 
-0.0148328 -0.011278 -0.00643117 -0.0519413 0.00218244 0.0105755 -0.0596379 -0.0295931 -0.0352555 
-0.0255978 -0.0259852 -0.00483873 -0.0267083 -0.0137555 -0.0133491 -0.0160318 -0.0198702 -0.00417629 
-0.0184059 -0.0159114 -0.0199407 -0.0203707 -0.0228758 -0.0132381 -0.00847934 -0.0211378 -0.0136731 
-0.0187074 -0.00402596 -0.00866597 -0.0195861 -0.029878 -0.0391844 -0.0277201 -0.0720857 -0.0419115 
-0.0338948 -0.0222158 -0.0203931 -0.0162372 -0.0111847 -0.0216627 0.0123086 -0.011865 -0.0147645 
-0.00952605 -0.01508 -0.0477718 -0.0590836 -0.0327426 -0.0325805 -0.0288926 -0.0243063 0.00604911 
0.00551029 -0.00398071 -0.0100307 -0.0144108 -0.0270128 -0.00614392 -0.0075941 -0.0197211 -0.0203518 
-0.0158579 0.00217032 0.0122916 0.0182219 0.00857774 0.0129739 0.0108651 -0.0079247 0.0710448 
0.0440354 0.0374802 0.0321575 0.0261445 0.0361479 0.0189619 0.0142303 0.0645101 0.0608911 
0.0504527 0.0509812 -0.00418505 0.0110572 0.034835 0.0443376 0.0139072 -0.005434 -0.00360322 
0.00724171 0.000793952 0.0210783 0.0288693 0.0175799 0.0256241 0.0264988 0.0324797 0.0273147 
0.0177669 0.0148165 0.016152 0.0290643 0.0532904 0.0148918 0.0233848 0.0246599 0.0235521 
0.0154157 0.0208582 0.00462202 0.0164378 0.0147893 0.0180191 0.0131859 0.0181682 -0.0134443 
0.0722017 0.0483008 0.0545879 0.069914 0.0381335 0.0424957 0.0464218 0.0297225 0.0314143 
0.0389455 0.0150415 0.00907878 -0.00353249 -0.0109931 0.0086478 0.00985226 0.000436299 0.0273527 
0.0177241 0.0172786 0.051862 0.00878252 0.0171919 0.0185168 0.0209313 0.0154434 0.0228562 
0.0164382 0.0277799 0.0450878 0.0454539 0.0347678 0.0385261 0.0316631 0.0188757 0.0224727 
0.0261434 0.0173134 0.00782152 0.0281345 0.0291554 0.0227873 -0.00121516 0.00914167 0.0163068 
0.00488286 0.0121051 0.00994703 -0.0183859 0.00995668 0.00553613 0.019549 0.0160084 0.0177049 
0.0284604 0.0239211 0.0274962 0.0396179 0.0334175 0.036667 0.0688718 -0.00415285 0.00665072 
0.0388251 0.033418 0.0484159 -0.0151756 -0.00894919 -0.00222432 -0.00168928 -0.00219281 0.00550303 
0.00695757 0.0666381 0.0503096 0.0239813 0.0265585 0.0220585 0.0153079 0.0444594 0.0496903 
0.0127262 5.17437e-05 0.0108164 0.0147286 0.00973004 0.0107064 0.0109552 0.00434039 0.0192376 
0.0162529 0.0186524 -0.0109724 -0.00825404 0.0153149 0.0116897 -0.0208328 0.00406265 0.0108556 
0.025022 0.0293894 0.0345035 0.0406769 0.0303432 0.0696029 0.00417346 0.0416912 0.0324122 
0.00482633 0.00570828 -0.0169681 -0.0141039 0.00687957 0.00108501 -0.00156519 -0.00480589 0.0587152 
0.061709 0.0156801 0.0194143 0.0502001 0.0129675 0.0104256 0.0270061 0.0216358 0.0143778 
0.0197914 0.0492328 0.0186582 0.00619577 0.0140551 0.00304663 0.0463939 0.0155574 0.016314 
-0.00370222 -0.0102237 2.15238e-05 -0.0284012 -0.0179896 -0.0180159 -0.0473292 -0.0371361 -0.0304209 
-0.0708831 0.017334 0.0153555 -0.00023734 0.0142673 -0.0049098 -0.0101207 -0.00181047 -0.0188948 
-0.0220615 -0.0163104 -0.0361315 -0.0423628 -0.0142638 -0.00924524 0.00238621 -0.0133042 -0.0505916 
-0.0606254 -0.0156967 -0.0281894 -0.0315486 -0.0245584 -0.0257432 -0.0112011 -0.0124157 -0.0241537 
-0.00451449 -0.0126913 -0.0182628 -0.0195869 -0.000906854 -0.00101022 -0.0124904 -0.0199831 -0.0269505 
-0.0181431 -0.0349995 -0.0453117 -0.0341531 -0.0762896 0.0205944 0.00310569 0.0146852 0.00757951 
-0.0132601 -0.00853231 -0.00667133 -0.0215329 -0.0176057 -0.0210115 -0.0321034 -0.0273907 -0.0304445 
-0.0448795 -0.0377492 -0.0107795 -0.0133385 -0.00882689 -0.0149539 -0.0130519 -0.000313798 -0.0706913 
-0.0619383 -0.0101961 -0.0089981 -0.0560082 -0.03852 -0.0511765 -0.00521811 -0.00340839 -0.0143292 
-0.0142163 -0.0274483 -0.0566961 -0.0210405 -0.0227773 -0.018426 -0.015158 -0.011299 -0.0175405 
-0.243389 0.2373 0.166458 -0.160643 -0.123655 -0.105052 -0.099955 -0.095229 -0.0907582 
-0.0861419 -0.0823667 -0.0781997 -0.0756335 -0.0598208 -0.0561289 -0.0521328 -0.048472 -0.0449147 
-0.0417487 -0.0379426 -0.0350674 -0.0182279 -0.0149702 -0.0106366 -0.00711384 -0.00302215 0.000324806 
0.00364522 0.00543198 0.0103437 0.0192789 0.0314078 0.0401113 0.0459098 0.0462857 0.0491648 
0.0522525 0.0556829 0.058012 0.0718178 0.0819213 0.0939959 0.0983973 0.103141 0.107352 
0.114414 0.13605 0.0877774 0.0896338 -0.111729 -0.0667424 -0.0258651 0.0257796 0.0627982 
0.000122447 -7.16481e-05 -0.000196474 -0.000558366 -0.000679967 -0.000795722 -0.00112486 -0.00117496 -0.00176141 
-0.00154225 -0.00158559 -0.00268328 -0.00183664 -0.00189289 -0.00338322 -0.00206728 -0.00206687 -0.00384726 
-0.00214983 -0.00214876 -0.00415451 -0.00218197 -0.00216918 -0.00428066 -0.00200315 -0.00199433 -0.004108 
-0.00180291 -0.00173112 -0.00368271 -0.00139834 -0.00136247 -0.00310564 -0.000989663 -0.000947574 -0.00232782 
-0.000532231 -0.000467843 -0.00146293 -6.53232e-05 2.3374e-05 -0.000520117 0.000424652 0.000500247 0.000450951 
0.000915922 0.00095618 0.00139353 0.00132136 0.00137094 0.0022547 0.00164714 0.00169805 0.00297653 
0.00187149 0.00188451 0.00347166 0.00201602 0.00201941 0.00383895 0.00202991 0.00202632 0.00399642 
0.00200126 0.0019933 0.00396728 0.00183789 0.00182005 0.00375026 0.00166112 0.00160855 0.00338685 
0.00128853 0.00125735 0.00286711 0.000934234 0.000900664 0.00216606 0.000555667 0.000483616 0.00141888 
0.000182862 0.000114321 0.000702904 -9.85437e-05 -6.86668e-05 -0.000118944 8.45795e-05 0.0924378 0.0325516 
0.0263555 0.0208263 0.0191121 0.0508886 0.0123292 0.0121965 0.032669 0.00819205 0.00766583 
0.0209483 0.00549459 0.00514945 0.0137305 0.00333 0.00339329 0.00897791 0.00207757 0.00198964 
0.00560026 0.00099756 0.00093451 0.00309794 0.000153767 3.8839e-05 0.00118152 -0.0006059 -0.000689939 
-0.000342056 -0.00126134 -0.00135504 -0.00181178 -0.00200867 -0.00206094 -0.003202 -0.00267681 -0.00275786 
-0.00462139 -0.00346297 -0.00360199 -0.00606844 -0.00410247 -0.00414333 -0.00734836 -0.00445195 -0.00451876 
-0.00829464 -0.00477642 -0.00482245 -0.00899194 -0.00485097 -0.00487402 -0.00937288 -0.00460134 -0.00458372 
-0.00917407 -0.00373069 -0.00357354 -0.00797915 -0.00235793 -0.00198625 -0.00565461 -0.000474625 -0.000106969 
-0.00238412 0.00137965 0.00154497 0.00113206 0.00247676 0.0025638 0.00384849 0.00291527 0.00291747 
0.00524887 0.0027941 0.00278643 0.00543871 0.00243135 0.00230432 0.0048625 0.0018545 0.00180759 
0.0040223 0.0012801 0.00121869 0.00294188 0.00068096 0.00060234 0.00177051 0.000111039 1.83442e-05 
0.000633576 -0.000460973 -0.000571433 -0.000517886 -0.00108799 -0.00111706 -0.00161932 -0.00153444 -0.00158328 
-0.00264205 -0.00197797 -0.0020519 -0.003531 -0.00217167 -0.00221493 -0.00412674 -0.00224873 -0.00224075 
-0.00434998 -0.00222754 -0.00220572 -0.00437537 -0.00215387 -0.00213605 -0.00429553 -0.00197666 -0.00196253 
-0.0040443 -0.00166552 -0.00162476 -0.00354945 -0.00122674 -0.00115807 -0.00279689 -0.000738135 -0.000629975 
-0.00187589 -0.000238159 -0.000182259 -0.000922248 0.000139119 0.000233349 0.000151572 0.000480626 0.000523428 
0.000728325 0.000851634 0.000889649 0.0013693 0.00114912 0.00117409 0.00202976 0.00135879 0.00140854 
0.00252646 0.00151552 0.00151834 0.00285182 0.00160917 0.00159775 0.0030692 0.00157286 0.00156601 
0.00312587 0.00140637 0.00139777 0.00292778 0.00118429 0.00114449 0.00252842 0.000883169 0.000808244 
0.00197815 0.000471035 0.000407258 0.0012679 4.74182e-05 -2.28943e-05 0.000440905 -0.000427981 -0.000466154 
-0.000420108 -0.000901457 -0.000990326 -0.0013673 -0.00138656 -0.00151308 -0.00233998 -0.00178418 -0.00183324 
-0.00310944 -0.00204928 -0.00207538 -0.00373056 -0.002103 -0.00212653 -0.00403693 -0.00190693 -0.00192258 
-0.0038959 -0.00146355 -0.00137918 -0.00321135 -0.000687564 -0.000483609 -0.00188722 0.000349319 0.000552413 
-2.92659e-05 0.00168806 0.00185186 0.00220463 0.00274312 0.00286083 0.00454256 0.00350242 0.00366326 
0.00627407 0.00401491 0.00406897 0.00739092 0.00413759 0.00411909 0.0079491 0.00388109 0.00388228 
0.00779176 0.00355134 0.00353453 0.00722919 0.00325027 0.00314708 0.00652063 0.00284409 0.00277094 
0.00575625 0.00230342 0.00229527 0.00490086 0.00177798 0.00167837 0.00383622 0.00115218 0.00112243 
0.00265171 0.000569209 0.000457711 0.00141854 -0.000154318 -0.000235353 -3.86884e-06 -0.00117045 -0.00115264 
-0.00165884 -0.00229195 -0.00241736 -0.00387153 -0.00378149 -0.00407556 -0.00664542 -0.00638053 -0.00678792 
-0.0111609 -0.0111456 -0.01121 -0.0183935 -0.0189103 -0.0194631 -0.0318928 -0.0366854 -0.0488878 
-0.0590619 -0.0986973 -0.143373 -0.127393 -0.124844 -0.110529 -0.126887 -0.109305 -0.0950328 
-0.111959 -0.0960489 -0.0829699 -0.0982057 -0.0851097 -0.0726371 -0.0838877 -0.073924 -0.0610789 
-0.0708699 -0.0719098 -0.0569944 -0.0663049 -0.0615124 -0.0491101 -0.0608314 -0.0528132 -0.0407593 
-0.0525617 -0.0436951 -0.0314409 -0.0410254 -0.0344238 -0.020938 -0.0298794 -0.0318644 -0.0166233 
-0.0259417 -0.0209218 -0.00776251 -0.0203823 -0.0111952 0.00167933 -0.0111992 -0.00164465 0.0108192 
0.000747195 0.0104838 0.022961 0.0133634 0.0188709 0.0234015 0.0187098 0.0282903 0.030792 
0.0264182 0.0278077 0.0397546 0.0303039 0.040316 0.05224 0.0388016 0.0495746 0.0617261 
0.0520357 0.06107 0.0719981 0.0637166 0.0697512 0.075141 0.069491 0.070749 0.0830668 
0.0748412 0.0842236 0.0974314 0.0817562 0.096399 0.109905 0.0975468 0.114217 0.128482 
0.115432 0.127834 0.15836 0.130287 -0.0149923 0.0182031 -0.043548 -0.0414538 -0.0166387 
-0.032782 -0.0444597 -0.0404389 -0.01898 -0.0230472 -0.0319991 -0.0153323 -0.0165053 -0.0216507 
-0.0157638 -0.0140521 -0.019173 -0.0199444 -0.0160552 -0.0185092 -0.0269185 -0.0214115 -0.0193264 
-0.03687 -0.0300338 -0.022635 -0.0700129 -0.0522812 -0.0448258 -0.101303 -0.0792736 -0.0784915 
0.0814122 0.0966271 0.0492054 0.0670523 0.0679702 0.0271188 0.0382278 0.0433097 0.018439 
0.023235 0.0245975 0.0142533 0.0168485 0.0174611 0.0121209 0.0137774 0.01567 0.0148215 
0.0132684 0.0169809 0.0233644 0.0173621 0.0199251 0.0441759 0.0318676 0.0292963 0.034205 
0.0418069 0.0321338 -0.0225169 0.00908674 0.00615642 -0.0292826 -0.00216702 -0.0491172 -0.0480987 
-0.0225207 -0.0374126 -0.0505746 -0.0456008 -0.0234036 -0.0277304 -0.0416563 -0.0182358 -0.0189941 
-0.0289995 -0.0180079 -0.0171117 -0.0224404 -0.021514 -0.0188804 -0.0214071 -0.0268889 -0.0223996 
-0.0233329 -0.0407472 -0.0294423 -0.0298829 -0.0667151 -0.0489537 -0.0427203 -0.103993 -0.0781194 
-0.0655165 0.0760476 0.0965449 0.050921 0.067467 0.0662726 0.0304007 0.0374931 0.0401099 
0.0241249 0.0266055 0.0243103 0.0187567 0.0218478 0.0189603 0.0194363 0.0200814 0.0205379 
0.0216234 0.019471 0.0222 0.0315569 0.0264145 0.0270783 0.0504182 0.0393505 0.0391506 
0.0477284 0.0554521 0.0473281 0.00550722 0.0251482 0.0301416 0.0957749 0.0127391 0.0117739 
0.00334002 -0.141807 0.0702128 0.0606771 -0.0737308 -0.0824737 -0.019603 0.00205231 -0.00187561 
-0.011868 0.0588528 0.0178867 -0.0428248 -0.132872 -1.00696e-05 0.0210037 0.0172661 -0.00236783 
-0.00293498 -0.00359454 -0.0040644 -0.00429464 -0.00458934 -0.00494416 -0.0055929 -0.00541299 -0.0056548 
-0.00670672 -0.00590307 -0.00599357 -0.00748946 -0.00604742 -0.00605112 -0.00783869 -0.00591228 -0.00572709 
-0.00773258 -0.00537057 -0.00506661 -0.00716003 -0.00459014 -0.00413901 -0.00620881 -0.00355181 -0.0030789 
-0.00497344 -0.00234729 -0.00181127 -0.00351986 -0.00102466 -0.000414251 -0.00180874 0.000368053 0.000969227 
-4.42955e-06 0.00173788 0.00226423 0.00176433 0.00297039 0.00344747 0.00340389 0.00401324 0.00439927 
0.00480193 0.00482613 0.00510362 0.00596291 0.00538135 0.00553318 0.00678186 0.00564449 0.00566007 
0.00722456 0.00563858 0.00559976 0.00732575 0.00544454 0.00525396 0.00711756 0.00500379 0.00474792 
0.00665626 0.00441372 0.00402949 0.00596831 0.00351545 0.00310219 0.00503947 0.00242009 0.0019821 
0.00371413 0.00134435 0.000930465 0.00226122 0.000437816 -0.0244039 -0.0294223 0.112802 -0.000389287 
0.0547114 0.0456288 0.0357569 0.0300066 0.0540864 0.0240924 0.0202218 0.0366494 0.0156385 
0.0132969 0.0247865 0.0104502 0.0087599 0.0165934 0.00639713 0.00503645 0.010856 0.00337291 
0.00234451 0.00644589 0.000935213 -0.000111469 0.00282379 -0.00135976 -0.0022508 -0.00026842 -0.00346568 
-0.00432217 -0.00309086 -0.00549649 -0.00635247 -0.00581236 -0.00739321 -0.00827578 -0.00832148 -0.00923531 
-0.00998923 -0.0106755 -0.0106711 -0.0111201 -0.0125929 -0.011665 -0.0119755 -0.0139732 -0.0122879 
-0.0123547 -0.0148744 -0.0123025 -0.0119656 -0.0151537 -0.0110116 -0.0100485 -0.0141413 -0.00845209 
-0.00675291 -0.0114338 -0.00448633 -0.00227169 -0.00709389 0.000372477 0.00218119 -0.0013982 0.00419793 
0.00533224 0.00386965 0.00630576 0.00676124 0.00704184 0.00676895 0.00665812 0.00793387 0.00619973 
0.00578747 0.00749986 0.00520215 0.00457676 0.00639169 0.00384625 0.00317311 0.00485665 0.00238503 
0.00172582 0.00314794 0.000843317 0.000153008 0.00127556 -0.000793954 -0.00150649 -0.000745716 -0.00233106 
-0.00296583 -0.0027448 -0.00367736 -0.00419468 -0.00448287 -0.00490355 -0.00539178 -0.00604768 -0.00579882 
-0.00603428 -0.00725991 -0.00620346 -0.00629824 -0.00794202 -0.00630644 -0.00627593 -0.00818649 -0.00622046 
-0.0061066 -0.00812809 -0.00580369 -0.00557336 -0.00769294 -0.00516673 -0.00480262 -0.00688983 -0.00429785 
-0.00379668 -0.00586724 -0.0030663 -0.00248558 -0.00449388 -0.00158938 -0.00106873 -0.00098003 -0.00269476 
-0.0938694 -0.119683 -0.0698834 0.0856581 0.0676843 0.0793244 0.00111232 0.0014378 0.00191065 
0.00233391 0.00233556 0.00282215 0.00316342 0.00342739 0.00351778 0.00376839 0.00436493 0.00404435 
0.00421968 0.00510025 0.00439051 0.00447598 0.00561509 0.00448435 0.00442842 0.00580442 0.00424045 
0.00404674 0.00558775 0.00376046 0.00347864 0.00504743 0.00302359 0.00262853 0.00421384 0.0020707 
0.00159327 0.00306082 0.000957791 0.000434161 0.00170873 -0.000247167 -0.000765602 0.000225679 -0.00146502 
-0.00205802 -0.00133385 -0.00274202 -0.00332847 -0.00290218 -0.00389158 -0.00434622 -0.00437673 -0.00475566 
-0.00502029 -0.00552305 -0.00524465 -0.00529741 -0.00626077 -0.0051574 -0.00494464 -0.00635156 -0.00435309 
-0.00377341 -0.0055752 -0.00269094 -0.00169417 -0.00375985 -0.000237897 0.000994562 -0.000937004 0.00273896 
0.0042023 0.00267419 0.00578662 0.00691871 0.00650828 0.00818998 0.00906289 0.00971498 0.0098297 
0.0104273 0.0119552 0.0107157 0.0107927 0.0132132 0.0106809 0.0104251 0.0133975 0.0100694 
0.0097083 0.0128442 0.00908773 0.00868323 0.0117882 0.00788128 0.00733691 0.0102777 0.00661378 
0.00598732 0.0085192 0.00507991 0.00437116 0.00657847 0.00335912 0.00263225 0.00440015 0.00147668 
0.000636926 0.00192129 -0.000661635 -0.00167459 -0.000832616 -0.00327805 -0.00454142 -0.00419547 -0.00641682 
-0.00797077 -0.00829154 -0.0106663 -0.0129043 -0.0135618 -0.0169791 -0.0207391 -0.0213961 -0.0274028 
-0.0333706 -0.0335005 -0.0434519 -0.0544761 -0.0802697 -0.0524948 -0.107859 -0.000145664 -0.00810245 
-0.0984152 -0.101124 -0.0899619 -0.0935799 -0.091493 -0.0802532 -0.0851718 -0.084784 -0.0715644 
-0.0768026 -0.0762851 -0.0677444 -0.0613605 -0.0681857 -0.0510291 -0.0580892 -0.0586106 -0.0450877 
-0.0513765 -0.0515036 -0.0383855 -0.0446076 -0.0443684 -0.0309275 -0.0383 -0.0369817 -0.0285519 
-0.0215178 -0.0294942 -0.0127011 -0.0168187 -0.0206769 -0.00435258 -0.0111782 -0.0124459 0.00243251 
-0.0038099 -0.00474823 0.00980191 0.00280508 0.00312859 0.0111678 0.016789 0.0102845 0.0220151 
0.0278438 0.0194058 0.0326491 0.0389439 0.0303991 0.0467072 0.0392714 0.0388862 0.0524658 
0.0464249 0.0456942 0.0590785 0.0528888 0.0527341 0.0622192 0.0686558 0.0598505 0.0740099 
0.0802051 0.0695951 0.0881227 0.0830172 0.0795569 0.0969299 0.0930443 0.087849 0.104774 
0.100977 0.0943652 -0.0289285 -0.0266188 -0.0197208 0.0775682 0.057841 -0.0141533 0.00572363 
-0.00675355 -0.0165134 -0.0201166 -0.0184002 -0.0126143 -0.0139551 -0.0133983 -0.0117521 -0.0121447 
-0.0104331 -0.0147945 -0.0129366 -0.0107408 -0.0241029 -0.0191373 -0.0160105 -0.0456849 -0.0331578 
-0.0301397 -0.0750908 -0.0595361 -0.0532031 0.00499028 0.00285137 0.0313184 0.04354 0.0567448 
0.0706139 0.0633361 0.0484832 0.0104814 0.0124328 0.00904798 0.00912792 0.00737399 0.0114923 
0.0101815 0.00715987 0.0175631 0.0138297 0.0101288 0.0243877 0.0203768 0.0142313 0.0168653 
0.022195 0.0131115 -0.0127918 0.00395622 -0.000982079 -0.0137474 -0.0208173 0.0744151 0.0411395 
-0.033565 -0.0301298 -0.0197072 -0.00415935 0.00173815 -0.0135155 -0.0218296 -0.0254928 -0.017543 
-0.0187612 -0.0183794 -0.0160841 -0.0156923 -0.01444 -0.0178379 -0.0165456 -0.0140053 -0.0266385 
-0.0219672 -0.0185946 -0.0473768 -0.0368813 -0.0319489 -0.0739143 -0.0618759 -0.0539068 -0.0199478 
-0.0706274 0.0326866 0.0431412 0.056918 0.0715613 0.0580232 0.04877 0.0157629 0.0167671 
0.0160064 0.0157739 0.0146705 0.0202543 0.0176888 0.0157628 0.0277822 0.0235223 0.0203186 
0.0378161 0.0319637 0.0263157 0.0324631 0.037465 0.0275402 0.00427945 0.0221799 0.0153837 
-0.00174028 -0.00151549 0.0166928 0.0221502 0.026341 0.0126337 -0.0296885 -0.0338651 -0.0241366 
-0.0235296 0.0199555 0.0243817 0.02966 0.0183496 0.11521 0.0146698 0.00986676 0.00100225 
-0.0970661 0.0376354 0.0279933 0.00338721 -0.00261322 0.0956426 0.105335 -0.0181596 0.0118364 
0.000371278 -0.00493962 -0.010843 -0.0706842 -0.0165054 0.0319703 0.00907299 -0.0569767 -0.0139857 
0.00169938 -0.07985 -0.00628044 -0.00690085 -0.00769113 -0.0082538 -0.00842862 -0.00879436 -0.00907839 
-0.00983071 -0.00933329 -0.00938265 -0.0106666 -0.00930058 -0.00912931 -0.0108599 -0.00878406 -0.00836679 
-0.0103745 -0.00771857 -0.00711178 -0.00933097 -0.00634497 -0.00559394 -0.0078158 -0.00468984 -0.00380941 
-0.00598671 -0.002688 -0.00168785 -0.00379953 -0.000463409 0.000524855 -0.00124796 0.00161667 0.00257209 
0.00126948 0.00362182 0.00444739 0.00356675 0.00542436 0.00615028 0.00572455 0.00691527 0.00747252 
0.00763479 0.00799291 0.00833344 0.00902237 0.00856252 0.00869769 0.00981669 0.00874153 0.00871589 
0.0101064 0.00861024 0.00844316 0.0100475 0.00812564 0.0078032 0.00961677 0.00739259 0.00695767 
0.00883973 0.00631005 0.00572765 0.00772554 0.00490104 0.00413366 0.00618658 0.00321933 0.00248803 
0.00261123 0.00438062 -0.00570778 0.00323561 -0.00891393 -0.010802 0.0190675 0.0144335 0.0701539 
0.0588679 0.0494215 0.0286944 0.0479927 0.0404308 0.0615487 0.0339118 0.0280845 0.0435427 
0.023137 0.0195336 0.0311384 0.0159579 0.0131665 0.0219269 0.0103029 0.00806264 0.0149292 
0.00573385 0.00382916 0.00932155 0.00183735 0.000186801 0.00456119 -0.00166581 -0.00317422 0.000341624 
-0.00496474 -0.00638782 -0.00360355 -0.00806361 -0.00942666 -0.00730523 -0.010891 -0.012143 -0.0106749 
-0.0132301 -0.0141597 -0.0134472 -0.0149847 -0.0155808 -0.0155455 -0.0161358 -0.016433 -0.0170314 
-0.0167923 -0.0166574 -0.0179453 -0.0164566 -0.0155799 -0.0181109 -0.0139896 -0.0121808 -0.0165998 
-0.0102831 -0.00748886 -0.0130492 -0.00313856 -5.20667e-05 -0.00622365 0.00317352 0.00540521 0.00196802 
0.00684555 0.00782762 0.00673063 0.0080288 0.00808361 0.0080391 0.00766106 0.00733093 0.00777248 
0.00667031 0.00596069 0.0068088 0.00516861 0.00424732 0.00532864 0.0032693 0.00237287 0.00344822 
0.00127239 0.000263038 0.00132471 -0.00103122 -0.00214462 -0.00113897 -0.00333093 -0.00434292 -0.00373259 
-0.00538535 -0.00623457 -0.00608833 -0.00717949 -0.0079793 -0.00818109 -0.00870273 -0.00920309 -0.00993611 
-0.00954448 -0.00977815 -0.011045 -0.00989058 -0.00993618 -0.011532 -0.0097922 -0.00968453 -0.0115188 
-0.00933698 -0.00895839 -0.011002 -0.00843366 -0.00793686 -0.0100562 -0.00734506 -0.00672054 -0.00885723 
-0.00592231 -0.00507565 -0.00736351 -0.00361733 0.00317904 0.00354806 -0.00310178 0.0039943 0.00457338 
0.00429754 0.00514548 0.00558245 0.00597952 0.00632713 0.00680162 0.00671459 0.00692674 0.00763589 
0.00707012 0.00706638 0.00820149 0.0069892 0.00676082 0.00827419 0.00642491 0.00606228 0.00783376 
0.00545692 0.00491102 0.00683681 0.00421159 0.00352028 0.00545981 0.00270843 0.00192107 0.00384217 
0.000979715 0.000168367 0.00196664 -0.000767728 -0.00158631 -1.91902e-05 -0.00255079 -0.00341846 -0.00200159 
-0.00425916 -0.00499519 -0.00391774 -0.00567497 -0.0062221 -0.00557428 -0.00666293 -0.00690682 -0.00680965 
-0.007016 -0.00685553 -0.00743627 -0.00643779 -0.00573854 -0.00713499 -0.00466566 -0.00340871 -0.0055792 
-0.00170785 -9.51865e-06 -0.00266237 0.0024429 0.00455614 0.00166853 0.00687094 0.0087998 0.00678068 
0.0106851 0.0121234 0.0112265 0.0134434 0.0144261 0.0145671 0.0150198 0.0154115 0.0165839 
0.0153178 0.0151483 0.0171483 0.0148396 0.0143303 0.0166535 0.0135816 0.0129192 0.0154241 
0.011865 0.0109739 0.0135554 0.00974119 0.00874078 0.0112014 0.00749902 0.00626123 0.00848841 
0.0047594 0.00350426 0.00545117 0.00185849 0.000374015 0.00205769 -0.00157279 -0.00325268 -0.00181261 
-0.00556229 -0.0077911 -0.00652827 -0.0106493 -0.013138 -0.0122166 -0.0169448 -0.0206278 -0.0194105 
-0.025691 -0.0313057 -0.0291274 -0.0362977 -0.044441 -0.040628 -0.0814071 -0.0799625 0.0808106 
-0.00697958 -0.038605 -0.0119145 -0.0140399 -0.00736189 -0.0810554 -0.0772272 -0.0719364 -0.074991 
-0.0704039 -0.0714782 -0.067224 -0.0634607 -0.0659513 -0.0590507 -0.055513 -0.0591322 -0.0527177 
-0.0485831 -0.052284 -0.0455958 -0.0415349 -0.0459098 -0.0382198 -0.0339056 -0.0392109 -0.0304474 
-0.0268403 -0.0319589 -0.0223698 -0.0186909 -0.0244726 -0.0148086 -0.011124 -0.0169549 -0.00738156 
-0.00289143 -0.00920345 0.000903315 0.00521306 -0.00115601 0.00900759 0.0129621 0.0070552 0.0178134 
0.0220247 0.0156845 0.0272713 0.0316304 0.0245673 0.036214 0.0397137 0.0331604 0.0428564 
0.0468219 0.0406619 0.0501784 0.0541278 0.0476184 0.0572939 0.0617147 0.0547309 0.065735 
0.069407 0.0618101 0.0738746 0.0779496 0.0688229 0.0808726 0.0853208 0.0754911 0.0832015 
0.0839536 -0.0129997 -0.011391 -0.000619683 -0.00700451 0.0048465 0.00406516 -0.00755627 -0.00809111 
-0.00619405 -0.00969028 -0.00830481 -0.00676579 -0.0173156 -0.013048 -0.0112956 -0.0336256 -0.0248521 
-0.0217726 -0.0553454 -0.0445259 -0.038457 -0.0123631 -0.013299 -0.0184695 -0.0166945 0.00708598 
0.0053578 0.00238131 0.00487088 0.00601595 0.00309508 0.00845031 0.00743547 0.00276529 0.00352728 
0.00649027 0.000347313 -0.0111066 -0.00246657 -0.00653921 0.0446828 0.0250778 -0.0581547 -0.0621437 
-0.0525293 -0.0388727 -0.045668 -0.0555206 -0.0136955 -0.0127751 -0.0118684 -0.0141281 -0.0162455 
-0.0117807 -0.0207219 -0.0167308 -0.0155642 -0.0360218 -0.0274555 -0.0250575 -0.0540203 -0.0454319 
-0.0391059 -0.00569071 -0.0293757 0.010744 0.0185544 0.0168887 0.0109984 -0.00499217 -0.00577672 
0.0179315 0.0154767 0.0137003 0.0141335 0.0206862 0.0188496 0.0136344 0.0178497 0.020225 
0.0129725 0.0146277 0.0133068 0.0129469 -0.00707337 -0.00287914 -0.00524718 0.0150091 0.0105827 
0.0235521 0.0120036 0.0210248 0.029835 0.00664286 0.00110552 0.00797567 0.00577117 -0.0679554 
-0.000483586 -0.00646475 0.0764959 -0.0475896 0.00447461 -0.000132044 -0.0322875 -0.0125587 -0.0168134 
-0.0184564 0.0572053 0.0455546 0.0567448 -0.0159751 -0.0169149 -0.0148771 -0.0108029 0.0230061 
0.0106759 -0.00521915 -0.0103878 -0.00337377 0.0529472 0.0434932 0.0556778 0.00758325 0.00954043 
0.0139159 0.0255242 0.0327585 0.0024321 0.00574103 0.00293645 -0.00234929 0.0161092 0.0167526 
0.0201185 0.013088 0.00790605 0.0053509 -0.00800668 -0.0144343 0.0129956 0.0395194 0.049748 
0.033415 0.0405943 0.0496682 0.0463465 0.0354636 0.00513855 -0.0088505 -0.00967599 -0.00253706 
-0.00440126 -0.0107464 -0.0113197 -0.0111735 -0.0119126 -0.0121658 -0.012836 -0.012334 -0.0122425 
-0.0136141 -0.0119695 -0.0115765 -0.013517 -0.0109333 -0.0102214 -0.0125584 -0.00917498 -0.00831527 
-0.010791 -0.00744553 -0.00638435 -0.0087995 -0.0049808 -0.00370438 -0.00642205 -0.0020289 -0.000607984 
-0.00317545 0.000938076 0.00218364 0.000267213 0.00341282 0.00457146 0.0031835 0.00593481 0.00706421 
0.00586272 0.00831502 0.0092173 0.00862337 0.0100351 0.0106307 0.0108614 0.0109846 0.0112463 
0.0121068 0.0114145 0.0114511 0.0126374 0.0113628 0.011261 0.012702 0.0110119 0.0106684 
0.0123497 0.0102342 0.00974816 0.011617 0.00902489 0.0083259 0.0103947 0.00739061 0.00653821 
0.00870263 0.00524316 -0.00626978 -0.0050081 0.0171693 0.0141396 0.0721312 0.0690422 0.0581439 
0.05144 0.0441967 0.0582405 0.0385526 0.0327348 0.0453417 0.0282288 0.0240907 0.0346455 
0.020311 0.0170085 0.0259789 0.0137377 0.0110055 0.018741 0.00820998 0.00584974 0.0124211 
0.00343851 0.00126274 0.00696446 -0.00110731 -0.00309276 0.00194723 -0.00541586 -0.00725774 -0.00293227 
-0.00921105 -0.0108788 -0.00733964 -0.0123973 -0.0136156 -0.0109447 -0.0146177 -0.0155853 -0.0134721 
-0.0163682 -0.0169885 -0.0152797 -0.018039 -0.0171129 -0.00322696 0.000779 0.00424708 0.00699266 
0.00713328 0.00603579 0.00576328 0.00496628 0.00590316 0.00531871 0.00387933 0.00470173 0.00382236 
0.00375688 0.00294399 0.001924 0.00222705 0.000800711 -0.000284045 0.000286126 -0.00158293 -0.00292774 
-0.00209626 -0.0044727 -0.00572298 -0.00496187 -0.00709709 -0.00822489 -0.00792408 -0.00943105 -0.0104318 
-0.0105485 -0.0113755 -0.0121151 -0.0127237 -0.0126204 -0.0129711 -0.0141307 -0.0131421 -0.0132595 
-0.0147572 -0.0131404 -0.0129881 -0.0147858 -0.0125904 -0.0121875 -0.0142185 -0.0115714 -0.0109902 
-0.0131453 -0.0101891 -0.00951774 -0.011694 0.00738365 0.00782106 -0.0578042 -0.0556694 0.00842839 
0.0088432 0.00904731 0.00930062 0.00946104 0.0101329 0.00960499 0.00951438 0.0107417 0.00931719 
0.00895107 0.0106879 0.00838754 0.00774318 0.0099264 0.00692891 0.0061669 0.00853057 0.00528547 
0.00438237 0.00679891 0.00334212 0.0022904 0.00481563 0.0011301 0.00014329 0.00252689 -0.000953789 
-0.0019426 0.000223731 -0.00294115 -0.00387958 -0.00186351 -0.00478284 -0.00553861 -0.00376916 -0.00624318 
-0.00677136 -0.00540132 -0.0072198 -0.00738881 -0.00667618 -0.00742571 -0.00701489 -0.00735162 -0.00635649 
-0.0052304 -0.00676068 -0.00396975 -0.00219111 -0.00489498 0.00660281 0.00911248 0.0151687 0.0165589 
0.0175057 0.0181134 0.0182247 0.0181696 0.0181183 0.0191051 0.0176601 0.0171566 0.0186583 
0.0164245 0.0155632 0.0173046 0.0144303 0.0133211 0.0153355 0.0118739 0.0105207 0.0126669 
0.0089738 0.00744586 0.0095442 0.00561221 0.00382383 0.00591197 0.00174836 -0.000139053 0.00174556 
-0.00257003 -0.00486162 -0.00299863 -0.00776089 -0.0105514 -0.00861379 -0.0138711 -0.0172675 -0.0152026 
-0.0213668 -0.025718 -0.0229859 -0.0313573 -0.0373978 -0.0330357 -0.04492 -0.0509572 -0.0463547 
-0.000603287 0.0322419 0.0192901 -0.00105104 -0.000701272 -0.00607786 -0.00394989 -0.00660513 -0.067522 
-0.0657996 -0.0634336 -0.0604072 -0.0598391 -0.0577367 -0.0543587 -0.0554046 -0.051805 -0.0487479 
-0.0505426 -0.0460071 -0.0429411 -0.0455951 -0.0399996 -0.036583 -0.0402525 -0.0332771 -0.0297299 
-0.0342912 -0.0262101 -0.0225667 -0.027749 -0.0190244 -0.0152737 -0.0208837 -0.0113259 -0.00744254 
-0.013546 -0.00336808 0.000594305 -0.00564636 0.00483379 0.00902852 0.00258698 0.0135372 0.0178933 
0.0112254 0.0223909 0.026525 0.0200682 0.030555 0.0345491 0.0283008 0.0380762 0.0414147 
0.0355533 0.0447352 0.0481216 0.0420922 0.0511948 0.0546058 0.0481299 0.0574986 0.0607768 
0.0536673 0.0633699 0.0666389 0.05868 0.0692138 -0.043041 -0.0435692 -0.0127721 -0.009312 
-0.00765884 -0.00376115 -0.00392592 -0.00310699 -0.0247996 -0.0372291 -0.0248133 -0.0183301 -0.0160424 
-0.0404316 -0.0322712 -0.0279498 -0.0171646 -0.0141069 -0.00014717 -1.83357e-05 -0.00308321 0.0308777 
0.0203506 0.00128339 0.00241347 -0.000813948 0.00189975 -0.0122714 0.0238171 -0.0276379 -0.0218206 
-0.019867 -0.0116968 -0.010799 -0.0130651 0.00642727 -0.00976198 -0.00994616 -0.00948012 -0.0399366 
-0.0337385 -0.0294552 -0.00822981 0.0179242 0.00677784 0.00795733 0.00842058 0.00871967 0.00338305 
0.0106106 0.0105629 0.00656741 -0.0152306 -0.00194582 -0.0181258 -0.00332046 -0.00361337 -0.000874189 
0.0119498 0.0126462 0.0102298 -0.0181571 -0.0185313 -0.0151577 -0.0183825 -0.0611895 -0.00475951 
-0.00447817 -0.00112821 0.0107999 0.0162514 -0.00713321 -0.00919834 -0.00896202 0.00706502 0.0139891 
0.0149281 0.0175132 0.0126468 0.0105044 0.00661549 -0.000248075 -0.0177084 -0.0179345 -0.0642838 
0.00585107 0.00699166 0.00808603 -0.00915631 0.0396614 0.0335994 0.0457926 -0.0353569 -0.0308637 
-0.0440523 -0.0239062 0.0177828 0.00922504 0.00303475 0.00530386 0.00286792 0.000396376 0.0113106 
0.013321 0.0633069 0.0201709 0.0124798 0.0140995 0.0204885 -0.0584237 0.00612157 0.0120829 
0.0015959 -0.0169891 -0.00115109 0.01539 0.0230392 0.0274197 0.0349804 0.00392313 -0.00261887 
-0.00141245 0.00492403 0.0011752 -0.0180419 -0.0458632 -0.0392821 -0.047887 0.0476815 -0.00693091 
-0.00500874 -0.00410946 0.0376537 0.0323777 0.0436595 0.00361695 0.00533323 0.008858 -0.0121006 
-0.00797048 0.0213589 0.0259722 0.0198804 -0.0112338 -0.0380078 0.0182792 0.0186371 0.0177898 
0.0176925 0.00500938 0.00103337 0.00175752 -0.00115299 0.0308284 0.0366907 0.0278561 -0.0135304 
-0.0141351 -0.0146788 -0.0148437 -0.0154236 -0.0148751 -0.0145915 -0.0160202 -0.0141717 -0.0135072 
-0.01568 -0.0122034 -0.0110589 -0.0139154 -0.0100869 -0.0196746 -0.0128616 -0.00800485 -0.00651164 
-0.0103373 -0.0045398 -0.00269312 -0.00617756 -7.19741e-05 0.00166062 -0.00138565 0.00369918 0.0050208 
0.00355931 0.0064555 -0.00105983 -0.000169965 0.00868067 0.0100641 0.00787527 0.0117048 0.012598 
0.0119472 0.0133879 0.013755 0.0143942 0.013709 0.01388 0.0150662 0.0140653 0.0139703 
0.0152204 0.0134502 0.0131819 0.0148445 0.0129021 0.0124003 0.0140273 0.0116413 0.0108772 
0.0129298 0.00995671 0.00898216 0.00934191 0.0112047 0.0113253 0.056613 0.0414816 0.0448066 
0.0391415 0.0512692 0.0453101 0.0557133 0.0404647 0.0354101 0.0455429 0.0314071 0.0273097 
0.0363985 0.0237444 0.0202802 0.0286659 0.0171254 0.0141157 0.021919 0.011291 0.0086703 
0.0158818 0.0060051 0.00347305 0.0103041 0.00074187 -0.00172397 0.00479472 -0.00446485 -0.00654194 
-0.000857412 -0.008423 -0.00999865 -0.0056155 -0.0108415 -0.0117065 -0.00834183 -0.0104467 0.00158178 
0.000972333 -0.00107016 -0.00206999 -0.00289009 -0.0041313 -0.00408986 -0.0058435 -0.00738937 -0.0065438 
-0.00909765 -0.0104627 -0.0100202 -0.0119272 -0.0131272 -0.013169 -0.0141776 -0.0150669 -0.0156399 
-0.0157653 -0.0161998 -0.0173102 -0.0164711 -0.016585 -0.0181454 -0.0164448 -0.0163007 -0.0181488 
-0.0156879 -0.015247 -0.0173434 -0.0144435 -0.0138037 -0.0159188 -0.0127484 -0.0119485 -0.0114897 
-0.0140324 0.00995371 0.0244455 0.0161083 -0.000841542 0.010881 0.0113483 0.0119023 0.0120559 
0.0126906 0.0122144 0.0120348 0.01344 0.0115674 0.0110189 0.0131911 0.0102503 0.00944076 
0.0119897 0.0086088 0.00771046 0.0104162 0.00674038 0.00566541 0.00864138 0.00432958 0.00310536 
0.00633336 0.00173937 0.000651771 0.0035431 -0.000122601 -0.00103841 0.00145873 -0.00193778 -0.00278293 
-0.000134246 -0.00366391 -0.00438289 -0.00175679 -0.00523293 -0.00584456 -0.00339541 -0.00654813 -0.00675497 
-0.00522331 0.0116073 0.0191218 0.0191213 0.0185982 0.0181206 0.0187346 0.0173315 0.0165465 
0.017393 0.0154536 0.0142427 0.0154806 0.0127123 0.0111707 0.0128719 0.00932831 0.00768189 
0.00947456 0.00577642 0.00373695 0.00558754 0.00137256 -0.000943712 0.00116796 -0.00375893 -0.00645072 
-0.004211 -0.00958512 -0.0127981 -0.0103862 -0.0161674 -0.0198175 -0.0170964 -0.0237605 -0.0282287 
-0.024586 -0.0330338 -0.0390609 -0.0335209 -0.0446006 -0.0523691 -0.0559638 -0.0441838 -0.0541935 
0.025375 0.0196001 0.00268685 0.00624616 0.000960199 -0.0484533 -0.0462785 -0.0445365 -0.0421631 
-0.0426603 -0.0401711 -0.0375695 -0.0393372 -0.0350258 -0.0320655 -0.0352134 -0.0291134 -0.0258549 
-0.0301873 -0.0227429 -0.0193573 -0.0243686 -0.0160246 -0.0122327 -0.0181352 -0.00796671 -0.00401705 
-0.0106956 5.05412e-05 0.00420749 -0.00242582 0.00895595 0.0133149 0.00637821 0.0178214 0.0220623 
0.0155311 0.0260271 0.0297459 0.0238303 0.0331081 0.0363318 0.0308828 0.0393592 0.0423046 
0.0368875 0.0447871 0.0474411 0.0419347 0.0495947 0.0520479 0.0461364 0.053623 -0.0292848 
-0.0233233 -0.00839762 -0.00535178 -0.0146417 -0.015722 -0.00234979 -0.000669944 -0.00296959 -0.0179054 
-0.0129149 -0.0103332 -0.0196449 -0.0294112 -0.0248097 -0.00124883 0.00104024 0.000176528 -0.00349856 
-0.0020694 -0.0156829 -0.0179416 0.041355 0.0458194 0.0405965 0.0351414 -0.0140489 -0.0115671 
-0.0213606 -0.0172176 -0.0155737 -0.0216613 -0.00650544 -0.00567453 -0.0364915 -0.0339255 -0.0289579 
0.00077982 0.00182626 0.00163888 -0.013312 -0.0238646 0.00838283 0.0101414 -0.0310202 -0.0357918 
-0.0326177 -0.0253918 0.00652349 -0.00281098 0.00127152 -0.00876074 0.000743185 -0.0125876 -0.0131746 
-0.0122992 0.0124518 0.0147477 0.0109747 0.0155816 0.00904721 0.00207368 -0.00281729 0.0364963 
0.0183247 0.0190621 -0.00623509 -0.0031327 -0.00145805 -0.00559402 0.0360142 0.0302317 0.027508 
0.0111919 -0.0182179 -0.0289817 -0.0144041 0.0149225 0.0166742 -0.0067167 -0.00619549 0.0183145 
0.0241514 0.0195957 0.0141707 -0.00944479 -0.0502446 -0.0457493 -0.0523686 0.0494086 0.00409498 
0.00547622 0.00552982 -0.0343433 -0.0294363 -0.0379362 -0.0395343 -0.0087573 -0.00650711 -0.0155183 
0.0177221 0.0211032 0.0159119 -0.00217738 -0.0139226 0.00141438 0.00437565 -0.000772808 0.00605926 
0.00626153 0.00387868 -0.00923036 -0.00775368 0.017586 0.0192731 0.00798057 0.0126733 0.0142836 
0.0081675 0.0221502 0.0249447 0.0287029 -0.00640208 -0.0487276 0.0157399 0.0172391 0.0167769 
0.0117908 -0.0101573 0.0345462 0.0299087 0.027894 -0.0171899 -0.017256 -0.017093 -0.0166212 
-0.0183996 -0.0167218 -0.0153083 -0.0182731 0.0066562 0.00584591 -0.0180148 -0.0148914 -0.0113482 
-0.00908621 -0.0136498 -0.00702801 0.00726817 0.00896026 -0.00313012 -0.000287961 -0.00617997 0.00417197 
0.00639065 0.00262765 0.0122765 0.0125416 0.0149151 0.0143251 0.00880852 0.0154048 0.00946873 
0.0124545 0.0141675 0.0112619 0.0154736 0.0162936 0.0162757 0.0166502 0.0166005 0.017934 
0.0167107 -0.0044355 -0.0157637 0.0159972 0.0155054 0.0175167 0.0151024 -0.0431902 -0.0341574 
0.0140875 0.0132859 0.0155667 0.0121239 -0.0041031 -0.00228088 0.000691534 -0.00215937 0.00479341 
0.00716184 0.0445026 0.0332116 0.0295792 0.0264875 0.0233285 0.0307175 0.0205586 0.0177127 
0.0250208 0.0149842 0.0122901 0.0197079 0.0029721 0.000148645 0.00155041 -0.00566839 -0.00628241 
-0.0115932 -0.0132604 -0.0150839 -0.0164506 -0.0167457 -0.0174532 -0.0183777 -0.0194635 -0.0190773 
-0.0196093 -0.0210211 -0.0199141 -0.0200288 -0.021763 -0.0196862 -0.019451 -0.0214125 -0.0186465 
-0.0180301 -0.0201344 -0.0149601 -0.00349113 -0.00509292 -0.00561018 -0.00485276 -0.0429819 0.0150773 
0.0146812 0.0136951 0.0129734 0.0156758 0.0122544 0.0114632 0.014075 0.0112011 0.0103287 
0.0132016 0.00874698 0.00743655 0.0115223 0.00540156 0.003924 0.00327934 0.025235 0.0301622 
0.0352507 -0.00104336 -0.0024252 0.0363377 0.0358904 0.0320246 0.0326709 0.0161461 0.0153981 
0.0149339 0.0144007 0.0133844 0.0133723 0.0123826 0.0108277 0.0114245 0.00881629 0.00683058 
0.00837178 0.00465164 0.00269106 0.00410942 0.000718017 -0.00176497 -0.000159033 -0.011197 -0.0144653 
-0.01778 -0.0212895 -0.0184868 -0.024916 -0.0289903 -0.0254041 -0.033213 -0.0381854 -0.0422424 
-0.00303852 -4.23436e-05 -0.040137 -0.038793 -0.0378934 -0.0363157 -0.0356405 -0.0349731 -0.0329662 
-0.0338819 -0.0310906 -0.0285651 -0.0313044 -0.0262387 -0.0232209 -0.0275861 -0.020827 -0.0177378 
-0.0231124 -0.0134576 -0.00933586 -0.0165362 -0.00490575 -0.00091957 -0.00798601 0.00382262 0.00850542 
0.00131482 0.0131513 0.0174104 0.0106575 0.0216288 0.025306 0.0193316 0.0286141 0.031593 
0.0264647 0.0346193 0.0372127 0.0324787 0.0390675 0.0411133 0.0368597 0.0423434 0.0440529 
0.0406428 0.0395127 -0.0348385 -0.0385497 -0.0342696 -0.0410254 0.00143041 0.00150734 -0.00575171 
-0.00459614 0.00635384 0.00895834 0.0127697 0.00905552 -0.016026 -0.0165399 -0.0178225 -0.0161191 
0.013285 -0.0086288 -0.00722813 -0.00897621 -0.0110487 0.0138359 -0.0290827 0.0365631 0.0369588 
0.00963413 0.00685705 0.0308562 0.0262904 0.0153046 0.0146842 0.0148959 -0.0182561 -0.0169308 
0.0108676 0.0043187 -0.0111613 -0.0195085 0.0144357 0.0229385 0.0189449 0.01645 0.00786177 
0.00222384 -0.00359249 0.0297408 -0.00514535 0.0184065 0.0149338 -0.000876284 -0.0332204 -0.0369964 
-0.00793778 -0.0119563 -0.00493575 -0.0295757 -0.0252644 -0.0113996 -0.00716871 -0.00426347 -0.0203205 
-0.0156294 -0.0122979 -0.0187663 -0.0224535 0.00541579 -0.0279016 0.000846379 -0.0167058 -0.0138573 
0.0105144 0.0155064 -0.000137657 -0.0291313 -0.0253693 0.00317988 0.00481055 0.00726598 0.00319367 
-0.0309794 -0.0275273 -0.0305618 0.00260547 -0.0045996 0.0381452 0.0381181 0.0344518 0.0336787 
-0.0212005 0.0171665 0.0210996 0.0263793 0.0196657 0.0220506 0.0159878 -0.0122175 0.0163986 
0.00783488 0.0328097 0.0312934 0.0340048 0.0245748 0.0220628 0.0247799 0.0258329 0.0089756 
0.0103019 -0.00960515 -0.0188692 -0.021555 -0.0251263 -0.0306484 0.0126896 -0.0219905 -0.0228356 
-0.0234281 -0.0233833 -0.0228215 -0.0222267 -0.0243798 -0.020885 -0.0200971 -0.021975 0.0260221 
0.0240379 0.0180176 0.0183942 -0.0177097 -0.0134932 0.0361708 -0.0214868 -0.0167672 0.0160782 
0.015985 0.0154697 0.0140708 0.0186983 -0.0252464 -0.0225472 -0.02312 -0.0270242 0.0360597 
0.0340042 0.0310779 0.0262093 0.0291754 -0.0195679 -0.0195479 -0.0214083 0.00926118 0.00847349 
0.00625368 0.0030237 0.000778757 -0.0323308 -0.0288422 -0.0323921 -0.0328125 -0.0293802 -0.0328615 
-0.0258275 -0.0129154 -0.0161481 0.0186885 0.0226344 0.015446 -0.015078 -0.0209925 0.00412513 
-0.020714 -0.0239282 -0.0197836 0.0187233 0.0219434 -0.0270766 0.0226675 0.0210731 0.0224795 
0.015197 -0.0035795 -0.00262176 -0.00456497 -0.00765953 0.0121858 0.00640605 0.0110133 0.0194985 
0.0197811 0.0182673 0.0292006 0.0266845 0.0288489 0.0322094 0.0191804 -0.0140576 0.010257 
-0.0193039 -0.0225636 -0.0263996 -0.00540921 0.0111143 0.0293617 0.0260501 -0.0202395 -0.00791617 
0.0311337 0.0312122 0.0335997 0.0325124 -0.0293751 -0.0323466 -0.0121739 -0.0323234 -0.0314835 
-0.0298041 -0.0312928 -0.030113 -0.0301551 -0.0285295 -0.0265599 -0.0183435 0.00756303 0.0333343 
0.0345341 0.0266795 0.0306623 0.0333347 0.0287813 -0.0237354 -0.0293568 -0.0116818 0.0121043 
-0.0112207 -0.00715713 0.028639 0.0317231 -0.025045 0.0223405 -0.0263635 -0.0223342 0.019461 
-0.0291824 -0.0271384 0.0167101 -0.0254439 0.0315864 0.0317608 -0.0244425 -0.0197249 0.0301808 
-0.0275473 -0.0295777 -0.0302828 0.017748 -0.0267918 -0.0287841 -0.0284023 -0.0251196 -0.0208587 
0.000181232 -0.000437983 -0.000197744 -0.00106479 -0.00094568 -0.00135838 -0.00157945 -0.00150268 -0.00252105 
-0.00213113 -0.00207457 -0.00357176 -0.0024701 -0.00242493 -0.00445879 -0.00254107 -0.00254748 -0.00489609 
-0.00236683 -0.00243411 -0.00484433 -0.00192843 -0.00199715 -0.0042705 -0.00142524 -0.00152086 -0.00333622 
-0.000717896 -0.000884209 -0.0022108 0.000104627 -9.61617e-05 -0.000767186 0.000841529 0.00071773 0.00074877 
0.00145553 0.00135611 0.00213225 0.00190718 0.00184403 0.00319302 0.00227126 0.0022159 0.004033 
0.00239364 0.00238148 0.00453186 0.00227179 0.00229222 0.00456853 0.00201491 0.00208297 0.00424164 
0.0016965 0.00176306 0.00370682 0.00125116 0.00135213 0.00298958 0.000671714 0.000775306 0.00201604 
7.00737e-05 0.000202501 0.000899417 -0.000120683 0.103987 0.0541937 0.0815246 0.0187955 0.0198278 
0.0731604 0.00990296 0.0104059 0.0298076 0.00542737 0.00608447 0.0161834 0.00310736 0.0034338 
0.00919728 0.00156568 0.00181184 0.00525438 0.000360961 0.00051202 0.00253853 -0.00087815 -0.000609658 
-1.13065e-05 -0.00200505 -0.00180619 -0.00231046 -0.00303383 -0.00286569 -0.00449696 -0.00402832 -0.00384543 
-0.00643584 -0.00479426 -0.00460876 -0.00819243 -0.00547212 -0.00540599 -0.00962562 -0.00587999 -0.00583127 
-0.010712 -0.00585346 -0.00593111 -0.011128 -0.00478368 -0.00509354 -0.0102895 -0.00211409 -0.00281544 
-0.00709425 0.000539251 9.35677e-05 -0.00210299 0.00244902 0.00217249 0.00250491 0.00326834 0.00322881 
0.00529633 0.00320022 0.0032809 0.00606514 0.00264916 0.00280586 0.0056205 0.00178277 0.00195136 
0.0042699 0.000933707 0.00106749 0.00264071 -5.95634e-06 0.000212858 0.000949327 -0.00086504 -0.000718994 
-0.000757622 -0.00162255 -0.00149346 -0.00235939 -0.00223598 -0.00214293 -0.00370149 -0.00266647 -0.0025894 
-0.00469142 -0.00272657 -0.00271907 -0.00520609 -0.00261852 -0.00263991 -0.00522369 -0.00236037 -0.00241076 
-0.00490448 -0.00198851 -0.00204896 -0.00431743 -0.00159235 -0.00168331 -0.00358367 -0.000957574 -0.00113752 
-0.00267169 0.139194 0.000305198 0.000190177 0.000888145 0.000777159 0.00111509 0.00144161 0.00135349 
0.00220346 0.00172743 0.00167435 0.00303224 0.00192026 0.00189157 0.00352974 0.00193231 0.00194485 
0.00376672 0.00184396 0.00188268 0.00372191 0.00151456 0.00158923 0.00334504 0.000997533 0.00111287 
0.00256714 0.000414155 0.000564403 0.00155465 -0.00029634 -0.000154688 0.000341361 -0.00101354 -0.000880772 
-0.00104895 -0.00171676 -0.0015865 -0.00239129 -0.00224317 -0.00214459 -0.0036281 -0.00254683 -0.00251343 
-0.00449267 -0.00260668 -0.00266075 -0.00488053 -0.00197295 -0.00212503 -0.00438199 -0.000437193 -0.000884081 
-0.00254427 0.00118066 0.000890272 0.000378202 0.00288639 0.00253339 0.00366396 0.00406131 0.00391644 
0.00656208 0.00483704 0.00477371 0.0085368 0.00495504 0.00501351 0.00945082 0.00460534 0.00470941 
0.00924769 0.00403115 0.00422076 0.00842646 0.003148 0.00331375 0.00705107 0.00230885 0.00247907 
0.00530289 0.00127412 0.00146653 0.00344423 5.04668e-05 0.000354179 0.00132998 -0.0013858 -0.0010849 
-0.00121087 -0.00319852 -0.00286642 -0.00452629 -0.00635698 -0.00557704 -0.00919072 -0.0114956 -0.0104491 
-0.0168355 -0.0201244 -0.0175036 -0.0292219 -0.044113 -0.0299437 -0.049202 -0.0996459 -0.113276 
-0.139092 -0.100233 -0.111635 -0.113276 -0.0873456 -0.101545 -0.101055 -0.0761091 -0.0912466 
-0.0892867 -0.0693422 -0.0800898 -0.0780506 -0.0537447 -0.0659909 -0.0663988 -0.0440578 -0.0591326 
-0.0540165 -0.0346213 -0.049559 -0.0460199 -0.0282984 -0.0392362 -0.0371556 -0.0136251 -0.0251952 
-0.026015 -0.00276978 -0.0167455 -0.0151446 0.00637518 -0.00871752 -0.0055532 0.00894418 0.00168414 
0.00386999 0.022283 0.0124752 0.0151725 0.0392091 0.0275486 0.0258663 0.0493497 0.0412119 
0.0339947 0.0589453 0.0441534 0.0459019 0.0616987 0.0538327 0.0550712 0.0797821 0.0658169 
0.0660719 0.091767 0.0829074 0.0772174 0.104392 0.0883937 0.0901612 0.113418 0.100798 
0.103101 0.0143499 -0.0161981 -0.0402206 -0.0433411 -0.0173424 -0.0415645 -0.0321615 -0.041544 
-0.0236628 -0.0194789 -0.0388317 -0.0143175 -0.0149461 -0.0246551 -0.0137475 -0.015803 -0.0193054 
-0.0165056 -0.0193517 -0.0190731 -0.0232093 -0.0264341 -0.0245966 -0.0300891 -0.0407136 -0.0328499 
-0.0499073 -0.0699124 -0.0441464 -0.0853434 -0.0978521 -0.070761 0.100537 0.0856982 0.0695286 
0.0566055 0.0849061 0.041104 0.0288451 0.0550767 0.0235988 0.0185213 0.0282637 0.017575 
0.0139789 0.0184011 0.0137826 0.0119345 0.0157887 0.0129491 0.0127243 0.0163149 0.0178004 
0.021654 0.0219131 0.0307489 0.0413722 0.0382645 0.043245 0.0380136 0.0429164 0.00969599 
-0.0122881 0.0159196 -0.0052575 -0.0267873 -0.0516187 -0.0519855 -0.0367743 -0.0445732 -0.0328692 
-0.0502568 -0.0246001 -0.0213971 -0.0376589 -0.0183606 -0.0191094 -0.0260681 -0.0185813 -0.0208967 
-0.0215027 -0.0214778 -0.0250153 -0.0211876 -0.0280967 -0.0352212 -0.0255868 -0.0472793 -0.0654997 
-0.0435391 -0.0781702 -0.0919577 -0.0784981 0.102317 0.0801642 0.0655903 0.0545555 0.08057 
0.0413039 0.0333692 0.0547918 0.0290478 0.0240694 0.0367522 0.0230136 0.0210818 0.0291129 
0.0191253 0.017515 0.0262108 0.0194865 0.0199509 0.0253659 0.0254812 0.0288759 0.0353574 
0.0388873 0.0533315 0.050058 0.0508647 0.0499465 0.0480311 0.0323778 -0.00107917 0.0228646 
-0.000200431 3.54259e-05 -0.000388506 -0.0886853 -0.104448 -0.0683618 -0.0429692 0.00513385 0.0164552 
0.11431 -0.0145489 -0.0112845 0.0587251 -0.0017682 -0.00259204 -0.0799957 -0.0601017 0.0585507 
0.0715291 -0.00393916 -0.00142131 0.114883 -0.00376677 -0.00319729 -0.00278305 -0.00209348 -0.00285637 
-0.00404384 -0.00648178 -0.00613976 -0.00685702 -0.00675447 -0.00849659 -0.00658821 -0.00676384 -0.00568287 
-0.00615375 -0.00810155 -0.00432389 -0.00495402 -0.00262987 -0.00341757 -0.00491828 -0.000574336 -0.00147441 
-0.0025926 0.00150348 0.000607916 5.30802e-05 0.00330585 0.00257441 0.00259438 0.00476001 0.00417471 
0.00478182 0.0057825 0.00537755 0.00646959 0.00624209 0.00608287 0.00753553 0.00624005 0.00633103 
0.00797325 0.00581517 0.00604862 0.00786479 0.00507289 0.00546304 0.00724408 0.00395576 0.00442737 
0.00614762 0.00258422 0.00322394 0.00462833 0.00608798 -0.0140745 0.0223326 0.0280961 0.0360808 
0.0479303 0.0423033 0.0645619 0.0965499 0.068896 0.0137086 0.0169845 0.0270444 0.00833246 
0.0102591 0.016955 0.00411834 0.00581795 0.0101299 0.000631888 0.00215775 0.00513725 -0.00262102 
-0.00130276 0.000635496 -0.00572981 -0.00442517 -0.00359117 -0.00847478 -0.00731815 -0.00743479 -0.0107118 
-0.00977516 -0.0107105 -0.0124532 -0.0117266 -0.0133547 -0.0137216 -0.0133045 -0.0153731 -0.0140938 
-0.0141681 -0.0166535 -0.0125733 -0.0135721 -0.0166191 -0.00790272 -0.0103398 -0.0138508 -0.00143234 
-0.00435279 -0.00748142 0.00388967 0.00181734 5.83263e-05 0.00665576 0.00572346 0.00567359 0.00721722 
0.00713859 0.00793405 0.00624425 0.00677285 0.0078611 0.00446634 0.00540381 0.00641182 0.00239664 
0.00334485 0.00424177 0.000215896 0.00118739 0.0016856 -0.00194943 -0.0009879 -0.000925 -0.00401761 
-0.0031357 -0.00355774 -0.00562237 -0.00496004 -0.00592258 -0.00682281 -0.00635326 -0.00775901 -0.0073575 
-0.00721987 -0.00896424 -0.00733937 -0.00743134 -0.00948671 -0.00683702 -0.00709914 -0.00930606 -0.00594528 
-0.00635421 -0.00851006 -0.0049655 -0.00544308 -0.00741713 -0.0037042 -0.00433418 -0.00612305 -0.00448065 
0.103307 0.00446496 0.00410072 0.0004712 0.00351421 0.00290227 0.00490425 0.00188596 0.00128928 
0.00117918 0.00312336 0.00513594 0.0048891 0.00602454 0.00534239 0.00530305 0.00671243 0.00518359 
0.00528359 0.00684764 0.00455263 0.00491447 0.00646743 0.0034954 0.0040472 0.00559281 0.00210905 
0.0027338 0.00418265 0.000439216 0.00122646 0.00235634 -0.00141094 -0.000598711 0.000221978 -0.00319488 
-0.00240895 -0.00204118 -0.00469686 -0.00406701 -0.00412523 -0.00575911 -0.00538989 -0.00587394 -0.00605626 
-0.00603812 -0.00694855 -0.00506776 -0.00571815 -0.00689036 -0.00228298 -0.00375544 -0.00514724 0.00163533 
-0.000163409 -0.00133655 0.00602077 0.00407866 0.00377773 0.00942699 0.00805312 0.00880641 0.0118894 
0.0109674 0.0127584 0.0124663 0.0123542 0.0149189 0.0119418 0.0123775 0.0152193 0.0106608 
0.0112739 0.0142155 0.00848166 0.00952471 0.0121487 0.00598236 0.00711316 0.00927338 0.00324312 
0.00442873 0.00591234 -3.44348e-07 0.00140824 0.00208947 -0.00389352 -0.00206842 -0.00230826 -0.00930235 
-0.00684615 -0.00801263 -0.0169597 -0.0132904 -0.0159986 -0.0294336 -0.0233003 -0.0276047 -0.0490772 
-0.039305 -0.0456246 -0.0803548 -0.0639575 -0.0719801 0.00214514 0.00466183 -0.0806571 -0.046284 
-0.0872384 -0.084115 -0.0949536 -0.095864 -0.0836481 -0.103853 -0.103409 -0.0760265 -0.0725664 
-0.0768251 -0.0653733 -0.0639611 -0.0679005 -0.0583655 -0.0538685 -0.0585025 -0.048383 -0.0432209 
-0.0493939 -0.0369196 -0.0329248 -0.0400292 -0.0261676 -0.0245326 -0.0306183 -0.0169529 -0.0157208 
-0.0205804 -0.00856816 -0.00391036 -0.0105445 0.00341527 0.00755293 -0.000446161 0.0159121 0.0155721 
0.00987006 0.0279343 0.0228149 0.0200017 0.0344892 0.0340568 0.029918 0.0425329 0.0474571 
0.039708 0.0540332 0.0582059 0.0496025 0.0666935 0.0661886 0.0594107 0.0752907 0.0741916 
0.0686651 0.0843463 0.0875386 0.078526 0.0961354 0.0995268 0.087136 0.0896015 0.0172509 
0.0191647 0.0125351 -0.0197411 -0.0155448 0.0264142 0.0782192 -0.0266301 -0.029787 -0.00809454 
-0.0291081 -0.0231488 -0.0196803 -0.0199609 -0.0177306 -0.0188613 -0.0147587 -0.0138619 -0.0138014 
-0.0124594 -0.0136875 -0.0108543 -0.0131276 -0.0137708 -0.0108413 -0.0168814 -0.0227099 -0.0150902 
-0.0338477 -0.0453485 -0.0277372 -0.0598152 -0.0753801 -0.0655921 -0.0503608 0.0471939 0.03475 
0.0254828 0.0190398 0.0302383 0.0136554 0.011493 0.0147062 0.01009 0.00956646 0.00820761 
0.0108399 0.0116163 0.00778918 0.0148804 0.017694 0.0106797 0.0208681 0.0260179 0.0155485 
0.0260281 0.0224008 0.0168409 0.00917245 -0.0109084 -0.0139092 0.00360998 -0.0758864 -0.0605953 
-0.0380316 -0.0392443 -0.0349363 -0.0298991 -0.0308822 -0.0234006 -0.0209805 -0.0250886 -0.017375 
-0.0167301 -0.0177657 -0.0155265 -0.0166521 -0.0143374 -0.0190828 -0.0231689 -0.0164108 -0.0311972 
-0.0421255 -0.0265259 -0.0546821 -0.0667085 -0.0619209 -0.0449203 -0.00584993 -0.00185111 0.0462364 
0.0356213 0.026906 0.022277 0.031852 0.0188121 0.0168162 0.0196289 0.0167205 0.0171068 
0.0155137 0.0202755 0.0207507 0.0167095 0.0235578 0.0276139 0.020977 0.0326712 0.0382317 
0.0274306 0.0389098 0.035825 0.0292041 0.0237735 0.00673011 0.0188926 -0.00543082 -0.00479455 
-0.00556853 0.0757305 0.0619864 0.0531764 -0.0095347 -0.0256835 -0.020368 0.071555 0.0582693 
0.0515413 -0.00872372 -0.00678942 0.00178205 0.00292959 -0.0131876 -0.00770306 -0.000196045 -0.0884104 
-0.00123539 -0.0340831 -0.00967861 0.00760719 0.0139284 0.0186037 -0.000731301 -0.0074215 0.0626899 
-0.0371829 0.00858267 -0.0405481 0.00187044 0.0559762 0.0755954 0.0589876 0.018172 0.0106237 
-0.0175066 -0.0131955 -0.0101458 -0.00986191 0.00572727 -0.000690868 -0.00928276 -0.00978124 -0.00234131 
-0.00374149 -0.00519459 -0.00632986 -0.00510766 0.0037265 0.00243569 0.00622727 0.00514312 0.00514913 
0.00804752 0.0072751 0.0077943 0.00915758 0.00877503 0.00970677 0.00953403 0.00943512 0.0107638 
0.009192 0.00939367 0.010914 0.00830105 0.00876109 0.0103259 0.00690379 0.00762924 0.00914759 
0.00511539 0.00595116 0.00746266 0.000464001 -0.00519826 0.0445019 0.0542255 -0.00570366 -0.00519544 
-0.00617152 0.0301541 0.0370249 0.0471845 0.0629202 0.0791712 0.0821719 0.0640135 0.0123321 
0.015599 0.00655326 0.00910043 0.0139385 0.00131924 0.00378521 0.00743903 -0.00357343 -0.00137015 
0.00157401 -0.00798373 -0.00600146 -0.00388693 -0.0117483 -0.0101195 -0.00877243 -0.0144759 -0.0132483 
-0.0126678 -0.0164523 -0.0155991 -0.0154211 -0.0176348 -0.0173088 -0.0173618 -0.0175822 -0.0179905 
-0.0185452 -0.0142137 -0.0164759 -0.00559648 -0.0099356 0.00683691 0.00486805 0.00803265 0.00759931 
0.00739995 0.00704709 0.00752242 0.00724457 0.00523608 0.00613175 0.00573129 0.00284575 0.00412839 
0.00377843 0.000200414 0.00151439 0.00135799 -0.00268887 -0.00134759 -0.00157026 -0.00568469 -0.0042936 
-0.00484131 -0.00810627 -0.00701952 -0.00791759 -0.0100759 -0.00926445 -0.0104976 -0.0111625 -0.0107091 
-0.0123354 -0.0114806 -0.0113934 -0.0132123 -0.0109908 -0.0112833 -0.0132242 -0.00990906 -0.0104594 
-0.0124299 -0.00839247 -0.00900109 -0.0109327 -0.0624117 -0.0670693 -0.0724416 -0.0740699 -0.00754344 
-0.00846567 -0.0101801 -0.0079739 0.00814159 0.0079046 0.00812323 0.00819547 0.00946795 0.0194859 
0.0238772 0.0325564 0.0216909 0.00622704 0.00553922 0.00405185 -0.00948381 -0.0188861 -0.00156604 
0.00761338 0.00793743 0.00933462 0.00654585 0.00714565 0.00865341 0.00484802 0.00573935 0.00731902 
0.00282357 0.00385644 0.00543414 0.000324559 0.00153822 0.00305243 -0.00216272 -0.00101516 0.000291661 
-0.0044621 -0.00343679 -0.00241988 -0.00626534 -0.00548801 -0.00480371 -0.00723343 -0.00691895 -0.00654579 
-0.00704137 -0.00743463 -0.00748929 -0.00485777 -0.0062488 -0.00700757 0.000166198 -0.00229983 -0.0037258 
0.00590299 0.00312255 0.00218886 0.0113637 0.00896815 0.00841125 0.0152226 0.0135265 0.0139999 
0.0168614 0.0163299 0.0173263 0.0166782 0.0169716 0.0184402 0.0150565 0.0159706 0.0176057 
0.0123038 0.0136659 0.0153003 0.00864696 0.010413 0.0118187 0.00457306 0.00652044 0.00746219 
-0.000170859 0.00213823 0.00250386 -0.00574584 -0.00315366 -0.00330284 -0.0131696 -0.00933272 -0.0103739 
-0.0225301 -0.017518 -0.0189011 -0.0370296 -0.0291689 -0.030619 -0.0480492 -0.0251418 0.013622 
0.0184735 0.0171706 -0.0698645 -0.0735801 -0.0651708 -0.0641908 -0.0249299 -0.0247173 -0.014145 
0.00312366 -0.00591362 0.0104446 -0.0538919 -0.058689 -0.0578698 -0.0458147 -0.0502834 -0.050424 
-0.036931 -0.0417797 -0.0426747 -0.0277635 -0.0326474 -0.0343069 -0.0181277 -0.0231616 -0.025363 
-0.00830464 -0.0133934 -0.0158427 0.0018069 -0.00344175 -0.00613369 0.0125486 0.00721946 0.00425251 
0.022267 0.0173731 0.0146331 0.0316841 0.0273728 0.0244354 0.041496 0.0362223 0.0338205 
0.0506941 0.0460526 0.0428143 0.0600978 0.0549151 0.0514218 0.0679741 0.0637289 0.0590825 
0.076851 0.0717718 0.0665211 0.00959014 0.0362402 0.0542697 0.0441311 -0.00356042 0.00267829 
0.00747293 0.00695059 0.00766255 0.00891199 -0.0119928 -0.013326 -0.000913632 -0.0143892 -0.0122642 
-0.00734367 -0.0110354 -0.00929903 -0.00768946 -0.00852194 -0.00799297 -0.00636241 -0.00853469 -0.00929661 
-0.00666579 -0.0123086 -0.016337 -0.010571 -0.0228427 -0.0314011 -0.0200671 0.0333502 0.0243892 
0.0375045 0.000794924 -0.000663719 -0.00171856 -0.049603 -0.030373 0.0164869 0.0113863 0.0209249 
0.0071996 0.00584579 0.00933418 0.00480796 0.00540954 0.00391311 0.00586558 0.00751886 0.00293793 
0.00831936 0.0101391 0.00338013 0.00955163 0.00802907 0.00290012 0.0542884 0.0451113 -0.0223162 
-0.0190207 -0.0180306 -0.0164258 -0.0138552 -0.0144918 -0.0129707 -0.0124775 -0.0119816 -0.0142067 
-0.0170069 -0.0130054 -0.022435 -0.0293199 -0.0199946 -0.0102045 -0.0103166 -0.0117717 -0.0114976 
-0.00924064 -0.00843882 -0.0109487 -0.00676955 0.0208749 0.0175082 0.0146927 0.0143678 0.0166731 
0.0140744 0.0154541 0.0135266 0.0167172 0.0189943 0.0141224 0.0205074 0.0231524 0.0161465 
0.0227375 0.0215758 0.0164221 0.0169674 0.0082836 0.00131316 0.0531884 0.0597581 0.0358273 
0.027957 0.0259355 0.0412125 0.00877291 0.0343304 0.0457568 -0.0726767 -0.0609957 -0.00857072 
0.00186968 -0.0353357 -0.0415584 -0.0525158 -0.00324734 0.0505131 -0.013346 -0.0179283 -0.0176775 
0.00667424 0.00535449 -0.0182557 0.00219877 -0.00153941 -0.00719147 -0.00796958 -0.00954007 -0.0080013 
-0.0224901 -0.00829624 -0.0493184 -0.0499144 -0.0215697 -0.0110822 0.0556716 -0.00116171 0.00477976 
0.0387495 0.0070606 0.0812219 0.0783799 0.0717809 0.0732918 0.00442456 0.00354386 0.00803293 
-0.0593136 -0.058322 -0.0455786 -0.0493635 -0.0570132 -0.0457888 0.00515281 0.00595536 0.00340819 
-0.006385 -0.00253072 -0.0332037 -0.0380805 -0.0552635 -0.0479652 0.0105478 0.0109575 0.012851 
0.010489 0.0106871 0.00307783 0.00121522 0.00945769 0.00825558 0.00667356 0.0050919 0.0045991 
0.00837846 0.0122694 0.01198 0.012147 0.0122726 0.0135699 0.0112319 0.0117015 0.0131293 
0.0097733 0.0105181 0.0119303 0.0078308 0.00883917 0.0102053 0.00806515 -0.0180341 0.00613986 
0.0113873 0.0106026 0.011238 0.0130019 0.00599192 0.00125278 -0.00493507 -0.00657413 0.00277103 
0.00581417 0.0156822 0.019416 -0.00307584 -0.000424908 0.00373261 -0.00834346 -0.0059068 -0.0025005 
-0.0122897 -0.010661 -0.00787698 -0.0147477 -0.0136053 -0.0116196 -0.0160488 -0.0153822 -0.0134395 
-0.0166724 -0.0164074 -0.013906 -0.015628 0.0011602 0.00214197 -0.00113562 0.000107568 -0.00137569 
-0.00410255 -0.00251695 -0.00365463 -0.00746219 -0.00578991 -0.00676572 -0.0105754 -0.00918506 -0.0102458 
-0.0132027 -0.0120457 -0.0134622 -0.0146798 -0.0140613 -0.0157113 -0.0151833 -0.0149821 -0.0167834 
-0.014798 -0.0150355 -0.0168588 -0.0134934 -0.0140819 -0.0159171 -0.0114118 -0.0123335 -0.0139882 
-0.0464288 -0.0498773 0.0484394 0.0563793 0.00975771 0.010247 0.0116634 0.0107442 0.010643 
0.0119495 0.00829104 0.00913984 0.0108247 0.00625141 0.00729568 0.00920515 0.00369793 0.00506591 
0.00700015 0.000790333 0.00220862 0.00429069 -0.00199501 -0.000702968 0.00126399 -0.00435492 -0.00331292 
-0.00154694 -0.00592475 -0.00526372 -0.00373064 -0.0066588 -0.00647587 -0.00513286 -0.00631838 -0.00696471 
-0.00614157 -0.00281948 -0.00549194 -0.00591504 0.00663016 0.00330519 0.0101343 0.0162626 0.0141829 
0.0186804 0.0176543 0.0179559 0.0187902 0.0189211 0.0191213 0.0171071 0.018022 0.0184544 
0.0142145 0.0157455 0.0161126 0.00999935 0.0120872 0.0124995 0.00503527 0.00749704 0.00772166 
-0.000625717 0.00216219 0.00204794 -0.00740167 -0.00403456 -0.00448479 -0.0150849 -0.0109729 -0.0117312 
-0.0243905 -0.019441 -0.0199905 -0.0372849 -0.029962 -0.0302745 -0.0566412 -0.0447001 -0.0435744 
-0.0593269 0.00755635 0.00402857 -0.0471873 0.0504026 0.0467177 0.00503154 0.00338649 -0.00310329 
0.00452081 0.0313863 0.0433823 0.015664 0.0103412 0.0114895 -0.0392598 -0.0431542 -0.0428164 
-0.0317146 -0.0357801 -0.0364976 -0.0230481 -0.0275681 -0.0293834 -0.0137288 -0.0184574 -0.020999 
-0.00415862 -0.00894304 -0.0118007 0.00658335 0.00121885 -0.00177926 0.0167014 0.0118416 0.00877442 
0.0264323 0.0216642 0.0188977 0.0352868 0.0309158 0.0281741 0.043672 0.0394944 0.0365416 
0.050921 0.0471382 0.0435886 0.0572939 0.0539429 0.0494658 -0.00104174 -0.000981499 -0.00288015 
-0.00433752 0.00899627 0.0121358 0.0172411 0.0103198 -0.0124823 -0.0118022 0.023511 0.0167601 
-0.00219206 -0.00337044 0.00444641 -0.0041132 -0.00355053 0.000333082 -0.0038912 -0.00375059 -0.001002 
-0.00487021 -0.00595111 -0.00289084 -0.00862803 -0.0118296 -0.00704377 -0.0167422 -0.0224784 -0.0144398 
0.0392693 0.0312323 0.0266828 -0.00475801 -0.00391947 -0.0458064 -0.0396806 0.0385827 -0.030968 
-0.0179792 0.0108528 0.00689405 0.0140995 0.00353312 0.00205337 0.00516008 0.000378775 0.00026297 
-8.33425e-05 -0.00151555 -0.00153899 -0.00385174 -0.00154565 -0.00261559 -0.00616602 -0.0282688 -0.0353365 
-0.0307731 -0.0162922 -0.0323861 -0.0116306 -0.0100508 -0.00979891 -0.00951325 -0.0072268 -0.0115499 
-0.0134563 -0.00962523 -0.0173578 -0.022175 -0.0249598 -0.0154974 0.00884698 0.0248111 0.0183722 
0.0156917 0.0132499 0.0126509 0.0149965 0.0116346 0.0123027 0.011302 0.0114008 0.011977 
0.00902086 0.0124277 0.0114263 0.004464 0.00782134 0.00442864 0.0196265 0.0253258 -0.00287702 
-0.0526856 -0.0562294 -0.0484474 0.00185185 -0.00305888 -0.00354167 -0.00094821 0.00300411 0.00376271 
0.00122289 0.000154489 0.0472832 0.0450015 0.0386231 -0.0416327 -0.0459285 -0.0357854 0.000161351 
-0.0251772 -0.029171 -0.0369536 -0.0131134 -0.0140548 -0.01328 0.00881965 -0.0114707 -0.00826276 
-0.00825443 -0.00964256 0.0642649 0.0252322 0.0236543 0.0282927 0.00396008 -0.009728 -0.0115608 
-0.0108964 0.0639568 -0.010898 -0.0118218 -0.0113412 -0.0409334 0.00287389 0.0128202 -0.00783804 
0.00369927 0.0397704 -0.0159533 -0.00314068 -0.008541 -0.0136318 -0.00331227 0.0169122 0.0185138 
0.0179132 -0.0589844 -0.061017 -0.0539055 -0.0535119 0.0172299 -0.00324356 0.0600237 0.0543051 
0.0635635 -0.00534813 0.0327538 0.0397257 0.0479379 0.0345582 0.0117657 0.0104538 0.00994763 
-0.0461592 -0.0385772 -0.0325222 -0.0125643 0.017972 0.032102 -0.00757183 -0.00456104 0.00777717 
-0.013339 0.0409213 0.0421097 0.0228967 0.02186 0.0291646 -0.0126682 -0.0130979 -0.0145725 
-0.0135558 0.0357428 0.0123694 0.0131423 0.0148103 0.0148131 0.0103757 0.0113566 -0.00689207 
-0.00438045 0.0382426 0.0339919 -0.000620524 0.00236791 0.000301991 -0.0348838 -0.0281047 -0.0131366 
0.00549463 0.00879537 0.00746143 -0.00667988 -0.00536147 -0.00972917 -0.00806913 -0.00960811 -0.01346 
-0.0117357 -0.0130732 -0.0166897 -0.0153255 -0.0169212 -0.0183057 -0.0175866 -0.01955 -0.0188007 
-0.0186183 -0.0205425 -0.0183104 -0.0185608 -0.020408 -0.0167673 -0.017543 -0.0192267 -0.0144118 
-0.01559 -0.0172326 -0.0147227 -0.0338488 -0.0368474 0.0163788 0.0138608 0.0129628 0.0131687 
0.0129833 0.0130104 0.0143148 0.00822878 0.00939237 0.012033 0.012612 0.0142373 0.00534202 
0.00683222 0.00936321 0.00218979 0.00366212 0.00626723 -0.000552624 0.000651237 0.00307094 -0.00202067 
-0.00124657 0.0010147 -0.00273014 -0.00233231 0.000368205 -0.00563375 -0.00365111 -0.00590203 0.00229069 
0.0127936 0.0135719 0.0150517 0.00961831 0.0118164 0.0107829 0.00430259 0.00696624 0.00644972 
-0.00190254 0.00116765 0.000457267 -0.00899054 -0.00539136 -0.00627818 -0.0164105 -0.012644 -0.0134561 
-0.0249495 -0.0203147 -0.0210427 -0.0355216 -0.0296678 -0.0296954 0.0359877 0.0391734 0.0353702 
0.0157175 0.0105305 -0.0273595 -0.0309907 -0.031755 -0.0193632 -0.0236459 -0.0258382 -0.0099816 
-0.0145736 -0.0176711 0.000331785 -0.00490027 -0.0079483 0.0108128 0.00568434 0.00245291 0.0211019 
0.0163163 0.0132845 0.0297225 0.0255095 0.0230622 0.0371932 0.0335308 0.0309258 0.0424136 
0.0396364 0.0366445 0.0463369 0.0440901 0.0399617 0.00882031 0.00572513 -0.0431211 -0.0473302 
-0.0367098 -0.0383344 -0.0381061 -0.0330579 0.00139584 -0.00101867 -0.00253482 -0.0101345 0.0285413 
0.022156 0.0182958 0.0293638 0.0103019 0.011284 0.0132214 0.0116061 0.00239462 0.00156969 
-0.000891917 -0.00237955 0.00201036 -0.00473826 -0.00753812 -0.00282754 -0.0115273 -0.0158321 -0.0090471 
-0.0101952 -0.00667514 -0.0048225 -0.0070077 0.037747 0.0352412 0.0253317 0.0353273 0.0312483 
-0.0076388 -0.0100622 0.0217886 0.0308959 0.0186449 -0.0392617 -0.0420553 -0.0364356 0.0139151 
0.0143582 0.015696 0.0144311 0.0111157 0.00975275 0.0124878 0.00768138 0.00641851 0.00764352 
-0.0440271 -0.0463806 -0.0402305 -0.0227515 -0.0140832 0.0313061 -0.0315659 -0.0360266 -0.0341018 
-0.0103543 -0.00453144 -0.0211426 -0.026707 -0.0179192 -0.0153398 0.00631327 0.00414164 0.00312741 
0.0160302 0.0146638 0.0140848 0.0125855 -0.0237224 -0.0206946 -0.00828286 -0.0100858 -0.00778875 
-0.00486486 0.0187425 0.0224678 0.0267675 0.0312439 0.0279955 -0.0101494 -0.00884547 -0.00999523 
-0.00967836 0.0137181 0.0119396 0.0152654 0.0191303 0.017572 0.0131 0.0118872 0.0149521 
-0.00417393 0.0122814 0.0102659 0.00853257 -0.0119399 -0.0132585 -0.0121822 0.0164373 0.0205123 
0.00498459 -0.006039 0.00260655 -0.0127487 -0.00320847 -0.00280214 0.0173855 0.0155383 0.0119109 
0.0165256 0.0140867 0.000719605 0.0488858 0.047379 0.00395617 0.0191976 0.0313782 -0.0483286 
-0.0408804 -0.0398312 -0.0506288 -0.00557702 0.0419337 -0.0406724 0.02067 0.0194649 0.0248966 
-0.0114966 -0.0132943 -0.0169457 -0.0128335 -0.00222341 -0.00476346 -0.00276794 -0.000169409 0.00382856 
0.00291816 0.00546498 0.00799755 -0.00326095 -0.0112177 0.00596736 0.00271069 0.000678337 0.00789681 
0.0309343 0.0314649 -0.043709 -0.0384597 0.013037 0.0127595 0.0138498 0.0140934 -0.0215877 
-0.0267559 -0.027548 -0.0142096 -0.0150733 -0.014974 0.0259279 0.0301111 0.0412695 -0.0286289 
-0.0252826 -0.0347188 0.0129643 0.0102886 -0.0270149 -0.0211924 -0.0211235 -0.019441 0.0202856 
-0.00138095 -0.00419434 0.0103262 0.0133539 -0.0162909 -0.0143612 -0.0162141 -0.0207217 -1.86214e-05 
0.036317 -0.0227 -0.0226392 -0.0214907 -0.021962 -0.0239797 -0.0195422 -0.0204069 -0.021903 
-0.0169452 -0.0181147 -0.0192131 -0.0161892 -0.0246683 -0.0277041 0.0156592 0.0154321 0.0076756 
0.00934592 -0.00441318 -0.00120186 0.00302417 0.00347667 -0.0380603 -0.037164 -0.0328809 0.0275614 
0.0300492 -0.0318882 -0.0367133 -0.0336807 -0.0275629 0.0372251 -0.0110733 -0.00760266 -0.00924462 
-0.0182564 -0.0146613 -0.0159037 -0.0254518 -0.0215648 -0.0225523 -0.0340771 -0.0293731 -0.0295531 
-0.0375725 0.0343276 0.0334144 -0.0101743 -0.00376847 0.00436108 -0.0300639 -0.0322597 -0.0289984 
-0.00623214 -0.0111919 0.0157812 0.0103815 0.0250921 0.021085 0.0184136 0.0321902 0.028855 
0.0271129 0.0357022 0.0339661 0.0319288 0.0366776 0.0358212 0.0333299 -0.00375566 0.0157153 
0.0159469 0.0171537 0.0367761 0.0296157 0.0271411 0.0267197 0.0233504 0.0241183 0.0201868 
0.0240572 0.00387377 -0.0334861 -0.0353083 -0.031612 -0.0361233 -0.0160406 -0.0286114 -0.0240611 
-0.0484217 0.0296619 0.0332799 0.0323779 0.00414668 0.00582305 0.00399232 0.00544474 0.00801653 
-0.0192159 -0.0158899 -0.00944544 0.00828661 0.0174974 0.017403 -0.00762611 -0.0100264 -0.00655326 
0.00406234 0.0163643 0.0240371 0.0234646 0.0212557 0.0247524 0.00233587 0.000647631 0.00513996 
0.0189372 0.0160711 0.0190831 0.0164396 0.0169089 0.0183501 -0.0329585 0.0200905 0.0143552 
-0.0226848 -0.0220531 -0.0252677 0.0170689 0.0161204 0.0188009 0.0143565 0.0126937 0.0167351 
0.0326639 0.0153704 -0.0161124 -0.0205823 -0.0126232 -0.0145792 -0.0125697 0.0124881 0.0110371 
0.0123095 -0.0146955 -0.0074057 0.00245553 0.00516538 0.0126329 0.00688719 0.00848482 -0.0168393 
0.0134273 0.0142135 0.0151603 -0.000665426 -0.0041177 -0.00186825 0.00463653 0.00739253 -0.0248425 
-0.0146149 -0.0169812 -0.0161201 -0.0170571 -0.00226342 0.00315297 0.014504 0.0151772 0.0170554 
0.0163864 0.017172 0.01483 0.0163477 0.0211573 -0.0323943 -0.0304782 -0.0270579 0.0302946 
0.0256748 0.0217071 0.0299828 0.000418035 -0.00193568 -0.00577537 -0.00937493 -0.0310456 -0.0330285 
0.0176943 0.0250471 0.0149535 0.0146452 0.0154502 0.0162726 0.00581754 -0.0310015 -0.0291679 
-0.0303678 -0.0322539 0.0278184 -0.0300275 -0.0115299 -0.0149138 -0.0197759 -0.0145406 -0.0293109 
0.023525 0.028479 -0.0190264 -0.0299149 -0.0267002 -0.0236172 0.00814254 0.0207415 0.0206149 
0.00850956 0.0291655 -0.0233471 -0.0238918 -0.0275741 0.0176954 0.0280127 0.0310344 0.0320558 
0.0261603 -0.0180983 0.0107482 0.00838133 0.0131145 0.00316101 0.0107279 0.0144141 0.011117 
0.00936608 -0.0193971 0.0117751 0.0308372 -0.0276275 -0.0251546 0.0187736 0.0183045 0.018591 
0.0323376 0.0243923 0.0247892 0.0236952 0.0213113 0.0187851 0.0221424 -0.0293793 -0.0209444 
-0.0176854 -0.0199925 -0.0252038 -0.0195529 0.0313734 0.0240832 -0.0289604 0.00772957 0.0194968 
0.0227298 0.0213159 0.0145954 0.016757 -0.02725 -0.0278916 0.019438 0.0213307 0.0188377 
0.0172314 -0.0211045 -0.0224356 -0.0197437 -0.024263 -0.0252054 -0.0120801 -0.0149742 -0.0224763 
-0.0182352 0.0313788 -0.00332056 0.00262484 -0.0271872 -0.0204013 0.0286665 -0.0223035 -0.0254151 
-0.0296892 -0.0251737 0.0187954 -0.00862377 0.0102521 0.015056 -0.0269793 0.0169817 0.0206165 
-0.0234439 -0.0182599 0.0188818 0.0191503 -0.0314434 -0.0277771 -0.0293208 0.00651976 -5.0015e-05 
-0.128196 -0.000139126 -0.000102067 -3.80569e-05 -2.21455e-05 1.62208e-05 2.16182e-05 4.03781e-05 5.12042e-05 
4.05447e-05 3.27841e-05 5.65385e-05 6.91481e-05 7.02369e-05 6.78583e-05 6.10777e-05 5.42834e-05 7.70388e-05 
4.92248e-05 6.21665e-06 1.83735e-05 -2.83468e-05 -3.67109e-05 -7.2672e-05 -0.000157482 -0.00019259 -0.000166265 
-0.00021396 -0.000191676 -0.000216799 -0.000239749 -0.000227505 -0.000274738 -0.000230096 -0.000172491 1.13575e-05 
1.72522e-05 5.80934e-05 5.46536e-05 0.000179952 0.000182747 0.000223413 0.000270569 0.000321657 0.000277895 
0.000267195 0.000286076 0.000234143 0.000140653 0.000134713 0.000209904 0.000204714 0.00024699 0.000206187 
0.000152619 8.58027e-05 0.000137125 9.73506e-05 0.000253527 0.000251093 0.000400416 0.000368243 0.00044414 
0.000365256 0.000756403 0.000758808 0.00161945 0.0012602 0.00364635 2.69336e-05 -0.00390835 5.26037e-05 
5.72906e-05 -1.95329e-05 -5.76044e-05 -0.000102725 -0.000215637 0.00024317 0.000195521 0.000142022 0.000339616 
0.152283 5.90865e-05 0.0194432 0.00578577 -0.00241322 -0.0025278 -0.00136631 -0.000641965 -0.000513246 
-0.000420875 -0.000580918 -0.000269377 -0.00032286 -0.000210779 -0.000235581 -0.000196851 -0.000155907 -6.77156e-05 
-0.00019693 -0.000194749 -0.000223382 -0.000243366 -0.000258763 -0.000159045 -0.000296913 -0.000343829 -0.000403984 
-0.000387489 -0.000436985 -0.000458062 -0.000455787 -0.000533122 -0.000420424 -0.000227421 6.807e-05 0.000139076 
0.000276753 0.000266611 0.000346795 0.000357142 0.000348812 0.00037583 0.000296958 0.000256758 0.000207875 
0.000186593 0.000144306 0.000150746 0.000112879 0.000100242 1.64724e-05 1.57359e-06 -3.88521e-05 -1.61944e-05 
-5.13217e-05 -4.97721e-05 -6.77334e-05 -6.40637e-05 -7.40922e-05 -6.402e-05 -8.56842e-05 -9.79102e-05 -9.97273e-05 
-8.96708e-05 -7.919e-05 -8.38351e-05 -7.49355e-05 -7.55495e-05 -5.27909e-05 -3.84436e-05 8.85674e-06 7.55311e-05 
0.000145944 -0.000208426 -0.000259774 -0.000357605 -0.000126084 -0.000243168 -0.000368722 0.00029667 2.23646e-05 
-8.40682e-05 5.27394e-05 4.64662e-05 -3.49447e-05 9.95396e-05 6.1037e-05 -7.19118e-06 -3.00802e-05 -5.61873e-05 
-4.20567e-05 -6.07396e-05 -6.71296e-05 -7.12405e-05 -8.99993e-05 -0.000112471 -0.000100835 -0.000104966 -0.000116071 
-8.5281e-05 -6.93208e-05 -6.83136e-05 -6.79122e-05 -5.18217e-05 -2.84365e-05 4.39104e-05 3.58116e-05 5.9803e-05 
3.81413e-05 5.86963e-05 6.98278e-05 6.71548e-05 7.99059e-05 0.000106876 8.94549e-05 9.29932e-05 7.45872e-05 
4.20344e-05 5.72621e-05 4.46542e-05 5.4892e-05 2.40599e-05 3.37467e-05 6.76272e-06 -2.90219e-05 -7.32393e-05 
-8.12315e-05 -3.67454e-05 9.16112e-05 8.09353e-05 -2.68992e-05 -9.15525e-05 -9.46535e-05 8.23037e-05 5.37105e-05 
-1.72898e-05 0.0195089 -0.0507704 0.00746868 -0.0020002 -0.0108615 -0.014104 -0.0242214 -0.0274129 
-0.0384785 -0.0308197 -0.0503903 0.0461885 0.0320269 -0.0327413 -0.0240802 -0.016657 -0.00994176 
-0.00656772 -0.00165683 0.00204931 0.00832507 0.00627453 0.00908385 0.0132426 0.0208989 -0.000550788 
0.00779447 -0.013274 -0.0077855 -0.00990491 -0.0012569 -0.00467113 0.00423197 -0.00866956 -0.00818711 
0.00365675 -0.00981108 -0.00491864 0.0155794 0.0107386 0.00919759 0.00863508 0.000741546 0.00520714 
0.0445158 0.0318552 -0.0515267 -0.0338356 0.0154847 0.0268425 0.00505557 0.0151703 -0.00197454 
-0.00780889 -0.00183304 -0.01425 -0.0111927 -0.0211196 -0.00781038 -0.0225426 0.0617925 0.0445013 
-0.0122088 0.00614463 -0.00127833 0.0111781 0.0163971 0.0219526 0.0348987 0.0271115 -0.00402674 
-0.0186349 0.0139032 0.00619412 0.00807734 0.00285725 0.00203391 -0.000451791 -0.00609888 -0.0108969 
-0.0508472 0.0489666 0.0295139 -0.0388285 -0.0258176 -0.0145661 -0.0102571 -0.0126593 -0.00583916 
-0.00572448 0.0018347 0.00298992 0.0130008 0.0212376 -0.0189935 -0.0183623 0.0601085 0.0432473 
-0.00191848 -0.00957149 0.0117073 0.00491648 0.0265004 0.0208304 0.0347068 0.0135863 0.0199769 
-0.0601473 -0.0490486 0.00906435 -0.000567703 -0.00714853 -0.0121752 -0.0176581 -0.0232552 -0.02533 
-0.0381184 0.0523806 -0.0434822 -0.031721 0.031072 0.0390317 0.0099496 0.0184281 0.00388951 
0.00681216 -0.00604936 0.00472255 -0.0153491 -0.011222 -0.017958 0.0181416 0.000751543 0.017499 
0.0104395 -0.00873372 -0.0129719 -0.00736258 -0.00712407 0.000599963 -0.00282533 0.00477662 -0.016627 
-0.0405647 -0.0397059 -0.0167824 -0.0146904 -0.0185951 -0.00547844 0.0070172 0.0109135 0.011083 
0.0109814 0.00866091 0.00772237 0.00433253 0.00122368 -0.00520327 -0.00563702 -0.0143847 -0.0158761 
-0.0222007 0.00149941 0.0217877 0.0279332 0.0293791 0.0389323 0.0297922 0.0317462 0.02934 
0.0279534 0.0248833 0.0234641 0.0197038 0.0171484 0.0125795 0.00985864 0.00392041 0.00126748 
-0.0123716 -0.0201376 -0.00598981 -0.00574319 0.00202022 -0.0131056 -0.00166191 0.0265305 0.0124595 
0.000449059 -0.000887749 -0.00557041 -0.00955546 -0.0160083 -0.0173046 -0.0204286 -0.0216466 -0.024921 
-0.0252124 -0.0293364 -0.0278327 -0.0333269 -0.0261218 -0.0310292 -0.023305 0.00141623 -0.00451544 
-0.0105695 -0.0136726 -0.018334 -0.0205662 -0.024179 -0.025666 -0.0288493 -0.0297623 -0.0333742 
-0.0305353 -0.0358833 -0.0274092 -0.0323895 -0.024044 -0.00499875 -0.0026802 0.00431095 -0.0223989 
0.0215993 0.0326646 0.0279942 0.0294229 0.026402 0.0248694 0.0222428 0.0212407 0.0168806 
0.0135683 0.0090729 0.00563744 0.000305534 -0.000532265 -0.0134941 -0.0189374 0.0113672 -0.00456128 
0.0113115 0.00223585 0.00173021 0.00102738 -0.000194028 -0.000745111 -0.00125243 -0.00537759 -0.00111892 
-0.00259619 -0.00471336 0.000610884 -0.000153798 0.000162128 -3.57122e-05 0.000602614 -0.000569048 0.00179124 
-0.00165088 0.00662248 -0.00103619 -0.00312555 -0.00973821 0.000940359 0.00661801 -0.00633772 -0.00172458 
0.00121677 -0.000307023 0.000937984 -0.00155699 0.00218185 0.00111925 -0.00220369 -0.000588393 -0.00134019 
0.00229211 -0.000296676 0.000335027 -0.000405528 0.000549973 0.000351704 -0.000104024 -0.00145796 -0.00018686 
-0.00636175 0.0293287 0.00734629 -0.00194381 0.0127227 -0.00100792 0.0193527 -0.000112439 0.0219007 
0.0200648 0.000475619 0.00164583 -0.00169851 0.0286949 0.0280406 0.0362153 0.0272288 0.0321224 
0.0314273 0.0279176 0.0289134 0.0228505 0.0249119 0.0168388 0.0190119 0.00894831 0.0116782 
0.00218276 0.00287553 -0.021502 -0.00941236 0.000487748 -0.00952854 -0.0112628 0.00887399 0.000353811 
0.0169838 0.0245448 -0.00103688 0.00132493 -0.00983938 -0.00895627 -0.0166069 -0.0131301 -0.022526 
-0.0198295 -0.0268647 -0.0247642 -0.0270963 -0.0289011 -0.0214271 -0.0350546 -0.0310784 -0.0252388 
0.00388288 -0.00325448 -0.00109107 -0.00222441 -0.00164854 -0.0131649 -0.00984762 -0.0203009 -0.0177803 
-0.0257802 -0.0237911 -0.0292614 -0.0284869 -0.0319153 -0.0323858 -0.0290979 -0.0378213 -0.0231999 
-0.0280346 -0.00367245 -0.00563477 -0.0216125 0.00304351 0.0338166 0.0286758 0.0276931 0.0284377 
0.0235488 0.0260779 0.0164421 0.021269 0.00887497 0.0111998 -0.00264006 0.0017789 0.012409 
0.0107364 -0.00938332 0.0065541 0.00175475 -0.00116126 0.00152747 -0.000419601 0.00120377 -0.00020836 
-0.000873784 0.00285429 -0.000587265 -0.000573277 5.19032e-05 0.000212954 0.00140258 -0.000506463 0.000292236 
-0.000110945 0.000404347 -0.000760617 0.00130232 -0.00110367 0.00580847 -0.000834526 0.000897184 -0.00559293 
-0.00168094 0.000538978 -0.00159316 -0.000901867 0.000491882 0.00170657 0.00321887 0.00148655 0.00164523 
0.00328569 -0.000853034 0.00119694 -0.000517875 0.000263221 -0.000668419 0.000241481 -0.000751325 0.00125124 
-0.00551964 0.00256385 -0.0144607 0.027148 0.0113693 -0.00849803 0.0179976 0.017734 0.0154415 
0.0201648 -0.0229139 0.0273993 0.0394455 0.0132195 0.0113433 0.0234069 0.014916 0.013603 
0.00262391 -0.00215472 -0.00457862 -0.00832282 -0.00981625 -0.0127919 -0.0134754 -0.0156289 -0.014908 
-0.0199651 -0.012946 -0.00138335 0.0118872 0.0110329 0.0337012 0.0345781 0.0157223 0.0237041 
0.0135985 0.00358988 0.000992844 -5.59595e-05 -0.00261675 -0.00963514 -0.00735546 -0.00854656 -0.00944994 
-0.017253 -0.0122845 -0.011842 -0.00263144 0.0219367 0.0205654 0.0114803 -0.00731812 -0.0120027 
0.00168584 -0.00774835 -0.0181367 -0.0163024 -0.000779111 0.000531267 -0.0236773 -0.026078 -0.000170397 
0.000397649 0.0369239 -0.0273039 -0.0289963 -0.0420015 -0.0214154 -0.0212192 -0.00225945 0.021492 
-0.000427045 0.00131453 -0.0361161 -0.0315168 -0.00856043 0.00464058 0.0188129 0.011196 0.000203464 
-0.00916427 0.000959748 0.0263159 -0.00109122 0.00502054 0.00934932 0.0124529 0.0305951 0.000748123 
-0.000367055 0.030698 -0.0123818 -0.00280953 0.00364519 -0.000288422 -0.000451847 0.022941 0.0257557 
0.000513156 0.000217824 -0.00311064 0.00728874 0.011061 0.0301115 -0.0238737 -0.0215905 -0.0077899 
-0.00162685 0.000408195 -0.000379923 -0.00121517 -0.0253296 0.00473366 0.019856 0.000912846 -0.0413528 
-0.0277941 0.00327499 0.000779643 -0.0119773 0.0325656 0.0341433 -0.00203026 0.00160588 0.021324 
-0.0221385 0.0266763 -0.00140422 -0.0127163 0.0276418 -0.0278307 0.0295831 0.0322064 0.0561123 
0.0541256 -0.00171405 0.0002385 0.0029224 -0.00154953 -0.00710949 0.0114464 0.000406424 -0.000551892 
-0.0219097 -0.00519804 0.00264239 -0.000531802 0.00178511 0.0360053 0.0377667 0.0441776 -0.0205186 
-0.00191823 -0.0382866 0.0246136 0.0219574 0.0215164 0.0150657 -0.00644125 0.00198005 -0.00186638 
0.00141864 -0.0010152 0.00226699 -0.00333213 -0.0016665 0.00867675 -0.00527294 0.00149303 0.00444499 
-0.00317069 -0.0275611 -0.0232359 -0.00774033 -0.00181047 0.0265106 0.0262267 0.0263869 -8.30235e-05 
-0.00245407 -0.00262788 0.00866376 2.26231e-05 0.0216328 0.00032004 0.000917189 -0.0151868 -0.00539177 
-0.0120854 0.00523134 0.0139905 0.0183348 -0.0339604 0.0194615 -0.00810321 -0.0310242 0.0166082 
-0.0300456 0.0106867 0.0405604 0.0454874 0.050995 -7.77546e-05 -0.000470132 -0.0338707 -0.00487189 
-0.0308747 -0.0399811 -0.0317385 -0.0392735 -0.0194226 -0.0199694 0.00464947 -0.0012385 -0.0100176 
-0.00748155 -0.0107455 -0.0471356 -0.0384631 -0.00300875 -0.0239808 -0.0190877 -0.0237789 -0.014897 
0.00223677 0.00153044 -0.0343167 -0.0440209 -0.0346764 -0.0388143 -0.0483543 -0.0133102 -0.0171977 
0.0068522 -0.0267168 -0.0221286 -0.0318521 -0.000167824 -0.0442697 -0.0589096 -0.0110983 -0.00504485 
0.0456489 0.0270152 0.0296521 -0.000718366 -0.0667116 -0.075524 -0.0168454 -0.0311491 0.0120575 
0.0139114 -0.0154725 -0.016158 -0.013159 -0.0172217 -0.0303592 -0.0153422 -0.0170599 -0.0521718 
-0.00069064 0.0140675 0.0455801 0.00843977 -0.0286508 -0.0191062 -0.0150332 -0.0211096 0.0245579 
0.00292894 -0.0104551 -0.0548518 -0.042041 0.039013 0.00639335 0.00643625 0.0027927 -0.030779 
-0.0339819 -0.000135297 -0.0310551 -0.0200175 -0.0212204 0.0143055 -0.0295152 -0.00509297 -0.00415673 
-0.00426683 -0.0034389 -0.0102067 -0.0131773 -0.0136113 0.0219606 0.0168537 0.0153771 -0.00694374 
-0.00646148 -0.00622633 -0.0123605 -0.00987537 -0.0142776 -0.00106766 -0.000448824 0.00118914 0.00203642 
-0.0184227 -0.0210312 -0.0142815 -0.0163374 0.0376843 0.035743 0.0410472 0.0331673 0.029067 
0.0316698 -0.0260393 -0.02081 -0.0174711 -0.0175217 0.0139475 0.00867081 0.0403465 0.03095 
-0.00571828 0.0045259 -0.000688735 0.0216248 0.023099 0.026697 0.0126327 0.0147793 0.00816752 
0.0104132 0.0175669 0.0197738 0.0219444 0.024025 0.0399671 0.0426807 0.0395938 0.0733126 
0.0779957 0.0759641 0.0833479 -0.00197327 -0.00176707 -0.00105423 0.033989 0.0288904 0.0339047 
-0.0363241 -0.0322373 -0.0344625 -0.0322267 -0.00624829 -0.00783023 -0.00492362 -0.00674117 0.0253307 
0.0208404 0.0215715 0.0208021 0.0133509 0.0138101 0.0138124 0.0140789 0.0191292 0.0179975 
0.0163251 -0.0110422 -0.0138364 -0.0117795 0.00179076 0.00185432 0.00376784 -0.0047107 -0.00479722 
-0.00662714 -0.00671212 -0.0210513 -0.0152222 -0.0234521 0.0123314 0.0113956 0.0126166 0.0116389 
-0.0242022 -0.0243247 -0.028121 -0.0142237 -0.0161297 -0.0188917 -0.0211486 -0.0248462 -0.010885 
-0.0122508 -0.000538596 -0.00123295 -0.00102246 0.0322894 0.0382036 0.0346291 -0.000369942 -0.00495228 
-0.00488703 0.00480095 0.00848255 0.00394789 0.000201778 -0.00216542 4.03878e-05 0.0068217 0.00954955 
0.00380636 -0.00441272 -0.00947219 -0.00601828 0.0180261 0.0150178 -0.0104182 -0.0117936 -0.0112315 
-0.0126022 0.00453412 9.30712e-05 0.00620438 0.000292749 -0.0160033 -0.0163485 -0.013571 -0.00127887 
-0.00207749 -0.00124908 -0.00244126 -0.00438007 -0.00203695 0.00182366 0.00274171 0.00193992 0.00891148 
0.0102351 0.00869343 0.00996299 -0.00669032 -0.00600562 -0.00659447 -0.0059303 0.00199437 0.0186552 
0.0197826 0.0222273 0.0233934 -0.0348498 -0.0375105 -0.0390167 -0.00952817 -0.011368 -0.00992411 
0.0350434 0.0297947 0.00226215 0.00047366 0.00133086 0.000849601 0.0038395 -0.0364756 -0.0277196 
-0.030285 0.00682952 0.00780265 0.00635458 -0.0262741 -0.0237999 0.0134504 0.0131467 0.0147484 
0.0144356 0.0354579 0.0319153 0.0421574 -0.0141575 -0.0179201 -0.0140533 -0.00588202 -0.00346261 
-0.0033899 -0.000839552 -0.0044637 -0.003572 -0.00693456 0.0271961 0.0256914 -0.0475185 -0.040532 
-0.0418569 -0.00982135 -0.010113 -0.0128908 0.0140009 0.0128611 0.0136237 -0.00577147 -0.00452483 
-0.0443081 -0.045094 -0.0533924 -0.00205005 -0.00139037 -0.00316838 -0.00888105 -0.0112372 -0.0135341 
-0.000170899 -0.00816793 -0.004362 -0.0275599 -0.0189182 -0.0222774 -0.00358914 -0.00494121 -0.00300925 
-0.00972741 -0.0133538 -0.0134564 0.0236181 0.017084 0.0193545 0.0133474 -0.00703878 -0.00378054 
-0.00624616 0.00695113 0.00941057 0.00733654 0.00428431 0.00236802 -0.0125257 0.0033214 0.0022081 
0.00281965 0.069038 0.0761607 0.0719045 0.00136789 0.0026708 0.00136624 0.00930078 0.00976913 
0.00778095 0.00827468 -0.00377449 0.00162698 0.00317109 0.00400596 0.0028668 -0.0309357 -0.0306648 
-0.0274902 0.00953406 0.00843758 0.00989107 0.00875411 8.32132e-05 -8.19057e-05 0.000801946 0.000887243 
0.00744295 0.000343272 0.000463837 0.000939202 0.006002 0.00534834 0.00467106 0.00549505 0.00396635 
0.00445302 0.00292903 0.00320628 -0.0133807 -0.0124519 -0.014006 -0.0397701 -0.0366661 0.0154049 
0.0142873 0.0139088 0.00813582 0.0109518 0.00845337 0.0112893 0.00349141 0.00779593 0.0105608 
0.0135721 0.014011 0.0178034 0.0191584 0.0171925 0.0136928 0.0129139 0.011998 -0.00686678 
-0.00638242 -0.00624487 0.0114021 0.0110472 0.000875564 -5.35311e-05 0.00161222 0.00831209 -0.0106095 
-0.00908611 -0.00927249 -0.00575706 -0.0105537 -0.00495712 -0.00976381 0.00617445 0.0384806 0.0392597 
0.0341258 -0.0104682 -0.0147739 -0.00848788 -0.0188352 -0.0222165 -0.0238005 0.012026 0.00460436 
0.00900583 -0.0029491 -0.00550787 -0.00202501 -0.0522885 -0.0673327 -0.0840827 -0.0940596 -0.0099789 
-0.0101935 -0.00773987 0.00864294 0.00778377 0.00924701 -0.00811671 -0.00870336 -0.00970902 -0.007622 
-0.0059791 -0.00814734 0.000883668 0.0105022 0.0219126 0.0160146 0.0178946 -0.00101816 -0.000961379 
-0.00202592 -0.0764645 0.00763578 0.00897147 0.00905342 0.0309241 0.0260672 0.0367441 0.0311834 
-0.00671008 -0.00498528 -0.00735459 0.0440223 0.0891703 0.0733303 0.0710306 0.00662652 0.00711522 
0.00725717 -0.0145674 -0.0127772 -0.0109793 0.00456318 -0.0418038 0.0156722 -0.0901249 -0.0118512 
-0.0103037 -0.010489 -0.00893426 0.0137643 0.0241874 0.0207346 -0.0325444 -0.030945 -0.0343884 
-0.0325575 -0.0140979 -0.00539485 -0.00297956 -0.000984762 -0.00164271 0.00537896 0.00936951 0.00359256 
-0.0270616 0.00262475 0.00474478 0.0024041 -0.0380605 -0.0385646 -0.0405511 -0.0248222 -0.0270779 
-0.0281938 -0.0305295 -0.00550935 -0.00498625 -0.00666954 0.056729 0.0568351 0.0445354 0.0471358 
-0.0327444 -0.0371106 -0.0347317 0.011987 0.0133977 0.0145357 0.0158903 0.0925175 0.0260291 
0.0457407 0.0114649 -0.00438167 -0.00491394 -0.00525738 -0.00580677 -0.0130401 -0.00402265 -0.00473316 
-0.00334593 -7.07614e-05 -1.66648e-05 -0.00407936 -0.00562793 -0.00386596 -0.00353567 -0.00239259 -0.00275458 
-0.00160977 0.0124024 0.0166568 0.0163832 -0.0204236 -0.0224856 -0.00513557 -0.00357215 -0.00072298 
-0.0268399 -0.0228284 -0.0270404 0.0104652 0.010924 -0.0418742 -0.0336963 -0.0440969 0.0801271 
0.0858941 -0.0266601 -0.0226172 -0.0182887 -0.0212831 -0.0173123 -0.0053246 -0.00795237 0.00492726 
0.00619189 0.013152 0.0205394 0.0103316 0.00838842 0.0090908 0.00757203 0.00659662 0.00714802 
0.00681756 0.00768312 -0.00475362 0.000845001 0.00172084 0.00289244 0.0219703 0.0157464 0.0178826 
0.0013849 0.00600119 0.00443443 0.0193227 0.0154906 0.0264574 0.0229429 0.0125833 0.0150058 
0.0109703 -0.0172053 -0.0177522 -0.0167736 0.00324805 0.00700969 0.00295806 0.00726179 0.00969982 
0.00163561 -0.00170442 -0.00316148 -0.00659409 0.0092552 0.00651739 0.00820172 0.00286287 0.00185433 
0.00228541 -0.0297189 -0.0340491 -0.0305625 -0.0124631 -0.00866728 -0.0183161 -0.0181943 -0.0183875 
-0.0130007 -0.0122441 -0.0153723 -0.0143924 0.0167117 0.0165433 0.0150128 0.0148174 -0.00806314 
-0.010987 -0.00901347 -0.00977098 -0.00822872 -0.00830323 0.0877619 0.0836214 -0.0302538 -0.0280512 
-0.0293075 -0.111357 -0.128419 -0.113471 -0.0273119 -0.0238091 -0.0277072 -0.00190764 -0.00328207 
-0.00304266 -0.0357967 -0.0335638 -0.033467 -0.00326882 -0.0020235 -0.0058366 -0.00579091 -0.00722371 
0.00340945 0.003446 0.00191721 -0.000629216 -0.00251088 -0.00126355 0.0120326 0.0109176 0.0103683 
-0.00884399 -0.0088319 -0.00668924 -0.0062939 -0.00554407 -0.00564228 0.000158495 -0.000956258 -0.000824081 
-0.00202581 -0.00440344 -0.00427281 -0.00474463 -0.00517394 -0.00660157 -0.00451619 -0.00592302 -0.00532955 
-0.0748433 -0.0768096 -0.080972 0.0124512 0.0331658 0.0233912 -0.0059683 0.0118156 0.0125579 
0.0136235 0.0142962 -0.002664 0.00116358 -0.000889101 0.00446623 0.00551716 0.00368404 0.00465042 
-0.00676195 8.56636e-05 0.0593922 0.0618457 0.0640113 0.0245895 0.0355877 0.0365006 -0.0605869 
-0.0287129 0.00562162 0.00415568 0.00558519 0.00402913 -0.0151578 -0.021526 -0.0267876 0.000281492 
0.00270852 0.00101108 0.00337072 -0.0157884 -0.0109207 -0.0125124 0.0142447 0.0130978 -0.00635306 
-0.0054978 0.00259983 -0.01517 -0.0133375 -0.0155954 -0.0137713 -0.0160039 -0.0174023 -0.0010909 
0.00138497 0.00317206 0.00288369 0.0021121 -0.00575341 -0.0902509 -0.000999348 -0.00182279 0.00119483 
0.000431397 -0.00278697 -0.00149229 -0.00554784 -0.00435176 -0.00561609 -0.00442769 -0.0158443 -0.0174828 
0.0160939 0.0159027 0.0141919 -0.0294054 -0.0271693 0.0171825 0.015512 0.01637 0.0182964 
0.0177803 0.0181826 0.0176752 0.00518613 0.00150047 0.00191621 -0.016003 -0.0160473 -0.0134626 
-0.0181184 -0.0190867 -0.0247193 -0.00163914 0.00308357 0.00122022 0.00595836 0.0040266 0.00370887 
0.00513297 -0.035247 -0.0255126 -0.0276004 -0.0331166 -0.0018273 -0.000358691 0.00532192 -0.00349103 
-0.0028788 0.010857 0.0117962 0.00972003 0.0106532 0.00274215 0.00572759 0.00320531 -0.0510481 
-0.0469886 -0.0496014 -0.0175694 -0.0128265 0.000395754 -0.0010753 0.000282495 -0.0515986 -0.0548087 
-0.0514422 -0.0545146 -0.0761944 -0.081134 -0.0741679 0.0539398 0.0501515 0.0358237 0.0386719 
-0.00715256 0.000707367 0.00164647 -0.053913 -0.054445 -0.0510753 0.00985123 0.00618589 0.0089077 
0.00478076 -0.00602503 -0.00722981 0.0257885 0.0123512 0.0159314 -0.024907 -0.0288021 -0.0243124 
-0.0284061 -0.03363 -0.0310901 -0.0342651 -0.0314626 0.0244758 0.0286662 -5.51208e-07 0.00564662 
0.000405171 0.00753706 -0.00609415 0.0548802 0.0545843 0.0519384 0.0177372 0.0322441 0.0279033 
0.0299576 0.0256922 0.0492062 0.0492624 0.046194 0.0249974 0.0226189 0.0271425 -0.00414477 
-0.002467 -0.00466241 0.0198509 -0.0037514 -0.0185054 -0.0295965 -0.00301646 0.00344718 0.0109972 
0.00313978 0.00244997 0.0116007 0.01007 0.0145564 0.012953 -0.00824853 -0.00888222 -0.00983246 
-0.00813707 -0.000796108 0.00967583 0.00983704 -0.0269924 -0.000234981 -0.00334957 -0.00471624 -0.0084274 
0.0767448 0.0756619 0.0889077 -0.00767588 0.0421697 0.0318644 0.0383915 -0.00756409 0.0623489 
0.0609869 -0.0583977 -0.0681059 -0.0656522 -0.0813776 -0.0947455 -0.0780637 0.107801 0.0820935 
-0.0208182 -0.00664258 -0.00686168 0.00338207 0.00252522 0.00219026 -0.004574 -0.00425466 -0.00063902 
-0.00602503 -0.00671856 -0.00527496 -0.00472083 -0.00352534 -0.0332125 -0.00668464 -0.00490567 0.0190865 
0.0185869 0.0189006 -0.0561878 -0.0529444 -0.0461384 -0.00359209 -0.0554614 -0.0155559 -0.0159491 
-0.0195506 -0.0150235 0.0108555 0.0156775 0.0060747 0.0114456 0.0177385 0.0165146 0.024162 
0.0343335 0.0276295 -0.010922 -0.00833185 0.0490208 0.0525703 -0.0184281 -0.0175884 -0.0202948 
-0.0194843 -0.0015592 -0.00308988 -0.00155983 -0.0158136 -0.0120955 0.0102473 0.0159354 -0.0136779 
-0.0180672 -0.0171939 -0.011286 -0.0095794 -0.0098719 -0.00820034 -0.00141305 -0.00276464 -0.00142511 
0.0305653 0.0273584 0.0242948 0.0351281 0.0441005 0.0378568 0.0450275 -0.00743833 -0.0087785 
-0.005386 0.0173148 0.0142618 0.020042 -0.0154484 -0.0194898 -0.0162064 0.00771465 0.00900437 
-0.0189448 -0.0204652 -0.0191874 0.0118173 0.013824 0.014945 0.0168896 0.00377665 0.00489121 
0.00438038 0.00974494 0.0780647 0.0888415 -0.00570846 -0.00714122 -0.00523676 -0.0171521 -0.0174351 
-0.0192886 -0.0194498 -0.00251928 -0.0045711 -0.00458675 0.00574936 0.00490512 0.00545653 0.0046112 
0.0350518 -0.00215286 -0.0216326 -0.0224529 -0.0232269 -0.0212315 0.00662634 0.00592412 0.00284039 
0.00388736 0.00348357 0.0308483 0.0565323 0.0504731 0.00521301 0.00624854 0.00396214 0.00490742 
-0.00925154 0.124157 0.126491 0.0756094 0.0749512 0.00481191 0.00522583 0.106119 0.107924 
0.104507 0.115075 -0.00177552 -0.000988133 -0.00398332 0.0837253 0.091048 0.0699895 0.0755037 
-0.0150967 -0.0154996 -0.0139146 0.00363492 -0.00769373 -0.00994406 -0.00205439 -0.0013985 0.00147878 
0.0125288 0.0123828 0.00249378 0.00390247 -0.0042242 -0.0044132 -0.0168887 -0.0189374 -0.00946047 
-0.0103111 -0.00771295 -0.011887 -0.00388098 -0.00559665 0.0057 0.00568585 0.00687823 0.00688604 
0.0462013 0.0546835 -0.00199306 -0.00224916 0.00038902 -0.10788 -0.0989525 -0.106263 0.00621843 
0.00677997 -0.0208278 -0.0206917 0.00563845 0.00153642 0.040081 0.0330703 0.00870351 -0.00767073 
-0.00855456 -0.0121967 -0.0333463 0.0149121 0.0127687 0.010472 0.0332445 0.0341131 0.0305846 
-0.00657397 -0.00872761 -0.00630411 -0.00848805 -0.00654624 -0.0518443 -0.0407055 -0.0491551 -0.0383315 
0.00757928 0.00928562 0.0106254 0.0123484 0.0273636 0.0158317 0.0169563 -0.0551691 0.0333901 
0.0313327 0.0337348 0.0321774 -0.0138368 -0.0104963 -0.00947237 0.0106772 0.000870072 0.00171696 
0.0252896 0.00125013 0.00438471 0.0044782 0.00145543 0.0329834 -0.00099647 -0.00175795 -0.00240723 
-0.0361639 -0.028517 -0.0328081 0.00433545 0.00488594 0.00558348 0.00599012 0.00447682 0.0065626 
0.00483085 0.0011771 0.00193511 0.00103046 0.00169651 -0.000937654 -0.00151703 -0.000713322 8.25839e-06 
0.000958359 0.00153091 -0.00232968 5.50725e-05 0.00116633 0.00156704 0.00265204 0.00242832 -0.0231622 
-0.0109157 -0.0468635 -0.00591188 -0.00390441 0.00185102 -0.00186321 -0.00320498 -0.00558625 -0.00424114 
-0.00425873 -0.00517326 -0.00395917 -0.00270331 0.0210544 0.0269013 0.0390554 0.0384603 0.0367908 
0.0147163 0.0120735 0.012894 -0.00716864 -0.00723586 -0.00686158 0.000124404 -0.000815108 0.000909274 
-0.0150919 -0.00758411 -0.00509217 -0.0147247 -0.00568257 0.00225791 0.000590644 0.00543984 0.00381665 
0.00078569 -0.00164869 -0.000439201 -0.00693933 -0.00544955 -0.00662217 -0.00229219 -0.00338305 0.00306294 
0.00492339 -0.00152005 -0.00481311 -0.0047567 0.00166506 0.0131409 0.0142245 0.0129617 0.00299912 
0.00432776 -0.0306005 -0.0245243 -0.0270703 -0.0287694 -0.0793922 -0.087379 -0.0838055 -0.0670921 
-0.112333 -0.100372 -0.0898281 -0.0915374 -0.0983409 -0.0200843 -0.0202997 -0.0116422 0.0264566 
0.0282425 0.0229088 0.0244913 0.00763393 0.0127135 0.00961632 0.014454 0.0150174 0.00798681 
0.0153502 0.0110065 0.00786442 0.00379946 0.00547313 0.0381534 0.0448808 0.0303735 0.0433674 
0.00438344 0.00797146 0.012582 0.0106779 -0.0180136 0.00629641 0.000826523 0.025946 0.0937615 
0.0917607 0.100386 0.0981558 -0.0106918 0.00694763 0.00863839 0.00695146 -0.00659062 -0.00809881 
-0.00950399 0.000976903 0.012008 0.00982231 0.0191364 0.0163482 0.00559947 0.00592804 0.0129163 
0.0120898 0.0195756 0.102228 0.0927243 0.00807697 0.00834953 0.010327 -0.00716683 0.00318694 
0.00454483 0.00332487 -0.00187096 0.0162633 0.0141978 0.0156315 0.013687 -0.0060853 -0.00708277 
-0.00600784 -0.0255323 -0.0238335 -0.0281332 -0.0198571 0.0109666 0.0112558 0.000318298 0.00109219 
0.00130005 0.0019804 0.00212991 -0.0216924 0.00135901 0.00576794 0.00650653 0.00912894 -0.0212661 
-0.0260835 -0.0200435 0.00613148 0.0302303 -0.00650957 -0.00633073 0.0101204 0.00724021 0.00804037 
0.00772193 -0.0151377 -0.0140301 -0.0137456 0.0428458 0.0547771 0.0463616 -0.00219661 -0.00377078 
-0.00174612 0.0123908 0.0121124 0.0131112 -0.0329776 -0.0308873 0.0275137 0.0309343 0.0228197 
0.00172027 0.00432353 0.00276556 0.0343869 -0.0139348 -0.0629142 0.0207659 0.0193818 0.0188202 
0.0220367 0.0315908 0.0341654 0.0325119 0.00536564 0.00265229 0.0357031 0.0336531 0.0270216 
0.026753 0.014654 0.0157568 0.0172691 -0.0237398 -0.023334 -0.0185122 0.00483224 -0.050847 
-0.0443684 -0.0145686 -0.0132002 -0.0160716 -0.00568931 -0.00717484 -0.0144189 -0.0975961 -0.079024 
-0.0984102 -0.0843565 -0.00944793 -0.0011141 -0.0013309 -0.00183519 -0.00139993 -0.0321669 0.00253921 
0.00216763 0.00130874 -0.01051 -0.0109564 -0.0122044 0.0161637 0.0177591 0.0176123 0.0391791 
-0.0137896 -0.0168537 0.0142592 0.0144015 0.0131276 0.00667393 0.00420242 0.00883315 0.0101106 
0.0534969 0.00272605 0.00328224 0.00476701 0.00889961 0.0100288 0.00876259 -0.014931 -0.016353 
-0.0166968 -0.0180211 -0.0365152 -0.0370028 -0.013251 -0.0216847 -0.0137228 -0.0166192 0.00493814 
0.0107514 0.0108874 -0.0178024 -0.0170022 -0.00543661 -0.00354667 -0.0168685 -0.0203097 -0.0149983 
-0.000363153 -0.000815535 -0.0042288 0.00146716 0.0070308 0.00347559 0.00455963 -0.0261085 -0.02059 
-0.00954865 0.0319459 0.0313622 0.0305211 0.0297006 -0.0475584 -0.0152702 -0.0147617 -0.0219005 
0.000439522 0.0318911 0.0300038 0.0347351 0.0326185 0.00195345 0.000398493 -0.0152892 0.0284147 
0.00524573 0.0074274 0.00753625 0.00111802 0.0024339 -0.0765285 -0.0725312 -0.0635646 -0.015865 
-0.0166359 -0.0125884 -0.0354012 -0.031248 -0.0360437 -0.0317294 0.00406861 0.00545708 0.00413792 
-0.0184068 -0.0174702 -0.0181798 -0.0331094 -0.0356849 -0.0323093 -0.0342796 -0.0131376 -0.0126051 
-0.0154926 -0.0150359 -0.0132847 -0.0147209 0.00452213 -0.0050207 0.00364 -0.00394562 0.00919828 
0.00793624 0.0101204 0.00887026 -0.00675384 -0.00650664 0.0562076 0.0515031 -0.00728188 0.0181578 
0.0199674 0.0176536 0.0506534 0.0599231 -0.00426774 -0.00298994 -0.00172373 -0.000447505 0.0147038 
0.0128144 0.00902666 0.00839745 -0.0384574 -0.0263138 -0.0280961 -0.000366483 -0.0154748 -0.0086166 
-0.000245403 -0.000645379 -0.000118957 0.0367859 -0.0104707 -0.00157948 -0.0149604 -0.0117798 -0.0140949 
0.00896139 0.0103853 0.00689796 0.00834088 -0.0651352 -0.0695119 -0.0308956 0.00730053 0.02114 
0.0188544 0.0248204 -0.00498252 -0.00268879 -0.00262533 -0.000287934 -0.00367582 0.0121029 0.011718 
0.0101358 0.0103357 0.00777111 0.000587252 0.0443482 0.0465753 0.0437863 -0.000410511 -0.041428 
-0.0525971 -0.0482846 0.0296488 0.0258099 0.0255903 -0.00064779 0.000101378 0.00135688 0.00205827 
-0.0586158 -0.059345 0.0046509 0.00513627 0.00699715 0.00743762 -0.00372707 -0.00468396 -0.00764299 
-0.0934601 -0.0861649 -0.00355892 0.0370984 0.0356209 -0.0142238 -0.0130573 -0.0102575 -0.0907446 
-0.138015 0.0411432 0.0386256 0.0154913 -0.0735268 -0.0596777 -0.00197053 0.000227957 -0.00196133 
0.0175568 0.013213 -0.0257944 -0.0217102 -0.0289206 0.0018157 0.00283745 0.00342829 0.0351596 
0.042922 -0.0235977 -0.0206714 -0.0172356 0.0141123 0.0187446 0.0163266 -0.0401896 -0.0519159 
-0.00456495 -0.00282312 -0.0103365 0.0333554 0.0393378 -0.0143388 -0.0491027 -0.0138365 -0.0168295 
0.0593349 0.0535983 -0.0196754 -0.019993 -0.014835 -0.00675794 0.00013361 0.00153216 0.00206015 
0.000169438 0.000623859 6.19509e-05 0.000657878 -0.0193552 0.00365781 0.022004 0.0246907 0.0209178 
-0.0119857 0.00117223 -0.0220511 -0.0147878 -0.0182062 -0.0134824 0.0161584 0.0171648 0.0158565 
0.0166558 -0.00771272 -0.00835695 0.0286293 0.0241374 0.0261117 0.0237421 0.0207752 0.00203352 
0.00120135 0.00167445 -0.0610492 -0.0514123 0.0140818 0.0175875 0.0110776 0.015073 0.00713994 
0.00862506 0.0103746 0.00942013 0.00472977 0.127895 0.10034 0.0136392 0.0125707 0.0136425 
0.00192903 -0.000465624 0.000529815 -0.00177903 0.0164528 0.0182149 0.0155298 -0.0163096 -0.0325892 
-0.0097888 -0.00671856 -0.00823051 0.00374289 -0.0454472 -0.00727904 -0.00892439 -0.010458 -0.108524 
-0.0543366 -0.0516392 -0.0424773 -0.018231 0.0114166 0.00937636 0.0201448 0.0137595 0.0302343 
0.0314949 -0.00424491 -0.00446013 -0.00366937 -0.00496134 -0.00547397 -0.0213676 -0.0240221 -0.0198629 
-0.0778461 -0.00532684 -0.00626125 -0.0073474 -0.0634743 0.0104987 0.0117185 -0.0535147 -0.00780351 
-0.0101147 0.00394421 0.004155 0.00544305 0.00568461 -0.00206148 0.00627889 0.00703501 0.0055686 
-0.00473015 -0.00361844 -0.00130739 0.155395 0.00472018 0.0012133 -0.0159605 -0.015409 -0.0128613 
-0.0092914 -0.0105006 -0.0106071 -0.011863 0.00359708 0.00455238 0.0127338 -0.00483316 -0.0101551 
-0.00978219 0.00601563 0.00766199 0.0029746 0.0038264 0.0106216 0.00670972 0.0127727 0.0105634 
0.0117777 0.0152494 0.0107877 0.0112406 0.00948122 0.00995379 -0.00366179 -0.00415952 -0.00323845 
0.0677742 0.0692286 -0.0159351 -0.016833 -0.000204978 -0.0227513 -0.0722501 -0.0852939 -0.055624 
-0.0720045 0.0191188 0.0190193 -0.00659066 -0.00446816 0.0229761 0.0148857 0.0167124 -0.0749507 
-0.110081 0.00586279 -0.00833708 -0.0131737 -0.0116097 0.0186342 0.00277113 0.0015082 0.0103872 
0.0105745 0.0124344 -0.0622727 -0.0641956 -0.0566326 0.00798169 0.00149428 -0.00946297 -0.00806148 
-0.0531723 -0.0476688 -0.050689 -0.0385839 -0.0413428 0.00183572 -0.014224 -0.0192392 -0.0186891 
0.00195319 -0.00087842 0.00232989 -0.0290987 -0.00657834 -0.025994 -0.0271976 -0.0434091 -0.0451279 
0.00411845 0.0586218 0.0563168 0.0531768 0.0513193 -0.0503288 -0.0127347 -0.0152494 -0.0122648 
-0.00338573 0.0568874 0.05335 0.0531214 0.0456019 -0.00276771 -0.00164713 -0.00319665 -0.00844017 
-0.00173486 -0.00194111 -0.0208754 0.0487619 -0.00118505 0.0141576 0.0130162 0.018449 0.0150851 
0.00952662 0.0196359 0.0133661 0.0229626 0.0219954 0.026034 -0.0181951 -0.00421519 -0.00186875 
0.00513788 0.00856011 0.00446446 0.00751577 0.0586587 0.073131 0.0626794 -0.00981181 0.00310155 
-0.000207224 0.00460787 0.0015058 0.0116142 0.00705035 -0.00499292 -0.00365547 -0.00736299 -0.00563401 
0.021271 0.0198188 0.0162065 -0.00765935 -0.0071419 -0.00256134 -0.00221995 -0.000824253 0.0110143 
0.013114 0.0120559 0.016137 -0.0132491 -0.0143211 -0.0142709 0.00279133 -0.000459969 0.00335067 
0.00846325 -0.00150153 -0.00330985 -0.0108697 -0.011438 -0.0135251 0.018181 -0.0318302 0.0113233 
0.0092666 -0.00780064 -0.00702805 -0.0108892 -0.0308359 -0.0361536 -0.0160906 -0.0229398 0.00364956 
0.00284036 0.000804698 -0.00534296 -0.00310962 0.0111178 0.0123932 0.00277329 0.000429804 0.00207101 
-8.51335e-05 0.00612287 0.00478475 0.00588408 -0.0324194 -0.0748661 -0.0767933 0.00861998 0.00614345 
0.00477656 0.00216899 -2.10722e-05 0.00182271 0.0134791 0.0156448 -0.0101221 -0.00482725 0.0193703 
0.0174781 0.00486543 0.00381165 -0.0105836 -0.0178359 -0.0259602 -0.0294717 -0.0429908 -0.0268432 
-0.0273643 0.0155494 0.0159546 0.00352919 0.0186295 0.00320406 0.00812501 0.00632366 0.0111931 
-0.000813675 -0.000482371 0.0375502 0.0337508 0.0100598 0.018395 0.0191607 0.0285054 0.0396559 
0.039585 0.032822 0.0232927 0.0246617 0.0193966 0.0579443 0.0491424 -0.0194415 -0.0182109 
-0.017956 -0.0161549 -0.0165727 -0.0177593 -0.00285959 -0.00305835 -0.00613347 -0.0334714 -0.0377005 
0.0643702 0.0120211 0.00239749 -0.00269498 -0.00420224 -0.0121373 -0.0123161 0.028782 0.0265701 
0.0286355 0.0263089 -0.0127666 -0.0141064 0.0155472 0.0139127 0.0171517 0.0145524 0.0135026 
0.00517629 0.00697668 0.00726191 0.0203222 0.0221971 0.0152969 -0.022026 -0.00640977 0.0146835 
0.0199162 -0.0166682 -0.0154961 -0.0816026 -0.0167196 0.00214707 0.00079545 0.0129438 0.0144322 
0.0124741 -0.0619184 -0.0677748 -0.0323165 -0.0315975 -0.0130349 -0.0130003 -0.0697953 -0.0103349 
0.00956376 0.00669895 0.0074166 0.00622412 0.00719228 0.0248293 -0.00519904 -0.00421633 -0.00528162 
0.0438146 0.0430684 0.00910723 0.0166543 0.0102544 0.0119616 0.00803978 0.052427 0.0467168 
-0.0125215 0.0706112 -0.00186906 0.0461675 -0.00690872 0.0182499 0.0233322 0.0053345 0.00997156 
-0.00924131 -0.00795282 -0.00212841 -0.00744503 -0.00710856 -0.00628053 -0.00290035 0.007594 0.00743837 
0.0109502 0.0136827 0.011475 -0.0153542 -0.0168089 -0.0111954 -0.0117659 0.00735663 0.00404806 
0.0409986 0.041293 -0.00284453 -0.0026175 -0.0015915 -0.00383659 -0.00300029 -0.0237611 -0.0273031 
-0.0254441 -0.00802168 -0.00925703 -0.002047 -0.0452635 -0.0461925 -0.0431089 0.0176502 -0.0248424 
-0.0249282 0.0121505 0.0128798 -0.0272412 0.00850527 -0.00464135 -0.00115314 0.00276306 0.00220404 
0.00312154 0.0018298 0.00344467 -0.0180785 0.0471668 0.0207198 -0.00578978 -0.00637687 -0.00453287 
-0.00144618 -0.0401678 -0.0392179 -0.0194746 0.00764814 0.00859346 0.0100497 -0.00558993 -0.00273373 
-0.00260317 -0.00281086 -0.00582698 -0.00631471 -0.0189256 -0.0155822 0.00168554 -0.00616991 0.0368649 
-0.029523 -0.0308419 -0.0294625 -0.0104697 -0.0108612 0.0282114 0.0260329 0.00168314 -0.0250556 
-0.0255259 -0.0131265 -0.00913876 -0.021984 -0.0185349 -0.0219411 -0.0211317 -0.0207222 0.00917744 
0.00909561 -0.033263 -0.0301262 0.0010508 -0.0279441 -0.0473527 -0.0486598 0.0874806 0.0732108 
0.072792 -0.0153892 -0.0158583 8.53178e-05 0.000386126 -8.36829e-05 9.89349e-05 -0.0208555 0.00301133 
0.00278645 0.0115646 -0.0190112 -0.0224155 -0.0232048 0.00884353 0.00819253 0.0107406 0.00548481 
0.00491686 0.0371637 0.00385665 0.0351509 0.0115633 0.0132855 0.0152746 0.0576216 0.0129155 
-0.0551722 -0.00306725 -0.00465897 0.00146013 0.000455403 5.28788e-06 -0.0216566 0.0130387 0.00656284 
0.00481288 -0.0080449 0.0118004 0.0118595 -0.0229076 -0.027089 -0.00061266 -0.00633002 -0.00930764 
-0.00679521 -0.0143859 -0.012318 0.00489836 0.00596702 0.00233445 -0.00509311 -0.0263354 -0.031298 
-0.0246625 -0.0382494 0.00865915 0.0112835 -0.00867363 0.00227918 0.00306243 0.00400999 -0.0218018 
-0.0243382 -0.0267593 -0.0214916 -0.0282175 0.0231768 0.00566207 0.0218887 0.0268435 0.00413747 
-0.00728491 -0.00637686 -0.00443371 0.0195658 0.0422511 0.0195745 0.0218471 0.0239393 -0.0115465 
-0.0592767 -0.0195076 -0.0231972 -0.0242777 -0.0222397 0.00999039 0.0258278 0.0299862 0.0237116 
0.00142928 0.0727877 0.0778329 0.0712418 -0.023339 -0.0158954 0.00522371 -0.0162377 -0.0139175 
-0.0121375 -0.0137329 -0.0402965 -0.0399287 -0.00441796 -0.00701595 -0.00597656 -0.000494836 -0.0013365 
-0.00085854 -0.0174824 0.00516104 0.0124703 0.00728852 0.0286803 0.0285781 0.00800182 -0.00290518 
-0.00173035 -0.00235738 -0.00740034 -0.00408843 -0.00353839 -0.0206796 -0.00426488 -0.0038742 -0.00150998 
0.000477154 0.00104338 0.00113382 -0.0144149 -0.0127761 -0.0040918 -0.0054939 -0.0100958 -0.00914895 
0.00256745 0.000254522 -0.00686647 -0.00682317 -0.00581273 0.101136 0.107076 0.0906006 0.074002 
0.0118446 -0.0254321 -0.0245473 -0.026074 0.0137351 -0.0241218 0.0338006 0.0356824 -0.013789 
-0.0121369 -0.0497847 -0.0417857 -0.0381043 -0.00791391 -0.00289841 0.0195801 0.023944 0.0231977 
0.0288366 0.0271696 -0.015803 0.0673899 0.0105435 0.0130148 -0.00174736 3.34629e-05 0.00128811 
-0.00191612 0.0338302 -0.00236189 -0.0247627 0.00532177 0.00245265 0.00352859 0.00270391 0.00592477 
0.00429514 0.00512441 -0.0652842 -0.0620806 -0.0598128 0.0154938 0.0111874 0.009402 0.00993009 
0.00293054 -1.21495e-05 0.00293834 0.00267504 0.0262641 0.0287644 0.00759866 0.00684103 0.0117756 
-0.0285607 -0.0106375 0.0109681 0.00356988 0.00705679 0.00790094 0.00632093 -0.0319064 -0.0354663 
-0.054203 -0.0214141 0.00468124 0.00476194 0.00624837 0.0542939 -0.0290073 -0.0227431 0.00673269 
-0.00489962 -0.00971182 0.0151144 0.0605615 0.0559621 -0.00409031 0.00825771 0.00211214 -0.0212379 
-0.0255543 -0.0260932 0.0204955 0.0657191 -0.0306657 -0.0238513 -0.0609135 -0.053322 -0.0592236 
0.037566 -0.047952 -0.028245 0.00391548 0.00360872 0.00479083 0.00550605 0.0463926 0.00645457 
0.00731074 -0.013752 0.000103117 0.0139107 0.012645 0.0178516 0.0217848 0.0236528 0.0744173 
-0.000647763 -0.0139839 -0.0151712 -0.0171158 -0.122716 -0.102485 0.00133388 0.0165123 -0.000165407 
0.000777223 0.00113314 -0.00196874 -0.146653 -0.125461 -0.00359185 -0.00538309 0.0174635 0.0149604 
0.00169866 0.0032695 0.0243067 0.000494396 1.91521e-06 -0.00147258 -0.00291093 -0.00340708 0.0229286 
-0.0316225 -0.0326622 -0.0154357 0.0161071 0.0155953 -0.0153943 0.0170543 -0.00747945 -0.00737681 
0.0337635 0.0329107 0.017092 0.0180301 -0.0133665 -0.0101281 -0.0118276 -0.0080857 -0.00637827 
-0.00852212 0.00811616 0.00778653 0.0079766 0.00931183 -0.00802293 -0.03292 -0.0290228 0.00251338 
-0.021934 -0.118228 0.00618687 0.0055688 0.00309255 0.00606837 0.00540625 0.00677454 0.00500307 
0.0011932 0.00219412 5.62896e-05 -0.01884 -0.00776224 -0.0186912 -0.0261453 -0.0194091 -0.0220121 
0.0131515 0.018556 0.00585374 -0.0145301 0.0468901 0.0461975 -0.014114 0.067889 -0.0190876 
-0.021929 -0.0175897 0.00558069 0.00321278 -0.015353 -0.0162444 -0.016391 -0.0193606 -0.0155206 
-0.0511456 -0.0437129 -0.0597753 -0.0126096 -0.0112588 -0.0488677 -0.045006 -0.0180574 -0.0174642 
-0.0136158 -0.0157047 -0.0142052 -0.0132901 -0.0165385 -0.00284991 -0.00237278 -0.00448868 -0.0222804 
-0.00262645 -0.0015069 0.00775869 0.00800024 -0.00790303 -0.00708815 -0.00970922 -0.00890021 0.00508442 
-0.00078153 0.0166936 0.0199525 0.0169249 0.0205038 0.00278164 0.0125559 -0.00718575 -0.0578356 
-0.00400519 -0.00497777 0.00997055 0.01707 0.0176133 -0.00256829 -0.00337331 -0.00303982 -0.00167122 
0.0171424 0.000598949 -0.0014937 0.00275015 0.000114589 0.00624511 0.00865853 0.00600445 0.00468174 
0.0146413 0.0169427 0.0165312 0.0173082 0.00999135 -0.00267568 -0.000907002 -0.00352641 0.01389 
-0.00923738 -0.0601699 -0.0572721 -0.0113772 -0.0112142 -0.00448489 -0.0114236 0.0154317 0.0145463 
0.0166494 0.00152689 0.00150113 -0.0640701 0.0130779 0.0169911 0.015423 0.00139229 0.00126819 
-0.00842136 -0.00749612 0.00634007 0.00841605 0.00690652 0.0123986 0.0107815 -0.000446945 -0.00870667 
-0.00821443 -0.00687783 -0.0079117 -0.00573164 0.0140606 -0.00838264 -0.00238076 0.022161 -0.0104012 
-0.00398745 -0.00302631 0.0316994 -0.0100382 -0.00261866 -0.00190076 0.0274293 0.0236781 -0.00430919 
0.00759279 -0.0347285 -0.0293433 0.0155164 -0.0185112 0.00387938 0.00277406 -0.0157746 -0.010374 
-0.0143611 0.0264995 0.0267447 0.012415 -0.0170173 -0.0172042 -0.0156949 -0.00628688 -0.00671319 
-0.00832661 -0.00914984 0.0111712 0.0113526 0.00997847 0.0245572 0.020228 0.0138832 0.0183983 
-0.0181842 0.0171089 0.0028986 0.00612147 0.00576149 -0.043238 0.00883523 0.0101633 -0.0020167 
-0.00161939 0.00752986 -0.00202462 -0.00706957 0.00552719 -0.0144056 -0.0299943 -0.00486421 -0.00651686 
0.00572021 0.00117725 0.00165604 0.0729007 0.0637821 0.0178039 -0.0173374 -0.016776 0.00483758 
0.00631895 0.00248295 0.00754387 0.00677209 -0.0104235 -0.0169746 -0.0112154 -0.00734831 0.00812475 
0.00765421 0.00736299 -0.0141898 0.0168358 0.0172184 0.00203733 0.0031803 0.00189074 0.00314886 
0.0018344 -0.00154684 0.00432805 0.00605283 0.0064224 0.00639561 0.00877744 0.00910567 -0.0430295 
-0.0474939 -0.0127768 0.00382292 0.00384152 -0.00955937 -0.00762309 -0.00885761 -0.0204707 0.0296502 
0.0276628 -0.00802596 -0.0287968 -0.0305119 -0.0290621 -0.0304731 0.0318508 0.0295731 -0.0235431 
-0.064789 0.0497618 -0.0126558 -0.0107154 -0.0263966 -0.0206011 -0.0217779 -0.00261972 -0.00493993 
-0.0024252 0.0102485 0.0191624 0.00633688 -0.0021533 0.00802426 0.00720438 0.00892421 0.00793159 
0.00972218 -1.69603e-05 -0.000532188 0.003475 0.0155009 -0.00524908 0.00698439 0.00119038 0.00132927 
0.0604395 0.0539248 0.000420745 -0.0301204 0.000357074 0.0323871 0.0164904 0.0453484 0.0453758 
-0.0172331 -0.0338294 0.0105002 0.0190008 0.00641944 -0.00992777 -0.010354 -0.0208966 0.00114804 
0.00264644 0.00156444 -0.00736149 -0.00812239 -0.0038603 0.00744089 0.000404802 0.00696089 0.000765838 
-0.00113964 -0.0201029 -0.0113636 0.00974269 -0.00489438 -0.0222403 -0.0206108 -0.0139685 -0.0096777 
0.000875065 0.0372304 0.0397255 0.040737 -0.00452173 -0.00259744 0.00163979 0.00157973 0.0453499 
0.0474767 0.0427047 0.0444236 -0.0188338 -0.0175196 0.0312007 0.0353224 -0.0117691 0.00604451 
0.0322101 0.00866699 0.0200006 0.0124869 -0.010498 -0.00195088 -0.00445147 -0.0708152 -0.0724968 
-0.0759028 0.00401588 0.029425 0.0100783 0.0146845 -0.0232647 0.0870964 -0.000568422 -0.000796945 
-0.00219709 -0.0535749 0.0155285 0.0153462 0.0140331 0.0166598 0.00125016 0.00164512 -0.0567638 
-0.0049122 -0.00563506 -0.00501309 -0.00436544 -0.000823906 -0.0113918 -0.0119825 0.00028229 -0.00591462 
-0.00661461 -0.00802116 -0.0113937 0.0281962 0.00340449 -0.0676075 0.0342044 0.00472635 0.00939121 
0.0384281 0.0351141 0.0419265 -0.0131227 -0.024443 0.019067 0.018161 -0.0397669 -0.0444832 
-0.0514282 -0.0462259 -0.049191 -0.0311824 0.0493661 0.00833116 0.0133515 -0.0365625 0.0349737 
0.0321113 0.0177809 0.00928598 0.0139886 0.0153765 0.0145918 -0.00295319 0.0275263 -0.0374217 
-0.017266 -0.0174815 0.00454945 -0.0444742 0.00156289 -0.00730941 0.00242135 -0.0010882 -0.000205625 
0.00631784 0.00476587 -0.0159805 -0.0234281 -0.0107967 -0.0180039 0.000186927 0.00160118 0.0817845 
0.000403199 -0.0245775 -0.0144721 -0.00861056 -0.00907587 -0.00208881 -0.00258588 -0.041278 -0.0171254 
0.0258146 0.0301732 0.0289038 0.0332722 0.0229675 0.0210285 0.0251599 -0.0120022 -0.00593744 
0.0414622 0.0453317 0.00447943 0.00415573 0.00581802 0.00419679 -0.0315061 0.0128039 0.00968723 
-0.00197518 0.00517587 -0.0082025 -0.0924951 0.017397 -0.000531813 0.00371531 -0.00926985 -0.0183164 
0.0127151 -0.00909337 -0.0120391 -0.00452176 0.0233355 0.00267349 -0.000853104 -0.00678738 0.00649286 
0.00552364 0.00695105 -0.0251842 -0.0227097 -0.0296329 -0.0278813 -0.00361935 -0.00215252 0.00717128 
0.00712038 -0.00248503 -0.000515074 0.00757525 -0.0100773 -0.009679 0.00621946 -0.0476425 -0.00758014 
0.00206292 0.0317086 0.0331188 -0.0015102 0.0435468 0.0340886 0.0441227 0.103197 0.000774813 
0.000347351 0.00456152 0.00974396 0.0111243 -0.0453185 -0.00807832 -0.00890979 -0.00642127 -0.0072231 
0.0159709 0.0150797 -0.00361708 -0.0011923 -0.0429788 -0.0419458 0.0362545 0.0363836 0.0415733 
-0.0247366 -0.0294087 -0.0273971 -0.0301376 -0.00594957 0.0697748 0.00184752 0.0036753 -0.007757 
0.116106 -0.0371586 -0.0294954 0.000623933 -0.00365197 0.0296828 -0.00405625 -0.00356085 -0.00041666 
-0.00118961 -0.000615537 -0.0012614 0.00158029 -0.00558098 0.00254246 0.0120558 0.00805686 0.0127739 
8.44911e-05 -0.00462752 -0.00252446 0.00820941 -0.00576118 0.000340871 0.00555986 0.00511362 0.00325508 
-0.012489 -0.0123897 -0.0141174 0.0123781 0.0180772 -0.0256062 0.00408113 0.0051332 0.00367418 
-0.00106539 0.00107658 0.0011855 -0.00319693 0.0656651 0.0626957 0.0579063 0.0598795 0.0555923 
-0.0398407 0.00300509 0.0267993 0.030713 -0.0273399 0.104425 0.0633558 -0.0121004 -0.0132823 
-0.0124846 -0.0139662 0.00178724 0.00408029 0.00208554 -0.0567215 -0.0751018 -0.00712348 -0.00535622 
0.0156681 -0.00495275 0.000463346 -0.0193262 0.0486019 -0.0124373 -0.0110945 -0.0113781 0.0186737 
0.00595231 0.00649069 -0.00319907 -0.00544853 -0.00142449 0.0679087 -0.008768 -0.00812778 -0.0120475 
-0.0165277 -1.42383e-05 -0.00880236 -0.00102394 -0.00317587 -0.00125164 0.0104467 0.0108377 -0.00214659 
0.0144538 -0.016563 -0.00466193 0.0148106 0.0186478 0.0129853 -0.0366637 -0.0459929 -0.0385382 
0.00222876 0.00539564 -0.0274761 -0.0185831 -0.0194246 0.0192097 0.0361067 0.0114961 0.00283485 
0.00723929 -0.0136844 -0.0025268 0.0104985 0.0215223 0.00865682 -0.0144486 0.00329927 -0.0111399 
0.00531256 -0.03765 -0.0148455 -0.0168012 -0.0379511 -0.0408896 -0.0447401 -0.0448397 -0.0350546 
-0.00534942 0.0139155 -0.00506862 0.0154765 0.0170841 -0.0133031 -0.0144702 -0.0130043 -0.0343776 
-0.0672789 -0.0629049 -0.0762492 0.0103108 0.00558751 0.0167931 0.00854245 0.0213921 0.022138 
0.0243244 0.0102927 0.0236174 -0.00686623 -0.0044686 -0.0415473 -0.0263272 -0.010975 0.000492422 
0.0771387 0.0112002 -0.0424731 -0.019611 0.0323658 -0.022601 -0.0261523 0.00198493 -0.0122685 
-0.0138434 -0.0152698 0.00226111 0.00905232 0.0267546 0.042952 0.0331676 0.0319559 0.03228 
-0.0159894 -0.00169443 0.0136306 0.00816005 -0.0287312 -0.0239025 0.000579433 -0.0305076 0.018141 
-0.0273798 -0.0180653 -0.0210942 -0.0109417 -0.0118788 -0.0331864 -0.0327076 -0.0380366 0.00342167 
-0.0544757 -0.0519549 -0.00432835 -0.00454904 -0.00576629 -0.0101385 -0.00335781 -0.00396932 0.0411615 
-0.0386595 0.0143331 0.0114439 0.0808621 0.0755922 0.074389 0.0140663 0.0452791 -0.0371705 
0.00230753 0.00541527 0.0418463 -0.037833 0.0365902 -0.0491821 -0.0493363 -0.000249941 -0.000630108 
0.0354865 -0.0209931 -0.0249606 -0.0176328 0.000931504 0.0381079 0.0510588 0.0475757 -0.0133927 
0.044905 -0.0139969 -0.0280479 -0.0245493 0.00349835 0.00249066 -0.000975637 -0.015697 -0.0357251 
-0.0421895 -0.0368598 -0.013848 -0.0129158 0.000999018 -0.00436722 0.00697472 0.0247541 0.023687 
0.0205881 -0.00282806 -0.00749498 -0.00602294 0.0213353 -0.015786 0.00216217 0.000954295 -0.0159091 
-0.00262317 -0.000650518 -0.0015013 0.00219487 -0.0146208 0.00472543 0.020751 0.018138 -0.00223544 
-0.00224877 -0.0145258 1.05737e-05 0.00702684 -0.0481338 -0.0394338 -0.0340102 -0.0433146 -0.000364823 
0.00185118 -0.00328667 0.00334537 0.0424199 -0.00318147 -0.00904787 -0.0117339 0.0144652 0.0134211 
0.0155226 -0.000253187 0.00969324 0.00282538 0.0186532 0.0133448 -0.0568297 0.0688139 0.0603308 
-0.00165614 -0.00374213 0.018596 -0.0295183 -0.00191958 0.00259518 -0.00142784 0.0169354 -0.00298932 
-0.0254557 -0.00239157 0.0297051 0.027278 -0.00415744 -0.00463583 -0.0125423 -0.00965025 0.0114243 
0.0149006 -0.0210975 0.00591575 0.00415268 0.00224444 0.00400275 -0.0212359 0.0173924 0.0190237 
0.00865913 0.00566998 -0.0132637 0.0042639 -0.0216959 -0.00240413 0.0303593 0.018824 0.0179696 
-0.0407943 -0.0192644 0.059624 -0.016876 -0.0107287 -0.0121521 0.00408478 0.0138436 0.0151058 
0.0170734 0.00537413 0.00448442 0.00606641 -0.0269425 -0.0232609 0.00316863 -0.0180869 -0.0117871 
-0.0103836 -0.0214188 -0.00448121 -0.00201791 -0.00594112 -0.0277926 -0.0117079 0.000820703 0.000537448 
-0.0111917 0.061402 0.0648525 -0.00214214 0.0682403 -0.00212113 0.0541126 0.0650534 0.00485525 
0.00539779 0.0047604 0.0164238 0.0167405 0.00554842 0.00373237 -0.0243836 0.00271406 0.0178649 
-0.0341484 0.0305174 0.0153954 0.00223766 0.0285016 -0.0246803 -0.0310922 0.0107857 0.010576 
-0.0190302 -0.0111359 0.0020645 -0.00434168 0.00573496 -0.00519497 -0.00641809 -0.0116829 0.0105511 
0.0104235 -0.0010106 -0.00606799 -0.0169503 0.000952499 -0.0205219 0.00903233 0.052968 0.0534751 
-0.0061991 0.00782903 0.0195398 0.0201758 0.0013002 0.00348757 0.00279941 -0.0144844 -0.000563462 
0.0345232 0.0403224 -0.00940292 0.0041959 -0.0771247 -0.0915835 -0.0118332 -0.00422147 -0.0772231 
0.0516097 0.0499238 -0.00670218 0.00714487 0.005691 0.00509193 0.00781192 0.00729386 0.0380938 
0.0151929 -0.00633105 -0.0327088 -0.00248439 0.0118807 0.00384858 0.0175607 0.00263151 0.00196088 
-0.0402155 -0.0316765 -0.0469506 -0.0632903 0.0453969 0.0206681 -0.0365511 -0.00964635 0.0186113 
-0.0166288 -0.0148471 0.0290188 0.0125839 0.0265193 0.0219817 -0.00773607 -0.00356434 -0.00831693 
-0.0210745 0.00325952 0.00577385 0.0158457 0.0141881 0.0603546 0.00871556 0.00706872 -0.0413882 
-0.0377139 -0.0376301 0.0149226 -0.0200686 0.00338775 -0.0126142 0.0199616 -0.00363003 0.0331608 
0.0701818 0.0505966 0.0355897 -0.00988939 0.012707 0.0125062 0.0170721 0.0157037 0.0172922 
0.0054293 -0.0376863 -0.0451125 -0.0301882 0.0102923 -0.00996171 -0.0444549 -0.0437575 -0.0587708 
0.0252853 -0.00014706 0.0297105 0.0279576 0.0207904 0.026348 0.0283177 0.00285175 0.0265252 
0.02694 0.0185324 0.0142808 -0.0299209 0.00125217 0.0388581 0.0320088 0.0266988 0.0266557 
0.0313288 0.0368493 0.0368669 -0.0120633 0.0245966 -0.0244388 0.00286055 0.00268241 -0.00604614 
-0.0074799 0.00649117 0.00462196 -0.00457271 0.0571008 -0.00407958 0.00128086 0.000511244 -0.00598329 
-0.00163494 -0.00555127 0.00827889 -0.0361503 -0.0527708 0.0241066 0.00625699 0.0430117 -0.0855125 
-0.0369451 -0.00301019 -0.00241479 -0.0159085 0.0183188 0.0237347 0.0179714 -0.00349547 0.00435297 
-0.00840077 -0.00969743 -0.00913475 -0.0149858 -0.0116704 0.000277355 -0.0352358 -0.0108441 0.0200336 
0.0168983 -0.0125772 0.0372475 -0.00970437 0.0459412 -0.00047765 -0.00178746 -0.00189923 -0.013135 
-0.0105626 0.0335435 0.029047 -0.00323662 0.0226656 0.0101392 0.00348661 0.00145335 -0.0328571 
0.021435 0.0114639 -0.000666758 0.00339712 -0.00460844 0.0114594 -0.000264433 0.00965939 0.0147745 
0.000896312 -0.0197079 -0.018399 -0.0199891 -0.0157758 -0.0312635 0.00201017 0.0385938 0.0478768 
0.0324518 0.0515444 0.0398576 0.0407608 -0.00576302 -0.00939889 -0.0415805 0.00353311 -0.00105264 
0.00304389 0.0017501 0.0842792 0.0965807 -0.00221547 -0.00206633 -0.00391941 -0.0437198 -0.0177349 
-0.0302964 -0.0292487 -0.00545198 0.0278798 -0.00173554 0.0877692 -0.0643661 -0.0718524 0.0602398 
0.0561793 0.00432416 -0.0167807 -0.00875389 -0.00756544 -0.00101006 -0.00276891 0.000481456 0.0296222 
0.010273 0.0187528 0.0205022 0.0022506 -0.0324462 -0.0104819 -1.01544e-05 0.0167445 -0.00578927 
-0.0841862 -0.0180929 0.00161797 -0.000516552 -0.0263624 0.0182831 -0.0208282 -0.0196468 0.0013731 
0.0192362 0.0346076 0.00584214 0.00673352 0.0391526 0.00782096 0.0103328 0.077499 0.0746459 
0.0561876 0.0494976 0.00705257 0.0168556 -0.00387285 0.0584086 -0.0571686 0.0244241 0.0538945 
-0.00921838 -0.00388334 0.0166507 -0.00527798 0.00400907 0.00805314 0.0268069 0.0225034 0.0224921 
0.0269438 0.00144577 0.0517644 0.0432865 -0.0166409 -0.0125567 0.0178453 0.00631487 0.00310714 
-0.0240495 0.0188116 -0.012531 -0.0140013 -0.01412 0.0157589 0.0171533 0.0126339 -0.00537298 
0.00100636 0.00183514 -0.0347545 -0.00330484 -0.00226344 0.0162055 0.0143225 0.0276246 0.00723872 
0.00744116 -0.065376 0.0456097 0.00281015 0.000886073 -0.0204481 -0.0154915 0.0184213 0.0935218 
0.0884583 0.00236947 0.00417171 0.0086825 -0.057352 -0.00114651 0.00356202 0.0189515 0.00805218 
0.018977 0.011127 0.00133809 0.0109812 0.0168667 -0.018596 -0.0228853 -0.000145027 0.0115495 
-0.00106031 -0.00701385 0.0109388 0.00341392 0.0336672 -0.0227806 0.000316041 0.031507 0.0325783 
0.0289143 0.0320791 0.0417812 -0.0151701 -0.00225758 0.0203938 0.0184169 0.0474497 0.0172599 
0.00882774 0.0289777 0.0241833 0.0490697 0.044524 0.014989 -0.040605 0.00480348 0.0134316 
0.00108287 0.00603982 -0.0317038 0.0120635 -0.0113527 0.0316147 -0.0181878 -0.0396038 0.0104324 
0.017763 0.0240674 -0.0284432 0.0622712 0.0096794 0.00279121 0.043846 -0.0014429 0.0013121 
0.000133318 -9.96225e-05 6.66054e-05 0.00371659 -0.0238258 -0.0249203 -0.0244122 -0.00187986 -0.0121029 
-0.0117334 0.0121958 0.00690868 0.0118478 -0.0119827 -0.0121735 -0.0152278 -0.0312818 -0.0328067 
-0.0290151 -0.0363618 -0.0145223 -0.0161084 -0.0224109 -0.00939882 -0.00964193 -0.0275683 -0.0212193 
-0.0245727 -0.0329939 -0.00255846 -0.0119529 -0.0270246 -0.0177457 -0.0153813 -0.0166369 -0.013435 
-0.00928287 -0.00312645 -0.00335961 -0.0759902 -0.0148402 -0.0150687 -0.0374426 -0.0117833 0.000947451 
-0.03893 -0.0095166 -0.0191768 -0.0584651 -0.0480298 0.0017966 0.00710959 -0.0223437 -0.0607728 
-0.0534525 -0.0449094 -0.0183788 -0.0751193 -0.0450006 0.0522759 0.0437687 0.0553392 0.0438666 
-0.0154158 -0.0125912 -0.00802138 -0.000319868 0.0484195 0.0530637 -0.0162656 0.0709004 0.0286057 
0.0227319 0.0189168 0.00809762 0.0372562 0.0340051 -0.00886103 0.0013681 0.0071381 0.00642288 
0.0190208 0.0234835 0.019976 0.0166148 0.0084558 0.0259995 0.0310841 0.0111764 0.00732819 
0.00173873 -0.000693675 0.0137886 0.0265207 0.0323688 0.024755 0.00933025 0.010772 0.0116459 
0.0130562 0.0134921 0.016004 0.075198 0.0181185 0.00782967 -0.00101919 0.0115747 0.0366874 
-0.019497 0.0117653 0.0169958 0.0116342 0.0234 0.0111134 0.00828926 0.044245 -0.029935 
-0.00329717 0.00356373 
Strain%20xz%20component 1 13529 double
1.37647e-08 -0.0360001 -8.00828e-08 0.0198456 1.86619e-05 -6.66958e-06 -1.65785e-05 3.15856e-05 -0.00516563 
0.001797 -0.0080323 0.000566666 0.00785797 0.000773971 -0.000532249 -0.00703593 -0.00141365 0.00629671 
0.000631589 0.00557517 0.00690377 0.000128757 0.00411493 0.00106466 -0.00562713 -0.0108704 -0.000739773 
0.0057154 0.000494566 -0.0102015 -0.00281876 -0.00284203 0.0126124 -0.00680968 0.000271271 -0.00258091 
-0.00309988 0.00280309 -0.0146016 0.0124073 0.0025461 0.00511606 0.00544624 0.00425997 0.00874518 
-0.0219465 -0.0140279 -0.0135877 -0.0113185 -0.0107485 -0.0130512 -0.0195706 0.00469186 0.000825018 
-0.0004028 0.00128623 -0.00150518 -0.0055133 -0.00390008 -0.00672401 -0.00520724 0.00836262 0.00798154 
0.00788224 0.0126725 0.0100705 0.00981098 0.011633 -0.00106788 -0.000789375 -0.00247108 -0.00276896 
0.000579764 0.000967749 -0.00188585 -0.000813583 0.0161286 0.0166496 0.0118012 0.0120394 0.010848 
0.0102416 0.0115102 -0.00215138 -0.00341986 -0.00457071 -0.00573894 -0.0115331 0.00347107 0.00151266 
0.00310933 -0.00124723 -0.017965 -0.0115748 -0.0149805 -0.0142234 -0.00976015 -0.0121748 -0.0111358 
0.00830974 0.00768431 0.00892493 0.0101251 0.00610715 -0.00072815 0.00130633 0.00064682 0.00237276 
0.000379719 -0.0137411 -0.0115083 -0.0103495 -0.0127468 -0.0133874 -0.0156707 -0.0164412 0.00650327 
0.00513882 0.00492313 0.00619167 0.00786928 -0.00153546 0.00103608 -0.00152685 -0.000816849 0.0110201 
0.0105123 0.00966462 0.0104697 0.0107904 0.014624 0.0196445 -0.00459467 -0.00539756 -0.00389865 
-0.00610295 -0.0117358 -0.00353802 -0.00431119 -0.00421344 -0.00826022 -0.00432537 0.010452 0.0121668 
0.0117764 0.0106276 0.0112782 0.0110528 0.0173285 -0.00170995 0.00156296 -0.00409013 0.000297316 
0.00528896 0.00654979 0.00482642 0.00721089 0.0179987 -0.0136193 -0.00992065 -0.0107615 -0.0127663 
-0.0105841 -0.0165225 -0.015987 0.00218254 0.00162076 0.00210607 -0.00375692 -0.000286894 -0.000946815 
0.00370458 0.00217417 0.000862648 -0.00051443 0.0010072 0.00197363 0.00015065 -0.00150127 1.77948e-05 
0.000781151 -0.000179203 -0.000756245 0.000379495 3.98664e-05 -0.000229006 -0.000507074 -0.00183849 -0.00140086 
-0.000729422 -0.000509289 -0.00137059 0.000187159 -0.00487267 0.000677867 -0.00444685 0.00454287 0.003083 
-4.01687e-06 -0.00148961 -0.00127678 0.00396655 0.00214291 -0.00139094 -0.00417351 -0.000582385 0.00310423 
0.00247958 -0.00145768 -0.00240763 -0.00070949 -0.000503235 0.00126533 0.000637199 -0.00248545 -0.00478075 
-0.000737241 0.00113434 0.000768112 -0.00109355 -0.00369228 0.000284403 -0.000245465 -2.86875e-05 -2.62857e-06 
1.50443e-05 2.19222e-05 1.54061e-05 3.17875e-05 1.70721e-05 1.61822e-05 1.40839e-05 3.1313e-05 1.43056e-05 
2.01783e-05 7.88026e-06 2.22882e-06 -8.41625e-06 -6.17627e-06 -1.59914e-05 -9.96623e-06 -3.05232e-05 -1.26677e-05 
-1.6588e-05 -1.68893e-05 -2.35477e-05 -1.83599e-05 -1.12131e-05 -3.53178e-06 -5.92805e-06 1.47857e-05 3.13429e-05 
-0.00464264 -0.000925713 -0.000405578 -0.000271076 -0.000116164 -0.000111552 -6.70713e-05 -6.02622e-05 -4.48439e-05 
-4.90522e-05 2.48083e-05 -4.39435e-05 -3.51848e-05 -3.15e-05 -3.76725e-05 1.25072e-05 -1.68755e-05 3.30262e-06 
2.16532e-05 5.28931e-05 7.62852e-05 -2.89776e-05 7.80675e-05 5.22952e-05 2.36811e-05 -3.95258e-06 -2.703e-05 
-1.82465e-05 -3.23958e-05 -3.78332e-05 1.22991e-05 -3.05007e-05 -2.60244e-05 -2.54492e-05 -2.14482e-05 2.49152e-06 
-6.25069e-06 1.0408e-05 5.15429e-06 1.26711e-05 1.57378e-05 2.36854e-05 -1.40276e-05 2.09552e-05 -1.26574e-05 
-2.23302e-06 -1.79049e-05 -1.97466e-05 -1.5794e-05 -1.29129e-05 -4.50586e-06 6.85798e-06 5.13916e-06 1.00873e-05 
1.49896e-05 1.52156e-05 -2.57514e-06 -8.6495e-06 3.06462e-05 2.55367e-05 1.39782e-05 2.59199e-05 2.16357e-05 
2.64789e-07 -1.59532e-05 -2.87522e-05 -4.02204e-05 1.22632e-05 -5.70059e-05 -5.25431e-05 -3.68831e-05 -4.0395e-05 
-1.59598e-05 1.29648e-05 2.50065e-05 1.8497e-05 -1.51979e-05 3.54333e-05 4.24444e-05 -2.2216e-05 2.81068e-05 
-2.36617e-05 7.30297e-05 7.34703e-05 0.000102245 1.51918e-05 0.000344926 0.00073393 0.00254834 0.0179501 
-0.00943927 -0.0109501 -0.0119102 -0.00992083 -0.0100024 -0.0100862 -0.0109798 -0.0111567 -0.0125617 
-0.0180064 0.0168428 0.0176164 0.0104808 0.00964381 0.00940405 0.00915108 0.00927997 0.0112255 
0.00800089 0.00915752 0.00846888 0.00715359 0.0107666 0.00981923 0.0091083 0.00843468 0.00904147 
0.00996691 0.0130781 0.0171603 -0.0168655 -0.0139063 -0.0118387 -0.00860718 -0.00892958 -0.00833029 
-0.0114563 -0.0131885 -0.0112168 -0.0107605 4.2063e-07 -2.32932e-07 -4.11501e-06 -1.01936e-05 -1.85247e-05 
-1.81035e-05 -1.39451e-05 -1.78256e-05 -1.03846e-05 -1.09409e-05 -2.47234e-07 5.58479e-06 8.26824e-06 8.48236e-06 
1.55987e-05 1.72705e-05 1.3927e-05 8.2964e-06 1.05605e-05 7.98339e-06 9.31103e-06 -8.40479e-06 5.26236e-06 
0.000612542 0.00127216 3.96435e-05 -1.81877e-05 3.08556e-05 2.95302e-05 6.34102e-06 2.64093e-06 -2.38851e-05 
2.91245e-06 6.05886e-06 1.36978e-05 -3.35597e-05 9.22839e-06 1.70945e-07 -9.85525e-06 1.94942e-05 9.02256e-06 
-3.193e-05 -1.2672e-05 5.42313e-06 -1.90956e-05 2.22767e-06 9.05436e-06 -1.71704e-05 3.36399e-06 4.53757e-06 
7.86177e-06 3.27332e-06 3.88044e-06 -7.81721e-06 -4.23345e-07 -5.13292e-06 -8.62712e-06 7.44017e-06 8.22178e-07 
1.04632e-05 -3.38842e-06 6.19835e-06 2.93785e-06 2.76528e-06 1.70291e-06 -5.64468e-06 -5.09191e-07 -1.49802e-06 
2.46154e-06 -3.38545e-06 1.22968e-05 -3.39709e-06 -1.80903e-06 -6.23653e-06 -3.96916e-06 -1.06288e-06 4.28146e-06 
-1.81318e-05 -6.51699e-06 1.38374e-05 1.47069e-05 8.84863e-07 2.94154e-06 -4.18081e-06 2.40681e-05 -1.59963e-05 
6.26553e-07 2.61596e-05 7.91415e-06 8.07236e-06 1.63303e-06 5.11309e-05 2.92299e-05 2.91163e-05 4.82328e-05 
-0.00379011 0.00749175 0.0101983 0.0132896 0.0105719 0.0105492 0.0106173 0.0129384 0.0131758 
0.0164237 0.0247984 -0.0226921 -0.0155077 -0.0116587 -0.0102238 -0.010062 -0.0099499 -0.0101391 
-0.00915066 -0.0132262 -0.00757508 -0.0102273 -0.014975 -0.0108277 -0.0102807 -0.010525 -0.0114841 
-0.0126578 -0.0151963 -0.0193358 0.0162309 0.017127 0.0108083 0.0151577 0.0115575 0.00962042 
0.010119 0.0100529 0.00748998 0.00695053 -0.00045171 -0.00125824 0.00246373 -9.171e-05 0.00264879 
0.00115568 0.00194188 0.00809996 -0.000515249 0.000733234 0.000695021 -0.00133923 -0.00409895 -0.000989942 
0.0015571 0.000322036 -0.00206247 -0.000196113 -0.00137238 -1.01285e-05 -0.00766353 -1.26538e-05 -0.00175052 
-0.00195732 -4.14936e-05 0.00238184 -0.000320122 -0.00157553 0.00373985 -0.00204191 0.00203263 0.001422 
0.00519993 -0.00192814 -0.000766871 0.00632894 0.000834195 -0.000100203 -0.00160769 -0.00198258 0.00149326 
0.00104469 0.00409955 0.00154522 0.000902708 0.000970256 -0.000725039 0.000111539 0.000834496 -0.00154381 
-0.00164757 -0.0065607 -0.004977 -0.000530119 -0.00832157 0.000890845 -0.00330096 0.000805888 0.00172692 
-0.000506146 -0.000908103 0.00405741 -0.00398007 -0.0012976 -0.00162551 -0.00583676 0.000309555 -0.00363066 
0.00293887 0.0137365 -0.0015285 0.00421838 0.00158253 -0.00150383 -0.00181133 -0.000845655 -0.000289345 
-4.32524e-06 5.92701e-06 -5.54561e-06 -6.70798e-06 -6.83204e-06 4.08076e-06 -5.84135e-07 9.72316e-07 5.76872e-06 
-1.01376e-05 -6.71937e-06 -1.44873e-06 9.40575e-06 -4.0292e-06 -4.94672e-06 1.10693e-06 4.31736e-06 9.57013e-06 
-5.26774e-06 -1.6482e-06 -4.26939e-07 9.14811e-07 1.03192e-07 2.36621e-06 -4.64165e-08 -5.7425e-06 -1.0544e-05 
2.1502e-06 -8.10142e-06 -9.63704e-05 0.000531234 5.78825e-05 6.30002e-05 7.07801e-05 3.75575e-05 1.11482e-05 
2.48609e-05 2.93458e-05 4.28758e-07 2.87983e-05 2.40824e-05 9.41994e-06 9.12368e-06 -1.93139e-06 2.73225e-05 
6.45766e-06 4.03933e-06 -2.97158e-05 -3.61758e-05 4.63678e-07 -2.56243e-05 -1.17807e-05 7.57292e-06 1.18165e-05 
1.04986e-05 1.4665e-05 6.19769e-06 1.6198e-05 2.19423e-05 -6.83135e-07 1.30263e-05 1.28273e-05 3.34348e-06 
1.2381e-06 -4.16131e-07 -2.61961e-06 2.97708e-06 -1.64923e-06 -6.50741e-06 -5.00897e-06 -7.66413e-06 2.04389e-06 
-4.76583e-07 1.0103e-06 -1.4984e-06 1.0071e-05 5.51174e-06 1.68966e-06 -9.50221e-08 2.94817e-06 -2.1404e-06 
-3.30391e-06 -6.98948e-06 -2.21451e-06 3.66221e-06 -1.45629e-05 -1.05392e-05 -2.15683e-06 -2.63657e-06 -7.36804e-06 
-6.77474e-06 7.60954e-07 7.01754e-06 1.96014e-05 4.85645e-07 2.44048e-05 2.53737e-05 -4.96435e-07 -3.17047e-06 
6.1719e-06 3.09691e-06 -3.02279e-07 -2.19358e-05 2.8483e-06 -9.11763e-06 -1.62426e-05 -2.91814e-05 -6.95966e-06 
4.94409e-06 -2.98507e-05 -3.49964e-05 -5.71699e-05 -7.47137e-06 -0.000109981 -0.000146395 2.03999e-05 -0.00216357 
-0.000942491 0.0024974 -0.000889648 -0.00049044 -0.00050029 -0.00315288 0.00357377 7.86291e-05 0.000548987 
0.000362144 -0.00288317 0.00430027 0.000807722 0.000570881 0.000501882 -0.00483058 0.000250635 -3.37183e-05 
0.00459586 -0.000413044 0.000477733 -0.00365183 -0.000647311 0.00476452 0.00085175 0.00157123 -0.00503765 
0.00138374 0.00291035 0.0036035 0.00239031 0.0053727 0.00208389 0.00214866 0.00261839 0.00746033 
0.00872628 0.002444 0.00495001 -0.0160331 -0.00989382 -0.00326759 -0.00309316 -0.00302534 -0.00214635 
-0.00172603 -0.0054705 -0.0060475 -0.00581584 -0.00133731 -0.00333749 -0.00594977 -0.00195075 -0.00251365 
-0.00324819 -0.00289562 -0.00253441 -0.00251011 -0.00410004 -0.0119057 -0.0130814 0.00830801 0.0122934 
0.00683866 0.00577029 0.00513598 0.00211535 0.00485683 0.00595526 0.00520248 0.0027521 0.000999284 
-0.00208992 -0.00676446 0.00408325 -0.000132747 0.00151423 0.000395856 -4.55044e-06 -1.09038e-06 -2.25677e-06 
-3.9456e-06 3.23626e-06 -1.61933e-06 3.55232e-06 -3.05217e-06 -5.86637e-06 1.55024e-06 3.3257e-06 6.58155e-06 
-5.82441e-06 -3.77446e-06 -7.51593e-07 6.14355e-06 1.93618e-06 9.94315e-09 2.19607e-06 3.5269e-07 1.11556e-06 
2.37159e-06 2.38111e-06 -3.9481e-06 -3.99995e-06 -1.94347e-06 0.000372197 0.000234335 0.000109709 -2.13448e-07 
2.84926e-05 6.02644e-05 5.22149e-05 1.43082e-05 2.80232e-07 -2.10285e-05 1.73337e-05 2.99805e-05 -1.71738e-06 
-6.23523e-07 -1.48615e-05 5.78086e-06 9.78437e-06 -1.31808e-05 -1.44299e-05 1.3046e-05 1.23552e-06 -2.37673e-05 
7.54943e-06 8.24152e-06 -6.50719e-08 -5.78311e-06 8.91131e-06 2.15125e-07 1.14531e-05 -4.05532e-06 -6.46733e-06 
5.02994e-06 9.30005e-06 9.75567e-06 -1.13427e-06 -3.78728e-07 -2.06014e-06 -9.50534e-07 -6.2946e-09 -2.80265e-06 
-1.17607e-05 7.28308e-06 8.49974e-06 -0.000573601 0.000700088 -2.79462e-07 -1.15807e-06 5.55859e-06 1.60915e-06 
1.63566e-07 -4.09618e-07 5.47304e-07 2.89915e-07 -5.24717e-06 2.49308e-06 1.14755e-06 6.38658e-06 -7.3039e-06 
-1.37849e-05 3.44041e-06 -8.85649e-09 4.14955e-06 -3.37111e-06 -2.71531e-06 2.02621e-05 -6.72936e-06 -8.02959e-06 
1.25352e-05 2.3068e-05 3.93262e-06 6.38585e-08 -9.19231e-06 -3.25093e-06 -5.79343e-06 -1.76005e-06 1.15812e-05 
-7.21806e-06 -1.15271e-05 -9.55296e-06 6.30372e-06 7.09491e-06 -1.5349e-05 -4.24342e-05 2.44917e-05 7.4352e-05 
-7.85005e-05 -0.000155987 0.000892625 0.000738529 0.000130708 -0.000178396 -0.000565286 6.26786e-05 0.000170995 
0.000352485 -8.07133e-05 -0.000572068 -4.56497e-05 0.000408893 0.000443171 -0.00013816 -0.00060399 0.000363898 
0.000130211 -0.00032875 0.000547747 -7.62684e-05 -0.000588617 0.000148881 -0.000484834 0.000729606 4.14404e-05 
-0.000488954 -0.000139099 -0.000977282 0.000758295 -1.54054e-05 -0.000227907 -0.000160432 7.10685e-05 -2.50903e-05 
0.000678255 0.00247351 0.000189294 -0.000178831 -0.00051571 -3.42112e-05 0.000294733 0.000280767 9.04788e-05 
-0.000145756 -0.000137784 8.70431e-05 -0.000232612 8.60729e-05 0.000205677 -0.00010056 0.000221414 -5.34576e-05 
5.09101e-05 3.19092e-05 -2.04819e-05 -0.000426072 -0.0008546 0.00061538 0.000156657 -0.00027431 8.18392e-05 
-6.05613e-05 -3.91828e-05 0.000149026 2.427e-05 -0.000264185 -0.000137908 -8.6029e-05 0.000348871 0.000179812 
-1.54462e-05 0.00101594 -0.000159834 -0.00016675 3.42686e-06 -8.58597e-07 -5.60347e-06 6.86382e-06 8.1334e-06 
-1.7096e-06 -7.9038e-06 3.0716e-08 -2.4862e-06 5.72347e-06 1.70985e-06 -1.11569e-06 -2.00183e-06 -1.13143e-06 
6.0807e-06 4.6028e-07 -1.92487e-06 -4.71288e-06 -1.36939e-08 3.7244e-06 3.54397e-07 2.03483e-06 -1.07934e-06 
-1.53623e-06 -6.67185e-05 -4.51442e-06 2.97131e-05 -2.34445e-05 0.000294173 -7.52668e-06 6.13777e-06 -2.75214e-05 
1.82003e-05 2.2814e-05 -2.25417e-07 -3.76169e-06 -2.06699e-05 1.00069e-05 7.42261e-07 -2.31943e-06 -3.17499e-06 
-1.20263e-05 -8.88559e-06 2.52148e-05 1.11885e-05 1.7904e-05 -5.35491e-06 -1.82826e-05 -4.49725e-05 1.59413e-06 
1.69343e-06 -1.09564e-05 8.84479e-06 -1.5826e-05 -4.07441e-07 -5.26705e-06 -6.74698e-06 -2.07323e-06 -3.0671e-06 
1.60716e-06 -3.91256e-06 -3.41073e-06 -5.96738e-07 -3.14311e-06 6.66514e-07 1.13752e-06 2.6356e-06 -4.837e-06 
-4.77223e-06 -2.88845e-06 9.49091e-08 -2.52608e-06 1.35308e-06 -9.08992e-07 8.22275e-07 1.77552e-06 -8.84663e-07 
3.98761e-06 2.96104e-06 3.6746e-06 4.03005e-07 -6.05993e-06 6.80601e-06 -7.94438e-07 4.45046e-06 2.57725e-06 
-4.45777e-06 -6.72739e-06 9.97569e-07 -3.46986e-06 -3.54598e-06 1.93643e-05 -1.60545e-05 5.5627e-07 -9.50212e-06 
5.71096e-06 -1.33855e-05 1.49545e-05 1.70361e-05 7.1027e-06 -7.43964e-06 4.14662e-06 3.74717e-05 1.24847e-05 
2.7122e-05 -1.28798e-05 5.16308e-05 6.01044e-05 2.14234e-05 -0.000476504 -8.19164e-06 -3.29248e-05 4.16122e-06 
0.000111349 -0.000134237 -4.87808e-05 -3.91872e-05 6.06346e-05 8.72704e-05 -4.01707e-05 -5.16714e-05 -5.32405e-05 
-6.05039e-05 4.32167e-05 5.69978e-05 -2.42012e-06 -5.1303e-05 5.49033e-05 2.36494e-05 0.000107649 9.82327e-06 
-0.000135513 3.94078e-05 -4.24618e-05 1.03275e-05 1.50767e-05 1.00543e-05 -3.83969e-05 1.91253e-05 0.000151935 
3.08407e-05 0.000139724 2.24666e-05 1.1755e-05 4.64475e-05 3.22343e-05 -6.16557e-05 -0.000101616 1.45567e-05 
0.000139813 2.25987e-05 1.21147e-05 -3.0662e-05 -5.67509e-05 -1.8827e-05 0.000113334 9.49302e-05 -1.00382e-06 
-8.4026e-06 -4.71936e-05 -6.79229e-05 1.22717e-05 3.7886e-05 4.36131e-05 -6.50374e-05 -6.87309e-05 2.62133e-05 
4.9627e-05 5.62131e-05 -0.000168369 -3.22413e-07 8.32211e-05 -8.3226e-06 -3.45886e-06 -3.5636e-05 4.0692e-05 
-4.09367e-06 3.27724e-05 -1.43689e-05 -4.0404e-05 7.13823e-06 -4.71509e-06 2.47654e-06 -1.05169e-05 1.74085e-06 
8.91011e-06 -5.50115e-07 2.20161e-07 -5.17251e-06 -3.74591e-06 -5.11161e-06 2.9617e-06 9.06254e-06 5.11225e-06 
-7.82361e-06 2.29683e-06 6.95799e-06 1.71237e-06 -5.85266e-06 -1.29458e-06 4.68618e-06 2.97232e-06 -1.31814e-06 
2.82836e-06 3.87219e-06 3.84966e-05 1.05366e-05 -7.38225e-06 -2.752e-05 -1.88901e-05 4.81527e-05 -1.6416e-06 
-1.09679e-05 -1.028e-05 -6.78605e-06 1.16278e-05 -6.83438e-06 -1.17935e-05 -6.01878e-06 -1.15852e-05 -1.89631e-05 
2.43788e-05 -1.9573e-06 -1.57639e-05 -7.8577e-06 -6.75381e-06 -1.07884e-08 -6.13627e-06 4.45882e-06 -2.96574e-06 
-4.01777e-06 -4.67303e-06 -3.06937e-06 3.85021e-06 9.35617e-07 1.41981e-06 5.8298e-06 -4.30799e-06 5.06048e-07 
3.02238e-06 5.06484e-07 1.39529e-06 2.58487e-06 5.61037e-08 4.67686e-06 1.03163e-06 6.33009e-07 1.15199e-06 
2.0609e-06 6.3133e-06 5.78435e-06 1.63547e-05 -1.84273e-06 8.40299e-06 -1.55773e-05 -1.39296e-05 -1.35308e-05 
-1.50736e-05 9.66693e-08 4.38827e-06 1.18296e-05 8.25795e-06 1.89501e-05 1.2849e-05 9.30332e-06 -1.26158e-05 
6.02942e-06 3.0604e-05 1.16489e-05 1.67485e-05 -3.00091e-05 -3.89014e-05 -2.96349e-05 -7.98289e-06 2.23305e-07 
-8.18497e-05 1.24702e-05 -6.48092e-06 -2.25692e-05 -2.74496e-06 -2.07426e-05 1.84093e-06 8.97678e-06 -8.056e-06 
-1.46197e-05 -1.4908e-05 -1.14037e-05 1.52871e-05 2.67031e-06 -2.08266e-05 6.17422e-06 2.8049e-05 3.86745e-06 
2.45002e-05 1.37621e-05 5.72062e-06 -3.16747e-05 1.39505e-05 5.90328e-05 -1.37977e-05 -1.32145e-05 -9.42773e-06 
4.43328e-05 9.00695e-06 1.69718e-05 5.18228e-05 -5.595e-06 -1.75905e-05 -2.38565e-05 -1.07358e-05 -5.53015e-05 
2.9111e-05 -1.76727e-05 4.37537e-05 6.78363e-06 -1.35868e-06 -3.15244e-05 3.15092e-05 4.92363e-06 6.10625e-05 
1.03898e-05 4.27266e-06 9.09823e-05 -7.93264e-05 -1.61109e-05 -1.27678e-05 -3.09694e-05 -2.08729e-05 -3.76789e-05 
1.99669e-05 -1.92262e-05 -3.58434e-06 -3.8218e-05 -1.14462e-06 4.66033e-05 -2.5123e-05 3.00981e-05 -3.91231e-05 
-5.73417e-05 -1.98759e-05 -5.97049e-05 -1.79811e-06 1.01425e-05 2.54053e-06 -2.29039e-06 -7.05092e-06 -3.54858e-06 
-1.80463e-05 1.76818e-05 -8.49003e-06 7.59848e-06 1.89429e-06 3.78908e-06 -3.41783e-06 8.36561e-06 3.78465e-06 
2.74954e-06 2.69481e-07 -2.15259e-06 -5.7609e-05 -1.70567e-05 2.89853e-05 -8.19129e-06 6.37334e-06 -8.2654e-06 
-1.14585e-05 -6.70303e-06 -9.37394e-06 -5.0173e-07 -3.28686e-06 -1.51527e-05 -1.99476e-05 2.76168e-05 -6.10468e-07 
1.91373e-05 9.67426e-06 9.27541e-06 -4.01592e-06 -7.17451e-06 1.98884e-06 -3.4069e-06 -2.25855e-06 5.5585e-06 
-4.12387e-05 4.57615e-07 -3.08591e-06 2.42858e-06 1.44534e-06 5.58418e-06 2.80513e-07 5.09866e-06 -3.36035e-06 
-3.68886e-06 -4.95512e-06 2.40711e-05 -1.09857e-05 7.53134e-06 -5.3318e-06 -1.4368e-06 -9.02309e-06 7.58815e-10 
9.56759e-08 -4.91652e-08 -4.72658e-06 -1.3361e-06 -5.59414e-06 7.28642e-06 2.51041e-05 6.80214e-06 8.5867e-06 
-1.23112e-05 6.40931e-06 -4.48444e-05 -1.14268e-05 -1.54448e-05 -2.86218e-06 -2.93821e-05 -6.03738e-06 2.73479e-05 
-4.70219e-06 -5.89019e-06 -7.88807e-06 -5.28928e-07 -4.18612e-06 -1.3296e-05 -1.6953e-05 3.13544e-06 2.50248e-05 
1.99893e-05 -9.57294e-06 2.04572e-05 1.0763e-05 -1.85802e-05 -1.17209e-05 4.05253e-05 -7.32252e-05 -3.43756e-07 
2.98994e-06 1.81038e-06 -2.55815e-05 4.26511e-05 -2.31197e-05 -3.39357e-05 4.72665e-05 -5.26393e-06 -4.13519e-05 
1.49808e-05 8.71964e-07 2.43641e-05 -4.91811e-05 7.84844e-06 -3.66796e-06 -1.53431e-07 -3.24039e-05 1.86075e-06 
-2.39098e-05 4.10225e-05 -7.75877e-06 1.25077e-05 -2.02683e-05 -1.02632e-05 -2.14023e-05 -6.68285e-05 2.60211e-05 
-5.02954e-05 2.71464e-06 2.25449e-06 -7.29716e-07 6.93792e-05 -2.6917e-05 -3.53865e-05 -1.73349e-05 6.62175e-05 
-3.96233e-05 2.56176e-05 -7.34271e-06 3.11127e-06 -4.52998e-06 -1.40712e-05 3.65478e-06 4.18195e-05 -2.59796e-05 
-1.73462e-05 5.05223e-06 1.18684e-05 6.99644e-07 1.45115e-06 2.78187e-05 -2.0404e-05 -6.59492e-07 3.76756e-06 
-4.36276e-06 2.08337e-06 -1.37274e-05 2.76468e-05 -3.06253e-07 -4.45759e-05 6.55143e-05 1.99314e-05 -1.4396e-06 
-4.26174e-06 -1.60653e-07 -9.05212e-06 -1.06607e-06 1.74418e-05 -5.91232e-06 -2.33543e-06 -1.37853e-05 -2.96622e-07 
-2.29778e-05 -7.33149e-06 -1.69577e-05 -2.78424e-05 -2.14702e-05 -1.40878e-05 -7.77704e-06 -7.63566e-06 7.57185e-06 
-1.85108e-05 -2.10649e-05 -3.39921e-05 -6.97668e-06 4.01807e-05 3.44886e-06 2.99404e-05 -2.19801e-05 -2.48282e-06 
-1.04561e-05 9.38928e-06 4.75857e-05 -2.27785e-07 -1.92965e-05 4.68943e-05 -8.19486e-06 -2.59677e-05 -6.31597e-06 
1.17956e-05 -2.06967e-05 1.48194e-05 2.32513e-06 3.46314e-05 3.10621e-05 -1.08906e-05 5.25437e-05 4.30002e-05 
-3.43904e-06 -1.03573e-05 -6.06834e-05 7.72535e-07 -1.81203e-05 2.21026e-05 -2.3864e-05 -1.26188e-05 1.3383e-05 
-2.12053e-05 2.93623e-05 -1.93122e-05 -2.2999e-05 2.81393e-05 -6.95442e-06 -9.07731e-06 1.45953e-05 -1.87702e-05 
5.19067e-06 -6.93994e-06 -1.51703e-05 2.59843e-05 3.15284e-05 3.02542e-05 -4.92976e-08 1.69942e-07 2.84792e-06 
6.2154e-06 3.50221e-06 -1.57088e-06 9.14134e-07 1.03046e-05 2.89301e-06 -1.91743e-06 -3.35395e-06 3.11661e-06 
-1.13965e-06 -8.96423e-06 -1.99571e-06 8.56632e-07 -4.72564e-07 -5.42643e-06 -2.1373e-06 1.63707e-06 6.50054e-06 
-1.8358e-06 -0.00119403 0.000190317 -8.04592e-07 -8.92506e-07 -3.81602e-05 -1.66787e-05 1.22265e-06 1.87284e-06 
-9.23434e-06 -1.51114e-05 7.88455e-06 1.15389e-05 -1.8876e-05 -1.49339e-05 7.79771e-06 1.47695e-05 -6.83748e-06 
-3.85585e-06 1.01178e-06 -1.34644e-05 -1.51539e-05 8.28905e-06 -2.95642e-06 -2.6152e-06 -3.59629e-06 4.17222e-06 
-5.06149e-06 4.74009e-07 2.03295e-06 3.89769e-06 -4.48121e-06 -2.03625e-06 -7.89435e-07 3.05157e-06 -2.86513e-06 
5.6039e-06 2.69195e-06 -4.63216e-06 4.56743e-06 1.52315e-06 -4.18692e-06 -1.19016e-06 1.5387e-06 -1.4603e-06 
1.52369e-07 2.36974e-06 1.15561e-06 -1.01081e-05 -2.20367e-06 1.16829e-05 6.61137e-06 -8.67273e-06 1.65804e-06 
4.00824e-07 -9.19802e-06 2.12306e-05 5.02067e-06 -1.23595e-05 7.10308e-06 1.22729e-05 -1.03841e-05 1.20586e-05 
5.48108e-06 1.55533e-05 1.25605e-05 2.9199e-05 3.11098e-05 2.66082e-05 1.2984e-05 -0.00067163 0.00660834 
-0.000513508 -0.00160492 -0.000352262 -3.26074e-06 -0.00100336 -0.000562585 0.000680587 0.00117122 -0.000454976 
-0.00129778 0.00054892 -0.000424163 -0.000983362 0.00073306 0.000528526 0.000835314 0.000969491 0.000194038 
0.00089003 0.000879334 0.00034159 -0.00170818 -0.00269382 -0.00190866 -0.00248441 -0.00274499 -0.00283856 
-0.00239332 -0.00434276 -0.00394452 -0.0111312 -0.0122168 0.0110889 0.00524566 0.00294917 0.00329221 
0.00271883 0.00274929 0.00327517 0.00309029 0.00276484 0.00314095 0.000941829 0.000573212 0.00416007 
0.00345675 0.00321679 0.00291129 0.00318832 0.003053 0.00378632 0.00163663 0.00682743 -0.00661814 
-0.00604458 -0.00428605 -0.00346118 -0.0036643 -0.00298341 -0.00345574 -0.00317568 -0.000489349 -0.00896158 
-0.00581731 0.000882944 -0.000979437 0.00115088 0.00744025 -0.00334376 2.84345e-06 -2.61246e-06 6.58992e-06 
-9.10727e-07 -7.91958e-07 8.13623e-06 4.22579e-06 -3.90097e-06 1.6962e-06 -3.15121e-06 3.06369e-06 -3.77937e-06 
-6.69576e-06 -1.90574e-06 1.11018e-06 -5.02758e-06 3.36118e-07 -6.08531e-07 -1.95861e-08 0.000211065 -2.87576e-05 
0.000115921 -0.000417069 2.98049e-05 4.30867e-06 -3.21662e-05 -1.74344e-06 7.87559e-06 -3.95227e-07 -1.15107e-05 
1.27305e-07 1.07014e-05 -1.00776e-05 8.17312e-06 -1.33404e-05 9.27038e-07 -8.88133e-06 8.20569e-06 -6.35569e-06 
-1.04738e-06 -5.07392e-06 3.07629e-06 6.70413e-06 -1.59355e-06 2.23948e-07 1.77061e-07 1.69244e-06 -2.01956e-06 
1.27678e-06 2.65225e-06 2.16886e-07 1.59603e-06 -9.77295e-07 -1.79231e-06 -8.43705e-08 -1.51779e-07 3.29579e-06 
-8.51766e-07 7.51376e-07 -5.25912e-07 -6.55269e-07 -1.78969e-06 -1.92797e-06 -2.41202e-06 -1.65636e-06 2.81714e-06 
-2.28163e-06 -4.66359e-06 4.88721e-06 1.53408e-06 8.12501e-06 1.14578e-06 -4.46348e-06 4.14278e-06 5.14633e-07 
1.33521e-05 4.38103e-06 -4.79926e-06 2.05804e-06 9.45136e-08 -5.21416e-07 6.04413e-06 -4.26169e-06 1.15334e-06 
-2.91092e-05 -5.59984e-05 4.26971e-05 0.000116681 -4.8665e-05 -0.000529526 -5.82227e-05 0.000104405 0.000131583 
8.62906e-05 -0.000167335 -0.000108024 0.000147578 0.000208226 -0.000122095 -0.000154868 -0.000100707 -2.88549e-05 
1.2754e-05 1.8739e-05 9.27776e-05 -0.000119669 3.82404e-05 -0.000104536 -9.54149e-05 -0.000179756 0.000158785 
-0.000116276 -0.000221252 -0.000227115 -0.000483714 -0.000184565 -0.000210262 5.77157e-05 -0.00084998 -0.000159982 
0.000290624 -0.000324628 0.000971602 -0.000441688 4.24104e-05 0.000281467 -2.39896e-05 1.59379e-05 0.000725049 
0.00052334 0.000131741 0.000570867 -0.000452561 -0.000241505 4.84296e-05 -3.01186e-06 7.71142e-05 6.50006e-07 
-0.000136943 0.000518832 0.000192367 -0.000963494 -0.000625297 -0.00059193 -0.000588535 0.000172277 -0.000618816 
-0.000442045 -0.000434915 -0.000390888 -2.28928e-06 0.0017927 0.000518014 -0.00218605 0.000140031 0.000395863 
-0.000172944 -0.000795311 -0.000549246 -4.41619e-05 -6.9618e-05 6.97901e-06 9.22943e-05 1.4033e-06 1.89331e-06 
4.60036e-06 -5.24681e-06 2.57242e-07 -3.93395e-06 -4.64384e-06 2.30644e-06 -3.14724e-06 -4.93723e-06 1.07831e-06 
2.93171e-07 7.82157e-05 -2.95126e-06 -3.66825e-06 2.16689e-05 2.28834e-05 -1.25477e-05 1.28612e-05 1.28384e-05 
3.34475e-06 4.00839e-06 1.35268e-06 5.76135e-06 1.22311e-05 -1.30011e-05 1.0964e-05 2.18733e-05 -2.90985e-05 
2.32787e-06 8.54513e-06 1.20131e-06 4.50309e-06 2.88966e-06 2.55109e-06 3.90141e-06 3.72663e-06 2.45884e-06 
3.27941e-06 -2.88426e-06 2.17082e-07 -5.05657e-06 7.32503e-07 -0.000125591 4.11494e-06 3.72095e-07 -2.1419e-06 
2.0577e-05 3.33852e-06 -8.1218e-05 -2.18904e-06 -2.52739e-06 -3.08796e-06 -2.75771e-06 -5.60047e-06 -4.3769e-06 
-1.73177e-06 -1.57577e-06 -3.48443e-06 1.24051e-05 1.19837e-05 2.40924e-05 1.73065e-05 1.74621e-05 5.69623e-06 
1.8321e-06 9.7149e-06 2.76183e-06 -1.29955e-05 -1.07663e-05 -3.61812e-06 -6.79358e-06 -1.85792e-05 -1.0989e-05 
-1.67462e-05 -2.34105e-05 -4.40819e-05 6.39898e-05 9.33417e-06 -0.00012801 6.93062e-05 -3.23995e-05 -8.23966e-06 
8.73035e-06 1.99527e-05 -1.78579e-05 -1.83019e-05 -3.83295e-05 4.78551e-07 2.99271e-05 -1.05177e-05 -7.08931e-06 
1.09616e-05 2.77097e-05 -3.38634e-05 4.60166e-06 -5.13019e-05 0.000152986 -2.71969e-05 -2.98286e-06 -5.94179e-05 
-8.34593e-05 -3.18942e-05 1.30228e-05 -8.15484e-05 2.02621e-05 3.3014e-05 8.33149e-05 -1.98815e-06 -0.000226898 
-2.57787e-05 -1.91559e-05 2.99463e-05 -3.16985e-05 1.47588e-05 -3.74848e-05 7.54096e-05 -7.84343e-05 -1.01201e-06 
2.15759e-05 5.25091e-06 -5.51282e-05 -8.11131e-06 1.74277e-06 1.24539e-05 -5.00978e-06 -3.99788e-06 1.02093e-06 
5.71421e-06 6.15191e-06 2.30084e-05 -0.000164132 -0.000104862 0.000234233 1.04654e-06 4.89387e-05 0.000115999 
1.36248e-06 8.21758e-05 -0.000117321 -0.000113923 2.55225e-05 -6.64082e-05 -9.99877e-05 0.000128131 5.67559e-05 
0.000101632 -2.32749e-06 4.14569e-06 -3.50779e-06 4.71544e-06 4.64829e-07 1.47892e-06 -6.26804e-06 -3.91049e-06 
3.58244e-06 -8.75585e-06 -3.49391e-05 7.13133e-07 1.55627e-05 -3.60052e-06 4.7867e-06 -4.16978e-06 4.77074e-06 
6.00084e-06 -1.17914e-06 -1.38391e-05 -1.37106e-05 6.84722e-06 -2.05634e-06 -1.71441e-06 -8.37886e-07 -1.70524e-06 
1.60129e-06 5.36382e-07 1.97959e-06 5.23431e-06 -3.01145e-06 -8.96242e-06 -7.59934e-06 -2.01448e-06 9.74926e-07 
-3.98854e-06 -2.93972e-06 -1.89446e-06 -2.26091e-06 -3.9454e-06 -6.67702e-06 -9.0512e-06 5.53834e-06 -8.51648e-06 
-1.79482e-05 5.31821e-06 9.21678e-07 -2.35742e-07 5.11396e-06 -6.26728e-06 -7.88157e-06 5.2439e-06 -2.40449e-06 
-9.45824e-06 -2.74684e-05 -1.26486e-05 -4.4468e-05 5.57591e-05 5.7679e-05 3.09642e-05 -8.72324e-07 -5.15265e-05 
1.51223e-05 1.99726e-05 -7.2619e-06 -1.04019e-05 -2.44478e-05 -1.28226e-05 -1.66649e-05 -2.2691e-06 2.03402e-05 
1.13194e-05 1.34376e-05 -1.38617e-05 3.64231e-05 8.40402e-06 1.52588e-05 -5.05339e-07 3.46079e-05 1.44837e-05 
7.90691e-06 1.65169e-06 -9.82994e-06 2.39953e-05 4.40747e-05 5.72083e-05 8.36597e-05 -0.000108707 -3.59269e-05 
1.48007e-05 -1.0499e-05 -1.56902e-05 4.91456e-05 -6.7649e-05 6.13747e-06 -1.98501e-05 -6.42295e-05 3.77551e-06 
2.91885e-05 2.91681e-06 6.99044e-05 7.41322e-06 -3.65614e-06 9.7544e-06 -1.45033e-05 3.53029e-05 2.42925e-05 
6.84581e-06 -4.3365e-05 7.10974e-06 -6.08947e-05 -6.9954e-06 -6.84459e-06 -7.30958e-06 3.44793e-06 -2.76153e-06 
2.82051e-06 5.89707e-05 -5.1912e-05 3.37124e-06 8.70326e-06 8.70628e-06 9.55273e-07 -3.03584e-05 1.45553e-05 
3.32708e-05 -8.76129e-05 4.47311e-06 -4.55444e-07 -6.50334e-06 1.02952e-05 -1.84501e-05 2.73082e-06 6.42211e-06 
1.12838e-05 -2.53217e-05 1.16436e-05 -2.17871e-05 -6.69859e-06 7.82668e-06 3.30768e-06 5.54224e-07 -4.61977e-06 
2.32718e-06 1.46376e-05 2.32003e-05 -2.81868e-06 5.10956e-06 -2.75699e-06 2.72921e-06 -1.0853e-06 5.59407e-06 
7.76021e-06 -1.50533e-05 -1.34929e-05 -2.49585e-06 3.77571e-05 -6.84875e-06 -2.40684e-06 -3.9445e-06 1.07999e-05 
-6.62688e-06 -2.01011e-05 -1.00108e-05 -1.89618e-05 -3.11795e-05 2.17149e-05 -8.32341e-06 -3.35468e-05 -1.71738e-05 
-3.62179e-06 1.6665e-06 2.95399e-05 2.45023e-05 1.94535e-05 3.37482e-05 -2.3616e-05 -1.10141e-05 -0.000133302 
3.45363e-05 2.36814e-05 1.9493e-05 -6.36865e-06 -1.95167e-05 7.66587e-06 -8.04817e-07 5.97021e-06 -4.17776e-05 
-1.86466e-05 2.86389e-05 2.07884e-08 1.18881e-05 -5.31886e-06 9.90523e-06 1.78881e-05 6.01395e-06 -8.2771e-06 
5.69597e-06 2.569e-05 -2.9537e-05 1.03932e-05 1.06333e-05 3.56732e-06 3.76158e-06 2.14909e-05 2.02061e-05 
2.27702e-05 -4.3378e-06 8.22456e-07 0.000108298 2.05524e-05 1.82556e-05 -3.08646e-05 1.83931e-05 6.46366e-05 
-2.65232e-06 -5.8675e-06 3.48068e-05 -4.41382e-06 1.82955e-05 2.67939e-06 7.4759e-06 -9.11767e-06 2.78312e-05 
4.08672e-06 -2.33119e-06 2.25029e-05 2.68102e-05 -3.17374e-06 -7.16607e-06 -2.53223e-05 1.56163e-05 -3.21081e-06 
-1.79284e-06 3.39928e-06 5.92675e-06 1.08948e-05 2.11961e-05 3.93336e-05 -5.86348e-05 -1.99149e-05 -4.70754e-06 
-2.94169e-05 -1.01504e-05 -7.32533e-05 -1.25293e-05 2.39802e-05 3.51535e-05 -2.51683e-05 1.09594e-06 -5.14299e-05 
5.91567e-05 -1.14381e-05 6.56537e-06 -5.35389e-05 -1.94421e-05 2.40258e-05 -3.10949e-05 1.47082e-05 2.28289e-05 
1.64799e-05 -2.57727e-05 9.57392e-05 -2.7306e-05 2.63817e-05 3.58133e-05 -8.64635e-06 -3.42876e-05 -6.82173e-05 
6.22727e-05 -1.69303e-05 -2.30863e-06 -1.22737e-05 -2.55788e-06 1.34778e-06 -1.50479e-05 -1.24463e-05 8.70836e-06 
2.80353e-05 2.87931e-05 -7.05847e-06 -1.73644e-05 1.07172e-06 -9.71418e-06 -6.53593e-06 -2.67419e-05 -1.23498e-05 
-1.75182e-05 -4.61366e-05 3.35642e-06 9.72132e-06 -1.37666e-05 2.5616e-05 -2.47512e-05 -5.13551e-05 -1.99903e-05 
3.47803e-05 0.00105508 -0.00249748 -2.33402e-05 0.00275912 0.00161685 0.000606023 -0.000121297 -0.000154864 
-0.000457976 -0.00126038 -0.000611546 0.00614476 0.00596441 0.00634888 0.0110296 0.00174284 -0.0205045 
-0.0142794 -0.0148656 -0.0141028 -0.0144861 -0.0140731 -0.0170049 -0.00962778 -0.00489692 -0.00057267 
0.00288588 -0.00103861 -0.000456333 0.00840423 -0.00319992 -0.00410967 -0.00453489 -0.00646309 -0.000884618 
0.0113896 0.00823257 0.00873272 0.0109882 0.0124732 0.0129979 0.0177282 0.00447573 0.00302384 
0.000479823 -0.000388692 -0.000909191 -0.00502263 0.00227388 0.000402424 0.000141545 -0.000525012 -0.00382436 
0.0178492 0.0152366 0.0163918 0.0145734 0.0142622 0.00942794 0.0121511 0.00437987 -0.00395538 
-0.00309707 -0.00436575 -0.00494655 -0.00816381 -0.00142998 -0.00563725 0.00092618 -0.000179046 -0.000297221 
0.00448581 -0.0180788 -0.0205108 -0.0116025 -0.018657 -0.0119257 -0.0122873 -0.0141795 -0.00564585 
-0.000243993 0.00712397 0.00780906 0.0100489 0.0106936 0.000506553 -0.00913769 0.0025893 -0.00219564 
0.00089703 0.000342977 0.00851564 -0.0106927 -0.0126644 -0.0129648 -0.0144136 -0.0161503 -0.0170905 
-0.0205991 -0.0141351 0.00794843 0.00453058 0.00605858 0.00507095 0.00962114 0.000786058 0.00658549 
-0.00152448 0.00148263 -0.000143631 -0.00435803 0.00252576 0.015765 0.0129577 0.0119253 0.0121518 
0.012776 0.0222263 0.0187345 -0.00808822 -0.00680434 -0.00460531 -0.00448927 -0.00871208 -0.00269997 
5.96684e-05 -0.00518922 -0.00477436 -0.00471923 -0.0122323 0.00371319 0.0066027 0.0169547 0.0110153 
0.0153806 0.0116297 0.0146577 0.0131673 0.0200891 0.00251799 -0.000260081 0.000203761 -0.000117477 
-0.00261907 0.00468131 0.00645122 0.00594543 0.00482876 0.0124806 0.00201743 -0.00847858 -0.0143579 
-0.0134995 -0.0148999 -0.0152455 -0.0149267 -0.0236487 -0.0204211 -0.00525022 0.00164735 0.000742906 
-0.000290741 -0.000484197 0.00780504 -6.24649e-08 -8.00828e-08 -0.0197542 0.00590494 -3.40538e-08 -1.06969e-08 
1.70624e-09 1.46464e-08 -1.24432e-08 -1.11714e-08 6.08273e-09 2.00546e-08 -1.21523e-08 -8.79238e-09 5.41793e-09 
1.90252e-08 -0.000817754 0.000662981 -1.48814e-08 6.74921e-09 2.31461e-08 -0.000223539 -1.47067e-08 7.97423e-10 
1.68885e-08 -0.0014324 0.0136219 8.99943e-08 2.9714e-10 5.66906e-08 -3.39857e-09 7.72306e-10 -1.92649e-09 
-3.62447e-08 2.63291e-08 -1.3209e-08 3.8962e-10 4.09139e-09 -4.09668e-08 3.04471e-08 -1.03284e-08 -4.10268e-09 
1.87398e-09 -3.84001e-08 -6.0465e-10 6.82451e-10 3.89166e-08 2.32607e-09 1.07148e-08 -3.79726e-08 2.28375e-09 
3.20288e-08 -2.99067e-10 4.99663e-09 -5.48736e-08 -1.09138e-08 -8.00828e-08 -2.5016e-05 -3.83983e-05 -6.26551e-06 
2.6679e-05 3.50538e-05 4.0722e-05 3.70722e-05 4.25619e-05 3.87052e-05 3.19082e-05 4.35668e-05 4.35375e-05 
2.7067e-05 -3.27433e-06 -2.45826e-07 3.19446e-06 -2.38541e-05 -3.57739e-05 -4.04222e-05 -2.88995e-05 -3.46882e-05 
-3.81596e-05 -3.04825e-05 -2.49336e-05 -2.85635e-05 -2.07462e-05 -5.02122e-06 1.01283e-05 2.00749e-05 4.31096e-05 
0.014688 -0.00328351 3.24946e-05 -0.00133045 -0.000518949 -9.16293e-05 -0.000164785 -0.000205382 -0.000175122 
-0.000141706 3.84735e-05 -1.8796e-05 -0.000124695 -0.000120282 -0.000139148 3.61624e-05 3.38983e-05 3.12258e-05 
6.42845e-05 6.09016e-05 2.48385e-05 -1.96936e-05 0.000158493 0.000168811 0.00010043 5.9366e-05 5.54823e-05 
-0.000102287 -0.000111108 -8.06309e-05 -3.37159e-05 1.57688e-05 -5.15336e-05 -7.46645e-05 -6.91964e-05 -5.35452e-05 
-8.95823e-06 1.21177e-05 3.47804e-05 3.4344e-05 3.43788e-05 4.49743e-05 3.1723e-05 -6.80001e-06 -1.39506e-05 
-2.69282e-05 -1.96458e-05 -5.12141e-05 -4.09914e-05 -4.40893e-05 -4.5948e-05 -3.25163e-05 1.16882e-05 2.53291e-05 
2.26343e-05 2.59616e-05 1.07177e-05 -3.79265e-06 -6.13909e-06 4.83133e-05 8.35338e-05 9.08259e-05 -6.30559e-06 
8.45108e-06 8.92176e-06 -1.35683e-05 -1.27868e-05 2.71607e-06 8.40938e-06 -0.000117739 -0.000151921 -0.000167417 
-0.000108444 3.91579e-05 4.22644e-05 7.84592e-06 -5.5963e-05 1.29819e-05 0.000107245 8.60636e-05 -1.02254e-05 
-3.59439e-05 4.38581e-06 0.000166015 0.000165572 1.44299e-05 1.51894e-05 0.000613299 0.00124376 0.00170094 
0.0216931 -0.00252458 -0.00767336 -0.0131824 -0.015286 -0.00988 -0.0134571 -0.0132892 -0.0139197 
-0.0127028 -0.0147174 -0.0228694 -0.0189014 0.0173984 0.0196982 0.0172083 0.0138309 0.0127826 
0.0123932 0.0125629 0.0122868 0.0102421 0.0110376 0.00991469 0.00967408 0.0107303 0.0104361 
0.0128872 0.012381 0.0126522 0.00907526 0.00974075 0.0129088 0.0180017 0.0118045 -0.0151173 
-0.019806 -0.0154053 -0.00933027 -0.010128 -0.0123534 -0.0113076 -0.011555 -0.0110637 -0.0150933 
-0.0113141 1.75625e-05 2.6168e-05 -8.43344e-07 -1.48136e-05 -2.91642e-05 -4.16186e-05 -3.16947e-05 -3.67829e-05 
-2.55696e-05 -1.01455e-05 -1.67736e-05 -1.13336e-05 1.2228e-05 9.92484e-06 2.44654e-05 3.7158e-05 2.86878e-05 
2.79153e-05 2.52095e-05 1.54999e-05 1.68309e-05 1.65815e-06 -1.87305e-05 -3.51101e-06 -0.00120273 0.00628797 
0.00093795 0.00034499 0.000237093 0.000179399 0.000115972 6.02146e-05 3.48097e-05 7.78833e-05 5.82445e-05 
2.64432e-05 3.18128e-05 7.73216e-05 4.07524e-05 -4.00899e-05 -0.000124585 -4.06456e-05 -0.000143942 -0.000114408 
-1.81205e-05 5.1165e-05 2.02976e-05 5.62104e-05 6.0144e-05 2.10474e-05 4.36056e-05 4.66555e-05 2.10898e-05 
1.37624e-06 1.00463e-05 7.98056e-06 -1.78447e-05 -3.61885e-05 -3.64286e-05 -1.36661e-05 -3.44548e-05 2.59256e-05 
-2.36136e-05 7.38581e-06 3.41327e-05 2.63697e-05 3.28975e-06 9.28564e-06 4.91071e-06 -1.62814e-05 -2.52143e-05 
-2.08576e-06 -1.4653e-05 -4.3645e-05 -2.94899e-05 -4.19196e-05 -2.57518e-05 -1.2314e-05 2.76955e-05 7.36245e-05 
2.49796e-05 0.000108302 9.61974e-05 1.04348e-05 3.08891e-05 -1.40422e-05 -4.8333e-05 -6.39808e-06 -4.08554e-05 
-6.716e-05 -1.98681e-05 -3.13357e-05 -9.9613e-05 -0.000136736 -2.70631e-05 -0.000413372 -0.00133554 -0.00736459 
-0.0069392 0.00918677 0.010511 0.010396 0.014776 0.0133074 0.0134797 0.0147071 0.0160764 
0.0187674 0.0216122 0.0252734 -0.0274418 -0.0250956 -0.0145763 -0.0129509 -0.0127486 -0.0126282 
-0.012555 -0.0134152 -0.0115645 -0.0154862 -0.00597496 -0.0102678 -0.0160613 -0.0149731 -0.0136856 
-0.013231 -0.0135429 -0.0142435 -0.0166559 -0.0207093 -0.0202398 0.0186589 0.0258236 0.0188221 
0.0174848 0.0142849 0.0128767 0.0128849 0.0101262 0.0148509 0.00728952 0.00820207 1.46727e-05 
2.05053e-05 -0.00214071 0.00124703 0.00333658 -0.00681185 0.000897675 -0.000726415 -0.00595103 0.000139549 
-0.000847828 -0.000336452 -0.00279375 0.00135121 0.00374997 -0.00797444 -0.0116432 -0.00260981 0.00101668 
0.00410094 0.00504354 0.00428734 0.00309028 -0.00105105 0.00505721 0.00567351 0.000547205 -0.00937983 
-0.00671842 -0.0100373 -0.011351 -0.0118242 -0.0104869 -0.00738575 0.00384452 -0.0108692 0.00482888 
-0.00355687 0.0006458 0.00494178 -0.00734676 0.00132366 -0.013644 -0.013017 -0.00288806 0.00484826 
0.00106431 -0.00529233 -0.0097564 0.0049927 -0.0020724 0.00299735 0.00229035 0.00284822 0.00468127 
4.50017e-05 0.00471401 0.000736563 0.00207485 0.00217935 0.00116175 0.00308277 -0.000766769 -0.000938968 
-0.000256032 -0.00522422 -0.00371384 -0.00326594 -0.00357902 -0.00638149 0.00186077 0.00501472 0.00551675 
0.00487124 0.00251356 0.00548537 0.00834819 0.00649614 -0.00541356 0.0102659 0.000701297 0.00144157 
-0.00278744 -0.000631763 -0.00291413 0.00208489 -0.00131019 0.00915426 0.0115371 -0.000402056 0.0129815 
-0.00569207 0.00842327 0.000160903 -0.00142826 -0.00286942 -0.00958823 -0.00148023 0.00165169 0.000427416 
0.00120511 0.000325669 0.00252241 0.00160524 -0.00555143 -0.00141157 -0.00401708 0.00840465 0.00358339 
0.0127826 0.00789332 0.00496136 0.00631657 -0.00444353 0.00923882 0.0107403 -0.0146233 0.0189006 
0.0194118 -0.00937781 -0.00330236 -0.00363045 -0.00445362 -0.00488389 0.00156518 0.0136851 -0.0034873 
-0.00669286 0.0123936 0.0108943 -0.00378884 -0.00135654 0.0116711 -0.00383223 0.000893428 -0.00140655 
-0.00246292 -0.000769375 0.00278655 -0.00608712 -0.000765151 -0.00375532 0.000749203 -0.00233196 -0.00248421 
0.000536344 0.000484816 0.00341239 0.00553095 0.00123146 0.00310707 0.00595556 -0.000326423 -0.0105676 
-0.0103727 -0.0180997 -0.0190419 0.00911875 -0.0125722 -0.0106628 0.00333291 -0.0149468 -0.0161407 
0.00251617 -0.00420179 -0.0061788 0.0035655 -0.00706528 0.0103923 0.00559437 0.00542664 0.00662386 
0.00648326 -0.000926791 0.00798464 -0.00359158 -0.00270196 0.00830637 -0.00602718 -0.00434414 -0.00476796 
0.00129443 0.00483269 0.0024088 0.00944435 0.00797244 0.00159779 -0.000928446 -0.000513772 0.000800347 
0.00148059 -0.00100144 -0.000359794 0.000634442 -0.000396678 -0.00134563 0.00211065 -0.000176566 0.00136057 
-0.00331857 0.0022123 -0.00112385 -0.00947379 -0.00711403 -0.00997432 -0.0124841 -0.0115416 0.00505892 
-0.0115535 -0.0118213 0.00320986 -0.0137981 -0.0121529 0.0034459 -0.0108952 0.00614948 0.00578156 
0.00427586 0.00365196 0.00100723 -0.0160466 -3.15456e-05 0.00638694 -0.0123173 0.00461857 0.000490684 
0.00517641 0.0115526 -0.0153677 0.00461061 0.00137793 0.00368181 0.00418942 -0.0156651 0.0072058 
-0.000206916 0.00333656 1.86037e-07 -0.00157136 0.00225836 -0.000134597 0.000863155 0.0021101 0.00394021 
0.00317484 -0.000307312 -0.000606249 -0.00551434 0.00173282 0.00134792 0.013904 0.00830356 0.00925631 
0.00497937 0.00575235 0.00610376 0.00726095 -0.00530792 0.000844414 -0.00488191 -0.00652715 -0.00541244 
-0.000497578 -0.00071877 -0.00740824 0.00953146 -0.00506153 -0.0045101 -0.0091205 0.00598664 0.0193451 
-0.0160426 0.00450309 0.00470495 0.018861 6.54755e-05 -1.49649e-05 0.000383715 -0.00440862 -0.00494212 
-0.000264784 -0.00997711 -0.0042163 0.00148215 -0.00297953 0.000717823 -0.00438252 -0.001538 -0.000488438 
-0.00289357 -0.00186479 -0.0018441 -0.00492473 -0.00565856 0.00161447 -0.00889304 -0.00490004 -0.00163434 
0.0116508 0.0147229 0.0170275 0.0101219 -0.00371933 0.00518323 0.00304899 -0.00296569 0.0115948 
0.0105403 -0.00393284 0.00954448 0.0106976 -0.00128931 -0.00167537 -0.0087386 0.00167021 0.00485267 
0.00130089 -0.000319691 0.00235187 -0.00611136 -0.000887853 0.00653199 0.000177156 -0.00052322 -0.00470438 
-0.00269826 9.28551e-05 -0.000416439 -0.000768326 0.00965466 0.00587321 0.00518253 0.00223268 0.00166136 
-0.00234521 0.00406895 0.00659559 -0.00189581 -0.00369445 -0.0122317 -0.00467834 -0.00645882 0.00242009 
-0.00828391 -0.0117021 -0.000148996 -0.0110315 -0.0084091 0.0052421 -0.00709824 -0.0108298 0.00263121 
-0.0134112 -0.00904118 -0.00198509 0.00156122 -0.00344366 0.000888561 0.00151182 0.00260528 0.0139409 
-0.0168349 0.00460324 0.0039648 0.00693653 0.00181575 -0.0190276 0.00632747 0.000821103 -0.00211103 
0.000946434 -4.87227e-05 0.0022756 -0.000727789 0.00154429 0.00238126 -0.000868847 8.95624e-05 -0.000145191 
1.37647e-08 -1.6168e-08 -0.00247711 -0.00058704 1.6619e-09 -0.0122472 0.0169801 -0.0141512 0.0164696 
-0.0142729 0.0144286 -0.0137182 0.0138324 -0.00956846 0.0147894 -0.0127308 0.0147838 -0.0153463 
0.0126449 -0.0151199 0.0119369 -0.012433 0.0146981 -0.013773 0.0160999 -0.0167771 0.0145724 
-0.0163217 0.0155961 -0.00160219 -3.5349e-10 1.29855e-09 0.00215514 -0.0145457 0.0150093 -0.0157629 
0.0128935 -0.0162657 0.0103239 1.83708e-09 0.00178299 -0.0154774 0.0138671 -0.0178593 0.0138628 
-0.000648446 -5.1377e-09 -0.014104 0.0130436 -0.0008356 -0.00171984 -0.000585514 -8.07666e-05 -0.0013137 
-1.40567e-05 -5.07053e-06 -4.04584e-06 2.2747e-05 1.17096e-05 8.13403e-06 3.14203e-06 1.06051e-06 4.12274e-06 
4.77546e-06 -5.37189e-06 -2.14768e-06 -4.33553e-07 -6.01336e-06 -1.84669e-06 1.01405e-05 1.50201e-05 -2.21259e-06 
6.17175e-06 1.24875e-05 6.53434e-06 1.06779e-05 6.99654e-06 1.50752e-05 1.42897e-05 1.69997e-05 4.96925e-06 
-1.59932e-05 -6.32521e-06 -2.74791e-06 -1.20744e-05 1.65284e-06 7.64752e-07 5.41929e-06 -5.76222e-07 8.10975e-06 
1.80337e-05 3.05605e-05 -7.54069e-06 -2.45061e-05 4.87149e-06 -4.57643e-06 -3.77373e-05 -1.15189e-05 -1.87661e-06 
-9.09708e-07 -6.66462e-06 6.9769e-06 -1.75202e-06 9.65775e-06 -7.80996e-06 7.34057e-06 1.24814e-05 -9.47668e-07 
-1.54653e-05 -1.41463e-05 2.87139e-06 -7.01231e-06 -1.24192e-05 -4.57864e-06 -9.91056e-06 -8.0115e-06 -1.0415e-05 
-8.91061e-06 -5.65373e-06 -4.19033e-06 2.18301e-06 -9.36727e-06 8.27303e-06 1.40803e-05 -4.47214e-07 3.58362e-06 
-3.17371e-06 -1.33815e-06 -8.80378e-06 -7.8948e-06 -1.3802e-05 -2.45058e-06 -1.76425e-05 -1.93287e-05 -6.31771e-07 
1.92375e-05 -4.8735e-06 5.60946e-06 1.60584e-05 -5.68981e-06 -1.26014e-05 -1.32711e-05 -7.35301e-05 -0.00359634 
-0.000255996 0.000297198 3.31724e-05 0.00106967 -0.000212128 7.80759e-05 -2.06352e-05 -8.01735e-05 0.000124544 
-4.17351e-05 7.47787e-05 -7.15529e-06 9.15761e-06 5.83473e-06 8.95476e-06 0.000202534 3.8308e-05 3.53471e-05 
9.83707e-06 -2.78545e-05 -1.57388e-06 -3.27148e-05 -2.52624e-05 7.0875e-06 8.08649e-06 -6.85681e-06 3.56193e-05 
-5.77544e-06 5.07471e-05 3.48951e-05 5.29755e-05 -6.59132e-06 1.98269e-05 5.33197e-05 -3.26921e-05 -6.1686e-06 
-1.79546e-05 -4.80484e-05 -1.98484e-05 -1.20541e-05 4.48848e-06 1.91061e-05 -3.76608e-05 3.95445e-05 5.47932e-05 
6.47317e-05 1.15985e-05 4.73602e-05 6.44683e-05 8.65909e-06 3.51187e-05 3.80297e-05 -4.50456e-05 -2.34418e-06 
-1.48183e-05 -4.85738e-05 -5.14567e-05 -8.68634e-05 5.83563e-05 -5.7043e-05 -5.37025e-05 -3.60607e-05 -1.10065e-05 
-1.78869e-05 -2.10431e-06 -1.67993e-05 -4.13663e-05 1.09123e-05 1.49929e-06 -2.80822e-05 4.38873e-05 1.56865e-05 
3.79725e-05 4.94887e-05 3.41109e-05 6.26551e-05 -4.05275e-06 -2.81272e-05 4.27495e-05 -1.3797e-05 -2.98467e-05 
-2.73182e-05 1.48059e-05 -6.11606e-06 -3.29463e-06 1.53691e-05 3.00968e-05 3.43694e-05 2.11449e-05 -8.13369e-06 
2.82684e-05 6.92656e-06 -4.45611e-06 -5.15851e-07 -3.66802e-06 -1.73793e-06 1.8611e-05 4.09881e-06 -2.21445e-07 
3.95029e-06 -1.11456e-05 3.32594e-06 -2.49582e-06 4.03441e-06 -1.67586e-05 -5.73034e-06 2.03894e-06 2.71397e-06 
-1.61888e-05 1.16632e-05 1.57807e-05 1.36988e-05 5.46604e-06 1.27775e-05 1.38736e-05 1.49508e-06 5.7101e-06 
7.1838e-07 -3.2101e-06 8.19292e-06 -1.02086e-05 -2.93433e-06 -1.30208e-05 -3.07283e-06 -1.68924e-05 1.62589e-05 
-1.28704e-05 -8.72327e-06 -1.86788e-05 3.28254e-07 -4.32397e-06 -1.72718e-05 3.07591e-06 -4.44206e-06 -7.73596e-06 
8.21616e-06 -1.86917e-06 1.02683e-06 9.72927e-06 -5.00023e-06 -7.03183e-06 5.0504e-06 -1.26475e-05 -3.95762e-06 
-4.49041e-06 2.58885e-06 3.31963e-06 -9.38748e-06 9.22404e-06 1.30565e-05 1.26794e-05 2.45659e-06 6.39113e-06 
1.08148e-05 2.78352e-07 5.64423e-06 -9.859e-07 -5.13383e-06 -8.51407e-06 -5.12211e-06 1.20007e-05 -1.23186e-05 
-4.57437e-06 1.53676e-05 -1.78199e-05 -2.29247e-07 -1.59573e-05 -7.52691e-06 -1.52376e-05 7.96968e-06 2.40169e-06 
-2.35978e-05 2.08917e-05 1.56837e-05 1.38247e-05 1.2419e-05 2.53709e-05 9.77479e-06 -2.45969e-06 -1.25083e-05 
1.50473e-05 -2.48691e-06 -2.27032e-05 -4.839e-05 7.48361e-07 -2.00276e-05 -2.17788e-05 9.60356e-06 -7.17072e-06 
4.72545e-06 2.96665e-05 2.71799e-05 2.72332e-05 -3.69982e-05 2.6927e-05 3.66964e-05 2.48928e-05 3.22439e-06 
1.11665e-05 -1.02184e-05 3.94576e-06 5.02614e-05 -8.51588e-06 -2.22603e-05 1.45033e-05 -5.1841e-05 -2.58539e-05 
-6.612e-05 1.70506e-07 2.57412e-05 -3.55101e-05 7.34437e-06 4.20797e-05 6.90446e-05 -1.04563e-05 2.9101e-05 
1.8557e-05 -4.94022e-05 -3.86404e-05 -3.26166e-05 3.33138e-05 -1.67846e-05 -3.84743e-05 3.27574e-06 3.97352e-05 
2.19201e-05 -7.37917e-07 3.10714e-05 1.16575e-06 -3.63384e-05 -3.2026e-05 -1.22432e-05 -4.184e-05 -2.46037e-05 
-3.21595e-05 4.46089e-05 -2.75224e-05 -1.91307e-05 -3.33965e-05 3.16979e-05 -1.12133e-08 -5.81531e-06 3.05142e-05 
-1.929e-05 -5.60425e-05 -5.63706e-05 -5.89966e-06 6.43097e-05 -6.45366e-05 -8.62334e-05 -9.32346e-05 7.07178e-05 
-1.44347e-05 3.14233e-05 0.00011616 -4.35291e-06 5.15262e-06 -0.00028092 -0.000104141 0.00264839 0.0141184 
-0.0023278 -0.0139273 0.00933669 -0.00399576 -0.00695198 -0.00306841 -0.00107258 0.00243561 0.0012837 
-0.00259723 0.00277308 -0.00102994 -0.000879228 0.000484956 -0.001749 -0.000263041 0.00132916 0.00328514 
-0.000156595 -0.00232893 4.7612e-05 0.00106643 0.00353616 0.00206609 -0.00146453 0.00159227 -0.000295473 
-0.00121717 -0.000286961 -0.00337965 0.000182678 0.000768085 0.00345834 0.00131003 -0.00287546 -0.000114173 
-0.000238501 0.00354304 0.00230429 -0.00154703 0.00241694 -0.000632685 -0.000368785 0.000221364 -0.00283264 
0.000516016 0.00167231 0.00292244 0.000431709 0.00033485 -0.00117679 0.000527361 0.000715975 -0.000120355 
0.000611766 -0.00317959 -0.0023608 -0.00195607 0.000214641 -0.00168131 0.00100418 -0.00144984 -0.00350621 
0.000842459 0.0010815 0.00264144 0.000473418 0.000324791 -0.000376151 -3.30442e-05 -0.00215575 -0.00104923 
-0.00101633 0.00173933 -0.000801999 0.000229424 0.000727814 -0.00298423 0.00081971 0.0037916 0.00466234 
-8.77809e-05 0.000674879 0.00190482 -0.000294819 -0.00806084 -0.0088887 -0.0073891 -0.0073267 0.00492273 
-0.00877511 -0.00898052 0.003199 -0.00524498 -0.00531505 0.00484074 -0.00757152 -0.00910479 0.0048534 
-0.00715015 -0.00730611 0.00269392 -0.00720352 -0.00698878 0.00286875 -0.00468585 -0.00349239 0.00451543 
-0.00469281 -0.00400574 0.00727325 -0.0167394 -0.0090183 0.00763981 -0.0201139 -0.0140278 0.00563993 
0.00623847 -0.000499821 0.00348585 0.00647473 -0.0120928 0.00606413 0.00793967 -0.00561987 0.0060535 
0.00634109 -0.00459768 0.00600591 0.00590117 -0.0035794 0.00616808 0.00600687 -0.00302556 0.00844163 
0.00640437 -0.00243923 0.00547614 0.0045425 -0.00447159 0.00533687 0.00466245 -0.00567498 0.00135338 
0.00413381 -0.00624912 0.00768566 0.00547595 -0.00423483 0.00339219 0.00312794 0.0037477 0.00295068 
-0.00609232 0.00714132 0.00947382 -0.00506174 0.00566954 0.00655281 -0.00259767 0.00561648 0.00573103 
-0.00308775 0.00680439 0.0057702 -0.00354426 0.00822034 0.00717103 -0.0033268 0.00971767 0.00757606 
-0.00381884 0.0102205 0.00897867 -0.00496592 0.00515205 0.00101308 -0.00847311 0.00278726 0.0038544 
-0.0141919 -0.00930612 -0.00012826 -0.00446131 -0.00688749 0.0102144 -0.0046805 -0.00514538 0.00878515 
-0.00449533 -0.0040938 0.00613034 -0.00226299 -0.00377204 0.0054541 -0.00700502 -0.00544444 0.00313717 
-0.00471275 -0.00362699 0.00430534 -0.00527697 -0.00363086 0.00523531 -0.00265547 -0.00535265 0.0056543 
-0.0107909 -0.00875916 0.00442031 -0.00987115 -0.0102187 0.00281175 -0.00548528 -0.00125308 -0.0127231 
-0.00161108 -0.00132105 -0.013555 0.0121289 -0.00762788 0.00768715 -0.00379933 8.0699e-05 0.00887474 
-0.00108005 0.00618537 -0.00569184 -0.00503366 0.00150304 -8.40091e-06 0.002348 0.00195815 -5.13827e-06 
-6.91214e-06 -7.07263e-06 -2.20588e-05 3.48623e-06 -1.52684e-05 -2.48432e-05 -7.23274e-06 -1.12212e-05 -1.40829e-05 
-9.42697e-06 -1.0585e-05 -2.12377e-06 -9.52092e-06 -8.2204e-06 -6.30206e-06 1.40478e-05 8.208e-07 -3.23951e-06 
1.21528e-05 -1.22384e-05 -5.94385e-06 -8.87739e-06 -2.84748e-05 -1.3614e-05 -1.4136e-05 -3.00803e-05 -1.29785e-05 
-1.08751e-05 1.3555e-05 2.24459e-05 7.63204e-06 1.04978e-06 1.31515e-05 3.81318e-06 -1.41687e-05 7.53706e-06 
1.70215e-06 -1.89271e-05 -1.00865e-05 -6.64007e-06 1.11193e-05 2.58621e-05 -3.39714e-06 1.24641e-05 2.45025e-05 
1.10586e-05 4.61999e-06 1.07942e-05 1.25923e-05 1.99966e-06 -1.75894e-06 8.4627e-06 5.10019e-06 3.17592e-06 
-2.37933e-06 2.87828e-06 1.27025e-05 -6.74648e-06 1.39571e-05 3.52585e-06 8.0844e-06 1.82003e-05 1.08663e-05 
8.18656e-06 1.86338e-05 6.16421e-06 4.17366e-06 -7.96729e-06 -3.08171e-06 -8.71871e-06 5.10489e-06 2.91401e-07 
-3.31371e-06 3.89208e-06 6.31867e-06 -8.33808e-06 -7.03948e-07 0.000696774 0.00238527 0.000328436 -1.01133e-05 
0.000907247 3.00798e-05 4.57993e-05 0.000241803 0.000154124 1.09758e-05 0.000114834 0.00013147 0.000111546 
9.52726e-05 7.18396e-05 4.86093e-05 1.35847e-05 5.71555e-05 -4.15275e-06 7.5012e-05 5.66212e-05 3.46824e-05 
3.29353e-07 1.25908e-05 1.96103e-05 -7.30293e-06 -6.47997e-06 3.18977e-05 1.3879e-05 -2.52168e-05 2.50185e-05 
3.10901e-05 2.89811e-05 -9.23378e-06 4.59508e-05 3.68477e-05 1.00455e-05 -2.0085e-05 8.0164e-06 -1.10195e-06 
-4.43716e-05 -2.05204e-05 3.51126e-05 6.73704e-06 -4.43517e-05 3.56366e-05 1.89665e-05 3.65366e-05 1.70819e-06 
2.29059e-05 2.57716e-05 -7.18224e-05 3.26915e-05 -2.41908e-05 -2.5547e-05 -1.89887e-05 -6.13211e-06 -6.77723e-06 
-2.60075e-05 -4.81712e-05 -1.4686e-05 -1.94469e-05 4.57166e-05 -1.8757e-05 -1.73878e-05 -5.10294e-06 -2.36599e-06 
1.47823e-05 -7.81152e-05 3.47386e-05 -2.29986e-05 -1.22988e-05 2.505e-05 1.72398e-05 1.4895e-05 -2.24505e-06 
2.14059e-05 2.67581e-05 -3.62395e-05 -4.13747e-06 -2.19269e-05 9.05518e-06 -2.44347e-05 2.23748e-06 1.50889e-05 
1.55132e-05 4.43097e-06 1.13555e-05 2.3404e-05 1.16796e-05 -6.55183e-06 4.74755e-06 3.21174e-06 6.1517e-07 
1.19135e-05 -1.19374e-07 5.34023e-06 -2.40878e-06 9.91732e-06 -1.45105e-06 1.32436e-05 1.12789e-05 -4.26474e-06 
9.94603e-06 6.23219e-06 6.13615e-06 -1.08796e-05 -5.07469e-06 5.38048e-06 9.28405e-07 -1.17139e-05 8.28414e-06 
-1.05166e-06 9.72122e-06 4.79905e-06 -2.52776e-06 6.42135e-06 -1.41677e-06 -3.49022e-06 2.91794e-06 -1.26499e-05 
-6.79524e-06 -1.3363e-05 3.34411e-06 -7.30726e-06 -3.39741e-06 -1.10352e-05 1.57678e-05 1.49409e-05 -1.7277e-06 
-0.00482898 -0.00159662 0.000191599 0.000433851 -0.00032141 -3.11196e-06 -2.56282e-06 -7.45581e-06 -2.90329e-07 
6.80001e-06 1.67514e-06 -4.01131e-06 8.55026e-06 1.13477e-06 1.12415e-07 1.29258e-06 7.85322e-06 -7.43018e-07 
-4.68841e-06 1.50059e-06 6.98685e-06 2.62058e-06 -6.7626e-06 7.81089e-06 1.92218e-06 8.68723e-06 8.89179e-07 
1.63515e-06 2.1842e-06 -1.04487e-05 -3.2096e-06 -6.78325e-06 -3.48409e-06 -3.34552e-06 -6.63644e-08 -1.06987e-05 
-3.33933e-06 1.36546e-06 -1.05568e-05 8.60447e-07 1.52243e-06 -2.44372e-06 -1.27349e-05 -6.54922e-06 4.26457e-06 
-2.1195e-05 -1.71297e-05 -1.25059e-06 5.19e-07 -7.52714e-06 -3.50923e-06 2.30784e-05 1.12242e-05 -2.16182e-05 
-3.88426e-06 2.15197e-05 -5.29764e-06 -1.25932e-05 -1.83147e-05 1.24358e-05 -4.13599e-06 -5.09788e-06 4.31685e-05 
-1.12769e-06 2.43004e-05 8.92667e-06 3.20149e-05 1.1304e-05 1.8135e-05 5.9887e-07 6.44027e-06 -4.82168e-06 
2.83477e-05 4.66933e-06 4.48008e-06 7.94035e-06 2.6838e-05 -3.37443e-05 2.11742e-06 9.02789e-06 -1.14199e-05 
-2.56007e-05 -1.33518e-05 3.90406e-05 -8.86055e-07 -4.26738e-05 1.49319e-05 1.2592e-05 1.96069e-05 -3.64714e-05 
2.12649e-05 -1.20383e-05 -1.78198e-05 -4.9129e-05 1.14657e-06 2.64053e-05 1.06161e-07 -1.11484e-05 1.85499e-05 
1.3736e-06 1.20876e-05 -2.17049e-05 1.39558e-05 -1.2093e-05 -2.1764e-05 -1.64741e-05 4.83303e-06 -2.06998e-05 
-6.14751e-05 -6.35314e-06 -1.64361e-05 -2.85679e-06 -2.38157e-05 2.0176e-06 -1.99502e-05 -1.77397e-06 -4.95295e-05 
-2.74849e-05 -3.42837e-05 -2.39303e-05 -6.13043e-05 2.29307e-05 -0.000107845 3.25247e-06 -4.27543e-05 -0.000130858 
-0.000106327 -9.21779e-06 -0.000427328 -0.000254002 -0.000406519 -0.000409153 0.00276743 0.0010533 0.00358 
0.00177172 0.000699312 0.0012063 -0.000173908 0.000624355 0.000511026 -0.000778783 0.000119235 -0.000379393 
-0.000808779 -0.000479663 -0.00036955 0.000679454 -0.000329936 3.43719e-05 -5.4452e-06 0.000300404 -0.000331714 
7.97464e-05 0.000506531 0.000377648 -0.000384863 0.000100897 0.000124284 -0.000793403 -0.000394012 -0.000726808 
0.000881918 -0.000478387 0.000544029 0.000106165 2.88814e-05 0.00118703 0.000124898 0.000807245 0.000416509 
-0.000387749 0.000339251 0.000125307 -0.00161977 -0.000439947 -0.00119815 0.000817877 -4.803e-05 -0.000418554 
0.000825483 0.000172688 -0.00158581 0.00130754 -0.000231699 0.00236862 -0.000141903 3.18188e-05 0.000333563 
-3.19599e-05 0.000348394 0.000145722 -0.00163685 -0.000452534 -0.00142289 0.000438093 -0.000163142 -0.00155843 
0.000852093 -7.45186e-05 0.00112994 0.000443939 9.86502e-05 0.000572256 2.82458e-05 0.00044696 0.000579458 
-0.00335731 -0.000265451 0.00138092 0.00273781 -7.30516e-05 -0.00525569 -0.00134409 0.0030776 0.00196108 
0.000520356 0.000802821 0.000661975 5.03305e-05 0.000832754 0.000866258 -0.000292172 0.00116053 0.000341823 
-0.000388685 0.00114968 0.000709944 -2.2941e-05 0.000647563 0.00177327 -8.78666e-05 0.00400746 0.00138124 
-0.00015178 0.00761532 0.00646036 0.000922203 0.000335524 0.000533544 -0.00104594 -0.00164309 -0.00262101 
-0.00307887 6.92405e-05 -0.000819878 -0.00185301 -0.0010463 -0.000384132 -0.000838621 0.000135253 -0.000492005 
-0.000523823 0.000312795 -0.000801482 -0.000536316 0.000330939 -0.00140379 -0.000706873 3.8178e-05 -0.00122395 
-0.00130618 -0.000184382 -0.000235586 -0.000918487 -0.000394886 -0.00172288 -0.000902571 0.00206297 0.00131853 
-0.00119556 -0.000613133 -0.00109149 -0.000383206 -0.000256866 -0.000243829 -0.000804579 -0.000617367 -0.00114864 
-0.0014597 0.000141436 -0.00128222 -0.00140181 9.83051e-05 -0.00177216 -0.00121332 0.000116263 -0.0029142 
-0.000912751 0.000144611 -0.00318336 -0.00183888 0.000223893 -0.00353538 -0.00362477 3.85854e-05 0.000613151 
-0.00241271 0.00111804 0.00233161 0.0027851 0.000789291 0.0001575 2.01475e-05 0.000716084 0.000711881 
0.000711708 0.000523969 4.77948e-05 0.000490679 0.000525899 -0.000142939 0.00139147 0.000366159 -1.44629e-05 
0.001099 0.000874275 -3.63621e-05 0.00139138 0.00053575 -0.00014412 0.00271303 0.00305965 0.000181979 
0.000543481 1.32997e-05 -0.00184099 -0.0016124 -0.000150253 -1.65212e-05 -0.000672043 -0.000680418 0.000412516 
0.000446327 0.000874592 0.00108072 0.000319123 0.000188713 0.00449338 0.000220989 -3.00566e-05 9.73287e-08 
-0.000402136 0.00013281 -0.00206987 0.000490331 -3.40234e-06 0.000706354 -0.00239308 0.00217776 -0.00015222 
0.000211783 -0.00116578 -0.000382467 0.00163083 0.000335706 -0.000180448 0.00141582 0.000453094 -0.000281497 
1.70368e-07 0.000227282 1.41219e-06 -6.98926e-06 -9.56781e-06 -1.13904e-05 -4.81299e-06 -8.96632e-06 -8.37134e-06 
-6.60775e-06 -4.69301e-06 -1.29468e-06 -5.87779e-06 3.06345e-06 -2.09752e-06 2.05197e-05 -1.26089e-05 -7.75924e-06 
-4.70267e-06 -1.39726e-05 -1.00064e-05 -1.02295e-05 -7.27771e-06 1.06971e-05 -1.36988e-05 4.79415e-07 -7.57489e-06 
-7.53656e-06 -8.30486e-06 3.19384e-06 5.26672e-06 -1.24605e-05 -1.0894e-05 3.85083e-06 -1.39324e-05 1.25731e-05 
4.60541e-06 1.58981e-06 -1.81773e-06 -1.05468e-05 -4.86213e-06 9.71851e-06 6.89286e-06 1.23307e-05 1.48151e-05 
9.09555e-06 3.31748e-06 1.27105e-05 9.46574e-06 1.18136e-05 1.62699e-05 5.85979e-06 1.16901e-05 9.79244e-06 
-2.23724e-06 1.28595e-05 9.75978e-06 1.23547e-06 1.23466e-05 9.31711e-06 7.0792e-06 1.2016e-05 2.77082e-06 
5.08132e-06 -2.32555e-07 2.87117e-06 -1.1213e-05 -6.39582e-06 -4.15941e-06 -4.8558e-06 -5.17864e-06 -4.15084e-06 
6.93914e-07 2.9245e-06 6.64791e-05 0.000323175 1.30596e-05 -6.56308e-05 5.99011e-06 -0.000115906 0.000156399 
0.000242723 -0.000150352 0.00104331 4.47652e-05 0.000320341 0.00026955 3.83597e-06 0.000105036 3.85469e-05 
-1.83527e-07 2.63184e-05 4.04237e-05 1.66054e-05 4.73996e-05 -2.31439e-07 -9.36308e-07 8.0251e-05 -3.37799e-06 
2.88749e-05 2.53348e-05 2.15384e-05 1.95712e-05 -3.01489e-05 -7.25285e-06 2.00073e-05 -1.58432e-06 -1.41386e-05 
4.95253e-06 1.12573e-05 1.18716e-05 -3.75517e-05 4.42041e-05 -2.75163e-06 2.2577e-05 1.04649e-05 8.87158e-06 
1.17004e-05 -6.12341e-05 -1.65586e-05 2.26829e-05 -2.53753e-05 -3.64256e-05 -1.09911e-05 -2.62173e-06 1.12987e-05 
-5.7211e-05 5.5633e-05 -2.07637e-05 -1.075e-06 -2.09663e-05 6.85936e-05 3.2879e-05 2.368e-05 -1.69459e-05 
5.99029e-05 -1.73973e-05 7.83483e-05 -8.32208e-06 -4.42562e-06 -8.4672e-05 -5.50323e-05 -1.28009e-05 -0.000103027 
-6.46969e-07 -2.87658e-05 -8.72304e-05 4.24554e-05 -4.50099e-05 -1.0583e-05 -1.06899e-05 3.00582e-05 1.57044e-05 
-4.2797e-05 9.68062e-06 2.86755e-06 3.0165e-06 -2.55144e-05 -4.86931e-06 1.33919e-05 -1.47865e-05 4.89932e-06 
-6.1255e-06 1.87063e-06 -2.59888e-06 -2.1046e-06 1.36706e-05 -7.41042e-07 -6.64116e-06 4.18418e-06 -2.48522e-06 
7.56076e-08 -2.36216e-06 9.8634e-07 -2.0831e-06 4.16372e-06 1.89138e-06 -8.49053e-06 1.42844e-05 -3.59461e-06 
-1.23992e-06 3.77528e-06 2.94536e-06 9.66441e-07 -9.55324e-06 -4.31072e-06 1.38537e-06 -8.40579e-06 -9.80419e-06 
1.09462e-06 -5.33667e-06 6.70193e-06 -5.2369e-06 -3.44926e-06 3.41932e-06 -6.57249e-06 4.55986e-06 8.3542e-07 
1.32538e-05 -3.12782e-06 2.19835e-06 1.84263e-06 -9.64151e-06 0.000454483 0.000413757 -3.80878e-06 -2.8644e-06 
7.93099e-07 -1.25553e-06 5.88559e-06 -2.8797e-06 1.61493e-06 6.95782e-06 3.06594e-06 -5.68464e-06 1.56906e-06 
3.50562e-06 -2.52109e-06 -8.29126e-06 -1.81399e-06 -7.84231e-07 4.23376e-06 -6.0092e-06 4.39034e-06 -8.52959e-08 
1.8633e-06 -2.79916e-06 -5.07954e-06 2.20316e-06 6.8253e-07 2.64258e-06 2.85457e-06 9.71359e-06 7.36429e-07 
-9.19652e-06 2.33029e-06 -9.19789e-08 -4.94874e-06 -1.39388e-06 -1.40044e-06 1.06212e-05 -3.31953e-05 -7.39381e-06 
-5.45511e-06 -2.47132e-06 -9.00462e-06 -4.94157e-06 3.86301e-05 6.04392e-06 -4.12219e-06 1.22795e-05 1.79473e-05 
1.03929e-05 -2.97762e-06 -5.09292e-06 2.99181e-05 -7.06173e-06 1.18503e-05 -5.86918e-06 2.51005e-06 -3.52573e-05 
-1.25671e-05 -5.7656e-06 2.99155e-05 -4.71602e-06 2.22704e-06 -9.91512e-06 -1.58594e-06 2.51518e-06 -2.11324e-06 
-4.12528e-06 3.0529e-05 1.26105e-05 -2.21222e-05 7.21253e-06 2.24826e-05 4.18604e-06 -5.40372e-05 -1.84245e-05 
1.03804e-05 -2.81704e-05 -2.95206e-05 -7.42737e-06 1.77882e-05 5.14719e-06 -3.72833e-05 2.85394e-05 -2.80953e-05 
9.36992e-06 -2.82101e-05 2.00829e-05 2.74647e-05 -1.4975e-05 1.5067e-06 -5.97366e-06 2.08812e-05 1.09247e-05 
-1.18979e-05 2.67871e-05 -8.16538e-06 4.8099e-06 -5.90845e-06 2.05578e-05 4.47516e-06 -3.19422e-05 5.50397e-06 
3.13118e-08 2.2629e-06 2.19827e-05 -1.80122e-05 4.69834e-05 4.10768e-06 2.47654e-05 -4.25363e-05 1.36263e-05 
6.43205e-05 2.25718e-05 6.25986e-05 -0.000181248 4.15999e-05 -6.66846e-05 0.000270278 0.000116879 -0.00018149 
-0.000164034 0.000809126 0.000160253 -1.96892e-05 -9.13703e-06 -9.83758e-05 1.26388e-05 5.96018e-05 -0.000240115 
-0.000159091 0.000198999 -0.00012728 0.000164225 0.00010238 -0.000186796 1.49138e-05 1.72501e-05 4.61888e-05 
0.000241191 -0.000104096 -0.00011324 7.83455e-05 -4.46763e-05 -7.66341e-05 -7.90125e-05 -2.16446e-05 -8.87703e-05 
7.05505e-05 0.000119711 -0.000189009 -0.000169322 1.68042e-05 6.18792e-05 0.000179617 4.94784e-08 7.32975e-05 
4.00176e-05 -7.96708e-05 -0.000204709 -0.000193352 -2.67774e-05 -0.000179808 0.00022915 5.87309e-05 9.42202e-05 
0.000298496 5.81137e-06 -3.90223e-05 -0.000115711 -1.13591e-05 -0.00030164 0.000197571 -3.16241e-06 0.000122102 
0.000167625 -8.25094e-05 -0.000121866 -8.19545e-05 1.69549e-05 -9.49083e-05 0.000160234 9.88573e-05 -3.12355e-05 
2.62933e-05 3.29554e-05 -0.000361804 0.000133465 -6.96747e-05 0.000222795 0.000255668 -0.000108837 -8.84343e-05 
-0.000368934 0.00018002 -0.000111133 -2.96741e-05 -5.74848e-05 8.39058e-05 1.02397e-07 -1.1389e-05 -0.00010258 
5.96465e-05 2.097e-05 -0.000119253 1.05181e-05 -0.000153581 8.13292e-06 -7.41194e-05 0.000118917 -0.000168237 
-0.000250812 0.000838079 0.000390539 -0.00022002 -4.88272e-05 -7.21919e-05 -1.94488e-06 0.000304562 -1.56031e-05 
-5.59704e-05 4.42535e-05 8.84579e-05 1.16637e-05 -3.23409e-05 -0.000103399 -0.000126431 0.000116051 -0.000109789 
-0.000281916 0.000102353 -0.00021756 -5.12581e-05 -9.31139e-05 5.53557e-05 -0.000214819 0.000294524 0.000426047 
-4.69472e-05 -0.000350681 0.000760484 -0.000108603 -5.07188e-05 8.53229e-06 -2.37655e-05 -4.49801e-05 2.1207e-05 
3.70162e-05 -3.31709e-05 6.89692e-05 -3.5515e-05 -1.36004e-05 0.000155721 5.69185e-05 -8.4894e-05 6.70109e-05 
0.00012934 0.000274557 4.65441e-06 0.000369139 0.000207039 -1.84805e-05 0.000160443 -5.82642e-06 -1.06946e-05 
9.7121e-05 7.03633e-05 -4.35292e-05 6.59787e-05 3.87691e-05 0.000168667 -7.91074e-05 -8.44571e-05 0.000203407 
-0.000125211 5.70426e-05 2.64377e-05 -4.82681e-05 -8.96394e-06 -0.000159506 0.000315791 0.000139129 5.55195e-05 
-0.000202123 0.000213661 -4.3446e-05 -0.000217782 0.000203682 -1.09802e-05 8.21873e-05 -9.08558e-06 -6.68466e-05 
0.000304511 -0.000500785 -0.00032035 0.000518185 0.00032462 0.00012301 -9.54258e-05 0.000132154 -8.76145e-05 
-2.16846e-05 -0.000185352 0.000269207 -0.000291858 -7.78183e-05 -8.18255e-05 -2.92528e-05 0.000164498 -5.82723e-05 
-3.29984e-05 -6.78171e-05 -0.000107178 -0.000108784 -0.000217955 0.000411205 -0.000316071 -3.46983e-05 0.00010088 
-5.96683e-05 0.000104447 0.000111023 0.000106592 -1.31e-05 -0.000199365 3.02661e-05 1.32249e-05 -1.00102e-06 
0.000142536 0.000194119 9.14855e-05 -4.22206e-05 -0.000132262 -0.000338868 -8.00708e-06 -0.000440152 -0.000379811 
-0.000231638 0.00036852 -1.43617e-05 -0.00019951 0.000195497 -3.35979e-05 -8.2461e-06 -6.41137e-07 0.000108954 
-0.000118107 -9.30817e-07 -8.33603e-06 -1.44232e-05 -1.05306e-05 -6.25634e-06 -4.34491e-06 -4.16187e-06 -5.22886e-06 
3.80572e-06 -8.67231e-06 -9.84845e-06 3.18127e-06 -3.9789e-06 -9.75081e-06 -8.7952e-06 -2.53721e-06 6.33235e-06 
-3.58794e-06 -1.03404e-05 -3.10897e-06 -1.07775e-05 -1.48513e-05 -2.14747e-06 2.3383e-06 2.73863e-06 -3.44438e-06 
2.04725e-06 3.37482e-06 3.16045e-08 2.74642e-06 -3.432e-07 2.59076e-05 7.02852e-06 2.99013e-06 -1.20116e-06 
-6.24555e-06 6.99561e-06 7.63834e-06 -2.24989e-07 8.48316e-06 5.48375e-06 1.31071e-05 1.31186e-06 5.69963e-06 
8.67541e-06 1.79909e-06 2.67994e-06 2.42555e-06 6.88217e-06 6.91562e-06 -5.41553e-06 5.01577e-06 7.08373e-06 
1.00859e-05 1.1762e-05 1.16864e-05 7.39271e-06 9.40544e-06 2.14999e-06 4.07106e-06 -1.78588e-06 -1.14985e-06 
-8.26087e-06 -2.9185e-06 -1.96746e-05 -5.56702e-05 4.99397e-05 7.8317e-05 -0.000119525 9.41625e-05 0.000105961 
5.38181e-05 0.000250465 6.64647e-06 -1.25759e-05 2.57996e-05 3.7499e-05 3.51982e-06 3.51995e-05 -3.37502e-06 
4.04331e-05 2.61004e-05 1.79022e-05 -1.3533e-05 3.70875e-05 3.07747e-05 9.10838e-06 1.37441e-05 -8.66033e-07 
1.11877e-05 -3.21077e-05 -8.92679e-06 5.48231e-06 -2.25321e-06 1.40297e-05 -1.45286e-05 2.36783e-05 -7.70951e-06 
-1.20174e-05 1.7939e-05 2.76571e-05 4.41991e-06 1.15543e-06 1.9781e-06 -7.01803e-06 -6.66816e-05 -1.86412e-05 
2.08097e-05 -3.35499e-05 -3.03748e-05 9.99431e-05 -4.3866e-05 -3.29677e-05 0.000118423 -4.43941e-05 7.30858e-05 
-0.000105344 5.86704e-06 2.81088e-05 4.63247e-06 -1.80814e-05 4.2519e-05 -2.09282e-07 -1.96039e-05 -2.35827e-05 
-1.08545e-05 2.80089e-05 -1.64958e-05 -2.33154e-06 -6.47505e-06 -6.95861e-06 -1.0678e-06 -6.03862e-06 -3.4971e-07 
7.55125e-07 -5.27634e-06 6.38967e-06 -3.3398e-06 -9.01408e-06 -3.49211e-06 -1.21543e-05 -1.53836e-06 -2.29507e-06 
7.88044e-06 1.83857e-06 -7.48954e-06 -3.49953e-06 -9.21314e-06 3.28624e-06 9.13651e-06 -5.33509e-06 -2.1538e-06 
2.01857e-08 1.46496e-06 -8.20777e-06 -1.30255e-06 1.33561e-05 1.25722e-06 1.24311e-05 2.35474e-06 -2.68045e-07 
2.10177e-06 -1.0511e-05 1.75013e-06 -4.29754e-06 -3.21304e-06 3.84045e-06 5.31222e-05 -0.000163289 -3.84392e-06 
-4.92803e-06 7.05831e-06 6.17088e-06 1.06213e-06 -7.64786e-06 2.04133e-06 -1.09234e-06 6.39993e-06 -3.08818e-06 
3.74508e-06 1.05387e-06 -2.00864e-06 5.37469e-06 -2.14004e-06 4.36891e-06 -5.86437e-06 -6.49862e-06 2.24103e-06 
2.3048e-07 -3.84303e-07 6.23625e-06 1.59222e-05 -1.69446e-06 -7.58061e-06 8.0049e-06 1.90606e-06 -5.70722e-08 
-2.67692e-06 3.27003e-06 9.8396e-06 -2.45913e-05 -1.77895e-06 -8.74984e-08 1.26942e-06 -1.50185e-05 6.10388e-06 
4.69023e-05 3.42262e-06 -1.49534e-05 1.30365e-05 1.81425e-05 -7.80502e-06 -9.32796e-06 3.8399e-05 -1.63732e-06 
-7.07478e-06 2.7697e-05 -3.81221e-05 2.12201e-05 -3.76315e-05 -1.25189e-05 -3.42127e-05 -6.64307e-06 1.94557e-05 
-1.11431e-05 -3.64873e-06 -5.01303e-06 1.0186e-05 -3.77623e-05 -1.39446e-05 1.64205e-05 -1.95873e-05 5.44736e-06 
-1.27491e-05 4.61401e-05 -1.64154e-05 3.60273e-06 2.56611e-05 3.84554e-05 2.36439e-05 -1.51331e-05 5.24344e-05 
1.90295e-05 -3.61581e-06 -4.11696e-06 8.52321e-07 2.7357e-05 -5.60904e-06 -1.34708e-05 1.3552e-05 -8.59006e-06 
2.41435e-05 4.85811e-06 1.17958e-05 1.96725e-05 1.23075e-05 -2.94199e-05 -3.0147e-06 5.09974e-05 1.99889e-05 
-3.73663e-06 5.8968e-05 9.06814e-07 0.000108912 -5.82735e-06 3.88267e-05 -0.000108689 5.49308e-05 -0.000103099 
0.000227795 -0.000112855 5.04718e-05 -7.10226e-05 -3.15635e-05 5.52444e-05 -9.89582e-05 1.30542e-05 -6.18033e-05 
-6.82131e-05 3.78803e-05 2.23347e-05 -6.83028e-05 1.56134e-05 7.16297e-06 -9.91135e-06 -3.25134e-05 1.31873e-05 
-1.84971e-06 -9.92496e-06 2.93012e-05 -1.67613e-05 -9.59458e-07 2.00692e-05 -2.16709e-05 1.53718e-06 3.23576e-05 
6.7229e-06 6.90518e-06 1.62082e-05 2.93349e-05 -1.18931e-05 -2.38967e-05 1.10215e-05 -2.78157e-05 -2.24417e-05 
-2.03129e-05 -1.24374e-05 -3.87527e-05 -2.70878e-05 3.32852e-06 2.58456e-05 -1.96325e-05 2.10039e-05 6.6218e-05 
-1.88334e-05 -6.23692e-05 1.13227e-05 9.16048e-07 -5.63201e-05 -4.36968e-05 -4.41253e-06 -3.29494e-05 -1.24839e-06 
-1.30682e-05 1.96647e-05 -1.11373e-05 -1.0411e-05 -2.31677e-05 2.3131e-05 3.29555e-05 2.44265e-05 3.12421e-05 
7.50029e-07 -0.000110656 -1.23447e-06 4.15407e-05 -0.000172716 0.000364498 2.47611e-05 -9.86291e-05 -5.88672e-05 
-3.62689e-05 2.73765e-06 -1.76402e-05 -1.21342e-05 0.000424172 -5.33167e-05 -7.36633e-05 -6.79036e-05 -0.000148355 
-5.36205e-05 -1.0508e-05 -9.64349e-05 -1.90143e-05 2.20332e-05 0.000120525 -1.49251e-05 -4.43124e-06 0.000107405 
-2.26397e-05 -5.29688e-05 4.65225e-06 2.55647e-05 -5.48091e-05 8.14752e-06 9.32805e-05 -1.27024e-05 6.71635e-05 
4.16664e-05 -7.27513e-06 -2.72184e-05 -6.76243e-05 -1.53996e-06 1.18958e-05 -0.000144911 -5.52069e-05 0.000107538 
-0.000117409 2.29166e-06 -2.13535e-06 -0.000146356 -8.98846e-05 -1.37492e-05 -8.23197e-05 9.60252e-05 3.68436e-05 
6.0286e-05 4.64297e-05 -4.10073e-05 0.000239559 0.000174216 3.23646e-05 1.13984e-05 -7.1425e-06 -2.14446e-05 
2.58207e-05 1.90915e-05 -4.19919e-05 4.279e-06 0.000135039 -9.1736e-05 -6.71253e-05 -8.94037e-06 -1.8782e-06 
6.11723e-05 -1.05862e-05 4.677e-05 5.11689e-05 5.85795e-05 -0.000107935 2.84663e-05 9.28552e-07 -5.50682e-06 
-2.07843e-06 2.59574e-05 -2.83071e-05 8.7249e-05 7.21001e-05 -9.06462e-06 -9.0833e-06 7.58456e-05 -0.000242538 
1.6718e-05 -6.79052e-05 1.24749e-05 1.94029e-08 0.00050048 -7.22151e-05 8.37833e-05 -6.37339e-05 -0.000226189 
-5.10696e-05 0.000128103 -2.34051e-05 8.26976e-05 -1.4903e-05 1.98566e-06 -1.57164e-05 -2.7424e-05 -2.57296e-05 
-6.97864e-06 5.61574e-05 -5.47111e-05 5.98402e-05 -6.3216e-05 -3.06657e-05 1.90594e-05 -4.67084e-06 3.10284e-05 
0.000104381 -4.775e-05 2.87181e-05 -3.91875e-05 -8.05416e-05 -0.000184483 -6.31608e-05 5.62892e-05 9.79812e-05 
-5.52193e-05 -3.72524e-05 -1.14293e-05 0.000132652 0.000111675 -0.000169952 0.000265742 0.000195618 2.55299e-05 
-2.64281e-05 -2.51456e-05 -9.14866e-05 -8.42174e-05 0.000394432 -3.81099e-05 3.31649e-05 1.27996e-05 -4.80153e-05 
9.78807e-05 1.05381e-05 -1.7686e-06 -3.01115e-05 4.92277e-05 0.000128285 -3.2965e-05 -1.98411e-05 -8.21257e-05 
4.1199e-05 4.47892e-05 -4.59869e-05 -3.68794e-05 -6.39446e-05 0.000144735 -2.42669e-05 9.51567e-05 -1.53918e-05 
9.99352e-07 -7.46188e-07 2.44581e-06 1.63952e-06 -9.95917e-07 5.09768e-06 8.97526e-06 1.66282e-05 5.61155e-06 
-4.91361e-06 -8.16481e-06 -3.16408e-05 8.25969e-06 -1.84669e-06 -0.00414593 0.00291652 -1.84274e-05 -7.12357e-07 
-3.07457e-06 -1.24235e-05 -6.40243e-06 -2.48506e-06 8.39192e-06 -1.06031e-05 5.48365e-06 -2.55678e-06 -1.78981e-05 
2.83843e-06 4.45265e-06 0.00237067 0.00454934 2.41944e-05 1.61039e-05 2.59314e-05 9.59995e-06 1.43211e-05 
-1.51025e-05 4.56035e-06 7.90557e-06 1.94353e-05 2.51512e-06 -3.37898e-06 8.48192e-06 9.10024e-06 1.23647e-05 
-8.00374e-06 -1.07813e-06 5.42192e-06 1.25978e-05 1.06615e-05 1.17711e-05 5.44035e-06 1.45702e-05 1.00194e-05 
5.69269e-06 7.307e-06 9.69948e-06 -5.08129e-07 -9.58607e-07 -5.70026e-05 -3.32221e-05 -9.94816e-05 -0.000221932 
0.000375719 1.35701e-05 0.000149926 3.1045e-06 1.4827e-05 6.57169e-05 1.04369e-05 -1.08765e-05 1.458e-05 
-1.65976e-05 9.71513e-06 2.9338e-05 -1.0958e-05 -1.58895e-05 2.88605e-05 8.9062e-06 -7.35834e-06 -1.93484e-06 
-3.2272e-07 5.29256e-06 -2.27337e-05 1.06363e-06 -1.15207e-05 2.56413e-06 -8.77606e-06 -1.86379e-05 1.79306e-05 
-1.47722e-05 -2.04316e-06 1.35412e-05 2.11533e-05 -1.6143e-05 1.24682e-05 -1.47932e-05 4.67425e-06 -9.50022e-05 
-1.88526e-05 -2.17885e-05 2.5134e-05 5.03888e-06 1.0075e-05 2.08677e-05 5.08677e-06 3.52044e-06 -3.79402e-06 
-3.93302e-06 1.51399e-05 -7.57572e-06 2.96843e-06 -6.81429e-06 2.27315e-05 1.51182e-05 -2.38249e-07 2.15669e-05 
1.30407e-05 -7.87506e-07 5.74054e-06 -8.2207e-06 -9.53887e-07 7.02653e-06 -1.52949e-06 -7.90276e-06 1.84539e-06 
1.09641e-05 -2.35829e-06 -5.85239e-07 -1.57306e-06 -6.16142e-06 -2.53375e-06 -1.50599e-05 4.08293e-06 1.06931e-05 
-9.42753e-06 7.26374e-06 -0.000134308 -4.2969e-05 0.000115955 3.97072e-06 -4.13189e-06 3.62171e-06 -2.40518e-06 
-3.67319e-07 -5.78851e-07 6.50254e-06 -2.57813e-06 -3.23376e-06 5.07369e-06 1.67395e-06 2.07301e-06 3.49137e-06 
-3.84027e-07 3.85594e-06 -8.10968e-06 -7.65137e-06 3.63242e-06 -5.71827e-07 -7.79256e-06 3.45763e-06 1.80925e-05 
-1.40421e-06 -8.91993e-06 7.48961e-07 3.21655e-06 -1.82706e-06 -7.24232e-06 1.60705e-06 1.56359e-05 -5.28543e-06 
7.17617e-06 -1.41258e-05 -1.66446e-05 -2.31065e-05 2.37726e-07 3.62867e-05 1.57092e-07 -1.12624e-05 2.75121e-05 
-6.40485e-05 -6.83341e-05 2.07017e-05 6.25745e-06 2.81821e-05 -1.75998e-05 3.69623e-05 1.87006e-05 9.09896e-07 
-3.31863e-05 -2.31119e-05 2.05708e-05 -4.75733e-05 2.83363e-05 2.58105e-05 3.79003e-05 1.63214e-05 -1.94173e-05 
1.62839e-05 1.20853e-05 1.54442e-05 -4.46716e-05 -9.17018e-06 2.05988e-07 -2.57968e-05 1.72897e-05 3.94311e-07 
2.67126e-05 3.54561e-05 3.07222e-05 -1.11995e-05 1.81311e-05 8.54364e-06 -1.99927e-06 -8.24958e-07 5.43189e-05 
9.15195e-06 4.89135e-05 -7.10145e-05 2.15597e-05 3.09598e-05 -6.92962e-05 -1.46399e-05 5.13053e-05 6.20236e-05 
-6.50141e-05 2.14018e-05 -0.000103491 8.97885e-07 4.47358e-05 -2.22558e-05 -5.0253e-06 -3.38996e-06 2.89848e-05 
-1.22931e-05 4.92243e-06 -5.54218e-06 -3.11024e-05 -5.78088e-05 -1.92357e-05 -3.87245e-06 -2.07622e-05 2.13089e-05 
1.92884e-06 2.03274e-05 3.50796e-05 1.56664e-05 -1.67466e-05 -1.55671e-06 1.02634e-05 -1.25222e-05 3.72231e-06 
-1.95734e-05 1.85163e-05 1.43519e-06 -5.07e-06 -4.61695e-06 3.19321e-05 -3.36234e-06 -6.3899e-06 4.97428e-05 
-2.56174e-05 -5.11103e-05 -3.46059e-05 -1.93451e-05 -3.17814e-05 -6.7377e-06 6.73171e-07 2.4458e-05 4.38423e-05 
-1.57046e-05 2.74753e-05 1.29841e-05 -1.13138e-06 -2.31633e-05 8.48615e-06 4.70802e-05 -6.40887e-05 -1.33021e-05 
6.38772e-05 -3.99125e-05 -3.28542e-05 6.91323e-05 -2.42245e-05 -1.49797e-05 -2.60389e-07 -1.37145e-05 -5.65538e-05 
-4.58068e-05 -5.46741e-05 5.19096e-06 4.70652e-05 -1.71751e-05 -2.50626e-06 7.532e-05 2.86429e-06 0.000108697 
-0.000123517 5.8806e-05 -1.36081e-05 -8.08255e-06 -0.000110452 0.000164917 6.71892e-05 -7.97194e-06 1.40801e-05 
-4.71802e-05 4.012e-05 -1.17888e-05 2.97524e-05 8.62428e-06 4.63171e-05 -1.33982e-05 2.06992e-05 3.91337e-05 
1.10161e-05 5.13819e-05 1.73064e-06 -1.02847e-05 3.5939e-05 7.57839e-06 4.52083e-05 -8.22668e-05 -7.7938e-05 
-1.66658e-05 0.000140783 -2.44945e-05 8.01931e-05 -2.64879e-05 0.000107566 -2.72666e-05 -3.42076e-06 -4.07949e-05 
9.74262e-06 4.9204e-05 2.31636e-05 -3.89369e-05 -0.00011028 -7.87862e-06 1.28281e-05 5.33213e-05 3.85415e-05 
-3.99552e-05 2.03505e-05 3.44528e-05 6.80202e-05 -7.52618e-06 2.72287e-08 -2.81469e-05 0.00013186 -5.97519e-05 
-6.3442e-06 -0.000112064 0.000266196 2.92451e-05 -4.44352e-06 4.50967e-05 -4.40155e-06 1.37779e-06 -9.15854e-05 
-5.94054e-06 -6.14359e-06 -1.46167e-05 -9.4997e-06 7.22223e-06 -2.71872e-05 -1.38748e-05 -3.82947e-06 4.8967e-05 
-8.14765e-05 -3.08336e-05 2.94128e-05 -0.00010226 -0.000110669 0.000114133 -0.000132164 -6.15974e-05 -5.31596e-05 
8.46667e-05 4.30201e-05 -4.50276e-05 -6.58752e-05 4.922e-06 -1.69237e-05 -1.77377e-05 -9.44167e-06 6.74254e-05 
-3.34285e-05 -1.45751e-05 -4.73549e-06 -9.12611e-05 6.64957e-05 6.43819e-05 -4.90055e-05 1.34423e-05 -2.92072e-05 
-2.9288e-05 -9.08796e-05 8.46526e-06 -9.46198e-05 1.04919e-05 -5.52288e-05 1.3361e-07 2.49383e-05 4.58756e-05 
1.91694e-05 -3.72153e-05 -0.000108441 -2.2079e-06 7.19162e-05 9.90943e-06 9.0296e-06 1.06333e-05 -3.41374e-07 
-3.03005e-06 -1.80785e-05 -4.1574e-05 -2.10551e-05 0.00355894 0.00474215 0.000119299 7.94209e-06 -7.65234e-06 
-3.07448e-06 1.5307e-05 -1.54517e-05 -0.00226924 0.00229827 9.7234e-06 -3.55786e-05 -2.89497e-05 5.13617e-05 
-7.45909e-06 -4.75711e-05 -0.00203035 0.00226961 -0.00208161 0.00164826 -4.47353e-05 0.0039773 0.00513024 
3.96068e-05 2.01687e-05 -5.38388e-05 -8.34252e-06 -9.93507e-06 2.30283e-05 3.91639e-05 1.52492e-05 1.19328e-05 
1.49897e-05 -0.003372 0.00144279 -1.18699e-05 -1.36168e-05 -1.37691e-05 1.67403e-06 -0.00642174 -0.00373795 
-2.26153e-06 -4.3436e-06 5.90266e-06 -5.72157e-06 -2.8953e-08 -9.47496e-06 1.63163e-05 1.14464e-06 -1.23988e-05 
8.93214e-06 0.000132889 -8.56817e-06 -3.36306e-05 4.23967e-05 2.20987e-05 -1.15712e-05 -3.15725e-05 1.99823e-05 
1.52548e-05 -1.86602e-05 -7.88857e-06 2.83176e-06 -9.78456e-06 2.40982e-05 1.56412e-05 1.6002e-05 3.80175e-05 
-9.62206e-06 2.27273e-05 -8.71914e-06 -1.82704e-05 1.64065e-05 2.76671e-05 5.47982e-06 -7.65078e-06 2.12956e-05 
-7.92305e-06 -1.0381e-05 1.67322e-05 4.06425e-06 8.59085e-06 -5.26288e-06 -5.01314e-07 -2.4018e-06 1.1345e-05 
-1.54393e-05 1.76788e-05 1.082e-05 2.84189e-06 -0.000109152 5.81158e-05 -2.58308e-05 9.39113e-05 -7.75567e-06 
7.12106e-06 9.63477e-07 2.68736e-06 1.86173e-05 -5.21678e-06 -5.52356e-06 -1.30274e-05 1.80421e-05 -3.26829e-07 
-4.16545e-06 -8.1691e-07 4.26006e-06 -1.40195e-05 -1.31829e-05 1.8549e-05 -6.87702e-06 2.60308e-05 -1.40741e-05 
-7.95908e-05 -4.98328e-05 1.12211e-05 8.12314e-06 0.000256168 -3.22896e-05 -2.37033e-05 1.54193e-05 -1.59542e-05 
2.90133e-05 -2.4908e-05 -3.92996e-06 -6.55064e-05 1.3687e-05 1.18243e-05 -1.78602e-05 2.75446e-07 1.05599e-05 
9.54638e-06 -4.17101e-06 -1.41543e-05 -3.20705e-05 -2.54109e-05 -1.45284e-06 -2.11907e-05 3.17535e-05 2.41834e-05 
7.53649e-06 -1.12786e-05 -1.59177e-05 7.93257e-06 -4.19067e-06 1.02101e-05 4.23693e-05 -1.87024e-05 2.27638e-05 
3.6452e-05 1.93431e-05 -1.83657e-05 -1.74818e-05 1.48679e-05 3.47118e-05 -1.43108e-05 3.05915e-05 -2.36845e-05 
-3.89864e-05 -6.86557e-05 -6.22175e-05 -2.29165e-05 -9.21696e-06 3.7767e-05 -1.50157e-06 1.83718e-05 -3.619e-05 
-7.00276e-05 -1.0998e-05 1.14623e-05 3.20946e-07 1.34174e-05 -4.09274e-05 -3.5361e-05 -1.16831e-05 3.01614e-06 
1.94391e-05 -3.91254e-06 -1.6853e-05 -4.89404e-06 1.09845e-05 6.27953e-05 -3.46796e-05 2.52341e-05 -3.77962e-05 
-4.5974e-05 -2.9172e-06 -2.43935e-05 1.57938e-05 9.09607e-05 4.63735e-05 -7.36612e-06 0.000108054 6.887e-05 
4.09837e-05 -6.72712e-05 -8.12096e-05 -0.000104959 -4.01985e-05 7.67281e-05 -7.43615e-06 -4.66137e-06 4.15485e-05 
0.000128071 -1.01899e-05 2.59269e-05 1.31138e-05 -1.90994e-05 -1.53709e-05 1.04173e-06 1.30773e-05 -8.31329e-06 
-5.58445e-07 -3.04006e-05 -2.56061e-07 -1.19414e-05 -1.62227e-05 7.42664e-06 0.000104865 0.000103468 2.61311e-05 
3.50468e-06 -2.11252e-05 -2.90458e-05 -9.55729e-06 1.86677e-05 2.2087e-06 3.91486e-06 1.04213e-05 1.11745e-05 
1.35481e-05 -3.09746e-05 -2.60973e-05 0.000102769 5.69207e-06 -6.33345e-05 -1.69164e-05 1.21714e-06 -8.64215e-06 
1.40639e-06 9.02281e-06 0.000142513 4.84481e-05 4.54341e-05 -1.96072e-05 0.000127661 2.77577e-05 -3.83157e-05 
6.82924e-06 -1.43477e-05 -3.25973e-06 2.78846e-05 -4.33441e-05 -2.99713e-05 -9.43034e-06 -2.83392e-05 1.29199e-05 
-8.86831e-06 3.97673e-06 5.09885e-05 2.68827e-05 2.34724e-05 1.89748e-06 5.05003e-05 -4.74726e-06 6.56097e-06 
-3.40827e-05 3.8433e-06 1.14022e-05 -2.98198e-05 -1.42427e-05 1.03004e-05 4.50395e-05 1.1688e-05 -3.07957e-05 
-1.12058e-05 7.75389e-05 -0.000106275 -8.73764e-06 6.67227e-06 6.07824e-05 0.000160902 -2.13956e-05 7.71802e-05 
1.96561e-05 1.26533e-05 5.02855e-06 -2.99169e-05 -1.38491e-05 -2.59721e-05 5.07438e-06 -1.61525e-06 4.89531e-07 
-1.02597e-05 0.00016409 3.94402e-05 2.11217e-05 -3.3614e-05 3.87035e-05 5.61329e-06 9.28926e-07 -6.33534e-06 
-1.08116e-05 -1.68497e-05 2.3772e-05 5.01914e-05 -0.000115718 8.59773e-05 -5.41548e-05 -1.3125e-05 3.35569e-06 
7.55386e-05 -1.01097e-05 4.41995e-05 1.41895e-05 2.92459e-05 2.50517e-06 -2.96435e-06 -4.33323e-05 -8.46349e-05 
-8.5335e-06 1.40495e-05 1.35106e-05 -0.00225216 0.000439154 4.48724e-05 -3.84998e-05 -1.75036e-05 -2.61998e-05 
-4.68502e-05 5.14208e-05 2.12075e-05 -4.75502e-05 -1.99795e-05 -1.88398e-05 1.80403e-05 -6.63201e-05 -1.89747e-06 
9.75942e-07 -3.54763e-05 0.000119142 -3.22047e-05 1.85771e-05 5.44999e-05 -1.40323e-05 1.46532e-05 -1.07642e-05 
-8.2601e-06 1.75568e-05 1.19779e-05 -0.000163373 -3.33116e-06 3.38775e-05 5.7288e-05 -2.48228e-05 -2.44743e-05 
3.84859e-05 -5.68504e-06 1.78908e-05 -4.01571e-06 -3.81566e-05 1.38828e-07 0.000105808 -9.97402e-06 -1.27727e-05 
-2.34872e-05 -1.07184e-05 -2.35815e-05 9.56348e-06 -3.3904e-05 5.32697e-05 4.51677e-05 -7.09165e-05 -2.43677e-05 
-7.32807e-06 1.49983e-06 -3.98186e-06 -6.42605e-06 9.56774e-06 -4.23473e-05 -1.16145e-05 -3.28584e-05 3.6401e-05 
8.30328e-06 2.82312e-06 -1.58693e-05 2.30912e-05 4.20639e-05 1.20616e-05 -1.5404e-05 2.32825e-05 -7.07409e-06 
-7.11338e-06 -4.87106e-05 -1.45563e-05 2.26101e-06 -4.272e-06 0.000103578 1.15213e-07 9.84959e-06 1.13702e-05 
4.02758e-05 -7.38315e-05 -3.2232e-05 -3.60065e-05 -5.52387e-05 -2.84145e-05 -2.06556e-05 3.93098e-05 -9.97967e-06 
2.9215e-06 6.61745e-05 -5.82209e-05 -1.05889e-05 -6.8744e-05 -5.70085e-05 3.80392e-05 -4.02378e-05 7.09079e-05 
-8.73949e-05 2.34336e-05 1.91219e-05 6.78722e-05 -9.30977e-06 4.87994e-06 2.34185e-05 9.8803e-06 7.7823e-06 
2.53511e-05 5.64977e-05 -6.9217e-05 -0.000129635 -4.57052e-05 0.000112404 -1.18401e-05 4.41469e-05 -7.32374e-06 
4.23059e-05 7.47041e-06 -8.89904e-06 5.85589e-06 2.32241e-05 8.93689e-06 -7.79187e-05 5.1812e-05 -5.62189e-05 
-3.53199e-05 -2.55522e-05 -1.31425e-05 -8.6888e-07 -1.55364e-05 -0.00010393 -6.00422e-06 -2.76413e-05 -1.18988e-05 
1.31338e-05 -5.32856e-06 2.80909e-05 -2.10667e-06 -1.25862e-05 -8.72561e-06 -1.36833e-05 -1.27607e-05 -2.43426e-08 
-7.95042e-06 -7.1683e-06 -7.75711e-08 -1.91411e-06 -6.62856e-06 -3.7931e-06 -1.09612e-05 -1.16331e-05 6.1501e-06 
-5.00737e-06 -1.08944e-06 5.35298e-06 -1.07285e-05 -8.75158e-06 -9.56867e-07 -1.85703e-05 -1.47791e-05 -1.77019e-06 
3.20631e-07 1.12045e-05 2.27726e-06 1.13736e-05 -5.6664e-06 2.84744e-06 -7.63152e-06 2.15736e-07 -5.1296e-06 
1.07366e-05 1.71775e-05 -1.00026e-06 6.02616e-06 8.31074e-06 8.58587e-08 -1.72413e-06 1.95826e-06 2.04687e-06 
7.79404e-06 1.04871e-05 -5.15593e-06 6.51016e-06 6.67656e-06 -4.19493e-06 5.28662e-06 8.41908e-06 3.15425e-06 
1.24734e-05 8.22301e-06 1.818e-06 -1.16029e-06 -2.9521e-06 -3.55349e-06 -5.82634e-06 -7.10323e-06 3.96934e-06 
-8.62369e-06 2.24771e-06 1.69078e-06 -1.24614e-05 -0.0108334 -0.000484644 0.00278445 0.000242918 0.000135625 
-0.0009543 3.22935e-06 -0.000160981 -0.000240338 3.96135e-05 7.87422e-05 5.17274e-05 -1.17984e-05 -8.15055e-06 
-6.71488e-07 4.02212e-06 2.9712e-06 -4.69199e-05 -1.46862e-05 -6.57554e-06 -9.99902e-06 3.50969e-05 4.4897e-05 
-1.10848e-08 -5.10871e-06 -1.91786e-05 4.28963e-06 1.04042e-05 5.81943e-06 -3.23505e-05 -1.56284e-05 -7.66596e-07 
-1.79681e-05 1.71494e-05 4.14778e-05 -7.73865e-06 1.03338e-05 -4.2114e-06 1.76395e-05 5.9835e-07 -4.22227e-06 
-9.61291e-06 2.62366e-06 -1.91137e-05 -2.34646e-05 1.98026e-05 -1.3699e-05 4.79005e-05 -7.13798e-05 -6.23181e-05 
-5.03867e-06 -2.11733e-05 3.40615e-05 1.34306e-05 -2.1705e-06 -3.29439e-06 5.74145e-05 -7.89502e-06 -3.22502e-06 
4.14275e-05 8.55523e-06 7.90002e-06 -7.94539e-06 -4.90111e-06 5.04321e-06 1.08872e-05 8.09718e-06 8.32486e-06 
-1.81189e-05 -1.36752e-05 1.57773e-06 -2.82455e-05 2.54284e-05 1.77547e-05 -4.37097e-06 5.71919e-06 -1.07231e-05 
-5.94165e-06 1.4071e-08 8.72579e-07 -1.1976e-05 -7.8762e-06 1.45742e-06 -2.59269e-05 1.45755e-06 1.8395e-05 
3.41411e-06 5.50262e-06 8.0936e-06 -4.70917e-06 2.43015e-06 1.52847e-06 8.99993e-06 -2.51229e-06 -3.43941e-08 
6.0315e-06 -2.89243e-06 -5.44871e-06 3.33513e-06 7.38681e-06 -1.29632e-05 7.2112e-06 -2.04491e-05 -1.6238e-05 
5.23757e-06 -0.00475588 4.52309e-06 -1.19238e-05 3.38913e-06 5.92563e-06 -5.3527e-06 8.6536e-06 1.92441e-06 
-1.45083e-05 -3.08536e-06 2.20475e-06 -4.77711e-06 5.69321e-06 7.91099e-06 -2.19776e-06 -5.57495e-07 8.7989e-07 
8.96777e-06 -1.6968e-06 -3.43448e-06 2.01949e-06 3.32778e-06 -8.30276e-06 6.02006e-07 1.80954e-07 -1.55505e-05 
2.44773e-06 -1.63739e-05 -1.9576e-05 3.96398e-07 1.11743e-06 1.01979e-05 3.48592e-06 -3.80582e-06 -6.12819e-06 
2.08007e-05 -1.58618e-05 3.63564e-06 1.12704e-05 -1.79537e-05 -1.1859e-05 1.38166e-05 4.67964e-06 4.77191e-06 
1.10466e-06 8.9597e-06 1.24325e-05 1.09492e-05 -4.11157e-06 2.75813e-05 1.7426e-05 3.70786e-05 2.37993e-05 
-9.44871e-06 1.7092e-05 -1.68987e-05 -1.18884e-05 -5.20177e-06 8.88085e-06 -3.49987e-05 -1.32484e-05 2.8583e-06 
-5.26198e-05 2.84757e-05 1.07514e-05 -1.54137e-05 -1.29866e-05 -8.18672e-06 1.15906e-05 1.83107e-07 -2.17991e-05 
-1.44832e-05 -4.30484e-06 1.78718e-06 1.82772e-05 -3.55829e-06 2.44081e-06 2.04168e-05 5.93114e-06 -2.42875e-05 
4.7327e-06 -7.451e-06 3.9428e-06 1.84959e-05 -2.83089e-05 -3.29331e-05 -6.16985e-06 1.31636e-05 1.44872e-05 
1.13878e-05 2.44613e-05 -5.1692e-05 1.70424e-05 -5.58227e-05 -6.5303e-05 2.78358e-06 4.88359e-05 7.37656e-05 
0.000102467 6.2887e-07 -1.65161e-05 8.07076e-06 -0.00590884 2.49034e-05 0.000105455 0.00892554 0.0098467 
0.00202714 0.00316958 0.00809769 -0.000656359 -0.000298632 0.002193 -0.000522893 -0.00232223 0.0010844 
-0.000720197 -0.00272929 -0.0013697 0.00106826 0.00217942 0.00181125 -9.16596e-05 0.000746273 0.0030239 
-0.00114145 -0.00219456 0.000921395 -0.00037695 -0.00362711 -0.00134655 0.00110132 0.00159886 0.00205784 
0.000665345 1.04111e-05 0.00223532 -0.00069518 -0.00181522 0.000916763 -0.000323749 -0.00602164 -0.00127541 
0.000248279 -0.0017923 -0.0055164 0.00152554 0.00558705 0.00118138 0.00042075 0.00019882 0.0052735 
-0.00137467 -0.00216141 0.000223359 0.000396359 -0.00643102 -0.00199293 0.000602856 0.00411036 -0.00492072 
0.00212189 0.00131276 0.00506404 -0.00098311 -0.000794049 0.0017883 -0.000282929 -0.00481586 -2.14537e-05 
-0.00033997 0.00757339 0.00929051 0.00774857 0.0101984 -0.00406095 0.00845669 0.0121754 -0.0044475 
0.0128992 0.0106049 -0.00274563 0.00826345 0.0103899 -0.00521715 0.00819753 0.0103395 -0.00498824 
0.00715311 0.0111748 -0.00492243 0.0107234 0.0118405 -0.00414536 0.0117955 0.0110997 -0.00436478 
0.00483414 0.010356 -0.00785233 0.01085 0.00386714 -0.010945 -0.011312 -0.0144533 -0.0188985 
-0.0146972 0.00839162 -0.0149275 -0.00908619 0.00561152 -0.010549 -0.0076927 0.0046648 -0.010027 
-0.00736882 0.00470426 -0.00965091 -0.00748488 0.00495332 -0.0093805 -0.00708649 0.0045089 -0.0095571 
-0.0117125 0.00488507 -0.0116772 -0.0112864 0.00329573 -0.0111648 -0.00912443 0.00352618 -0.00877259 
-0.00671062 0.00178479 -0.00558517 -0.00841193 -0.0106647 -0.0112715 0.00320558 -0.00905265 -0.0101896 
0.00547283 -0.00738256 -0.0088192 0.00420233 -0.00666882 -0.00826089 0.00433533 -0.00665086 -0.00698435 
0.00373864 -0.006856 -0.00672739 0.00384438 -0.00599157 -0.00678028 0.00413236 -0.00635706 -0.0147805 
0.00498105 -0.0150444 -0.00549269 0.00419958 0.00877726 0.0169906 0.0210258 0.0146819 -0.00731872 
0.0131284 0.0105551 -0.00626714 0.0119153 0.00912678 -0.00408565 0.00823291 0.00887491 -0.00385999 
0.00877472 0.00553377 -0.00370779 0.00842127 0.0106144 -0.00499022 0.0099371 0.00994577 -0.00331688 
0.00998083 0.00714872 -0.00235244 0.00199915 0.00417378 -0.00597436 0.0047859 0.00523174 -0.00801269 
-6.74314e-06 -6.74938e-06 -1.04922e-05 -0.000302331 0.0038591 -0.00989588 0.00530628 0.00900557 -0.00106244 
-0.00686573 0.000693807 -0.00672967 0.00500546 -0.00189833 2.53264e-06 0.0033079 -0.00664565 0.00337052 
-0.00909275 0.00288045 -3.3431e-06 0.00194122 7.57691e-06 -8.18601e-06 8.15384e-06 -1.90446e-05 -5.27728e-06 
1.16072e-05 -2.84864e-08 -2.41211e-06 5.01538e-06 8.18119e-07 -4.27222e-07 -3.11016e-06 5.28114e-06 -2.16064e-06 
-7.66234e-06 2.17433e-06 1.26539e-05 -1.43912e-05 -1.4976e-05 1.70668e-05 -1.37079e-05 3.17178e-06 -2.2609e-05 
9.23109e-06 1.43572e-05 -1.83961e-05 1.99294e-06 -1.14213e-05 1.38728e-05 -1.46666e-05 1.44538e-05 -8.72433e-06 
1.05397e-05 7.40937e-06 2.4476e-06 2.166e-06 -1.20084e-05 3.52777e-07 -1.74108e-06 1.11266e-08 -4.65236e-06 
1.22639e-06 5.04168e-06 7.98423e-06 -3.51358e-07 9.30273e-07 1.67487e-05 6.8325e-06 1.18969e-05 -5.2633e-06 
-2.51874e-06 -5.53609e-06 1.29408e-05 -6.24442e-06 -0.000910848 -0.00147656 0.00016432 0.00014589 -0.000104608 
0.000224178 -4.1007e-05 4.02149e-05 0.000580075 2.37302e-05 0.000105965 3.63311e-06 5.40202e-05 -2.24158e-05 
-2.54865e-05 3.1499e-05 6.89062e-06 4.57678e-05 -1.86907e-05 -6.09781e-06 3.24638e-05 -4.99806e-06 3.73572e-05 
1.65258e-05 -1.80335e-05 -3.20643e-05 -4.33901e-07 -2.42481e-06 1.14597e-05 3.95525e-05 4.00354e-06 -6.33206e-06 
3.37186e-05 -4.90233e-06 2.95873e-05 1.37412e-05 -2.424e-05 -1.74491e-05 -1.08315e-06 1.74176e-05 -8.56992e-06 
-1.74175e-05 -1.05218e-05 1.67226e-05 1.32957e-05 3.31593e-05 3.23341e-06 -5.13206e-05 -1.40628e-05 -6.4368e-05 
9.48464e-06 5.24921e-05 -1.21297e-05 7.27522e-06 -9.7237e-06 -1.39656e-06 -1.59797e-05 3.05286e-05 -9.54825e-06 
-2.58508e-05 -1.20298e-05 -4.12678e-06 1.18126e-05 1.08301e-05 2.53858e-05 1.40224e-07 -1.94094e-05 1.26459e-06 
-7.38159e-06 8.78559e-06 -2.47768e-06 8.05972e-06 -7.72546e-06 1.39606e-05 6.4847e-06 -2.86411e-06 1.27069e-05 
2.40841e-06 -6.61244e-06 -1.40343e-06 3.65407e-07 -2.62525e-06 5.89507e-06 8.15541e-06 -1.20696e-05 3.23243e-07 
3.44351e-06 6.89613e-07 4.31901e-06 6.77685e-07 -7.46878e-06 -6.21091e-06 -1.23564e-06 1.10304e-05 -1.20535e-05 
-1.35419e-06 6.20986e-06 -7.16637e-06 -9.52805e-06 3.56368e-06 5.54956e-06 -1.06603e-05 -9.81376e-06 3.61246e-06 
-1.63503e-05 3.55318e-06 4.53455e-07 -9.82473e-06 9.62313e-07 -2.38635e-06 -4.45026e-06 7.01374e-07 5.10535e-06 
-1.54729e-05 -1.06499e-05 -1.25263e-07 2.59245e-06 3.60844e-06 4.17436e-06 7.07422e-07 -3.04991e-06 -2.97962e-06 
-2.27344e-06 7.11061e-06 -2.49194e-06 -3.23172e-06 8.76476e-07 2.83384e-06 -9.36838e-06 -8.56337e-06 6.90899e-07 
-1.07794e-05 1.00841e-06 -1.44773e-05 -3.67501e-06 3.95887e-06 1.09359e-05 -2.91907e-06 2.27608e-06 -6.87282e-06 
-2.09146e-05 -1.8466e-06 1.66421e-06 -1.69229e-05 -1.5639e-06 -1.25377e-05 -1.31591e-06 1.53582e-05 9.75031e-06 
1.8854e-06 -1.19114e-05 5.15392e-06 2.01331e-05 1.23364e-05 2.945e-07 -1.23303e-06 -1.83881e-05 3.12803e-05 
1.18444e-05 8.68119e-07 1.20086e-05 2.49209e-06 -2.08219e-05 1.44164e-05 -1.58704e-06 -1.70318e-05 -4.79285e-06 
2.76657e-05 3.88901e-06 1.59186e-05 4.98021e-07 -2.422e-05 -2.84947e-05 -1.10097e-05 2.23199e-05 3.63288e-06 
1.4588e-05 -2.27498e-05 9.88743e-06 -7.3733e-06 7.87864e-07 -1.31911e-05 -5.70006e-06 3.17122e-05 1.12446e-06 
1.56679e-05 -2.0087e-05 3.98224e-06 -9.59352e-06 1.331e-06 -1.14454e-05 -1.09483e-05 1.56407e-05 9.52472e-06 
-1.03947e-05 1.04808e-05 5.02762e-06 -2.78245e-05 -5.71698e-05 -0.000144035 3.54218e-05 4.71883e-05 -6.22212e-05 
8.65703e-07 -2.10377e-05 -0.000882744 -0.000169403 0.000488758 0.0011546 0.0012773 -0.00365656 -0.00166616 
-0.00142434 0.00041907 -0.000841986 0.000964145 -6.3421e-05 0.00437046 -4.46681e-06 -0.000140909 0.00133198 
-0.00013661 -0.000523092 0.000392785 -7.66699e-05 -0.00164003 -0.000315528 0.000186872 -0.000741644 0.000172185 
1.48614e-05 0.000154135 0.00161287 -2.25099e-05 -2.09572e-05 0.000683015 8.07182e-06 -0.00103158 0.000332882 
0.000151887 -0.00120413 0.000250378 -0.000104431 -0.000896071 0.00151789 -9.72525e-05 -0.000462239 0.00035323 
-0.000124646 0.0007289 -0.000559835 -1.83471e-05 -8.75186e-05 0.000169312 0.000145776 -0.000635937 0.00112367 
2.48954e-05 -0.000405702 0.00162201 -5.27045e-05 -0.00020175 0.00074784 -0.000208202 2.97659e-05 -0.000104696 
-6.59416e-05 -0.0011984 0.000876138 5.54168e-05 -0.00178989 0.00151329 -7.46124e-08 0.000219402 0.000682464 
-0.000723769 -0.00043763 0.000734155 -0.000612185 0.00105015 0.00369179 -0.00161063 -0.00304593 0.000658922 
-0.00196706 -0.00416259 -0.000307748 -0.00277362 -0.00368308 -0.000584782 -0.00296913 -0.00361434 -0.000181448 
-0.00295237 -0.00288674 -0.000134482 -0.00361416 -0.0050584 -0.000533888 -0.00452853 -0.0033671 -0.000722734 
-0.000680167 -0.00222495 3.69502e-06 -0.00315049 -0.00153033 -0.00134063 -0.00037393 0.00567471 0.00374622 
0.00287761 0.000963811 0.000222033 0.002881 0.00101716 -0.00046757 0.00273986 0.00277323 -0.000131473 
0.00276441 0.00267722 0.000165808 0.00305574 0.00271131 -1.75512e-05 0.00390007 0.00306429 0.000274905 
0.00294473 0.00291025 0.000515379 0.00274081 0.00150836 6.59825e-05 0.000173161 0.00346331 0.00350743 
0.00274059 0.0025399 0.00273203 0.00234786 -0.000539479 0.00248249 0.00205671 -3.5091e-05 0.000980728 
0.00185964 -0.000110716 0.00113176 0.0016612 -5.59692e-05 0.00143832 0.00141703 2.82893e-05 0.00175623 
0.00213929 2.79575e-05 0.00344988 0.00615265 -0.000289618 0.000198717 -0.000280407 0.000696989 -0.00642437 
-0.00395637 -0.00332125 -0.00310611 -0.00060486 -0.0027511 -0.00313183 -0.000540317 -0.00307954 -0.00302582 
-0.000717173 -0.00236548 -0.00264939 -0.000241748 -0.00364664 -0.00292032 -0.000196131 -0.00289245 -0.00221717 
-0.000746383 -0.00180435 -0.00273582 -0.000943877 -0.00231539 -0.00215479 5.64562e-05 -1.24748e-05 6.03828e-06 
-6.42316e-06 0.00840379 0.0062682 0.00102046 0.00195226 0.00359244 -0.000154401 -0.00718458 -0.00706218 
-0.000788719 1.1263e-05 -1.29585e-06 4.85161e-06 4.84242e-06 0.000188205 0.000359369 7.95526e-05 9.10652e-05 
-4.11847e-05 0.000444775 -0.00224155 3.14712e-05 0.000248001 0.000653462 0.000360913 -3.05449e-06 -9.55347e-05 
0.00129172 -0.00106625 0.000498331 -5.07215e-05 -0.00122488 -0.00431602 -0.000975416 -2.74405e-05 0.000116988 
-4.82944e-05 -3.88764e-05 -2.04867e-06 -3.81887e-06 9.08959e-05 0.00052601 -2.21828e-06 -3.70531e-06 8.36695e-06 
-3.13549e-06 -4.37915e-06 -6.99082e-06 1.52288e-05 5.57185e-06 -1.76481e-06 8.16686e-06 4.94544e-06 -1.84646e-05 
7.24351e-06 9.73361e-07 5.84366e-06 6.93241e-06 -8.66338e-07 2.84725e-06 1.27595e-05 1.10878e-05 -1.1769e-06 
3.41536e-06 9.54846e-06 -2.66623e-07 -3.66699e-06 6.60191e-06 3.33895e-06 3.90856e-06 6.97035e-07 4.08163e-06 
5.70841e-06 -3.33896e-06 -3.07438e-06 2.40612e-05 5.9049e-05 9.29137e-05 0.000143946 -3.1784e-06 -8.68763e-06 
-3.87405e-06 0.000111394 6.29929e-05 2.43261e-05 0.000234762 -0.000222311 0.000416227 9.47556e-05 2.07123e-05 
-4.39911e-06 5.96887e-06 5.00567e-06 4.96176e-05 -2.85026e-06 2.00307e-05 8.25054e-06 1.51971e-05 2.65564e-06 
-2.06239e-05 -1.56235e-05 9.82265e-07 -1.83881e-06 6.95509e-06 1.91549e-05 2.47193e-05 -2.66175e-06 1.65044e-05 
2.7732e-06 3.09279e-05 5.54992e-06 -2.05984e-05 -1.89502e-05 -7.4656e-07 1.05905e-05 6.03043e-05 3.58001e-05 
-3.9546e-05 -8.68155e-05 -6.1287e-05 -3.25378e-05 -0.000145905 -3.01306e-06 1.1618e-05 -2.85594e-05 -1.45078e-05 
5.5487e-06 8.36549e-06 -6.48326e-07 -2.11447e-05 -3.5393e-06 2.34647e-05 2.115e-05 1.52054e-05 -4.31812e-06 
-4.64964e-06 1.41944e-06 -2.30747e-06 -1.35007e-05 3.03221e-06 4.46201e-06 -2.39908e-06 2.2498e-06 7.68376e-06 
-2.70479e-06 1.09149e-05 5.23276e-07 1.74033e-06 8.14201e-06 -1.07298e-06 -8.30506e-06 2.77078e-06 1.14179e-08 
8.95914e-06 -1.10823e-06 3.19977e-06 1.58825e-07 1.94549e-06 -5.90719e-07 -5.39797e-06 1.544e-06 9.58351e-07 
3.7522e-06 -7.79014e-06 3.15884e-06 3.4531e-06 -1.01983e-05 4.89824e-05 -5.38174e-05 0.000254552 4.70431e-06 
-5.52732e-06 -5.83128e-06 -5.38288e-06 -7.28942e-07 -1.10582e-06 1.19066e-06 1.01286e-07 -6.78621e-06 9.61609e-05 
-1.09492e-05 3.73188e-05 4.40355e-06 -5.47394e-06 9.02067e-06 3.19845e-08 0.000154973 0.000100595 6.83565e-05 
-1.30525e-06 -1.0805e-06 1.00543e-06 7.90511e-07 -3.27886e-06 -2.85885e-06 1.63263e-06 -7.47635e-06 -7.87754e-06 
-1.56808e-06 -4.84059e-06 1.2934e-06 -1.44364e-05 -5.63863e-07 3.26146e-06 1.17966e-05 -3.60031e-06 -3.62494e-06 
-6.70335e-06 -1.08111e-05 1.79902e-06 1.81093e-06 -7.19848e-06 -1.74813e-06 -1.56553e-05 -1.26441e-06 1.4485e-05 
1.2719e-05 -4.42387e-06 -9.28832e-06 6.18278e-06 -4.74841e-06 6.66308e-06 2.41556e-05 1.0121e-05 -9.29164e-06 
2.1982e-05 -1.0665e-05 -4.9212e-05 1.00336e-05 1.98054e-06 4.43381e-06 1.55608e-05 7.78641e-06 -1.79884e-05 
-1.83352e-05 5.77166e-07 6.14696e-06 2.53593e-05 -4.37967e-06 -1.93293e-05 -1.72471e-05 -2.17109e-07 1.66513e-05 
-8.79224e-06 1.54009e-05 2.40814e-05 1.51224e-05 -1.13008e-05 -1.49911e-05 -4.86314e-06 -2.00794e-06 7.09055e-06 
1.06057e-06 1.66436e-05 -2.11207e-05 -3.27126e-06 -1.21449e-05 -6.89287e-06 6.10672e-06 2.6749e-05 4.36325e-05 
1.58282e-05 2.73972e-05 -9.92445e-06 -1.48038e-05 -1.71864e-05 -3.98881e-05 -0.000249471 -0.000644128 -0.000136871 
0.000197091 -0.000150163 -9.48739e-05 0.000185841 -0.000156521 -2.09942e-05 9.7416e-05 -3.53489e-05 -9.73995e-05 
0.000153696 0.000350563 0.000150361 -6.89631e-06 6.74855e-05 4.0516e-06 -5.07832e-05 9.90091e-05 -3.21005e-05 
-0.0001641 0.000130356 -1.67375e-05 -3.81273e-05 2.34304e-05 3.75548e-05 -6.33679e-05 4.5583e-05 1.91694e-05 
-9.2579e-05 2.83294e-05 -1.08962e-05 -0.000166699 6.22293e-05 -4.88104e-05 -3.9749e-05 -9.79466e-06 -3.83836e-05 
-5.2492e-06 3.92576e-05 -3.294e-05 -7.48355e-05 4.74969e-05 2.28031e-05 -2.80092e-05 1.82907e-05 3.42524e-05 
-0.000154777 0.000106825 -1.55257e-05 -4.87808e-06 2.4248e-05 3.47417e-05 -7.45944e-05 8.00849e-05 -4.28738e-05 
-9.00976e-05 2.89141e-06 -6.36182e-05 0.000311834 -0.000311698 0.000723914 0.000549743 -0.000148197 0.000140082 
-2.2926e-06 -1.0876e-06 7.99918e-06 5.02284e-06 4.63718e-05 -4.12728e-05 -6.3443e-05 -0.000196572 -9.76678e-05 
-0.000103372 -0.000102651 -7.11944e-05 -1.98329e-05 -0.000135337 7.27381e-05 -6.89744e-05 -9.88009e-05 -0.000506195 
-5.01086e-08 -0.000432023 -0.000209006 -0.000114048 -7.44966e-05 -0.00029662 -0.000169332 0.000541383 -0.000187735 
-0.000114598 7.95423e-06 -9.12737e-06 3.48014e-06 0.000241859 -0.000176296 -0.000196611 3.66836e-06 -0.00010617 
-2.4017e-05 0.000167051 -5.00899e-05 0.000103573 9.50356e-05 -7.1033e-06 -5.0086e-05 8.28706e-05 4.45292e-05 
3.64335e-06 0.000357888 -3.3648e-06 0.000184458 0.000350655 -4.70475e-05 -0.000679213 -0.000296292 -3.56681e-05 
-7.6389e-05 -9.21326e-05 9.24437e-05 3.32567e-05 -2.76398e-05 -4.12e-05 7.48146e-05 -3.96251e-06 2.44533e-05 
6.54975e-05 5.757e-05 -1.81523e-05 6.234e-05 2.50949e-05 -8.13353e-06 -3.85988e-06 1.61083e-06 5.38991e-06 
1.32972e-06 7.99147e-06 6.06716e-06 -8.22606e-06 -0.000299058 -0.000301967 -0.000244442 -0.000279261 3.09786e-05 
-0.000184495 -0.00010549 -1.33496e-05 6.08942e-05 -0.000270313 -4.18606e-05 -0.000126748 -0.000254684 -2.93309e-05 
-5.65981e-05 -6.97158e-05 -1.80021e-05 0.000173198 0.00026268 0.000147306 6.13585e-05 0.000473535 -0.000552938 
-0.000311419 7.68279e-05 4.80742e-05 8.65114e-05 0.000296085 0.000438901 7.87165e-05 -0.000144621 5.45547e-06 
-4.77952e-06 -0.000139717 -0.000120239 -0.000590589 3.44281e-05 -0.000164094 0.000317458 0.000212814 0.000139373 
-3.99819e-06 -2.736e-06 7.48657e-05 2.41924e-05 6.86168e-05 -9.41907e-07 1.80736e-06 5.16426e-06 -3.48145e-06 
0.000283196 0.000411907 2.21363e-05 6.80827e-05 0.000366624 -0.00024663 -0.000178142 0.000531499 -0.000189134 
0.000230858 -1.15614e-06 -1.80543e-05 0.000127334 5.7622e-05 9.31238e-05 -4.79219e-05 2.43616e-05 -0.000172303 
-0.000619758 -0.00094584 0.000382793 -4.86067e-05 0.00039275 6.6466e-05 -4.46248e-05 0.000167394 0.00039712 
7.2475e-05 -0.000104807 6.43163e-05 -0.000162812 -0.00012374 0.000398174 -2.34364e-05 0.000166574 6.78704e-05 
-2.82259e-06 1.85995e-07 1.63685e-05 -7.12523e-06 1.54786e-05 1.83008e-05 1.44175e-05 3.2627e-06 1.7484e-05 
-7.27396e-06 5.8653e-06 3.19121e-06 4.8562e-06 1.0148e-05 4.92934e-06 3.64721e-06 8.62394e-06 1.89109e-06 
-7.91239e-07 8.59402e-06 6.00213e-07 -6.63188e-07 -2.57558e-06 8.32262e-06 3.56752e-06 4.90361e-05 -1.60043e-05 
9.39673e-06 3.59878e-06 2.0171e-06 3.16083e-06 -6.45369e-05 2.18502e-05 -2.15082e-06 -4.06807e-06 1.00659e-05 
1.59546e-05 7.71687e-06 -1.9828e-05 -8.12316e-06 5.26561e-06 4.27488e-06 6.70111e-06 8.11749e-06 -1.21348e-05 
2.06202e-06 6.14629e-06 1.57816e-05 -1.26626e-05 1.70712e-05 2.18483e-05 5.76734e-05 1.53388e-05 -3.86973e-05 
2.30586e-05 2.56587e-06 5.7536e-06 -1.25078e-05 1.24998e-05 -1.089e-05 8.35377e-06 6.72407e-06 -3.94431e-05 
8.62564e-06 1.85904e-06 -1.35293e-06 3.92483e-06 6.09089e-06 -7.05284e-06 1.88436e-06 1.37618e-05 -2.4206e-06 
7.72796e-06 3.52768e-06 -4.4039e-06 -5.1905e-07 -2.56274e-06 -1.34805e-05 -2.98106e-06 7.34225e-06 6.38773e-06 
3.21296e-06 3.33657e-06 -3.72136e-06 5.53412e-06 1.89725e-06 1.01881e-05 -5.57124e-07 -7.86678e-06 -2.73854e-06 
4.63509e-06 -2.76167e-05 -2.26973e-05 3.28922e-05 -8.54745e-07 -1.91974e-06 -2.64728e-06 -3.20564e-06 -1.59715e-06 
1.54848e-06 2.47934e-06 -1.29851e-06 -5.43796e-06 -2.09299e-07 -7.56886e-06 -7.41047e-06 -3.3306e-06 -3.59662e-06 
5.06398e-06 -1.55808e-05 3.80558e-06 3.56679e-06 7.36547e-06 -6.97743e-06 -7.31936e-06 -1.56222e-06 -1.01994e-05 
8.56263e-06 -1.91127e-06 -1.19739e-05 1.22411e-06 1.41254e-05 3.36068e-06 2.4728e-06 -1.70124e-05 -2.03094e-06 
5.44628e-05 4.30984e-05 -1.83405e-05 3.96277e-05 2.6264e-05 5.8163e-06 5.5717e-05 3.23926e-06 4.33558e-05 
-1.89407e-06 9.87386e-06 -8.89299e-05 6.99604e-06 -9.78376e-06 3.64562e-05 5.46786e-06 6.95496e-06 3.67865e-05 
2.8283e-06 2.13779e-05 7.76805e-06 -2.8233e-06 -7.33917e-06 1.98766e-05 1.71784e-05 1.22307e-06 7.13523e-06 
9.04195e-07 8.56402e-06 -2.05485e-07 -1.02826e-05 1.5773e-05 1.77633e-06 -2.11509e-05 3.3139e-05 -7.96139e-06 
-5.40753e-06 3.40813e-05 4.75676e-06 2.49264e-06 2.61236e-05 -2.22752e-05 -0.000149093 6.99745e-05 2.1761e-06 
-3.03354e-05 4.46124e-05 1.56381e-06 -0.000120959 0.000207619 -3.03783e-05 -2.89566e-05 -4.61133e-05 5.29734e-05 
-4.50888e-06 9.67958e-05 -0.000123847 5.31612e-05 9.35252e-05 3.93684e-05 1.17464e-05 -6.91814e-06 -1.81613e-05 
1.54713e-05 1.36715e-08 3.76303e-05 1.28662e-05 -6.63702e-06 1.84057e-05 -8.60266e-06 -4.88497e-06 1.85016e-06 
-1.93539e-05 -2.4256e-06 -2.60124e-05 -1.43027e-05 -7.89747e-06 -3.16354e-05 2.50666e-05 1.70274e-06 -1.33388e-05 
-5.06849e-06 -5.27399e-06 -1.08855e-05 -1.41139e-05 -2.6764e-05 4.2919e-05 -1.24898e-05 6.60798e-06 9.19723e-06 
-1.68718e-05 2.74079e-07 -4.1235e-05 -2.30282e-05 -8.07308e-06 3.49758e-05 -1.53342e-05 1.35658e-05 -5.6702e-06 
8.29719e-06 1.75418e-06 2.00967e-05 2.15904e-06 -2.0885e-06 -5.02244e-06 -1.25524e-05 9.65835e-05 -1.34581e-05 
3.79032e-06 7.83498e-05 5.08809e-05 -7.39519e-05 -1.15646e-05 3.7557e-06 -0.000104983 1.12036e-05 2.33135e-05 
-4.968e-05 -8.05945e-05 -1.50603e-06 -5.63269e-05 -2.52007e-05 -4.04823e-05 3.11619e-05 -5.12246e-05 -5.9964e-05 
7.42687e-05 4.49691e-05 -4.70554e-05 1.5065e-05 -0.000139332 0.000154462 -0.000221551 -0.000241675 0.000217541 
-0.000155611 3.68652e-05 1.58517e-05 -2.74843e-05 -2.26444e-05 -5.02576e-05 -3.26785e-05 -5.59344e-06 4.53041e-05 
-1.20033e-05 2.62009e-05 -3.51178e-05 6.89592e-06 -9.73526e-05 5.0582e-05 -1.52237e-05 -0.000105754 5.19918e-05 
4.15016e-05 -0.000125849 0.000191929 -6.01566e-05 -2.69421e-05 -9.81405e-06 -2.43966e-06 -3.12456e-05 -2.42099e-05 
1.00512e-05 1.61343e-05 -2.69193e-05 -2.12985e-05 5.56011e-05 -8.96437e-06 9.18854e-05 4.90148e-05 -3.25793e-05 
-4.3559e-06 4.9543e-06 -1.5487e-06 2.30623e-05 7.17632e-05 4.23936e-06 1.12452e-06 0.000115973 3.64804e-05 
-3.50001e-06 1.44556e-05 -2.09336e-05 0.000100998 2.37804e-05 -6.22671e-05 0.00016761 -7.04831e-06 0.000208716 
9.89925e-06 -2.98378e-05 5.88155e-06 -0.00012639 -4.47707e-05 2.69146e-05 6.28993e-05 7.17665e-06 3.13578e-05 
-5.04842e-05 -3.94596e-06 -9.08807e-05 0.0001441 -9.99248e-05 -0.000116892 7.27711e-05 -0.000106007 5.17589e-06 
-0.000102181 2.97011e-05 -0.000112756 -4.04355e-06 -2.99835e-06 -1.54685e-05 7.77368e-06 -1.045e-05 1.19657e-05 
1.40747e-06 5.16225e-06 0.000112076 1.6184e-05 3.75736e-05 -3.08598e-05 3.88144e-05 -1.77772e-05 -9.30624e-06 
2.35325e-06 -0.000122033 -1.92212e-06 -1.05926e-05 -6.47244e-06 -1.6123e-05 8.61892e-05 8.32148e-06 0.000131268 
-3.08102e-05 5.57937e-05 0.000113557 -0.000137703 -0.000112325 -2.16e-05 2.26656e-05 -2.47191e-05 -0.000155321 
-0.000101493 1.25373e-05 6.66927e-05 3.4816e-05 1.64117e-05 7.96758e-05 -3.00388e-05 6.12368e-05 8.78975e-05 
-0.000112881 2.27186e-05 8.42932e-05 0.000117438 2.28222e-05 6.53786e-05 -6.85329e-06 -1.42273e-06 -2.56585e-06 
-0.000101286 0.000179951 5.87778e-06 1.45184e-05 -4.23977e-05 -5.26125e-05 -6.41635e-05 0.000133547 0.000158466 
2.06421e-05 4.37109e-05 -7.5065e-05 -7.76648e-05 -6.07898e-05 -0.000260566 -1.10024e-05 -1.0761e-05 -3.4434e-06 
1.79968e-05 -4.652e-05 1.15048e-05 1.32754e-05 9.59441e-06 -1.6307e-06 4.43176e-06 5.5315e-06 2.40189e-05 
8.58059e-06 -4.03855e-05 6.9297e-05 -5.85674e-06 4.69573e-06 -2.49628e-06 -2.59995e-05 -4.47266e-05 1.83633e-05 
9.86329e-06 9.58051e-06 1.41231e-05 -1.77332e-05 -6.3279e-06 2.44384e-05 4.52544e-07 -1.12872e-05 -9.694e-06 
1.57468e-05 -1.13041e-05 2.16773e-06 2.08007e-05 -5.92475e-06 1.56762e-05 1.25653e-05 -2.45613e-05 -4.14665e-06 
1.18557e-05 -9.51831e-06 -2.90005e-06 1.37892e-05 3.02962e-06 1.47592e-06 5.99682e-06 -8.42834e-06 -1.06673e-06 
5.04477e-06 7.40405e-06 5.14218e-06 -4.98697e-05 -1.59568e-05 9.24045e-07 2.06262e-05 -2.18374e-06 -6.16936e-06 
-1.22623e-08 8.49649e-06 5.73049e-06 -6.47241e-06 -1.30553e-05 -3.7532e-07 1.31872e-06 -2.67279e-06 -9.55019e-06 
-3.67848e-06 2.53058e-06 -1.02575e-05 1.87176e-06 -1.4856e-05 3.07534e-06 -2.51917e-06 9.10574e-06 -1.96201e-05 
-1.33005e-05 2.4707e-05 -2.0791e-05 4.56995e-06 2.39281e-05 -2.48764e-06 4.32186e-06 -9.33757e-06 -1.36379e-05 
0.000111218 -3.49142e-06 1.11546e-05 -3.77051e-06 -1.69933e-05 3.30642e-05 3.96262e-06 3.22835e-06 7.94719e-06 
-4.88839e-06 -8.02579e-06 1.98867e-05 -5.17974e-06 5.65002e-06 6.88215e-06 -3.05975e-05 7.17921e-06 -2.1416e-05 
-2.80665e-05 3.36797e-05 1.63321e-05 -3.24121e-05 3.34444e-05 2.46596e-07 2.07513e-05 -3.72716e-05 -3.40375e-06 
4.30064e-05 9.41093e-07 -3.58576e-06 -3.72769e-05 2.29793e-05 -1.56541e-05 -1.80083e-06 -1.9909e-05 1.21204e-07 
1.98336e-05 -2.19629e-05 -1.43069e-06 2.00313e-05 -1.7073e-05 -2.17519e-05 1.27697e-07 -2.08056e-05 3.3181e-05 
9.97584e-06 3.55645e-05 -3.01443e-05 -2.12527e-05 -2.30017e-06 -5.40231e-06 2.26576e-06 6.61073e-05 -5.68741e-06 
2.74698e-05 1.25697e-05 -2.0132e-05 4.31439e-06 -1.64698e-05 1.67884e-05 1.93987e-05 7.28253e-05 -0.000213017 
6.47163e-05 -1.16006e-05 -0.000194997 1.14413e-05 1.27833e-05 2.85315e-06 -7.13212e-06 -2.04645e-05 2.31494e-05 
1.45363e-05 -3.47775e-06 -4.27689e-05 6.28668e-07 -2.25259e-06 -5.03865e-06 -6.47409e-07 2.77077e-05 -3.77707e-05 
-4.83188e-05 -2.63269e-05 2.84059e-05 -1.96339e-05 -1.49997e-05 -2.04554e-05 1.76826e-05 -2.35827e-05 -3.16251e-05 
-4.44077e-05 -8.37487e-05 -5.6172e-05 3.69125e-05 -1.5807e-05 0.000120617 -5.31387e-05 -0.000166477 0.000108492 
2.19721e-05 4.47492e-05 -2.47787e-05 -1.76287e-05 -2.89029e-05 -3.55366e-06 -1.92298e-05 -5.41998e-06 -3.15988e-06 
9.7613e-06 -4.69984e-06 -6.07533e-06 1.65888e-05 3.15981e-06 3.54135e-05 3.4508e-05 -2.35535e-05 2.03414e-05 
1.69843e-05 1.01199e-05 2.20556e-05 -6.82614e-05 8.5558e-06 0.000170822 -0.000126157 -5.82933e-05 7.84706e-05 
8.75569e-06 -3.18161e-05 6.96166e-05 2.31881e-05 -3.25436e-05 -1.83806e-06 1.77099e-06 -3.52963e-05 -2.20943e-05 
4.35756e-06 8.7886e-06 -4.42693e-06 -8.0531e-06 -4.50559e-05 2.57844e-05 6.21157e-06 -1.15705e-05 6.39693e-06 
4.13172e-05 4.40227e-06 -2.28829e-05 6.66323e-05 2.43496e-05 1.62859e-06 2.76262e-05 -2.76272e-05 -1.93554e-05 
-2.50776e-05 -4.40478e-06 -1.71716e-06 2.14089e-05 2.41805e-05 -3.47546e-05 1.46049e-05 1.72169e-05 2.42693e-05 
5.23348e-05 2.19418e-06 8.11362e-06 1.2535e-05 -2.6225e-05 -1.78652e-05 -6.25463e-06 1.33213e-06 0.000124761 
-5.26544e-05 -4.6e-05 5.91969e-05 -7.87045e-05 5.54984e-05 -3.34048e-05 3.19049e-05 5.76338e-05 2.64566e-05 
-7.92799e-06 7.65491e-07 2.19107e-05 4.43512e-05 3.7853e-05 -0.000111383 -2.38219e-05 3.35571e-06 4.85429e-05 
-1.09386e-05 -2.73621e-05 -5.24799e-06 -1.60483e-05 -5.02355e-05 6.87236e-06 -1.53426e-05 -5.43458e-05 6.08713e-05 
-9.64572e-07 -1.23173e-05 2.7476e-06 -5.35179e-06 4.12134e-05 -4.40113e-05 1.04121e-05 -4.19666e-05 -3.32357e-05 
7.12721e-05 -1.34177e-05 -2.74219e-06 -1.61864e-05 2.3404e-05 2.24255e-05 -2.8785e-05 -7.53898e-05 -3.77511e-06 
0.000104882 -4.89533e-05 8.42793e-07 5.84305e-05 -9.02858e-06 1.44994e-05 1.73764e-06 1.33603e-05 -4.99899e-05 
6.00284e-05 -4.74612e-06 -8.61883e-06 6.38297e-06 1.00907e-05 0.000101729 4.81326e-05 -5.18146e-05 -2.81695e-05 
0.00010932 9.52815e-05 1.29371e-05 -3.06746e-05 1.87898e-05 4.77485e-05 3.54773e-05 3.79944e-05 3.44558e-06 
5.10231e-05 -3.04095e-05 1.37106e-05 1.58622e-05 -2.968e-05 2.53009e-05 -3.61155e-05 -3.08492e-05 -4.32809e-05 
9.90484e-05 2.16559e-05 -1.77401e-05 1.2409e-05 2.98467e-05 5.20182e-06 -3.93264e-06 -1.62336e-05 8.65402e-06 
1.20646e-05 2.12736e-06 1.34531e-05 -1.65911e-06 3.16475e-05 -1.71758e-05 3.21909e-06 -8.62195e-06 -2.51376e-05 
9.37238e-07 1.60376e-06 -2.76333e-05 -1.4258e-07 -6.21471e-06 -5.25451e-05 0.00014333 -0.000161166 -2.02125e-05 
8.61363e-05 0.000125483 -0.000119253 -1.77465e-05 2.17946e-05 -7.02446e-06 -1.93385e-05 -8.39717e-06 -2.42937e-05 
-3.96588e-05 4.61962e-06 -7.51522e-06 -5.38388e-05 3.05263e-05 4.15284e-05 -4.47423e-05 5.33677e-05 2.71883e-06 
7.72335e-06 -3.34246e-05 -1.59716e-05 -0.000111204 -9.89937e-05 3.54212e-05 -3.76216e-05 -1.15297e-05 4.09201e-06 
2.38119e-05 -7.62295e-06 -5.0915e-05 -4.09709e-05 6.84291e-05 -6.17268e-05 -1.14838e-05 -5.96088e-05 2.04611e-05 
-6.30987e-05 6.91618e-05 1.46679e-05 3.67918e-05 3.25387e-05 1.11078e-05 4.63316e-05 3.03824e-05 8.60407e-06 
-7.94543e-06 -3.85931e-06 7.51316e-05 -9.18505e-05 0.000188049 4.54642e-05 8.73309e-05 -6.60037e-05 5.6888e-05 
4.44445e-05 1.67524e-05 -8.3629e-06 -1.7738e-05 2.52239e-05 7.0041e-06 4.80983e-06 -0.00013376 1.46527e-05 
6.48066e-05 -3.84684e-05 -1.95667e-05 2.01093e-05 -7.45451e-05 1.23654e-06 8.17813e-06 -1.01013e-05 -2.42093e-05 
1.24964e-05 -1.53715e-05 -4.65143e-05 1.17642e-05 4.0198e-06 2.98519e-05 3.35253e-06 -5.23338e-05 1.96915e-05 
2.43533e-05 0.000184819 1.03753e-05 -3.56978e-05 -9.33201e-06 -6.3276e-06 1.07863e-05 -1.22265e-06 -7.97038e-06 
-4.04546e-06 -9.82397e-06 2.36394e-05 -7.44043e-06 -1.08936e-05 2.19932e-05 3.21631e-05 1.41061e-05 1.15576e-05 
3.49925e-05 -4.07975e-05 -5.19119e-05 -2.11468e-05 -2.86248e-05 1.40264e-06 3.42818e-05 -2.26288e-06 -1.27146e-05 
-1.84542e-05 1.36019e-06 2.54617e-05 -2.79387e-06 2.88662e-05 3.93585e-05 -3.58188e-05 -1.07619e-05 -2.53866e-05 
-2.842e-05 1.31219e-05 7.80317e-05 -1.00629e-06 5.99458e-06 5.6694e-05 2.57702e-05 -1.1759e-05 5.40815e-06 
1.02334e-05 -7.66211e-07 1.71411e-05 -2.55826e-05 -1.2971e-05 -5.87142e-05 -1.51522e-05 -2.12945e-05 -9.83114e-06 
4.55642e-05 -9.06777e-07 -2.37414e-05 -1.65385e-06 3.60066e-05 -2.29325e-05 -1.73735e-05 4.3666e-06 5.27417e-05 
1.59355e-05 -2.37316e-05 -4.25844e-05 -3.42786e-05 3.7509e-05 4.05174e-05 -4.98483e-05 -2.96703e-05 -3.03524e-05 
1.6745e-05 -2.78328e-05 3.31254e-05 -3.40239e-05 -4.61759e-06 -9.48756e-06 1.04858e-05 4.80389e-05 7.21558e-05 
-9.662e-05 5.0202e-06 -8.52248e-06 -5.56221e-06 6.39184e-06 1.97001e-05 -4.04327e-05 0.000112745 -0.000136976 
-8.60141e-05 2.07555e-05 4.35633e-05 3.08207e-05 -1.62134e-06 1.12686e-05 -5.35535e-05 -2.27302e-05 -1.44998e-05 
1.77512e-05 -7.49789e-06 -2.49385e-06 -2.53752e-05 2.51651e-06 1.23263e-05 2.98454e-05 -6.67523e-06 0.000107041 
-8.05874e-06 4.02795e-05 -3.3068e-05 -2.31493e-05 9.03742e-07 9.08078e-05 -6.78185e-05 3.89595e-05 -4.22703e-05 
-4.2286e-05 -2.74665e-06 -2.53732e-05 -2.96817e-05 6.60861e-06 3.80652e-05 3.27203e-06 3.03789e-06 -5.21793e-05 
-2.64281e-05 -0.000131401 -2.92802e-06 6.01966e-05 5.56309e-06 7.25232e-05 4.75267e-06 2.99736e-06 -1.45366e-05 
-3.11985e-05 7.55732e-06 -1.20636e-05 5.24313e-05 -4.88541e-05 -6.4528e-06 3.00635e-05 -5.93768e-05 -9.03292e-05 
5.91047e-06 2.75123e-05 1.85986e-05 6.81488e-06 -0.000101563 3.15761e-06 4.07084e-05 -3.95162e-05 3.92953e-05 
-6.79061e-05 1.99643e-05 9.15651e-05 -2.22025e-05 1.1648e-05 -2.55682e-06 7.73382e-06 -7.35881e-05 9.43209e-06 
6.97829e-06 1.83223e-05 -6.50151e-05 1.59448e-05 2.91881e-05 -3.41356e-05 2.14381e-05 -8.74475e-05 2.2999e-06 
3.70365e-05 -5.84784e-06 2.10912e-05 -0.000119052 0.000125035 4.69506e-05 -5.34577e-05 6.62533e-05 9.40086e-05 
-5.20381e-05 -1.2121e-05 -7.49936e-05 1.49222e-05 3.05763e-05 -5.16129e-05 -1.4721e-05 -7.33546e-05 1.39894e-06 
-1.88635e-05 -1.49099e-06 -6.336e-05 -1.83306e-05 0.000176565 -8.09411e-05 -0.000108849 -2.57804e-05 2.01159e-06 
-0.00384386 1.14094e-05 -1.8544e-06 -4.78326e-06 -5.07987e-06 -1.38079e-05 -5.29536e-06 -1.14224e-05 -4.97226e-06 
-2.7076e-06 2.65926e-07 -7.80935e-06 1.43009e-06 -6.90355e-06 1.31278e-05 -2.67459e-06 5.63489e-06 1.92629e-05 
-1.19568e-05 1.09774e-05 -1.40562e-05 2.7732e-05 1.79085e-06 8.4297e-06 6.99498e-06 2.58337e-05 -4.17101e-06 
4.04428e-05 -2.4997e-05 3.06956e-05 -4.43097e-05 1.62843e-05 -5.66501e-05 -1.17849e-05 3.621e-05 -4.76834e-05 
-2.88105e-05 -4.21873e-05 -1.2893e-05 -3.23126e-05 1.27819e-05 -6.66986e-06 9.12704e-06 -5.75652e-05 5.04671e-05 
-4.21007e-05 7.41298e-05 -5.57348e-06 -1.59681e-05 -1.16397e-05 4.7819e-05 -1.49826e-05 7.96758e-05 7.81059e-06 
5.11473e-05 1.88449e-05 -1.77069e-05 1.58263e-05 9.69711e-05 6.05498e-06 0.000122966 4.76706e-05 -6.01968e-05 
0.000147935 0.000157057 0.000205723 0.000360033 0.000441331 0.000474808 -0.00582906 0.016239 -6.06137e-06 
2.12055e-05 1.74293e-05 2.23478e-05 9.87474e-06 -5.91376e-05 -3.25536e-05 4.49475e-05 3.67467e-05 0.000145309 
0.0104395 1.37199e-05 -0.00688175 0.00267224 -1.68224e-05 -0.000847836 -0.000338866 -0.000186633 -8.79175e-05 
-1.00516e-05 -7.96106e-05 -5.15245e-06 -6.20265e-05 6.37841e-06 -5.10042e-05 7.22811e-06 -3.86223e-05 1.87711e-05 
-5.91287e-05 2.20358e-05 -4.90109e-05 3.02571e-05 -3.14676e-05 1.42618e-05 -5.81589e-05 -3.59989e-08 -6.70574e-05 
4.01126e-05 -6.63888e-05 7.09195e-05 -3.87969e-05 9.28004e-05 1.16423e-05 -5.13626e-05 7.14271e-05 4.6872e-05 
6.10031e-05 -1.46725e-06 5.52137e-05 -3.35995e-05 4.45028e-05 -5.18439e-05 1.01105e-05 -1.52293e-05 2.28788e-05 
-4.67832e-05 1.41496e-05 -4.72449e-05 -1.37072e-05 -4.01742e-05 1.50312e-05 -1.09245e-05 -1.78445e-05 -1.15701e-05 
-1.43209e-05 -3.52585e-06 -1.30055e-05 7.84666e-07 7.23282e-06 -1.18746e-06 -6.7267e-06 -1.17419e-06 -1.11059e-05 
1.26845e-05 -6.67685e-06 1.86731e-05 -1.69727e-06 1.97097e-05 1.52521e-05 2.07832e-05 -1.07368e-05 1.34809e-05 
1.19778e-05 -1.0252e-05 -6.9725e-05 -0.000226055 -4.929e-05 -1.88595e-05 0.000105539 -5.46338e-05 -3.27629e-05 
-4.00298e-07 2.94613e-05 -2.46564e-06 2.37806e-05 -3.32215e-05 -2.10443e-05 1.03218e-05 6.62082e-06 6.76e-06 
1.21777e-05 1.12086e-05 9.735e-06 2.23084e-06 -9.43846e-06 -5.54291e-07 -7.77961e-07 1.80883e-06 -8.3885e-08 
-1.11895e-05 4.07553e-06 1.3256e-05 1.60056e-05 6.32295e-06 1.49688e-05 -1.25091e-05 8.04929e-06 1.61117e-06 
-5.59417e-06 -1.14337e-05 -9.69852e-06 -2.04433e-06 1.15618e-05 3.49952e-06 2.45065e-06 -3.34519e-06 -2.07549e-05 
-3.61027e-06 -5.85815e-06 -4.90698e-06 7.32614e-07 1.00412e-05 7.95416e-06 3.99376e-06 -7.35757e-06 3.87566e-05 
-4.01434e-06 1.52978e-05 -2.31548e-06 -1.51049e-06 -1.3789e-05 1.30205e-05 1.44093e-05 -1.32104e-05 -6.07108e-06 
4.54082e-06 0.00119886 0.00816956 -0.00288893 -0.0004287 -0.000115929 0.000313359 -0.000901989 -0.0023296 
-0.00532926 -0.00238526 -0.00579664 -0.000454957 -0.00784959 -0.00992691 -0.00441282 -0.00391423 -0.00436998 
-0.0027503 0.00222539 0.00242867 -0.00260936 -0.00183143 0.00221945 -0.00313788 0.0012421 0.00296892 
-0.00135652 0.00489457 0.00362388 -0.00450295 0.00367576 -0.00542389 -0.00779965 -0.00577534 0.00562297 
0.00116865 0.00313228 -0.00232139 0.00557726 -0.00302885 0.00466441 -0.00426345 -0.000316524 -0.000317703 
-0.00417143 -0.00429211 -0.00218644 -0.000735739 0.000224667 0.00154982 -0.00591638 0.00264381 -0.00280081 
0.00319176 -0.00289852 0.00219651 0.00265157 0.00290298 0.00295264 -0.00562312 0.00713554 -0.00997344 
0.00261545 0.00273549 0.00192797 0.00224638 0.00290912 0.00356213 -0.00273574 0.00101095 0.00354879 
-0.00250711 0.000847691 -0.00408407 0.00662372 -0.0029546 0.00706588 -0.00397333 0.00589946 -0.00487123 
-0.00100589 -0.00498459 -0.00373428 -0.0066659 -0.00384179 0.0023016 -0.00182507 -0.00299303 -0.0043155 
-0.00350667 -0.00460374 -0.00401011 -0.00615629 0.000637431 -0.00352995 0.000860937 0.0090381 -0.00984822 
-0.000230002 -0.0010268 0.000253165 -2.48252e-05 -0.00164071 -0.00113263 -0.00222391 0.000389773 7.22099e-05 
-0.00491075 0.0114169 0.00383703 0.0010318 0.000437633 -0.00114826 -5.43043e-05 0.00158632 0.00242817 
0.00446715 -0.00575023 0.00271272 0.00324791 0.00338173 -0.00204247 0.00292322 -0.00164892 -0.0043977 
-0.0017291 0.00255709 -0.00277982 -0.00688041 -0.00216739 -0.00524498 -0.000485184 0.00342303 0.00131456 
-0.00109029 -0.0049637 0.00184232 -0.00436211 0.00702284 -0.00891033 0.00787299 0.0004203 -0.000823176 
-0.00990759 -0.00524691 -0.0029989 -0.00312876 -0.00422022 0.00234761 -0.00255879 0.00235376 -0.00247527 
0.00209945 -0.00285348 0.00176675 -0.00354244 0.00175647 -0.00387939 0.00176009 -0.00453303 0.00303969 
-0.00336 0.00112455 0.00120514 0.00328092 -0.000893678 0.000129796 -0.000111919 -0.000344592 -0.000105039 
1.73269e-05 -0.000615469 3.64028e-05 -0.00037972 0.000227972 -0.000953875 -0.000166992 -0.000778949 -0.000593766 
0.00149488 0.000664517 -0.0013963 0.000330426 0.00193276 0.00284519 -1.72755e-05 0.00309257 0.000920176 
-0.000847035 -0.000642414 -0.000774152 1.93035e-05 -0.000357821 -0.000319246 -0.000235403 -0.000499564 -0.00017833 
-0.000801998 0.00017536 -0.000245354 3.5865e-05 0.00022144 0.00367983 0.00323381 0.00199947 0.000873027 
-1.3558e-05 0.000499958 3.46608e-06 0.000363114 -2.38301e-05 0.000311588 -5.93873e-05 0.000678134 8.52625e-05 
0.000368442 0.000136939 -5.11592e-05 -0.00375088 -0.00215812 -0.00101883 -0.00160167 -0.00113519 -0.00302176 
0.000110103 0.00102541 0.000132225 8.19491e-05 0.000180306 1.72164e-05 -0.000125497 0.000609014 0.000109522 
-2.14638e-05 -0.000842706 -0.000590393 -0.00094926 0.000568947 -0.00254337 -0.000909558 -0.00112802 0.0022318 
0.00726934 0.000121488 -0.00197535 -0.000110799 -0.000325508 0.00111959 0.000346966 -0.00479252 -0.00301061 
0.00203074 0.000715908 -0.000104549 -0.00152974 2.75853e-05 -0.000109691 4.61497e-05 0.000150702 -0.000234512 
-0.000825342 -0.00272856 1.66227e-05 0.00117703 -0.000810093 -0.00605607 -0.00503593 0.000430394 -0.000993163 
0.000616157 6.9614e-05 -1.37814e-05 5.9168e-07 -0.000873282 -0.000371828 0.00279488 0.00125162 -0.000115525 
-0.00123066 -0.000396335 -0.000247507 -0.000179703 0.00103155 0.00049173 -0.000107 0.000741364 0.000845427 
-0.00119694 -0.00356976 -0.000828308 -0.00283253 -0.00131582 -8.67038e-05 -0.00266871 9.21494e-05 -0.00141906 
-0.000996001 -0.000659641 0.00358046 -0.00159496 -0.00450345 -0.00228909 -0.000623215 0.0010103 0.000155483 
1.74917e-05 0.000237415 -0.000425728 0.000145818 -0.000539783 0.000162898 -0.00070003 0.000226085 -9.69047e-05 
0.00115824 1.13344e-05 0.000321403 -0.00184098 -5.52086e-05 0.0025676 -0.00127448 -0.00167518 -0.00139812 
-0.00236049 -0.00285807 0.000430326 0.0011426 0.000310365 0.000551195 -4.03779e-05 0.000526855 -0.000289048 
-8.5467e-06 -0.000368604 0.000353247 -0.000240267 -5.92804e-05 0.000634216 0.000590217 -0.00357072 -0.00265811 
-0.00165147 0.00234546 0.000513503 0.000530365 -0.00108604 0.000608059 -0.000228274 0.000623869 -0.000146157 
0.000612959 -0.000110232 0.000366683 -8.11218e-05 0.000157641 -0.000461456 -0.000144882 -0.00118218 0.00182757 
0.00338752 0.0009351 0.00171474 0.00240954 0.00121708 -0.000439549 -0.000106757 4.73387e-05 0.000433646 
4.18609e-05 0.000301522 -9.99822e-05 0.000116307 0.000207211 0.000438605 -0.00134831 0.000411007 0.00315279 
-0.0071739 -0.00472065 0.00215296 0.00158801 6.40131e-06 0.000125679 -7.80949e-05 -0.000240666 -0.000489182 
0.000305828 0.00449319 0.00510932 -0.000722844 0.000121407 -0.000140571 3.9582e-05 -1.03899e-05 -0.000286309 
-0.000144147 -0.000194578 -0.000345235 0.000189957 -0.00166736 0.00182847 0.00163202 -0.00200289 0.00234082 
-2.87964e-05 0.000175101 -1.71943e-05 -0.000282458 0.000346235 -0.00014466 -0.0029463 -0.00650985 -0.00128148 
0.0025134 -0.000762837 -3.04477e-05 -8.83182e-05 -0.000182819 -0.00030936 -0.000275592 -0.000493161 -1.70001e-05 
0.000732298 0.00537243 0.000950707 0.00350634 0.00110724 -0.000340245 -0.000348433 0.00186797 -0.000192295 
0.00317913 0.00293821 -0.0109694 -0.00716601 0.0025762 -0.00237675 -0.00622294 -0.00466029 0.00509592 
-0.00244852 0.00275219 -0.00241703 0.00222421 -0.00244399 0.00214147 -0.00240724 0.00193629 -0.00172174 
-0.00270655 -0.00296744 -0.0035562 -0.00480842 -0.00266643 0.0104233 0.00567208 -0.00120226 0.00487877 
0.00478177 0.00283721 0.00185418 0.00427298 0.00479954 0.00339024 0.0043068 -0.00199006 0.00164894 
0.00294172 0.00294753 0.00266365 0.00227813 -0.00361233 -0.00497069 -0.00185386 0.00234337 -0.00317286 
-0.00101329 0.00244455 0.0013817 -0.00162468 -0.00092329 -0.000584704 0.0013207 -0.0013124 -0.000133062 
0.000104787 0.00185403 -0.00112418 0.00055819 0.00127752 0.00108076 -0.000430601 -0.00170916 -0.000853596 
-0.000452665 -0.000580312 0.000997307 -0.00140793 0.00247795 -0.000904994 0.00176037 0.000616246 -0.00255349 
-0.000976104 -0.00207118 0.00184518 0.00259686 0.000145218 0.00242104 0.00208375 0.00187215 0.000227611 
-0.000129782 0.00105831 -0.00177959 -0.00112351 -0.000508589 -0.000208561 -0.00025139 -0.00155147 0.00132841 
0.000210235 -0.000318892 -0.00212895 -0.00322069 0.00209473 -0.0014802 -0.00225485 -0.000435079 -0.000379186 
0.00054307 -0.000353906 0.000629195 0.000664359 0.00147497 0.00135133 0.00105059 -0.00241757 -0.000633135 
-0.00146274 0.000364345 -0.002534 0.00159384 -0.00132857 -0.00120902 0.001692 -0.00192104 0.00110063 
-0.00111371 0.00133123 0.000992951 0.0011831 -0.0016668 0.00126218 -0.00149288 0.00100838 0.00709278 
0.00809009 0.000163294 0.000344166 0.00222621 0.00128658 0.000170211 -0.00123591 0.000775465 -0.0032859 
-0.00158025 -0.00194438 -0.00071401 -0.000236277 0.00285184 -0.00301264 0.00922396 -0.000685516 -0.00248516 
-0.000564308 -0.000803974 -0.0090893 0.00361758 -0.0077084 0.00368209 -0.0012445 -0.000619371 -0.00113953 
0.000185172 0.000762881 0.000519603 -0.000300954 -0.000529315 0.00447169 -8.84811e-05 0.000356486 0.000723481 
-0.00128762 0.00157379 0.00198165 0.000780936 -7.63e-05 -7.73161e-05 0.00378852 -0.0018533 -0.00266934 
-0.00902469 -0.00638531 0.017675 -2.57051e-05 0.0018897 0.00315108 -9.84136e-05 -0.00117186 -0.00052018 
0.000108862 -0.00151857 0.00116053 -0.00169668 -0.00100478 0.00128171 0.000702351 0.000461755 0.00175201 
0.00147885 -0.00126198 -0.000114033 -0.0068738 0.0046159 -0.000481243 -0.000387682 0.00126852 -0.00116169 
0.00207217 0.00362211 -0.00780789 0.00713753 0.00149242 -0.00331143 0.00122085 -0.000868193 0.00379347 
-0.0015991 0.00692455 0.00608968 -0.00151096 -0.0040554 -0.00435779 -0.000389756 0.00307244 0.00302379 
-0.000531652 -0.000461213 5.05398e-05 -0.00342525 -0.00011054 0.00062906 -0.00223813 0.00599813 -0.00302657 
0.000497595 0.00577259 0.0085852 -0.00364136 -0.000383869 0.00271548 -0.00688614 0.00144178 -0.000902041 
-0.00492586 -0.00347156 0.00904594 -0.000469373 0.0107599 0.0159111 0.00259585 0.00529202 -0.000595577 
-0.00166881 -0.00786888 -0.000465761 0.000243062 -0.00423577 -0.00790241 0.00556874 0.00105817 -0.0044521 
0.000433256 0.001984 0.000860359 -0.00411662 0.00321236 0.000733482 -0.000521987 -0.000469512 -0.0016196 
0.000621169 -0.00210792 0.00671086 -0.00504527 0.00092052 0.00734767 0.000656023 -0.000659574 0.00106833 
0.00346542 -0.000285969 0.00105739 0.000354235 -0.00365903 0.00282645 -0.000784748 2.69829e-06 5.39377e-06 
-2.07209e-06 4.03704e-06 -9.34305e-05 0.00119094 0.00183851 -0.00111484 0.000359226 0.000227381 4.31358e-06 
2.42244e-06 1.15669e-05 7.13092e-06 -2.14945e-05 3.78833e-05 -4.73435e-05 -1.43839e-05 -3.86063e-06 1.03213e-05 
-0.000160556 0.000352995 -7.39123e-05 -1.57325e-05 1.04791e-06 -6.75552e-06 -9.41889e-05 1.09485e-05 6.75807e-07 
-6.06906e-05 0.00209578 -0.0016249 0.0017838 0.000384327 0.0051955 -0.00317788 0.00645433 -0.00320004 
7.60128e-05 -9.49397e-05 4.08257e-06 -1.89368e-05 2.50664e-05 1.7922e-05 -2.95168e-05 1.5683e-05 -3.29573e-06 
5.13514e-06 2.47671e-05 2.11327e-06 7.98146e-06 2.6546e-05 -1.33073e-06 1.02947e-05 3.98153e-05 -0.000202143 
0.000535182 -0.000977485 0.00070568 2.90928e-06 -1.20053e-05 -1.03961e-06 0.000887279 0.000228044 -7.29594e-05 
0.000452056 0.00833059 0.000163221 0.000521968 6.37218e-05 4.07219e-05 1.2704e-05 3.51752e-05 -0.00654236 
0.00313739 -0.00694999 0.00248133 -7.40254e-05 7.97433e-05 -3.63563e-05 4.5331e-05 0.00141583 -0.000118267 
-0.000160061 -6.28432e-06 -1.70669e-06 -1.44061e-05 1.4906e-06 5.32076e-06 -1.31116e-05 -1.1967e-05 3.92433e-06 
-3.79329e-06 -2.23809e-06 -0.00259306 -0.00651604 0.000732943 -1.24569e-05 4.14792e-06 -8.65305e-06 4.561e-06 
2.66692e-05 -8.94018e-05 4.1597e-05 0.00880058 -0.000211987 -8.073e-05 0.00172128 0.000987287 8.07331e-05 
0.000166376 -2.06962e-06 4.35066e-06 -4.7316e-06 -0.00332425 -0.00366387 0.00930038 -3.24718e-05 -3.39648e-05 
6.80454e-05 -1.48608e-05 -6.07767e-06 -2.2092e-06 -7.4529e-06 -2.34873e-05 6.59611e-06 1.73741e-05 -2.59108e-05 
4.97518e-06 2.43946e-05 -0.000125574 0.00016333 0.000546123 -0.000263616 3.8917e-06 3.17458e-06 4.31798e-08 
-8.27825e-06 5.26605e-06 -0.000124068 7.2002e-05 -0.000230446 -2.14628e-05 6.72439e-06 -3.35975e-06 -7.14224e-06 
-4.15316e-06 1.56163e-06 5.2162e-06 1.19496e-05 -3.84755e-06 1.93895e-06 5.92832e-06 2.21061e-06 3.10823e-06 
-1.27971e-05 5.34518e-06 -1.54295e-05 -1.76646e-06 -2.40875e-05 2.33652e-05 -1.12388e-06 1.87444e-06 -1.49079e-05 
1.23073e-05 -5.20413e-05 -2.14291e-05 -5.57475e-05 4.30258e-05 1.02392e-05 4.35198e-06 -6.73815e-07 3.46129e-06 
-0.00917911 -0.00880227 -3.5269e-06 -2.11893e-07 -1.98091e-06 5.28234e-06 -0.00011612 7.48707e-05 0.000107896 
9.6605e-05 -6.73767e-06 -3.2715e-07 2.02296e-06 -2.4164e-05 0.000113037 1.9938e-06 -1.11505e-06 -1.32025e-05 
-6.01185e-06 -6.868e-05 -9.63338e-05 -3.16528e-05 9.4341e-05 -4.30206e-05 -7.93075e-06 -1.15774e-05 -1.4304e-06 
3.07028e-06 1.36902e-05 -3.38757e-06 -3.45675e-06 -7.53558e-09 0.0077962 -0.00345902 -5.73038e-05 4.18409e-05 
-0.000200215 5.7711e-05 -4.37271e-05 -3.04077e-06 1.61352e-08 -3.54514e-06 -5.31829e-06 -5.33638e-06 -1.02263e-06 
0.000253027 7.57911e-05 0.000138185 -9.61104e-06 -1.50975e-05 -2.64847e-05 -1.65891e-06 -9.34746e-06 -6.27093e-06 
9.58064e-05 -5.61072e-05 3.28429e-05 1.18829e-05 1.7414e-05 -7.08307e-05 -4.51061e-06 3.2945e-06 -1.9223e-06 
-1.31801e-05 1.93951e-06 -4.42715e-05 -2.14389e-05 3.64131e-05 3.84857e-06 -2.25163e-05 3.67645e-05 3.26441e-05 
-1.12071e-05 8.82856e-06 -6.83107e-06 -2.55359e-06 -3.66597e-07 3.58347e-07 -5.97921e-05 -2.96832e-06 -5.53023e-06 
-3.32866e-06 -0.00144874 0.00106561 -0.000198955 9.02688e-06 -5.32134e-06 1.55926e-06 -5.38408e-07 3.47423e-06 
-2.69325e-06 2.63145e-06 -3.90429e-07 4.08584e-06 1.05332e-06 2.91811e-06 -5.62939e-07 7.5232e-06 -5.27657e-05 
3.61607e-05 -1.21426e-05 1.90904e-07 -9.07202e-06 4.59401e-07 8.64527e-06 2.41085e-07 -8.97495e-07 2.20666e-06 
-7.97782e-06 2.93472e-07 5.51636e-06 5.10741e-06 -1.47852e-07 -4.61149e-06 6.97327e-06 -3.23109e-06 4.97661e-06 
-3.65217e-06 -3.14952e-07 2.27248e-05 1.19985e-05 -4.09414e-06 1.35148e-05 -4.97475e-05 4.06612e-05 1.37418e-05 
-1.6551e-05 -2.83225e-05 -2.60909e-05 -1.11417e-05 2.95546e-05 2.3026e-05 1.13942e-05 2.90356e-05 1.53133e-05 
1.51703e-05 -2.6844e-05 5.40662e-05 -4.38002e-05 1.7612e-05 -5.33993e-06 -4.13965e-06 -1.69611e-05 -9.68667e-06 
7.23887e-06 1.46824e-06 3.04009e-06 6.38735e-06 -1.8491e-05 1.67388e-05 -1.29241e-05 -2.77742e-07 -2.78348e-06 
-1.98149e-05 9.93802e-06 9.85213e-06 5.52749e-06 3.03558e-07 -3.97373e-05 -3.24469e-06 -5.63522e-05 9.00034e-05 
-9.54933e-05 1.40323e-05 4.40057e-05 9.07774e-06 -1.52119e-05 2.42352e-05 3.38359e-05 -0.00781281 -0.00307186 
0.00770371 -6.65307e-06 -1.56296e-05 -5.69121e-05 0.000147842 -0.000310221 -0.00133161 -0.000492643 6.37514e-05 
-2.27576e-05 -1.2959e-05 -1.10055e-05 8.63423e-07 -5.6124e-06 4.03738e-06 7.86376e-06 -8.70872e-06 -5.10691e-06 
5.51508e-06 6.45913e-07 -2.66164e-06 1.42783e-05 3.98023e-05 -8.11811e-07 -3.07435e-05 5.16175e-06 -6.5001e-06 
-6.81269e-06 0.000144872 -8.95613e-06 4.54524e-06 1.43341e-06 3.27135e-05 5.74447e-06 0.000157822 -0.000101265 
5.32131e-06 1.28148e-05 -9.42427e-06 0.000133871 0.0066392 -0.000122978 -0.000803328 -1.91088e-05 -7.50544e-06 
-4.57055e-07 8.97031e-05 0.000205581 5.25696e-05 0.000527649 0.00361309 -0.00473936 0.0192671 2.62498e-05 
1.33408e-05 -2.55303e-05 -1.8526e-05 -0.00811361 0.00326013 -0.000471749 -3.02699e-05 7.8875e-05 -0.000100686 
0.000137068 0.00046489 0.000758111 3.95282e-05 1.21879e-05 5.27499e-05 -2.50279e-05 1.40962e-06 -3.44038e-05 
0.00398436 2.858e-05 2.03393e-05 -4.49702e-06 -4.5142e-05 2.15499e-05 9.03682e-06 -2.0445e-05 -7.62977e-06 
6.13181e-07 1.69977e-05 -1.2902e-07 -2.32868e-06 -5.29878e-06 -0.0118364 0.0063315 -0.0115782 0.00467154 
3.28431e-05 2.85913e-05 1.38744e-05 7.45819e-06 -3.32108e-06 -2.76189e-06 1.3876e-05 -0.00133252 0.00223797 
0.00400703 6.47852e-06 -6.28822e-06 2.35643e-05 -3.22397e-05 1.19269e-05 -1.10537e-05 1.60782e-07 7.44988e-06 
-7.1382e-06 -4.11356e-06 7.03849e-06 9.91112e-06 3.14001e-06 1.27717e-05 1.27624e-06 1.59697e-06 -3.54817e-06 
8.38065e-07 -3.90524e-05 4.71646e-05 8.08313e-06 -1.17309e-05 -4.37475e-06 4.73771e-06 9.37225e-06 -2.03473e-05 
-3.16363e-05 2.41858e-05 -3.76256e-05 6.5633e-07 3.6281e-07 0.00885283 -0.00816744 0.00131391 0.00742904 
-0.00616617 -4.44002e-05 -6.38475e-06 1.25574e-05 -8.45984e-06 2.89184e-05 3.53347e-06 -8.00391e-06 -1.10296e-06 
3.20918e-07 1.07963e-05 -7.14598e-05 1.20721e-05 -6.91269e-06 -1.14038e-05 1.64935e-06 6.9201e-05 -1.25045e-05 
-3.40268e-05 3.1783e-05 -3.94014e-06 2.32425e-05 -1.25682e-05 -1.31686e-05 1.46783e-05 2.9664e-05 -5.39123e-05 
6.19007e-06 -1.89468e-05 8.91386e-06 -3.76258e-06 -5.26401e-05 0.000150297 -2.06054e-05 -1.6037e-05 -2.70508e-05 
1.52222e-05 5.72966e-06 -3.29035e-05 1.63716e-05 -1.49034e-05 -9.8422e-05 4.19628e-07 -2.37386e-05 -2.02632e-07 
-1.41602e-05 2.97727e-07 -1.65038e-05 8.40542e-07 1.21997e-05 -8.82276e-06 2.78146e-06 4.56927e-06 4.6923e-06 
-1.72903e-06 5.68037e-06 6.92321e-05 2.47608e-07 3.10586e-06 0.000200892 -9.31867e-05 4.52435e-05 -1.26721e-05 
6.03928e-06 -2.41243e-05 1.88669e-05 1.78304e-05 -3.85498e-06 9.29128e-07 1.98389e-05 -2.36694e-05 4.35226e-05 
-1.7033e-05 -4.14354e-05 -6.38454e-06 1.04717e-05 -1.11e-06 4.44723e-06 1.34025e-05 4.22783e-07 5.7815e-05 
2.38568e-05 0.00371875 0.00289201 0.00580424 -6.54694e-05 1.88053e-05 -5.17985e-05 -3.05236e-07 1.09816e-06 
7.16707e-06 -2.10083e-05 -6.74199e-06 3.33044e-05 6.51805e-09 -4.85507e-06 -1.69201e-06 1.01618e-05 -5.23586e-06 
1.14319e-06 -1.05588e-05 -8.28416e-06 -3.01351e-06 -1.05599e-05 4.19807e-06 2.47505e-06 -4.7768e-06 2.98567e-06 
4.47209e-07 3.609e-07 -2.13872e-06 -8.78124e-06 2.04781e-06 0.000107701 -6.63639e-06 -1.09744e-05 -1.17233e-05 
-4.46486e-06 -7.71201e-06 7.55177e-06 1.49011e-06 6.24971e-06 -4.35348e-06 8.17006e-06 5.14272e-06 -5.45744e-06 
7.30054e-05 -3.73319e-05 0.000190979 4.65048e-05 0.000220299 1.13979e-05 -6.10834e-06 4.2612e-07 7.15367e-06 
-9.88879e-06 9.27635e-06 3.1554e-06 -2.85934e-05 8.76139e-06 8.34323e-06 3.01055e-05 -6.39759e-06 -6.38121e-06 
-1.62858e-07 2.17293e-06 -3.47984e-05 -9.26015e-05 3.95617e-05 -0.00205871 -0.000918981 -0.00121948 0.00141151 
0.00152543 -8.93834e-06 -1.35547e-05 6.48841e-06 1.31086e-06 8.48203e-05 4.82635e-05 -3.27e-05 -3.41215e-06 
9.26183e-06 -3.72672e-06 1.59402e-07 3.86288e-05 -8.06563e-06 -3.26124e-05 -2.88717e-06 7.35518e-06 -5.86597e-06 
1.07166e-05 4.40361e-05 5.20852e-06 4.12122e-06 1.38402e-06 -6.94366e-06 -6.42567e-05 -2.80574e-05 5.53139e-06 
2.6708e-06 6.32424e-06 -5.07365e-06 -0.000708363 0.00105899 0.000146881 -6.53799e-06 2.08574e-05 -3.6878e-06 
1.95468e-05 1.51062e-06 -2.09285e-06 -1.15452e-05 -1.47993e-05 -2.36264e-06 3.15195e-05 0.00127577 0.00154559 
2.62246e-05 -9.2983e-06 1.044e-05 9.39816e-05 3.17061e-05 1.62714e-05 3.78568e-05 -1.99578e-05 2.74812e-06 
-4.46932e-05 3.38386e-05 -1.09025e-05 -2.65923e-05 -3.69774e-05 3.09809e-05 5.85312e-05 1.03401e-05 -7.58061e-06 
-5.30585e-05 5.51495e-05 9.08623e-05 -0.000147376 -9.8621e-05 2.24738e-05 -4.1748e-05 -2.40864e-06 -2.62721e-06 
2.59132e-06 1.89195e-05 1.54696e-05 4.04362e-05 -0.000187999 -1.56794e-05 1.29005e-05 -1.88704e-06 7.54872e-06 
7.47074e-06 -1.25418e-05 -9.57727e-06 3.43415e-06 6.52491e-06 -1.10431e-05 -3.62059e-05 -2.08565e-05 -1.83088e-05 
-5.06403e-05 -4.47554e-05 -1.37551e-05 1.00197e-05 1.30651e-05 2.37856e-05 1.84e-05 -5.83908e-05 -7.8275e-05 
9.8187e-05 -8.24131e-05 -0.00047324 -0.00713327 0.00696791 0.00318688 0.00469024 0.00138765 0.000680416 
0.00040054 -1.73248e-05 -8.21328e-05 -0.00086161 -0.00031367 0.000847429 -6.97553e-05 4.59069e-06 -7.68744e-06 
-6.37595e-06 1.18294e-05 9.28083e-06 -0.00148454 0.00041139 7.14895e-05 3.49777e-05 6.12529e-05 -1.36306e-05 
-7.97753e-05 -4.98347e-05 5.70012e-05 -5.59098e-05 2.68175e-05 -8.97553e-06 4.41314e-06 5.6671e-05 -0.000124133 
-0.000167298 -0.000115823 3.26003e-05 2.12081e-05 0.000485183 -0.000648876 2.01697e-05 1.74009e-05 2.25556e-05 
3.25429e-05 -1.05913e-05 3.19396e-05 -1.00629e-05 -1.90924e-07 -1.76351e-06 -1.31715e-05 0.000108266 -5.87325e-05 
2.38423e-05 7.74091e-06 3.62425e-05 0.000101451 -0.000485585 -0.000481417 -0.00047236 1.09079e-05 3.53292e-05 
-5.65989e-05 0.000702028 -7.81472e-06 -9.67202e-06 -5.33216e-06 1.11742e-05 0.000242223 9.7419e-06 8.06171e-06 
-3.38819e-06 -0.00029166 -0.000856287 -0.00218867 -0.00928618 2.86057e-05 -2.45976e-05 4.30342e-05 -1.79717e-06 
-0.00668368 -0.00265803 -0.00626539 -2.21701e-05 -0.000259786 -0.000159588 0.00070375 -1.86661e-07 0.000920197 
-0.00187391 -2.51396e-05 -0.000135457 -9.19847e-05 -0.00123925 -0.0109056 0.000216097 0.0193064 -0.00262224 
-0.000352394 -3.80667e-05 5.16629e-05 -8.84117e-06 -2.96114e-06 7.06625e-06 -0.000216822 3.7652e-06 -0.000168938 
3.10622e-05 -6.08705e-06 -3.28379e-05 0.000138898 -5.78905e-05 0.00832246 0.00600363 -0.00297194 -5.65232e-06 
-2.59896e-05 2.21909e-05 0.00959813 0.00427902 -0.00315903 1.34031e-05 0.00708671 1.71508e-06 -2.45959e-05 
1.20726e-05 3.80014e-07 8.33329e-05 -3.17976e-05 3.40073e-05 -6.5851e-06 -0.000270908 -9.72289e-06 0.00011252 
-6.04284e-05 -1.1563e-05 -0.000272135 4.58454e-05 -0.000151349 -0.000120119 1.2069e-05 -8.78582e-06 6.43458e-06 
-1.68861e-05 4.35477e-06 9.76382e-07 7.98855e-06 -6.42305e-06 -0.000147278 -1.1799e-05 -7.38381e-05 1.56105e-05 
-3.29915e-05 -2.576e-05 7.90439e-06 -4.18862e-06 -3.51031e-06 7.69804e-07 -1.25251e-05 4.74288e-06 -1.24304e-08 
-0.000142253 3.58809e-05 -2.75759e-05 0.000191317 0.000342267 -9.18368e-05 -2.54992e-05 -3.85893e-05 -2.39635e-05 
3.2038e-05 -0.000239932 0.000140153 0.000102098 2.10112e-05 -2.33813e-05 -1.41379e-05 7.07424e-07 -1.01482e-07 
1.12465e-05 -1.89568e-05 9.83432e-06 1.88271e-06 -6.61704e-06 -2.37756e-06 -1.22355e-05 2.17368e-05 1.68742e-05 
-2.02099e-05 1.57975e-06 0.0145869 0.0202108 -7.81805e-06 1.605e-05 9.15107e-06 -6.37008e-06 -5.54742e-06 
3.08479e-06 1.48112e-06 -2.6113e-06 2.00251e-06 1.26906e-07 9.84937e-06 -2.65108e-05 2.67065e-05 -5.1069e-06 
0.00343372 -6.07737e-07 0.00135983 3.26634e-07 -1.79635e-05 -1.53675e-05 -1.62342e-06 1.61777e-06 -1.87849e-05 
-3.26647e-05 8.37122e-06 0.000140738 -0.000960307 -0.00252429 8.40031e-06 -2.05331e-06 -4.73434e-06 -1.10755e-05 
-1.93066e-08 -0.00128198 -0.00250277 0.000892186 0.00241218 2.36526e-07 1.46217e-05 -0.00216728 0.00857958 
-0.000665616 -0.00795835 -3.53263e-05 1.08724e-05 -1.04667e-05 -0.000168813 -0.000260056 2.73909e-05 -0.000373602 
1.17877e-05 -5.75536e-06 -9.17943e-06 3.56165e-06 1.06098e-05 -1.32827e-05 -2.25314e-05 3.20799e-06 5.91376e-06 
-1.78507e-06 1.44582e-05 -7.73096e-06 1.14954e-05 3.87833e-06 -1.23291e-05 -3.13292e-05 -2.8489e-05 6.67061e-06 
-1.25674e-05 2.52347e-06 2.4277e-05 -9.5449e-06 -3.79916e-06 1.84268e-05 -5.19948e-05 1.28626e-05 5.94292e-06 
-0.00811836 -0.00929047 7.34929e-05 2.90085e-05 -1.56329e-05 -0.0110389 0.00580518 0.00153524 9.54936e-07 
4.32818e-06 0.000976805 -0.00275851 0.000139267 -2.42219e-05 -0.000119198 3.31889e-06 -4.81121e-05 -3.37487e-05 
1.52529e-05 -5.51394e-06 0.00693543 -0.00122852 0.000246689 0.000280179 -3.05445e-06 2.50937e-05 -1.44788e-05 
-2.61866e-06 7.84537e-06 -3.02807e-06 -7.44311e-06 -4.29635e-08 3.97872e-05 -8.04026e-05 0.000122645 -5.99981e-05 
-2.87268e-06 1.56679e-05 -1.35967e-05 2.40156e-05 1.06149e-06 1.92183e-05 3.39378e-05 0.0129447 -1.1616e-05 
6.35115e-06 -1.53794e-05 3.03548e-05 2.25338e-05 -4.56827e-06 2.20695e-05 3.05312e-06 1.27952e-06 1.01273e-05 
0.00041534 -0.000164677 6.86055e-06 6.85633e-06 -3.01716e-07 7.42619e-05 2.18136e-07 -6.98669e-06 2.83439e-08 
9.85773e-05 -0.000132273 -0.000139512 3.26461e-06 3.15103e-06 -4.67862e-07 -1.69665e-06 -3.86591e-05 3.03451e-05 
-4.81368e-06 6.43356e-07 3.39741e-07 5.97553e-06 7.03788e-06 -7.36437e-06 -8.8969e-06 6.95047e-06 2.8386e-06 
-4.21579e-06 4.80122e-06 0.000412014 -4.02667e-06 7.68262e-06 1.33844e-06 6.34215e-06 5.89987e-07 8.97871e-05 
-3.61511e-05 -0.0103851 5.60744e-05 5.23023e-05 1.70591e-05 -0.000109312 1.14769e-05 1.88801e-06 -6.74482e-06 
1.3688e-05 6.27419e-06 1.30721e-05 -2.30434e-08 -7.68164e-05 4.74787e-05 1.80235e-05 2.28003e-05 2.95123e-05 
-1.01217e-05 3.82628e-07 -2.93679e-06 -6.16776e-06 3.45267e-05 -2.30016e-05 -9.29776e-06 -6.341e-06 2.58167e-06 
0.000245216 -0.000116932 0.000110645 -0.000174337 4.06983e-05 2.89004e-05 -2.45091e-05 2.22117e-05 -3.18339e-05 
-7.4019e-06 -5.21311e-05 8.37016e-06 0.00135656 -2.16482e-05 -5.6688e-06 2.27378e-05 -4.53473e-06 -0.000139971 
-5.04104e-06 7.65616e-05 2.92794e-07 1.53864e-06 1.72627e-05 -1.05001e-05 5.5713e-06 -1.19014e-05 1.03317e-05 
1.26431e-06 7.74707e-05 -0.000166502 -0.000106365 -9.59245e-05 5.05418e-05 5.41448e-05 -0.000310165 -4.6575e-05 
0.00521775 0.000240192 3.78936e-06 -0.000807202 -0.000803932 0.00195346 -0.00960187 0.00647482 -2.01997e-05 
2.72989e-06 5.37578e-05 7.52176e-05 3.51176e-05 1.04363e-05 -5.85116e-05 -2.0423e-05 0.00128028 -0.000454569 
0.000147267 -0.000382799 5.396e-05 -0.000203938 -7.67482e-06 -5.69619e-05 -0.000111803 1.85265e-06 -0.000454697 
0.000188716 -5.20739e-05 -6.08344e-06 3.12669e-05 -8.58664e-05 1.20468e-05 -6.93387e-05 -0.00111053 0.000211167 
-0.000472941 -0.00554639 0.000328265 1.32493e-05 -2.90135e-06 -1.33728e-05 -1.4864e-05 9.51525e-06 -8.06884e-07 
8.85272e-05 -0.000110366 0.000104989 4.18487e-05 4.42691e-06 -3.62935e-05 -2.09132e-06 4.31131e-06 3.35021e-05 
-7.14379e-06 -2.57735e-05 -0.000320694 -0.000110266 -2.91143e-06 1.4385e-05 -4.34971e-06 3.06156e-06 -2.67449e-06 
-4.06542e-06 -1.02047e-06 -9.73691e-06 2.38774e-05 1.97532e-05 -2.40095e-06 4.25917e-06 3.05196e-09 2.87405e-06 
-3.51705e-06 0.00161015 -0.000630171 0.00367498 0.00246224 -2.96761e-06 9.01905e-06 -1.43131e-05 2.28699e-07 
-3.89904e-06 1.63048e-05 4.24897e-05 1.49419e-05 1.76499e-06 8.25316e-05 1.26226e-06 -6.5605e-05 -0.00443093 
-0.000586351 0.000165101 -1.97986e-06 5.93403e-05 -5.69068e-06 -3.82793e-06 6.06477e-06 3.63025e-05 -9.96092e-06 
-9.89408e-05 -1.33555e-05 1.52007e-05 7.74214e-06 3.16844e-05 -0.00032814 0.000420715 4.53267e-06 5.46456e-06 
-4.83187e-06 3.70349e-05 -4.36033e-05 2.04648e-05 -2.90177e-06 1.79155e-05 0.000173587 -0.000176445 -0.000281401 
-9.41216e-06 -2.21326e-05 1.37796e-05 -4.47868e-05 0.00217194 0.00121971 0.000194812 -0.000191815 0.00123166 
0.00112247 -7.05481e-05 -6.79929e-05 -2.6471e-05 1.87744e-05 1.73229e-05 0.00137507 0.00426475 0.00154771 
0.000747059 0.000124287 -0.000236616 0.000122896 0.00194704 -0.0017286 -0.00879437 -0.000134872 9.76302e-05 
1.84861e-05 7.06974e-06 1.22768e-05 -3.21945e-05 1.40083e-06 8.66053e-06 0.00147129 0.00948437 -0.00502732 
0.0135229 -0.00759466 -9.43767e-09 -1.28735e-05 -1.44831e-05 6.99066e-06 1.86058e-05 -1.77588e-06 -2.11782e-06 
-5.23572e-06 -3.62864e-06 -4.3834e-06 1.46347e-05 1.71562e-05 -2.28038e-06 -6.23907e-06 -8.10905e-06 -0.000641941 
2.67665e-05 -3.59501e-06 5.1737e-06 1.30572e-05 -1.36855e-05 -8.68288e-06 1.54621e-06 -0.0001234 -0.000201145 
0.000234918 4.72581e-06 1.52555e-06 -1.19927e-05 -1.04177e-07 -2.46244e-06 -2.29066e-06 -5.53886e-06 5.23107e-05 
-2.38252e-05 6.71925e-07 -0.000137453 -0.000255318 -5.55688e-05 6.7168e-05 3.8625e-05 1.62102e-05 -1.48514e-05 
3.96371e-05 -6.40097e-05 6.2815e-06 -1.75149e-05 -4.27316e-05 6.84761e-06 5.6801e-05 5.4197e-05 3.04746e-05 
-2.60636e-05 2.89373e-06 -4.3598e-06 -8.2897e-06 -4.16729e-07 6.5325e-06 2.0298e-06 -1.72389e-05 -1.07311e-05 
-1.00676e-05 -3.02738e-05 -5.06449e-06 4.88533e-05 2.17923e-05 1.61062e-05 -1.29781e-05 -8.63892e-06 0.00795767 
-4.85277e-07 3.51863e-05 -5.14647e-05 2.42293e-05 -3.65862e-05 -5.05479e-06 -1.76993e-05 6.80001e-05 5.2255e-06 
2.89476e-05 8.75662e-06 -3.11783e-05 6.04681e-05 1.60281e-06 -0.00225498 0.00313094 -0.000495272 -3.55626e-05 
-1.90453e-05 9.21658e-08 -7.82786e-05 3.37157e-05 -5.40817e-05 -1.2681e-05 -5.19969e-06 2.5444e-06 -1.37771e-06 
7.94486e-05 -5.11459e-05 0.000127529 -0.000109882 8.3412e-06 3.09297e-05 9.11836e-05 3.91543e-07 -3.33144e-06 
8.94235e-07 -4.93549e-07 -1.23401e-05 -6.4235e-06 -3.43795e-05 2.61616e-05 2.02497e-05 1.76103e-05 -8.75017e-06 
5.35786e-06 4.91985e-08 2.81157e-06 2.05889e-05 -6.3815e-06 -0.000282606 -0.000485554 -9.56895e-06 1.66905e-05 
-1.54179e-05 9.67924e-06 -0.000614677 -0.00127883 -4.18335e-06 -1.55443e-05 4.62367e-06 4.94738e-07 -5.03495e-06 
-1.74228e-05 2.23012e-06 -1.07645e-05 -0.0015378 0.000393565 0.000112924 5.97483e-06 -2.87536e-05 1.67492e-05 
-1.17567e-06 1.37532e-05 -1.42375e-05 -0.00312438 -1.66457e-06 -8.08386e-06 1.33764e-05 -9.59337e-06 -2.36302e-06 
3.27245e-05 2.41379e-05 -1.09845e-05 -1.97392e-05 -0.00107352 -0.00629347 7.57482e-06 2.02039e-06 -6.04186e-05 
3.612e-05 -5.50313e-05 1.69664e-05 3.30903e-05 -1.63171e-06 3.70342e-05 1.51181e-05 -7.35788e-06 -4.24979e-06 
1.57819e-06 6.63377e-06 -9.08217e-06 1.70528e-05 0.000118683 0.000657241 -5.437e-05 7.84048e-06 -0.000492611 
0.000220047 0.000342671 0.00264624 -0.00735323 0.00292489 1.40302e-05 -1.67278e-05 4.20629e-05 -7.38955e-06 
-2.62454e-05 3.52233e-05 -9.92598e-06 -9.10154e-07 -2.09933e-05 2.2587e-05 -2.06372e-05 -5.9662e-06 5.69307e-06 
-0.00860524 0.00659277 9.99533e-06 1.30635e-05 8.73773e-06 3.78798e-06 -3.32527e-05 -1.69733e-05 0.0095063 
-0.00179651 -7.58624e-06 -4.63523e-06 -5.60148e-06 0.000217186 0.00469335 -6.48846e-07 3.09021e-05 1.74693e-05 
8.30704e-05 -3.13554e-05 0.00172137 -0.00037371 0.00032217 1.87794e-05 -2.01978e-05 2.03339e-05 1.76722e-05 
-2.73707e-06 4.2262e-05 4.61494e-05 5.76964e-05 -3.70561e-05 0.000116773 0.00016927 0.000254091 0.000879094 
-9.41241e-06 3.93941e-05 -1.28277e-05 -6.2908e-05 -0.000134168 4.96551e-06 0.00310614 2.22946e-06 -1.00905e-05 
0.00762903 -0.00565757 -1.97971e-05 -7.34241e-06 1.43662e-05 1.35699e-05 1.3035e-06 -5.12205e-06 -7.72391e-06 
-4.41805e-06 -8.1594e-06 -1.13821e-05 -2.47735e-06 6.46795e-05 -3.28855e-06 -0.000971683 -0.000713448 -0.000462805 
-0.000139354 -5.64518e-05 -0.00151056 -7.31037e-05 -3.00361e-05 7.50398e-05 3.18297e-06 -2.1587e-05 -2.53463e-07 
0.000332925 5.06374e-05 -9.406e-05 -1.91416e-06 5.29686e-05 -2.93543e-05 -0.000206098 -0.000201019 2.41354e-06 
1.54649e-06 2.50388e-07 -4.27548e-05 -0.000309459 -2.47739e-05 6.27037e-05 -1.09682e-05 8.92037e-05 6.72771e-07 
-5.40175e-06 -1.06343e-05 -5.80927e-06 -1.78555e-06 0.000782298 0.00371309 -1.90083e-06 6.07172e-06 -5.34322e-06 
1.31528e-06 3.88635e-07 6.548e-06 7.84008e-06 -7.52603e-05 5.28747e-05 5.19347e-05 0.000178679 0.00011269 
0.000203019 -1.50761e-05 -0.000600312 -0.00035179 0.000103087 2.86446e-05 4.7558e-05 4.19087e-05 -0.000911204 
-5.08612e-05 0.000320755 0.000306638 -9.02677e-05 0.00207891 0.000221038 0.00212089 -0.00141913 5.53755e-05 
8.76507e-05 -2.39306e-05 -2.29111e-05 -6.16008e-06 -2.732e-05 2.58792e-05 -2.11766e-05 2.00156e-05 2.85207e-05 
0.00017294 1.61833e-05 3.91927e-06 6.52938e-06 -0.000233537 -1.44408e-05 7.35562e-06 0.0118414 8.85292e-06 
-3.31762e-05 -7.38545e-06 -7.62766e-06 -6.95128e-06 3.72404e-06 1.87527e-07 -7.70099e-06 -5.72774e-06 -1.15227e-05 
3.03289e-06 1.77089e-05 -1.54609e-05 -0.00271721 7.02522e-07 3.48803e-06 1.20779e-05 1.19184e-05 7.1871e-06 
7.96384e-06 -2.8027e-06 1.47765e-05 -5.52025e-06 9.27396e-06 4.21001e-06 -2.41234e-05 -1.03993e-05 -2.36528e-06 
4.73484e-06 3.60987e-06 -6.94718e-06 -3.26081e-06 -2.83325e-06 4.87295e-05 -2.05765e-05 -3.6082e-05 8.82686e-06 
1.14687e-05 3.73946e-06 -2.29993e-06 5.36488e-06 -7.10733e-06 3.33981e-06 -1.44821e-05 -3.97765e-08 6.17959e-06 
2.25516e-05 -0.000126053 -6.36125e-06 1.50204e-05 -2.0586e-06 -6.49574e-05 0.0117751 0.0154599 -0.00824686 
-0.00396446 -4.3729e-05 3.52029e-05 8.95169e-06 1.61877e-05 8.2339e-05 2.9548e-05 -3.00691e-05 0.00363497 
0.0148351 -4.28385e-06 9.61736e-07 1.09939e-06 -1.49886e-06 1.42139e-05 -4.10773e-05 -1.46166e-05 -2.16715e-05 
-2.81373e-06 2.78709e-06 -0.000120576 -6.81425e-05 1.08024e-05 -0.00136437 -0.000147647 0.00023534 5.74403e-05 
-4.00523e-05 -1.04068e-05 2.47129e-05 -6.4834e-06 -2.97616e-05 -5.62591e-06 -3.98644e-05 0.0011093 -0.000126261 
-0.00659288 9.95561e-05 -0.000765922 2.95717e-05 -3.20673e-05 1.97466e-05 -7.82611e-06 1.38248e-05 2.76723e-05 
5.19642e-06 7.35582e-05 8.57066e-05 2.23134e-05 -5.85982e-05 -0.000416382 1.99388e-06 -3.59072e-05 1.03892e-05 
-0.00122824 0.000106224 6.30468e-05 -3.20944e-05 7.71458e-05 6.36488e-06 -4.08057e-06 -1.26072e-06 -6.02548e-06 
2.06866e-06 -2.61277e-06 6.527e-06 4.69694e-05 6.86587e-06 -1.31105e-05 1.46023e-05 9.13359e-05 -2.73906e-05 
2.55731e-05 -0.000302477 -0.000125864 -4.50197e-05 8.74056e-05 -9.06055e-05 -0.00011885 -2.89768e-05 -1.18928e-05 
3.43747e-05 0.000287433 -2.31347e-05 0.000275579 0.000352428 -5.2479e-05 0.00024834 -0.000435986 9.59274e-06 
1.22728e-05 -1.16656e-05 1.98235e-05 9.06149e-07 4.55959e-05 -2.73596e-06 -6.10319e-06 -6.86607e-05 -7.62479e-05 
-1.83903e-05 -1.76044e-05 2.02288e-05 1.51382e-05 1.21677e-05 4.64281e-05 8.64268e-06 1.9989e-05 -3.85886e-07 
-2.76554e-05 -3.79017e-05 5.50717e-05 -2.94035e-05 3.31245e-05 -7.15288e-06 -7.04928e-05 -3.21902e-05 4.06787e-05 
-3.77516e-06 -7.28829e-06 3.09975e-06 -2.65118e-05 1.05007e-05 3.75831e-05 -2.62913e-05 2.59409e-05 4.4482e-05 
-3.71685e-05 4.22799e-05 -2.39024e-05 7.25098e-05 -0.000453012 -0.000219676 4.02422e-06 1.03448e-05 1.86785e-06 
2.73e-05 2.4033e-05 -2.06812e-05 -1.08158e-05 -1.52646e-05 -4.11084e-06 -7.98379e-06 -4.37791e-06 -3.27054e-06 
-4.07291e-06 2.02169e-06 1.37023e-07 -2.21142e-06 -0.00202334 -0.00839923 0.0129946 1.27352e-05 -8.0165e-05 
-3.39199e-05 3.99997e-06 1.01909e-05 -9.22891e-06 2.86115e-05 8.38129e-07 3.93846e-05 5.29001e-06 -0.00947673 
0.00679084 -1.06962e-05 -9.49884e-06 1.91935e-05 -0.000332138 -0.00174043 0.00164966 -0.00191782 -3.52145e-05 
-1.48253e-05 -1.60327e-05 -9.66414e-06 9.19635e-05 0.000283702 -4.93517e-06 1.42182e-06 -4.60198e-06 5.47096e-06 
1.18363e-05 8.20044e-06 -0.000173401 -3.90281e-05 3.94772e-06 0.00246902 0.000103101 0.00281059 -4.15164e-05 
-7.0605e-05 1.47597e-05 4.11153e-05 -3.73644e-05 -4.91836e-06 0.000588929 8.3667e-05 4.54442e-06 2.31848e-06 
-1.36188e-05 1.01061e-05 -2.01074e-05 1.28119e-05 -1.432e-06 -8.99797e-06 -3.82311e-05 -1.26542e-05 -7.44602e-05 
-0.0002468 -4.9735e-06 -0.00391654 7.31243e-06 -6.6201e-06 -3.9566e-06 -3.07338e-06 0.000176496 2.93377e-05 
-0.000165754 -0.000184026 3.40427e-06 -1.23965e-05 -2.76092e-06 -7.32907e-06 2.51932e-05 1.09778e-05 -3.1563e-06 
-1.74919e-06 -9.83489e-06 -1.34862e-05 0.000255465 -3.36483e-05 -5.92071e-05 0.00990903 -0.000791508 -1.67075e-05 
2.83086e-05 -2.16277e-05 -1.74521e-05 -0.000132038 -0.00016742 0.000223355 -4.24747e-05 -2.74857e-07 -4.468e-06 
-2.76351e-06 -2.85803e-05 -3.24873e-05 -2.67766e-05 2.86149e-05 1.45871e-06 3.66634e-05 0.000164175 -7.24746e-06 
-8.34466e-06 1.15002e-05 9.1405e-06 -0.00201342 -0.000616459 0.00133047 2.30318e-05 -8.9351e-06 3.34997e-06 
0.000186673 0.000135843 7.0909e-06 3.72204e-06 4.04511e-05 2.59688e-05 1.61694e-05 -0.000396958 -0.000101451 
8.82314e-05 -0.00291863 -1.29368e-05 -0.000392709 1.35155e-05 -2.41076e-05 1.48102e-05 -3.00133e-06 7.41454e-05 
-1.75518e-06 1.12892e-05 -2.99562e-06 -1.28129e-05 9.17371e-06 -1.81832e-07 -2.87127e-05 1.78783e-06 -3.37072e-06 
-2.73802e-05 -5.95598e-06 2.96617e-05 -1.56773e-05 1.51969e-05 -8.17064e-06 1.02227e-06 8.41275e-06 -3.0935e-06 
0.000111664 -0.000208826 -2.51139e-06 -9.48909e-06 -1.48398e-05 1.55845e-05 4.48921e-06 -1.82597e-05 6.0245e-05 
3.43146e-05 8.8639e-06 -8.9953e-06 8.45961e-06 7.02001e-05 -0.000441739 0.000461891 6.20276e-05 -4.85893e-06 
-6.68281e-06 1.60798e-05 5.06734e-06 2.11614e-05 -0.00025566 -3.63981e-05 -4.79734e-06 -1.54587e-06 -3.43745e-05 
-1.07637e-05 6.08061e-07 -1.48923e-05 -2.12171e-05 0.00281767 -0.00102737 3.89646e-06 9.51142e-06 6.08746e-06 
-1.51511e-05 0.0020885 0.00799986 -0.00151166 -1.55482e-05 1.57375e-05 -2.31566e-07 5.70916e-06 9.17995e-06 
2.27012e-06 -8.50612e-06 4.22833e-05 0.000626017 -9.52195e-06 -9.53812e-06 -2.33198e-05 2.69568e-05 -3.04652e-05 
-1.32345e-05 6.56525e-05 -3.99362e-05 1.55242e-05 1.51357e-05 -2.35984e-06 -5.87676e-05 1.42601e-05 3.49838e-05 
-8.47319e-06 -2.01054e-06 -6.95765e-06 -2.0798e-05 7.86223e-06 -2.11389e-05 -1.32628e-05 -7.60693e-06 -2.6263e-05 
2.50132e-06 0.00300978 -0.00125531 -0.000110208 -0.00350983 0.00206343 -0.00318174 -0.0174367 0.00803339 
-0.0153678 -3.77848e-05 2.10397e-05 -7.18705e-06 6.49632e-06 3.79643e-06 2.54705e-06 -1.59584e-05 -5.28137e-06 
1.01865e-05 8.40508e-06 -4.94286e-06 1.88205e-05 2.90657e-05 6.4631e-06 -2.91098e-06 -3.014e-05 1.62649e-05 
-1.8646e-05 -0.00963528 -5.3377e-05 -2.85314e-05 -1.47458e-05 -2.04122e-06 2.17624e-06 -0.00581641 1.44267e-05 
3.62708e-05 6.19032e-05 8.23714e-05 1.30557e-06 -1.30535e-06 5.72206e-07 -2.24846e-05 -1.71368e-05 -8.34765e-06 
-3.86944e-06 -2.00067e-05 5.52145e-06 5.45408e-06 -2.93961e-05 -2.95547e-05 1.36319e-05 2.58528e-05 -0.00016975 
-0.000234908 -2.11111e-05 0.000268741 1.37424e-05 -2.60955e-05 2.1547e-05 -2.1685e-05 -0.000788277 -0.00147184 
0.000203505 -2.12071e-05 -7.75703e-06 4.08317e-06 -6.63496e-06 -3.43771e-06 2.65171e-05 -6.07141e-06 0.000109272 
-5.98574e-05 -2.12894e-05 2.99161e-05 -7.3861e-05 -0.00117998 1.1971e-05 -8.27783e-06 -1.8414e-05 -4.82064e-06 
6.32569e-06 3.5602e-06 -1.41184e-05 5.40349e-06 0.0002917 2.03639e-05 1.31181e-05 -5.40284e-05 2.06676e-05 
0.000402087 4.15287e-06 2.20117e-05 6.66442e-05 -8.91185e-05 -9.86191e-06 1.13826e-05 -7.87766e-05 -3.54993e-06 
-5.54612e-05 -1.57428e-05 -0.000121138 5.09521e-05 0.00224982 0.00174366 -1.20133e-06 1.44108e-05 -2.80389e-06 
5.15946e-06 -7.18205e-06 5.10152e-05 -0.000174839 1.24687e-05 1.80213e-05 -1.34504e-05 4.59178e-06 3.30882e-06 
6.15076e-06 -6.82389e-06 -2.13959e-05 2.52664e-06 -1.91597e-05 7.38065e-05 -4.33682e-05 2.13752e-06 5.33415e-07 
5.77348e-07 -6.13599e-07 -1.64062e-05 6.09856e-06 1.15425e-06 -1.71686e-05 1.05013e-05 1.0991e-05 7.10533e-06 
2.17535e-05 9.04807e-06 2.55944e-05 -1.0876e-05 -5.10423e-06 7.12761e-06 4.61895e-06 -1.14148e-05 1.07852e-05 
-6.44504e-06 5.53488e-06 6.89279e-06 -1.5548e-06 -3.82735e-05 0.000421185 0.00219016 0.000387753 -0.00105238 
3.14098e-05 0.000106878 0.00113654 -0.00052701 -8.06196e-05 -0.000896316 6.86388e-05 -0.000117187 6.88329e-06 
7.59696e-06 0.000221536 -0.000132121 -0.000695268 -6.69573e-05 -1.70192e-05 8.78042e-05 0.00361218 0.00267301 
-0.00885503 -0.00906065 -3.01539e-05 -3.02179e-05 -1.96036e-05 2.75851e-05 5.25669e-06 -1.26523e-05 1.44724e-05 
8.40829e-06 4.07692e-05 -6.86917e-06 4.80312e-06 3.67423e-05 -1.97947e-06 -1.62809e-07 -1.34044e-05 1.23961e-06 
-1.39798e-07 1.0486e-06 -2.95877e-07 -4.33892e-06 -1.25575e-05 -2.01734e-05 -4.4216e-06 -1.10092e-06 -1.50373e-05 
0.000893721 -1.80264e-05 -3.37649e-06 -1.17525e-05 2.58092e-05 5.38329e-05 -2.1089e-05 1.25927e-05 -2.06882e-06 
3.52986e-05 2.16246e-06 3.28431e-06 -1.35555e-05 -3.35977e-07 -8.23692e-08 -1.59055e-06 0.000174212 1.43199e-05 
0.0020486 0.000309252 -4.513e-07 5.9017e-07 -6.21388e-06 0.000451248 -0.00730881 -0.00826982 3.0294e-06 
-1.10077e-06 -9.03462e-06 -2.7433e-06 3.85351e-05 -3.83038e-05 -3.88261e-05 -1.00303e-06 -1.31888e-05 -1.71073e-05 
-5.12499e-05 -6.41711e-06 0.00840367 -2.63641e-05 -1.57632e-05 -2.19777e-05 0.00248612 0.00534927 -0.00705782 
2.39981e-05 -3.88109e-05 -1.486e-05 -6.07572e-06 9.32289e-06 -1.46173e-05 1.23763e-06 -2.76855e-05 3.98352e-06 
1.68387e-05 0.00102218 7.8638e-06 0.00672541 -0.00869148 -0.0011753 1.47781e-05 -9.75816e-06 -0.000669792 
-8.19677e-07 9.01865e-05 8.69321e-05 -9.44963e-05 0.00356614 0.00456297 -5.64882e-06 -4.66806e-06 6.25407e-06 
1.3374e-05 -5.04753e-06 -1.7807e-06 -0.0035954 0.00208734 0.000382378 -6.09356e-05 -2.05967e-05 -2.44746e-06 
1.91794e-06 -8.97526e-06 0.00730149 -3.41995e-06 4.25488e-06 5.74961e-06 -2.27106e-05 3.23949e-07 -0.00782771 
-1.63685e-05 -6.65749e-05 0.00145008 2.07207e-05 -3.66571e-06 -1.72427e-05 -1.92412e-05 1.92823e-05 2.69559e-05 
0.00184284 0.00156594 -0.00107191 -0.00245624 2.05375e-05 -3.26023e-06 1.6737e-06 2.96726e-06 -7.83942e-06 
-2.92748e-06 2.75374e-05 1.88939e-05 3.17723e-05 -9.94965e-06 9.44871e-05 4.89028e-05 1.08459e-05 2.74169e-06 
1.60256e-05 0.00141461 2.45e-06 1.03215e-08 -2.95009e-05 1.76878e-06 7.29338e-06 -1.422e-05 -8.62286e-06 
7.1893e-06 3.25309e-05 -1.83026e-05 -1.96551e-05 -0.000103212 0.00760986 -0.00178306 -0.00907834 0.00437523 
0.00669977 0.0030597 -8.28327e-06 -6.47424e-05 0.0102446 0.00949064 -0.000186157 0.000562455 2.05266e-06 
-3.16932e-05 4.61085e-05 -4.31045e-05 -3.09073e-05 6.49776e-06 -1.30258e-05 1.11261e-05 2.26489e-05 -4.69772e-05 
-1.5717e-05 2.1165e-05 -0.0005455 7.42979e-06 2.03878e-05 -0.000250505 0.000103834 -2.83382e-06 8.18392e-06 
-0.000601567 -7.95797e-06 -5.49217e-06 4.63466e-06 -7.42416e-06 -6.39953e-06 -1.87334e-06 -7.80999e-06 2.38187e-05 
-2.28442e-06 1.34531e-06 1.16771e-05 -3.19077e-05 -3.53768e-06 -1.33987e-06 1.88978e-05 1.07378e-05 -0.000114294 
-6.04111e-07 -9.93126e-06 7.44779e-05 -5.72887e-05 6.93572e-05 -6.65034e-07 -2.68438e-06 8.25042e-06 -0.00340619 
-1.30032e-05 -5.1434e-06 -8.96435e-05 -5.06662e-06 3.15358e-05 1.0844e-05 -3.25898e-06 2.35135e-06 -4.46339e-06 
-0.000239767 -3.77636e-05 -1.18613e-05 -5.74544e-05 -5.27411e-05 -1.52726e-05 -3.22762e-06 4.59506e-05 6.62681e-06 
9.65241e-05 1.01027e-05 1.47471e-05 -2.3306e-05 1.49725e-05 -1.8289e-05 -5.26753e-05 1.33381e-05 -0.000157646 
-2.50513e-06 -0.000236868 -0.000533812 9.05101e-06 1.48241e-05 -9.94234e-08 -9.36685e-06 -1.94425e-05 7.50786e-06 
-9.03635e-06 -5.1789e-06 4.68784e-07 -0.00397051 -1.49729e-06 2.61416e-05 -1.06175e-05 1.97845e-06 2.90183e-06 
-2.5436e-05 -1.87322e-06 -3.74111e-06 3.68206e-05 -5.27988e-05 1.49765e-05 -1.9911e-05 4.99575e-05 1.13095e-05 
3.51894e-06 -3.9034e-06 -3.31834e-06 4.16733e-06 2.32404e-05 -0.00809669 0.00809888 -2.19043e-05 8.76888e-06 
6.54441e-06 2.97656e-06 -0.00962031 -3.48708e-05 5.81958e-07 -5.91148e-06 1.58849e-05 1.74325e-05 3.33128e-05 
8.74976e-06 -0.00131157 0.00256019 -5.87336e-06 0.00176526 1.81785e-05 -1.01882e-05 -5.89581e-05 -2.23008e-05 
-2.73637e-07 9.32069e-05 -9.76343e-05 -1.01765e-05 -0.00101881 -0.00048529 -1.11948e-05 5.06384e-05 -7.86042e-06 
1.38096e-05 8.88396e-05 1.27166e-06 -5.40413e-06 -8.36184e-07 0.000931175 0.000595435 2.59949e-05 -6.01173e-05 
1.10604e-05 -5.60279e-05 -8.7866e-06 1.88654e-06 -2.68418e-05 -0.000134112 1.26464e-06 2.66585e-06 -7.40103e-07 
2.17691e-06 -5.84834e-07 6.56878e-07 -0.00120006 -6.22423e-07 5.29418e-07 -0.00162193 3.09989e-06 -3.22538e-06 
3.26335e-06 7.55742e-07 9.50829e-06 -0.000105902 -2.02522e-05 5.71134e-06 2.35283e-05 -5.18083e-05 -6.52818e-05 
-3.68708e-05 -6.94976e-06 -2.3946e-06 3.82799e-06 1.27127e-06 5.11757e-06 -5.27891e-06 -2.98303e-06 3.13349e-06 
-1.33135e-06 -8.51395e-07 1.16538e-05 -1.97025e-05 -4.76337e-05 -1.93705e-06 -3.57391e-07 1.04617e-06 3.82184e-07 
-4.4221e-06 -1.02933e-05 2.0379e-06 -1.3757e-05 -9.54791e-06 5.4445e-06 1.08022e-05 7.31699e-06 -3.76937e-05 
5.4379e-07 -9.10215e-06 1.37102e-05 4.24846e-05 -2.14853e-06 -7.4193e-06 -2.12692e-06 -2.72924e-05 0.00016826 
0.00105339 4.22966e-06 -8.8093e-05 2.36511e-05 -0.000101953 7.38562e-05 6.65319e-06 -4.41717e-05 5.96761e-05 
0.00121904 0.000427974 -9.56459e-06 -0.000158505 -0.0079798 0.00392937 -0.00756306 -9.69837e-06 6.69261e-06 
3.66917e-05 -5.37948e-07 -5.67297e-05 1.89601e-06 -3.03263e-05 -0.000134692 -6.10403e-05 -1.23219e-06 -2.80981e-07 
-1.9989e-06 -4.64554e-06 -8.61153e-06 -6.8428e-06 -0.000217157 -8.78395e-06 6.89259e-06 -1.0804e-06 -5.91832e-06 
2.59642e-05 -0.000111644 -1.87783e-06 0.0105421 -1.45937e-05 -1.29314e-05 -1.28867e-05 -2.26669e-05 5.01024e-05 
-0.00153612 -0.00254542 9.63236e-05 -9.71468e-07 -9.88967e-07 -5.13351e-06 -5.53008e-06 5.24194e-06 4.4292e-06 
6.01678e-06 -1.72099e-06 8.79419e-06 -2.03187e-05 -3.84279e-05 -8.49684e-06 -6.21182e-07 3.59352e-05 -1.8502e-06 
-1.13706e-05 0.000342882 0.000159719 -1.63124e-06 -0.000840666 -0.00018163 8.29919e-05 1.28165e-05 -6.00814e-05 
-1.40201e-05 6.26067e-05 -2.09971e-05 -7.45238e-05 -3.07599e-05 -1.2293e-05 2.82846e-06 1.65767e-06 -2.17821e-05 
-3.57187e-05 7.73808e-06 -1.39269e-05 -2.09172e-05 -8.64773e-06 -1.54229e-05 3.42888e-05 -8.2515e-06 1.76624e-05 
-0.000172125 7.49136e-06 -9.45778e-05 1.34507e-05 -1.37723e-06 2.34875e-07 3.91298e-07 -0.000135477 6.39213e-05 
-0.000588737 -8.66103e-06 3.64167e-05 -4.13995e-07 5.05506e-06 -2.90706e-05 0.000543518 2.62216e-06 -5.33314e-06 
-3.04107e-06 3.18158e-05 -3.22402e-06 5.07982e-06 -9.16088e-06 1.46774e-05 7.21778e-06 4.56983e-06 -0.000329189 
1.89415e-05 1.5497e-07 -1.63042e-05 1.59299e-05 2.65395e-06 5.56245e-05 -7.73001e-06 -2.26827e-05 -4.19998e-05 
-5.60775e-06 -1.2811e-05 4.69817e-05 1.91708e-05 3.47414e-05 0.000110564 -0.000187378 1.45005e-05 -3.5708e-06 
0.00838606 -0.00106782 0.000551151 -1.02053e-05 9.55457e-07 -1.49598e-05 -1.87915e-05 2.56923e-05 -7.9693e-05 
-1.14206e-05 -2.47143e-05 1.09956e-05 6.72994e-05 -0.00159166 -2.00542e-06 -7.08586e-06 -5.40194e-05 5.88251e-05 
8.2492e-06 2.40873e-05 0.00154799 -0.00112684 0.00627102 0.00488101 -0.00340244 3.43178e-05 -9.78583e-05 
-1.29963e-05 -4.3351e-06 -4.24069e-06 -0.00793767 -1.09904e-06 -3.5251e-07 5.52548e-05 1.88793e-05 -7.4087e-08 
-1.17718e-06 -3.04078e-06 -0.00718341 -3.44893e-06 -9.21858e-05 2.70884e-05 -2.97116e-06 -7.32234e-06 3.88937e-05 
-3.12014e-06 -1.14185e-06 7.9047e-06 -5.97834e-07 -4.28123e-06 -2.86167e-06 2.76382e-06 -1.4758e-05 4.76821e-05 
7.14817e-05 -1.52272e-05 -1.11416e-05 -5.05505e-05 -2.27794e-05 -9.46114e-06 4.79232e-05 5.61132e-06 -8.77064e-06 
-7.25001e-05 3.59478e-05 5.53775e-06 1.74412e-06 -4.7638e-07 -4.43892e-07 -0.000112814 -4.31572e-06 5.95659e-06 
-2.9533e-06 1.10801e-05 6.56939e-06 0.00165355 0.00107247 1.54498e-06 -8.261e-06 -2.37106e-05 -3.13226e-05 
7.48021e-05 -9.91819e-06 1.75759e-05 3.21215e-05 8.10844e-05 1.1102e-05 -2.32696e-05 8.77031e-06 -1.85504e-05 
-5.08434e-06 0.000429352 7.30463e-06 -6.04012e-05 -8.18258e-06 4.07797e-05 5.85287e-06 7.372e-06 -0.000528737 
-4.87417e-06 1.14875e-05 -8.06068e-06 -4.59111e-06 -5.57787e-05 5.67546e-06 1.50831e-05 0.000368371 1.17401e-05 
1.46789e-05 -5.53094e-05 2.37717e-05 -0.000760557 0.00917823 2.85692e-05 -0.000225829 -0.0097909 -2.26282e-06 
-1.89246e-06 -4.69967e-07 -8.69905e-06 -4.43294e-06 3.49122e-05 3.59026e-06 1.06572e-05 -1.63215e-06 4.2987e-06 
-1.68694e-06 -7.77749e-09 2.49533e-06 -1.59052e-05 1.7522e-05 3.70486e-05 -2.81543e-05 2.06322e-05 -3.19858e-05 
4.63129e-06 4.35429e-05 8.44669e-05 -4.96504e-05 -4.32421e-06 -0.000238475 2.01524e-06 -8.00921e-06 5.10824e-05 
-0.00263106 -0.00316058 -0.00483756 1.72881e-06 2.13965e-05 -0.000119744 8.41616e-06 1.47008e-05 -5.57777e-06 
6.31321e-06 -7.62206e-06 7.70239e-06 -5.35388e-06 0.000283111 1.11762e-05 0.000125259 -2.16806e-05 3.54687e-05 
1.23755e-05 2.23528e-05 2.127e-05 2.7984e-06 1.30913e-05 -4.10081e-06 -5.12488e-06 6.54203e-06 1.56203e-06 
9.91646e-06 8.03363e-07 -7.40689e-06 -0.000111071 -0.00122634 -0.00128441 -3.07654e-07 5.27828e-06 -5.36794e-06 
-1.98945e-06 5.64363e-07 1.79719e-07 -0.000149844 0.00150608 -0.00520041 3.51514e-05 -0.00177795 -0.00344722 
9.08549e-05 7.62235e-05 3.13266e-05 -1.38066e-05 -0.00180772 -0.0104383 -0.00920254 -1.54317e-05 9.0064e-06 
5.62211e-05 0.00035312 1.71638e-05 -4.69755e-05 3.73877e-05 -0.00745194 -0.00268141 -1.86371e-05 7.44691e-06 
-8.88346e-05 2.4666e-05 -2.78517e-06 0.00615502 0.00755846 7.81821e-05 -9.67935e-06 3.27938e-05 1.75406e-05 
2.80939e-06 -1.39113e-05 -2.35805e-05 -1.9491e-05 -2.79366e-05 -0.000421506 2.09284e-06 -5.5345e-05 -1.95057e-05 
0.00908611 7.80699e-05 -7.18972e-05 3.42802e-05 -6.38702e-06 5.11367e-06 -7.65249e-07 8.57715e-05 8.54359e-06 
-5.11496e-05 -2.74991e-05 7.47029e-06 -0.00906576 -0.00131554 -0.000958093 -3.81398e-06 -1.22858e-06 -8.119e-05 
1.27049e-05 -3.27359e-06 0.000425225 -0.000131533 0.00814009 2.1302e-05 1.01575e-05 2.18892e-05 1.84493e-05 
5.66303e-07 -0.000252754 0.00674114 4.34572e-05 0.00148247 -3.61431e-05 -0.00103546 -0.00157322 1.77146e-06 
-5.2208e-05 -1.59121e-07 -9.56862e-06 -4.77831e-05 7.73587e-06 6.72431e-06 -2.29261e-05 3.42309e-06 2.40977e-05 
-1.1587e-05 5.75038e-06 1.02557e-05 -4.74157e-06 -4.16476e-06 -7.17204e-06 -8.97459e-06 1.03298e-05 4.93998e-07 
-0.00053131 -5.32638e-05 -4.46314e-05 -1.64105e-05 -6.88591e-05 -0.0017215 1.6927e-05 -5.63593e-05 1.18932e-05 
-1.28425e-05 1.63392e-05 -0.0002542 -4.9724e-05 -1.46258e-05 -4.3543e-05 3.64076e-06 9.39895e-06 1.04274e-05 
0.00367451 -0.00121962 -9.5263e-05 4.06829e-05 1.42856e-05 0.00846756 -0.00750989 -5.74625e-07 1.12404e-05 
-3.56979e-05 3.21054e-05 2.63476e-06 7.20182e-06 -0.0035283 0.00439296 0.00169989 7.1281e-05 -9.28973e-05 
-0.00666488 -6.93191e-06 -1.67434e-06 -8.8949e-05 -1.9167e-05 -6.16901e-05 2.09791e-05 0.000135336 0.00798679 
0.000100733 -1.74134e-05 -3.64889e-05 1.31685e-05 -2.56545e-06 4.75117e-05 -8.20267e-07 5.74765e-05 2.71673e-06 
-2.81675e-05 -3.16955e-05 3.52657e-06 6.3541e-06 -1.5096e-06 -7.88581e-06 1.51164e-05 -3.46784e-06 -2.48545e-05 
1.71777e-05 1.82089e-06 -1.46673e-05 0.000232941 7.27751e-05 2.70808e-05 4.79862e-06 -1.62559e-05 -8.13418e-05 
5.423e-05 3.12829e-05 1.80483e-05 0.000107571 9.15675e-05 -0.00714084 -0.000497576 6.65453e-06 -5.79392e-06 
3.36501e-05 3.37191e-05 -5.12855e-05 -1.59591e-05 3.2755e-06 0.00034618 -6.52492e-05 -0.00214349 0.00011341 
-0.000232558 -0.000100311 -6.19535e-05 2.607e-05 5.60572e-05 3.36619e-05 -6.76085e-06 0.000152046 -0.00133762 
0.00307041 -0.000657715 2.57496e-07 1.2295e-05 -4.77012e-06 -3.53527e-05 -2.51937e-05 -0.000198511 7.16217e-05 
-6.19937e-05 3.06724e-05 7.63996e-06 -2.17937e-06 -0.000203677 2.83685e-06 8.45682e-06 -3.93778e-08 6.19074e-06 
-8.85182e-06 1.04194e-05 4.23093e-05 -2.11977e-06 -2.26947e-05 -1.16336e-05 -6.73802e-05 7.18685e-05 -6.30577e-08 
-7.51933e-06 -0.000162484 -1.04545e-05 -4.24639e-07 0.00208702 -0.0061366 -0.00115996 -0.000776291 5.7417e-07 
-3.62469e-06 5.77584e-06 -9.56849e-06 -0.00762068 -1.08416e-05 -0.000596969 -0.000260992 1.71129e-05 3.12156e-06 
-8.61863e-06 -1.11767e-05 -2.21571e-05 -4.81677e-06 -1.77997e-05 -2.88673e-05 1.05087e-05 -4.37805e-05 9.62789e-05 
2.13394e-06 -1.64099e-05 0.000154745 -0.00969882 4.23994e-06 -5.70187e-06 -1.06957e-05 -3.85913e-05 -6.71402e-06 
-1.76737e-05 4.19682e-06 -0.00024388 -0.000142382 3.8808e-06 3.53423e-07 -6.24884e-06 7.00032e-06 2.75575e-06 
0.000123833 5.54898e-05 1.13713e-06 1.96846e-07 -5.32581e-06 -8.99449e-06 -0.00822467 -6.5485e-05 -1.4638e-05 
-5.21748e-06 8.09125e-07 0.00238931 1.35569e-05 0.0011034 2.66335e-05 4.32287e-05 -8.95716e-06 6.29781e-06 
-4.51574e-05 -5.44675e-05 -0.00049881 -2.87667e-05 -1.90439e-06 -2.7846e-05 -1.3147e-05 4.82434e-06 -1.61749e-06 
-5.15441e-05 -7.01696e-06 1.49569e-05 -7.75411e-06 -3.8191e-05 0.000164661 -2.83454e-05 -0.000121408 -8.9424e-07 
-2.12887e-07 0.000242734 -8.01615e-06 -8.28665e-07 4.47904e-07 2.48123e-05 -2.61796e-06 4.28423e-06 1.23151e-05 
-1.43348e-05 1.2578e-05 0.000123643 -2.44677e-06 -2.97124e-05 1.70848e-06 5.84494e-05 0.000170957 -3.0901e-06 
7.80845e-07 4.01426e-05 -1.25613e-05 -1.12828e-05 -5.77384e-06 1.84045e-05 -0.00183572 4.44241e-05 0.00255593 
0.00816725 -0.00391679 7.32869e-06 -1.94875e-07 0.00148164 -0.00108885 -0.000101473 -0.000764136 -0.00141666 
-0.000164623 5.80871e-05 1.2633e-05 1.09358e-05 -3.42959e-06 -0.000137945 -3.82186e-06 -7.5735e-06 -1.32691e-05 
-1.2557e-05 5.4251e-06 -3.06015e-05 -6.99951e-06 -4.18782e-07 1.7932e-05 5.48986e-06 -0.000133946 -4.96757e-05 
-6.25151e-07 -7.3222e-06 -2.95175e-05 3.84633e-05 2.04277e-06 1.46453e-06 6.56631e-06 -2.34628e-06 -4.93648e-07 
2.7491e-05 3.45908e-05 2.5529e-06 -4.96864e-06 9.6058e-05 -3.28402e-05 -1.62548e-05 -1.57618e-06 -0.00215021 
5.09919e-05 -2.85077e-05 -1.96604e-05 1.98523e-07 1.5677e-05 2.7893e-05 -3.25048e-05 1.30177e-05 0.0012581 
-8.30792e-05 -5.36118e-06 7.59157e-06 1.09704e-05 -1.00747e-05 6.81121e-07 -5.78492e-07 5.54892e-06 2.68123e-07 
-4.70818e-05 -7.55126e-05 -0.000109483 5.77571e-05 -0.000104424 -8.23023e-05 0.00173343 -1.5139e-05 -0.00156039 
-0.00146623 -0.000186237 -0.000288002 -2.38956e-05 -0.000462427 0.000113955 4.99725e-06 9.6972e-06 -4.22072e-06 
-8.79228e-06 1.13619e-06 1.71986e-06 4.96824e-05 -3.04002e-05 0.00394881 2.92766e-06 -3.1294e-07 0.000277111 
-0.000516111 -0.00775725 3.80562e-05 -0.00421345 1.89488e-07 -6.97063e-06 4.54371e-06 1.66971e-05 -2.31161e-05 
0.000276084 -0.000677886 2.33292e-05 6.28031e-05 4.81428e-06 2.64616e-06 2.32286e-05 -9.44772e-06 7.14941e-06 
-1.81314e-06 -2.95843e-05 1.13147e-05 -4.03353e-06 8.94678e-07 -4.57014e-05 -4.17194e-05 -9.3046e-06 -8.07303e-05 
-7.23092e-05 1.82446e-06 -0.000102695 7.76937e-05 -1.69498e-05 -1.85367e-05 -3.26503e-05 2.02944e-05 -2.65849e-06 
-3.79498e-05 -7.73363e-06 7.54109e-06 2.14589e-05 1.0906e-05 -5.18073e-05 2.73515e-06 3.90693e-05 -2.85392e-05 
6.62715e-05 5.77372e-05 -6.251e-05 -9.21157e-06 -4.24376e-06 5.66576e-05 2.22618e-06 3.14705e-05 -2.29546e-07 
-2.13376e-05 1.12047e-05 1.42703e-05 -3.33728e-06 -0.000159293 8.53768e-06 -8.06922e-06 -2.93924e-05 9.06009e-06 
-7.60557e-06 3.9428e-06 1.7718e-06 2.00576e-05 3.51265e-05 6.70828e-05 -3.53691e-05 -3.2022e-05 -5.02186e-05 
-0.00822515 6.77815e-05 9.64162e-06 -9.72421e-06 -1.16514e-05 -7.66256e-05 -0.000105448 -5.80436e-07 -1.51411e-05 
-3.5129e-06 1.99775e-05 -1.22793e-05 -1.15056e-05 -8.21647e-06 4.636e-06 -2.91982e-06 1.36357e-06 1.53681e-05 
-4.86288e-05 0.000118068 -3.5374e-05 -3.48477e-05 3.24389e-05 -4.18024e-06 -1.57861e-05 6.47651e-07 8.15165e-07 
-2.38828e-06 -3.05467e-05 -2.72063e-05 1.30001e-05 3.20058e-05 -5.71741e-06 8.77937e-06 -5.47481e-06 -3.38231e-05 
3.7444e-05 -3.89469e-06 -2.36353e-05 4.11601e-06 1.14574e-05 -4.78897e-06 -3.75581e-06 -0.00010554 -8.08501e-05 
-1.96639e-06 4.66636e-05 5.89318e-06 -9.36784e-06 2.4267e-06 4.14664e-05 2.33064e-06 -0.000136625 -3.70716e-05 
0.000160601 -1.97155e-05 -5.97566e-05 0.000293565 -2.87336e-05 -4.01096e-05 -0.0102658 -3.69536e-07 1.95524e-06 
3.0168e-05 2.75837e-06 -6.61016e-05 -0.000180641 -1.00321e-05 7.61886e-06 5.32276e-06 0.00760135 -6.23125e-05 
-5.37404e-05 -0.00037921 -1.95425e-05 -0.0101565 -2.77946e-05 0.00198432 0.000875803 8.42995e-05 -0.000345767 
5.2928e-05 1.0172e-05 0.00217685 -2.28096e-06 8.83651e-06 -0.00101296 -5.17749e-06 -1.4836e-05 0.00310603 
-1.24952e-05 4.99011e-06 3.23761e-05 3.9639e-06 -2.43214e-05 -1.29639e-06 1.79349e-06 3.78528e-05 4.26877e-06 
-0.000315728 3.56206e-06 6.37602e-06 2.54948e-05 -0.00268739 1.84183e-05 2.27108e-06 1.86288e-06 7.08269e-06 
-6.66563e-06 -0.0045308 2.6491e-06 1.41317e-05 0.00490717 1.0443e-05 1.44701e-06 0.0155484 0.00807992 
-0.0119765 -9.63699e-05 2.77289e-06 4.14204e-05 -2.41056e-06 -0.00340334 -8.59778e-06 0.00461667 0.00468801 
2.83601e-06 2.49487e-05 1.0615e-07 -0.000126919 -4.20352e-06 -8.81967e-05 0.00177358 -0.000296059 0.00101577 
-0.00433254 4.81399e-06 0.00266388 -0.0110043 4.77963e-06 -6.42759e-06 -0.00325337 -3.89729e-05 9.46711e-06 
-1.09915e-05 -0.00122146 2.12768e-06 4.95053e-06 -4.12669e-06 -0.00557519 0.00216061 0.000874837 -3.8572e-05 
-7.13084e-06 -4.88526e-06 1.73825e-05 7.16074e-06 3.82311e-06 -2.37402e-05 -8.25577e-05 -0.00810308 1.97444e-06 
4.07854e-06 -0.000658871 -0.00447199 4.5166e-07 7.11997e-06 -6.15034e-05 1.13879e-05 0.00333492 0.00740752 
0.000465122 -1.67042e-06 -0.00562781 0.000679575 -0.000587782 -6.78506e-06 9.87763e-05 6.75309e-05 2.31177e-05 
-0.00709515 3.41148e-05 8.03469e-06 -0.00125266 -0.00114289 -2.91349e-05 1.14903e-05 0.00553486 0.000540097 
0.00759548 -0.00884485 -1.36736e-05 -1.48081e-06 0.00291489 3.40212e-05 8.13281e-06 0.00222314 0.00821692 
0.00914796 0.00185254 0.00142851 0.00842175 2.43829e-06 -0.000171084 -0.00289378 0.00953747 0.00101682 
-2.40707e-06 0.00218576 0.0011322 -0.00137624 -0.0045744 -0.00435405 -4.06945e-05 -0.0080814 3.96868e-05 
1.05798e-05 1.93815e-06 3.19297e-06 0.00180592 1.16242e-05 -0.00473769 8.05069e-07 -2.41709e-05 -0.00312989 
0.00103901 0.00176497 -5.21295e-05 0.0116762 0.00494913 0.00372694 0.00130214 4.7902e-05 0.00048771 
1.26484e-07 -3.84907e-06 1.26334e-05 0.000165118 0.00998667 -0.00320986 0.00271619 -0.0017066 0.00206916 
-0.00339506 0.0121853 -0.00687963 -0.00692556 0.00491945 -0.00596547 -0.000257514 0.00932289 0.00979673 
-0.00384601 -0.00651577 -0.000238902 -0.00192005 -0.00084657 0.00397298 -0.0062068 0.00155079 0.000452263 
-0.00264372 0.00040357 -0.00782707 0.000370217 0.00326946 -0.000443359 -0.000396872 -0.00692149 -0.000314695 
-0.000728356 -0.00233687 -0.00143925 -0.0158503 0.00633342 0.00816133 -0.0027573 -0.00189159 0.0159466 
-0.00179657 0.00159026 -0.00156092 -0.0114482 -0.00635902 -0.0065754 -0.00467461 -0.00131778 0.0159242 
0.0106395 0.011528 0.00323994 -0.00858739 0.00361023 0.00222294 0.00382851 -0.00272203 -0.00607684 
-0.00310545 0.0171514 -0.0105925 -0.00225069 0.0106253 -0.0120534 0.00840076 0.00792664 -0.000635048 
-0.00337269 0.000351084 -0.00365121 -0.00499512 0.00176186 0.00759811 0.00136813 -0.00101198 -0.00766953 
0.00797947 -0.00225304 -0.00184007 0.00082005 -0.00327363 0.0100201 0.00923594 -0.00336737 0.00404388 
0.00304065 -0.000986364 0.00371242 -0.00324672 -0.0037151 0.00757286 -1.0752e-05 -0.00861409 0.00100059 
-0.000188669 -0.00122465 0.00109448 0.0158679 -0.00424461 0.0053184 0.00891752 0.00331194 0.0100584 
0.00389248 0.000436659 0.0027853 0.000744236 -0.00418648 -0.000861892 -0.00736291 0.00953168 0.0024663 
0.000539391 -0.00146577 
Strain%20yy%20component 1 13529 double
0.309768 0.489653 0.385231 0.43644 0.30771 0.307717 0.307701 0.307712 0.0856508 
0.109618 0.1203 0.107379 0.0798631 0.121098 0.111025 0.0690722 0.144415 0.0757334 
0.119437 0.134206 0.0864822 0.0963053 0.119654 0.0974698 0.0790972 0.143477 0.123309 
0.081711 0.148699 0.0857164 0.114702 0.132622 0.142561 0.11874 0.438463 0.517365 
0.393991 0.443984 0.134507 0.161558 0.159461 0.147032 0.142459 0.143807 0.12822 
0.082775 0.0953678 0.125498 0.118993 0.130868 0.141457 0.15108 0.0900123 0.0879655 
0.126405 0.121744 0.141361 0.147346 0.144538 0.137859 0.126063 0.0816354 0.104355 
0.101004 0.119574 0.126675 0.138843 0.171209 0.117347 0.0963189 0.100152 0.10101 
0.09036 0.0885164 0.0796142 0.0826935 0.0833773 0.0953825 0.120276 0.118991 0.107362 
0.106244 0.170715 0.158362 0.146271 0.142626 0.136145 0.124451 0.140635 0.117118 
0.132358 0.152244 0.0794655 0.0873832 0.0884544 0.122373 0.149309 0.173071 0.164486 
0.145416 0.145845 0.142162 0.136755 0.129871 0.0774582 0.115176 0.0888587 0.0943062 
0.102442 0.119687 0.118525 0.133083 0.102907 0.0939617 0.0833224 0.0704192 0.150993 
0.147435 0.143588 0.138657 0.134675 0.0812369 0.111859 0.118002 0.124422 0.178352 
0.154063 0.128394 0.134198 0.123223 0.110045 0.101399 0.14698 0.146883 0.143964 
0.137427 0.126823 0.160974 0.147913 0.144554 0.138931 0.130516 0.146087 0.16975 
0.134309 0.136615 0.11368 0.111373 0.085305 0.111205 0.115947 0.128472 0.10595 
0.149115 0.14815 0.144678 0.137838 0.124036 0.167507 0.132296 0.129933 0.102016 
0.109788 0.0814265 0.0815211 0.0770264 0.0875202 0.0973854 0.0901205 0.116799 0.244414 
0.175041 0.156993 0.152224 0.151847 0.157318 0.153658 0.155869 0.156551 0.162606 
0.159734 0.159969 0.161409 0.178027 0.177599 0.176503 0.157585 0.155459 0.164963 
0.169407 0.153048 0.155051 0.177156 0.221982 0.160261 0.14601 0.16132 0.1609 
0.159779 0.158936 0.139563 0.158096 0.159319 0.162062 0.163517 0.145285 0.164539 
0.165424 0.165679 0.165257 0.136167 0.14151 0.133568 0.16247 0.160107 0.159744 
0.137856 0.131172 0.157961 0.159981 0.16474 0.13806 0.132274 0.307513 0.307604 
0.308132 0.308888 0.309989 0.311279 0.312656 0.31419 0.315739 0.317047 0.318243 
0.319139 0.319765 0.320102 0.320187 0.31979 0.319201 0.318241 0.317232 0.315932 
0.31441 0.313145 0.311774 0.31058 0.309551 0.308687 0.308045 0.307663 0.307556 
0.534839 0.304943 0.27874 0.26266 0.251662 0.244125 0.240272 0.23792 0.236964 
0.237156 0.23829 0.241105 0.244855 0.250222 0.255952 0.262186 0.270156 0.278745 
0.287202 0.295406 0.301641 0.305678 0.305665 0.302886 0.297977 0.292579 0.287732 
0.283524 0.280187 0.277836 0.276511 0.276362 0.277177 0.278783 0.281246 0.284688 
0.288083 0.291588 0.295471 0.298888 0.301856 0.304702 0.306734 0.307837 0.308017 
0.307863 0.307882 0.307037 0.305537 0.303522 0.300791 0.29804 0.294955 0.292469 
0.290101 0.288034 0.28639 0.285658 0.285756 0.286552 0.288551 0.290853 0.294144 
0.297906 0.302049 0.305798 0.308791 0.310349 0.309468 0.306395 0.301488 0.295588 
0.287973 0.280589 0.27281 0.266254 0.26037 0.25515 0.250912 0.247133 0.24506 
0.24378 0.24388 0.245182 0.248618 0.254369 0.264771 0.280651 0.309357 0.535629 
0.124455 0.159845 0.194835 0.16769 0.163592 0.162274 0.182631 0.185198 0.166213 
0.149089 0.239055 0.217414 0.16334 0.160922 0.160212 0.160915 0.164742 0.192187 
0.146311 0.155857 0.149512 0.146907 0.170727 0.16333 0.159059 0.140631 0.140561 
0.144089 0.144071 0.241472 0.223254 0.184818 0.182014 0.161634 0.179512 0.161825 
0.210508 0.229799 0.170771 0.121309 0.307602 0.307772 0.308538 0.309684 0.311258 
0.313046 0.315054 0.317009 0.318409 0.319399 0.320064 0.320038 0.31949 0.318517 
0.317201 0.315499 0.313717 0.312037 0.310419 0.309133 0.308205 0.307679 0.307577 
0.406771 0.304855 0.269561 0.253985 0.243772 0.239237 0.237186 0.23731 0.238965 
0.242933 0.248327 0.255772 0.264093 0.272644 0.282106 0.292516 0.301142 0.305443 
0.304862 0.300438 0.294346 0.288173 0.282277 0.278734 0.276877 0.27646 0.277674 
0.280177 0.284043 0.288096 0.291972 0.296512 0.30055 0.303661 0.306305 0.307774 
0.30793 0.307991 0.307717 0.306332 0.304158 0.300915 0.297643 0.293957 0.291 
0.288139 0.2864 0.285717 0.286262 0.288249 0.291512 0.295634 0.30005 0.304789 
0.308711 0.310196 0.308541 0.302997 0.294794 0.28555 0.275996 0.266684 0.259107 
0.25279 0.248077 0.245171 0.244096 0.244995 0.248653 0.257027 0.272041 0.303321 
0.38293 0.111135 0.149174 0.146706 0.169995 0.16696 0.16636 0.139394 0.141788 
0.167475 0.262423 0.178041 0.117734 0.167627 0.165084 0.163908 0.164737 0.16695 
0.116203 0.136086 0.0891642 0.106311 0.194221 0.171698 0.164386 0.159984 0.170371 
0.183908 0.186367 0.167883 0.155892 0.130887 0.118953 0.157836 0.135027 0.163665 
0.12416 0.136217 0.160911 0.120722 0.191844 0.173356 0.185523 0.223649 0.24497 
0.201656 0.252904 0.197611 0.217343 0.19959 0.182824 0.175885 0.212681 0.239841 
0.208546 0.204875 0.252487 0.215526 0.247592 0.182265 0.199505 0.1668 0.198097 
0.267406 0.22356 0.174461 0.19983 0.211712 0.231518 0.165538 0.189624 0.208951 
0.223268 0.180359 0.170689 0.213753 0.161876 0.193617 0.199138 0.215552 0.249519 
0.225537 0.210337 0.191474 0.180071 0.259754 0.170047 0.178277 0.201624 0.215394 
0.24531 0.200703 0.177093 0.200987 0.246901 0.170022 0.21954 0.176276 0.188592 
0.174656 0.183698 0.261904 0.239279 0.224443 0.217238 0.201992 0.178955 0.177666 
0.182934 0.242122 0.246904 0.226075 0.208545 0.203259 0.220176 0.16897 0.199806 
0.307594 0.307937 0.308579 0.30942 0.310511 0.311623 0.312918 0.314186 0.315371 
0.316386 0.317319 0.317933 0.31837 0.318461 0.318369 0.317943 0.317302 0.316458 
0.315474 0.314295 0.313186 0.312025 0.310959 0.310009 0.30918 0.308466 0.307983 
0.307679 0.307676 0.354142 0.319961 0.296222 0.280183 0.269509 0.261818 0.256838 
0.253133 0.251787 0.25168 0.251534 0.252947 0.2555 0.259274 0.263584 0.26809 
0.273482 0.279255 0.284931 0.289757 0.292732 0.2947 0.294352 0.292319 0.289403 
0.286525 0.284016 0.281926 0.280479 0.279682 0.279661 0.28021 0.281588 0.28353 
0.286174 0.288909 0.291752 0.294681 0.297737 0.300485 0.302807 0.304867 0.306272 
0.307254 0.307296 0.306569 0.305311 0.303654 0.301686 0.299355 0.296945 0.294771 
0.292624 0.290648 0.289112 0.288154 0.287608 0.287736 0.288482 0.289851 0.291746 
0.293884 0.2965 0.299076 0.301135 0.30192 0.301962 0.300013 0.296929 0.292843 
0.287467 0.282167 0.276859 0.271718 0.267152 0.26327 0.26033 0.258088 0.256598 
0.256736 0.257566 0.260071 0.264068 0.27098 0.282075 0.298897 0.324576 0.398396 
0.331802 0.294543 0.277029 0.267064 0.264694 0.266032 0.27124 0.268013 0.269412 
0.270214 0.274021 0.280306 0.278271 0.276489 0.276888 0.283487 0.299891 0.29728 
0.279258 0.271225 0.268455 0.27184 0.286513 0.271011 0.26717 0.273484 0.29872 
0.363146 0.21972 0.249697 0.290765 0.301312 0.30626 0.306189 0.306391 0.302309 
0.302811 0.337385 0.392237 0.376272 0.326386 0.311897 0.305942 0.303008 0.301634 
0.300431 0.29173 0.272218 0.233167 0.226475 0.225154 0.243413 0.284131 0.299933 
0.300474 0.297817 0.296594 0.297618 0.301907 0.316089 0.383995 0.375426 0.315221 
0.297367 0.294799 0.295813 0.301956 0.298706 0.297341 0.282057 0.252654 0.22024 
0.268327 0.476156 0.434556 0.264094 0.475986 0.260025 0.307442 0.308343 0.309303 
0.310426 0.311632 0.312942 0.31412 0.315237 0.316212 0.316978 0.31751 0.317761 
0.317769 0.31746 0.316911 0.316144 0.315182 0.314089 0.313011 0.311921 0.310846 
0.309835 0.308971 0.3082 0.307695 0.307364 0.282138 0.307285 0.297202 0.288175 
0.279424 0.273398 0.268707 0.265354 0.263425 0.2622 0.261586 0.262053 0.263494 
0.265525 0.267715 0.270368 0.273669 0.277487 0.281513 0.284214 0.285919 0.286656 
0.2856 0.283821 0.282575 0.281886 0.281242 0.280753 0.280671 0.281063 0.282029 
0.283377 0.285096 0.287495 0.289912 0.292303 0.294848 0.297463 0.299934 0.302122 
0.30417 0.305831 0.30708 0.319744 0.315341 0.30666 0.305663 0.304225 0.302598 
0.30063 0.298594 0.296578 0.294573 0.292653 0.291005 0.289682 0.288782 0.288251 
0.288195 0.28854 0.289242 0.29028 0.291677 0.293369 0.295068 0.296026 0.296084 
0.295123 0.293162 0.290188 0.286375 0.282492 0.278951 0.27527 0.272115 0.269456 
0.267746 0.266554 0.266308 0.266898 0.268351 0.271142 0.274996 0.281153 0.289638 
0.300421 0.311182 0.265266 0.290734 0.276291 0.266549 0.262913 0.261324 0.262449 
0.263933 0.26604 0.267717 0.269814 0.271237 0.273294 0.274316 0.275347 0.273752 
0.270408 0.270557 0.269906 0.267405 0.265667 0.263038 0.263111 0.266506 0.274743 
0.291819 0.261006 0.389981 0.247008 0.294349 0.297993 0.29893 0.298931 0.300515 
0.31159 0.346611 0.26104 0.306909 0.335771 0.295051 0.294003 0.292033 0.286361 
0.272637 0.253373 0.246339 0.263492 0.378553 0.258497 0.248588 0.286307 0.289909 
0.290363 0.290037 0.291118 0.300814 0.338239 0.395469 0.299846 0.32738 0.291907 
0.292856 0.293299 0.289463 0.278604 0.259256 0.249461 0.297404 0.275718 0.292106 
0.27697 0.418427 0.272935 0.391103 0.307837 0.308773 0.310097 0.311562 0.313069 
0.314419 0.315639 0.316687 0.317503 0.318028 0.31811 0.317841 0.317274 0.316464 
0.31537 0.314157 0.312894 0.311696 0.310508 0.309388 0.308316 0.307388 0.306814 
0.306559 0.26231 0.290087 0.274645 0.294187 0.375334 0.293494 0.290253 0.285553 
0.281427 0.27777 0.274874 0.272371 0.270333 0.268902 0.268367 0.268546 0.268884 
0.26931 0.270187 0.271791 0.273767 0.277489 0.277964 0.280234 0.278823 0.277443 
0.277046 0.277609 0.278552 0.279243 0.280064 0.281009 0.282423 0.284109 0.286052 
0.288335 0.290915 0.293197 0.295547 0.29785 0.300072 0.302054 0.30414 0.30625 
0.276365 0.305354 0.303709 0.302023 0.300206 0.29831 0.296479 0.294452 0.292508 
0.290901 0.289555 0.288436 0.287639 0.287091 0.286881 0.286886 0.287197 0.288277 
0.289912 0.291133 0.291511 0.291138 0.290107 0.28788 0.284817 0.281831 0.279325 
0.277206 0.275356 0.273912 0.273227 0.273212 0.273601 0.274583 0.276493 0.279302 
0.282702 0.287231 0.292219 0.296917 0.297089 0.393592 0.283183 0.282947 0.275377 
0.272988 0.272401 0.273536 0.275277 0.277501 0.279707 0.282425 0.284402 0.286198 
0.286555 0.285376 0.283887 0.282614 0.281005 0.279328 0.277393 0.275257 0.274661 
0.276385 0.280203 0.271886 0.287679 0.293319 0.294403 0.29619 0.303118 0.324053 
0.285485 0.266383 0.283162 0.289734 0.274315 0.264233 0.258217 0.357269 0.365405 
0.349563 0.286392 0.282546 0.287591 0.294121 0.314411 0.369269 0.265199 0.284092 
0.288007 0.277909 0.269334 0.287276 0.267286 0.282136 0.382517 0.298908 0.283474 
0.273242 0.276057 0.346636 0.267427 0.360681 0.26176 0.335161 0.292144 0.293825 
0.267276 0.289 0.263003 0.314996 0.307325 0.306313 0.28094 0.307926 0.309662 
0.311635 0.313581 0.315441 0.316703 0.318059 0.319117 0.319654 0.319273 0.318394 
0.317825 0.316481 0.314743 0.313091 0.311523 0.310098 0.308694 0.307369 0.306324 
0.305353 0.289882 0.28174 0.288186 0.291205 0.291616 0.290215 0.287909 0.285062 
0.282066 0.279285 0.276504 0.274199 0.272754 0.271573 0.27033 0.268753 0.270341 
0.270847 0.274974 0.276652 0.278388 0.280002 0.281785 0.284 0.286386 0.289082 
0.2919 0.29441 0.296701 0.298933 0.301041 0.302699 0.30417 0.303495 0.302021 
0.300324 0.298448 0.296401 0.294193 0.29209 0.290243 0.288585 0.287184 0.285969 
0.284768 0.283752 0.283172 0.283293 0.28462 0.286821 0.286763 0.286818 0.282884 
0.280152 0.278535 0.277408 0.276881 0.276543 0.27683 0.277508 0.278779 0.280478 
0.28267 0.285231 0.287721 0.290104 0.29221 0.293126 0.358677 0.276162 0.270065 
0.285459 0.283321 0.282397 0.282909 0.284404 0.286645 0.289474 0.292813 0.295758 
0.298104 0.299279 0.298831 0.297379 0.295793 0.29369 0.291078 0.2886 0.286225 
0.284757 0.285102 0.323796 0.292541 0.287241 0.345187 0.298139 0.310953 0.285272 
0.280682 0.339956 0.284727 0.351656 0.290048 0.283153 0.280778 0.301794 0.275355 
0.278997 0.282264 0.368859 0.282719 0.284756 0.266365 0.273023 0.270442 0.277424 
0.28676 0.268162 0.34529 0.359741 0.359424 0.287399 0.286078 0.341402 0.293304 
0.270675 0.303699 0.276865 0.334117 0.27315 0.328974 0.287942 0.265237 0.290926 
0.276479 0.272309 0.29941 0.307268 0.309485 0.312153 0.315243 0.318411 0.320223 
0.322065 0.322297 0.320297 0.319491 0.316546 0.313613 0.311622 0.309544 0.308223 
0.306503 0.305178 0.304276 0.314134 0.290652 0.293521 0.294316 0.293104 0.290813 
0.287828 0.284626 0.281149 0.277927 0.275925 0.274322 0.278835 0.280885 0.283428 
0.286275 0.289553 0.292865 0.296088 0.298792 0.301089 0.302852 0.304258 0.305506 
0.344249 0.302715 0.300978 0.298861 0.29636 0.293775 0.291361 0.289096 0.286967 
0.2856 0.283715 0.281711 0.279876 0.278448 0.278706 0.276 0.276385 0.27693 
0.277728 0.278808 0.280411 0.281888 0.284094 0.286843 0.289319 0.291102 0.292133 
0.292028 0.290141 0.324387 0.289736 0.291352 0.294009 0.297619 0.301516 0.305776 
0.309633 0.312382 0.312938 0.311472 0.308894 0.306127 0.302807 0.298464 0.294686 
0.29174 0.30203 0.288904 0.285537 0.293913 0.293122 0.276427 0.322619 0.283564 
0.287099 0.307619 0.282806 0.337857 0.283425 0.325333 0.336447 0.349795 0.285346 
0.340245 0.279596 0.33725 0.348827 0.281607 0.29559 0.328027 0.289229 0.278801 
0.316838 0.330204 0.289102 0.284038 0.281895 0.281032 0.287766 0.296689 0.273812 
0.319971 0.309504 0.313157 0.316666 0.322043 0.323582 0.327402 0.324892 0.320376 
0.314946 0.31011 0.30627 0.303824 0.281109 0.284641 0.299048 0.298649 0.296295 
0.292899 0.283627 0.286178 0.290368 0.294361 0.29862 0.302178 0.304544 0.30571 
0.299593 0.296038 0.293397 0.29102 0.287628 0.308458 0.308495 0.276204 0.278228 
0.27966 0.281967 0.284281 0.286037 0.292466 0.29406 0.294319 0.292765 0.285529 
0.294787 0.297768 0.302579 0.307902 0.311922 0.320801 0.322647 0.330038 0.325072 
0.323668 0.317606 0.316257 0.307496 0.301331 0.296648 0.334812 0.275141 0.306491 
0.282696 0.289234 0.327877 0.302274 0.335992 0.314318 0.289539 0.304377 0.290034 
0.295423 0.321974 0.298003 0.281615 0.310441 0.324525 0.298941 0.330185 0.318554 
0.303675 0.286314 0.330649 0.307225 0.311997 0.310321 0.305667 0.304847 0.295493 
0.297471 0.292134 0.301259 0.305776 0.317205 0.297394 0.289308 0.306841 0.297667 
0.31534 0.302246 0.309776 0.318328 0.31086 0.304321 0.307404 0.308167 0.309113 
0.310343 0.31172 0.313392 0.314928 0.316365 0.31737 0.318036 0.318311 0.318034 
0.317378 0.316413 0.315097 0.313699 0.312296 0.310882 0.309663 0.308681 0.30796 
0.307585 0.329116 0.313297 0.286151 0.270802 0.262319 0.257579 0.255054 0.253851 
0.254209 0.256075 0.259654 0.263957 0.269269 0.275 0.281202 0.286731 0.291503 
0.293216 0.292016 0.289191 0.286188 0.283376 0.281297 0.280235 0.280149 0.281071 
0.28298 0.285663 0.288746 0.291974 0.295399 0.298603 0.301538 0.304035 0.306041 
0.307159 0.306143 0.304517 0.30221 0.29966 0.296772 0.294235 0.291723 0.289672 
0.288411 0.287925 0.288304 0.289599 0.291519 0.294053 0.296367 0.298826 0.300611 
0.300105 0.29768 0.29291 0.28652 0.280407 0.274288 0.268885 0.264404 0.261599 
0.259816 0.259802 0.262426 0.26699 0.27548 0.289986 0.31093 0.346186 0.305893 
0.297308 0.280865 0.274948 0.267674 0.267813 0.270858 0.275166 0.27737 0.279125 
0.281567 0.284 0.282244 0.259071 0.254726 0.277269 0.274977 0.272113 0.247798 
0.269612 0.27781 0.296268 0.219027 0.248865 0.289217 0.307267 0.304207 0.30288 
0.303482 0.311299 0.315721 0.328641 0.390424 0.420771 0.344181 0.308815 0.301638 
0.299626 0.298568 0.299034 0.301737 0.28684 0.245168 0.218813 0.220387 0.257005 
0.291507 0.299719 0.298061 0.296872 0.296705 0.299597 0.32075 0.373647 0.385132 
0.332535 0.309373 0.303422 0.302524 0.298978 0.30628 0.308617 0.293081 0.239729 
0.223959 0.516234 0.264535 0.261996 0.453231 0.434271 0.308094 0.306979 0.310154 
0.31181 0.313537 0.315066 0.316383 0.317253 0.317758 0.317697 0.317162 0.316228 
0.315019 0.313606 0.312212 0.310773 0.309472 0.30844 0.307509 0.247505 0.289555 
0.299903 0.303262 0.280951 0.27465 0.270328 0.26776 0.265439 0.264562 0.264699 
0.266189 0.2682 0.270819 0.273864 0.277531 0.281567 0.284557 0.285224 0.283239 
0.281328 0.280348 0.280293 0.280547 0.281266 0.282459 0.284433 0.286879 0.289683 
0.292559 0.295469 0.298264 0.300727 0.303122 0.305211 0.303581 0.30573 0.307016 
0.301454 0.299075 0.296527 0.294261 0.292103 0.290282 0.288971 0.288193 0.288042 
0.288429 0.289062 0.290287 0.291803 0.293078 0.294027 0.293195 0.290404 0.285978 
0.281573 0.277777 0.274456 0.272062 0.270776 0.270271 0.271243 0.273384 0.278111 
0.2844 0.293261 0.302409 0.311518 0.259465 0.400375 0.27592 0.288857 0.2672 
0.263665 0.264657 0.267499 0.270402 0.272373 0.275537 0.276883 0.277327 0.276257 
0.274348 0.272696 0.270424 0.268217 0.266796 0.265433 0.270913 0.282083 0.262251 
0.261613 0.418011 0.263454 0.283365 0.294669 0.298187 0.299455 0.299928 0.301175 
0.309065 0.340556 0.312273 0.299411 0.295941 0.294831 0.292599 0.287582 0.276461 
0.256311 0.243182 0.374456 0.262746 0.282373 0.289394 0.29105 0.290267 0.290354 
0.29726 0.323244 0.26477 0.302988 0.294094 0.293145 0.294055 0.294067 0.291388 
0.280735 0.261435 0.246136 0.308844 0.35213 0.245888 0.330192 0.275605 0.416086 
0.277601 0.406673 0.360433 0.264273 0.272489 0.309972 0.263773 0.314055 0.318143 
0.317306 0.317901 0.316907 0.315475 0.313832 0.312128 0.310499 0.308963 0.307762 
0.30674 0.26491 0.292991 0.306907 0.290852 0.293237 0.2828 0.279324 0.276212 
0.273448 0.271597 0.270302 0.269772 0.269443 0.269187 0.269672 0.276491 0.274523 
0.275391 0.276978 0.278861 0.280519 0.282395 0.284779 0.28749 0.290614 0.293538 
0.296401 0.299053 0.301278 0.302919 0.275101 0.292305 0.315895 0.301213 0.298688 
0.286456 0.304943 0.260416 0.29638 0.29407 0.29182 0.289957 0.28822 0.287002 
0.286111 0.285506 0.285191 0.285471 0.287016 0.288235 0.290001 0.287884 0.284805 
0.281121 0.278473 0.276893 0.276126 0.276191 0.27711 0.278701 0.281312 0.284662 
0.288174 0.292169 0.377559 0.276193 0.280704 0.269975 0.262885 0.274807 0.276406 
0.27948 0.282956 0.285989 0.288213 0.289266 0.289487 0.288505 0.28619 0.283714 
0.281199 0.279458 0.278806 0.277963 0.389245 0.323821 0.280034 0.303307 0.271901 
0.283358 0.290127 0.29359 0.295129 0.296341 0.301654 0.302099 0.318386 0.365677 
0.293782 0.290893 0.288343 0.28317 0.275694 0.264733 0.317844 0.278884 0.283741 
0.285837 0.286811 0.290976 0.312051 0.307825 0.290157 0.289203 0.28884 0.286031 
0.279975 0.269836 0.262172 0.362792 0.296775 0.382225 0.317994 0.261025 0.279487 
0.305035 0.382313 0.374963 0.271681 0.285077 0.285192 0.349283 0.33465 0.256366 
0.304432 0.298494 0.319833 0.316779 0.318612 0.312335 0.310318 0.308403 0.306748 
0.305561 0.314636 0.271203 0.319221 0.282842 0.28906 0.279525 0.276447 0.273639 
0.271548 0.268924 0.264155 0.276658 0.279244 0.281596 0.284291 0.287572 0.291426 
0.29491 0.297945 0.300696 0.30287 0.304779 0.285482 0.28909 0.2962 0.301121 
0.293663 0.291097 0.288798 0.286545 0.284738 0.283014 0.281373 0.279581 0.278736 
0.2826 0.282117 0.279618 0.276617 0.276898 0.277725 0.279324 0.281332 0.283627 
0.286407 0.288829 0.290793 0.291892 0.290302 0.271969 0.338413 0.267874 0.356429 
0.270617 0.288716 0.292702 0.296725 0.299896 0.302369 0.30334 0.302462 0.300656 
0.297567 0.294065 0.290702 0.288525 0.320053 0.286027 0.307853 0.295775 0.277186 
0.283405 0.287152 0.289898 0.292345 0.296957 0.309417 0.275311 0.336575 0.357446 
0.289283 0.285764 0.281252 0.27437 0.268682 0.29541 0.353069 0.276411 0.280274 
0.283669 0.287262 0.357629 0.28773 0.285741 0.283476 0.279228 0.274792 0.365829 
0.28418 0.270069 0.27301 0.332482 0.313093 0.306273 0.309985 0.317612 0.291256 
0.315377 0.358522 0.270029 0.274727 0.284436 0.291671 0.303881 0.344455 0.353264 
0.305847 0.292401 0.312749 0.3059 0.310302 0.279248 0.315333 0.284284 0.331511 
0.288006 0.281491 0.283883 0.28767 0.292292 0.296648 0.300496 0.303503 0.305569 
0.306772 0.299141 0.286378 0.298882 0.300814 0.290287 0.296192 0.287186 0.284709 
0.282321 0.279837 0.276896 0.32255 0.346164 0.277737 0.280487 0.283375 0.286614 
0.289795 0.292296 0.293495 0.293022 0.332923 0.290348 0.305739 0.310932 0.314306 
0.316834 0.316622 0.315242 0.311793 0.306307 0.301393 0.296642 0.275703 0.324781 
0.317189 0.323005 0.300539 0.293112 0.282217 0.286144 0.28868 0.292848 0.276152 
0.316022 0.334855 0.343518 0.294136 0.307937 0.28359 0.281209 0.291215 0.339683 
0.301086 0.300102 0.3218 0.313148 0.339599 0.320554 0.294462 0.295652 0.29142 
0.31642 0.319369 0.317642 0.34334 0.34315 0.274734 0.293355 0.290108 0.291961 
0.284771 0.281218 0.279177 0.284902 0.299562 0.303292 0.290681 0.314328 0.33391 
0.285717 0.325982 0.294334 0.328597 0.293362 0.287598 0.304923 0.308095 0.309831 
0.310478 0.319983 0.302671 0.288851 0.322555 0.319344 0.311023 0.292485 0.295726 
0.296812 0.295625 0.317537 0.339167 0.308138 0.329149 0.329004 0.328664 0.317707 
0.310778 0.302005 0.300031 0.305988 0.295825 0.300151 0.324222 0.28319 0.328919 
0.310266 0.324716 0.330897 0.299377 0.326247 0.297532 0.307074 0.300448 0.315161 
0.3194 0.32373 0.321163 0.28971 0.284701 0.293517 0.331379 0.315344 0.296446 
0.290317 0.314443 0.304745 0.305029 0.305347 0.314197 0.295687 0.302497 0.311038 
0.308848 0.324085 0.33195 0.314563 0.305185 0.300851 0.300484 0.322216 0.318162 
0.306801 0.0919887 0.0566637 0.0810004 0.0576187 0.0542549 0.111527 0.0634436 0.139946 
0.137641 0.308963 0.150034 0.147666 0.144009 0.138649 0.133165 0.121379 0.0747686 
0.0899785 0.103098 0.143056 0.125491 0.138916 0.151963 0.156881 0.106235 0.0750667 
0.10789 0.114174 0.118712 0.173236 0.149344 0.146319 0.141259 0.131989 0.124865 
0.0763498 0.0957574 0.104438 0.085322 0.153392 0.134416 0.149475 0.166855 0.113271 
0.105326 0.0845769 0.0882337 0.104489 0.0827309 0.0778795 0.0800952 0.0819533 0.100191 
0.0954438 0.0679629 0.104356 0.143225 0.12493 0.102501 0.113151 0.199352 0.154303 
0.146749 0.144431 0.139938 0.131452 0.124459 0.142892 0.10767 0.11527 0.142838 
0.141675 0.0721824 0.0935435 0.0790453 0.113891 0.158239 0.174729 0.187591 0.163409 
0.152467 0.145636 0.144359 0.13911 0.130681 0.12007 0.109864 0.1011 0.107764 
0.0838878 0.0867829 0.143545 0.158072 0.116115 0.140052 0.126733 0.115285 0.104672 
0.0928507 0.0538477 0.155069 0.147245 0.14587 0.1412 0.132779 0.127068 0.102299 
0.0793809 0.10999 0.11666 0.140937 0.171537 0.188986 0.135397 0.155802 0.145037 
0.132592 0.090611 0.0955364 0.158029 0.148506 0.145251 0.140972 0.13299 0.123481 
0.15542 0.148583 0.145997 0.141602 0.132985 0.125935 0.173967 0.150391 0.174627 
0.132057 0.14839 0.110293 0.116581 0.0768524 0.111407 0.105491 0.114673 0.113602 
0.13283 0.15333 0.148662 0.146859 0.141105 0.131785 0.128231 0.136485 0.190355 
0.136329 0.125368 0.115025 0.103722 0.0900046 0.0972315 0.10738 0.0735394 0.0807473 
0.0826817 0.109228 0.148496 0.363323 0.378632 0.355108 0.206331 0.1782 0.169343 
0.16646 0.166463 0.17059 0.169836 0.17143 0.171361 0.177376 0.17464 0.175956 
0.177562 0.18381 0.183607 0.173304 0.171183 0.169695 0.175309 0.167476 0.169866 
0.177056 0.200935 0.336749 0.209483 0.150793 0.162113 0.172287 0.170834 0.168904 
0.157792 0.15871 0.169981 0.171952 0.172019 0.163237 0.164645 0.175584 0.176833 
0.17555 0.162395 0.136388 0.1356 0.158997 0.170918 0.170787 0.156411 0.133114 
0.156648 0.16916 0.173391 0.162283 0.153075 0.242659 0.307556 0.307571 0.307843 
0.308484 0.309408 0.310605 0.311967 0.31342 0.314972 0.316401 0.317684 0.318728 
0.319493 0.319973 0.320176 0.320002 0.319533 0.318764 0.317763 0.316593 0.315183 
0.313776 0.31247 0.311175 0.310042 0.309091 0.308328 0.307817 0.307594 0.307649 
0.512841 0.319589 0.290666 0.268464 0.256223 0.247332 0.241745 0.238654 0.237068 
0.236827 0.237544 0.239591 0.242721 0.247263 0.252897 0.258928 0.266166 0.274422 
0.283015 0.291502 0.298789 0.304066 0.30604 0.304746 0.300681 0.295339 0.29014 
0.285469 0.281623 0.278796 0.277093 0.276304 0.276607 0.277805 0.279856 0.282873 
0.286345 0.289811 0.293569 0.297239 0.300443 0.303392 0.305786 0.307392 0.308028 
0.307873 0.307802 0.307963 0.30757 0.306397 0.304625 0.302215 0.299436 0.296474 
0.293675 0.291236 0.289013 0.287122 0.28596 0.285607 0.285974 0.287326 0.289602 
0.292467 0.295946 0.299951 0.303969 0.307401 0.309775 0.310147 0.308355 0.304279 
0.298737 0.291855 0.284304 0.276686 0.269509 0.263254 0.257624 0.252883 0.248984 
0.245966 0.244304 0.243615 0.244221 0.24662 0.251081 0.258727 0.270763 0.291581 
0.323479 0.493625 0.0827387 0.141872 0.173592 0.172739 0.166561 0.164097 0.163683 
0.207204 0.210311 0.176795 0.187559 0.31577 0.236373 0.169113 0.16381 0.161956 
0.161882 0.163811 0.209176 0.170942 0.174961 0.105626 0.146906 0.185435 0.131078 
0.168319 0.162581 0.159933 0.119881 0.120477 0.12207 0.231294 0.251265 0.311005 
0.226797 0.206909 0.163507 0.201481 0.161667 0.205969 0.2159 0.22086 0.146649 
0.12078 0.307568 0.307656 0.308094 0.309073 0.310454 0.312141 0.314046 0.316054 
0.317728 0.318927 0.319783 0.320105 0.319811 0.319035 0.317875 0.316376 0.314615 
0.312868 0.311215 0.30975 0.308643 0.307917 0.307628 0.307595 0.470594 0.339031 
0.280409 0.259919 0.24769 0.240979 0.237815 0.236908 0.237832 0.240549 0.245382 
0.251781 0.259769 0.268198 0.277271 0.287438 0.29726 0.303991 0.305969 0.303058 
0.297512 0.291216 0.284987 0.280259 0.277506 0.276439 0.276812 0.278741 0.28194 
0.286005 0.290011 0.294259 0.298609 0.30222 0.305178 0.307232 0.307949 0.307872 
0.30786 0.307967 0.307156 0.305345 0.302627 0.299302 0.295785 0.292422 0.289465 
0.287143 0.28588 0.285762 0.287097 0.289701 0.293418 0.297792 0.302498 0.306947 
0.309892 0.309872 0.306206 0.299152 0.290275 0.280743 0.271209 0.262706 0.255677 
0.250185 0.246424 0.244317 0.244045 0.246283 0.251897 0.262647 0.284193 0.331332 
0.465827 0.112714 0.110275 0.131826 0.171872 0.17065 0.168937 0.167243 0.164363 
0.167566 0.235222 0.32084 0.26159 0.179645 0.125131 0.169358 0.166722 0.166606 
0.16825 0.168063 0.126878 0.136414 0.0788785 0.113911 0.145892 0.176165 0.170331 
0.164605 0.162245 0.16219 0.163103 0.171958 0.252033 0.256212 0.177189 0.160249 
0.157265 0.158679 0.163218 0.163748 0.126908 0.170839 0.145343 0.1197 0.307708 
0.307695 0.115437 0.0834097 0.10574 0.129023 0.106301 0.076047 0.150201 0.118178 
0.0764904 0.132647 0.0776718 0.123883 0.12258 0.473696 0.410058 0.14661 0.164453 
0.164463 0.186901 0.15832 0.160764 0.175192 0.168841 0.160096 0.173375 0.13513 
0.189095 0.176627 0.222611 0.215016 0.236666 0.227687 0.224732 0.235788 0.175318 
0.182241 0.204641 0.212785 0.160937 0.229036 0.244965 0.144922 0.197666 0.187863 
0.187039 0.199691 0.239538 0.211046 0.193476 0.224647 0.210336 0.189948 0.212258 
0.205723 0.17886 0.204594 0.20875 0.198764 0.194035 0.242395 0.187333 0.190922 
0.198741 0.168668 0.168566 0.165547 0.161707 0.157762 0.179715 0.146 0.175812 
0.180413 0.213219 0.212944 0.224424 0.23626 0.221589 0.232831 0.186409 0.187774 
0.208049 0.198584 0.159617 0.155224 0.190474 0.196695 0.206136 0.189996 0.260766 
0.215566 0.23892 0.239355 0.21611 0.204957 0.207738 0.173928 0.188107 0.197162 
0.204022 0.164726 0.189303 0.18362 0.210028 0.201574 0.22346 0.232693 0.136908 
0.178853 0.188485 0.198916 0.200685 0.188454 0.22731 0.237045 0.147082 0.158293 
0.165967 0.147818 0.187953 0.169952 0.159888 0.157857 0.181111 0.274767 0.21803 
0.209667 0.243359 0.222246 0.229616 0.210572 0.21504 0.158526 0.172951 0.187725 
0.161056 0.202671 0.178923 0.211446 0.171418 0.257765 0.188116 0.199364 0.209774 
0.194413 0.200992 0.177415 0.191321 0.191533 0.198526 0.210383 0.218782 0.234889 
0.136329 0.166426 0.158734 0.151354 0.18966 0.182484 0.174561 0.210762 0.201446 
0.201646 0.234722 0.24011 0.217685 0.242168 0.210757 0.164194 0.165299 0.156947 
0.15869 0.175991 0.153358 0.178059 0.192349 0.215719 0.221412 0.226298 0.216886 
0.207236 0.208833 0.16041 0.149625 0.152455 0.175734 0.166342 0.195876 0.204293 
0.197878 0.188024 0.224571 0.188739 0.178313 0.182309 0.173888 0.180291 0.186497 
0.192411 0.187213 0.198765 0.239543 0.229369 0.238349 0.217594 0.225101 0.226751 
0.201411 0.208421 0.217622 0.182136 0.191009 0.201018 0.137494 0.168418 0.164438 
0.155873 0.164192 0.181455 0.250507 0.232212 0.212647 0.241083 0.215034 0.207412 
0.228692 0.154581 0.158779 0.161798 0.181294 0.189807 0.163701 0.16811 0.155124 
0.177565 0.177528 0.182401 0.20526 0.192565 0.191068 0.211833 0.25189 0.200876 
0.209949 0.18982 0.185091 0.173465 0.186181 0.19344 0.233953 0.242537 0.227839 
0.207903 0.199756 0.187943 0.180237 0.188304 0.139661 0.164786 0.158201 0.16064 
0.178345 0.205022 0.213972 0.258641 0.203363 0.21017 0.209516 0.239828 0.160398 
0.150535 0.218056 0.216286 0.173127 0.200907 0.213672 0.174955 0.160632 0.160872 
0.188171 0.151443 0.208779 0.176947 0.227635 0.238757 0.168402 0.196571 0.188394 
0.168025 0.168491 0.177821 0.160435 0.162182 0.180375 0.161826 0.164916 0.176796 
0.143701 0.234785 0.274277 0.239203 0.219376 0.235211 0.230793 0.237518 0.225007 
0.219598 0.223387 0.188687 0.181083 0.187881 0.192593 0.214619 0.179833 0.159242 
0.152898 0.198742 0.20387 0.191807 0.189588 0.207205 0.224631 0.201262 0.212918 
0.213636 0.214188 0.194983 0.201592 0.168683 0.167997 0.164141 0.162845 0.161311 
0.176987 0.16117 0.159192 0.174913 0.138038 0.243098 0.247482 0.246165 0.224357 
0.232178 0.243285 0.243656 0.219001 0.224189 0.23054 0.200229 0.207355 0.218316 
0.180562 0.188739 0.181391 0.184043 0.195599 0.191051 0.207122 0.214021 0.147134 
0.158348 0.207428 0.229277 0.152352 0.193343 0.166631 0.206758 0.177918 0.186699 
0.212163 0.191631 0.176709 0.189142 0.200044 0.208931 0.188649 0.194572 0.206106 
0.227834 0.23606 0.152605 0.176876 0.14642 0.161783 0.151595 0.154088 0.150085 
0.149528 0.149944 0.147099 0.154533 0.154547 0.146778 0.151565 0.150229 0.152725 
0.152953 0.151075 0.159599 0.160565 0.153053 0.157014 0.155288 0.156432 0.156943 
0.155731 0.161287 0.139953 0.135355 0.133694 0.139013 0.1583 0.152899 0.151774 
0.152193 0.150097 0.154601 0.129463 0.133988 0.150337 0.151169 0.153388 0.162292 
0.139748 0.152986 0.15287 0.146789 0.142921 0.137752 0.142866 0.140048 0.135369 
0.307689 0.307604 0.307619 0.30782 0.308054 0.30775 0.308384 0.308742 0.308281 
0.309177 0.309709 0.309015 0.310257 0.310899 0.309956 0.311458 0.312141 0.31107 
0.312798 0.313541 0.312283 0.314202 0.314946 0.313553 0.315548 0.316196 0.314761 
0.316707 0.317309 0.315879 0.317769 0.318209 0.316859 0.318535 0.318831 0.317611 
0.319046 0.319208 0.318127 0.319263 0.319282 0.318435 0.319238 0.319056 0.318421 
0.318853 0.318566 0.318136 0.318235 0.317762 0.317614 0.317344 0.316839 0.31688 
0.316344 0.315695 0.31597 0.315101 0.314363 0.31487 0.313787 0.31318 0.313738 
0.312578 0.311913 0.312613 0.311377 0.31078 0.311504 0.310308 0.309802 0.310466 
0.309363 0.308948 0.309603 0.308585 0.308275 0.308841 0.308018 0.307838 0.308229 
0.307693 0.307654 0.307822 0.30762 0.307682 0.307731 0.307694 0.385433 0.362907 
0.330208 0.316625 0.300772 0.334009 0.28902 0.280403 0.30497 0.272415 0.266393 
0.287026 0.26098 0.257079 0.274173 0.253455 0.25139 0.264939 0.248801 0.247512 
0.258964 0.24574 0.24518 0.254639 0.244562 0.244559 0.252253 0.244611 0.245073 
0.251524 0.245112 0.246451 0.251404 0.247182 0.249021 0.252044 0.25031 0.252927 
0.254083 0.254885 0.257659 0.25727 0.25996 0.262924 0.261311 0.265308 0.269163 
0.265725 0.271932 0.276118 0.270714 0.279046 0.283142 0.276346 0.286018 0.289964 
0.282156 0.292422 0.29548 0.287529 0.296968 0.298973 0.291504 0.299788 0.29987 
0.294038 0.299719 0.298462 0.294821 0.297445 0.295118 0.293579 0.293627 0.291056 
0.290938 0.289561 0.28721 0.287961 0.2859 0.283865 0.285253 0.282783 0.281173 
0.282877 0.280417 0.279279 0.281098 0.278863 0.278243 0.279958 0.278143 0.278132 
0.279549 0.27835 0.278795 0.279823 0.279485 0.280279 0.280794 0.281228 0.282445 
0.282462 0.283781 0.285481 0.284763 0.286839 0.2885 0.287504 0.289958 0.29167 
0.290292 0.293152 0.295062 0.293209 0.296603 0.298279 0.296233 0.299667 0.301113 
0.299153 0.302294 0.303678 0.301702 0.30472 0.305705 0.303904 0.306454 0.306989 
0.305648 0.307484 0.30763 0.306832 0.307591 0.307553 0.307543 0.307185 0.30675 
0.306961 0.30613 0.305377 0.305993 0.304551 0.303548 0.304532 0.302571 0.301226 
0.302715 0.300041 0.298692 0.300546 0.29747 0.295955 0.298159 0.294864 0.293646 
0.295846 0.292562 0.291411 0.293671 0.290406 0.289385 0.291596 0.28863 0.287803 
0.289839 0.287371 0.286964 0.288539 0.286721 0.286779 0.287781 0.286823 0.287245 
0.287571 0.287597 0.288561 0.28802 0.289297 0.290378 0.289104 0.291439 0.292974 
0.290723 0.294098 0.295927 0.292715 0.297251 0.299249 0.295158 0.300557 0.302344 
0.297803 0.303417 0.304868 0.300177 0.305267 0.30601 0.301676 0.305951 0.305505 
0.302121 0.304555 0.302999 0.301209 0.301499 0.299081 0.298671 0.29704 0.294155 
0.29504 0.291445 0.287712 0.290251 0.284975 0.281367 0.284908 0.278691 0.274896 
0.279533 0.272277 0.269028 0.274277 0.266694 0.263819 0.269371 0.261849 0.259312 
0.265119 0.257781 0.255733 0.261701 0.254525 0.252727 0.259102 0.251946 0.250974 
0.257273 0.250949 0.250371 0.256493 0.250771 0.250934 0.256951 0.252066 0.252901 
0.25857 0.254796 0.256533 0.261842 0.260008 0.262961 0.267084 0.268629 0.274236 
0.275794 0.282428 0.291588 0.289261 0.304265 0.321191 0.309494 0.343014 0.430445 
0.340219 0.374574 0.262343 0.253608 0.243016 0.235761 0.314741 0.228223 0.225401 
0.276376 0.223002 0.221437 0.263716 0.221145 0.220605 0.25935 0.221201 0.219887 
0.257538 0.223497 0.224016 0.275693 0.221897 0.22242 0.260881 0.223544 0.224938 
0.262842 0.224838 0.22614 0.263014 0.228211 0.228141 0.265101 0.230801 0.231566 
0.284812 0.229254 0.229755 0.27004 0.230065 0.229939 0.269889 0.229979 0.229898 
0.270328 0.230919 0.228469 0.271086 0.239281 0.239958 0.293651 0.236687 0.234443 
0.294614 0.224723 0.227373 0.292694 0.224703 0.224754 0.265746 0.222362 0.223097 
0.263686 0.222662 0.222804 0.260629 0.231448 0.230358 0.28021 0.218347 0.221544 
0.280786 0.220801 0.222532 0.259687 0.224416 0.228172 0.263338 0.236081 0.24012 
0.274534 0.262215 0.271829 0.332835 0.216299 0.198212 0.261607 0.236787 0.23069 
0.299108 0.286132 0.269556 0.293173 0.301544 0.294742 0.293868 0.299019 0.303454 
0.292754 0.297069 0.304788 0.29816 0.297234 0.304699 0.299711 0.299126 0.302519 
0.298352 0.30349 0.301343 0.343794 0.319347 0.31787 0.461585 0.38629 0.366633 
0.388226 0.447024 0.323077 0.352368 0.348484 0.304021 0.310962 0.314633 0.296502 
0.294181 0.307567 0.293093 0.289563 0.302936 0.29254 0.28823 0.300441 0.293417 
0.288522 0.299579 0.293376 0.285704 0.296602 0.274123 0.288187 0.283565 0.226614 
0.255062 0.253145 0.201246 0.22159 0.223553 0.229231 0.206806 0.259332 0.239676 
0.230332 0.289477 0.28198 0.264969 0.289655 0.297682 0.292341 0.285611 0.293258 
0.29874 0.28281 0.289476 0.29767 0.28333 0.287211 0.29503 0.287945 0.289163 
0.295165 0.299822 0.295602 0.296466 0.33801 0.316318 0.303691 0.455688 0.375114 
0.336715 0.376717 0.436729 0.313063 0.34295 0.333992 0.296534 0.300142 0.305051 
0.292223 0.293531 0.295533 0.292318 0.290236 0.294428 0.293634 0.293873 0.296536 
0.296555 0.286994 0.300796 0.30119 0.295824 0.298343 0.289053 0.295796 0.291932 
0.238053 0.273882 0.265495 0.199219 0.22507 0.236371 0.434482 0.247223 0.244656 
0.24815 0.323006 0.419626 0.55185 0.51807 0.411873 0.449156 0.24399 0.238246 
0.249929 0.436085 0.546707 0.435889 0.364958 0.307707 0.240222 0.263033 0.307687 
0.308029 0.308468 0.308906 0.307912 0.309365 0.309931 0.30881 0.310454 0.311043 
0.309849 0.311614 0.312285 0.31105 0.312925 0.313567 0.312296 0.314142 0.31475 
0.313523 0.31528 0.315823 0.314658 0.316272 0.316748 0.315752 0.317111 0.317438 
0.316601 0.317701 0.317914 0.31723 0.318043 0.31811 0.317631 0.318103 0.318031 
0.317783 0.317898 0.317679 0.317606 0.317412 0.317069 0.317178 0.31671 0.31627 
0.31653 0.315828 0.315304 0.315689 0.314789 0.31418 0.31462 0.313653 0.313092 
0.313546 0.312553 0.311966 0.312466 0.311451 0.310895 0.311402 0.310414 0.309928 
0.310324 0.309508 0.309089 0.309394 0.308702 0.308348 0.308597 0.308103 0.307856 
0.307957 0.307682 0.30754 0.307524 0.307461 0.293694 0.280651 0.349959 0.307382 
0.315141 0.303834 0.297695 0.289769 0.30149 0.284588 0.279457 0.291842 0.274884 
0.270973 0.283117 0.267957 0.265458 0.276078 0.263054 0.261187 0.270678 0.259387 
0.258811 0.26686 0.257754 0.25766 0.264163 0.257082 0.256943 0.262606 0.256788 
0.257326 0.261737 0.257668 0.258889 0.261686 0.259597 0.261476 0.262677 0.262489 
0.26458 0.264359 0.265727 0.267924 0.266509 0.269331 0.271926 0.268979 0.273631 
0.276431 0.272044 0.278361 0.281141 0.275572 0.283189 0.285472 0.279526 0.286901 
0.288355 0.283017 0.289232 0.290183 0.285234 0.29049 0.290329 0.28644 0.289896 
0.288826 0.286279 0.288013 0.286548 0.284748 0.285958 0.284579 0.28322 0.284206 
0.283016 0.28225 0.282637 0.281607 0.281514 0.281385 0.280694 0.280933 0.280592 
0.280306 0.280648 0.280425 0.280431 0.280834 0.280894 0.281165 0.281465 0.281882 
0.282521 0.282617 0.283399 0.284369 0.284185 0.285556 0.28688 0.28623 0.288069 
0.289439 0.288677 0.290608 0.292027 0.291079 0.293303 0.294757 0.293566 0.296067 
0.297585 0.296172 0.298813 0.300188 0.298734 0.301263 0.302441 0.301073 0.303444 
0.304459 0.303192 0.305317 0.306026 0.305033 0.306633 0.307156 0.307394 0.306487 
0.345939 0.304256 0.323917 0.334892 0.320232 0.310977 0.306965 0.306615 0.30608 
0.305476 0.306185 0.304739 0.30391 0.304979 0.303115 0.302113 0.303436 0.301143 
0.299984 0.301639 0.298968 0.297772 0.299626 0.296764 0.295676 0.297584 0.294687 
0.293609 0.295557 0.292663 0.291694 0.293585 0.290855 0.290112 0.291797 0.289419 
0.288952 0.290297 0.288511 0.288225 0.289169 0.288033 0.288025 0.288456 0.288055 
0.288415 0.288166 0.288566 0.289293 0.28831 0.28961 0.290518 0.288809 0.291071 
0.292086 0.289705 0.292832 0.294092 0.290949 0.294934 0.296195 0.292536 0.297035 
0.298 0.294248 0.29851 0.298889 0.295614 0.298902 0.298948 0.296172 0.298353 
0.297512 0.295757 0.296473 0.294928 0.294258 0.293471 0.291399 0.291796 0.289568 
0.286907 0.288356 0.284932 0.282336 0.284471 0.280524 0.277919 0.280698 0.276051 
0.273556 0.277076 0.271926 0.269705 0.273674 0.268329 0.266399 0.270744 0.265577 
0.264075 0.268511 0.263494 0.26244 0.267023 0.262261 0.261625 0.266323 0.261828 
0.261946 0.266515 0.262666 0.263058 0.267455 0.264585 0.26572 0.269495 0.26777 
0.269909 0.272762 0.272823 0.27647 0.277719 0.280924 0.286268 0.284978 0.292663 
0.300173 0.294321 0.306947 0.318869 0.314153 0.305632 0.29009 0.267162 0.244302 
0.280132 0.274087 0.266078 0.26368 0.284018 0.257861 0.257132 0.271344 0.254339 
0.255972 0.264504 0.251144 0.248406 0.262753 0.253745 0.256241 0.261714 0.257587 
0.257875 0.262927 0.258981 0.259158 0.264654 0.259859 0.26122 0.266893 0.258519 
0.257177 0.269248 0.262847 0.263209 0.270455 0.265842 0.266284 0.272763 0.266796 
0.266817 0.273798 0.267801 0.26957 0.27506 0.264995 0.260994 0.274298 0.260085 
0.262765 0.272468 0.261824 0.261103 0.270349 0.265739 0.261609 0.270568 0.26136 
0.259212 0.268576 0.259392 0.25821 0.266588 0.253297 0.248898 0.263991 0.249314 
0.254184 0.263423 0.26025 0.257399 0.265046 0.262599 0.265312 0.270127 0.274971 
0.284767 0.283496 0.27511 0.251781 0.271954 0.387017 0.434325 0.244139 0.235036 
0.251725 0.297688 0.295963 0.289286 0.299571 0.297975 0.296403 0.299793 0.298599 
0.298736 0.30031 0.298684 0.298956 0.302012 0.300356 0.299534 0.318503 0.309919 
0.306218 0.359428 0.33973 0.327643 0.245136 0.261906 0.304203 0.315508 0.331469 
0.355942 0.360346 0.320408 0.294869 0.299102 0.294136 0.296867 0.294586 0.292211 
0.295139 0.293187 0.287741 0.291072 0.289534 0.271073 0.282334 0.28002 0.244116 
0.261637 0.263117 0.237331 0.236654 0.247819 0.265488 0.245547 0.381471 0.419902 
0.268069 0.250811 0.243742 0.238959 0.253184 0.252379 0.292538 0.288401 0.293726 
0.290656 0.288521 0.293775 0.290061 0.29041 0.294344 0.289967 0.29013 0.29773 
0.291108 0.29016 0.31174 0.298599 0.294724 0.363139 0.327035 0.317028 0.432176 
0.39818 0.298379 0.305617 0.320613 0.352102 0.350582 0.312365 0.293778 0.292994 
0.293588 0.294724 0.292423 0.295516 0.295115 0.293187 0.292351 0.294102 0.291755 
0.279873 0.288481 0.28467 0.252553 0.271294 0.269328 0.237773 0.248574 0.252984 
0.254395 0.307503 0.296989 0.302907 0.301575 0.296143 0.286782 0.274617 0.267375 
0.28168 0.293494 0.293997 0.295363 0.291852 0.316325 0.270023 0.270201 0.307301 
0.303901 0.405765 0.443313 0.272407 0.307259 0.30352 0.292712 0.43339 0.251664 
0.267827 0.266542 0.269525 0.389402 0.252958 0.388313 0.414898 0.366346 0.396691 
0.306998 0.301937 0.308087 0.308601 0.309027 0.309633 0.308301 0.310237 0.310891 
0.309427 0.311558 0.312267 0.310858 0.312989 0.313628 0.31232 0.314237 0.314853 
0.313725 0.31541 0.315931 0.315019 0.316408 0.31683 0.316189 0.317191 0.317491 
0.317103 0.317734 0.317876 0.317752 0.317922 0.317915 0.31808 0.317801 0.317619 
0.317977 0.31736 0.317055 0.317556 0.316694 0.316262 0.316878 0.315768 0.31525 
0.315932 0.314695 0.314089 0.314764 0.313514 0.31293 0.313509 0.312372 0.31179 
0.31228 0.311235 0.310657 0.311125 0.310132 0.309604 0.309957 0.3091 0.308639 
0.308838 0.308182 0.307789 0.307854 0.307505 0.307262 0.307107 0.307123 0.306979 
0.306607 0.306685 0.26136 0.256117 0.29418 0.291806 0.267802 0.275791 0.300763 
0.296639 0.38355 0.397479 0.295478 0.291357 0.294008 0.289465 0.285019 0.291675 
0.282867 0.279751 0.287519 0.277759 0.275251 0.283224 0.273558 0.271792 0.279407 
0.270235 0.269365 0.276116 0.267997 0.267417 0.273451 0.266424 0.266041 0.271218 
0.265414 0.265534 0.269505 0.265339 0.266002 0.268551 0.266053 0.267076 0.26838 
0.267219 0.268306 0.268631 0.268585 0.269874 0.269039 0.270349 0.272005 0.269671 
0.272766 0.274658 0.270972 0.275644 0.277618 0.272741 0.279475 0.280839 0.275546 
0.280957 0.281904 0.277775 0.283047 0.283377 0.279165 0.2828 0.282175 0.279551 
0.281581 0.280586 0.278102 0.280402 0.279824 0.277191 0.280143 0.279784 0.277378 
0.28019 0.279895 0.278133 0.280227 0.280017 0.278883 0.280445 0.280411 0.279631 
0.280881 0.281104 0.280518 0.28177 0.282274 0.281703 0.283103 0.283763 0.283233 
0.284754 0.285601 0.285042 0.286748 0.287929 0.287167 0.289233 0.29043 0.289606 
0.291555 0.292757 0.292049 0.293919 0.295192 0.29437 0.296341 0.297655 0.296709 
0.298754 0.300001 0.298979 0.30097 0.302078 0.301087 0.303106 0.304134 0.303139 
0.305164 0.30602 0.305216 0.306619 0.306082 0.277055 0.270899 0.305487 0.304779 
0.305966 0.303939 0.303137 0.302302 0.30131 0.30289 0.300416 0.299396 0.301123 
0.298451 0.297443 0.299261 0.296538 0.295531 0.297391 0.294534 0.293567 0.295458 
0.292616 0.29179 0.293459 0.290976 0.290339 0.291677 0.289644 0.289209 0.290191 
0.288662 0.288378 0.288957 0.288016 0.28795 0.288005 0.287704 0.287849 0.287344 
0.287725 0.288086 0.286952 0.288079 0.288602 0.286834 0.288772 0.289457 0.287007 
0.289993 0.290851 0.287689 0.291633 0.292445 0.289086 0.293086 0.293523 0.290537 
0.293702 0.293729 0.291361 0.293538 0.293076 0.291425 0.292531 0.291594 0.290718 
0.290456 0.288981 0.28905 0.287473 0.285582 0.286368 0.284118 0.282163 0.283357 
0.2809 0.27912 0.280561 0.278059 0.276253 0.278219 0.275339 0.273797 0.276229 
0.273053 0.271771 0.274601 0.271415 0.270529 0.273511 0.270547 0.269941 0.273126 
0.270178 0.270088 0.273265 0.270535 0.270927 0.27397 0.271766 0.272637 0.275381 
0.274025 0.275366 0.277743 0.277281 0.279042 0.280797 0.28151 0.284641 0.284634 
0.287 0.291277 0.289473 0.293811 0.298609 0.294288 0.294779 0.28737 0.300467 
0.411027 0.412004 0.288932 0.28281 0.286846 0.279604 0.274648 0.289743 0.270867 
0.26899 0.278876 0.267996 0.266928 0.274178 0.266729 0.267648 0.272552 0.268021 
0.268672 0.273067 0.269529 0.270505 0.274374 0.271642 0.272637 0.276466 0.273779 
0.274712 0.278641 0.27613 0.277355 0.280957 0.27837 0.278968 0.283395 0.279752 
0.28019 0.28537 0.280433 0.28084 0.286428 0.280293 0.279365 0.286011 0.278603 
0.276978 0.284535 0.276322 0.276282 0.283332 0.275712 0.275365 0.28171 0.27442 
0.273376 0.280223 0.27237 0.271608 0.278364 0.27033 0.269031 0.276403 0.268784 
0.268474 0.274916 0.269345 0.271447 0.275411 0.273224 0.277431 0.278275 0.284985 
0.292571 0.277381 0.267533 0.266346 0.277457 0.289732 0.290931 0.296119 0.295606 
0.291905 0.296521 0.29662 0.293965 0.298503 0.297583 0.295243 0.307634 0.302123 
0.299268 0.334215 0.318415 0.312355 0.287982 0.287822 0.264681 0.256699 0.284437 
0.287776 0.285485 0.291893 0.292411 0.288733 0.273395 0.280465 0.278891 0.25957 
0.26809 0.269203 0.253081 0.25465 0.260525 0.365401 0.376168 0.396064 0.358058 
0.343301 0.378971 0.371601 0.346748 0.288171 0.288525 0.285998 0.286562 0.284094 
0.284152 0.289248 0.288814 0.286809 0.29778 0.29254 0.290294 0.326427 0.308806 
0.3033 0.382202 0.382147 0.255545 0.26265 0.26991 0.262496 0.306859 0.307326 
0.286272 0.28876 0.290383 0.289887 0.27771 0.283577 0.28112 0.264798 0.273654 
0.273634 0.289998 0.290094 0.285824 0.307038 0.271722 0.266127 0.278831 0.279238 
0.381191 0.398541 0.298139 0.302418 0.280379 0.280504 0.282678 0.304549 0.304254 
0.257566 0.389668 0.286953 0.331138 0.267717 0.273181 0.360353 0.279383 0.281328 
0.275545 0.367722 0.360982 0.342669 0.261168 0.27125 0.263303 0.271555 0.360528 
0.374172 0.264265 0.25954 0.256189 0.355425 0.347515 0.332574 0.290894 0.29373 
0.294489 0.293018 0.296593 0.25814 0.264501 0.263409 0.366201 0.288478 0.290361 
0.290333 0.260432 0.265692 0.257165 0.27587 0.271682 0.287695 0.311609 0.324848 
0.306407 0.304219 0.316817 0.320326 0.299894 0.269867 0.307089 0.307576 0.278714 
0.274577 0.308333 0.30905 0.30712 0.30984 0.310654 0.308817 0.311549 0.312396 
0.310673 0.313292 0.314062 0.312606 0.314883 0.315568 0.314483 0.31614 0.316706 
0.316068 0.317304 0.317797 0.317414 0.318272 0.318575 0.318588 0.31881 0.318852 
0.319382 0.318695 0.318512 0.319472 0.318133 0.317809 0.318851 0.317546 0.317078 
0.318117 0.316483 0.315868 0.317146 0.315086 0.31441 0.315623 0.313669 0.31296 
0.313913 0.312243 0.311576 0.312288 0.310924 0.310272 0.310827 0.309622 0.309021 
0.309413 0.308406 0.307834 0.308017 0.307343 0.306853 0.306838 0.306378 0.306092 
0.30583 0.306065 0.292143 0.291569 0.278236 0.28202 0.284383 0.291023 0.290838 
0.292319 0.290969 0.289784 0.291057 0.288716 0.291338 0.288118 0.286016 0.290728 
0.284908 0.283151 0.288896 0.281549 0.280188 0.286386 0.278581 0.277396 0.283449 
0.275913 0.274945 0.28056 0.273552 0.272793 0.277806 0.271661 0.271367 0.27527 
0.270604 0.270655 0.273434 0.270074 0.270221 0.272152 0.269613 0.269788 0.270939 
0.269085 0.269472 0.269488 0.270213 0.272302 0.276541 0.277201 0.276111 0.273866 
0.273729 0.273866 0.274332 0.270362 0.276158 0.276647 0.273199 0.277535 0.277919 
0.275838 0.278767 0.279218 0.277553 0.280037 0.280526 0.279214 0.281411 0.282128 
0.280944 0.283232 0.284071 0.282909 0.28525 0.28623 0.285186 0.28756 0.288714 
0.287738 0.290114 0.291407 0.290511 0.292661 0.293796 0.293181 0.294938 0.296112 
0.295577 0.297228 0.298374 0.297842 0.299433 0.30055 0.300003 0.301368 0.302359 
0.301884 0.303089 0.304137 0.303438 0.303591 0.302738 0.29716 0.29934 0.30202 
0.301104 0.302751 0.300263 0.29931 0.301177 0.298378 0.297458 0.299394 0.296444 
0.295428 0.297432 0.294336 0.293357 0.295306 0.292321 0.29151 0.29314 0.29059 
0.289919 0.291155 0.289087 0.288526 0.289393 0.287833 0.287428 0.287868 0.286836 
0.286544 0.286577 0.285954 0.285814 0.285404 0.285324 0.285303 0.284266 0.285038 
0.28518 0.283424 0.285282 0.2858 0.283183 0.286458 0.287264 0.283792 0.288381 
0.288996 0.285648 0.288907 0.289188 0.286773 0.288968 0.28838 0.285376 0.283884 
0.282512 0.281044 0.281483 0.280166 0.278959 0.279306 0.278362 0.27731 0.277942 
0.27702 0.276142 0.277116 0.275952 0.275303 0.276673 0.275384 0.27511 0.276623 
0.275453 0.275434 0.277085 0.276087 0.27625 0.27806 0.27716 0.277688 0.27949 
0.278727 0.279773 0.281419 0.281102 0.282406 0.283848 0.283825 0.285381 0.286342 
0.286813 0.288832 0.288821 0.290119 0.292552 0.291024 0.293128 0.295177 0.292376 
0.264075 0.366965 0.371015 0.27524 0.279661 0.267714 0.271866 0.272981 0.28431 
0.280815 0.279442 0.278297 0.284356 0.277818 0.277566 0.282829 0.277826 0.278324 
0.282702 0.279059 0.27992 0.28367 0.280986 0.282166 0.285531 0.283512 0.284792 
0.288057 0.286355 0.287775 0.291133 0.289187 0.290194 0.294273 0.291334 0.292172 
0.296938 0.292764 0.292983 0.298712 0.292701 0.292209 0.299097 0.291437 0.29077 
0.298099 0.290027 0.289253 0.296586 0.288339 0.287391 0.29473 0.286216 0.285233 
0.292392 0.284091 0.283019 0.289847 0.281823 0.280898 0.287415 0.280078 0.279891 
0.285524 0.28005 0.280933 0.284894 0.28241 0.336216 0.31998 0.294461 0.293436 
0.291201 0.290306 0.288586 0.288632 0.357666 0.348051 0.300721 0.29719 0.295079 
0.317509 0.307457 0.304009 0.286491 0.285716 0.28181 0.284228 0.278526 0.347252 
0.350522 0.2861 0.287303 0.282762 0.357437 0.35961 0.291247 0.29228 0.28879 
0.287364 0.284785 0.284241 0.284144 0.305345 0.283082 0.281588 0.28199 0.307671 
0.298386 0.295335 0.306255 0.295161 0.272494 0.276491 0.278119 0.281056 0.27724 
0.28297 0.284694 0.280536 0.272264 0.376948 0.379213 0.28645 0.282931 0.285014 
0.285901 0.286365 0.283538 0.270265 0.266439 0.262104 0.269262 0.29434 0.276608 
0.270376 0.267837 0.26585 0.268091 0.279193 0.279934 0.276681 0.304515 0.28579 
0.287329 0.287834 0.284368 0.284499 0.285278 0.282044 0.269247 0.270052 0.289006 
0.273322 0.27258 0.30444 0.305206 0.360348 0.352658 0.3467 0.334568 0.376536 
0.363036 0.365181 0.360276 0.369733 0.289257 0.287176 0.285407 0.289379 0.288111 
0.286972 0.286587 0.341394 0.349793 0.29272 0.295879 0.289291 0.267172 0.269966 
0.270938 0.268276 0.287125 0.284384 0.298209 0.301673 0.309039 0.346973 0.279875 
0.274624 0.273428 0.279861 0.349108 0.330324 0.321601 0.348722 0.329587 0.274298 
0.270535 0.275039 0.342909 0.335104 0.331576 0.286279 0.288755 0.289955 0.262511 
0.26442 0.290007 0.292288 0.288744 0.267411 0.312239 0.270983 0.275701 0.278923 
0.273237 0.270651 0.2738 0.268132 0.364986 0.297003 0.303239 0.294781 0.307545 
0.3085 0.309515 0.310616 0.308421 0.311821 0.312918 0.310798 0.314347 0.315425 
0.313693 0.316847 0.31752 0.316862 0.318321 0.144253 0.162408 0.319103 0.31974 
0.319347 0.320532 0.320855 0.321208 0.320963 0.320717 0.322147 0.319852 0.319306 
0.321367 0.319092 0.139311 0.163087 0.318659 0.317903 0.319907 0.316579 0.315585 
0.318038 0.314243 0.313295 0.315093 0.312407 0.311541 0.312611 0.31057 0.309776 
0.31053 0.309179 0.308429 0.308913 0.307634 0.306924 0.307338 0.306299 0.305739 
0.30583 0.305311 0.304798 0.303894 0.304724 0.286512 0.288249 0.311299 0.324504 
0.321781 0.290996 0.291249 0.287858 0.292616 0.291958 0.29217 0.292344 0.291192 
0.293844 0.290647 0.289211 0.293669 0.287987 0.286547 0.291949 0.284988 0.283631 
0.289299 0.282047 0.280626 0.286217 0.278909 0.277686 0.282843 0.276112 0.275316 
0.279496 0.274291 0.273645 0.276925 0.272874 0.272219 0.275209 0.305277 0.273817 
0.274874 0.278602 0.279361 0.280406 0.281287 0.279952 0.282607 0.283695 0.282185 
0.285133 0.286301 0.284855 0.287928 0.289304 0.287939 0.290929 0.292368 0.291269 
0.293974 0.295215 0.294567 0.296574 0.297703 0.297503 0.298857 0.299979 0.299977 
0.300866 0.301929 0.301997 0.302642 0.303464 0.303548 0.304105 0.304835 0.305886 
0.304865 0.303152 0.351217 0.352078 0.284326 0.302369 0.301505 0.300635 0.299699 
0.30185 0.298635 0.297613 0.29994 0.296363 0.295271 0.297638 0.293973 0.292926 
0.295104 0.291726 0.290783 0.292605 0.289674 0.288824 0.290235 0.287781 0.287055 
0.28804 0.28637 0.285757 0.286258 0.284825 0.284206 0.284715 0.283233 0.282664 
0.282852 0.281796 0.281473 0.280817 0.280848 0.280884 0.279134 0.281074 0.281739 
0.278375 0.290435 0.278066 0.277284 0.277482 0.276923 0.276221 0.277226 0.276941 
0.27666 0.277271 0.277163 0.277341 0.277733 0.277849 0.27826 0.278707 0.279029 
0.279532 0.279802 0.280414 0.281102 0.2815 0.282413 0.282895 0.283722 0.284908 
0.285394 0.286101 0.287453 0.288019 0.288356 0.289503 0.290186 0.290179 0.291205 
0.291596 0.291309 0.292209 0.292061 0.291237 0.291551 0.287815 0.291065 0.286801 
0.331458 0.33276 0.266032 0.268964 0.266952 0.286088 0.286382 0.287176 0.287975 
0.290552 0.289235 0.290425 0.292713 0.292124 0.293689 0.295791 0.295498 0.2973 
0.299574 0.299281 0.300858 0.303612 0.302655 0.303941 0.307731 0.305222 0.305874 
0.310982 0.30612 0.305926 0.312707 0.305174 0.304432 0.312229 0.303213 0.302331 
0.310184 0.301087 0.299864 0.3075 0.298423 0.296934 0.304472 0.294923 0.293513 
0.300647 0.291703 0.29047 0.296547 0.28903 0.288276 0.293219 0.287733 0.306291 
0.300357 0.290775 0.289343 0.267259 0.266773 0.287667 0.286275 0.287215 0.296144 
0.293212 0.291262 0.297696 0.297173 0.291747 0.275064 0.276485 0.2774 0.276871 
0.268908 0.265131 0.267461 0.319537 0.334222 0.33359 0.312462 0.284463 0.283272 
0.288717 0.286112 0.285164 0.290025 0.275164 0.277319 0.315242 0.305041 0.299918 
0.285023 0.282784 0.284186 0.345243 0.341097 0.282768 0.283965 0.335375 0.324818 
0.316261 0.331753 0.33964 0.343188 0.355021 0.358425 0.271774 0.306737 0.269239 
0.270188 0.28499 0.28605 0.284371 0.342927 0.349077 0.345406 0.272173 0.306137 
0.279786 0.278419 0.276906 0.28014 0.282173 0.277711 0.341397 0.348066 0.341355 
0.303487 0.359117 0.353997 0.349872 0.284041 0.282343 0.283127 0.284253 0.294674 
0.299455 0.326958 0.334056 0.272365 0.285928 0.289437 0.286354 0.29119 0.280537 
0.277975 0.280758 0.314573 0.30901 0.325096 0.346228 0.337747 0.333719 0.333744 
0.287904 0.289914 0.287126 0.277675 0.306382 0.284321 0.28609 0.281838 0.281891 
0.282601 0.280645 0.282051 0.280851 0.27311 0.276149 0.287811 0.290444 0.291539 
0.332349 0.292542 0.29393 0.297887 0.279844 0.289641 0.272418 0.274785 0.275013 
0.271895 0.282258 0.323896 0.329565 0.322684 0.30944 0.310931 0.312577 0.314201 
0.311315 0.315843 0.317608 0.314848 0.138554 0.161936 0.319279 0.32019 0.320976 
0.321819 0.323017 0.323005 0.16511 0.16234 0.32454 0.324744 0.325677 0.323732 
0.322491 0.326151 0.164633 0.163363 0.166818 0.166461 0.322167 0.168066 0.172087 
0.320024 0.318265 0.322636 0.315866 0.314191 0.317813 0.31198 0.310963 0.312378 
0.30977 0.197679 0.162134 0.307943 0.307267 0.308181 0.306352 0.20071 0.23976 
0.305194 0.304487 0.305018 0.303953 0.278498 0.280337 0.282548 0.279483 0.28336 
0.283944 0.292737 0.296652 0.296068 0.295883 0.29472 0.298916 0.293522 0.292046 
0.297524 0.290345 0.288746 0.294688 0.282465 0.280798 0.282356 0.279903 0.280853 
0.284773 0.286129 0.288214 0.289943 0.288281 0.291831 0.293573 0.292513 0.29563 
0.297278 0.296688 0.299081 0.300422 0.300553 0.301599 0.302748 0.303427 0.303373 
0.304262 0.305156 0.305778 0.283873 0.281262 0.277437 0.284237 0.290711 0.299181 
0.297934 0.296155 0.294884 0.29785 0.293553 0.292346 0.294754 0.291177 0.290008 
0.292245 0.288346 0.28728 0.289357 0.2858 0.285074 0.284111 0.301532 0.306429 
0.315353 0.276852 0.275581 0.311108 0.318272 0.314495 0.304449 0.2763 0.276511 
0.27519 0.277557 0.277977 0.277243 0.278677 0.279245 0.279002 0.280415 0.281191 
0.280744 0.28239 0.283132 0.283047 0.283998 0.285115 0.285161 0.289704 0.290952 
0.291773 0.292615 0.293316 0.292817 0.293246 0.294247 0.292575 0.292392 0.29106 
0.287183 0.285458 0.292296 0.29314 0.294599 0.296003 0.296263 0.298282 0.30032 
0.3002 0.302769 0.304943 0.305257 0.306726 0.308996 0.309833 0.3132 0.315351 
0.316301 0.316093 0.317633 0.321716 0.321123 0.321501 0.326487 0.319081 0.318297 
0.327744 0.317611 0.316217 0.32435 0.313381 0.311848 0.320639 0.311464 0.30946 
0.317029 0.305414 0.303028 0.311803 0.300014 0.297973 0.304487 0.295659 0.294218 
0.29504 0.298956 0.346628 0.335246 0.325291 0.291362 0.280232 0.281673 0.279628 
0.2781 0.275949 0.273266 0.274271 0.276958 0.306842 0.308036 0.308027 0.30538 
0.303253 0.281853 0.281764 0.28301 0.283135 0.302388 0.341942 0.295546 0.297881 
0.286944 0.285224 0.332512 0.336063 0.30305 0.301602 0.30052 0.306062 0.304686 
0.326781 0.330397 0.343088 0.342249 0.291193 0.318909 0.321103 0.300975 0.28618 
0.282704 0.275459 0.302397 0.276153 0.317773 0.323887 0.331589 0.293605 0.293713 
0.288264 0.290998 0.286858 0.310394 0.303426 0.292068 0.289476 0.287745 0.298674 
0.294737 0.292623 0.32645 0.330001 0.285729 0.323408 0.27937 0.286585 0.284882 
0.28862 0.292314 0.277509 0.302524 0.295847 0.283584 0.282088 0.280356 0.283492 
0.309194 0.303999 0.317866 0.335461 0.33943 0.323976 0.334754 0.331106 0.316205 
0.29971 0.293824 0.297468 0.303536 0.295796 0.336872 0.335271 0.284357 0.304291 
0.286322 0.327644 0.323424 0.32153 0.299827 0.298098 0.301614 0.329338 0.28539 
0.284889 0.333325 0.307647 0.333455 0.339618 0.332935 0.285797 0.293877 0.296069 
0.302807 0.304532 0.307023 0.308085 0.309771 0.307419 0.308024 0.311049 0.314882 
0.310841 0.303465 0.302171 0.142131 0.12325 0.300165 0.299749 0.295504 0.295302 
0.294053 0.291569 0.289701 0.29489 0.299823 0.297637 0.299797 0.305654 0.303588 
0.302304 0.302127 0.301674 0.306671 0.309822 0.311877 0.29166 0.279857 0.280577 
0.281811 0.283783 0.284884 0.317412 0.31084 0.325782 0.294629 0.295812 0.296142 
0.295744 0.292501 0.293991 0.327238 0.323736 0.287729 0.326223 0.3222 0.284441 
0.317018 0.316667 0.289348 0.290672 0.294147 0.316508 0.304987 0.309463 0.298524 
0.289241 0.287448 0.286753 0.287664 0.289687 0.331754 0.285743 0.286938 0.314679 
0.311849 0.305547 0.302607 0.301391 0.305387 0.306448 0.307661 0.329191 0.278424 
0.295022 0.295845 0.297694 0.287742 0.277413 0.322025 0.323186 0.296736 0.289483 
0.321621 0.316009 0.311394 0.317157 0.323642 0.297631 0.292366 0.300073 0.302549 
0.299755 0.306106 0.309191 0.30601 0.312888 0.315204 0.32829 0.332422 0.310469 
0.306699 0.304472 0.309853 0.317642 0.307049 0.326095 0.314096 0.292346 0.275548 
0.326527 0.329174 0.312284 0.315021 0.304537 0.301239 0.304487 0.299712 0.301323 
0.310512 0.308671 0.296718 0.314335 0.312515 0.311096 0.319512 0.313529 0.310977 
0.324191 0.318311 0.31327 0.298535 0.299973 0.307196 0.30339 0.300893 0.314759 
0.307698 0.307659 0.307608 0.308369 0.307993 0.30779 0.309407 0.308847 0.308631 
0.310813 0.310031 0.309723 0.31238 0.311498 0.311052 0.314217 0.313231 0.312558 
0.315958 0.314994 0.314154 0.31737 0.316673 0.315638 0.318357 0.317882 0.316876 
0.319021 0.318707 0.317692 0.319132 0.319132 0.31816 0.318745 0.319018 0.318173 
0.317936 0.318413 0.317692 0.316793 0.317449 0.316903 0.315299 0.316141 0.315746 
0.313716 0.314588 0.314399 0.312181 0.312999 0.312998 0.310669 0.311469 0.311599 
0.309417 0.31004 0.310268 0.308463 0.308918 0.309179 0.307856 0.308104 0.308322 
0.307622 0.307643 0.307792 0.307696 0.344217 0.330211 0.373778 0.293036 0.312957 
0.323471 0.270879 0.27903 0.29701 0.257662 0.262921 0.277182 0.250913 0.25338 
0.266004 0.247516 0.248667 0.259396 0.246312 0.246389 0.255978 0.246559 0.245818 
0.254185 0.248673 0.246829 0.253786 0.25231 0.249697 0.254885 0.257705 0.254195 
0.257669 0.264056 0.260018 0.261648 0.270949 0.266888 0.266541 0.278494 0.273962 
0.272135 0.286673 0.281725 0.278152 0.293433 0.289508 0.284163 0.298054 0.295968 
0.289349 0.298754 0.298985 0.292689 0.296096 0.298126 0.292975 0.291789 0.294645 
0.2908 0.287346 0.2902 0.287736 0.283042 0.285801 0.284697 0.280194 0.281896 
0.282231 0.278747 0.279623 0.280616 0.27847 0.278661 0.28006 0.279499 0.278905 
0.280463 0.281665 0.280441 0.281884 0.28488 0.283018 0.284194 0.288416 0.286454 
0.287143 0.291965 0.290078 0.290336 0.295908 0.293709 0.293691 0.299512 0.297536 
0.297044 0.30252 0.301002 0.300147 0.305066 0.303773 0.302882 0.30678 0.306046 
0.305131 0.29623 0.307367 0.307578 0.306157 0.306847 0.306718 0.304282 0.305332 
0.305394 0.301547 0.303113 0.303434 0.298655 0.300249 0.300967 0.2954 0.297185 
0.29822 0.292675 0.294112 0.295473 0.290025 0.291399 0.292927 0.288156 0.288973 
0.290617 0.287156 0.2875 0.288979 0.287191 0.286939 0.288054 0.288375 0.287408 
0.28798 0.290601 0.289026 0.288819 0.293586 0.291581 0.290452 0.29702 0.294923 
0.292755 0.300464 0.298256 0.295257 0.303495 0.301752 0.297684 0.305159 0.304482 
0.299888 0.30407 0.304884 0.300586 0.300178 0.302863 0.299195 0.293805 0.297757 
0.295533 0.286066 0.290518 0.289821 0.278311 0.282902 0.283443 0.270718 0.275145 
0.277288 0.264168 0.267878 0.271438 0.25879 0.261768 0.266497 0.255094 0.257283 
0.262824 0.25282 0.25407 0.260519 0.252158 0.252631 0.259638 0.254058 0.253349 
0.260783 0.258472 0.256229 0.264294 0.26702 0.262564 0.270648 0.282553 0.274257 
0.281556 0.310014 0.293281 0.298685 0.363033 0.327571 0.324686 0.349867 0.26081 
0.292613 0.236784 0.251111 0.29741 0.226613 0.230871 0.282161 0.223772 0.22454 
0.271127 0.223969 0.220343 0.264611 0.221011 0.223068 0.261235 0.223438 0.22247 
0.263303 0.22711 0.225891 0.265472 0.232312 0.228181 0.269399 0.229857 0.231761 
0.27164 0.231648 0.23236 0.274192 0.233352 0.233098 0.276116 0.240026 0.233408 
0.276363 0.237029 0.231674 0.265965 0.228744 0.234666 0.255961 0.229698 0.237609 
0.262702 0.226177 0.22656 0.269831 0.231069 0.224627 0.267153 0.221557 0.221484 
0.255797 0.22271 0.22929 0.254688 0.227803 0.225959 0.266813 0.249364 0.236581 
0.279968 0.20099 0.21516 0.23768 0.263498 0.229179 0.285169 0.290854 0.267302 
0.301807 0.298152 0.301984 0.298866 0.291917 0.301768 0.296454 0.290881 0.301959 
0.295268 0.289262 0.30071 0.298619 0.299344 0.308753 0.305753 0.312748 0.313673 
0.326386 0.347902 0.316005 0.383647 0.455598 0.3509 0.482682 0.400852 0.355071 
0.324781 0.376817 0.299638 0.299689 0.327357 0.292237 0.295544 0.301536 0.28869 
0.293013 0.298261 0.286742 0.29233 0.297498 0.287415 0.294032 0.29717 0.29284 
0.295826 0.296611 0.288292 0.278216 0.296496 0.257768 0.228304 0.26719 0.211585 
0.19315 0.227914 0.201041 0.223249 0.241618 0.273675 0.238184 0.29257 0.290993 
0.272721 0.297969 0.288015 0.295536 0.292492 0.284343 0.297443 0.289217 0.283386 
0.295559 0.288892 0.285428 0.294842 0.292386 0.291104 0.296231 0.30643 0.328365 
0.305137 0.369932 0.437517 0.344237 0.46952 0.378383 0.344365 0.316683 0.354128 
0.299695 0.29645 0.319258 0.290434 0.28915 0.305853 0.288376 0.28864 0.302605 
0.282283 0.290663 0.302085 0.293244 0.296853 0.297513 0.296644 0.300991 0.308365 
0.295715 0.284082 0.303172 0.259442 0.240118 0.266492 0.227547 0.207614 0.227723 
0.307569 0.307713 0.307382 0.342622 0.327699 0.463095 0.573175 0.243306 0.244931 
0.265472 0.244852 0.238431 0.475309 0.24776 0.246425 0.405156 0.538338 0.516603 
0.409073 0.440148 0.306798 0.304509 0.308616 0.308109 0.307593 0.307173 0.306469 
0.307516 0.310973 0.310248 0.312618 0.311743 0.31099 0.314253 0.313443 0.315708 
0.314957 0.314297 0.316868 0.316319 0.317631 0.317275 0.316828 0.317986 0.317868 
0.317507 0.317829 0.317968 0.317718 0.317233 0.317585 0.31744 0.316266 0.316799 
0.316708 0.315022 0.315712 0.315627 0.313636 0.314364 0.314314 0.312245 0.312969 
0.312905 0.310828 0.311554 0.311499 0.309573 0.310215 0.310121 0.308558 0.309064 
0.308961 0.307752 0.308117 0.307977 0.235722 0.245913 0.280793 0.28852 0.294278 
0.306199 0.294151 0.308566 0.315033 0.302575 0.27195 0.276632 0.284762 0.266441 
0.268853 0.277233 0.262938 0.264099 0.272115 0.261045 0.261573 0.268821 0.259935 
0.259863 0.266416 0.260368 0.259623 0.264834 0.262259 0.260529 0.264453 0.265135 
0.262999 0.265349 0.268744 0.266178 0.267126 0.272888 0.270146 0.269501 0.277454 
0.274469 0.272323 0.281994 0.279337 0.275701 0.286337 0.284054 0.279596 0.288764 
0.287776 0.283141 0.288463 0.289119 0.285126 0.286177 0.287649 0.284323 0.283828 
0.285284 0.282255 0.281917 0.28327 0.280777 0.280897 0.281855 0.280295 0.280532 
0.280944 0.280346 0.280865 0.280796 0.280853 0.281834 0.281393 0.281819 0.283757 
0.282832 0.283382 0.286326 0.284987 0.285573 0.289249 0.287692 0.288229 0.292277 
0.290678 0.291109 0.295423 0.29373 0.294017 0.298405 0.296821 0.296878 0.301089 
0.299628 0.299516 0.303527 0.302279 0.301977 0.305541 0.304583 0.304228 0.306126 
0.287309 0.302856 0.304018 0.307371 0.305088 0.305914 0.304714 0.306536 0.307075 
0.307364 0.306403 0.300534 0.301813 0.302532 0.297928 0.29935 0.300276 0.295395 
0.29665 0.297805 0.293025 0.294272 0.295379 0.290957 0.291949 0.293144 0.289439 
0.290036 0.291143 0.288482 0.288768 0.289578 0.288277 0.288147 0.288521 0.288847 
0.288236 0.288043 0.289995 0.289045 0.28819 0.291546 0.29034 0.288722 0.293293 
0.2922 0.289657 0.295242 0.294032 0.291043 0.296645 0.295871 0.292531 0.296947 
0.29714 0.293642 0.295344 0.296462 0.293763 0.291568 0.293905 0.291965 0.286256 
0.289403 0.288254 0.281021 0.284013 0.283757 0.276137 0.27907 0.279615 0.271837 
0.274376 0.276025 0.268373 0.270539 0.27314 0.266359 0.267694 0.271284 0.26532 
0.266036 0.270368 0.265859 0.265664 0.270579 0.268159 0.266818 0.2721 0.272933 
0.270662 0.275481 0.280919 0.276171 0.280853 0.292221 0.285138 0.288287 0.307342 
0.298134 0.297459 0.329741 0.31458 0.305906 0.261832 0.241725 0.400113 0.446397 
0.264819 0.268846 0.274491 0.280887 0.281652 0.303423 0.291744 0.258568 0.260448 
0.270284 0.254249 0.254299 0.265112 0.257852 0.257796 0.263806 0.260948 0.259309 
0.265607 0.264371 0.262168 0.268219 0.26458 0.26232 0.271077 0.266832 0.267173 
0.27431 0.270047 0.269763 0.275628 0.270303 0.269994 0.27651 0.266887 0.266573 
0.27604 0.264948 0.264635 0.275465 0.261598 0.265799 0.274029 0.261907 0.264431 
0.270873 0.260788 0.261632 0.26886 0.256627 0.257348 0.266742 0.254566 0.255348 
0.266579 0.264093 0.260718 0.267344 0.279751 0.268833 0.274931 0.291651 0.26342 
0.243985 0.252816 0.245794 0.261826 0.460722 0.417147 0.253626 0.27681 0.253741 
0.283488 0.291936 0.273803 0.295777 0.300115 0.289798 0.299474 0.301701 0.296734 
0.299905 0.302907 0.299134 0.301989 0.301004 0.300142 0.302329 0.303803 0.300506 
0.307146 0.318028 0.303743 0.333654 0.363632 0.368997 0.322155 0.32107 0.311503 
0.305958 0.298621 0.305831 0.30055 0.29564 0.297272 0.298349 0.29499 0.295391 
0.296482 0.293652 0.293999 0.294031 0.289193 0.290465 0.284844 0.276452 0.282386 
0.2665 0.24789 0.26652 0.238749 0.234113 0.251497 0.247879 0.37116 0.413739 
0.255065 0.277596 0.283085 0.292036 0.273167 0.291443 0.294361 0.286714 0.291185 
0.294432 0.290988 0.289902 0.293373 0.290824 0.289532 0.29457 0.290092 0.293885 
0.307735 0.293049 0.318909 0.344981 0.345248 0.308033 0.246789 0.266104 0.309211 
0.302962 0.296559 0.29582 0.29817 0.293785 0.294752 0.293514 0.294466 0.296464 
0.293759 0.297542 0.295298 0.294249 0.294473 0.295338 0.292823 0.290655 0.281323 
0.287088 0.274134 0.251953 0.271424 0.242316 0.235158 0.252397 0.30964 0.308987 
0.308461 0.381871 0.344602 0.330329 0.234888 0.24559 0.252204 0.35236 0.326177 
0.314752 0.312675 0.315728 0.307503 0.307265 0.269519 0.267751 0.25062 0.299709 
0.269792 0.411972 0.44316 0.270443 0.271282 0.423272 0.253978 0.309512 0.380719 
0.425073 0.42677 0.391376 0.272722 0.399222 0.366453 0.344395 0.262996 0.255658 
0.267254 0.273861 0.310949 0.310026 0.26165 0.2543 0.31461 0.313748 0.317937 
0.317678 0.317291 0.316775 0.317717 0.317502 0.317803 0.316495 0.317051 0.31741 
0.315193 0.315871 0.316192 0.313688 0.314467 0.31465 0.312134 0.312916 0.312977 
0.310599 0.31138 0.311322 0.309199 0.309896 0.30974 0.308087 0.308637 0.308363 
0.307123 0.307596 0.30725 0.255818 0.264801 0.292114 0.296373 0.307514 0.306908 
0.306031 0.286278 0.290585 0.292013 0.296896 0.297695 0.287545 0.292973 0.276721 
0.278992 0.273758 0.275015 0.280812 0.271005 0.272119 0.277601 0.269101 0.269582 
0.274689 0.268174 0.268253 0.272413 0.268256 0.267619 0.270839 0.268968 0.26803 
0.269959 0.270094 0.268858 0.269604 0.271516 0.270083 0.26939 0.273618 0.271839 
0.269347 0.277212 0.274981 0.279781 0.27838 0.279847 0.280979 0.278012 0.279011 
0.275364 0.277878 0.278375 0.274915 0.278638 0.278637 0.276216 0.279718 0.279529 
0.27797 0.280951 0.280544 0.279691 0.2825 0.281856 0.281459 0.284656 0.283644 
0.283569 0.2872 0.286002 0.286125 0.290174 0.288764 0.289032 0.293051 0.291618 
0.292085 0.295923 0.294478 0.294991 0.298642 0.29725 0.297751 0.300978 0.29975 
0.300172 0.302994 0.301791 0.302098 0.269432 0.270552 0.284164 0.290137 0.316152 
0.315415 0.314962 0.316612 0.300135 0.301322 0.297605 0.298874 0.299969 0.280712 
0.284088 0.288382 0.284363 0.304245 0.305325 0.306631 0.253996 0.259936 0.260914 
0.295328 0.296459 0.297541 0.293099 0.294186 0.295223 0.29108 0.291991 0.292928 
0.289502 0.290148 0.290864 0.288228 0.28864 0.289054 0.287529 0.287652 0.287586 
0.287272 0.287116 0.28653 0.28728 0.286986 0.285802 0.287731 0.287136 0.285348 
0.288629 0.287895 0.285302 0.290019 0.289376 0.286167 0.291076 0.290582 0.287602 
0.291526 0.291985 0.289264 0.289123 0.290484 0.288989 0.285383 0.287598 0.286386 
0.281399 0.283541 0.282869 0.278196 0.28003 0.279651 0.27577 0.277373 0.277648 
0.274231 0.275334 0.276406 0.273588 0.27416 0.276053 0.273823 0.274056 0.276527 
0.275232 0.274619 0.277759 0.277549 0.276479 0.27986 0.281575 0.279387 0.282793 
0.286461 0.283562 0.286221 0.293158 0.288657 0.289988 0.387844 0.39896 0.276938 
0.269855 0.27045 0.27358 0.277745 0.286205 0.277806 0.266124 0.276545 0.264429 
0.256596 0.262434 0.262691 0.269423 0.269157 0.274947 0.271533 0.270258 0.275592 
0.274442 0.273032 0.277954 0.27767 0.27615 0.281232 0.280493 0.279199 0.284494 
0.282086 0.281494 0.287096 0.28282 0.282567 0.288748 0.282721 0.282875 0.289372 
0.281398 0.282349 0.288991 0.279382 0.280374 0.287426 0.276522 0.278011 0.28492 
0.274365 0.275365 0.282427 0.272968 0.273357 0.280332 0.272307 0.27275 0.279145 
0.273715 0.271646 0.278384 0.404522 0.403443 0.337066 0.31875 0.273139 0.278971 
0.30236 0.303427 0.30413 0.302269 0.267934 0.27728 0.266481 0.282793 0.289081 
0.277785 0.292023 0.294308 0.287076 0.295936 0.296617 0.292043 0.297553 0.297439 
0.294429 0.298092 0.298642 0.295595 0.30137 0.305152 0.298533 0.306701 0.301223 
0.312099 0.31801 0.318042 0.318258 0.370881 0.386249 0.296226 0.294892 0.297809 
0.293203 0.292982 0.292309 0.291782 0.290486 0.289739 0.288145 0.284951 0.285978 
0.281577 0.275266 0.279584 0.270331 0.260416 0.270106 0.321678 0.310503 0.280066 
0.284541 0.274771 0.286591 0.287459 0.281706 0.288411 0.288124 0.285031 0.288629 
0.288545 0.286287 0.290862 0.294037 0.288418 0.312837 0.311886 0.311027 0.313057 
0.309045 0.308329 0.308873 0.307879 0.291741 0.291622 0.291139 0.291632 0.289771 
0.291588 0.2914 0.289131 0.290101 0.288144 0.287694 0.28585 0.279804 0.283268 
0.275236 0.265758 0.274843 0.261142 0.255696 0.262398 0.38842 0.357729 0.299081 
0.29526 0.293234 0.306384 0.398612 0.403536 0.375426 0.296747 0.297852 0.307354 
0.318145 0.30866 0.3142 0.328789 0.273112 0.341252 0.252084 0.260539 0.267209 
0.305846 0.306209 0.270796 0.28235 0.282126 0.305103 0.304051 0.304029 0.305997 
0.381729 0.396501 0.294002 0.292688 0.371917 0.38863 0.338084 0.27401 0.266304 
0.377222 0.387716 0.28252 0.277628 0.281417 0.289691 0.267649 0.282965 0.281256 
0.346316 0.372351 0.364388 0.332148 0.353183 0.349812 0.274224 0.270489 0.25501 
0.251064 0.259892 0.296844 0.301515 0.329831 0.313206 0.380672 0.265361 0.281156 
0.297428 0.298581 0.318814 0.319095 0.316055 0.316887 0.317689 0.318283 0.319215 
0.31769 0.312185 0.313154 0.310358 0.311275 0.311321 0.308657 0.309484 0.309368 
0.307238 0.307894 0.307564 0.306141 0.306679 0.306161 0.305244 0.265591 0.269435 
0.314174 0.315105 0.315725 0.313505 0.267726 0.271176 0.318709 0.31821 0.278215 
0.27964 0.284387 0.28602 0.27563 0.276657 0.281136 0.273376 0.274096 0.277911 
0.271655 0.272 0.274989 0.270383 0.270647 0.272634 0.268837 0.269061 0.270347 
0.266852 0.266795 0.267004 0.262179 0.277638 0.276651 0.279829 0.278965 0.278002 
0.281971 0.281012 0.280526 0.284527 0.28332 0.282972 0.287525 0.286157 0.285969 
0.291004 0.289418 0.289526 0.294185 0.292722 0.293208 0.297136 0.29571 0.29648 
0.299855 0.298519 0.299379 0.302071 0.300951 0.301821 0.303824 0.303044 0.303825 
0.281018 0.280199 0.290677 0.290946 0.295132 0.296289 0.297364 0.299887 0.301152 
0.299831 0.292732 0.293873 0.294956 0.290519 0.291472 0.292387 0.288494 0.289385 
0.289945 0.286757 0.28739 0.287668 0.285392 0.285873 0.285654 0.284193 0.284565 
0.283906 0.283227 0.283414 0.282235 0.282544 0.28239 0.280554 0.283002 0.282134 
0.279055 0.285581 0.284861 0.280412 0.287522 0.28676 0.286566 0.283466 0.285083 
0.280517 0.282305 0.280827 0.277679 0.278959 0.277905 0.276951 0.277714 0.276665 
0.277013 0.277337 0.277256 0.277832 0.277779 0.278444 0.279304 0.278853 0.280203 
0.281275 0.280505 0.282404 0.284044 0.282679 0.284897 0.286857 0.285195 0.287494 
0.289555 0.287951 0.289735 0.291974 0.290261 0.291331 0.290998 0.291166 0.291151 
0.286015 0.270406 0.267502 0.318044 0.347362 0.32912 0.271202 0.265857 0.263735 
0.271731 0.372879 0.360419 0.267978 0.266653 0.270436 0.284271 0.282637 0.28709 
0.287975 0.286155 0.29072 0.291501 0.289832 0.294728 0.29414 0.292919 0.298335 
0.295887 0.295265 0.301137 0.296457 0.29631 0.302859 0.2955 0.296029 0.302902 
0.293414 0.294715 0.301592 0.290642 0.291991 0.299115 0.287649 0.289056 0.295804 
0.28513 0.286143 0.292408 0.283772 0.284122 0.289633 0.284224 0.319197 0.319062 
0.319642 0.281274 0.282785 0.287445 0.284395 0.308978 0.307805 0.298647 0.294968 
0.274809 0.28028 0.273776 0.283296 0.28686 0.280259 0.288512 0.290418 0.285393 
0.291629 0.29239 0.288612 0.293569 0.294287 0.291085 0.296596 0.299292 0.294405 
0.316269 0.306137 0.302172 0.270599 0.277338 0.336037 0.35095 0.360133 0.36601 
0.370316 0.291413 0.290061 0.292462 0.288307 0.287023 0.28755 0.284859 0.282176 
0.283559 0.278614 0.274841 0.277761 0.27232 0.266768 0.271719 0.29338 0.299496 
0.359102 0.364892 0.345219 0.277285 0.280014 0.281743 0.282994 0.278655 0.284693 
0.285285 0.282045 0.287022 0.289034 0.290924 0.285285 0.368011 0.368016 0.288811 
0.288374 0.287421 0.287167 0.286763 0.286157 0.284627 0.28469 0.282444 0.279312 
0.281396 0.27743 0.272423 0.272889 0.277173 0.375214 0.376587 0.362158 0.277664 
0.279564 0.279677 0.284847 0.266019 0.267902 0.272599 0.270762 0.274908 0.274136 
0.270678 0.274956 0.346888 0.328616 0.31992 0.309293 0.323447 0.303562 0.319939 
0.301187 0.304179 0.311949 0.309901 0.308955 0.311096 0.304424 0.258592 0.318413 
0.317499 0.316672 0.289642 0.28997 0.287191 0.289013 0.27794 0.306426 0.306363 
0.304874 0.286788 0.315726 0.314674 0.316486 0.324182 0.275814 0.283653 0.368764 
0.363156 0.344387 0.358655 0.268554 0.265945 0.269506 0.271063 0.279327 0.275165 
0.269935 0.280043 0.282483 0.287348 0.284357 0.272479 0.281266 0.284149 0.288577 
0.28409 0.279014 0.289231 0.291366 0.290898 0.291374 0.302537 0.302534 0.303585 
0.347645 0.360622 0.351678 0.274203 0.278552 0.349295 0.273589 0.362807 0.356603 
0.353728 0.320682 0.311288 0.291331 0.290142 0.294427 0.313471 0.312314 0.311361 
0.31409 0.301942 0.306303 0.307192 0.310267 0.311399 0.304719 0.30535 0.276404 
0.277868 0.323633 0.312613 0.280372 0.281959 0.281653 0.333804 0.342144 0.306316 
0.283759 0.285448 0.286193 0.281404 0.280264 0.284012 0.282679 0.282718 0.287566 
0.285925 0.285806 0.291834 0.289853 0.290045 0.295729 0.293942 0.294644 0.299121 
0.297615 0.298716 0.302033 0.300665 0.302096 0.304185 0.303094 0.304599 0.305758 
0.304822 0.306154 0.307279 0.296149 0.294005 0.286928 0.285963 0.297526 0.298669 
0.299629 0.300944 0.299863 0.289472 0.290679 0.294906 0.29617 0.29758 0.28681 
0.28797 0.288756 0.284684 0.285588 0.285964 0.282581 0.283461 0.283567 0.280323 
0.281368 0.28127 0.277995 0.278975 0.278496 0.277177 0.32132 0.320832 0.352977 
0.355139 0.27771 0.277262 0.279909 0.279094 0.279147 0.28237 0.281391 0.281939 
0.285196 0.284005 0.28495 0.288179 0.286757 0.288205 0.290583 0.289404 0.291047 
0.292178 0.291283 0.2929 0.29245 0.292049 0.293332 0.344485 0.333283 0.32399 
0.292912 0.289936 0.301515 0.29923 0.302452 0.305638 0.303776 0.308358 0.308428 
0.307037 0.31264 0.310136 0.309585 0.315583 0.309554 0.310011 0.316719 0.307897 
0.308969 0.31596 0.304641 0.306445 0.313634 0.300189 0.302234 0.308992 0.29605 
0.298013 0.303788 0.292636 0.293965 0.29906 0.273771 0.276239 0.321998 0.336759 
0.31476 0.315386 0.32663 0.324305 0.321392 0.321511 0.322733 0.26055 0.304829 
0.298373 0.295162 0.30734 0.29206 0.29336 0.29471 0.291733 0.282683 0.284495 
0.286645 0.288006 0.284158 0.289196 0.290529 0.287342 0.292602 0.294893 0.29069 
0.265857 0.263903 0.278581 0.275493 0.325997 0.311529 0.346798 0.337194 0.324869 
0.280933 0.282576 0.354762 0.34985 0.345588 0.291516 0.289872 0.296638 0.308129 
0.309181 0.309134 0.3069 0.284604 0.28344 0.284948 0.282299 0.280342 0.282391 
0.288425 0.287795 0.292693 0.347759 0.349271 0.298763 0.29865 0.306839 0.30889 
0.26841 0.274397 0.298637 0.303066 0.296175 0.30844 0.320116 0.320847 0.322413 
0.311755 0.312679 0.313988 0.304878 0.335952 0.345712 0.319952 0.319002 0.321579 
0.279423 0.290299 0.29179 0.292435 0.293541 0.295054 0.273657 0.27489 0.271328 
0.272808 0.28977 0.287166 0.288755 0.27591 0.273769 0.315418 0.316649 0.314765 
0.278288 0.317881 0.317999 0.319064 0.317702 0.316386 0.319091 0.3497 0.339693 
0.349031 0.350255 0.345176 0.341945 0.274969 0.275654 0.275623 0.273005 0.272927 
0.275775 0.276234 0.274716 0.291044 0.291343 0.275344 0.277246 0.338708 0.290168 
0.290992 0.291677 0.28741 0.277757 0.295002 0.334606 0.289792 0.289045 0.291955 
0.283094 0.284186 0.28601 0.284321 0.281205 0.278682 0.280201 0.283545 0.278314 
0.281294 0.280803 0.277341 0.274363 0.34711 0.287049 0.28529 0.283015 0.28755 
0.30725 0.302462 0.290618 0.292219 0.302185 0.303568 0.304628 0.302079 0.289031 
0.293002 0.295508 0.314926 0.313479 0.316075 0.296042 0.29829 0.292514 0.345532 
0.337146 0.339028 0.285923 0.284657 0.328286 0.332935 0.293169 0.290795 0.29297 
0.32573 0.325424 0.288666 0.290595 0.287593 0.285641 0.286172 0.29081 0.28207 
0.292592 0.302582 0.300543 0.30566 0.304187 0.306775 0.307649 0.306587 0.309039 
0.308605 0.308026 0.310167 0.310152 0.315907 0.312756 0.300741 0.301707 0.28514 
0.286392 0.287732 0.28611 0.280376 0.281574 0.323936 0.333447 0.328667 0.326851 
0.318396 0.308919 0.317824 0.316867 0.305159 0.294477 0.2911 0.289534 0.290747 
0.293958 0.292727 0.29422 0.295142 0.294558 0.296396 0.294282 0.294633 0.296418 
0.293608 0.325113 0.31667 0.339644 0.345202 0.341872 0.307286 0.303712 0.314058 
0.32306 0.321609 0.322122 0.32294 0.320008 0.322217 0.329061 0.311895 0.315132 
0.323305 0.305958 0.308966 0.314018 0.299304 0.301976 0.306284 0.276216 0.298104 
0.299401 0.301374 0.296248 0.310723 0.303285 0.312275 0.294738 0.29749 0.293247 
0.300853 0.279184 0.299769 0.297243 0.304082 0.29496 0.31177 0.326527 0.329581 
0.2872 0.3338 0.328499 0.321392 0.277884 0.28225 0.282698 0.283855 0.283372 
0.327872 0.333525 0.334298 0.320568 0.310228 0.311835 0.323708 0.322463 0.326932 
0.284643 0.337434 0.332983 0.325018 0.295314 0.296844 0.324701 0.327689 0.323917 
0.295579 0.292628 0.294435 0.307478 0.308725 0.308723 0.297844 0.296853 0.291967 
0.298334 0.29616 0.302919 0.314017 0.315925 0.312741 0.317819 0.3195 0.317178 
0.298769 0.302951 0.319195 0.317293 0.320985 0.319276 0.322885 0.287777 0.288343 
0.289954 0.334818 0.336172 0.283983 0.282561 0.275081 0.281223 0.279911 0.312423 
0.291826 0.29324 0.291718 0.324053 0.330168 0.337354 0.323984 0.330226 0.297787 
0.326436 0.318367 0.316595 0.314801 0.286689 0.283547 0.294724 0.296241 0.298357 
0.29502 0.288428 0.287859 0.289915 0.290978 0.31553 0.322745 0.320256 0.309881 
0.30281 0.298715 0.310748 0.285374 0.286722 0.288773 0.290747 0.303216 0.310963 
0.33752 0.335994 0.30429 0.305585 0.306659 0.304071 0.33885 0.323748 0.317516 
0.311239 0.317953 0.326989 0.309891 0.292134 0.294396 0.297787 0.294014 0.298478 
0.29859 0.298267 0.287513 0.301545 0.299563 0.298962 0.28725 0.310529 0.313386 
0.284436 0.300902 0.322 0.292663 0.297574 0.292542 0.303935 0.305178 0.31021 
0.303152 0.312842 0.32156 0.323016 0.321885 0.336089 0.336698 0.331784 0.276911 
0.278235 0.331355 0.33709 0.321273 0.314598 0.32014 0.302496 0.303853 0.294654 
0.317171 0.314929 0.309016 0.303247 0.298598 0.296979 0.305843 0.305318 0.298006 
0.296318 0.298359 0.301681 0.312646 0.316292 0.301025 0.307964 0.325086 0.326296 
0.32128 0.316418 0.32728 0.306169 0.309328 0.307051 0.307761 0.307931 0.306149 
0.304795 0.313787 0.31307 0.316579 0.311121 0.309473 0.326804 0.324667 0.321785 
0.323632 0.312943 0.333373 0.330657 0.299408 0.289202 0.307231 0.300933 0.303818 
0.308697 0.303217 0.318384 0.329093 0.327914 0.323505 0.306978 0.320748 0.303234 
0.316754 0.319903 0.29848 0.300444 0.314433 0.3025 0.310937 0.329148 0.307841 
0.54344 0.307917 0.307999 0.307854 0.307444 0.306747 0.305985 0.304903 0.302282 
0.303879 0.299499 0.297844 0.296288 0.294441 0.293191 0.291705 0.289068 0.290516 
0.287135 0.286388 0.285888 0.285667 0.286342 0.287273 0.289451 0.291196 0.292721 
0.294835 0.296735 0.298955 0.301059 0.303465 0.30536 0.307331 0.309864 0.31032 
0.310123 0.309208 0.307687 0.304893 0.302354 0.298363 0.291444 0.286796 0.283084 
0.27828 0.274356 0.269732 0.263363 0.259726 0.256959 0.253869 0.251762 0.249397 
0.247565 0.246016 0.24423 0.243902 0.243755 0.244203 0.244906 0.24662 0.250775 
0.255535 0.25994 0.267435 0.275115 0.289694 0.305124 0.342704 0.4163 0.300861 
0.288068 0.28563 0.2859 0.288355 0.3088 0.295198 0.266435 0.24506 0.248513 
0.535821 0.307876 0.427755 0.34732 0.305494 0.28636 0.272732 0.265027 0.257398 
0.248097 0.243654 0.241698 0.239515 0.238376 0.237331 0.236932 0.236895 0.237539 
0.238595 0.243786 0.246432 0.249178 0.252784 0.25884 0.263122 0.26709 0.271338 
0.275658 0.280403 0.284686 0.289955 0.294117 0.298486 0.304022 0.305594 0.306073 
0.30552 0.304114 0.301816 0.299298 0.296202 0.293451 0.290387 0.285675 0.282812 
0.281109 0.279347 0.278163 0.277204 0.276671 0.27629 0.276651 0.277338 0.27813 
0.279395 0.280642 0.282538 0.284366 0.286326 0.289832 0.291779 0.293746 0.296008 
0.297735 0.299759 0.301245 0.302823 0.304246 0.305617 0.30653 0.307424 0.30801 
0.307984 0.239826 0.241872 0.252619 0.237182 0.255835 0.301487 0.2879 0.276373 
0.288092 0.307849 0.307598 0.307634 0.307561 0.307562 0.307676 0.307908 0.308323 
0.308701 0.309265 0.309832 0.310611 0.311943 0.312852 0.313612 0.314626 0.315398 
0.3164 0.317646 0.31833 0.318795 0.319277 0.320213 0.320138 0.319949 0.319655 
0.319356 0.31888 0.318387 0.31773 0.316594 0.315717 0.314961 0.314062 0.311894 
0.311065 0.30997 0.30933 0.308901 0.308426 0.308116 0.307843 0.307569 0.307564 
0.319602 0.320104 0.313431 0.312584 0.319945 0.311263 0.317037 0.317224 0.310495 
0.307657 0.15092 0.123705 0.151326 0.148961 0.146254 0.14346 0.14118 0.138031 
0.132632 0.12632 0.0710979 0.171177 0.162182 0.0829459 0.0893087 0.0941452 0.0994867 
0.106264 0.111583 0.116802 0.103867 0.127124 0.134605 0.139338 0.150521 0.106296 
0.132636 0.101735 0.0899243 0.104424 0.120034 0.10579 0.114489 0.111934 0.117283 
0.107548 0.15633 0.111285 0.10897 0.108293 0.099771 0.11644 0.101978 0.101613 
0.0612582 0.07719 0.147088 0.165692 0.0849097 0.101091 0.107386 0.119153 0.0968752 
0.105659 0.118336 0.14 0.132951 0.148477 0.12846 0.159829 0.123704 0.12752 
0.148284 0.146534 0.148387 0.14455 0.142449 0.139557 0.131872 0.136569 0.0908291 
0.137119 0.0873796 0.0948716 0.111062 0.0993655 0.105202 0.105071 0.118327 0.109265 
0.175697 0.0691205 0.0785029 0.149155 0.148126 0.136741 0.128888 0.105135 0.118125 
0.0972868 0.10795 0.0874175 0.0962139 0.0885947 0.140301 0.155314 0.124025 0.12996 
0.149158 0.15058 0.146551 0.147016 0.138294 0.141279 0.133921 0.143451 0.155468 
0.129148 0.126554 0.155126 0.149292 0.148133 0.146563 0.144632 0.141606 0.138265 
0.133524 0.169693 0.0607106 0.0804524 0.130794 0.15361 0.130558 0.116821 0.118695 
0.126382 0.109957 0.0982951 0.0952325 0.105624 0.0747043 0.143067 0.103785 0.145954 
0.106439 0.104763 0.0874513 0.111688 0.100252 0.10682 0.116463 0.101995 0.09517 
0.237118 0.199547 0.128901 0.119643 0.164273 0.196503 0.1699 0.167025 0.162791 
0.161013 0.158797 0.157604 0.157421 0.157584 0.180969 0.159322 0.185383 0.15933 
0.140889 0.0428481 0.0574922 0.0649197 0.055376 0.0563533 0.0533032 0.050605 0.0472519 
0.0454212 0.0447811 0.0428517 0.0415996 0.0392497 0.0384734 0.0372953 0.0348651 0.0337684 
0.0375507 0.0580931 0.0757611 0.0947808 0.0762902 0.0909781 0.0757627 0.0551553 0.0348353 
0.0330638 0.0354421 0.0358754 0.0371709 0.0382826 0.0397919 0.04137 0.0436594 0.0452615 
0.0475584 0.0484197 0.0508804 0.0543606 0.054982 0.0662772 0.0537795 0.0330784 0.0343422 
0.0372546 0.0389128 0.0401833 0.0417599 0.0426669 0.0441451 0.0450288 0.0473396 0.0495519 
0.052785 0.0569337 0.0531411 0.0627765 0.0541522 0.0456449 0.0434931 0.0473535 0.0702633 
0.0557318 0.0548967 0.0491018 0.0466932 0.0459101 0.0430899 0.0432173 0.0410588 0.0398889 
0.0379682 0.0370664 0.0356375 0.0340645 0.0301319 0.0337047 0.0688271 0.0403103 0.0606235 
0.110865 0.0488207 0.0438221 0.0510417 0.0484456 0.051676 0.052143 0.0921902 0.0620505 
0.13815 0.142915 0.146242 0.145359 0.144986 0.14355 0.1406 0.136329 0.131822 
0.123969 0.111477 0.0957357 0.140224 0.144261 0.116562 0.0490164 0.0375463 0.0501048 
0.0455327 0.0437061 0.0512137 0.0504382 0.052672 0.0465263 0.0568441 0.147645 0.141325 
0.143606 0.14408 0.141862 0.143245 0.136483 0.138527 0.124566 0.13028 0.0993852 
0.109162 0.0646068 0.0672312 0.0838316 0.0863982 0.146909 0.0573222 0.0485321 0.0544909 
0.0752182 0.0507008 0.0993058 0.041361 0.0637611 0.054888 0.0553326 0.0590847 0.0481534 
0.0491112 0.0451165 0.0469172 0.0423852 0.0442877 0.0400756 0.0415569 0.0373401 0.0383603 
0.0305811 0.0360589 0.0591246 0.036188 0.105704 0.0642132 0.0824398 0.0662387 0.0625472 
0.0375939 0.0651135 0.0323764 0.0292121 0.0373957 0.0342184 0.0395289 0.0389042 0.0421487 
0.0407035 0.044285 0.0430308 0.050086 0.0472852 0.0557618 0.0561337 0.051926 0.0643376 
0.0740877 0.0860434 0.096355 0.038658 0.0325858 0.0380414 0.0370739 0.0411693 0.0396915 
0.0439916 0.0422346 0.0470091 0.0449717 0.0486562 0.0474704 0.0586933 0.0546678 0.0524955 
0.0652821 0.0397745 0.0455835 0.078312 0.0468795 0.0526822 0.0566217 0.0460677 0.0488492 
0.0431057 0.0452121 0.0412356 0.0412583 0.0370644 0.0382608 0.0329461 0.0353101 0.0360469 
0.115278 0.0513329 0.0373719 0.0468967 0.0470619 0.0499194 0.0503441 0.05037 0.0520972 
0.0489353 0.0531527 0.0978106 0.144425 0.140607 0.146762 0.147173 0.143763 0.145501 
0.136736 0.13967 0.124151 0.131106 0.0992053 0.11028 0.144241 0.0418268 0.0636274 
0.0491114 0.0473531 0.0541029 0.0506423 0.0509259 0.0526914 0.0585175 0.0907684 0.139612 
0.13711 0.14337 0.144349 0.144344 0.142448 0.139297 0.135931 0.130244 0.123028 
0.113947 0.114836 0.0389004 0.0670021 0.0870534 0.148594 0.062827 0.052212 0.0398606 
0.0654571 0.057178 0.212749 0.208465 0.119085 0.121588 0.149188 0.164782 0.193487 
0.163885 0.163895 0.161019 0.162226 0.160248 0.162384 0.161124 0.163968 0.163598 
0.141464 0.151277 0.165061 0.139818 0.114768 0.212062 0.187104 0.116663 0.145873 
0.157568 0.135147 0.141485 0.157811 0.157249 0.13404 0.158436 0.162266 0.160777 
0.138119 0.164215 0.167618 0.147695 0.16439 0.140838 0.118689 0.172283 0.124039 
0.0333354 0.0469262 0.0389037 0.0361379 0.130936 0.124939 0.0414469 0.0421117 0.147393 
0.147688 0.0526146 0.0427052 0.055364 0.0592218 0.0514589 0.0534139 0.040713 0.0507938 
0.144234 0.145553 0.0519828 0.0453229 0.0347974 0.0716469 0.0583677 0.0830107 0.0283947 
0.0345879 0.0291329 0.041524 0.0924062 0.111273 0.0330714 0.0339962 0.0447723 0.044253 
0.0435425 0.0459199 0.0343594 0.0909603 0.0659462 0.0428414 0.13654 0.0405526 0.0539892 
0.0404887 0.145431 0.0279663 0.0342841 0.0339959 0.0468489 0.0518864 0.0740128 0.0425529 
0.056489 0.142687 0.0433633 0.0453028 0.0407215 0.0455466 0.0709421 0.0528585 0.0554204 
0.0565065 0.0878854 0.0499291 0.0347411 0.0492388 0.0466805 0.0318066 0.0310394 0.0402029 
0.0400662 0.042558 0.0852877 0.08192 0.0430365 0.0444394 0.043691 0.0564229 0.268354 
0.242533 0.0435236 0.0429426 0.0315841 0.144981 0.142735 0.106445 0.0703143 0.17905 
0.0393402 0.068032 0.0870572 0.145268 0.143239 0.195838 0.190329 0.184411 0.0562712 
0.0817681 0.0521098 0.225338 0.222079 0.23536 0.238805 0.0330525 0.110288 0.134214 
0.0451885 0.0419154 0.138752 0.13865 0.142223 0.046496 0.141363 0.145226 0.141802 
0.0373634 0.0521339 0.0617686 0.143432 0.145562 0.0556385 0.0661247 0.0577828 0.0939499 
0.244822 0.255656 0.26965 0.03877 0.0386153 0.027696 0.0417366 0.0369871 0.120464 
0.105392 0.117552 0.0372316 0.0380064 0.0493495 0.0373325 0.0342419 0.0517943 0.035828 
0.043193 0.034775 0.0633535 0.073085 0.0758762 0.136483 0.13972 0.0463011 0.146939 
0.0452299 0.196043 0.197816 0.18852 0.0379837 0.0534083 0.0339258 0.124289 0.0328023 
0.210566 0.2525 0.181421 0.178973 0.169776 0.216788 0.211769 0.227072 0.228805 
0.0390958 0.132289 0.308726 0.320159 0.31117 0.310834 0.320779 0.235583 0.244065 
0.139724 0.217473 0.221349 0.308553 0.143599 0.317865 0.332156 0.110718 0.120452 
0.246971 0.233879 0.225281 0.0399933 0.151589 0.139271 0.166342 0.201828 0.0421327 
0.0545139 0.229726 0.189256 0.186738 0.216414 0.205382 0.207163 0.200293 0.324842 
0.041838 0.0553828 0.0647435 0.219473 0.0643699 0.190626 0.182661 0.178061 0.0409218 
0.178379 0.188307 0.162992 0.161125 0.0540049 0.246757 0.118775 0.138245 0.0478866 
0.160611 0.146983 0.307665 0.206854 0.160024 0.11223 0.175595 0.284718 0.284069 
0.283914 0.283165 0.299408 0.299699 0.3013 0.285028 0.275159 0.281876 0.290034 
0.29085 0.292568 0.283153 0.279431 0.280946 0.275142 0.273035 0.276627 0.274923 
0.289872 0.288027 0.286974 0.284775 0.282388 0.276627 0.275232 0.283489 0.28449 
0.27764 0.297514 0.292639 0.291666 0.290232 0.211903 0.223686 0.23083 0.238348 
0.261572 0.262762 0.266728 0.28843 0.291121 0.291745 0.293459 0.299883 0.294129 
0.300572 0.292888 0.299014 0.29216 0.298209 0.296269 0.291238 0.292547 0.265459 
0.2659 0.259734 0.259339 0.301008 0.298258 0.301267 0.263409 0.266084 0.266328 
0.261911 0.27834 0.269437 0.263359 0.292241 0.294806 0.291609 0.294219 0.292711 
0.296832 0.289469 0.297874 0.288502 0.290858 0.288636 0.291029 0.295806 0.29393 
0.293665 0.265898 0.267957 0.26841 0.310692 0.311499 0.310907 0.295041 0.293312 
0.295117 0.293413 0.307377 0.292145 0.305979 0.308543 0.30963 0.309263 0.310282 
0.292075 0.293877 0.296976 0.29806 0.29484 0.28959 0.297305 0.293526 0.291836 
0.289128 0.307522 0.307266 0.307664 0.289571 0.277954 0.293709 0.275926 0.27256 
0.275223 0.287211 0.286988 0.291034 0.284476 0.280991 0.28207 0.320802 0.326965 
0.328199 0.277539 0.276591 0.27421 0.295013 0.293643 0.303544 0.304463 0.302803 
0.303745 0.266685 0.272216 0.259818 0.267296 0.325431 0.321606 0.323533 0.317906 
0.317785 0.318215 0.312191 0.311666 0.311444 0.307196 0.306794 0.306822 0.313272 
0.313354 0.313854 0.314013 0.286058 0.286222 0.284195 0.284361 0.314899 0.291363 
0.293926 0.293275 0.29623 0.295172 0.294452 0.293001 0.30566 0.305555 0.304614 
0.306042 0.300844 0.312725 0.307096 0.306377 0.30651 0.272351 0.31013 0.302505 
0.305295 0.301734 0.30266 0.302812 0.30201 0.300104 0.308288 0.307483 0.30808 
0.307199 0.289842 0.288764 0.291844 0.270761 0.269507 0.27523 0.270247 0.273967 
0.271115 0.274996 0.27487 0.270906 0.276383 0.29756 0.295269 0.341977 0.33916 
0.329373 0.283116 0.280253 0.279309 0.304878 0.305535 0.306207 0.284159 0.288587 
0.371697 0.354733 0.357421 0.302223 0.304757 0.300011 0.274676 0.276368 0.280404 
0.264717 0.263785 0.266824 0.288145 0.282962 0.285794 0.283284 0.284267 0.282862 
0.266563 0.267357 0.264809 0.283359 0.276693 0.280061 0.273913 0.25945 0.255085 
0.25747 0.268031 0.270506 0.2702 0.313996 0.314053 0.270321 0.304368 0.304929 
0.305118 0.237405 0.240862 0.255396 0.3179 0.317351 0.318272 0.29523 0.296389 
0.294264 0.295411 0.260156 0.310226 0.289906 0.2906 0.289994 0.328605 0.319872 
0.325567 0.309167 0.310102 0.309737 0.310621 0.319237 0.319259 0.28781 0.288643 
0.313859 0.286925 0.287289 0.288276 0.305144 0.304499 0.305546 0.308709 0.308825 
0.309317 0.309419 0.266829 0.308802 0.30979 0.309794 0.292681 0.295917 0.276621 
0.277207 0.276311 0.275554 0.276721 0.278639 0.279693 0.269305 0.272966 0.274799 
0.276506 0.278391 0.270021 0.275666 0.272341 0.314172 0.315526 0.314696 0.288134 
0.287993 0.289675 0.31349 0.314237 0.289831 0.294037 0.294002 0.314616 0.266707 
0.266576 0.264151 0.288077 0.291016 0.287949 0.290934 0.309218 0.309771 0.307234 
0.302615 0.273234 0.278521 0.269313 0.296883 0.299423 0.30125 0.283443 0.234929 
0.284253 0.279029 0.279445 0.277849 0.332845 0.320182 0.335348 0.315541 0.28332 
0.28217 0.280541 0.315432 0.315168 0.31482 0.302598 0.301385 0.302477 0.30032 
0.299261 0.299126 0.308343 0.28747 0.298027 0.292997 0.294578 0.287317 0.286485 
0.287035 0.310792 0.312059 0.311384 0.311952 0.357625 0.372675 0.36582 0.382116 
0.282574 0.281261 0.2821 0.369089 0.377588 0.372235 0.353079 0.279472 0.281118 
0.278985 0.296352 0.297816 0.29535 0.448447 0.470074 0.495924 0.391244 0.283752 
0.283302 0.282547 0.282173 0.294739 0.30199 0.300449 0.319926 0.325299 0.328715 
0.334355 0.263063 0.265947 0.288623 0.286676 0.287199 0.257868 0.265801 0.253162 
0.302581 0.283619 0.283662 0.28605 0.294054 0.291353 0.290043 0.294736 0.287813 
0.293024 0.286223 0.307195 0.306607 0.306572 0.317634 0.322191 0.303572 0.311249 
0.280157 0.278452 0.284451 0.289137 0.287625 0.286373 0.284788 0.347302 0.330343 
0.380256 0.269992 0.279986 0.279016 0.282316 0.281457 0.285058 0.307765 0.308221 
0.308341 0.307631 0.307678 0.310977 0.310366 0.310415 0.307217 0.307484 0.307788 
0.308063 0.283463 0.278942 0.281934 0.296308 0.289437 0.309838 0.309867 0.305356 
0.292749 0.29228 0.293864 0.308188 0.308803 0.287884 0.295361 0.288823 0.271307 
0.272498 0.291421 0.290822 0.295677 0.296652 0.294052 0.278968 0.280208 0.308319 
0.307902 0.270972 0.280201 0.268123 0.308043 0.308625 0.3089 0.273197 0.27689 
0.27241 0.276038 0.273137 0.253368 0.253906 0.260272 0.283646 0.2781 0.282111 
0.259234 0.26784 0.261456 0.296367 0.295608 0.300575 0.300141 0.288107 0.285396 
0.290322 0.27196 0.269719 0.270493 0.251507 0.261946 0.25524 0.272551 0.274152 
0.284474 0.286277 0.287241 0.289115 0.291512 0.295034 0.293505 0.290356 0.289392 
0.289677 0.312325 0.319552 0.311736 0.261737 0.257457 0.268198 0.271766 0.27071 
0.2795 0.281591 0.277506 0.279533 0.282385 0.283842 0.284109 0.285437 0.288295 
0.284118 0.285998 0.31167 0.31171 0.312374 0.26163 0.269115 0.308154 0.313684 
0.306812 0.316396 0.312121 0.349963 0.295543 0.2954 0.297112 0.317891 0.31764 
0.318114 0.296492 0.298399 0.300833 0.317389 0.317649 0.318176 0.317435 0.317669 
0.295766 0.296859 0.295881 0.319006 0.31888 0.318225 0.296272 0.2963 0.295204 
0.295158 0.293891 0.292148 0.280085 0.282005 0.278595 0.280652 0.281695 0.281087 
0.28225 0.317384 0.317829 0.303081 0.301814 0.302617 0.305515 0.305713 0.304704 
0.275019 0.279036 0.271566 0.283977 0.302992 0.290069 0.311098 0.293443 0.294996 
0.294618 0.296103 0.328029 0.326905 0.325079 0.281309 0.280805 0.281042 0.280509 
0.304689 0.318273 0.281743 0.281889 0.276822 0.303022 0.309038 0.309843 0.419427 
0.426212 0.317129 0.31759 0.317638 0.318156 0.35235 0.361325 0.348979 0.284222 
0.284231 0.285187 0.285154 0.323155 0.325813 0.318418 0.303566 0.304247 0.3538 
0.346231 0.348399 0.300869 0.300038 0.299807 0.299003 0.275009 0.272952 0.317787 
0.291846 0.29341 0.292151 0.260854 0.262877 0.217415 0.283378 0.282367 0.283007 
0.282092 0.283889 0.284769 0.292868 0.295261 0.293987 0.296459 0.299173 0.298577 
0.280466 0.278558 0.280268 0.312611 0.318351 0.277877 0.277524 0.277097 0.277511 
0.276632 0.277948 0.277221 0.274979 0.276107 0.27375 0.265006 0.266311 0.278082 
0.285695 0.282637 0.289152 0.278182 0.277118 0.281644 0.280261 0.302404 0.303585 
0.303075 0.29253 0.286885 0.367674 0.354662 0.299013 0.299784 0.282322 0.304972 
0.305917 0.304067 0.304533 0.304919 0.305363 0.26123 0.263805 0.259903 0.278859 
0.284136 0.283467 0.329681 0.332611 0.258259 0.264083 0.263427 0.274152 0.273608 
0.268843 0.268125 0.216687 0.272576 0.270225 0.274989 0.28583 0.255297 0.272248 
0.247713 0.256314 0.252306 0.258449 0.263904 0.264554 0.275395 0.276141 0.27356 
0.273859 0.307959 0.307363 0.264876 0.255561 0.264931 0.302381 0.309035 0.302371 
0.30952 0.298926 0.298701 0.296621 0.296491 0.293762 0.294292 0.263358 0.262789 
0.257123 0.256858 0.284384 0.267243 0.261142 0.268207 0.27823 0.2956 0.297073 
0.301756 0.303402 0.279215 0.283744 0.284923 0.273711 0.279187 0.278668 0.281765 
0.280261 0.27811 0.286312 0.275436 0.385656 0.400331 0.399738 0.280644 0.256204 
0.256716 0.247575 0.284049 0.280638 0.28544 0.282235 0.253469 0.317885 0.317164 
0.317059 0.265407 0.269097 0.264504 0.297907 0.270558 0.267369 0.271586 0.268881 
0.359619 0.368261 0.398372 0.278959 0.316417 0.304767 0.310267 0.319853 0.344721 
0.342004 0.292662 0.287611 0.294104 0.424775 0.388007 0.370083 0.48556 0.452207 
0.588647 0.276979 0.278979 0.307588 0.30734 0.307823 0.266074 0.266034 0.255025 
0.286905 0.28576 0.276164 0.274033 0.271504 0.227214 0.201724 0.221791 0.278287 
0.280676 0.279893 0.269702 0.273772 0.249897 0.295124 0.245302 0.272269 0.273728 
0.285512 0.283561 0.26665 0.270693 0.267586 0.270081 0.263398 0.26486 0.348607 
0.339934 0.337498 0.299555 0.29712 0.273502 0.27255 0.294752 0.292662 0.295638 
0.293369 0.280984 0.28319 0.28192 0.300262 0.299766 0.262156 0.267923 0.287076 
0.289939 0.288191 0.312578 0.313313 0.312498 0.313242 0.317857 0.317354 0.318237 
0.295367 0.293363 0.291994 0.298643 0.309504 0.302233 0.312592 0.276114 0.274771 
0.277611 0.26182 0.270107 0.260824 0.290818 0.293138 0.292372 0.307576 0.307048 
0.302288 0.304026 0.301157 0.287948 0.290445 0.289616 0.292175 0.259795 0.264106 
0.260915 0.307546 0.360569 0.405061 0.315061 0.315166 0.315821 0.2955 0.296898 
0.298265 0.299612 0.313795 0.313159 0.313787 0.279448 0.279782 0.27777 0.278164 
0.300604 0.314623 0.227332 0.305109 0.3036 0.301339 0.304313 0.303646 0.277816 
0.276848 0.279075 0.419093 0.402796 0.447539 0.316854 0.316331 0.317036 0.316599 
0.300401 0.248242 0.277197 0.256187 0.22798 0.285862 0.284692 0.242461 0.289892 
0.221296 0.296816 0.289585 0.285683 0.285202 0.292261 0.297203 0.299882 0.30539 
0.303562 0.305517 0.304506 0.307029 0.269964 0.269288 0.28018 0.28113 0.283062 
0.286974 0.287871 0.28607 0.286769 0.299584 0.298179 0.297772 0.290812 0.262654 
0.264799 0.261528 0.265897 0.301033 0.300722 0.287787 0.289321 0.28439 0.28582 
0.302199 0.291942 0.284698 0.287474 0.287816 0.294321 0.28061 0.22336 0.293255 
0.294358 0.305089 0.306731 0.265557 0.262305 0.333859 0.332224 0.281284 0.286606 
0.288356 0.289592 0.309548 0.292187 0.287325 0.290121 0.300213 0.304565 0.307135 
0.290531 0.292437 0.298021 0.297856 0.29643 0.299025 0.294966 0.301295 0.296042 
0.281022 0.279679 0.279399 0.27799 0.308949 0.276526 0.276926 0.326264 0.303876 
0.304339 0.308242 0.309062 0.293416 0.291484 0.290841 0.293708 0.305769 0.305768 
0.300201 0.141931 0.280107 0.27796 0.281266 0.312954 0.288451 0.288374 0.288947 
0.299053 0.292617 0.296133 0.291564 0.29149 0.292311 0.287737 0.292299 0.284457 
0.28875 0.288883 0.289288 0.288606 0.289078 0.287923 0.28815 0.288217 0.288279 
0.307503 0.307654 0.141761 0.280773 0.280289 0.280733 0.280311 0.256378 0.293355 
0.278445 0.288411 0.293421 0.290327 0.277091 0.274797 0.280049 0.293453 0.296922 
0.294109 0.289058 0.29211 0.289612 0.362233 0.350754 0.29992 0.301408 0.304361 
0.293449 0.291872 0.293244 0.28621 0.289452 0.289394 0.292741 0.295085 0.295026 
0.221916 0.2553 0.26112 0.259405 0.288818 0.283948 0.28518 0.281942 0.283165 
0.318889 0.276013 0.258515 0.23483 0.294855 0.291848 0.286867 0.287288 0.329898 
0.334358 0.332148 0.29186 0.290417 0.253185 0.311903 0.311997 0.312734 0.301958 
0.301429 0.346026 0.352735 0.341367 0.33207 0.285247 0.28235 0.276493 0.373349 
0.296377 0.285339 0.289954 0.26987 0.27986 0.225941 0.28586 0.282211 0.328454 
0.335433 0.336057 0.343878 0.28862 0.291315 0.289204 0.291905 0.27068 0.269932 
0.276106 0.275497 0.280842 0.281545 0.276701 0.290471 0.291978 0.307802 0.394473 
0.269316 0.269418 0.275802 0.271419 0.337805 0.287924 0.287871 0.274549 0.266544 
0.278855 0.278473 0.271495 0.339749 0.317346 0.317318 0.318236 0.315667 0.315323 
0.363114 0.359586 0.362359 0.352227 0.354421 0.345408 0.302039 0.301039 0.342158 
0.35116 0.342145 0.284863 0.287398 0.320624 0.319085 0.319422 0.301467 0.300685 
0.300131 0.299512 0.310885 0.317184 0.317893 0.315761 0.316481 0.285968 0.286443 
0.285255 0.304513 0.304482 0.30751 0.302855 0.286444 0.2845 0.281164 0.280574 
0.280932 0.280459 0.276445 0.289273 0.288681 0.325514 0.323299 0.324468 0.205104 
0.304469 0.301364 0.299855 0.327085 0.312372 0.313163 0.289643 0.292906 0.289735 
0.271026 0.31247 0.312138 0.313183 0.359762 0.347052 0.336462 0.292882 0.291628 
0.291656 0.286454 0.285298 0.286913 0.295154 0.301582 0.29469 0.296955 0.293462 
0.304055 0.298918 0.300257 0.307674 0.19784 0.220057 0.291283 0.29277 0.294411 
0.295619 0.314126 0.321024 0.318171 0.297422 0.301803 0.302036 0.300782 0.296403 
0.249684 0.290605 0.292853 0.291201 0.298757 0.29735 0.287994 0.262362 0.336386 
0.325546 0.316461 0.318047 0.31718 0.319207 0.31863 0.300774 0.524685 0.421829 
0.436136 0.37577 0.316269 0.252752 0.258076 0.25248 0.252744 0.29107 0.308928 
0.308563 0.308704 0.315707 0.316509 0.315441 0.281707 0.280029 0.278915 0.302036 
0.319741 0.318941 0.310922 0.309927 0.310945 0.316683 0.317226 0.276962 0.279451 
0.322807 0.288413 0.287589 0.288704 0.298499 0.299506 0.299448 0.285547 0.286906 
0.285901 0.287425 0.339539 0.351794 0.345062 0.343941 0.2842 0.290944 0.280515 
0.284193 0.284228 0.268616 0.268947 0.277897 0.279426 0.29554 0.297617 0.294674 
0.279583 0.28209 0.283409 0.279912 0.279172 0.274316 0.277708 0.304612 0.298856 
0.310989 0.31971 0.316441 0.326091 0.322602 0.279679 0.309732 0.308675 0.289816 
0.299088 0.311067 0.316996 0.306929 0.312353 0.278615 0.277519 0.354142 0.314063 
0.267327 0.280374 0.283542 0.282997 0.285999 0.388034 0.353484 0.355357 0.294985 
0.295591 0.29284 0.294094 0.294935 0.292828 0.293634 0.283815 0.307481 0.307848 
0.267992 0.26383 0.26392 0.301687 0.309836 0.304421 0.312404 0.292518 0.291255 
0.294648 0.293403 0.288582 0.290544 0.341117 0.344602 0.348129 0.259718 0.289684 
0.290123 0.290839 0.291229 0.29097 0.290339 0.376714 0.354243 0.289281 0.298833 
0.299182 0.296962 0.315105 0.329331 0.281692 0.280818 0.281165 0.280256 0.275851 
0.274853 0.302675 0.303395 0.272061 0.261185 0.26975 0.306032 0.279608 0.271087 
0.307452 0.307303 0.307634 0.259481 0.278481 0.309562 0.268814 0.269473 0.269701 
0.287439 0.28672 0.285963 0.28518 0.261716 0.267502 0.291424 0.305158 0.290533 
0.2898 0.294523 0.289272 0.288051 0.287088 0.285832 0.29901 0.317988 0.316748 
0.290325 0.288975 0.291629 0.285078 0.274499 0.269493 0.270385 0.318034 0.356989 
0.361444 0.34192 0.302513 0.299422 0.300916 0.282995 0.282643 0.28523 0.284927 
0.2737 0.267849 0.281536 0.28263 0.282375 0.283337 0.324826 0.322347 0.32313 
0.277973 0.273853 0.302223 0.298333 0.294208 0.292028 0.298974 0.293118 0.404209 
0.354796 0.281438 0.287414 0.286852 0.222988 0.268385 0.269939 0.269079 0.273753 
0.28007 0.280595 0.293706 0.290896 0.294091 0.280886 0.280828 0.281587 0.288683 
0.286092 0.301655 0.298804 0.296788 0.285178 0.287372 0.289708 0.379841 0.384736 
0.263357 0.261072 0.291352 0.368903 0.3485 0.293935 0.421655 0.311914 0.317671 
0.275132 0.274121 0.298133 0.297946 0.293978 0.32142 0.287077 0.287706 0.286872 
0.278228 0.278385 0.2799 0.279816 0.320016 0.279917 0.26888 0.27007 0.267361 
0.37199 0.382605 0.293278 0.334354 0.328499 0.329535 0.305819 0.306659 0.307118 
0.269686 0.329636 0.334812 0.306226 0.300568 0.301499 0.290801 0.29266 0.317756 
0.318218 0.317994 0.305853 0.311658 0.326341 0.329763 0.334302 0.290805 0.295363 
0.296431 0.306525 0.305955 0.299126 0.332984 0.395111 0.302143 0.301043 0.300895 
0.321031 0.321161 0.319771 0.319877 0.289154 0.288453 0.287872 0.252203 0.230056 
0.297079 0.281781 0.237507 0.243886 0.321159 0.291105 0.293418 0.292481 0.301248 
0.332682 0.324834 0.315856 0.263755 0.297127 0.295532 0.303706 0.298263 0.310036 
0.313627 0.263688 0.266195 0.26733 0.263055 0.266752 0.315755 0.320503 0.322293 
0.292922 0.25576 0.25912 0.25989 0.299833 0.312531 0.312564 0.312459 0.272198 
0.271561 0.311447 0.312154 0.310852 0.311583 0.310174 0.315606 0.315836 0.316193 
0.31627 0.316392 0.245398 0.301881 0.303909 0.279723 0.308191 0.307008 0.305146 
0.286954 0.288291 0.286977 0.28836 0.293781 0.307159 0.274727 0.286881 0.298064 
0.299163 0.312701 0.312622 0.306209 0.306144 0.289061 0.286079 0.29065 0.302949 
0.303302 0.308779 0.301573 0.300717 0.301609 0.300785 0.283399 0.284985 0.285449 
0.276317 0.270247 0.313216 0.311385 0.286954 0.299115 0.338526 0.378305 0.318074 
0.342887 0.276379 0.277695 0.268905 0.266822 0.329368 0.275543 0.275576 0.461572 
0.464498 0.264678 0.263756 0.306672 0.306697 0.276495 0.294072 0.320996 0.276472 
0.278143 0.276408 0.288373 0.283203 0.287863 0.23793 0.247988 0.24533 0.290675 
0.287234 0.290025 0.290232 0.287661 0.286505 0.282699 0.251651 0.246843 0.262347 
0.282981 0.269047 0.276393 0.281354 0.329574 0.316024 0.308705 0.288399 0.287624 
0.305004 0.287072 0.286658 0.289726 0.289486 0.289232 0.272576 0.270571 0.26983 
0.242344 0.277377 0.278333 0.282821 0.280223 0.30448 0.304281 0.303457 0.306613 
0.30615 0.306567 0.297695 0.288382 0.305515 0.275695 0.275043 0.274641 0.260627 
0.265699 0.265265 0.269809 0.335258 0.327456 0.329402 0.261159 0.297739 0.301872 
0.289973 0.292531 0.291157 0.293452 0.302768 0.293619 0.297203 0.236388 0.280971 
0.283066 0.281123 0.28311 0.305981 0.278959 0.285284 0.284544 0.277717 0.271946 
0.292588 0.289865 0.288418 0.310278 0.309714 0.256735 0.292306 0.289827 0.292241 
0.288105 0.288668 0.290924 0.270691 0.269368 0.270099 0.283174 0.2796 0.279675 
0.305453 0.281686 0.282086 0.272894 0.270937 0.270988 0.28702 0.30342 0.285414 
0.282937 0.283841 0.281216 0.279637 0.386236 0.367665 0.387273 0.372243 0.322095 
0.324255 0.322641 0.320594 0.321046 0.307059 0.306602 0.270026 0.26896 0.265613 
0.264281 0.305898 0.306257 0.306778 0.214565 0.357349 0.353071 0.285937 0.284245 
0.286222 0.28928 0.276701 0.276143 0.286154 0.283919 0.277125 0.280676 0.297333 
0.28848 0.271369 0.26635 0.374705 0.262345 0.255472 0.273877 0.272484 0.307537 
0.30526 0.310983 0.359289 0.368011 0.370409 0.282762 0.286738 0.284577 0.288666 
0.318872 0.319192 0.35066 0.346373 0.285349 0.299827 0.298646 0.308441 0.29116 
0.291571 0.28912 0.299911 0.301776 0.296086 0.350343 0.334605 0.311583 0.314245 
0.3118 0.304667 0.306618 0.306018 0.280553 0.277885 0.281983 0.321249 0.32067 
0.369985 0.301925 0.222302 0.282334 0.318632 0.298448 0.29732 0.319796 0.31236 
0.312516 0.305862 0.307872 0.307543 0.276139 0.274916 0.292991 0.292265 0.290433 
0.310375 0.310291 0.3108 0.284831 0.279066 0.279068 0.465881 0.430406 0.280162 
0.285445 0.315261 0.314819 0.260818 0.405359 0.397529 0.382916 0.278247 0.27774 
0.278666 0.281854 0.278086 0.291893 0.292551 0.277288 0.274313 0.281517 0.282853 
0.291812 0.295363 0.293268 0.239613 0.24833 0.247212 0.284636 0.286517 0.28619 
0.319492 0.32382 0.286313 0.386097 0.277387 0.276022 0.277107 0.330572 0.339752 
0.294496 0.229926 0.247804 0.222244 0.284594 0.323382 0.323027 0.335816 0.343083 
0.310091 0.310898 0.312981 0.285047 0.287687 0.288435 0.252816 0.298698 0.299633 
0.284922 0.286309 0.286038 0.311002 0.30991 0.300667 0.299564 0.283736 0.28204 
0.338792 0.327356 0.280428 0.258097 0.263826 0.257944 0.263372 0.31148 0.30339 
0.300007 0.313843 0.313946 0.248077 0.260475 0.26617 0.266947 0.275199 0.303248 
0.306162 0.273278 0.274111 0.312719 0.268702 0.254426 0.308566 0.282101 0.280961 
0.316867 0.317319 0.316447 0.309992 0.310632 0.246909 0.272925 0.309073 0.309201 
0.271904 0.249178 0.239067 0.232706 0.266905 0.269142 0.270797 0.272118 0.265267 
0.282233 0.256372 0.26546 0.226001 0.302899 0.304706 0.368763 0.278692 0.302276 
0.316652 0.315623 0.322258 0.314263 0.313542 0.288382 0.286024 0.316827 0.300931 
0.299439 0.284772 0.283214 0.294936 0.291445 0.30924 0.314068 0.31011 0.283542 
0.28296 0.296997 0.283847 0.254511 0.231781 0.308225 0.310851 0.387987 0.346066 
0.345442 0.277517 0.275711 0.307667 0.307604 0.307627 0.307633 0.302585 0.317903 
0.318566 0.28452 0.296425 0.298744 0.301678 0.279809 0.280656 0.279059 0.281953 
0.282671 0.299449 0.282466 0.308548 0.272965 0.296268 0.297912 0.3327 0.284505 
0.29487 0.268634 0.271444 0.301091 0.305922 0.301459 0.308307 0.31019 0.309652 
0.309743 0.263299 0.311151 0.311822 0.327557 0.325212 0.27881 0.263209 0.280176 
0.275473 0.279504 0.274297 0.280253 0.279047 0.279434 0.258644 0.290825 0.289988 
0.284621 0.328472 0.277102 0.278367 0.309489 0.297231 0.279011 0.282039 0.331928 
0.323963 0.30557 0.299966 0.305332 0.303667 0.277675 0.298311 0.304417 0.28397 
0.274611 0.276193 0.277212 0.387049 0.380752 0.293836 0.296997 0.29777 0.269446 
0.263343 0.309636 0.309979 0.313222 0.31516 0.290756 0.289366 0.29072 0.286575 
0.271216 0.270777 0.273053 0.277168 0.297269 0.292097 0.286463 0.269134 0.295129 
0.293371 0.293969 0.318367 0.329998 0.292127 0.287793 0.29086 0.278437 0.280619 
0.27925 0.308479 0.301059 0.30692 0.307419 0.307686 0.306736 0.309404 0.317547 
0.317991 0.317652 0.26663 0.317113 0.317173 0.284178 0.315158 0.315885 0.267893 
0.250915 0.251021 0.258001 0.30196 0.301171 0.285893 0.286598 0.321989 0.320406 
0.280607 0.281139 0.287159 0.282187 0.279148 0.322131 0.297797 0.310168 0.330401 
0.290669 0.271941 0.26715 0.270203 0.286877 0.244861 0.325395 0.328627 0.302783 
0.301987 0.311568 0.304185 0.29927 0.269393 0.278736 0.298376 0.297081 0.297471 
0.293901 0.292541 0.268351 0.316007 0.321674 0.322188 0.281529 0.278041 0.280312 
0.281233 0.335107 0.298702 0.296337 0.290814 0.296278 0.290608 0.287448 0.313356 
0.313445 0.284846 0.275116 0.274063 0.27928 0.274388 0.315581 0.315941 0.316632 
0.418424 0.258742 0.294694 0.292574 0.283838 0.28569 0.269294 0.266091 0.272422 
0.33095 0.301671 0.27199 0.31043 0.291957 0.292987 0.292159 0.274455 0.273501 
0.222503 0.316096 0.295404 0.296674 0.296557 0.310488 0.302778 0.299171 0.30707 
0.296081 0.27319 0.304578 0.276945 0.282103 0.284718 0.301616 0.29084 0.287725 
0.289082 0.290349 0.293751 0.281626 0.289756 0.287536 0.218669 0.271984 0.273217 
0.339105 0.274919 0.30365 0.27195 0.268305 0.268398 0.271671 0.291965 0.268615 
0.272017 0.300162 0.307712 0.286669 0.293519 0.300528 0.304709 0.310451 0.260279 
0.317938 0.28661 0.288478 0.287214 0.248689 0.239912 0.299366 0.308353 0.317798 
0.317895 0.317762 0.316183 0.289953 0.261957 0.275962 0.281138 0.295441 0.294915 
0.309617 0.309832 0.292062 0.28792 0.286731 0.290711 0.28974 0.290634 0.294227 
0.305247 0.301376 0.244102 0.29807 0.29622 0.269892 0.299793 0.286888 0.284339 
0.236119 0.250953 0.268162 0.23904 0.286951 0.28534 0.286955 0.2898 0.289344 
0.291219 0.279186 0.280078 0.282606 0.303792 0.2964 0.306562 0.304432 0.304113 
0.3063 0.298765 0.291038 0.291373 0.263225 0.283906 0.315116 0.315114 0.315818 
0.252263 0.258178 0.27291 0.291656 0.251958 0.286586 0.299361 0.292548 0.304884 
0.287408 0.302257 0.262015 0.254092 0.259922 0.280175 0.259324 0.259079 0.287263 
0.288678 0.286289 0.286328 0.289378 0.26879 0.270008 0.269389 0.287661 0.286145 
0.319455 0.30953 0.3308 0.271597 0.272611 0.324153 0.329206 0.270474 0.272837 
0.20561 0.292156 0.291691 0.290258 0.293946 0.282412 0.282455 0.28356 0.289243 
0.308837 0.309015 0.279455 0.281927 0.308789 0.308346 0.308294 0.307817 0.269207 
0.306296 0.317841 0.314848 0.321267 0.318132 0.30296 0.29974 0.288729 0.324895 
0.29264 0.290921 0.283589 0.282939 0.281459 0.288082 0.288314 0.287584 0.290273 
0.252948 0.266602 0.271002 0.268029 0.272283 0.280819 0.278401 0.2811 0.28546 
0.279323 0.276981 0.276898 0.277153 0.273062 0.281526 0.279828 0.28061 0.296731 
0.285754 0.355481 0.382032 0.311788 0.310808 0.31231 0.314687 0.313389 0.314998 
0.31393 0.298526 0.300108 0.341959 0.302998 0.311721 0.312378 0.301286 0.309156 
0.261607 0.284139 0.286322 0.2916 0.292974 0.292973 0.294523 0.279865 0.265907 
0.286785 0.285421 0.2856 0.284452 0.29127 0.283188 0.283415 0.297472 0.309348 
0.308729 0.309264 0.295556 0.360592 0.288453 0.288271 0.304345 0.300683 0.293957 
0.281242 0.300456 0.301359 0.277313 0.292545 0.263783 0.263092 0.273382 0.273058 
0.277534 0.301853 0.298202 0.313856 0.270097 0.267921 0.27423 0.291973 0.290066 
0.29566 0.294056 0.297452 0.29847 0.297411 0.29563 0.402908 0.276101 0.268527 
0.268911 0.269578 0.280844 0.319433 0.321038 0.314353 0.297585 0.298568 0.301647 
0.303169 0.297415 0.294815 0.21184 0.318532 0.269223 0.299385 0.283215 0.284385 
0.275401 0.303859 0.302813 0.289275 0.293247 0.291095 0.273874 0.27569 0.274733 
0.272009 0.279468 0.28144 0.2865 0.296657 0.269759 0.307852 0.286704 0.306489 
0.304223 0.303515 0.310853 0.336046 0.329517 0.317598 0.31732 0.317779 0.317502 
0.278618 0.289149 0.275334 0.275199 0.277227 0.279507 0.276841 0.269906 0.290421 
0.286933 0.31184 0.276465 0.297052 0.290308 0.288578 0.289001 0.294884 0.273235 
0.26594 0.287609 0.302433 0.305093 0.306072 0.308911 0.330457 0.340413 0.335224 
0.344819 0.261198 0.310907 0.298889 0.29992 0.303619 0.294111 0.282248 0.278301 
0.28096 0.315153 0.289623 0.297834 0.271515 0.281067 0.284347 0.292877 0.291596 
0.292436 0.318425 0.318373 0.288666 0.293123 0.275328 0.308371 0.288707 0.288337 
0.288339 0.290135 0.307425 0.293336 0.28379 0.294939 0.283798 0.29139 0.291098 
0.292549 0.299469 0.275353 0.277634 0.280819 0.291436 0.29288 0.28295 0.289461 
0.291171 0.290962 0.28703 0.283341 0.283223 0.311355 0.288555 0.281784 0.28492 
0.285434 0.273228 0.268476 0.293931 0.247091 0.273159 0.264586 0.26858 0.276199 
0.279428 0.297828 0.298888 0.296618 0.274652 0.295407 0.26865 0.263293 0.292657 
0.291189 0.295698 0.294145 0.305636 0.304212 0.29275 0.292518 0.282047 0.270587 
0.318271 0.300712 0.296788 0.319605 0.285736 0.300476 0.314562 0.27082 0.265394 
0.267358 0.320095 0.307103 0.318059 0.305918 0.301145 0.273291 0.244596 0.24525 
0.288503 0.278663 0.299232 0.300572 0.298872 0.304493 0.307961 0.308208 0.338652 
0.287671 0.287668 0.288859 0.278296 0.276551 0.285641 0.284761 0.250499 0.280175 
0.281141 0.281303 0.273808 0.303 0.293299 0.269567 0.272773 0.314716 0.314019 
0.278701 0.265902 0.264158 0.288158 0.282867 0.278007 0.281328 0.291975 0.290073 
0.286872 0.289615 0.286718 0.30116 0.228592 0.282401 0.286894 0.292401 0.319867 
0.313264 0.28061 0.218781 0.242317 0.199119 0.239033 0.236795 0.357315 0.291934 
0.300896 0.299543 0.31626 0.261629 0.29438 0.319742 0.278054 0.278419 0.280813 
0.298837 0.297686 0.211605 0.293731 0.338708 0.338728 0.307683 0.297278 0.287726 
0.318037 0.291407 0.306106 0.304584 0.303557 0.298282 0.299189 0.291452 0.29868 
0.296539 0.300323 0.296849 0.30051 0.295346 0.316496 0.314674 0.292799 0.283015 
0.294839 0.292652 0.294405 0.293139 0.3121 0.312738 0.306492 0.288083 0.284646 
0.322527 0.262298 0.275234 0.231279 0.29561 0.285347 0.283522 0.289634 0.31599 
0.373523 0.318866 0.281468 0.289917 0.303106 0.283801 0.287543 0.317 0.287091 
0.292403 0.294579 0.318271 0.320147 0.307873 0.301379 0.306405 0.286531 0.22685 
0.314554 0.286313 0.285446 0.313302 0.274225 0.271312 0.26331 0.220574 0.274487 
0.280269 0.312279 0.297356 0.235699 0.30643 0.309175 0.316338 0.404406 0.308026 
0.287902 0.290423 0.27474 0.27494 0.293869 0.316323 0.31578 0.31652 0.316046 
0.303852 0.30278 0.286711 0.283837 0.291031 0.291044 0.29452 0.296229 0.293358 
0.306093 0.313151 0.319111 0.311921 0.276197 0.265472 0.316334 0.315961 0.272278 
0.306346 0.232208 0.276351 0.272809 0.253412 0.304594 0.259823 0.257574 0.288093 
0.288195 0.287755 0.287971 0.276356 0.265113 0.272153 0.329825 0.328403 0.326103 
0.244678 0.288581 0.293358 0.316744 0.316309 0.281105 0.259231 0.296488 0.297588 
0.295977 0.294809 0.296552 0.251847 0.243092 0.27119 0.289268 0.29011 0.289769 
0.279731 0.307233 0.306925 0.27094 0.260291 0.271845 0.260076 0.219186 0.227011 
0.316096 0.275163 0.29094 0.28993 0.187385 0.4488 0.436508 0.286114 0.288472 
0.288142 0.290424 0.247937 0.256992 0.248207 0.393251 0.359462 0.284268 0.292111 
0.294108 0.290861 0.319188 0.278868 0.276286 0.285019 0.284499 0.283429 0.279794 
0.282635 0.283989 0.287657 0.293729 0.294274 0.257092 0.296473 0.287131 0.286291 
0.298361 0.265232 0.264373 0.330678 0.323336 0.306708 0.278545 0.276527 0.283535 
0.286345 0.286162 0.288834 0.293828 0.301277 0.293483 0.292391 0.292512 0.292129 
0.256662 0.287903 0.279472 0.282728 0.285323 0.312006 0.303688 0.283714 0.299826 
0.29006 0.296637 0.205905 0.28162 0.296651 0.266117 0.246955 0.236164 0.290762 
0.277363 0.307327 0.28865 0.289084 0.283091 0.281984 0.275788 0.280412 0.328022 
0.317005 0.30931 0.31671 0.288331 0.287826 0.267578 0.268568 0.266809 0.340993 
0.263509 0.268215 0.258077 0.310488 0.287668 0.251624 0.284406 0.307748 0.312748 
0.308753 0.272635 0.247635 0.269848 0.264112 0.291224 0.299137 0.30605 0.31837 
0.406543 0.295539 0.343232 0.312913 0.287859 0.286461 0.287754 0.312032 0.283668 
0.284487 0.285137 0.317662 0.274067 0.304443 0.295129 0.289978 0.309257 0.311799 
0.290534 0.27874 0.297638 0.280924 0.295782 0.290579 0.246205 0.358487 0.294806 
0.292776 0.289036 0.290322 0.310028 0.308981 0.311372 0.308751 0.31753 0.298323 
0.28338 0.283225 0.288429 0.290396 0.289141 0.30708 0.289078 0.28943 0.297937 
0.314788 0.282037 0.281505 0.275196 0.282498 0.278861 0.283941 0.291325 0.321009 
0.269622 0.259979 0.325778 0.304161 0.315418 0.27343 0.258091 0.307697 0.307881 
0.322154 0.288999 0.290664 0.298364 0.318716 0.271075 0.324261 0.32055 0.277195 
0.354068 0.282936 0.299374 0.29725 0.289142 0.287972 0.318669 0.290652 0.254579 
0.298436 0.279897 0.315339 0.314483 0.301263 0.300792 0.276453 0.291802 0.29157 
0.289413 0.250626 0.303624 0.303687 0.410348 0.296185 0.319573 0.318833 0.297318 
0.30702 0.307026 0.337817 0.290099 0.289026 0.290307 0.297101 0.294563 0.289963 
0.291823 0.29075 0.274811 0.290677 0.22539 0.275049 0.222069 0.229414 0.250934 
0.293386 0.276039 0.294492 0.278347 0.29749 0.268337 0.298354 0.277306 0.277982 
0.27734 0.29832 0.280084 0.25883 0.278497 0.277005 0.283836 0.286541 0.290651 
0.279623 0.275301 0.315019 0.300446 0.277623 0.308111 0.307913 0.305716 0.294528 
0.31078 0.315323 0.280213 0.285864 0.316801 0.296583 0.312777 0.315148 0.299794 
0.319846 0.292238 0.313938 0.314707 0.315505 0.315292 0.285941 0.273425 0.275452 
0.271931 0.314608 0.230701 0.281607 0.304586 0.296944 0.303962 0.306016 0.308629 
0.397362 0.289229 0.344454 0.285124 0.264719 0.267399 0.269249 0.299845 0.301525 
0.325161 0.275163 0.27595 0.277263 0.275885 0.277117 0.293525 0.278707 0.292225 
0.28948 0.271938 0.287423 0.285142 0.287781 0.299052 0.289864 0.306899 0.307233 
0.318043 0.270778 0.270668 0.297108 0.283057 0.308365 0.286586 0.265988 0.292366 
0.293436 0.290552 0.302486 0.301177 0.294147 0.283334 0.296928 0.285602 0.302319 
0.291188 0.452063 0.272454 0.272289 0.294355 0.199345 0.295296 0.295275 0.296913 
0.363548 0.327219 0.342081 0.336442 0.294422 0.26906 0.313854 0.270992 0.311894 
0.311117 0.308179 0.326301 0.313745 0.286243 0.27712 0.31253 0.293042 0.291868 
0.311663 0.315991 0.307673 0.312136 0.31813 0.308433 0.308191 0.313917 0.28007 
0.290742 0.292565 0.28556 0.282616 0.300059 0.300227 0.286494 0.304084 0.223928 
0.287351 0.290073 0.307335 0.293278 0.272439 0.273169 0.275803 0.276259 0.281572 
0.28229 0.281509 0.298821 0.296004 0.30787 0.292199 0.282426 0.274036 0.27209 
0.304666 0.295368 0.270013 0.263429 0.263157 0.27483 0.300334 0.274044 0.289503 
0.291933 0.290181 0.270493 0.27749 0.260541 0.274189 0.305652 0.319587 0.300191 
0.299635 0.27961 0.281077 0.286611 0.285892 0.32599 0.294128 0.306043 0.26068 
0.268577 0.294429 0.313333 0.178806 0.282824 0.322444 0.305052 0.280171 0.31234 
0.418093 0.407249 0.301773 0.282405 0.298675 0.297535 0.310203 0.309907 0.275116 
0.292196 0.291968 0.291242 0.297014 0.279522 0.324102 0.284898 0.271012 0.284758 
0.321822 0.287736 0.299729 0.295547 0.279743 0.286838 0.303378 0.284483 0.323923 
0.318008 0.310142 0.312902 0.33848 0.317894 0.328721 0.321379 0.299001 0.302307 
0.306551 0.315723 0.319144 0.313858 0.299771 0.334637 0.291886 0.269408 0.314539 
0.280757 0.266034 0.273605 0.282591 0.370176 0.285124 0.282673 0.280028 0.287882 
0.284864 0.286958 0.274718 0.293076 0.291378 0.285629 0.280622 0.294471 0.264112 
0.307615 0.270795 0.276821 0.302859 0.312545 0.316786 0.315058 0.278598 0.278261 
0.283858 0.283643 0.2818 0.286964 0.285507 0.288299 0.289612 0.287762 0.289269 
0.287255 0.345997 0.312532 0.313301 0.289623 0.287084 0.316694 0.317296 0.269127 
0.295511 0.299341 0.295954 0.316857 0.290901 0.278239 0.319116 0.283651 0.314162 
0.323497 0.295028 0.314858 0.291339 0.314566 0.320202 0.252645 0.272349 0.274015 
0.245328 0.317364 0.307546 0.307724 0.298718 0.311233 0.313453 0.292672 0.298229 
0.292222 0.29607 0.299168 0.316525 0.276889 0.268643 0.307942 0.305682 0.281822 
0.289596 0.306405 0.28026 0.229646 0.293344 0.28778 0.287498 0.275245 0.297821 
0.304156 0.270149 0.291517 0.304416 0.259896 0.225342 0.25881 0.256867 0.265818 
0.271202 0.286912 0.30249 0.314771 0.314588 0.244613 0.252022 0.307842 0.29952 
0.287326 0.302435 0.30297 0.305925 0.290831 0.294049 0.278109 0.337989 0.308575 
0.228075 0.283169 0.286526 0.283064 0.307924 0.303717 0.307198 0.304646 0.304956 
0.295164 0.152697 0.289536 0.28896 0.558534 0.288179 0.289001 0.140505 0.153661 
0.156889 0.327016 0.28833 0.319313 0.288548 0.16622 0.278731 0.217817 0.150826 
0.287911 0.276272 0.293236 0.35241 0.316773 0.294987 0.202245 0.196794 0.207611 
0.156853 0.298158 0.175243 0.179324 0.301781 0.316797 0.159127 0.28946 0.287743 
0.307731 0.201407 0.291103 0.297673 0.292641 0.207909 0.214879 0.105734 0.269748 
0.279179 0.282201 0.298443 0.286584 0.286012 0.275436 0.274607 0.219576 0.300841 
0.296505 0.26022 0.318096 0.317512 0.307799 0.323922 0.269197 0.197004 0.275907 
0.218068 0.288882 0.235719 0.220633 0.257796 0.253376 0.357674 0.282815 0.267645 
0.245158 0.237256 0.284554 0.186747 0.191024 0.310329 0.342426 0.175956 0.192061 
0.248135 0.265886 0.336217 0.317141 0.216018 0.297253 0.307469 0.181015 0.200839 
0.206074 0.168018 0.170144 0.300255 0.305508 0.185372 0.213463 0.165108 0.29507 
0.304526 0.190883 0.185243 0.160431 0.149304 0.228253 0.277333 0.251526 0.285537 
0.304531 0.295539 0.290998 0.191206 0.319495 0.204149 0.303372 0.272687 0.165338 
0.177728 0.172797 0.3062 0.328517 0.220652 0.244904 0.232366 0.281291 0.141857 
0.307645 0.307702 0.307682 0.171279 0.221582 0.212455 0.224849 0.168828 0.183325 
0.164554 0.25224 0.236523 0.269685 0.211665 0.2215 0.203738 0.210638 0.202841 
0.204439 0.1867 0.181362 0.217267 0.23511 0.233438 0.24479 0.189501 0.187465 
0.176312 0.175456 0.196372 0.194277 0.16065 0.176058 0.19417 0.222691 0.191202 
0.192191 0.215866 0.209242 0.141565 0.246748 0.236071 0.16201 0.206956 0.252841 
0.197086 0.248035 0.213479 0.154973 0.161409 0.25289 0.218793 0.20143 0.159053 
0.169045 0.183338 0.161676 0.154363 0.183744 0.15146 0.159655 0.168778 0.172988 
0.21963 0.277279 0.255726 0.211455 0.172108 0.157978 0.252382 0.155606 0.177454 
0.162076 0.177034 0.164007 0.1821 0.160961 0.176229 0.183221 0.189869 0.20549 
0.224458 0.18989 0.200767 0.189384 0.206315 0.209703 0.202784 0.247866 0.231734 
0.252109 0.215728 0.16233 0.203659 0.194974 0.220051 0.191887 0.218229 0.194146 
0.201969 0.218174 0.210845 0.144295 0.220785 0.239832 0.246898 0.208773 0.193283 
0.183935 0.173263 0.230886 0.177995 0.212784 0.193695 0.233966 0.183817 0.0543255 
0.138918 0.144878 
Strain%20yz%20component 1 13529 double
-0.132093 0.0833864 -0.133937 0.0725545 1.22487e-05 -1.15169e-05 1.13673e-05 -3.41915e-06 0.00684328 
-0.00786229 -0.0109063 -0.00492654 0.00581789 -0.00348741 0.00687604 -0.00574828 0.00773464 -0.00592958 
0.00630913 0.0103498 -0.00709391 0.00609721 0.00386289 0.00880014 -0.00476624 0.00946617 -0.0101049 
0.00424901 -0.0106387 0.0063292 -0.00934519 -0.00715994 -0.0028985 0.000163785 -0.0255877 0.0207799 
0.0257338 -0.0492094 -0.00511604 -0.000987571 0.00664902 0.000409991 -0.000277754 -0.000733806 -0.00133577 
0.0169305 0.0138582 0.0126981 0.0124253 0.00934288 0.0148059 0.0304256 -0.0228805 -0.019474 
-0.0265873 -0.0346354 -0.0349898 -0.00422002 -0.000146789 0.0023273 0.00118067 -0.00510444 -0.00894899 
-0.0104713 -0.0107277 -0.0104303 -0.0119743 -0.0101642 0.0148016 0.0203551 0.0219019 0.0308076 
-0.0166176 -0.018387 -0.0233026 -0.031058 0.0198353 0.0149309 0.0124858 0.0134929 0.0111305 
0.0105003 0.0124396 -0.00179114 0.000742371 0.000127315 -0.000453376 -0.0044902 0.0156021 0.0248317 
0.0279902 0.0345149 -0.018067 -0.0100385 -0.0150327 -0.0118301 -0.00932694 -0.0151526 -0.0182335 
-0.00681991 3.05186e-06 0.000369821 0.000188788 -0.000254916 0.0148541 0.0216446 0.0182058 0.0255953 
0.0240641 -0.0186336 -0.0133607 -0.00988704 -0.0124271 -0.0134357 -0.0151899 -0.0150522 -0.00300663 
-0.000574992 7.28454e-06 0.00101346 -0.000882113 -0.0182946 -0.0172141 -0.0278079 -0.044392 0.0112752 
0.0133128 0.0106934 0.0109154 0.0115373 0.013926 0.0246558 0.00351112 -7.18541e-05 -0.000231475 
-3.75786e-05 -0.00294855 -0.00255019 0.000211325 -0.000573853 0.00227911 -0.00263064 -0.0119224 -0.0165148 
-0.0103666 -0.0112661 -0.00971248 -0.0107649 -0.0117611 0.0238667 0.0257335 0.0228048 0.0489844 
0.00273473 0.000717831 -0.000288982 -0.000841878 -0.00521941 0.0200466 0.011107 0.0113509 0.0133014 
0.0119741 0.016419 0.0199903 -0.0142601 -0.0186298 -0.0193375 -0.02967 -0.0293837 0.0452117 
0.064885 0.0662971 0.0643238 0.0647116 0.0557637 0.066289 0.0664312 0.067069 0.0567617 
0.0668008 0.0681206 0.0678189 0.0560689 0.0526355 0.0566194 0.0666774 0.0657516 0.0542726 
0.0573339 0.0685199 0.0679493 0.0559387 0.0558754 -0.0920469 -0.113114 -0.0655268 -0.0640544 
-0.0643281 -0.0655451 -0.0955009 -0.0625377 -0.0644606 -0.0656314 -0.0656431 -0.0978092 -0.0644944 
-0.0667886 -0.0670194 -0.0657877 -0.0960752 -0.094143 -0.0939167 -0.0648067 -0.0645046 -0.0630562 
-0.0962481 -0.0941687 -0.067225 -0.0680151 -0.0678183 -0.115389 -0.119395 -2.52516e-05 8.26268e-06 
-2.53358e-05 -1.76936e-05 -1.00567e-05 -5.72257e-06 -3.86764e-06 1.14227e-06 9.19931e-06 9.98079e-06 1.66943e-05 
2.39554e-05 2.95429e-05 2.56483e-05 -1.17725e-05 2.69539e-05 2.17592e-05 1.51268e-05 1.08582e-05 7.40389e-06 
1.54412e-06 -2.50661e-06 5.80298e-06 -7.80483e-06 -1.57796e-05 -1.65691e-05 -2.18814e-05 -1.77681e-05 7.61898e-06 
0.0401038 0.00134867 -0.000510016 -0.000120121 -0.00014987 -6.96345e-05 1.07402e-05 -3.15461e-05 1.23207e-06 
-1.23627e-05 -2.75708e-05 -8.73591e-06 -2.29568e-05 -8.91943e-06 -3.75003e-05 -5.41545e-05 -4.1674e-05 -4.98151e-05 
-5.31772e-05 -4.65742e-05 -7.37051e-05 2.31021e-05 3.58199e-05 5.10151e-05 6.49441e-05 5.05211e-05 8.59663e-05 
3.33339e-05 3.1293e-05 2.19988e-05 2.78115e-05 -4.55519e-06 -2.49676e-06 1.71542e-06 -5.61039e-06 -2.28229e-05 
-1.64628e-05 -2.43606e-05 -1.55967e-05 -1.88605e-05 -1.71788e-05 -1.92678e-05 -1.5548e-05 2.27919e-05 3.69803e-05 
2.12082e-07 1.67566e-05 6.51713e-06 -1.688e-06 -6.4851e-06 -1.67629e-05 -1.87366e-05 -1.02835e-05 -1.0114e-05 
-1.27104e-05 -8.02715e-06 -3.49382e-06 2.50445e-06 1.0414e-05 1.971e-05 -8.25381e-06 -8.60901e-06 3.27427e-05 
2.86174e-05 2.57959e-05 3.48939e-05 5.24188e-05 2.0713e-07 -6.72503e-06 -2.12428e-05 -5.0184e-05 -7.1956e-05 
-5.65421e-05 -4.7393e-05 -5.33407e-05 -7.20663e-05 -5.90316e-05 -4.0176e-05 -5.76396e-05 -7.49188e-05 -7.1534e-05 
-0.000109763 -7.01075e-05 -0.000130491 -0.000230695 -0.000290783 -0.000271575 -0.000470724 0.00272829 0.0385633 
0.0104959 0.00986268 0.0120324 0.0110469 0.0107076 0.0108871 0.0112523 0.0123908 0.0152613 
0.0177696 0.0203598 0.0173092 0.0117504 0.0105641 0.0101833 0.0101433 0.0108603 0.0110476 
0.00737953 0.0110276 -0.0112032 -0.00832362 -0.0102791 -0.00980544 -0.00949189 -0.00837241 -0.00858395 
-0.00900925 -0.0108237 -0.0152088 -0.0173667 -0.0144294 -0.01104 -0.00887529 -0.00921503 -0.0101312 
-0.0118445 -0.012353 -0.0082682 -0.0132642 -8.00914e-06 8.5597e-06 8.68687e-06 3.93583e-06 -4.63197e-06 
2.20117e-06 -2.75006e-06 4.69463e-06 -3.49957e-06 -8.66264e-06 5.96108e-06 9.46496e-06 -8.54447e-06 -3.77078e-06 
4.89946e-06 -2.78334e-06 1.49165e-06 -8.24948e-06 3.23612e-06 5.84776e-06 4.13408e-06 -8.04701e-07 -7.76115e-06 
-0.0352794 0.000343409 0.000190999 6.68037e-06 9.2125e-05 6.14695e-05 3.99909e-05 6.46449e-05 4.05233e-05 
6.87815e-05 5.58506e-05 7.85274e-05 6.91541e-05 0.000114838 9.39028e-05 9.83299e-05 3.93301e-05 5.5932e-06 
-3.96473e-05 -4.39691e-05 -6.30976e-05 -5.98499e-05 -3.45742e-05 -3.25113e-05 -1.54542e-05 -1.59938e-05 8.48927e-06 
6.80322e-06 8.3001e-06 1.15292e-05 1.1879e-05 1.79406e-05 1.09371e-05 7.4427e-06 -1.17993e-06 2.1215e-07 
7.17263e-06 -3.18407e-05 4.61582e-07 1.00799e-05 7.62034e-06 1.50526e-05 9.64276e-06 1.20695e-05 8.48606e-06 
8.65462e-07 -6.62198e-06 -5.37555e-06 -1.70002e-05 -1.00363e-05 -4.47169e-05 -5.14355e-05 -5.04788e-05 -4.87242e-05 
-2.31211e-05 2.45818e-06 2.11464e-05 2.4487e-05 5.27672e-05 5.72085e-05 3.91242e-05 2.18657e-05 1.80131e-05 
1.46462e-05 -1.6369e-06 -2.63549e-05 -1.60528e-05 -3.2611e-05 -7.20086e-05 -7.05252e-05 -0.000265987 -0.000412192 
-0.0316295 -0.00927883 -0.00881943 -0.0132592 -0.00905655 -0.0100371 -0.0106483 -0.0138159 -0.0140982 
-0.0139321 -0.0252681 -0.0252534 -0.0154359 -0.0112603 -0.00986011 -0.00953039 -0.00944774 -0.00882762 
-0.00888692 -0.0128325 -0.0102988 0.0120022 0.0111349 0.0101307 0.00954967 0.00963171 0.0120004 
0.0140729 0.0167303 0.0184932 0.0155013 0.0168835 0.0121256 0.0156324 0.0117048 0.00832805 
0.00927677 0.0115287 0.0105842 0.0086473 0.0013797 -0.000433284 -0.000878686 -0.000930116 0.00261407 
0.00848802 -0.000500183 -0.00917954 0.00447203 0.000273274 -4.00678e-05 0.00511547 0.00382979 -0.00257633 
-0.00558635 -0.00055872 -0.00303345 0.00592452 0.0039062 -0.00368003 -0.0087844 -0.00152398 0.000850197 
0.00394306 -0.00174097 -0.000651637 -0.000801744 -0.00392054 -0.000784514 0.0025771 0.00348648 -3.19528e-05 
-0.00924765 -0.00364399 -0.000252133 0.00537608 0.00148887 0.000871104 -0.00436406 -0.00619081 -0.00260572 
0.000684467 0.00379561 0.0027405 -0.000811712 -0.00255161 0.00567645 0.00174403 0.000532465 0.00268558 
0.0031686 -0.00640259 -0.00475756 0.00569286 -0.00303275 -0.00218152 -0.00147076 -0.000370492 -0.00451967 
0.000737829 0.00313438 0.00101685 -0.00360892 0.000878044 -0.00543348 0.00662893 -0.00052597 6.20427e-05 
-0.00164611 0.0141359 0.00162236 -0.00288897 -0.00333907 0.00509518 0.00524447 -0.00575633 -0.00101197 
-5.6027e-06 1.33156e-06 -2.0863e-06 2.51503e-06 6.17449e-06 6.69456e-06 3.24376e-06 -2.88052e-06 -9.46758e-06 
-1.05033e-05 -4.41569e-06 -3.27738e-06 -1.03862e-05 2.91672e-07 -1.23303e-05 -2.97958e-06 -4.38983e-06 -1.0222e-05 
-7.41852e-06 -3.52301e-06 5.05627e-07 7.01009e-06 -3.00875e-06 2.12883e-06 1.52958e-06 5.11234e-06 6.714e-06 
-4.24455e-06 2.8884e-05 0.00569526 0.000860744 8.38841e-05 9.04814e-05 -1.8574e-05 -2.15494e-05 1.35058e-06 
5.03175e-06 1.06566e-05 -7.82205e-06 -8.9781e-06 7.70692e-06 2.30082e-06 4.54582e-06 -1.45638e-05 6.25977e-06 
1.15909e-06 2.13196e-06 -1.70486e-06 -2.34586e-05 4.1299e-06 2.05841e-05 9.94329e-06 -6.44611e-06 -2.64608e-06 
-1.52988e-07 -1.02172e-05 -8.74666e-06 -5.96067e-06 6.79576e-06 7.36241e-06 -9.55693e-06 -6.27619e-06 4.35649e-07 
3.41163e-06 1.57266e-06 -3.95189e-06 6.25315e-06 4.44953e-06 5.28651e-06 -1.34014e-06 -2.46991e-06 1.67079e-07 
1.06729e-06 -3.36737e-06 -9.53878e-06 -4.9696e-06 1.57888e-06 2.08445e-06 -1.75257e-06 2.93967e-06 2.16197e-06 
-2.95357e-06 -3.47142e-06 3.25688e-07 2.80066e-06 1.01389e-05 -1.15511e-05 -1.21351e-05 1.30161e-05 2.67717e-05 
6.99279e-06 4.53479e-06 1.06588e-05 2.16022e-05 -4.89284e-06 -3.26112e-05 -3.18096e-06 6.87459e-06 8.79784e-06 
-1.56714e-05 -1.68346e-06 -1.39986e-06 -1.50073e-05 -1.73719e-06 1.56132e-05 -5.37948e-06 -4.58776e-06 7.22656e-07 
9.28302e-06 3.26626e-05 -3.61133e-05 -3.4264e-05 4.74141e-05 0.000200385 0.000148214 0.000289925 0.00260892 
0.0154746 0.0110133 0.00735906 0.00695209 0.0073503 0.00808217 0.0129519 0.00579419 0.00732535 
0.00676242 0.00802034 0.0131197 0.00708651 0.00708014 0.00744203 0.00981755 0.0139035 0.0078013 
0.0102142 0.00811115 0.00686458 0.00871094 0.0119967 0.00944337 0.00807212 0.00785698 0.0113561 
0.011898 0.00110057 -0.00205101 -0.00174971 -0.00578274 -0.00301194 -0.00190054 -0.00148337 -0.00663154 
-0.00895676 -0.00471832 -0.00191466 -0.014962 -0.00780761 -0.00175011 -0.0025115 -0.00251328 -0.0020441 
-0.00286157 -0.00655998 -0.00645891 -0.00447283 0.00253356 0.00118079 0.00537119 0.00321563 0.00253287 
0.00252584 0.00256695 0.00215467 0.00230761 0.00119461 0.00999343 0.0141606 0.00920325 0.0100024 
0.00622186 0.00556937 0.00455786 0.0023845 0.00580216 0.00615904 0.00422878 0.000125607 -0.000867053 
0.00170435 -0.0130037 -0.00591796 -0.00160351 0.00601717 -0.000149347 2.44253e-06 5.54516e-06 3.79923e-06 
-4.42973e-06 4.71061e-06 1.53891e-07 -8.00259e-06 5.1296e-06 -6.18636e-06 -1.02307e-05 -1.35509e-05 4.92929e-06 
-4.84648e-07 -1.43349e-05 -9.60515e-06 -4.6543e-06 4.70552e-06 -4.22626e-06 -3.42142e-06 4.45506e-06 -3.69006e-06 
-1.99258e-06 1.23494e-06 3.2006e-06 4.76021e-07 -5.52228e-06 -0.0004826 -0.000419183 8.02615e-05 9.73617e-05 
-9.70544e-06 -7.8701e-06 2.74241e-05 -3.15582e-07 1.22757e-05 -8.44303e-06 -6.65018e-06 -8.41158e-07 -3.38036e-07 
7.30915e-06 -1.24015e-05 5.66474e-06 7.90382e-06 -1.3532e-05 1.00409e-06 7.16368e-06 1.29882e-05 1.48561e-05 
-1.3678e-05 -6.91029e-07 -1.56725e-05 -1.32895e-06 -1.74716e-07 7.59385e-06 -1.17002e-06 8.50985e-06 -1.70951e-06 
-2.7933e-06 -4.28818e-06 1.8776e-06 5.45978e-07 1.29424e-06 1.77716e-06 2.69301e-06 2.66508e-06 2.92629e-06 
-2.50309e-06 -4.05432e-06 6.88232e-06 0.00204425 0.00150301 -3.83298e-06 -1.32059e-06 3.23766e-08 -3.17741e-06 
1.71824e-06 3.61527e-06 1.6704e-06 1.42624e-06 -4.42655e-06 5.59727e-07 -4.17152e-07 5.87314e-06 4.93255e-06 
8.91168e-07 2.09391e-06 2.54958e-06 3.86801e-06 -2.22244e-06 3.40738e-06 7.55755e-06 -1.85257e-07 -9.02807e-06 
-2.19313e-06 -8.82124e-06 2.21671e-06 3.78456e-06 1.0246e-06 3.47836e-06 -9.8845e-06 -1.85682e-06 5.38233e-06 
3.87102e-06 -1.10562e-05 4.92777e-06 -6.54437e-06 3.30805e-05 1.56015e-05 -3.82544e-05 1.00737e-05 0.000137618 
0.000109962 -8.37284e-05 0.000310828 -0.000622542 -0.00106082 -0.000341258 -0.000833294 0.00208093 -0.000759129 
-0.000177236 -0.000383949 -0.00082531 0.00158672 -0.000211384 -0.000994466 -0.00021783 -0.000996708 0.00165393 
0.00265327 0.00179798 -0.00108948 -0.000175885 -0.00107888 0.00182639 0.00283337 -0.000757419 -1.23224e-06 
-0.00102187 -0.000152365 -0.000932767 7.04756e-05 -0.000159234 0.000144279 0.000231414 2.35908e-05 0.000201071 
-0.000106987 -0.00113698 -8.07759e-05 0.000126189 -0.000838022 8.62802e-05 0.000306857 0.000188487 -0.000149572 
-0.00029135 -4.54907e-05 0.000111987 -0.000312003 -0.000289851 -0.000141756 -1.67832e-06 -0.000326453 3.93498e-05 
-2.91938e-06 -5.41354e-05 5.30935e-05 4.45881e-05 0.00046243 -0.000462275 0.000279868 0.000267271 9.07362e-05 
-0.000116588 3.56759e-05 0.000251552 -2.45601e-05 -0.000133453 0.000277801 1.71963e-06 -0.00028657 0.000167142 
0.000216349 -0.000512418 -3.42e-05 0.00044051 -1.00934e-05 2.72957e-06 -6.34932e-06 4.6634e-07 -4.30077e-06 
2.69715e-06 1.3643e-06 4.92203e-07 -1.76926e-05 -1.10585e-06 6.07525e-06 3.62991e-07 -1.52651e-05 7.12403e-07 
1.12066e-06 2.73513e-06 -2.92352e-06 5.22398e-06 -8.57656e-08 4.08947e-07 -1.97733e-07 2.38708e-06 1.11475e-06 
-7.17562e-07 -5.80736e-05 1.27011e-05 -2.53377e-05 -0.000169787 9.44378e-05 9.93405e-06 4.18924e-05 -1.20098e-05 
7.05299e-06 -2.28158e-05 6.76114e-06 9.67485e-06 -7.72063e-06 1.03773e-05 -1.76914e-05 -2.82309e-07 -8.79415e-07 
-1.88526e-06 -1.52442e-06 -1.57098e-05 -2.06913e-05 4.10716e-06 -2.52051e-05 -2.38614e-05 4.83042e-06 7.02326e-06 
2.61672e-06 9.73606e-06 1.23418e-06 -4.49488e-06 4.1744e-09 9.69478e-07 9.09371e-07 1.31926e-06 1.0839e-06 
-1.30276e-06 -4.60052e-06 -2.59725e-07 6.89578e-07 5.23596e-06 -8.14647e-07 -1.11513e-06 2.11988e-06 -1.66263e-06 
2.06286e-05 -1.09556e-06 -6.23602e-06 -1.49931e-06 2.47174e-06 4.74684e-06 1.34081e-06 -2.41439e-07 -3.42416e-06 
1.73308e-06 2.30375e-06 5.38574e-06 -7.60149e-07 4.69741e-06 5.13143e-06 1.88083e-06 -3.03425e-06 1.2076e-06 
1.48374e-05 -2.11224e-06 -1.38668e-05 -5.23074e-06 1.52931e-07 -1.49662e-05 -1.75362e-06 2.70417e-06 1.35371e-05 
3.91701e-07 3.44856e-06 8.86553e-07 1.11777e-05 -2.67396e-08 2.63775e-07 9.07069e-06 5.89508e-06 2.42574e-05 
7.42306e-08 -3.19101e-05 0.000114399 0.000154024 -0.000146897 -0.000200359 -1.68325e-05 -0.000111592 -7.54507e-05 
-8.18368e-05 -2.07435e-05 -7.89157e-05 -0.000115687 -0.000128533 -5.17422e-05 -0.000136235 -5.16429e-05 -0.00010782 
-0.00011736 -0.000125544 -3.10968e-05 1.71658e-05 -9.94336e-05 -0.000110974 -0.000131063 -9.02264e-05 4.31144e-05 
-0.000118162 1.13237e-05 -5.09895e-05 3.59762e-05 3.01304e-05 9.60284e-06 -1.65099e-05 -3.42846e-05 2.39476e-05 
3.08211e-05 4.11379e-05 -1.45462e-05 3.20882e-05 4.27234e-05 -3.9235e-05 3.07287e-05 -0.000133192 -0.00013417 
-0.000174325 7.06982e-06 3.63791e-05 -3.36547e-06 4.03343e-05 9.20895e-06 -7.92824e-05 -6.16793e-05 -2.25643e-05 
-5.17901e-06 -5.61196e-05 -4.66718e-06 1.96872e-05 4.56628e-05 -3.18408e-05 -7.30789e-05 8.16599e-06 -2.29457e-05 
-0.000133324 7.34689e-05 -7.69742e-05 -6.02639e-05 0.000126655 -5.44158e-05 0.000188467 3.59792e-05 6.35e-05 
7.31326e-05 -3.81797e-06 -9.42883e-05 -0.000167448 6.40884e-05 7.40114e-07 -4.79579e-06 2.10562e-06 -1.73495e-06 
9.44584e-07 3.16077e-07 4.35972e-06 -2.5082e-06 -1.68687e-05 -1.02433e-06 4.1096e-06 5.14948e-06 5.30718e-07 
8.47598e-07 -3.0145e-06 2.4377e-06 3.86829e-06 -6.20844e-06 9.21822e-07 -4.22487e-06 1.63154e-06 1.41082e-06 
3.71958e-07 -2.89966e-06 1.77031e-06 -5.55943e-05 -2.08614e-06 4.32397e-06 -5.1862e-06 9.31135e-06 -6.54453e-06 
6.41351e-06 1.31655e-05 -6.62493e-06 -4.23857e-06 -1.37192e-06 8.01643e-06 -3.8995e-06 -1.49218e-05 -1.70211e-05 
-4.78385e-05 -7.91596e-06 8.19421e-06 1.16403e-05 -4.10736e-06 -5.65964e-06 3.52828e-07 6.5626e-06 6.83627e-07 
-1.00351e-05 -1.58372e-06 8.48588e-07 2.34178e-06 -1.05882e-06 -1.96776e-06 6.51528e-07 -2.32464e-06 -8.26161e-07 
5.08551e-06 1.28766e-06 -4.76107e-07 -1.11534e-06 -2.42899e-06 4.91721e-07 1.81802e-06 2.99755e-06 2.97523e-07 
1.41064e-05 2.5338e-06 1.19837e-05 3.32807e-06 -6.80588e-06 1.11462e-05 9.5869e-06 3.77101e-06 -1.30914e-05 
1.14444e-06 1.9373e-05 2.59988e-06 -2.47164e-06 -4.21649e-06 -8.6955e-07 2.91685e-06 -4.97896e-06 3.2249e-06 
6.97741e-07 2.95511e-05 8.42382e-06 -1.58141e-05 -7.00129e-06 5.23368e-05 1.20101e-05 5.79117e-05 2.90099e-05 
5.90366e-05 -1.59428e-05 1.41043e-05 -7.45747e-06 -2.04877e-05 -2.16326e-05 -1.6717e-05 -3.63054e-08 1.48648e-05 
3.95321e-06 -2.53585e-05 -2.0312e-05 -2.82334e-05 -1.8228e-05 -2.62071e-05 -3.17586e-05 -2.44774e-05 -3.24189e-05 
-8.41713e-06 4.15787e-07 -0.000163645 -2.05255e-05 9.12137e-07 -4.85071e-05 -4.52628e-05 -4.33785e-05 3.21802e-05 
3.29818e-06 0.000168686 -1.57038e-05 6.19589e-05 2.29852e-05 4.6099e-06 2.50279e-05 -5.79821e-05 4.52557e-05 
-3.06387e-05 2.17877e-05 2.55989e-05 2.44213e-05 1.25999e-05 -4.77443e-05 5.36093e-05 2.38006e-05 -4.94765e-05 
1.68274e-05 3.76142e-05 4.12742e-05 7.31288e-05 -4.43649e-05 -6.00993e-06 1.99598e-05 -2.2444e-05 7.9644e-06 
-7.48044e-06 -6.96534e-05 3.52882e-05 4.50853e-05 1.45866e-05 -0.000131986 1.11899e-05 3.62709e-05 1.28018e-05 
2.99303e-06 1.16744e-06 1.39147e-05 -4.92088e-06 1.55252e-06 -1.14376e-06 1.53848e-05 4.00042e-06 1.23267e-06 
-2.85488e-06 -1.34355e-05 1.47949e-05 -9.91099e-06 2.90108e-06 7.21349e-06 -2.4538e-06 1.08164e-05 -4.92337e-06 
1.95024e-06 1.09527e-06 5.23876e-06 -3.01664e-05 1.0951e-05 -1.8478e-06 2.57566e-05 -6.29036e-06 -3.68528e-06 
7.61899e-06 2.98655e-06 6.93214e-06 7.30305e-07 5.32208e-06 1.34649e-05 -4.69993e-06 -1.19335e-06 1.15451e-06 
7.97662e-06 1.0022e-05 -7.92473e-06 -2.29296e-05 -1.26224e-06 -4.50442e-06 5.42066e-06 7.58635e-06 -8.97856e-07 
-3.64027e-05 -1.39125e-06 1.3988e-07 3.93428e-07 6.97258e-09 -2.38489e-06 -3.41866e-06 1.77435e-06 2.8986e-06 
-6.62984e-07 -1.16338e-05 5.02258e-07 7.09022e-06 -5.94423e-07 -7.45429e-06 -1.89806e-05 -1.72007e-06 -1.70753e-05 
-3.19628e-06 9.50497e-06 -4.75221e-06 1.6682e-06 -9.40237e-06 5.81941e-06 6.15053e-06 1.99564e-05 6.69355e-06 
-2.0343e-05 5.90377e-06 -4.47441e-05 1.49324e-05 -2.70958e-06 -3.61119e-05 -9.41209e-06 7.24915e-06 1.94117e-05 
1.05803e-05 -1.49439e-06 -2.32112e-05 -6.09939e-06 -1.28533e-05 6.64225e-06 -1.63303e-05 7.12541e-06 9.38979e-06 
7.2463e-06 2.2114e-05 -2.52847e-05 -4.58184e-06 -1.07426e-05 -1.68125e-05 1.52439e-05 -3.19215e-05 1.20409e-05 
6.41786e-06 -2.81595e-05 1.16187e-06 5.41318e-06 8.85845e-06 3.13845e-05 -7.36011e-05 1.36284e-05 1.80906e-05 
-3.95935e-05 1.15465e-05 -9.84747e-06 5.53762e-06 6.26721e-06 -2.98357e-05 -4.75741e-05 2.55643e-05 9.73487e-06 
6.48897e-05 0.000116319 4.25638e-05 -1.4129e-05 -1.37755e-05 1.33445e-05 -3.9834e-06 5.54694e-06 1.85457e-05 
-1.188e-05 -5.28151e-06 -1.09186e-05 -1.05615e-05 -5.21952e-05 1.23371e-05 4.96532e-05 -6.65734e-05 1.93688e-05 
2.41657e-06 -5.45297e-06 5.2526e-06 -1.46647e-06 -5.50774e-06 -1.32051e-06 -2.01344e-05 -1.69533e-05 2.25028e-05 
6.27651e-06 -9.8351e-06 5.54341e-06 8.4893e-06 1.82279e-05 -2.93046e-05 -4.47798e-05 -2.00698e-05 -3.83709e-06 
1.57532e-05 2.29451e-06 -8.29001e-06 -1.37053e-05 5.67825e-06 -1.95485e-05 -1.41315e-05 1.85443e-05 -5.62243e-07 
1.49642e-06 4.77385e-06 -2.22721e-06 -3.20367e-06 -2.3173e-06 8.01768e-06 8.83397e-06 2.42149e-06 -1.03487e-05 
2.14766e-05 1.11149e-06 -2.03168e-05 -9.3509e-08 4.4818e-05 1.21331e-05 2.75436e-05 -9.6533e-06 2.02735e-05 
3.39628e-05 -3.6599e-05 -2.05979e-05 -8.53474e-07 1.08134e-05 3.78932e-05 -4.14355e-05 -1.26307e-05 3.26433e-06 
-5.70487e-07 -5.6303e-06 -1.90689e-05 -6.47309e-06 -3.90582e-05 -2.08392e-05 -2.90989e-06 1.27099e-05 1.85805e-05 
2.43458e-05 9.79974e-05 -1.67218e-06 5.36764e-06 -3.7845e-05 1.26702e-05 -7.14236e-06 -1.57585e-05 2.22018e-05 
7.49794e-06 3.99798e-06 5.47463e-05 4.83054e-05 -7.00152e-06 2.98943e-05 1.06853e-05 1.24247e-05 -1.26622e-05 
-3.68153e-05 1.69803e-05 -2.54118e-05 -3.99915e-07 -5.93552e-05 2.59507e-05 1.30567e-05 1.79081e-05 1.99241e-05 
-3.25641e-05 -2.5444e-06 9.20932e-06 -6.54812e-06 1.83499e-05 -2.88265e-05 8.08823e-07 4.24517e-06 1.93121e-07 
1.18717e-06 -5.10834e-06 -4.55293e-07 6.45356e-06 -2.24253e-06 2.9951e-06 6.70091e-06 -2.32146e-06 5.0891e-06 
2.35084e-06 -1.69059e-06 4.89526e-06 2.16705e-07 -6.31344e-06 3.07707e-06 3.69592e-06 -9.79281e-07 3.01531e-06 
9.61653e-06 -0.0168801 -0.000238474 -4.40382e-05 1.39463e-05 -7.98082e-06 9.74735e-06 -1.9284e-05 -8.40339e-06 
-2.91607e-06 6.45251e-06 -1.98107e-05 -1.64926e-05 -1.72577e-05 -1.93286e-05 9.47526e-06 -1.50071e-05 -2.80448e-06 
6.8027e-07 3.63436e-06 2.09058e-06 1.07849e-05 1.65625e-05 -7.81524e-06 1.57199e-06 2.22107e-06 6.1233e-06 
-2.5959e-06 -5.63005e-07 -4.89553e-06 -5.27814e-06 -5.10797e-06 -3.24653e-06 1.32887e-06 6.26906e-06 -3.00974e-06 
7.65287e-06 4.80556e-06 -6.08913e-07 -2.52525e-06 -6.33349e-06 -3.81713e-06 -7.1347e-07 1.7741e-06 2.88788e-06 
-5.11816e-06 7.45831e-07 1.08088e-06 1.11146e-05 4.23673e-06 9.75118e-06 4.56295e-06 -8.22454e-06 1.85787e-05 
5.86268e-06 2.27904e-07 -1.0131e-05 -1.20047e-05 -2.89816e-06 1.7358e-05 -1.72012e-05 2.3621e-07 1.73313e-05 
5.42128e-06 -1.87128e-05 1.79086e-05 4.95846e-05 -5.07248e-05 -4.48353e-05 0.000199332 -0.00186581 -0.0239748 
-0.00674085 -0.00658306 -0.00948628 -0.00714205 -0.00865934 -0.00979807 -0.0100407 -0.0077391 -0.00869263 
-0.00780646 -0.00952245 -0.00670574 -0.0213929 -0.0170556 -0.00749042 -0.00938875 -0.00652197 -0.020656 
-0.00739619 -0.00917441 -0.00650621 -0.000628706 0.00134274 0.00407027 0.00102318 0.00265961 0.00251252 
0.00420159 0.00441962 0.000352744 0.00835188 0.0123237 0.00757736 0.00292862 0.00391789 0.00225698 
0.00225887 0.00247735 0.00273967 0.00103907 0.00362645 0.00252844 0.000849076 0.00141352 -0.00192067 
-0.00364505 -0.00320659 -0.0026365 -0.00270873 -0.00291451 -0.00408193 -0.00548441 -0.00267427 -0.00135529 
-0.00512242 -0.00367958 -0.00372702 -0.00318796 -0.0044621 -0.00120975 -0.00290536 -0.00409291 -0.00680664 
-0.00164781 0.012364 -0.000848994 -0.000144468 -0.00486183 -0.00612378 5.08174e-06 5.2694e-06 2.34173e-06 
-3.33373e-06 2.31212e-06 -3.91656e-07 1.57122e-06 4.97605e-06 1.39504e-06 -1.11871e-07 3.94829e-06 1.46584e-06 
2.44265e-07 3.37654e-06 -1.68114e-06 5.60685e-07 -1.62383e-06 1.24434e-06 -8.66659e-07 -1.66549e-05 -8.98983e-06 
1.85225e-05 0.000205805 1.36327e-05 -2.78203e-06 -7.20025e-06 -2.32495e-06 -1.15128e-05 -4.77061e-06 7.49332e-06 
3.35076e-06 -8.82967e-06 3.90709e-06 2.90456e-05 -2.48194e-05 -1.70648e-05 3.44482e-05 6.19067e-06 -1.99426e-05 
3.36541e-06 1.23753e-05 -1.20527e-06 -1.04077e-05 7.67297e-07 -3.47846e-07 -1.2774e-06 -2.94137e-06 5.94604e-07 
7.12608e-07 -4.81222e-06 2.32519e-06 7.19481e-07 -3.99504e-06 3.30725e-06 1.37907e-06 4.73098e-10 9.82625e-07 
1.50736e-06 -4.81484e-06 -1.55727e-06 -7.87245e-07 9.67276e-07 -3.22895e-07 9.04796e-07 2.05195e-06 -2.58609e-06 
1.25003e-07 1.13133e-05 1.29362e-06 -3.67575e-06 9.79466e-06 3.75418e-07 -4.3033e-06 2.74178e-06 -4.52837e-06 
-1.75866e-05 -4.56241e-06 2.00186e-05 -1.78651e-05 5.99851e-07 1.19647e-05 -4.72375e-06 2.22128e-06 -5.60753e-06 
5.38748e-06 -3.61285e-05 -3.63857e-05 -4.30501e-05 0.000214923 0.000785095 0.000110607 0.000986914 -1.60421e-05 
0.000575776 7.56247e-05 0.000190186 0.000140262 0.000882187 0.00102848 0.000112109 1.03644e-05 0.000312907 
-0.000660123 0.000230336 6.88595e-05 6.54066e-05 0.000464568 -0.000124489 -1.19802e-05 7.68572e-06 -7.28479e-06 
1.99272e-06 -0.000311597 0.000164044 0.00055792 0.00069877 0.000481218 0.000296652 0.00054173 0.000218366 
-0.00050148 -0.000149403 0.00076618 2.40443e-06 7.92472e-05 0.000332067 0.000102328 0.000373085 0.000929568 
0.000935156 0.000247268 -0.000164921 -0.000407623 -8.41914e-05 -0.000135152 0.000127299 8.13656e-05 4.8754e-05 
0.000198584 -0.000798077 -0.000156812 -0.000917208 -0.000773827 -0.000742757 -0.000372934 -0.000276439 -0.000813987 
-0.000929004 0.000335972 -0.000594873 -1.28467e-06 0.00178294 -0.000501738 -0.000339759 3.53963e-05 0.000539201 
-0.00010272 -0.000509125 -0.000947104 8.36394e-05 -6.5243e-05 -3.95699e-07 4.79786e-05 -1.72066e-07 5.26688e-07 
8.43743e-06 -4.8348e-07 2.15199e-06 6.88754e-07 -7.83495e-07 -2.65369e-06 -6.19691e-07 8.48058e-07 1.0561e-06 
-3.59752e-07 9.7267e-05 2.07324e-05 1.15922e-05 -5.3592e-05 -0.000135055 1.66172e-05 1.31629e-07 -4.76614e-07 
-1.80193e-05 2.05443e-05 -1.29737e-05 2.13707e-06 -1.27143e-05 1.51285e-05 5.9163e-05 2.33792e-05 -1.54296e-05 
1.91275e-05 3.84723e-06 -8.31933e-06 4.09982e-06 1.93786e-06 8.23625e-07 -3.88199e-06 1.22594e-06 1.19569e-06 
1.21872e-06 -3.04739e-06 1.23649e-06 9.68904e-07 8.52599e-05 0.000107748 4.0357e-08 8.59086e-07 -4.56757e-06 
-1.11655e-05 4.95671e-06 2.87704e-05 -2.69924e-07 5.1814e-07 1.02664e-06 -1.67111e-06 2.95723e-06 2.1458e-06 
-3.43027e-06 -1.4094e-06 6.85227e-06 -1.61481e-05 -1.06702e-06 -2.96607e-06 1.12012e-05 -1.8407e-06 3.35576e-06 
8.66519e-06 -1.83541e-05 1.73522e-05 7.76046e-07 -1.0549e-05 4.13857e-06 1.38912e-05 -1.89462e-05 2.55091e-06 
2.25948e-05 1.87705e-05 -0.00015632 -4.12148e-05 1.99834e-05 1.48542e-05 4.24479e-06 5.10033e-05 5.34116e-05 
-4.23943e-06 7.02372e-05 6.71562e-05 5.97106e-05 4.56028e-05 1.47869e-05 3.3719e-05 2.82221e-05 4.20802e-05 
6.12252e-05 6.49888e-05 4.97845e-05 -4.03293e-06 2.33011e-05 7.77802e-05 7.06429e-06 3.99266e-06 6.67856e-05 
9.95466e-05 6.42933e-05 -2.51028e-05 -8.25515e-06 -1.64148e-05 3.14191e-06 -2.31777e-05 -2.18369e-06 -0.000113401 
2.27695e-05 2.12597e-06 -3.80675e-05 -1.87497e-05 1.3855e-05 -1.56343e-05 6.94302e-05 5.83581e-05 3.76293e-05 
2.49878e-05 -2.0476e-05 -2.8685e-05 8.733e-07 -1.68322e-06 -1.33994e-05 1.72176e-05 4.83066e-05 -4.16974e-05 
-3.03771e-05 4.64871e-05 -2.60883e-05 -4.52175e-05 -6.10447e-05 0.000115184 9.15875e-06 3.30131e-05 -5.03429e-06 
-6.02431e-06 -0.000113791 -1.32559e-05 -3.13511e-05 0.000147217 9.66779e-06 0.000185277 9.73447e-05 -0.000190579 
-3.13427e-06 4.28901e-07 -5.5273e-06 -1.34313e-06 -1.26706e-05 -3.7825e-08 1.29374e-06 2.42044e-06 1.68093e-06 
-1.21957e-06 -3.53274e-06 -2.40411e-05 3.81722e-06 -1.06833e-05 -1.84046e-05 -3.22718e-06 4.66313e-06 -1.29193e-05 
8.89102e-06 -5.7651e-05 1.63775e-05 -2.42292e-05 8.38724e-06 7.89212e-06 -9.79087e-07 -1.4005e-06 -1.0755e-06 
2.00931e-06 1.8981e-06 -3.84479e-06 3.69541e-07 6.79373e-06 1.09058e-05 -6.48331e-08 -5.15398e-07 -1.17047e-06 
5.61471e-08 2.35712e-06 -3.78455e-06 5.69271e-06 5.07983e-06 -8.80266e-06 -2.2828e-06 9.7467e-06 1.40622e-05 
-6.54644e-06 -4.94198e-06 -7.27818e-07 -8.55689e-06 -3.69467e-06 -2.18529e-06 -9.64195e-06 -4.19028e-06 1.38964e-05 
-1.831e-06 4.77664e-06 5.22267e-07 1.93345e-05 1.44004e-05 4.73059e-06 -2.01658e-05 -4.76047e-06 -1.06121e-05 
1.12382e-05 1.51496e-05 6.26803e-06 1.04284e-05 -1.07125e-05 3.38762e-06 2.39886e-06 -2.05617e-05 9.85449e-07 
-8.56253e-06 8.56643e-06 -1.37414e-05 1.06252e-05 3.67158e-06 3.4481e-07 3.53831e-06 1.09219e-05 -1.40802e-05 
-1.93823e-05 3.61901e-06 1.23424e-05 -1.54581e-05 -4.55663e-06 1.98057e-06 -4.71051e-05 3.76402e-05 -7.78889e-06 
1.09007e-05 -6.85262e-06 2.31451e-05 -2.58105e-05 1.00522e-05 -2.06461e-05 4.62818e-05 -2.7588e-05 1.23245e-05 
-2.6589e-05 -9.37746e-06 -0.000138377 1.6789e-06 2.28405e-06 -2.60345e-05 2.41602e-05 2.10932e-05 -2.28824e-05 
-5.46738e-06 9.6992e-05 2.28839e-05 -5.59358e-05 8.6778e-05 1.49962e-05 -2.34773e-06 -2.13342e-06 9.64112e-06 
1.19582e-06 0.000127777 2.17935e-05 -1.30648e-05 -2.95622e-05 2.06782e-05 -4.15962e-07 -8.24642e-05 0.000117287 
-3.3909e-05 -5.58397e-05 -2.45082e-06 -4.07964e-06 -5.44197e-06 -3.45215e-06 -4.70423e-05 3.64809e-06 6.72823e-05 
-1.54283e-05 4.54654e-06 -9.08461e-06 3.28591e-06 7.07381e-06 1.0938e-05 1.56833e-05 4.74804e-06 6.84237e-06 
-3.56587e-07 1.63114e-05 -1.954e-05 -5.56318e-07 -7.0027e-07 -1.50932e-07 -4.01087e-06 -7.76726e-06 7.6772e-06 
2.02584e-05 1.08017e-05 -1.89959e-05 -7.4146e-06 3.45981e-05 4.3945e-06 -1.81396e-05 1.05203e-05 -3.28881e-06 
-5.87096e-07 -7.91655e-06 -3.75702e-06 1.4184e-05 5.81396e-06 6.62391e-06 4.40089e-06 -2.25368e-05 -6.17945e-06 
-1.02938e-06 -1.66726e-05 -9.31591e-06 -7.60672e-06 -8.2949e-06 1.91737e-05 -7.52696e-06 -1.32118e-05 2.86197e-05 
-8.57625e-06 1.68158e-05 1.21658e-05 5.86401e-06 -2.39861e-05 6.95294e-06 4.66446e-06 9.47159e-06 -3.13427e-05 
2.68741e-05 -0.000123182 -5.75837e-06 -1.13434e-06 -4.41834e-06 -5.01058e-06 -1.36527e-08 -1.2595e-05 2.22022e-05 
5.75561e-05 7.93648e-06 -6.37138e-06 -4.06066e-06 -4.66935e-05 -7.50829e-06 -1.40481e-05 -2.27713e-05 -1.79056e-06 
3.99611e-06 -5.42133e-06 -8.74172e-06 -6.88037e-05 -2.67842e-05 5.16452e-06 -3.89868e-05 4.56544e-06 -9.7992e-06 
-7.50087e-06 2.115e-05 1.33693e-05 1.91108e-05 8.15374e-06 1.07945e-06 -9.10692e-06 -2.19302e-06 1.99776e-05 
-5.77934e-06 -3.83887e-05 -1.14337e-05 -6.6476e-05 -7.81386e-06 -1.35179e-05 2.51515e-05 2.78976e-05 2.04958e-05 
3.44493e-06 -4.74879e-05 3.46466e-06 -2.50291e-05 -3.17753e-05 -9.09889e-06 -2.61011e-05 -7.39385e-06 -8.26312e-06 
8.40794e-06 -1.27422e-05 -2.62411e-05 2.98721e-06 2.81471e-05 -2.10542e-05 -1.99582e-05 5.78273e-06 -2.15261e-05 
-1.12103e-05 -2.54377e-05 -2.12563e-06 -7.41319e-05 -5.23503e-05 -1.16918e-05 -4.06878e-05 1.15227e-05 3.21802e-06 
1.74451e-05 2.09986e-05 0.000108596 -1.20864e-05 2.04224e-05 5.37815e-06 1.82491e-06 1.13126e-05 -3.77194e-05 
1.92266e-05 4.4646e-05 -3.88255e-05 -2.59752e-05 2.54793e-06 4.04173e-05 9.91583e-06 -2.59432e-05 1.05948e-05 
6.34079e-06 4.30549e-05 -4.75209e-06 5.31589e-05 -9.22371e-07 2.72898e-05 8.70757e-06 -4.46942e-05 -1.39466e-05 
-2.71807e-05 3.08392e-05 1.54766e-05 -6.06429e-05 2.37978e-05 -2.1767e-05 4.53608e-06 1.82238e-05 5.16738e-05 
-1.28234e-05 -0.00709937 0.00143902 0.00439996 0.000678578 -0.00117821 -0.000558732 0.00190449 0.000150319 
0.000211603 0.00132063 -0.00237485 0.00195455 0.000307279 -0.0013006 0.000280215 0.00619161 0.0183065 
0.0147155 0.0139915 0.0131648 0.0141383 0.013351 0.0204723 0.00740303 -0.0213968 -0.0212021 
-0.029721 -0.0290314 -0.0420468 -0.0287768 0.00349552 -0.000703215 0.000260939 0.000377198 -0.0064545 
-0.00433908 -0.00795856 -0.00855267 -0.0116553 -0.0117076 -0.0130153 -0.0190713 -0.000882528 0.00214509 
0.0271247 0.0192991 0.0279657 0.0195671 -0.00785922 -0.0190855 -0.0201053 -0.0282276 -0.0214796 
0.0133395 0.0153568 0.0164839 0.0149748 0.0150138 0.00916144 0.0132711 0.00202079 -0.00643461 
0.00304115 0.00042841 0.000282123 -0.000287885 0.00291544 0.0158464 0.024749 0.0284852 0.0338888 
0.0318555 -0.0137461 -0.0197331 -0.0122966 -0.0186249 -0.0127705 -0.0124748 -0.0201585 0.00194574 
0.00302766 -0.00127678 -7.47939e-05 9.59599e-05 0.00105504 -0.00308734 0.0112012 0.0273182 0.0280627 
0.020561 0.0296045 0.0204868 -0.00743193 -0.0140315 -0.013011 -0.0143366 -0.0159573 -0.0170481 
-0.0212606 -0.00881506 0.00544205 -0.000592276 0.000271988 0.000153461 0.000846576 -0.00771169 -0.0247429 
-0.0168448 -0.027476 -0.0429702 -0.031454 0.000377818 0.0192034 0.0140365 0.0123638 0.0132258 
0.0143677 0.0216529 0.0128644 -0.00186198 0.00139408 0.000206208 0.000316798 -5.89211e-05 0.00392837 
0.00142381 -0.00200144 0.000264546 -0.000725207 0.000767754 -0.00548003 -0.000230478 -0.017875 -0.0131333 
-0.0150943 -0.0117614 -0.0143328 -0.0132068 -0.0166197 0.0166965 0.0280469 0.0275427 0.0410536 
0.0328685 -0.00543238 3.54153e-05 -7.55794e-05 -0.000280577 -0.000732354 0.00370541 -0.000103507 0.0220345 
0.0142922 0.0155898 0.0162249 0.0167062 0.026309 0.0138068 -0.00783024 -0.0214558 -0.0191828 
-0.030172 -0.0337191 -0.0319174 -0.033852 -0.036202 0.0611248 0.0629894 0.0943404 0.0873847 
0.0869558 0.0886846 0.0864451 0.0907498 0.0906095 0.0904095 0.0868449 0.0917134 0.0928237 
0.0909851 0.0524353 0.0524097 0.0912807 0.0910112 0.0879336 0.0510981 0.09325 0.092367 
0.091379 0.0518165 0.0694559 -0.11812 -0.117403 -0.0983923 -0.0887167 -0.0895788 -0.0903676 
-0.0931007 -0.0897499 -0.0875098 -0.0896009 -0.0928859 -0.0931216 -0.092582 -0.091831 -0.0923093 
-0.0923768 -0.0940082 -0.0950928 -0.0929376 -0.0936377 -0.0895895 -0.0872896 -0.0921383 -0.0938812 
-0.0940164 -0.0940868 -0.0925621 -0.105385 -0.11819 -0.126387 -1.6951e-05 -1.32813e-05 -5.10068e-05 
-6.15647e-05 -5.07065e-05 -3.8612e-05 1.66744e-05 1.81765e-05 1.21553e-05 -1.2115e-05 4.62837e-05 6.60674e-05 
8.28445e-05 4.00889e-05 -1.16832e-05 4.52194e-05 7.49107e-05 5.83302e-05 4.65087e-05 -1.06107e-05 -3.12738e-06 
2.39104e-06 1.6015e-05 1.27267e-05 -4.14157e-05 -4.78798e-05 -4.02792e-05 -3.44547e-05 1.25134e-05 1.28612e-05 
-0.0239127 0.0276956 -0.000556271 -0.000677934 -0.000317416 -8.0354e-05 -5.48031e-05 -5.41237e-05 -6.60819e-05 
-5.86797e-05 -2.485e-05 -1.67536e-05 -4.08226e-05 -6.13045e-05 -7.61295e-05 -7.1564e-05 -8.23502e-05 -0.000114199 
-0.000146249 -0.000152719 -9.25447e-05 -4.659e-05 -8.01855e-06 9.98798e-05 0.000150498 0.000138093 0.000115241 
0.000117388 8.16297e-05 4.22267e-05 1.85218e-05 1.67791e-05 9.68034e-06 -1.52264e-06 -2.18654e-05 -3.87375e-05 
-2.4626e-05 -2.70455e-05 -3.69248e-05 -3.95145e-05 -3.24692e-05 -2.83276e-05 -8.68606e-06 2.72588e-06 3.58178e-05 
3.83115e-05 1.41732e-05 4.44054e-05 1.7924e-05 -7.50795e-06 -2.75647e-05 -2.70809e-05 -2.266e-05 -2.58284e-05 
-2.87389e-05 -2.46722e-05 -1.19712e-05 -7.76565e-06 7.76467e-07 -5.24797e-07 3.38882e-05 5.19694e-05 1.86211e-05 
5.76375e-05 7.03867e-05 8.29309e-05 9.79339e-05 6.81612e-05 4.11499e-05 1.35565e-05 -4.65363e-05 -0.000110221 
-0.000127915 -0.000106542 -0.000120152 -0.000113844 -9.65496e-05 -8.50762e-05 -8.83099e-05 -8.62796e-05 -7.49893e-05 
-8.29722e-05 -9.80881e-05 -0.000154161 -0.000156506 -0.000198872 -0.000276535 -0.000560031 -0.000696542 -0.000486375 
0.0206033 -0.034628 0.00794983 0.0123679 0.0158326 0.0099717 0.0139603 0.0139285 0.0145057 
0.013282 0.0141291 0.0215452 0.0280008 0.0301778 0.016863 0.0179473 0.0143794 0.013356 
0.0129476 0.0134733 0.0118049 0.0108595 0.00924065 0.0130519 -0.0120878 -0.0103294 -0.00998366 
-0.0128657 -0.0125122 -0.0122569 -0.0095162 -0.0096672 -0.0113294 -0.0142264 -0.0211837 -0.031232 
-0.0185138 -0.0137659 -0.00948146 -0.0100559 -0.0132114 -0.0108844 -0.0118249 -0.0125863 -0.0148141 
-0.0134665 -4.29629e-05 1.7554e-05 4.05116e-05 3.02054e-05 1.14956e-05 2.31217e-05 -2.01246e-06 -2.23609e-05 
-1.36138e-05 -3.79952e-05 -4.5134e-05 -1.65568e-05 -4.52459e-05 -3.67814e-05 -1.86034e-05 -2.50802e-05 -1.09476e-05 
1.41368e-05 1.19123e-05 1.86653e-05 3.41963e-05 2.67983e-05 1.68414e-05 4.26874e-06 -0.00761551 -0.00403422 
0.00010503 0.000181346 0.000183044 0.000157309 6.74586e-05 6.06503e-05 7.44953e-05 7.46434e-05 7.23629e-05 
8.19259e-05 0.000128788 0.000144653 0.000147908 0.000133032 0.000158009 0.000102433 -6.64592e-05 -9.39013e-05 
-9.87047e-05 -0.000115251 -6.5009e-05 -4.63495e-05 -4.00198e-05 -5.64506e-06 9.4097e-06 1.45553e-05 1.063e-05 
3.54666e-05 3.69012e-05 2.85161e-05 2.48283e-05 2.36708e-05 1.28073e-05 -2.43169e-05 -2.2277e-06 -2.60998e-06 
-4.24607e-05 -1.73764e-05 6.81911e-06 9.17813e-06 1.3263e-05 2.83032e-05 2.05447e-05 1.95714e-05 2.24275e-05 
3.12034e-06 1.17078e-05 7.54189e-07 -8.55155e-06 -6.10219e-05 -6.20258e-05 -7.33897e-05 -7.26924e-05 -9.62554e-05 
-4.99295e-05 -5.30743e-06 3.42253e-05 7.53534e-05 9.47433e-05 7.52978e-05 7.24108e-05 7.05891e-05 4.10193e-05 
3.21243e-05 -5.74551e-06 5.26722e-05 2.25284e-05 3.87224e-05 5.42886e-05 -3.2505e-06 0.000117841 -0.00309044 
0.00452742 -0.0110308 -0.00890337 -0.0114111 -0.0144348 -0.012691 -0.0133645 -0.0149511 -0.0167225 
-0.0167999 -0.0184377 -0.034627 -0.0383131 -0.0239159 -0.0121439 -0.0136084 -0.0129433 -0.0127031 
-0.0123426 -0.0135432 -0.0110643 -0.0152662 -0.0088364 0.0118174 0.014668 0.014028 0.0131055 
0.0124572 0.0135089 0.0149366 0.0163843 0.0166854 0.0335025 0.0340286 0.0215603 0.017313 
0.0153604 0.0147464 0.0124319 0.0122925 0.0105869 0.0168352 0.00920777 0.00869685 -1.34947e-05 
1.81971e-05 -0.00497281 -0.000766944 -0.000199451 0.00305411 0.00351185 0.000824547 -0.00443341 -0.0023453 
-0.00314748 0.00492204 -0.00205451 -0.0031954 0.00228375 0.0022608 -0.0172169 -0.00197743 -0.0167414 
0.00262472 0.000159827 -1.60084e-05 -0.000163339 0.000181395 -0.000251487 -0.00200912 -0.00226321 0.0119609 
0.00865746 0.00815553 0.00670885 0.00979014 0.0136226 0.0111106 0.00232461 -0.00850577 -0.020144 
-0.0203591 -0.017089 -0.0228498 0.00611602 -0.0335925 0.0271397 0.00727936 0.00406893 -0.00737603 
-0.00223519 0.00311821 0.0222035 -0.00504192 -0.0174566 0.0039739 0.000315105 -0.0202425 -0.031549 
0.00796984 -0.0156002 0.00266627 -0.00162697 -0.0015638 0.00592451 0.00547265 0.000129673 0.00177212 
0.00597389 0.00457414 -0.0010309 0.000233606 0.00129964 0.0060387 0.000217844 -0.00223408 -0.00524367 
-0.00280287 -0.00440464 -0.0021312 -0.00868446 -0.0102139 0.0012578 0.0175492 0.0160244 0.0118593 
0.0176677 0.0163062 -0.00310644 -0.00218251 0.00361787 -0.0121281 -0.0120565 0.000281364 -0.0224195 
0.0353305 -0.0189511 -0.00341661 -0.00821732 0.00266293 0.0281174 -0.00921669 -0.004063 0.000431875 
-0.00316297 -0.0150288 -0.0184949 -0.0136299 -0.0245372 -0.0170024 0.00710775 -0.0254462 0.0126002 
0.0102205 0.0106567 0.00904192 0.00471065 -0.00783989 0.0103925 0.0133372 -0.0049777 0.0187844 
0.0149039 -0.00319545 0.0021898 0.00200166 -0.00174504 -0.00126722 -0.0119407 0.0118757 -0.0378366 
-0.0302086 0.0191057 0.00970496 0.000339934 0.00346578 0.0108062 -0.000312087 -0.00327655 -0.00317605 
-0.000212094 0.00669301 0.0017183 -0.00593307 -0.00385654 0.00594714 -0.000445978 -0.00252861 -0.00192764 
0.0014402 0.00512153 0.0043934 0.0102009 0.0146215 0.0179976 0.0199317 -0.00466405 0.0182544 
-0.0184247 -0.0093854 -0.0138105 0.00203609 -0.015742 -0.0113207 0.00292743 -0.0124742 -0.0166126 
0.00235604 -0.00889802 -0.0144352 0.0201169 -0.0247414 0.0169448 -0.00108794 -0.00596652 0.000472615 
0.000123421 -0.000752988 0.00347485 0.0034382 -0.00458846 0.00246522 -0.00298449 -0.00629856 -0.00606124 
-0.00123019 0.00345314 0.00324711 0.00086471 0.000669054 0.00273488 9.71474e-05 -0.00151647 0.00168348 
0.00122894 0.000203046 -0.00357445 0.00129451 0.00139268 -0.000121301 0.0111293 0.0158719 0.0206399 
0.0182046 0.0136706 -0.00404367 0.00753159 -0.0118794 -0.0133867 -0.0105128 -0.00700058 -0.00316543 
-0.0122547 -0.00996245 0.00273183 -0.0131381 -0.00995 0.00372817 -0.0171095 -0.000913233 -0.00108994 
0.00335634 0.0028894 0.00146439 -0.0256751 0.0335048 0.0339008 -0.0207989 0.0251243 0.0184284 
-0.00582912 0.00396984 -0.0121044 0.00060428 0.00377478 0.00434153 0.000369641 -0.012396 0.00385639 
0.000805127 -0.0105702 -0.00553214 -0.00186749 -0.00305132 -0.000541234 0.00167972 -0.00678653 0.00375212 
0.00199125 0.000850308 -0.00751573 0.00302871 -0.0130021 -0.010898 -0.0190841 0.0143044 0.0109832 
0.00567504 0.00553093 0.00435773 0.00822923 -0.00599871 0.0144687 0.00359957 -0.00215923 -0.00167153 
-0.0160901 0.00659844 -0.0361207 0.0208946 -0.0121501 -0.0180551 -0.0278183 0.0185693 0.0178417 
-0.00594843 0.00230056 0.00440969 0.0134007 -0.00454607 0.00450164 -0.000576972 -0.000366001 -0.000120549 
-0.00170125 -0.00291625 -0.00638636 0.00215348 0.00157481 0.00115846 -0.00535069 0.000817586 0.00108978 
0.0155604 -0.00015319 -0.00378308 0.000299833 0.000278888 0.000285987 0.0043509 0.00314864 0.00321613 
-0.0139223 0.0255541 -0.0145984 -0.0180011 0.0433864 -0.0083183 -0.0102947 -0.00293519 -0.0101076 
-0.00997875 -0.000154095 -0.00883347 -0.00717986 0.0141053 0.0137897 0.0270329 0.00607179 -0.000990949 
-0.00358451 -0.00604547 -0.00375024 0.0064228 0.00145467 -0.0029476 -0.0097363 0.0157238 0.00399188 
0.0153757 -0.00325816 0.00136189 -0.000980346 -0.00943477 0.000265018 -4.25434e-06 -6.29535e-05 0.000436303 
9.98262e-05 -0.00103169 -0.00143391 -0.0014255 0.0142822 -0.0195723 0.014618 0.0244238 -0.0265565 
0.0129382 0.0149852 0.000548121 0.0120584 0.0073089 -0.00281711 0.0119737 0.0123442 -0.00334519 
0.0126158 0.00721024 -0.0201217 -0.0188492 -0.0164846 -0.0172518 0.00617123 -0.0283976 -0.00646468 
0.0188906 -0.0138284 0.00186669 -0.00368066 -0.00389387 0.0158646 -0.0189995 0.00856561 0.00188966 
-0.000987594 -0.00095907 -0.00256597 0.000400041 -0.00233787 -0.00347907 0.000111296 0.0012679 0.00350804 
-0.0431309 -0.0286523 -0.0372462 -0.0215474 -0.0314631 0.004088 -0.000363479 0.00209014 -0.000156404 
0.000283156 -5.0501e-05 -0.000547323 -0.000512307 -0.000357811 0.000548691 0.0010984 0.000137809 -1.80984e-05 
0.000661053 -0.000640901 0.000858435 -0.00068921 -0.00026377 0.000704138 -0.000103446 0.00061297 0.00068444 
0.000270816 0.0012173 -0.0282468 -0.0243854 -0.0235894 -0.0270025 -5.59448e-05 0.00129474 8.68689e-05 
0.00157992 3.66812e-05 0.00183506 -0.0247371 -0.0271372 0.000317758 0.000765807 -0.000112957 -1.02247e-05 
-0.0389757 -0.0395217 0.000476164 0.000188111 -0.0330053 -0.0288329 -0.0293223 -0.0240995 -0.0280504 
2.85852e-06 -3.33377e-05 1.94818e-05 2.26901e-06 7.37302e-07 -9.18106e-06 -9.04259e-06 -1.13313e-06 6.77717e-06 
-1.13513e-05 -7.97103e-06 -3.3846e-06 -9.65473e-06 2.22677e-06 -7.9404e-06 1.58438e-05 1.41188e-05 1.69362e-05 
9.43673e-06 1.00767e-05 2.98575e-05 -6.89009e-06 -1.01827e-06 6.38336e-06 -1.58375e-05 -1.90069e-05 -2.41935e-05 
-5.76671e-06 1.11539e-05 -2.16285e-05 7.18835e-06 1.34429e-05 1.22129e-06 -5.63628e-06 1.46458e-07 1.44894e-05 
-1.59862e-06 -1.38858e-05 -4.21616e-06 1.44298e-05 -1.91699e-05 -7.98129e-06 -1.58857e-05 -5.39149e-06 -1.5027e-05 
-1.06951e-06 -3.71432e-06 -5.37553e-06 1.0717e-05 4.07948e-06 1.12101e-05 1.02324e-05 -4.35824e-06 1.43191e-06 
-1.59777e-05 -1.25542e-05 -1.88567e-05 -5.0071e-06 -1.18627e-05 -2.42122e-05 2.62718e-06 1.63309e-06 -6.17046e-06 
1.51743e-05 1.16014e-05 1.88837e-05 4.80936e-06 5.3382e-07 1.91004e-05 -1.17764e-06 -1.1653e-05 -1.35396e-05 
4.85388e-07 1.64065e-07 -9.31377e-06 5.16299e-07 -4.68701e-06 2.68409e-06 -7.33851e-06 1.50099e-06 1.5844e-05 
-2.17724e-06 9.84615e-06 2.41447e-06 1.07427e-05 2.51791e-05 3.42375e-06 2.46583e-05 -0.0332272 0.0296309 
0.00388546 -0.00157941 0.000208215 0.00286353 -0.00011968 0.000220185 0.000812571 0.000114949 0.000280475 
1.78414e-05 -0.000216986 -0.000163105 0.00015428 -0.000102636 -5.84478e-05 7.94053e-05 -3.87023e-06 -3.11285e-05 
1.86964e-05 -5.26711e-06 3.43647e-05 -1.65785e-05 1.87613e-05 7.51699e-05 -1.74859e-05 -3.4802e-05 1.79776e-05 
-6.1073e-06 -4.93847e-05 -2.95967e-05 1.82458e-05 -8.38872e-06 -1.10273e-05 3.05256e-06 -1.14967e-05 1.85635e-05 
-1.03636e-05 5.12787e-06 5.88037e-05 -2.19787e-05 -1.86717e-05 1.65953e-05 -1.03711e-06 -7.1087e-06 -3.51529e-05 
1.96763e-05 -1.35013e-05 -3.6388e-05 -2.86142e-06 -1.08763e-05 -1.85551e-05 -1.26541e-05 -2.56893e-05 -1.97229e-05 
-3.06636e-05 -4.50748e-05 -7.11015e-05 -1.51979e-05 6.52783e-05 -5.90285e-06 3.41419e-05 0.000144419 4.62362e-05 
6.48818e-06 3.08405e-05 3.82021e-05 -1.93028e-05 2.41528e-05 1.9861e-05 4.09786e-05 3.19123e-05 8.70071e-06 
2.59205e-05 3.22795e-05 8.96092e-06 6.30269e-06 -1.49335e-05 -1.61619e-06 -6.86201e-06 -9.38527e-06 1.25318e-05 
2.98951e-06 1.37684e-05 1.70711e-05 8.31449e-06 2.40409e-05 3.83828e-05 1.04822e-06 -3.28007e-06 2.41047e-05 
-4.50088e-06 -4.51885e-05 -1.56235e-05 7.87069e-06 -1.56168e-05 -5.96155e-06 7.91438e-06 2.87557e-06 -1.76635e-06 
-7.40835e-07 5.79398e-06 2.34615e-05 -1.21725e-05 2.55024e-07 1.40693e-05 1.02631e-05 -2.24431e-06 2.13578e-07 
8.87417e-06 1.12979e-05 -3.08668e-06 1.02042e-05 6.58552e-07 -7.15887e-06 -3.14881e-06 -2.17995e-06 -5.98826e-06 
1.46235e-06 -3.81327e-06 -9.79618e-06 1.53744e-06 -1.20801e-05 -2.66492e-05 -8.49975e-07 5.40395e-06 -9.23885e-06 
4.40715e-06 2.44409e-05 8.6972e-07 -8.46537e-06 -2.83273e-06 7.13211e-06 1.45711e-05 -1.283e-05 -7.3359e-06 
-2.87163e-06 -3.40544e-06 -3.59115e-06 -2.80672e-06 2.24849e-06 4.48601e-06 -7.17461e-07 2.82386e-06 1.16725e-05 
-4.58333e-06 -8.51998e-06 -6.3642e-07 1.70115e-06 3.15847e-06 -2.05603e-06 6.61075e-06 4.84543e-07 -2.75677e-06 
-1.45128e-06 -2.14826e-06 -6.21901e-06 -2.38275e-06 -9.26075e-06 -1.44673e-05 -3.80456e-06 2.04085e-05 -3.66982e-09 
3.70085e-06 2.0915e-05 -6.37589e-06 3.1443e-06 3.38276e-05 1.66404e-05 8.76811e-06 6.95302e-06 -4.18252e-06 
-3.25512e-06 4.91752e-06 -2.20535e-05 -3.93704e-06 -1.54726e-05 5.68434e-08 3.8055e-06 5.09393e-05 4.18719e-05 
1.63332e-05 1.57788e-05 2.39062e-05 -4.08232e-06 8.91204e-06 9.98287e-06 9.68726e-06 8.04503e-06 1.38727e-05 
1.9901e-05 2.63918e-05 4.03868e-05 2.74702e-05 -4.1564e-05 -2.36168e-06 -1.27427e-05 -0.000100514 -3.59784e-05 
-2.06133e-05 -2.08362e-05 -1.25443e-05 8.67904e-06 -6.33976e-06 1.83806e-06 -1.01011e-05 -8.20715e-06 4.33913e-05 
-2.95784e-05 -5.0248e-05 -4.96224e-05 3.21721e-06 -1.92871e-05 -2.93631e-05 5.65104e-06 -1.94197e-05 -1.77257e-05 
-1.58583e-05 -3.06301e-05 -1.10698e-05 -2.99867e-05 1.19253e-05 -5.25447e-06 6.63267e-06 5.69126e-05 -2.36357e-06 
1.36665e-05 -9.74055e-06 -2.07641e-05 -2.55523e-05 -3.12646e-05 -3.40056e-05 -2.35428e-05 1.86422e-05 -9.23004e-06 
5.88637e-06 2.32575e-05 -2.53307e-05 1.49135e-05 6.94385e-05 5.98173e-06 4.33926e-05 -2.25163e-05 -6.57176e-05 
-3.16257e-05 -7.89056e-05 -0.000134284 -3.75436e-05 9.43783e-05 -6.85416e-05 5.21107e-05 0.000319348 0.000128218 
0.000147495 0.000159457 -2.2787e-05 4.27628e-05 0.000187991 1.08445e-05 0.000197951 0.00874369 0.0182436 
0.00372531 -0.00597836 -0.0384525 -0.0416801 -0.0433376 -0.0295938 0.0168446 -0.0312264 -0.0292229 
0.0108934 -0.0300695 -0.0294067 0.0079367 -0.0281147 -0.0308116 0.00871867 -0.0293966 -0.0409031 
0.00877289 -0.0407662 -0.026012 0.00842593 -0.0311043 -0.027727 0.0111017 -0.0292509 -0.0283921 
0.00900289 -0.0289378 -0.031472 0.00921434 -0.030034 -0.0433937 0.00879622 -0.0412726 -0.0267921 
0.00872827 -0.0314704 -0.0289361 0.0122585 -0.0313237 -0.0301843 0.00881435 -0.029841 -0.0315023 
0.00938502 -0.0277945 -0.037579 0.00988591 -0.037788 -0.0344428 0.0114708 -0.0348148 -0.0381427 
0.0133711 -0.0361285 -0.0272952 0.00837571 -0.0286988 -0.0282379 0.010012 -0.0285229 -0.0303583 
0.00921641 -0.0277454 -0.038816 0.00869309 -0.0359544 -0.0381768 0.0124762 -0.0373598 -0.0283723 
0.00984323 -0.0316541 -0.029729 0.00990951 -0.0318721 -0.031802 0.00964068 -0.0295919 -0.0416299 
0.00921447 -0.0429949 -0.0431106 0.0136765 0.00956164 0.0102886 0.00877114 0.0112868 -0.00402193 
0.0114387 0.0120708 -0.00455211 0.00314469 0.00873005 -0.0065379 0.00789248 0.00870552 -0.00442679 
0.00875877 0.011324 -0.00367422 0.0106208 0.0116836 -0.00312211 0.0065205 0.00794357 -0.00484985 
0.00476275 0.00533027 -0.0087212 0.0215466 0.0147251 -0.00715214 0.0141557 0.0256767 -0.0024318 
0.0124416 0.00450121 0.0116635 0.012747 -0.011214 0.0129629 0.0140141 -0.00622259 0.0105433 
0.00844832 -0.00412524 0.00975854 0.00773102 -0.00400826 0.00966756 0.00774483 -0.00319902 0.0079061 
0.00724896 -0.00338402 0.00378129 0.00155971 -0.00421697 0.0057762 0.00371889 -0.00664243 0.00698553 
0.0051732 -0.00629905 0.0110079 0.0102503 -0.00224032 -0.00964961 -0.00740081 -0.00129238 -0.00618906 
0.00396137 -0.00766916 -0.00705733 0.00448317 -0.00649923 -0.00802757 0.00347142 -0.00622637 -0.00816956 
0.00339948 -0.00596285 -0.00795094 0.00394516 -0.00725163 -0.00809776 0.00366509 -0.00721869 -0.00706028 
0.00318058 -0.0123949 -0.00747801 0.002406 -0.0104031 -0.00534651 0.00762932 -0.00692217 -0.00746338 
0.012012 -0.011216 -0.0105477 -0.00761029 -0.0123317 0.00831404 -0.00610654 -0.00746374 0.0075565 
-0.00493974 -0.00473387 0.00574465 -0.00690785 -0.00404906 0.00530287 -0.00739198 -0.00811576 0.00467659 
-0.00352523 -0.001234 0.00352391 -0.0027611 -0.00318728 0.00595247 -0.00531495 -0.0035976 0.00523683 
-0.0104034 -0.00877272 0.00405476 -0.0116825 -0.0147882 -0.00011223 0.0208395 0.000832758 0.000760431 
-0.0011045 -0.033634 -0.0184463 0.00721751 0.00706964 -0.0139822 -0.0155595 0.000868369 -0.00222978 
0.00317126 0.0128733 -0.00652309 0.0129417 0.00673989 -2.61737e-05 -0.00235056 -4.60133e-05 2.27988e-06 
-3.82176e-06 -7.8309e-06 4.50792e-06 1.01516e-05 4.92037e-06 -8.94512e-06 2.61513e-07 3.67957e-06 4.64786e-06 
-1.19372e-05 1.01766e-05 1.50845e-05 1.47557e-05 3.55094e-06 1.48307e-06 1.89447e-05 -1.39512e-05 -1.04536e-05 
-1.10708e-05 -5.71913e-06 -4.33359e-06 -1.63946e-05 2.05543e-06 -9.18152e-06 1.13311e-05 -1.16294e-05 7.08259e-06 
-9.12767e-06 -5.58666e-06 -1.47599e-05 5.17298e-06 -6.64174e-06 -9.94218e-06 -1.56663e-05 -1.30969e-05 -9.91842e-06 
3.65657e-06 -1.34341e-05 -4.44373e-06 -1.23678e-05 4.95447e-06 -1.40873e-05 1.7975e-06 -8.36747e-06 3.49024e-06 
-6.08431e-06 -3.29677e-06 -5.30812e-06 1.14127e-05 -1.05467e-05 -1.2614e-05 -1.48571e-05 -2.33618e-06 -5.43311e-06 
-1.21003e-05 1.19865e-05 4.32379e-06 4.04054e-06 5.02981e-06 6.17062e-06 1.32619e-05 -8.9407e-06 8.0056e-07 
-1.53338e-05 1.01049e-05 -2.3003e-06 -6.97766e-06 2.37173e-06 5.60112e-06 -4.0411e-07 6.66234e-06 4.07459e-06 
6.63227e-06 -6.71528e-08 -1.32625e-06 -2.78171e-06 -1.24776e-05 -0.00212241 -0.00324233 0.00517298 -8.40665e-06 
0.000300433 -0.00020797 0.000240325 0.000264879 0.000129645 2.79036e-05 0.000233362 0.000181202 -9.30277e-05 
6.89846e-05 1.77848e-05 -8.47814e-05 -3.32474e-05 2.72826e-05 3.31954e-05 6.74104e-05 2.21747e-06 -8.52073e-07 
5.57048e-05 2.74173e-05 2.20579e-05 6.31499e-05 4.11248e-05 -4.2661e-06 2.54823e-05 1.8577e-05 2.27213e-05 
7.22871e-05 3.89287e-06 3.49741e-05 3.9944e-05 -2.60714e-05 4.14531e-05 7.41076e-05 1.78774e-06 4.53716e-05 
7.48497e-05 3.83756e-05 1.42182e-05 5.08827e-05 2.36122e-05 7.92582e-05 7.8238e-05 3.18806e-05 8.96042e-05 
7.30634e-05 3.33315e-05 4.97072e-05 4.3061e-05 -4.96484e-06 6.77203e-05 1.87735e-05 -9.14208e-06 3.00077e-05 
2.09738e-05 3.18942e-05 2.38827e-05 1.36195e-07 2.01034e-05 3.74992e-05 4.2545e-05 -1.0022e-05 -1.39248e-05 
5.91948e-06 1.38346e-05 -1.55403e-05 -4.85695e-05 4.20777e-05 -7.33657e-05 -7.46551e-05 -3.22684e-05 -3.98278e-05 
-2.84109e-05 -3.87174e-05 -6.79301e-05 -4.39678e-05 -2.03186e-05 -3.70986e-05 -2.97034e-05 7.02858e-06 -4.82729e-05 
-3.05689e-05 1.71894e-05 -1.53349e-05 -3.21506e-06 2.5713e-06 -1.88558e-05 -1.52992e-05 2.76824e-06 -3.07482e-05 
-5.93741e-07 -7.79513e-06 -1.51193e-05 -8.72856e-06 1.37231e-06 1.07566e-05 1.55227e-05 -2.76135e-06 6.34798e-06 
1.13046e-05 7.59177e-06 1.04151e-05 1.24605e-05 1.03465e-05 7.53403e-06 1.33049e-05 9.4039e-06 2.1935e-05 
2.05543e-05 1.15657e-05 2.19301e-05 1.43536e-05 1.28412e-05 1.61603e-05 2.71008e-06 1.60473e-05 3.27143e-06 
2.92609e-06 1.01184e-05 6.95457e-06 5.60469e-06 -8.35257e-06 1.6253e-05 3.16606e-05 6.31393e-06 -6.85344e-06 
0.00565396 0.0120921 0.000848866 0.00473067 0.00159993 0.000506388 -5.89244e-06 -1.01978e-06 -4.11355e-06 
2.90017e-07 -4.61194e-06 -2.27501e-07 -2.14918e-06 -1.73153e-06 3.50951e-07 7.50993e-06 6.35364e-07 7.11839e-06 
9.55339e-06 4.87229e-06 4.59203e-06 9.21656e-06 6.31054e-06 1.22189e-05 1.16163e-05 8.6742e-06 7.69348e-06 
1.83427e-06 7.54249e-06 2.13497e-06 1.93355e-06 6.62241e-06 9.84898e-06 -9.12974e-06 -2.67301e-06 -2.68757e-06 
-1.24383e-05 1.68809e-06 9.22788e-06 -2.72021e-06 1.49269e-06 -1.26462e-05 -2.88757e-05 3.81923e-06 -1.96843e-05 
-1.83542e-05 1.7718e-05 -2.62186e-05 -3.95063e-05 -7.49123e-07 -2.79552e-05 -3.97961e-05 -1.28651e-05 -1.88171e-05 
-2.70826e-05 -6.94557e-06 -3.77488e-05 -3.41257e-05 -1.92706e-05 -2.44608e-05 -8.35258e-06 -1.38986e-05 -9.14657e-06 
3.36879e-06 -5.48153e-06 -1.79573e-05 -5.37934e-07 2.66899e-06 -2.42225e-05 -1.52785e-05 -1.40954e-05 -3.10272e-05 
2.01503e-05 -1.20805e-05 -9.65908e-06 1.0943e-06 -2.19609e-07 3.44269e-05 6.9449e-05 -2.40124e-05 4.38272e-05 
6.46539e-05 1.86548e-05 4.03909e-05 3.87177e-05 1.71097e-05 5.83435e-05 4.11055e-05 3.04069e-05 3.63543e-05 
1.51345e-05 -6.03025e-06 2.84909e-05 3.1846e-05 -1.52405e-05 2.17735e-05 3.18592e-05 1.69878e-05 6.48348e-05 
1.70128e-05 2.41753e-05 2.11912e-05 1.27357e-05 -8.53656e-06 4.83792e-05 5.61854e-07 -1.60998e-05 1.51733e-05 
-1.09119e-06 9.77966e-06 3.97438e-05 2.16742e-05 3.12017e-05 3.74284e-05 -3.68218e-05 5.55783e-05 -6.31358e-07 
-5.74796e-05 6.2701e-05 5.3441e-05 -0.000113346 2.81804e-05 0.000227223 0.000140633 6.43482e-05 0.00017744 
3.40723e-06 0.000166203 0.000299701 0.00045285 0.000764477 0.000227579 0.0105521 0.000223778 0.00210626 
0.00776837 0.00696178 0.00606071 0.00303541 -0.0002283 0.00388707 0.005023 -0.000593458 0.00248077 
0.00598693 -0.000690758 0.00988903 0.0122706 0.000899495 0.0116064 0.00202185 0.00022693 0.00586459 
0.00324957 -0.00084266 0.00429933 0.00434911 -0.0006858 0.00230447 0.00763442 -0.000706615 0.0106358 
0.0114282 0.000633501 0.0107447 0.00635482 -0.000241593 0.00677779 0.00314081 -0.000200458 0.00473019 
0.00494986 -0.000584365 0.0031498 0.00602805 -0.000735698 0.00852582 0.0124223 0.000521302 0.0129077 
0.00933808 0.00148555 0.0074384 0.00764272 0.00214598 0.00447699 0.00371563 0.000503802 0.00428005 
0.00515503 -0.00074686 0.00304076 0.00575116 -0.00062685 0.0090049 0.0129233 0.000622495 0.0135209 
0.00912294 0.00175804 0.00599794 0.00296258 0.00105568 0.00572188 0.00427993 -0.000550055 0.00473949 
0.00428615 -0.000356964 -0.00121222 -0.00351199 -0.000320528 -0.00466359 -0.00504394 -0.00286861 -0.00186029 
-0.000680212 -0.00149953 -0.00147517 -0.000176634 -0.00114443 -0.00156619 5.69559e-05 -0.000752638 -0.00123764 
0.000190182 -0.000790837 -0.00121483 9.5333e-05 -0.00205529 -0.00130987 0.000176491 -0.00560157 -0.00166606 
0.000326666 -0.0052571 -0.00751508 -0.000928678 -0.000963747 -0.000125083 -0.00145849 -0.000107957 -0.00181094 
-0.0018973 -0.0018202 -0.000219016 -0.00223845 -0.000489103 -0.000914161 -0.000467734 0.000319401 -0.00134761 
-0.000640467 0.000337628 -0.00124059 -0.00128775 0.000110521 -0.00115992 -0.00154578 -0.000267928 -0.000406481 
-0.00138723 -0.000250587 -0.000184929 -0.000388615 6.65348e-05 -0.000912737 -0.00100436 0.00100468 0.00214349 
0.00143807 0.000435416 0.000807581 -0.000202497 -0.000485737 1.26943e-05 0.00057124 0.00104781 0.000880889 
0.0018767 -0.000335605 0.00100504 0.00173396 -0.000255306 0.00103596 0.00134007 -0.000192247 0.00124731 
0.000954193 -0.000154828 0.00344065 0.000786945 -8.82105e-05 0.00425963 0.00197951 0.000434956 0.00288989 
0.00368505 0.00104245 0.00110463 0.00229258 0.00112758 -0.000496064 0.000322739 0.000654973 0.000559374 
0.00112922 0.00029215 -3.99698e-05 0.000882026 0.000817645 -0.000195863 0.00113671 0.0013011 0.000170912 
3.81164e-05 0.00135927 0.000188881 0.000843111 0.000213384 -7.05449e-05 0.00139923 0.000808328 0.000330029 
0.000533464 -1.525e-05 -0.00268301 -0.000377548 0.000326338 0.000322203 0.000628721 0.00130192 -0.000320843 
-0.000367026 0.000713894 0.000482377 0.000207331 8.1877e-05 0.00232416 -8.31865e-05 0.000952267 -1.72957e-05 
0.00093922 -0.000746346 -0.00464411 -0.000313503 3.11992e-07 0.00100785 0.00544728 0.00129946 -0.000181306 
0.000360287 -0.000349372 -0.000142366 -0.00226378 0.0002775 -0.000452446 0.00374922 0.000136127 -0.000845589 
-8.96062e-06 -0.000420651 -5.04348e-06 2.50807e-06 1.00709e-05 -1.34992e-05 -3.61575e-06 8.51311e-07 3.765e-06 
-1.8571e-05 1.89929e-07 6.31813e-06 4.01478e-06 -3.2368e-06 -1.00136e-06 2.46723e-06 -5.81909e-06 -4.82646e-06 
-5.71601e-06 3.98307e-06 -9.59125e-06 -9.40225e-06 -9.40639e-06 1.06053e-06 4.02637e-06 -1.73245e-05 -8.84053e-06 
-1.17985e-05 -9.34038e-06 -6.16202e-06 -1.52233e-05 1.55771e-06 -1.01673e-05 1.19684e-06 -5.66129e-06 -3.9956e-06 
-2.27332e-06 -3.62793e-06 -1.18252e-05 -1.03254e-05 -8.85731e-07 -9.22398e-06 -6.35209e-06 -1.04895e-05 1.56244e-07 
1.00937e-05 -6.01667e-06 -3.11853e-06 -1.27488e-05 -2.61972e-06 -6.45312e-06 -6.48811e-06 1.16726e-05 -4.54079e-06 
7.14201e-06 5.08212e-06 1.9223e-06 4.95869e-06 -8.84727e-06 5.28635e-06 1.07203e-05 7.71719e-06 -8.7417e-06 
-5.68324e-06 -1.18792e-06 5.42689e-07 -9.84709e-06 1.4827e-06 4.84628e-06 4.80374e-06 -4.51479e-07 4.65892e-06 
4.71883e-06 1.64357e-06 0.000133466 0.000227811 3.38209e-05 -6.55362e-05 -0.000117872 -0.000167514 2.81906e-05 
-8.06907e-06 0.000348566 -2.21136e-05 -0.000111182 5.62802e-05 0.000163645 -3.90044e-05 -1.82399e-05 6.7952e-05 
-0.000115464 2.83573e-05 -2.4518e-05 1.81618e-05 6.50985e-05 -2.9827e-05 2.29662e-05 1.99443e-05 -2.17779e-05 
-3.89996e-06 1.62841e-05 2.21096e-05 2.61509e-05 4.07365e-05 2.23282e-05 -4.17511e-06 1.01915e-06 8.51451e-06 
1.99518e-05 5.60898e-05 1.38133e-05 2.26805e-05 -1.36661e-06 -1.9896e-05 3.57985e-05 3.8595e-05 -5.98308e-06 
4.63483e-05 5.67854e-05 1.64656e-05 1.64177e-05 1.95239e-05 2.00779e-05 2.80081e-05 2.56971e-05 3.0734e-05 
-1.01509e-05 1.48508e-05 -3.69535e-05 1.94778e-05 6.04782e-06 -3.11686e-05 -2.42062e-05 7.91651e-06 -2.04128e-05 
-2.16679e-05 5.82447e-05 -2.91778e-05 -1.18264e-06 1.27786e-05 -1.23765e-05 -1.96635e-05 4.21035e-06 -8.0153e-05 
1.96817e-06 -2.32228e-05 8.39785e-05 -5.58877e-05 -6.10325e-05 -5.85298e-06 -2.66298e-05 -4.42346e-05 1.31254e-05 
1.09532e-05 -4.01059e-06 -7.32195e-06 6.25865e-07 -1.22583e-05 -2.17247e-05 -5.75482e-07 3.43892e-06 2.72867e-06 
-5.41804e-06 -7.28097e-06 1.01976e-05 5.58529e-06 -1.10733e-05 -1.10039e-06 6.19431e-07 -1.09062e-05 -4.16096e-06 
-6.21065e-06 4.26613e-06 -7.83018e-07 6.46505e-06 6.20834e-06 -9.3178e-07 4.1921e-06 2.23949e-06 -5.64878e-06 
5.28515e-06 1.06754e-06 1.81083e-06 6.14556e-06 6.85493e-06 2.69256e-06 6.48733e-06 7.86121e-06 9.00146e-06 
7.46368e-06 8.33788e-06 6.16208e-06 5.43877e-06 3.33036e-06 -3.29107e-07 1.87424e-06 -3.10881e-07 6.47521e-06 
-3.9117e-07 8.76445e-06 1.37424e-06 -1.46255e-05 -5.09586e-06 7.36511e-05 0.000215129 5.52086e-07 -3.55001e-06 
-1.14768e-06 1.31743e-06 -9.23469e-06 -4.3581e-06 -7.01237e-06 -2.17575e-06 2.10194e-06 2.47817e-06 -1.19403e-06 
4.20657e-06 2.41568e-06 4.25588e-06 -1.11143e-06 2.88745e-06 4.87079e-06 -4.54041e-06 -3.27083e-06 3.53741e-06 
-6.92016e-06 2.14583e-06 4.59585e-06 -2.18077e-07 -2.56482e-06 -2.03246e-07 -6.801e-06 -8.01598e-06 3.74613e-06 
7.38861e-06 7.65146e-06 2.07237e-06 -6.32752e-06 -1.84575e-05 -6.30836e-06 -1.38551e-05 4.54707e-06 1.14398e-05 
-1.28252e-05 -8.4449e-06 6.47663e-06 -1.34718e-05 -1.36895e-05 -2.12551e-06 -4.55664e-06 -9.03284e-07 -6.31478e-06 
2.78076e-06 -4.74765e-06 -1.0648e-05 2.60317e-05 9.44798e-06 1.54701e-05 7.41775e-06 1.67769e-05 1.68802e-06 
1.42261e-05 -1.32037e-05 9.3439e-06 9.79198e-06 -2.14797e-05 -3.26846e-05 1.34549e-05 2.23075e-05 2.64685e-06 
1.48463e-05 8.52918e-06 -7.20597e-06 1.51648e-05 4.52911e-06 -1.17162e-06 1.36428e-05 2.73721e-05 8.48952e-06 
2.88244e-06 3.10406e-06 2.13866e-05 -2.93428e-06 -1.95192e-07 1.87533e-05 -6.28978e-06 -2.26998e-05 -6.34182e-06 
-1.243e-05 4.14379e-06 -1.32516e-05 -9.0941e-06 5.19314e-06 1.66779e-05 -1.77197e-05 -1.26675e-05 1.08037e-05 
-3.37115e-06 -4.41264e-06 -5.03225e-06 1.51674e-05 -2.90299e-05 2.05251e-06 -3.7089e-05 -1.27741e-05 2.32573e-05 
2.22428e-05 1.23874e-05 8.99989e-06 -9.15362e-05 -8.35752e-05 -1.96538e-05 -0.000129088 -5.07153e-06 3.80809e-05 
-6.17547e-06 1.7658e-06 3.81157e-05 0.000205701 0.000194287 -5.49154e-05 4.90478e-05 -3.73982e-05 -0.000113886 
0.00110065 -0.000171766 -7.4832e-05 -0.000133442 -6.41799e-05 -0.000171398 0.000272819 -0.000241105 0.000148767 
3.67116e-05 -4.34616e-05 -6.86581e-05 0.000610938 -1.98444e-05 0.000654091 -0.000279288 -5.35676e-05 -0.000260894 
0.000104325 -8.28063e-05 1.71638e-05 2.44227e-05 -0.000112693 5.81957e-05 -0.000136319 -3.34051e-05 -0.000103994 
0.00042573 -0.000115585 0.000405784 -0.000258941 -7.89968e-05 0.000112519 -0.000126936 -8.39246e-05 -6.8236e-05 
0.000122194 -0.000107639 0.000118272 -0.000125671 -9.40547e-05 -0.000272825 0.000568502 -0.000105065 0.00063205 
0.00119478 -8.24489e-05 0.00101583 0.000836385 -6.94591e-05 0.000654548 -0.000246447 3.40362e-05 -3.76235e-05 
0.000120251 -9.25021e-05 0.000153396 -0.000171795 -0.000123746 -0.000282404 0.000663523 -0.000116313 0.000736763 
0.00109417 -4.7653e-05 0.00103403 -0.000104034 -4.5178e-05 9.64339e-05 0.000334833 -9.55323e-06 0.000136959 
-7.14739e-05 -0.000203128 -7.3969e-05 -0.000277979 -6.34114e-05 1.84212e-05 0.000110202 -8.83097e-05 -6.12069e-05 
-3.92277e-05 3.81105e-05 -1.86504e-06 -6.28255e-06 -0.000113211 -8.14647e-05 2.13191e-05 -6.88551e-06 0.000214723 
5.48428e-05 -0.00101317 0.000174226 0.000182923 -8.47446e-05 5.398e-05 -0.000481731 0.00048191 -7.37647e-05 
1.03922e-05 1.5174e-05 4.67619e-05 0.000219667 7.02116e-05 -7.58436e-05 -3.50832e-05 -4.37456e-05 0.000147893 
-0.00010332 -2.637e-05 6.59985e-05 -3.39353e-05 -7.09831e-05 -0.000377741 -0.00100918 -0.00192679 -0.000985663 
-3.80953e-05 0.000197193 -7.83003e-05 -0.000368934 -9.134e-05 3.25661e-05 -3.81569e-05 -9.90419e-06 3.76829e-05 
2.15915e-05 -8.16339e-05 3.88604e-05 1.98144e-05 8.28526e-05 4.56454e-05 7.93189e-06 0.000277502 1.61495e-06 
0.000129072 -0.000243289 -0.000422426 -0.000528504 -0.000304611 6.9801e-05 -0.000291769 2.35149e-06 -5.55927e-06 
0.000107161 3.62319e-05 3.49738e-05 -9.0923e-05 2.20038e-05 9.2664e-05 -2.08782e-05 -4.08168e-05 -6.05239e-05 
-4.4104e-05 7.43239e-05 -2.20762e-05 7.10993e-06 3.59534e-06 5.23228e-05 0.000178992 -0.000181148 0.000137245 
0.000497233 -0.000357776 4.92011e-05 0.0003842 0.000102661 4.29522e-05 -5.81398e-05 -7.22019e-06 -0.000116213 
-0.000138755 0.000329403 -0.000294167 0.000131845 -9.52528e-05 -5.99268e-07 9.22618e-05 4.1663e-05 -3.73857e-05 
0.000131854 -0.000467209 -0.000554198 -0.000644084 -0.000225664 -3.63187e-05 -9.37887e-05 6.49346e-05 -0.000478352 
0.000435282 -1.11022e-05 0.000154887 -0.000150358 -0.000114449 0.000635315 -2.0911e-05 4.91854e-05 8.93953e-05 
0.000372523 0.000158079 7.06254e-05 -0.000290158 0.000164361 0.000148271 -0.000220277 -2.49072e-05 6.1525e-05 
-0.000100288 2.75203e-05 -3.43701e-06 -0.000213801 -0.000112514 5.20655e-05 -5.1358e-06 -0.000221948 -0.000110348 
1.08537e-05 0.000232612 7.26243e-05 0.000331009 0.000263267 -0.00016617 7.67652e-06 -1.17741e-05 0.000112233 
-3.01852e-05 8.84776e-06 -9.90933e-06 -7.56453e-06 -4.98372e-06 6.07832e-06 4.0328e-07 -6.83752e-06 6.17335e-06 
-8.95435e-06 -1.27477e-05 4.53568e-06 3.04988e-06 3.90785e-06 -4.54128e-06 -4.77043e-06 -9.28423e-06 -4.38055e-06 
-3.46268e-06 -2.2801e-05 -8.40111e-08 -1.87368e-05 -9.93264e-06 4.26793e-06 -8.61119e-06 -1.53252e-05 -3.16411e-06 
-6.10201e-08 6.48942e-06 -6.6294e-06 1.39435e-05 -1.04903e-06 -6.13968e-06 -1.18856e-05 -2.18717e-06 -1.24763e-05 
-4.44631e-06 -1.27324e-05 -6.6997e-06 3.79935e-06 2.64449e-06 -1.18046e-06 1.58999e-05 4.16273e-06 5.11873e-07 
-1.15127e-05 8.05386e-06 -6.26577e-06 5.34396e-06 7.46269e-06 -4.2701e-06 -8.29449e-06 -2.86625e-06 2.21727e-06 
7.92561e-06 -7.43005e-07 -1.66676e-07 -1.1863e-05 1.74619e-06 -2.96401e-06 3.06907e-08 -2.23834e-06 -2.13159e-08 
-3.83373e-06 3.3873e-06 4.37642e-05 7.02111e-05 -9.83733e-05 -6.29562e-05 -6.76796e-05 -1.16288e-05 -2.42164e-05 
4.47625e-06 3.95392e-05 -6.2943e-05 -7.50148e-06 -1.92134e-05 3.78564e-05 -2.61406e-05 9.48461e-06 -5.71251e-05 
1.03552e-05 -1.96819e-05 -1.68082e-06 -4.33151e-05 -1.9734e-05 2.34298e-05 6.11233e-06 1.97259e-05 1.59939e-05 
3.1045e-05 2.46895e-05 1.92942e-05 7.713e-06 8.07265e-06 1.18659e-05 -1.91916e-05 -1.09799e-05 -1.90959e-05 
2.81849e-06 -7.01906e-06 6.56616e-06 3.18947e-05 1.21536e-05 2.09908e-05 4.0666e-05 4.67215e-05 1.87505e-05 
1.45777e-05 -3.1056e-05 4.47968e-06 8.56591e-05 9.79813e-05 -3.05504e-05 -0.000120798 -3.6164e-05 -0.00011764 
-4.61691e-05 -9.51905e-05 -0.000100452 1.34362e-05 4.3782e-05 -4.87523e-06 -9.52511e-05 7.61048e-06 -4.33256e-07 
1.05587e-05 2.56844e-05 -2.14819e-07 1.84135e-05 -3.02176e-07 -2.06042e-06 2.04985e-05 7.22332e-06 -3.12143e-06 
-3.0904e-06 1.22916e-05 -1.49909e-05 6.77998e-07 1.44276e-05 -2.26666e-07 1.56276e-06 1.85004e-06 -5.78045e-06 
-1.72365e-06 1.25721e-06 -6.35183e-06 1.40222e-07 4.01003e-06 -3.09211e-06 -6.27186e-06 3.6423e-06 -4.66178e-06 
-3.57726e-06 -4.01068e-06 6.9238e-07 4.07452e-06 5.43835e-06 6.68265e-07 5.5247e-07 1.09936e-06 4.49209e-06 
-6.41177e-06 -3.56399e-08 -6.12799e-06 -1.47323e-06 -1.48243e-05 -1.77516e-05 -0.000122032 -6.39465e-06 -5.95022e-06 
-6.8975e-06 -2.80306e-06 1.45495e-06 5.11533e-06 -4.51206e-06 1.72814e-06 2.76736e-06 4.41642e-06 -5.20463e-07 
2.13941e-06 1.88294e-06 -4.70059e-06 -2.45375e-06 -7.7988e-07 -7.60769e-06 4.73997e-06 2.40929e-06 -3.09668e-06 
2.63816e-06 2.31227e-07 -3.5364e-06 -1.68628e-06 1.22186e-06 2.88928e-06 8.59292e-06 -7.21454e-07 -4.23602e-06 
-6.61894e-06 -6.45233e-06 -1.15108e-05 8.22057e-06 1.0921e-05 -1.58357e-05 -6.08133e-06 1.29461e-05 -4.52656e-06 
-3.7645e-06 1.00481e-05 -5.24024e-06 2.63129e-05 1.29677e-05 5.0755e-05 3.46664e-05 -1.04198e-05 4.36253e-05 
2.21396e-05 6.22503e-06 3.10552e-05 1.76339e-05 8.63745e-06 7.11968e-06 -3.07863e-05 9.3743e-06 -2.45379e-06 
1.96883e-05 -3.81289e-06 -1.88526e-05 -1.49547e-05 -6.89121e-06 -2.09444e-06 -3.24398e-05 -2.11607e-05 4.76062e-05 
-4.75497e-05 -2.21014e-05 -2.00151e-05 -2.76953e-05 -4.62023e-05 -1.99612e-05 -5.09896e-05 -2.53528e-05 3.94392e-06 
-2.64183e-05 -1.26236e-05 2.42838e-05 -5.0581e-05 -2.71023e-05 -5.77695e-06 -3.48622e-05 -1.72379e-05 -6.0518e-06 
-1.91529e-05 -1.51291e-05 1.00972e-05 1.89798e-05 4.15563e-05 1.87627e-05 -1.61345e-05 5.31158e-06 -1.09986e-05 
-7.54434e-05 -3.94712e-05 -4.06223e-05 -0.000149224 0.000189033 -4.25835e-05 0.000230757 0.000174373 2.99125e-05 
-9.30917e-05 0.0002039 0.000205475 6.75092e-05 -1.30037e-05 -9.00385e-05 9.45391e-05 -7.56282e-05 -2.99095e-05 
-0.000167331 -8.86375e-05 -1.2744e-05 3.34023e-05 -8.32992e-05 -2.57366e-05 -5.24721e-06 -3.61031e-05 -6.33337e-05 
-9.62027e-06 -4.06139e-05 -7.81598e-05 -2.00667e-05 -3.55505e-05 -4.48186e-05 -2.3621e-06 -5.40619e-05 -3.25856e-05 
-2.72475e-05 -2.63491e-05 -5.26815e-05 -2.48222e-06 -2.67642e-05 -5.18494e-05 5.29622e-06 -3.01476e-05 -2.36532e-05 
-1.18261e-06 -2.88051e-05 -7.8874e-05 -8.42306e-06 -8.98824e-05 -5.0589e-05 4.91227e-06 -6.00434e-05 -7.83434e-06 
-1.09082e-05 -4.68174e-06 2.37853e-05 -5.61302e-05 2.63542e-05 -7.19686e-05 -1.52873e-05 -3.50861e-05 -0.000114785 
7.33454e-06 -8.5948e-05 -1.2946e-05 -3.28488e-05 -7.45317e-05 -7.09076e-06 -1.58541e-05 -3.9786e-05 9.92615e-06 
-1.98899e-05 7.06799e-05 -0.000122742 1.83917e-05 -2.89368e-06 -5.974e-05 -0.00023698 -8.23066e-05 4.29821e-05 
1.62535e-05 -1.31616e-05 -7.82322e-06 -1.01081e-05 -3.87658e-06 -0.000361656 -0.000126586 7.02453e-05 2.39149e-05 
-3.41135e-05 5.12362e-05 -2.62325e-05 -7.86291e-06 2.45e-05 8.93769e-06 7.92568e-05 4.83903e-07 0.000217365 
-0.000204646 7.2021e-06 7.46996e-05 -1.64022e-06 0.000258885 -0.000174756 -1.45422e-05 3.65207e-05 2.7429e-05 
3.48945e-05 -5.02881e-05 8.38583e-05 -3.81652e-05 9.39109e-06 -1.27139e-05 5.28232e-05 1.383e-05 -0.000185152 
4.29203e-05 5.76931e-05 7.06888e-06 2.91967e-05 6.27178e-05 -6.70952e-05 4.94423e-05 -4.81623e-05 3.89763e-05 
-2.83114e-05 -5.4492e-05 -1.01494e-05 0.00020767 0.000490343 -0.000110024 -6.86257e-06 5.53215e-05 6.74197e-07 
-1.21358e-05 -6.90335e-05 6.43801e-06 1.9217e-05 1.08158e-05 -7.59844e-05 -1.41782e-05 -5.66186e-05 5.51234e-05 
6.05998e-05 -4.29864e-07 -0.000216678 4.49312e-05 6.60868e-05 -0.000102307 -5.4506e-05 -1.03412e-05 1.63091e-05 
-5.85329e-07 -8.60942e-05 7.32252e-06 3.34654e-05 -8.36219e-05 2.10652e-05 -2.68457e-05 -3.98012e-05 -0.000202536 
-7.27739e-05 -0.000103844 3.37291e-06 6.65166e-06 -2.0262e-05 -1.67314e-05 0.000180113 8.0481e-05 0.000161523 
-8.89284e-05 -0.00022848 0.000282459 -8.28383e-05 -5.6082e-07 -1.3282e-05 -8.07307e-06 4.05722e-05 -2.40343e-06 
-1.98231e-05 4.59245e-05 0.000275243 -0.000229624 -3.7349e-06 0.000179379 -9.5222e-05 3.42394e-05 -7.64428e-05 
1.79889e-06 3.76738e-05 -1.72503e-05 3.20318e-05 4.15006e-05 -7.84106e-05 1.06292e-05 7.75285e-05 2.48556e-05 
8.6764e-05 -2.26595e-05 1.32519e-05 -0.00013366 0.000148706 -5.55451e-05 -0.00031932 -0.000382934 -2.78443e-05 
-9.36094e-06 -9.58802e-06 0.000281102 -4.17075e-06 -0.00044198 -6.6075e-06 3.89824e-05 0.000191359 9.61712e-05 
-2.98996e-05 4.13737e-05 -2.20033e-05 -3.16557e-06 8.98485e-05 -0.000168276 8.31848e-05 -0.000144093 4.36066e-05 
2.53775e-05 -2.7346e-05 8.87789e-06 -0.000154317 -0.000186696 7.90676e-06 -6.96368e-05 0.000147229 -1.41233e-05 
2.83585e-06 -1.4244e-05 3.42316e-07 -1.46882e-06 4.98023e-06 -4.79375e-06 1.15159e-05 8.93912e-06 5.76631e-06 
-2.56813e-05 -2.06223e-05 -1.757e-05 -2.76617e-05 1.18843e-05 0.0041607 0.00230883 -7.72551e-06 1.31015e-05 
2.46215e-05 -1.4594e-05 1.99622e-05 -1.78098e-05 -2.10023e-05 -1.40127e-05 1.30634e-05 1.02993e-05 9.4706e-06 
2.76077e-06 1.89946e-05 -0.00318353 -0.00441193 -1.11837e-05 -3.59254e-06 1.97313e-05 -1.09535e-05 -7.49377e-06 
-2.76986e-06 7.40256e-06 1.1501e-05 -1.6177e-05 3.25616e-06 -8.06948e-06 -3.8137e-06 4.29182e-06 -3.68986e-06 
2.66281e-05 -2.69102e-07 -4.42199e-06 -3.49975e-06 -6.12674e-06 6.90072e-06 -1.19361e-05 3.27857e-06 -1.27937e-06 
-1.01937e-05 8.08307e-06 -7.50519e-06 6.18665e-06 1.36634e-05 -2.4683e-06 3.82634e-05 -8.75909e-05 0.000254357 
6.4933e-05 9.48098e-06 -2.56549e-05 1.49031e-05 -1.53899e-06 -5.67313e-05 4.24098e-05 4.26469e-05 1.13323e-05 
2.74356e-05 -4.83948e-06 -5.2299e-06 -1.13877e-05 -1.24476e-05 -1.78985e-05 9.15088e-06 1.20233e-05 9.96992e-07 
5.76671e-06 2.69767e-06 -2.60154e-05 1.23132e-05 -3.7363e-06 -7.21289e-06 -9.27025e-07 -2.10641e-05 -5.28587e-05 
-5.57555e-06 -2.56813e-06 -2.51166e-05 -3.44422e-06 3.47818e-05 1.39878e-05 2.87553e-05 1.02948e-05 9.69013e-05 
2.7744e-05 2.17472e-05 4.24542e-05 3.21813e-05 2.75771e-05 -3.45902e-06 1.36186e-05 -7.37485e-06 -4.04369e-07 
1.1999e-05 -2.71145e-06 1.00462e-05 1.69561e-07 2.6226e-06 1.04609e-06 -5.83208e-06 -1.24529e-05 -7.25445e-06 
-1.39771e-05 -2.32073e-06 -1.99962e-05 5.9371e-06 -6.69693e-07 -2.05164e-05 -3.63701e-06 4.72268e-06 -1.32708e-05 
-3.85987e-06 -2.91076e-06 -4.14924e-06 -1.30729e-05 -5.7922e-06 1.96664e-05 -1.24661e-05 -5.83727e-06 -1.28353e-05 
-3.85399e-06 5.57905e-07 -5.82851e-05 0.000159909 -4.22181e-05 -7.40254e-06 -6.08351e-07 1.32315e-06 1.15228e-07 
-1.39834e-06 3.91336e-06 3.20583e-06 4.44501e-08 2.43527e-06 5.37357e-06 -5.85236e-07 -9.54005e-07 1.5325e-06 
-3.26736e-06 -5.6949e-06 6.14224e-06 -5.46093e-06 -5.10567e-06 4.77857e-06 -2.70521e-06 3.46192e-07 1.02985e-05 
1.93191e-06 7.31523e-06 2.28095e-05 6.31531e-06 8.55209e-06 1.18577e-05 -1.91895e-05 -6.02256e-06 -4.22052e-06 
-2.15903e-05 -2.93793e-05 1.45801e-06 1.25037e-05 3.98689e-06 3.28704e-05 1.24797e-05 2.28069e-05 1.63177e-05 
-9.88232e-05 4.85212e-05 -2.53547e-05 -3.43352e-05 -1.74602e-05 -9.25584e-06 8.17289e-06 -6.60219e-05 -5.48073e-05 
7.2675e-06 -3.92443e-05 -4.86192e-05 -1.06143e-05 1.64773e-05 -8.41743e-06 3.65011e-06 1.96372e-06 -7.01694e-06 
2.70389e-06 -5.40767e-05 -2.75932e-05 1.07672e-05 -5.9987e-05 -1.32639e-05 9.04935e-06 -2.00665e-05 -1.38947e-05 
3.31991e-06 -2.7087e-05 4.04504e-06 3.05593e-06 2.31508e-06 3.17296e-05 9.91598e-06 -3.18133e-06 7.50978e-06 
-1.04311e-05 3.11832e-07 5.2666e-05 -1.73897e-05 1.76197e-06 4.62499e-05 6.77513e-05 -1.519e-05 -7.68443e-06 
-0.000100666 -1.38815e-05 0.000124977 4.1036e-05 -2.428e-05 -5.13546e-06 -1.71144e-05 -1.0499e-05 -3.72114e-05 
-1.11641e-05 -7.67069e-06 -2.35785e-05 -1.77901e-05 -7.43768e-06 -1.66493e-06 -2.48913e-05 -2.00235e-05 -8.88281e-06 
-1.46212e-05 -1.72254e-05 -2.60644e-05 2.31298e-05 2.30612e-06 -1.21368e-05 -1.19411e-05 -1.69631e-05 -9.03631e-06 
4.94526e-06 -3.81214e-05 -2.76218e-05 1.72955e-05 -1.88464e-05 -1.93392e-05 9.93178e-07 -1.28926e-05 -1.07228e-05 
-1.63484e-05 -3.01706e-05 -3.2514e-05 -5.82892e-05 -1.24429e-05 -5.02826e-05 2.93308e-05 -9.00713e-06 -2.14736e-05 
1.46906e-05 6.19955e-06 1.41377e-05 -4.12803e-07 -2.34452e-05 1.56108e-05 2.21459e-05 3.90094e-05 5.09455e-05 
-5.85148e-05 -4.74359e-05 5.2995e-06 -5.68545e-05 -0.000164802 -2.25825e-06 1.98474e-06 6.07449e-06 -6.40531e-05 
2.93687e-05 2.17498e-05 2.037e-05 -2.78114e-05 2.83419e-05 1.69125e-05 6.71847e-05 1.21298e-05 5.49587e-05 
-6.28033e-05 -3.62068e-05 -4.37441e-05 -0.000110474 -0.000134124 -0.000299841 -0.00017524 6.81626e-06 2.45594e-05 
2.83657e-05 2.74077e-05 -2.59943e-06 5.207e-05 -2.14116e-05 4.92552e-06 3.76639e-05 -3.1208e-06 -8.33221e-05 
-1.59458e-05 6.43333e-06 4.66675e-06 0.000153042 -0.000186463 -2.51047e-06 -4.01965e-05 0.000201846 -0.000137126 
-4.21786e-06 3.69675e-05 0.000148984 -0.000174736 -6.25018e-05 6.14067e-05 8.86504e-05 -3.33492e-06 5.23101e-05 
9.42458e-05 -2.82343e-05 -7.79635e-05 7.30142e-05 7.1692e-07 6.1693e-05 -6.72423e-05 5.69583e-05 2.4208e-05 
-3.17166e-06 4.07047e-05 2.88981e-05 1.3557e-05 1.73601e-05 -1.56437e-06 0.000115847 7.03606e-05 -6.06259e-06 
-4.05201e-06 2.75482e-05 7.26908e-05 -6.27691e-05 -5.30786e-05 -8.99897e-05 -5.84795e-06 -3.89966e-05 -4.76047e-05 
3.25483e-05 -4.72375e-06 -4.53467e-05 5.23402e-06 1.21016e-05 3.11157e-05 -4.78818e-05 7.17782e-06 7.82451e-05 
-1.20037e-05 -8.02316e-06 8.72575e-05 5.02275e-05 -2.8615e-05 0.000181115 0.000170259 -0.00014209 6.54117e-05 
5.62623e-05 2.15272e-05 5.76998e-05 4.10429e-05 -1.9724e-05 -2.60002e-05 1.87204e-05 -1.17599e-05 8.05972e-06 
1.54864e-05 -5.75488e-05 4.79532e-05 3.71176e-05 -6.85396e-05 -4.63941e-05 -1.48098e-05 9.97937e-05 3.56758e-05 
-6.80564e-05 2.61515e-05 -3.01057e-05 -0.000103262 4.63046e-05 0.000117133 2.9066e-05 5.27199e-06 -2.29634e-05 
-8.04505e-05 3.47081e-05 -7.37796e-05 -0.000289966 8.86357e-05 -4.13076e-08 -7.88681e-06 -4.19791e-06 8.0575e-06 
3.24279e-05 4.22724e-06 5.20766e-05 -2.30297e-05 -0.00297412 -0.00470603 3.56857e-05 -3.29452e-05 3.7282e-05 
1.4625e-05 -8.95371e-06 2.38626e-05 -0.00215653 0.00212287 -6.18987e-06 8.53271e-05 2.2444e-05 -8.9914e-05 
-3.74191e-05 8.98188e-05 -0.00201342 0.00229411 -0.00156182 0.00307448 -2.03814e-05 -0.00467744 -0.00386573 
-8.775e-06 5.58313e-05 5.28469e-05 -6.27014e-06 -3.36567e-06 -6.32875e-05 -2.01075e-06 3.54657e-06 5.1863e-05 
2.14397e-05 -0.00190144 0.00327987 -1.07244e-05 -2.85064e-06 -6.18893e-06 1.39018e-05 0.00704122 0.00935666 
-7.01787e-06 -8.44918e-07 -8.70369e-07 2.06453e-06 -3.83791e-05 -3.09929e-06 -4.75477e-05 -1.90591e-05 -9.05094e-06 
3.68476e-06 2.3118e-05 -3.81853e-05 -2.66768e-05 2.86269e-06 -1.07815e-05 1.88138e-06 -2.63204e-06 -2.23692e-05 
1.8272e-05 4.08905e-07 -1.70404e-05 1.99182e-05 -4.46338e-05 -3.08359e-05 -4.83968e-06 -1.23472e-05 2.23076e-05 
8.3169e-06 -1.18231e-05 1.18489e-06 1.22914e-05 1.19112e-05 1.74153e-06 -1.04615e-05 -6.49061e-06 -3.79774e-05 
-2.94338e-05 3.77483e-05 -2.8063e-05 7.91625e-06 -4.16445e-05 8.99815e-06 1.01168e-05 -5.54344e-05 -1.98873e-05 
-7.10078e-06 -3.17135e-05 -1.59571e-05 -1.46539e-05 -1.60119e-06 5.31414e-05 -1.47578e-05 -2.14131e-05 1.44199e-05 
7.31438e-06 -9.31302e-06 1.42817e-07 2.24776e-05 1.15644e-05 2.39074e-05 -7.79244e-06 1.00675e-05 -1.11481e-05 
-2.11592e-05 -1.70393e-06 1.03428e-05 -2.54861e-05 -8.07572e-07 3.50137e-05 1.55285e-05 -8.69441e-05 -4.02275e-05 
-7.27983e-05 6.32731e-05 -1.56756e-05 -0.000142982 0.000200684 -6.17551e-05 7.05655e-05 9.38038e-06 6.73922e-07 
6.79371e-06 -3.68658e-07 4.9606e-05 -1.2721e-05 2.4655e-05 3.14694e-05 1.45942e-05 6.01773e-05 2.70955e-06 
2.0949e-05 1.58384e-06 1.7662e-05 -1.6899e-05 1.93279e-05 -7.52311e-06 9.48893e-06 -8.4064e-06 5.31402e-06 
-1.73735e-06 3.06144e-05 9.21405e-06 1.16696e-06 3.13098e-05 1.47101e-05 2.62119e-06 2.04508e-05 -1.1515e-05 
-2.7571e-06 -7.2438e-06 -8.92023e-06 -3.72113e-06 1.0436e-06 -4.01755e-05 3.79693e-06 5.93101e-06 -2.58694e-05 
1.30864e-05 4.5041e-06 4.20136e-05 -4.23285e-05 2.01839e-05 -2.90179e-05 2.69156e-05 1.35728e-05 8.74247e-06 
-1.85654e-05 -1.10645e-05 -5.34284e-06 6.89006e-06 -3.48358e-05 -3.62683e-05 6.39774e-05 1.05449e-05 -2.35818e-05 
5.57669e-05 2.47729e-06 5.89679e-06 5.71703e-06 -1.09925e-05 2.59893e-06 2.23766e-05 -1.50983e-05 -2.47447e-05 
-7.63788e-05 -9.13116e-06 9.57484e-07 2.67888e-05 -2.00717e-05 -9.85064e-07 -1.32212e-05 -7.05846e-06 1.26111e-05 
1.5592e-05 3.55128e-06 3.74421e-05 2.93852e-05 -6.42693e-05 4.15229e-05 1.95779e-06 3.89093e-05 4.54318e-05 
6.14085e-05 3.08512e-05 2.55065e-05 1.04845e-05 -3.5994e-05 -3.06209e-06 1.67782e-05 -1.33622e-05 -3.60042e-06 
-6.46425e-06 6.54448e-06 7.28151e-06 3.30467e-06 -1.14887e-05 -8.08294e-06 -2.34052e-05 6.43347e-05 4.80473e-06 
1.53018e-05 -2.18858e-05 -7.38406e-07 -4.15287e-06 -8.92457e-06 8.02237e-06 1.70866e-06 1.55534e-05 -9.49125e-06 
-0.000125933 0.000133013 -1.90105e-05 -7.60929e-06 9.19026e-06 -2.71675e-05 1.89393e-05 -1.47572e-07 5.72979e-06 
3.45701e-05 -6.20874e-05 6.28364e-06 -2.10728e-05 -0.000184772 0.000159038 5.34016e-05 -4.30788e-06 2.69837e-05 
5.51893e-06 -1.3607e-05 -4.38473e-05 5.57881e-05 -2.58687e-05 -5.96344e-05 -2.08025e-05 4.37568e-06 4.05055e-05 
-2.84747e-06 4.13463e-05 0.000102791 -4.50158e-05 -2.86017e-05 -2.93023e-06 -2.00673e-05 -1.88374e-06 2.48206e-05 
-3.00066e-05 3.0017e-05 -9.72663e-06 7.93624e-05 2.86294e-06 -7.12408e-06 -3.81185e-06 1.90413e-05 -2.41864e-05 
-7.99301e-05 3.19754e-05 0.000114878 -0.00011941 3.81294e-05 7.75596e-05 -4.50928e-05 -0.000118137 -0.000149223 
9.66846e-06 -6.78693e-05 -3.94683e-06 -3.46252e-05 -2.95733e-06 -0.00014375 9.39131e-05 -2.16361e-05 7.29669e-06 
8.7675e-07 4.47678e-05 2.91368e-05 0.000112444 -6.20721e-06 -5.16458e-05 -1.55968e-05 -5.10154e-05 1.73923e-05 
6.64142e-07 -5.39196e-05 -1.64673e-05 3.84358e-05 3.91442e-05 4.3823e-05 4.44995e-05 3.06126e-05 3.21103e-06 
-7.7402e-05 -3.80629e-05 -2.69437e-06 6.50115e-05 -2.28787e-05 -2.59083e-05 -3.64629e-05 0.000106561 7.97508e-07 
-6.15593e-05 9.78777e-06 -6.60282e-07 -0.00392867 0.00203504 -1.54154e-05 -5.33049e-05 -2.71155e-05 -1.39181e-05 
4.27319e-05 1.93762e-05 -1.81922e-05 -3.75998e-05 -2.41288e-05 2.53686e-06 -5.6345e-05 2.14148e-05 2.61514e-05 
5.4032e-06 6.7792e-06 0.000126987 -9.12782e-05 4.58344e-05 -3.146e-05 2.52279e-05 2.5068e-05 5.63275e-06 
1.1298e-05 4.76018e-06 2.4748e-05 0.000146462 -5.36452e-05 -3.77259e-05 4.52153e-05 1.20437e-05 -8.90164e-06 
2.4131e-05 1.67942e-05 8.23241e-06 6.31905e-06 -5.21809e-05 4.1629e-05 -2.76161e-05 -3.12119e-05 -9.31914e-06 
2.04405e-05 5.11206e-05 5.54602e-06 -8.15912e-06 -9.62644e-05 0.000127398 -1.22228e-05 -3.52668e-05 7.51431e-05 
4.46762e-05 2.58709e-07 3.76183e-05 2.48732e-05 7.42813e-06 -1.5955e-05 2.68244e-05 -9.53236e-06 8.27481e-07 
-8.32271e-06 -1.41336e-05 -5.13378e-05 -1.26245e-05 -2.15657e-05 2.66902e-05 -5.15232e-06 -4.3527e-05 3.76767e-05 
-9.54682e-07 3.42962e-06 8.85509e-06 -4.77892e-06 2.81932e-05 -1.00572e-05 1.33128e-05 3.75719e-05 1.56632e-05 
6.50116e-05 -8.52484e-06 3.92033e-05 1.51388e-05 -4.43995e-05 2.46e-05 1.23499e-05 -4.54697e-06 -3.14218e-05 
1.97086e-05 2.451e-05 3.68067e-05 8.37944e-05 -1.80168e-05 7.00925e-05 -1.89167e-05 -6.39554e-05 -8.77753e-05 
-4.70637e-05 -3.94868e-05 2.55339e-05 -6.92043e-05 0.000101296 7.36525e-06 -0.000137666 -1.61472e-05 2.23261e-06 
-3.30609e-05 6.70198e-05 -0.0001158 -9.65162e-05 0.000108237 9.02172e-05 6.10317e-05 -4.01575e-05 -1.0656e-05 
1.3855e-05 -7.22016e-05 -5.10471e-06 -4.41338e-05 -6.48424e-05 -4.89633e-05 -1.56922e-05 -0.000145396 -1.96987e-07 
8.04217e-05 8.43383e-05 -4.89294e-05 -3.95024e-05 3.41789e-05 4.74738e-05 -1.68596e-05 -5.16837e-05 -0.000126586 
-2.93638e-05 2.86682e-05 1.45822e-05 4.66287e-06 -9.51108e-06 -1.1986e-05 2.77325e-06 1.53784e-06 -1.4089e-05 
3.14318e-06 -4.159e-06 -8.62765e-06 6.93411e-06 4.07679e-06 5.55964e-06 -1.86003e-06 2.11267e-06 4.85848e-06 
-1.55887e-06 4.31709e-07 3.40339e-06 6.39993e-06 -7.24475e-06 -3.25884e-06 -2.40635e-06 -4.73982e-06 8.93693e-06 
1.18883e-05 -1.8386e-06 2.34009e-05 -1.86513e-05 -2.13387e-05 -8.75224e-08 -2.07171e-06 1.07504e-05 5.09887e-07 
-2.05327e-06 -1.70224e-06 2.12231e-05 -6.90198e-06 2.85083e-06 1.01584e-05 -3.88156e-06 -2.6416e-06 -5.38178e-06 
3.66136e-07 -4.40671e-06 -3.48196e-06 -2.93284e-06 1.12306e-06 1.01416e-06 1.27753e-05 5.69616e-06 1.91454e-06 
1.64647e-06 -3.18655e-06 6.76657e-07 1.73302e-06 2.57822e-06 -1.35834e-05 1.2586e-05 5.47104e-06 -7.47766e-06 
1.3839e-05 5.81301e-06 2.3785e-06 -2.80646e-05 0.00251816 -0.00124758 -0.0267497 0.000121375 0.000385491 
-0.00139841 0.000144268 0.000226851 -4.54113e-05 -7.89778e-05 -9.71505e-06 7.14808e-05 -4.41775e-05 -4.58277e-06 
-6.7217e-06 1.70562e-05 5.73757e-05 6.63711e-06 3.22913e-05 2.11361e-05 3.87608e-05 1.78112e-05 1.49209e-05 
-2.95235e-07 -7.03296e-06 2.5302e-06 7.86216e-06 1.45629e-05 2.14355e-05 -3.4661e-06 3.05137e-05 2.3487e-05 
2.66569e-05 3.16122e-05 3.70419e-05 -5.22597e-06 5.05221e-08 1.43833e-05 2.97167e-06 6.67751e-06 1.34695e-05 
-2.16298e-06 2.21874e-05 7.01751e-06 2.36629e-05 -2.53007e-06 -3.04195e-05 1.83738e-05 -1.51986e-05 3.35218e-05 
6.47344e-06 4.18956e-05 2.80436e-05 -2.36869e-06 -7.13043e-06 -2.43525e-05 -1.26464e-06 -2.17765e-05 -3.39072e-05 
1.36087e-05 -1.70954e-05 3.03349e-06 -6.72723e-06 -1.70522e-05 -1.46271e-05 -1.53641e-06 -8.74869e-06 -1.39829e-05 
-1.49967e-06 -8.26614e-07 2.96209e-06 -4.96539e-06 -4.50661e-06 -2.04449e-05 6.22185e-07 -1.5705e-05 -1.74387e-05 
1.32054e-05 -8.7376e-06 -3.20018e-06 -9.0051e-07 3.54162e-06 1.36028e-05 -6.94723e-06 1.5747e-05 1.96997e-06 
6.12504e-06 5.72589e-06 1.46461e-05 -4.12832e-07 3.00107e-06 5.60909e-06 -1.64266e-06 5.33823e-06 7.6286e-06 
-9.98824e-07 1.60875e-06 3.21599e-06 6.03335e-06 1.08459e-05 3.91501e-07 1.56074e-05 5.95711e-06 1.62146e-05 
-1.57271e-06 0.0121573 -1.32366e-05 -1.74507e-05 -7.21149e-06 -7.30339e-06 1.12599e-05 1.19537e-07 1.96187e-07 
4.54234e-06 5.96531e-06 6.35696e-06 2.329e-06 3.30075e-06 6.38761e-06 -3.32873e-06 1.57581e-06 3.25558e-06 
-1.49442e-06 1.20172e-06 3.13971e-06 -1.7668e-06 6.6716e-06 -3.85201e-06 5.63997e-06 -6.71005e-06 5.56149e-06 
-4.77903e-06 -9.10135e-06 5.98718e-06 -1.55753e-06 -1.67379e-07 6.95229e-07 -6.24673e-06 -4.74766e-06 -1.31372e-05 
2.69375e-06 -4.74229e-06 -5.35945e-06 -9.24367e-06 1.63802e-06 -1.43217e-05 1.00107e-05 -1.76824e-06 -6.12241e-06 
-1.95856e-06 -2.64184e-06 4.50526e-07 7.06535e-07 -1.61435e-05 1.40151e-05 -1.77598e-05 5.24937e-06 -2.44248e-05 
2.79e-06 -1.64081e-05 -2.15784e-05 1.75941e-05 5.68951e-06 7.28445e-06 -6.73102e-06 3.71655e-05 3.90759e-05 
-3.13821e-05 -3.34464e-06 1.73675e-05 -4.36845e-06 2.58416e-06 1.25386e-05 4.01394e-06 1.89036e-05 -4.72601e-06 
2.49767e-05 -8.33589e-06 1.63787e-05 6.64457e-06 4.27097e-06 1.0159e-05 -1.57454e-05 8.1874e-06 -1.09099e-05 
2.82513e-05 -1.33459e-05 1.07016e-05 2.26416e-06 -1.81668e-05 9.88744e-06 -7.05531e-06 -1.22345e-05 -7.50071e-06 
5.61865e-06 1.55658e-05 -4.23356e-05 7.08357e-05 -1.46629e-05 4.78184e-05 -2.46558e-06 -4.42391e-05 7.05548e-05 
-0.000108682 -4.04085e-05 -2.23391e-06 8.89724e-05 -0.00851077 -0.00167077 0.000256942 -0.00665975 0.0179714 
0.0146947 0.0270003 0.0291832 -0.0165609 0.0248817 0.0240291 -0.00947633 0.0225599 0.0235322 
-0.0122473 0.0252276 0.0273368 -0.0120984 0.0296676 0.0236439 -0.012833 0.0267149 0.0238538 
-0.0119105 0.0242105 0.0246433 -0.0124839 0.0248953 0.0274944 -0.0121669 0.0281421 0.0234905 
-0.0129841 0.0271892 0.0240755 -0.00954255 0.0250936 0.0256444 -0.012667 0.0264838 0.0285665 
-0.0119174 0.0106622 0.0121991 -0.0143209 0.0138767 0.010665 -0.0193454 0.0260696 0.0261562 
-0.0137957 0.0239268 0.0255217 -0.0119814 0.0257021 0.0277548 -0.0119661 0.0135816 0.0126156 
-0.0142396 0.0290768 0.0272472 -0.0156017 0.0265909 0.0251525 -0.0127622 0.0263719 0.0262793 
-0.0133764 -0.00738911 -0.0111628 -0.00904186 -0.0102328 0.000911256 -0.0092851 -0.0130372 0.00308299 
-0.0112002 -0.00614018 0.00234727 -0.00581913 -0.00762383 0.00301053 -0.00665786 -0.00818882 0.00325512 
-0.00824442 -0.011947 0.00349076 -0.012328 -0.0109242 0.00363824 -0.0110937 -0.0128226 0.00256884 
-0.00714267 -0.018274 0.00651054 -0.0122331 -0.0172964 0.01043 -0.0150477 -0.0233418 -0.0198035 
-0.0184846 0.00406324 -0.0175531 -0.00908413 0.00276676 -0.00854063 -0.00661888 0.00291527 -0.00729264 
-0.00641309 0.00276217 -0.00706513 -0.00662829 0.00304942 -0.006716 -0.0056915 0.0032434 -0.00545881 
-0.00990601 0.00310142 -0.00940644 -0.0113713 0.00274681 -0.0119537 -0.0114545 0.00284789 -0.0130353 
-0.00629805 0.000728898 0.0117114 0.0141372 0.00977937 0.00722997 -0.00123854 0.00770613 0.00733578 
-0.00332917 0.00734675 0.00654624 -0.00375393 0.00674988 0.00643066 -0.00329149 0.00702762 0.00724772 
-0.00340796 0.00789987 0.00807792 -0.00353706 0.00904423 0.00926992 -0.00393078 0.0117984 0.0155173 
-0.00533287 0.0187204 0.00195814 -0.00325159 0.00875836 0.0203485 0.0190162 0.0182789 -0.0043278 
0.012632 0.0134407 -0.00503589 0.0108114 0.0101829 -0.00363778 0.00889472 0.0103443 -0.00382049 
0.0100456 0.00639853 -0.00300564 0.00473761 0.00845741 -0.00319978 0.00839868 0.0108206 -0.00272255 
0.0124174 0.00766597 -0.00266638 0.00332159 0.00702695 -0.00645156 0.0110169 0.00747236 -0.00532807 
-3.57267e-05 1.04823e-05 5.92215e-06 -0.0198191 -0.00712636 0.0188674 -0.0111888 0.00275377 -0.0021054 
0.0109341 0.00109659 -0.000424331 0.0124123 -0.0015195 0.00179067 -0.00663753 -0.00413113 0.00142023 
-0.0131616 -0.0116306 -1.02376e-05 -0.0132326 -7.41905e-06 5.63886e-06 8.25067e-06 4.97821e-07 -1.56461e-06 
-2.24445e-05 9.00853e-06 2.87706e-06 2.16966e-06 1.97805e-06 1.39982e-06 2.93888e-07 -1.56926e-06 -6.55056e-06 
-6.2384e-06 8.15918e-08 -1.15182e-05 -8.77455e-06 -3.11218e-06 -4.58142e-06 -1.6122e-06 -1.25032e-05 -1.10975e-05 
8.19424e-06 -1.29783e-05 -2.48484e-07 1.44753e-06 -6.68572e-06 -2.61604e-06 4.27824e-06 -5.44859e-06 -1.23303e-05 
4.78106e-07 -8.89041e-06 -6.53837e-06 1.03691e-05 -2.99829e-07 2.07745e-07 -6.10664e-06 -1.25065e-06 3.32077e-06 
8.34024e-06 8.90126e-07 1.11439e-06 -1.47849e-07 1.23468e-05 1.59939e-06 -7.10148e-06 -1.35778e-07 -2.94482e-06 
-3.73714e-06 -2.07143e-07 6.16035e-06 -3.7792e-06 0.000265536 0.000478318 9.00069e-05 -0.00018772 -4.40008e-05 
0.000189431 4.95897e-05 -0.000407876 -0.00084506 0.000247466 4.73551e-05 -6.06844e-05 3.18085e-05 -7.12509e-05 
3.59549e-05 -3.55487e-05 -1.15711e-05 -3.37859e-05 -2.64868e-05 4.36525e-05 -1.10866e-05 2.00182e-05 3.51492e-05 
6.17683e-06 -1.11873e-05 4.59291e-05 7.90106e-06 -1.00625e-05 1.43232e-05 4.07857e-05 -7.77159e-06 4.03032e-05 
1.59376e-05 3.36343e-05 3.04757e-05 2.84205e-05 -1.40275e-06 2.82024e-05 2.39591e-05 6.82791e-06 5.95001e-05 
1.98083e-05 2.21814e-05 1.08348e-05 2.99005e-05 1.87518e-05 -2.20145e-05 4.51302e-05 -1.3525e-05 -1.65556e-05 
6.33703e-05 6.66453e-06 2.62366e-05 -3.87572e-05 1.49306e-05 8.52026e-07 -6.95706e-06 -6.44389e-06 -2.57918e-05 
-1.17291e-05 -1.01566e-05 -6.31359e-06 -2.13803e-05 4.48312e-06 -3.48767e-05 -1.92786e-05 6.15336e-06 -6.32756e-06 
-2.62131e-05 -3.84655e-06 1.46525e-05 -1.29055e-05 -6.8162e-06 1.23614e-05 -1.63916e-05 5.44803e-07 7.80929e-06 
-8.41673e-06 5.17063e-06 -1.45552e-05 1.17272e-05 -7.34662e-06 8.06735e-06 -2.39846e-06 -3.55335e-06 1.07892e-05 
1.18848e-06 8.69981e-07 5.01521e-06 6.0935e-06 -1.17058e-06 4.6384e-06 1.43357e-05 2.06306e-07 6.57256e-06 
1.16904e-05 3.96947e-06 7.09856e-06 5.94113e-06 8.72199e-07 1.53094e-06 1.06739e-05 3.65725e-06 8.49435e-06 
-0.00329085 -1.58459e-06 2.09635e-06 8.90187e-06 8.35691e-07 -5.21733e-06 -1.33972e-06 3.7121e-06 -5.17893e-06 
-1.47691e-06 -4.16267e-06 4.83125e-06 8.74937e-07 1.36728e-07 3.22441e-06 1.8663e-06 -1.83751e-06 2.22333e-06 
7.23913e-06 -1.5646e-06 5.30644e-06 5.27243e-06 -1.37061e-06 5.28431e-06 1.11941e-05 9.87117e-08 -1.27644e-05 
5.79931e-06 -3.31421e-06 -8.48906e-06 1.77123e-06 3.82478e-06 -1.37879e-05 3.28639e-06 -1.13124e-06 -7.09356e-06 
-1.02317e-05 7.65826e-07 -2.5496e-05 -2.09722e-06 -1.18585e-05 -1.21441e-05 -5.86256e-06 6.50177e-06 -9.0832e-06 
-1.37933e-05 3.52816e-06 -3.22338e-05 -1.09604e-05 3.50378e-06 1.67156e-05 -1.43064e-05 1.52514e-05 2.35474e-05 
-1.50939e-05 -5.19847e-06 1.77822e-05 -7.93658e-06 5.98044e-06 -2.10759e-05 1.98707e-05 -1.68429e-05 2.48064e-05 
-1.29873e-05 -9.71922e-08 1.24564e-05 1.52758e-05 -7.06898e-06 3.64845e-05 9.9395e-06 -7.86222e-06 4.19431e-06 
2.97955e-05 9.00558e-06 -9.10287e-06 5.95441e-06 1.55678e-06 2.85742e-05 7.90881e-06 -2.62965e-05 2.3347e-05 
2.34736e-05 7.98365e-06 -2.16199e-05 1.57798e-05 -9.44198e-07 -5.73392e-06 3.10362e-06 2.7724e-06 3.68011e-05 
1.09088e-05 -1.46989e-05 1.29761e-05 4.84618e-05 -1.68999e-05 1.0693e-05 9.39402e-05 3.25517e-05 -0.00022379 
0.000215712 -2.52645e-05 -0.00092756 -0.000750215 -6.93865e-05 0.000603939 -0.000720896 0.0012391 0.00476455 
-0.00385269 -0.00282159 -0.00102664 -0.001759 0.000666181 -0.00410997 -0.00271062 -0.00224508 -0.00479368 
0.000386701 -0.00354079 -0.00294203 0.000523439 -0.0057661 -0.00226823 0.000874544 -0.00416602 -0.00318426 
0.000481939 -0.00235041 -0.00455895 0.000633242 -0.00273603 -0.00291752 0.00071451 -0.00192639 -0.00150936 
0.00113857 -0.00429409 -0.00294028 0.00086813 -0.00277585 -0.00445662 0.000493381 -0.00225209 -0.00314755 
0.000508887 -0.00238581 -0.00369804 -3.87008e-05 -0.00278862 -0.00114558 -0.000331986 -0.00369888 -0.00302119 
0.0004503 -0.00248858 -0.00452409 0.000506059 -0.00208634 -0.00288155 0.000587931 -0.00376869 -0.0032536 
0.00017281 -0.00527292 -0.00258682 0.000434609 -0.00345882 -0.00371584 0.000370866 0.000875801 -8.99987e-05 
-0.00122207 -0.000217447 -5.11235e-05 2.92919e-05 0.00372655 0.0046541 0.000791848 0.00178946 -0.000680808 
0.00257398 0.00318612 4.71852e-05 0.00299146 0.00258521 0.000785322 0.00242535 0.00253031 0.000514103 
0.00234613 0.00223283 0.000219209 0.00315486 0.00464961 0.000165465 0.00464859 0.00233639 0.000387771 
0.000811465 5.47318e-05 -9.95045e-06 0.00113982 0.00133504 0.000860975 0.000125138 0.00424935 0.003923 
0.0028006 0.00102937 0.000650832 0.0022194 0.000837233 -8.11406e-05 0.00173251 0.00215806 -4.87656e-05 
0.00202334 0.00225984 0.000109068 0.00225819 0.002482 0.000177063 0.002867 0.00389967 0.000673689 
0.00269651 0.00326703 0.000627229 0.00291467 0.00141071 -0.000385271 0.00073623 -0.00392182 -0.00395538 
-0.00242368 -0.00249872 -0.00285427 -0.00188981 0.000103263 -0.00235476 -0.00135078 0.000129937 -0.00105199 
-0.00109961 0.000195631 -0.00123626 -0.0010075 0.000182489 -0.00164004 -0.00109962 0.000139614 -0.00262856 
-0.000735493 0.000168196 -0.00549696 -0.00192652 -0.000558539 -4.74634e-05 0.000409876 -0.000911207 -0.00688179 
-0.0045189 -0.00342808 -0.00357783 -0.000852165 -0.00312188 -0.00339994 -0.000730741 -0.00252617 -0.00283602 
-0.000577826 -0.00215903 -0.00215705 -0.000188537 -0.00303651 -0.00314615 -0.000519576 -0.00213267 -0.00396047 
-0.000709781 -0.00284255 -0.001563 -0.00043142 -0.00282077 -0.000221228 0.000230857 2.2418e-07 9.23794e-06 
4.2259e-06 0.00617978 0.00531358 0.00146934 -0.00182002 -0.00309589 -0.000614722 -0.00354835 -0.00649183 
-0.000441655 6.37176e-06 6.87004e-06 8.99252e-06 -3.30171e-06 0.000306691 0.000346802 -0.000483491 0.000848209 
0.000415728 0.00050765 0.0027161 -0.00032503 -0.00037144 -0.00046604 -0.000171499 -8.62758e-06 7.02309e-05 
-0.00538451 -0.00114262 -0.000469615 -0.000602542 -0.00333101 -0.00534928 -0.0016404 1.96541e-05 -0.000144618 
5.47193e-05 -0.000144249 3.42422e-06 -3.92084e-06 -9.59435e-05 -0.000847707 4.23384e-06 -9.05198e-07 5.74618e-07 
-2.62806e-06 -2.42771e-06 -6.91008e-06 9.92502e-07 -4.94656e-06 -8.21423e-07 -8.29772e-06 -3.82315e-06 -5.54706e-06 
-8.11308e-06 2.20045e-06 8.4654e-06 -6.09291e-06 2.05406e-06 -7.49152e-06 -2.58544e-06 1.01171e-05 1.68353e-06 
-2.73852e-06 -5.04693e-06 -6.9547e-06 -1.59074e-06 7.19087e-06 8.60184e-06 4.76448e-06 -1.13468e-06 -3.06524e-06 
2.71989e-07 4.71503e-06 -9.43068e-06 -0.00060786 8.87697e-06 0.000102429 -0.000159299 1.7738e-05 -4.79495e-06 
1.06973e-05 7.0273e-05 -0.000113068 7.01462e-05 -7.02354e-05 -0.000197704 0.000266864 1.2526e-05 4.26941e-05 
5.63472e-05 1.94963e-05 1.47363e-05 1.6301e-05 4.59632e-05 -8.88723e-07 7.15759e-06 2.1491e-05 1.99136e-07 
-1.6882e-05 3.18354e-05 5.89083e-06 -4.21717e-07 1.4504e-05 2.86786e-05 1.71058e-05 3.38026e-05 2.133e-05 
-5.86337e-07 4.24733e-06 1.82412e-05 -1.30558e-05 6.85473e-06 -6.84804e-06 -7.16666e-06 2.44895e-06 1.32794e-05 
1.44817e-05 -7.5127e-05 -4.92703e-05 3.57276e-05 7.46176e-05 1.2724e-05 -5.72398e-06 5.26468e-06 -2.88292e-05 
2.33126e-06 -2.04666e-06 -2.35027e-05 1.01578e-06 1.07755e-05 4.48948e-06 5.90034e-06 -3.42792e-06 -9.71329e-06 
9.63995e-06 6.13235e-06 -9.92527e-06 -2.21213e-06 6.00128e-06 -4.31337e-06 4.57617e-06 1.41825e-05 -6.05229e-06 
2.3439e-06 7.7796e-07 -5.10285e-06 3.41564e-06 1.01771e-05 8.14541e-06 -3.14495e-06 6.31958e-06 5.12201e-07 
-4.37807e-06 1.08944e-06 6.72512e-07 -1.00239e-06 -2.61796e-06 -3.54915e-06 -9.27662e-07 -8.86623e-07 5.09263e-06 
-2.01189e-06 6.16654e-06 7.25787e-06 9.52861e-07 -3.64607e-05 -0.000105886 9.15642e-05 0.00012936 1.02023e-07 
-7.9467e-06 -5.76813e-06 -1.73588e-06 -4.63486e-07 -1.53597e-06 5.93247e-07 4.68983e-07 -3.45891e-06 2.24606e-05 
-1.66922e-05 -1.46811e-05 -3.21916e-05 -2.58847e-07 2.21248e-06 8.37238e-06 -0.000309849 -0.000584496 -0.000238824 
-3.808e-07 4.96476e-06 -1.01045e-06 -3.28651e-06 7.03064e-06 -1.55607e-06 4.31049e-06 6.81641e-06 -3.26314e-06 
-6.33673e-06 2.28173e-06 -3.8314e-06 -1.19537e-06 4.41137e-06 7.61051e-06 -1.47274e-05 4.13532e-06 1.04591e-06 
-4.92028e-06 -6.91955e-06 -9.24694e-07 -4.19245e-06 -2.46215e-06 -6.93148e-06 5.98795e-06 1.02593e-05 8.82006e-06 
8.69447e-06 5.99969e-06 2.15479e-06 9.26024e-06 6.06103e-07 3.02693e-06 1.56911e-05 -1.35412e-05 -7.70452e-06 
1.45925e-05 2.39924e-05 -2.53687e-05 1.26559e-05 -6.15734e-06 1.61472e-05 1.89772e-05 2.45674e-05 -1.7011e-05 
-2.03773e-06 2.90277e-06 6.04548e-07 -3.11861e-05 -2.02665e-05 2.5665e-07 4.7266e-06 1.87108e-07 -1.50873e-05 
-1.54295e-05 -6.29079e-06 -1.31124e-05 -2.24633e-05 -1.72608e-05 -5.83722e-06 1.55115e-05 -9.6254e-08 -2.8424e-05 
1.18399e-05 -1.04826e-06 -3.69206e-06 1.66023e-05 6.147e-06 9.42881e-06 2.41623e-06 2.56247e-05 -4.20781e-05 
-3.56003e-05 -1.56405e-05 -1.37252e-05 -3.59e-05 3.96867e-06 -4.02238e-05 -0.000242083 0.000234275 -0.000289565 
-0.000162698 -1.34671e-05 -2.3907e-07 -9.88055e-05 7.14665e-05 8.40408e-05 -9.88689e-05 0.000168865 -1.59928e-05 
-7.15671e-05 0.000124109 -0.000160647 6.2591e-06 -2.99878e-05 6.31505e-05 2.25904e-06 -6.26003e-06 3.73134e-05 
-6.9383e-05 -2.69151e-05 3.468e-05 5.02199e-05 2.11672e-06 9.08219e-06 3.15438e-05 7.52146e-05 6.91511e-05 
3.47535e-05 9.11201e-05 7.00459e-05 7.03995e-06 -7.504e-07 2.3373e-05 -5.64554e-05 -9.19317e-05 2.51022e-05 
-0.00027162 -0.000138382 4.2566e-05 -0.000116788 -0.00022238 7.97109e-05 -6.40529e-05 -1.79843e-05 5.7691e-05 
-2.58225e-05 3.14344e-05 2.69788e-05 -1.93349e-06 4.02704e-05 5.27953e-06 -0.000164948 -6.58183e-05 7.73329e-05 
-0.000236219 -0.000182824 8.84636e-05 0.00037566 0.000293986 0.000618397 0.00039485 -0.000108567 -1.89864e-05 
-8.73842e-07 -2.44309e-06 2.54628e-07 1.33447e-06 0.000131886 0.000166424 -1.52863e-05 0.000370021 0.000145707 
2.65602e-05 0.000251386 7.3671e-05 2.24421e-05 4.70695e-05 -4.00762e-05 -4.94908e-05 -8.72754e-05 0.000286633 
-9.56845e-05 0.000271147 -0.000202866 1.43874e-05 2.82988e-05 -0.000111262 3.5999e-05 0.000585454 9.68597e-05 
0.000171576 -1.14173e-05 -7.01807e-06 4.2125e-06 -0.000377695 -0.000463096 0.000167385 0.000192662 6.39833e-05 
3.6282e-05 0.000100097 5.44579e-05 2.04469e-05 -5.80813e-05 1.24752e-05 -5.65922e-05 0.000108673 -1.48438e-05 
5.54689e-05 0.000541896 -1.2912e-06 0.00019223 0.000530078 -5.77666e-05 -0.000150113 -0.000463506 2.87897e-05 
0.000286086 1.41964e-05 2.87229e-05 6.76359e-05 1.76167e-05 -3.68923e-05 7.26154e-05 2.8533e-05 -6.11335e-05 
6.47135e-05 3.94664e-07 -9.92407e-05 9.28398e-05 -3.58217e-05 2.1149e-06 2.42636e-06 -4.28025e-07 1.00095e-05 
7.7621e-06 -5.42885e-06 -1.79869e-05 5.89426e-06 -0.000361127 -0.000464603 -0.000359523 -0.00023565 -3.80692e-05 
-0.000137149 -2.9278e-05 1.23493e-05 -0.000101483 -0.000416226 1.84597e-05 -0.000153972 -0.000448817 2.38367e-05 
-0.000158757 0.000179927 6.95947e-05 -0.000145979 -0.000283837 1.09353e-05 0.000214391 0.000669137 -0.000356079 
-0.00050456 -0.000171416 2.16332e-05 -0.000575067 -0.000526977 8.19841e-05 -0.000106526 -7.03376e-05 -7.98547e-06 
-5.89057e-06 0.000197888 0.000262211 0.000203583 0.000135042 -0.000118932 0.000277897 8.75028e-05 -7.54749e-05 
1.54285e-06 -2.23003e-06 1.42559e-05 3.65035e-05 5.28718e-05 -6.10539e-06 5.73891e-06 -3.58139e-06 1.04166e-05 
-0.000307692 0.000287715 6.67756e-05 -0.000106237 -1.96428e-05 -0.000233736 -0.000487535 -0.000156615 7.60354e-05 
-8.25942e-05 -0.000187522 -7.15644e-05 9.12298e-05 0.000135931 0.000150085 0.000101768 2.39887e-05 -5.09495e-06 
0.000136411 0.00103084 -7.99861e-05 0.000374528 -1.36604e-05 -0.000119656 -0.000123235 -0.000158585 0.000833808 
8.13467e-05 -0.000110321 -0.000199635 -3.45693e-05 -0.000374996 -6.39269e-05 -7.71e-05 5.17318e-05 -7.96155e-06 
-6.61182e-08 1.12946e-06 -1.1348e-05 -3.13921e-06 -1.30294e-05 2.6053e-06 -1.65281e-05 3.93321e-06 -2.5255e-05 
1.06685e-05 -4.25941e-06 8.88409e-06 -7.6952e-06 4.41974e-06 1.19354e-05 -2.03885e-06 7.81606e-06 6.75431e-06 
4.08048e-06 7.00402e-06 -3.92479e-06 4.39295e-06 9.04132e-08 3.7527e-06 -4.31375e-06 -1.92116e-05 2.2716e-05 
-1.31023e-05 3.7243e-06 1.43805e-05 -5.98585e-06 -1.75543e-05 0.000139924 5.04388e-06 -6.48184e-06 6.11631e-06 
-1.29035e-05 -3.18246e-06 -3.35516e-06 4.85303e-06 -1.52756e-05 -9.14921e-07 7.25808e-06 2.77668e-06 -1.14521e-05 
3.40786e-05 1.02801e-05 -7.89997e-06 1.74853e-05 1.92839e-05 -8.74386e-06 -4.93038e-05 2.6142e-05 -4.24242e-05 
-6.45146e-05 -6.20492e-05 -6.73489e-05 2.21397e-05 5.78064e-06 1.06358e-05 2.61257e-05 2.41971e-06 -8.5151e-06 
9.88291e-06 -1.20199e-06 2.70418e-05 2.60428e-06 -2.76459e-06 1.45943e-05 1.05242e-05 -3.13112e-06 2.38706e-06 
1.85858e-06 -6.41051e-06 3.25905e-07 9.91779e-06 -1.24544e-06 -2.00271e-06 -2.91824e-06 -5.93152e-06 -6.80223e-06 
-1.40169e-05 -9.27627e-06 9.54302e-07 -6.67533e-06 -2.94373e-06 -5.98586e-06 5.39957e-06 -1.69903e-06 2.57877e-06 
5.41582e-06 8.70071e-06 0.00017075 6.16976e-05 -1.94733e-06 5.53592e-06 3.20028e-07 -4.83375e-06 5.81753e-07 
5.11318e-07 -6.62129e-06 8.46544e-06 -6.13666e-06 1.34104e-06 8.07192e-06 -6.13416e-06 -6.21006e-06 1.50922e-06 
-2.43485e-06 3.76298e-06 9.32278e-06 7.63149e-06 -1.45317e-05 4.6273e-06 8.89902e-06 -6.88428e-06 -5.65477e-06 
3.36745e-07 7.66296e-06 2.34895e-06 -7.74037e-06 1.27899e-05 2.38627e-05 3.70187e-05 -9.12803e-06 8.39475e-06 
-1.98187e-05 -2.11485e-05 -5.15589e-05 7.73188e-05 -3.29631e-05 -4.31353e-05 1.26955e-05 -6.17462e-06 -4.07119e-05 
4.32575e-05 2.63603e-05 -1.24356e-05 -1.45819e-05 1.26822e-05 -3.93888e-05 -4.34007e-07 1.56258e-05 5.25138e-06 
1.20987e-06 2.93174e-06 -3.78245e-05 1.56255e-05 3.34995e-05 1.31272e-05 -1.19156e-06 1.87304e-05 -6.12432e-06 
8.62945e-07 -1.8085e-05 -1.03077e-05 -1.84513e-05 -2.10592e-05 -1.34993e-06 1.92968e-05 -9.60815e-06 1.23004e-05 
1.99938e-05 6.0835e-06 -1.24286e-05 1.53328e-05 7.07663e-06 -2.65e-05 -1.52234e-05 2.96312e-05 7.67586e-06 
0.000132591 -6.10577e-05 -8.33741e-05 -0.000140294 -0.000288884 -3.48824e-05 1.10792e-05 8.46914e-05 -0.000108496 
1.71443e-05 0.000126363 0.000118664 0.000109094 -0.000211321 -0.000110606 -1.06154e-05 6.38115e-06 9.77805e-06 
-6.65522e-06 1.74059e-05 -4.44409e-05 1.42895e-05 2.14474e-05 -1.95995e-05 -4.07499e-06 5.99549e-06 7.35728e-06 
-1.01349e-05 1.29499e-05 -5.06015e-07 -8.10852e-06 -2.52937e-06 -1.03355e-05 -9.91036e-06 -3.54433e-05 -2.61402e-06 
-2.26266e-05 -9.35308e-06 -7.97e-06 -1.81507e-05 -8.44609e-06 2.48062e-05 2.32951e-05 -1.76988e-05 -6.089e-06 
7.36951e-06 -7.8663e-06 -6.43686e-05 4.25207e-05 -2.08336e-05 -9.47686e-06 3.303e-05 -4.48414e-06 -9.68412e-06 
1.02747e-05 1.46591e-05 -5.63477e-06 -1.45391e-05 -1.36812e-05 -1.4978e-06 3.89782e-06 0.000174251 5.95197e-05 
1.64893e-05 1.38188e-05 -3.37245e-06 5.85371e-05 5.53682e-05 -4.39642e-05 4.93667e-05 -3.81141e-05 2.90437e-05 
-3.98196e-06 5.01076e-05 1.23571e-05 5.43402e-05 -7.91163e-05 1.24205e-05 7.36994e-05 -5.43839e-05 -1.63589e-06 
0.000103822 -1.64965e-05 7.4167e-05 6.14074e-05 -4.38018e-05 4.98961e-05 -0.000179287 -0.000457368 0.000314598 
4.23762e-05 8.86224e-05 7.32582e-05 4.66869e-05 4.20603e-05 2.3517e-06 2.38181e-05 4.72575e-06 1.05965e-05 
2.12536e-05 -3.38991e-05 -1.76217e-05 1.7662e-05 -7.51474e-05 4.01466e-05 3.16504e-05 -8.84304e-06 -0.000205459 
-9.55496e-05 0.00018236 -0.000130711 -7.52623e-05 4.73389e-05 3.6609e-05 1.59329e-05 -7.67281e-06 -1.30406e-05 
-1.27265e-05 9.3406e-06 -1.85982e-05 5.73791e-06 -5.33602e-05 -4.13529e-06 -0.00057858 0.000100267 -1.30271e-05 
-4.45499e-05 -3.61846e-06 -2.78812e-05 -2.3118e-05 1.61053e-05 -6.50834e-05 -2.35637e-05 -5.65104e-06 -0.000150855 
2.77574e-05 8.74989e-05 2.53594e-05 -3.12873e-05 -3.51226e-06 -0.000304138 1.59926e-05 -4.74993e-05 4.95864e-05 
-1.1484e-05 3.85046e-06 -4.73146e-06 -0.00033147 7.40848e-05 4.48348e-05 -1.84852e-05 5.47964e-06 7.18554e-06 
-6.51002e-05 2.43662e-05 6.88061e-05 1.69506e-05 -4.74671e-05 0.000156938 -0.000147417 0.000182378 5.14801e-06 
9.70359e-05 0.000120691 -1.16327e-05 -6.74314e-06 3.93206e-06 1.03806e-05 -6.66796e-06 0.00010568 -2.62053e-07 
9.64926e-06 2.80837e-06 3.8061e-05 -3.44502e-05 6.48937e-06 -4.71209e-05 -6.41634e-05 1.80669e-06 -6.15397e-06 
1.24889e-06 -2.13918e-05 6.94739e-06 -8.86661e-06 1.75362e-05 -1.75444e-05 -0.000138679 9.95559e-06 6.58025e-05 
7.71668e-05 -6.18192e-05 -1.98142e-05 2.83818e-05 -7.05754e-05 -3.6567e-05 0.000179666 -5.74205e-05 9.93126e-06 
0.000135946 1.58468e-05 -5.30179e-05 8.39527e-05 -1.91818e-05 -9.58023e-06 5.0109e-05 -9.98069e-05 -5.81109e-06 
-7.23036e-05 7.35805e-05 2.89807e-05 -9.29801e-05 0.000115601 5.16999e-05 -5.698e-06 -4.68241e-06 -2.30663e-06 
-0.000125472 -3.14901e-06 -0.000281216 0.000138364 -8.06904e-05 8.5527e-06 -2.47158e-05 -7.36063e-05 0.000325842 
0.000172429 -6.33531e-05 9.28746e-05 -3.60878e-05 -6.26069e-05 -0.000242378 8.89529e-06 -1.07252e-05 1.21551e-05 
-1.17947e-05 0.000142707 -4.33072e-06 9.50125e-07 -6.78458e-06 -2.59905e-07 -1.26321e-06 1.1008e-05 3.18322e-05 
1.11045e-05 -1.1194e-06 -2.21199e-05 -1.16601e-05 -3.00136e-05 -2.15336e-05 9.49334e-05 0.000225423 -6.17593e-06 
-8.12775e-07 -1.11469e-05 -1.33429e-05 -1.02899e-06 -2.76546e-05 -1.70008e-06 -4.62327e-06 1.0975e-06 2.01974e-05 
1.12053e-05 -9.52637e-06 7.73346e-06 -6.19465e-06 -1.01332e-06 4.3293e-06 -1.82393e-05 7.9048e-06 6.82727e-06 
-8.59089e-06 1.88115e-05 -1.34641e-05 -6.21806e-06 5.61446e-06 6.58405e-07 -7.65091e-06 8.95812e-06 -2.82607e-06 
4.79041e-06 7.66447e-06 -1.06196e-05 -1.93765e-06 1.75811e-05 -8.74844e-06 -4.55259e-05 -3.09262e-06 1.77241e-06 
3.70603e-06 -2.11227e-06 1.00918e-05 -5.92122e-06 5.12995e-06 -3.04637e-06 8.85339e-06 -3.10597e-07 7.70833e-07 
1.96288e-06 -7.32577e-06 4.64277e-06 1.44329e-05 -1.04729e-06 -1.65452e-05 1.99242e-05 2.59593e-05 -3.44733e-05 
-9.99762e-06 3.40276e-05 -5.11076e-05 -2.63181e-05 -2.33639e-05 -5.18602e-05 1.52578e-05 -1.96673e-05 5.21411e-05 
-6.44941e-05 2.62735e-05 3.75857e-06 4.48397e-06 -7.31195e-06 2.37135e-05 -3.3522e-06 1.2447e-05 -1.33822e-05 
-7.4838e-06 1.46033e-05 9.18597e-06 -4.39066e-06 -5.45805e-06 -4.2577e-06 6.30197e-06 1.09423e-05 -3.38238e-06 
1.78934e-05 1.40736e-05 -6.42361e-06 4.46767e-06 1.02697e-05 -2.1291e-06 8.20907e-05 1.49831e-05 2.34798e-05 
9.45527e-05 5.00245e-05 1.16589e-05 3.16178e-05 -4.15952e-05 -1.7616e-05 -1.46237e-05 -8.32846e-06 -2.75773e-05 
-1.05939e-06 1.23236e-05 -1.3303e-05 8.85726e-06 2.65864e-06 -6.02081e-06 -2.55341e-05 -6.56278e-06 2.11442e-05 
-2.5632e-05 8.61983e-06 -3.02581e-05 1.00245e-05 -1.81316e-05 1.49531e-06 -2.29865e-05 3.56465e-05 2.06511e-05 
-3.80834e-06 -3.57092e-05 -1.09862e-05 1.23942e-05 -6.6837e-05 -4.94643e-05 7.17442e-05 0.000114751 0.000110533 
0.00018538 7.98601e-05 6.49201e-05 -8.64239e-05 -3.42552e-06 9.74027e-06 3.7096e-05 0.000100902 5.40472e-05 
-1.70069e-05 5.01898e-05 -1.48031e-05 -4.62002e-06 1.47178e-05 -8.99444e-06 1.08258e-06 2.39039e-05 -5.08931e-06 
1.78534e-05 4.46028e-05 2.55545e-05 6.28606e-05 -2.51493e-05 2.68918e-05 6.27362e-05 -2.05843e-05 -3.9034e-05 
7.04605e-05 0.000120202 6.15015e-05 -8.71596e-05 -0.000172767 4.37612e-05 -0.000182973 0.000209786 -0.000157287 
9.24299e-05 4.05357e-05 0.000109705 -2.59423e-05 -5.65376e-05 2.04631e-05 -8.37121e-07 -1.17659e-06 -4.22715e-06 
-3.72334e-06 4.26016e-06 -1.20269e-05 2.29661e-05 -2.89886e-05 -3.8898e-06 -1.0183e-05 5.59221e-05 2.36418e-06 
-3.37748e-05 -2.35584e-05 -2.07105e-06 -3.4737e-05 6.70909e-05 0.000115151 7.97303e-05 4.83297e-05 -0.000177263 
-4.01403e-05 6.00542e-06 3.78672e-05 0.00012674 5.07442e-05 5.09808e-07 3.61633e-06 -2.69602e-06 1.81214e-06 
-2.43419e-05 -7.18606e-06 2.35702e-05 -6.65865e-06 8.7619e-05 2.10286e-05 2.73731e-05 -2.0041e-05 -2.93379e-05 
2.52929e-05 1.39708e-05 7.03422e-06 4.46415e-06 1.06068e-05 -1.50469e-05 0.000126105 3.20241e-05 -2.24502e-05 
5.63463e-05 -8.91731e-06 1.46964e-05 4.92098e-06 7.59868e-05 -2.16272e-05 -1.26922e-05 2.09448e-05 -1.2661e-05 
4.02254e-05 -3.22787e-05 -1.34903e-05 1.81465e-05 2.06804e-05 -2.8627e-05 -1.71736e-05 -0.000222257 -6.89919e-05 
0.000400428 2.79495e-05 -4.44129e-06 3.68628e-05 1.37648e-05 -6.90967e-05 7.21333e-06 5.53551e-05 -0.000125284 
-7.72295e-06 -6.3744e-06 -8.06587e-06 -2.80216e-05 6.37617e-05 6.10635e-05 5.43683e-05 -1.37418e-05 -1.37845e-05 
3.17321e-05 8.40158e-06 -3.47903e-05 -2.01437e-06 -2.85069e-05 0.000196188 -4.67373e-05 -4.75371e-05 1.84262e-05 
1.74038e-05 5.06495e-06 1.31485e-06 -1.10125e-05 7.29053e-05 2.31406e-05 3.22273e-05 6.10127e-06 6.69633e-05 
-7.77493e-06 2.80197e-06 -2.22483e-05 -4.5221e-05 0.000321193 5.47199e-05 1.81149e-05 8.98485e-07 1.59697e-05 
5.29266e-05 -6.73459e-05 1.46834e-05 -1.39651e-06 -5.75614e-06 5.87723e-06 -6.88198e-06 -2.5101e-06 1.15794e-05 
-0.000109887 6.38587e-05 -6.56808e-06 8.12538e-07 -1.57767e-05 8.70812e-05 0.000100628 -0.000160779 1.5322e-07 
7.01672e-05 -1.7889e-05 6.52025e-05 -1.1266e-05 5.0521e-05 0.000116155 -5.01565e-06 6.58003e-06 -3.18641e-05 
-4.82891e-05 -4.59331e-05 2.98391e-05 1.71555e-06 5.79508e-06 1.79619e-05 2.59185e-05 -4.21995e-06 -3.02868e-05 
5.07224e-05 -1.36885e-05 -2.01448e-05 -1.73807e-05 -2.54746e-05 2.75776e-05 -1.06263e-05 -7.07242e-06 1.84138e-05 
-1.11154e-05 -1.33492e-05 1.57075e-05 -1.29907e-05 -1.91749e-06 -2.15844e-05 -1.5965e-06 4.03652e-06 -1.48114e-06 
1.55347e-05 -2.12244e-05 -7.6225e-06 -2.28563e-05 1.33821e-05 -8.52955e-06 5.72904e-05 -3.71343e-05 -9.36877e-05 
0.000246793 -4.36064e-05 0.000105931 0.000138462 1.47592e-05 1.62391e-05 -1.13202e-05 1.6826e-05 -1.57805e-05 
-1.75073e-06 4.64461e-06 -1.75736e-05 2.42315e-05 2.77979e-06 8.38711e-06 2.56599e-05 -1.37712e-07 2.71923e-05 
-9.60047e-06 0.000104558 -6.29192e-05 5.29046e-05 -0.000232067 8.83816e-05 1.08863e-05 5.08578e-05 2.18957e-06 
-4.8165e-05 1.37055e-05 -5.62641e-05 -2.45394e-05 -4.68445e-05 8.10277e-05 7.29499e-06 -4.35421e-05 1.62684e-05 
-8.46636e-05 5.87118e-05 3.42613e-05 0.000116566 -7.51893e-06 -5.6123e-05 5.89831e-07 -6.61297e-06 1.41757e-05 
-1.10157e-05 -5.60666e-06 -2.14861e-05 -0.000206115 9.48356e-05 -0.000130874 8.79539e-05 -0.000129538 -7.10647e-06 
4.73068e-05 -5.76989e-05 2.2866e-05 -5.52328e-06 2.91916e-05 -3.83604e-05 8.97554e-06 -4.11445e-05 -9.5793e-05 
6.27537e-06 6.21228e-06 -1.91745e-05 0.000128642 7.27906e-05 2.36429e-05 1.85577e-06 3.69249e-05 2.91998e-05 
-0.000217252 0.000151917 -9.56619e-05 -2.51261e-05 5.12068e-06 1.93618e-05 1.91742e-06 1.16509e-05 3.28292e-05 
2.32303e-05 9.00931e-05 -4.86449e-05 -5.02017e-05 1.99801e-05 -4.27672e-05 -3.08856e-05 2.75459e-05 1.71541e-06 
1.00037e-06 3.26427e-06 9.33757e-06 1.00666e-05 -2.35708e-06 -1.3519e-05 -3.45988e-06 3.03223e-05 -1.58069e-05 
-1.93748e-05 -3.04241e-06 4.59308e-05 -4.56923e-05 -9.69004e-06 0.000118393 2.775e-05 -4.52858e-06 -4.72227e-05 
3.12986e-05 -8.82346e-06 -3.40083e-05 8.68549e-06 -5.16807e-05 -1.17758e-05 -5.49181e-05 -2.33254e-05 -2.70855e-05 
-5.88329e-06 2.43227e-05 1.70752e-05 5.30143e-06 2.72569e-06 -2.9073e-05 -1.61808e-05 -3.01061e-05 7.62108e-06 
-1.26515e-05 1.94148e-05 -1.14404e-06 -2.19517e-05 1.53061e-05 4.69726e-05 -9.65685e-06 -4.31645e-05 -1.79553e-05 
-7.69325e-05 -2.05985e-05 4.44872e-06 -9.27379e-06 -3.54371e-05 -1.75905e-05 -1.19008e-05 -5.66309e-06 2.22705e-05 
4.50754e-05 -1.03173e-05 -1.20474e-05 1.65268e-05 1.54634e-05 9.74999e-06 6.90068e-05 8.72559e-05 6.66302e-06 
-2.21627e-06 -3.79148e-06 1.53589e-05 4.40827e-05 4.86936e-05 1.19298e-05 -5.07401e-05 0.000117226 -0.000143906 
3.4056e-05 -1.40704e-05 -2.30865e-05 -2.87663e-06 -9.38873e-06 1.50382e-05 3.26445e-05 1.51001e-05 5.04703e-05 
2.26152e-05 -0.000117079 -9.93336e-05 -5.04757e-05 4.29631e-05 3.61806e-05 3.58341e-06 2.6772e-05 -2.57595e-05 
-1.7994e-05 1.82515e-05 -6.21852e-06 -2.23347e-05 9.94401e-07 -2.07164e-05 4.39531e-05 -5.28436e-05 7.13785e-05 
-1.13782e-05 -2.66203e-05 -7.39845e-05 1.53732e-05 6.94084e-05 -5.74389e-05 -2.92611e-06 3.0357e-05 -1.27602e-05 
1.53508e-05 -1.38983e-05 3.86661e-05 1.1212e-05 1.94373e-05 2.54185e-05 -9.21694e-05 1.46783e-05 -4.90347e-06 
-3.9019e-05 0.000127019 3.86759e-05 -7.44108e-05 2.40947e-05 0.000118722 3.15956e-05 4.97379e-06 4.71149e-06 
-2.7597e-05 6.23536e-05 8.78934e-05 -9.07112e-05 -5.64673e-05 1.61771e-05 -2.53008e-05 1.74781e-05 2.81047e-05 
3.36606e-05 -1.05064e-05 7.60233e-06 -1.98517e-05 -6.28123e-05 2.14828e-05 9.2093e-05 6.4327e-05 0.000154733 
-0.000150924 -0.000107435 4.29875e-05 -7.25758e-06 -0.000128049 0.00014596 -3.46063e-05 -3.56845e-05 1.02841e-05 
2.73595e-05 -3.10849e-05 -5.65412e-05 3.4808e-05 1.38219e-05 -6.30714e-05 4.37103e-05 -7.24403e-05 0.000118827 
-1.67602e-05 -0.000131355 -9.8242e-05 0.000125508 -7.55682e-05 -5.72074e-05 -9.32866e-05 -2.09963e-05 -3.32399e-05 
-8.81117e-05 -3.06206e-05 -4.0257e-05 7.4126e-05 -9.78892e-05 5.70622e-05 -8.85091e-06 3.08037e-05 1.76386e-05 
-8.61113e-05 9.45872e-05 -2.9574e-05 -1.68609e-05 -0.000180189 3.05776e-05 7.62262e-05 2.23668e-05 -4.90565e-06 
0.0526478 -1.40513e-05 -2.60074e-06 1.81307e-05 1.30909e-05 8.97646e-06 7.58671e-06 -1.53114e-06 -1.15825e-06 
-6.45059e-06 -4.26699e-06 -1.38881e-05 -1.09457e-06 -2.97065e-06 -1.26796e-06 -3.03135e-07 3.76374e-06 -1.49954e-06 
-1.69743e-05 -1.48266e-05 -4.10449e-06 7.29241e-06 6.64799e-06 1.71628e-05 -1.69732e-06 -3.85045e-05 -2.0317e-05 
-9.65494e-06 -1.74264e-05 -5.86916e-06 -8.34878e-06 -1.1112e-05 -4.67189e-06 -2.62703e-05 4.64532e-05 -5.17124e-06 
2.24314e-05 1.73235e-05 -2.88616e-06 -1.07412e-05 -3.36155e-05 -2.05269e-05 1.7112e-05 -3.92459e-06 5.53128e-06 
-5.71829e-06 -1.21556e-05 -9.42825e-07 -6.90568e-05 -4.46087e-05 -2.05339e-05 -1.92217e-05 -2.48898e-05 -2.21535e-05 
-7.84612e-05 -5.37876e-05 -0.000109739 -8.36164e-05 -5.85965e-05 -5.07822e-05 -7.65777e-05 -4.04604e-05 -0.000305071 
-0.000231459 -0.000296496 -0.000364272 -0.000436116 -0.00050783 0.00096047 -0.00622662 -0.0140466 -5.09571e-06 
-1.5188e-05 -3.29205e-06 -9.41343e-07 1.22679e-05 5.17757e-05 -1.49701e-05 -6.18871e-05 -8.70959e-05 -0.000264788 
0.0581337 2.78274e-05 -0.0089463 -0.00446351 -0.00163629 -0.000336591 -0.0001252 -0.000134189 -0.00017311 
0.000115413 7.19411e-05 0.000119204 4.36865e-05 2.51176e-05 -2.43132e-06 4.87959e-06 6.64907e-06 2.96015e-05 
-2.4357e-05 2.24211e-05 1.13639e-05 5.77067e-06 2.1572e-05 -4.45892e-06 -3.89273e-05 2.92687e-05 3.50953e-05 
4.04745e-05 1.3119e-05 1.67216e-05 1.96377e-05 3.01902e-05 5.40233e-05 -4.46325e-05 3.81979e-05 -1.8871e-05 
-1.88753e-05 -2.57101e-06 9.10768e-06 2.06732e-05 2.06158e-06 3.05614e-06 -2.35175e-05 -3.01111e-06 1.82035e-05 
4.26315e-06 1.24509e-07 -1.1619e-05 -1.1729e-05 2.92167e-05 -7.2695e-06 1.20526e-05 1.36279e-05 1.12153e-05 
2.36382e-06 -4.91707e-06 -2.67573e-06 -1.68635e-05 -1.90329e-05 -1.83878e-05 -1.98652e-05 -4.22456e-06 -3.81724e-06 
-3.0661e-06 -5.84632e-06 -5.33904e-06 -3.54199e-06 -4.0034e-06 -4.24155e-06 -2.43543e-05 -3.78345e-06 -2.73949e-08 
5.38234e-05 3.18099e-05 4.1038e-05 -5.20177e-05 3.11739e-05 6.26321e-06 -7.38727e-05 3.20997e-05 -1.90005e-05 
-1.86409e-05 1.23773e-05 5.31646e-08 -9.39499e-06 -8.23527e-06 1.04397e-05 -9.23088e-06 -1.43057e-05 -1.2244e-05 
-4.01244e-07 -9.32366e-06 5.99273e-06 -3.66844e-06 -5.56583e-07 -2.09835e-05 1.33309e-05 -1.83689e-05 2.44375e-05 
-2.41057e-06 4.3474e-06 -5.86231e-08 1.17635e-05 2.53501e-06 -1.59011e-05 2.59412e-05 1.67319e-05 1.96397e-05 
3.42308e-06 1.26283e-05 -2.20917e-06 7.1916e-06 6.67462e-07 2.12001e-05 -9.63085e-06 1.68764e-05 -1.48557e-05 
5.35979e-06 -1.17771e-05 7.91717e-07 -1.47187e-05 -3.41926e-06 -1.48231e-05 -4.2838e-06 -6.45205e-06 -9.18525e-06 
2.2263e-05 3.37227e-05 -1.66898e-05 5.8912e-07 1.23736e-05 -1.80851e-05 2.67273e-05 2.38813e-05 -8.13909e-06 
-2.487e-05 0.0079142 -0.00510878 -0.00245195 -0.000369815 -0.00116493 0.000819702 -0.000964296 0.00227345 
0.00126748 0.000277816 0.00387956 -0.00535406 0.0175865 0.00623849 0.00542492 0.00398804 0.00359793 
-0.00148715 -0.00260971 0.00222369 0.00214843 -0.00238595 0.00118943 -0.000779739 0.00109514 -0.0163881 
-0.000742777 -0.00773854 0.000267313 -0.000783635 8.54388e-05 -0.00250852 0.00231447 -0.00103244 7.70157e-05 
0.00387839 0.00996959 -0.016295 -0.00214656 0.00165928 0.00125743 0.00207672 -0.00968753 -0.00756523 
-0.007919 0.00333725 -0.00915899 -0.00730192 0.00331186 -0.00311472 -0.00520945 -0.00228303 -0.0037244 
0.00253005 0.00214416 0.00240822 0.00174512 0.00356214 0.00332958 0.00379276 0.0074108 -0.00418958 
-0.00611749 2.43859e-05 -0.000784873 2.15599e-05 0.000232119 0.0002038 -7.35788e-05 -0.00064537 -0.00347265 
-0.00396914 -0.000106122 -0.000930604 0.00284763 0.00253699 -0.00278859 -0.000782799 -0.00300787 -0.00543468 
0.00517469 -0.00853755 0.00421124 -0.0124038 -0.00411137 -0.000880999 0.00187851 -0.00233181 -0.00398239 
-0.002821 -0.00421995 -0.00338159 -0.00492928 -0.00219019 -0.00403995 0.00299284 0.00551353 -0.00309101 
6.38865e-05 -0.00115484 0.000839979 -0.00129242 0.000110843 4.31305e-05 0.00134542 -0.000834094 -0.00388779 
0.00434295 -0.0066103 0.00291862 0.000580221 0.000968615 -0.000101033 -0.00102426 -0.00015622 -0.000568592 
-0.000820784 0.0135452 0.00122143 0.00439878 -0.00432624 0.00655739 0.00137856 0.00221149 0.00454073 
-0.00158855 0.00238747 0.00344753 0.00624345 -0.00224913 0.00584785 -0.0027643 0.00221789 -0.00678196 
0.0186356 0.000152819 -0.000599502 0.0020775 0.00192859 -0.0107092 -0.00169185 0.00997027 0.00170235 
0.00557337 0.00833057 0.00359211 0.00365019 -0.00384288 0.00366032 -0.00235793 0.00248838 -0.00259833 
0.00259002 -0.00268162 0.00271086 -0.00139577 0.00391966 -0.0016651 0.00402841 -0.00156343 0.00271687 
0.00333717 0.00131241 0.000784545 0.000743376 -0.00429745 -0.00110405 -0.000205257 2.86379e-05 9.45812e-05 
-0.000627175 0.000299937 -0.000609868 7.84862e-08 -0.000285875 0.000209168 0.000240883 0.000165285 -0.000352766 
0.00205495 -0.00219654 -0.00441643 0.00681554 -0.00191257 -0.00632493 0.00142371 -0.00054425 -0.00194038 
0.000195426 -0.000178608 -0.000286686 -0.000145201 -0.000165461 -0.000532681 0.000418903 2.23002e-05 0.00016847 
-0.000229655 -0.000589595 -0.000365463 0.000797636 0.00384605 -0.00235453 -0.00228099 -0.000724482 -0.000375021 
-0.000801718 -0.000240244 -0.000500205 -0.000159752 -0.00047111 9.96512e-05 -0.000587168 0.000175201 0.000357261 
0.000167854 -0.000369801 -0.00304334 0.00129355 0.00232174 0.00227617 -3.93687e-06 -0.002204 0.00282072 
0.00483096 0.000532833 -0.000420629 0.0005115 -0.000345161 0.00077847 -0.000350767 0.000363568 -0.000210761 
0.000258058 1.07549e-05 0.000639753 0.000805266 0.00137056 -0.00112675 0.00572838 0.00209232 0.00342001 
0.000521329 -0.000600806 -0.000332454 -0.000918039 -0.000324843 0.000435539 -0.00110522 0.000391623 0.00240392 
0.0089169 -4.72504e-05 -0.00190871 -0.00454123 8.6939e-05 -0.000421889 -1.66505e-05 -7.14153e-05 0.00154259 
0.00141481 -0.0019888 -0.0066636 -0.00276703 -0.0105973 0.000501541 -0.00118948 -0.000736103 0.000460426 
0.000469258 0.000285474 0.000497491 0.000359981 -0.000239784 -0.00212987 -0.00194713 0.00301449 0.00141104 
0.00288425 0.000660487 2.33441e-05 -0.00010875 -0.000393082 -0.00120549 -0.00342261 -0.00123584 0.0077298 
0.0013526 -0.00107046 0.000595747 0.00481813 -0.00462934 -0.00016539 -0.000619787 0.000422847 -0.00267508 
-0.00250658 -8.5764e-05 -6.01203e-05 0.00178984 -0.0023854 -0.00130696 0.0028207 0.00443311 -0.000149031 
3.73697e-05 -0.000494418 0.000448625 -0.00023673 0.000156534 -0.000476555 3.53574e-05 -0.000337996 -0.000283465 
0.0004499 9.05808e-05 0.00403346 0.000299401 -0.00731372 0.00192582 0.00551442 0.00117061 -0.0013575 
0.00100407 -0.00110021 0.00032565 -0.000800943 0.000662621 0.000244176 0.000307644 0.000476663 4.23665e-05 
0.000452774 0.000122361 6.99711e-05 -0.000130841 -3.76486e-05 -0.00302185 -0.00168114 0.00146182 0.00306614 
-0.00194837 -0.00368471 -0.0078787 -0.000172289 -7.80423e-05 0.00060652 0.000151728 0.000232924 8.35551e-05 
9.28139e-05 0.000133428 0.000356427 -0.000101341 -0.000237742 -0.000410336 0.00441043 0.0017286 -0.0025221 
-0.00116819 0.000700889 -0.00169012 -0.00301612 0.000376888 -0.000163795 -0.0043263 0.000621672 -0.000151884 
0.000203392 -0.00025767 -0.000327857 0.000251308 -0.000556905 -0.000519202 -0.000729634 -0.00110429 -0.0015003 
-0.000676916 0.00237887 0.00236087 -0.000501448 -0.000323034 -0.000108773 -7.1988e-05 0.000643831 -7.63095e-05 
0.000388497 0.000506501 -0.00216965 0.00428419 -0.000928603 6.83636e-05 0.000513297 5.50428e-05 0.000173472 
-0.000165925 0.000174934 -0.00234279 -3.99018e-05 0.00745188 0.00119467 -0.00768414 -0.000367184 0.00318071 
2.516e-05 0.000998492 0.000591621 5.24519e-05 -0.000159687 0.000914446 -0.00143112 -0.00366203 0.00795253 
0.00100437 -0.00330772 -0.000307476 -0.000165926 -0.000146171 -4.82519e-05 0.000276348 6.65089e-05 0.00344326 
-0.000774825 0.00119166 0.00267879 0.00164802 0.0068834 -0.00389813 0.00303585 0.00227938 -0.000188492 
0.00210773 -0.00239691 -0.00563141 -0.00880843 -0.00165654 -0.00313075 -0.00457049 -0.00579005 -0.00136359 
0.00218495 -0.00190825 0.00227195 -0.00212411 0.00234949 -0.0021646 0.00244322 -0.00165542 0.00324243 
-0.00210455 -0.00204885 -0.00411223 -0.00407513 -0.00400862 0.00104021 0.00660081 -0.00377038 0.00367465 
0.00567484 0.00389988 0.00380809 0.00484042 0.00460158 0.00284226 0.00402735 0.00189595 -0.00347314 
0.00185321 0.00204093 0.00260768 0.00494927 0.00353528 -0.00387915 -0.00337224 0.00260107 -0.00136446 
-0.00266553 -0.000346325 0.00151595 -0.00127668 0.000207316 -0.000438524 0.00177348 -0.00128885 -7.47427e-05 
0.000590049 -0.0022362 -0.0017336 0.00110684 0.00250595 -0.00168454 -0.00192353 -0.00103113 -0.000621407 
8.44054e-05 -0.000480558 0.00185404 -0.00161835 -0.000375668 -0.0054803 0.000791691 -0.00131742 -0.00109443 
-0.000808195 -0.00120818 -0.00134457 -0.00198527 0.00384459 -0.00184373 -0.00223651 -0.00145882 -0.00165517 
-0.00195369 -0.00140051 -0.00158588 0.00336032 0.00144243 0.0027966 1.58433e-06 0.00175283 0.000207044 
0.00112357 -0.000197937 -0.00205279 -0.000543196 0.000419464 0.00229618 -0.000248277 0.00247809 0.000581546 
0.00174601 3.31916e-05 -0.00229507 -0.00241152 0.0012585 -0.00083543 -0.00181802 -0.00207633 -0.00160932 
-0.000807821 0.00370072 0.00306481 0.00140937 0.00125026 0.00113505 0.00164419 0.000768756 -0.00178441 
-0.00180228 -0.00170342 -0.00303853 0.000340637 0.00200307 0.00173469 0.00111297 -0.00191839 0.00912206 
0.0095948 0.00188032 0.00224554 -0.00277391 0.00157539 -0.00516747 -0.00205208 0.00194485 0.00759761 
-0.00138851 0.000986852 0.00676155 -0.00115757 0.00242988 -0.00437313 0.011521 0.00185341 -0.000484812 
0.000241448 -0.00190292 -0.00694502 -0.00168097 -0.00541287 0.00234996 -0.0019526 0.00279701 -0.000708545 
0.00261493 0.00281509 0.00015381 0.000164931 -0.000248055 0.000980288 0.00291735 0.000445524 -0.00528427 
3.01623e-05 -0.00200191 -0.00166143 0.00528482 -0.000994378 -0.00138009 0.00167276 -0.000745339 0.00110147 
0.00493796 -0.00319866 -0.00929312 -0.000879861 -0.00160444 -0.00279713 -0.00265764 -0.00211744 -0.000838063 
0.00545984 -0.00382832 -0.00195044 0.00150735 -0.00103331 -0.00142562 0.00100742 -0.00146748 -0.0014626 
0.00113347 0.00120683 0.00350677 -0.00195223 0.0038815 0.000676999 0.000185921 0.00120716 -0.00464027 
0.00141475 0.00177654 0.00825365 -0.00889901 0.00129117 0.000624613 -0.0019982 -0.00168491 -7.91476e-05 
-0.0198618 0.00096468 -0.00932852 0.0052171 -0.00382814 0.00345148 0.00336341 9.00479e-05 0.00166736 
-0.00281219 -0.000422259 5.57615e-05 0.00335133 0.00093062 -0.000288409 0.00239059 -0.00650812 -0.0011763 
0.0065204 -0.00750968 -0.00765619 0.00220262 -0.00024454 -0.00312132 0.00575573 -0.0060139 0.000138328 
-0.00466765 -0.00261845 0.0078193 -0.00229826 -0.00342982 -0.00368288 0.000502982 -0.00601848 0.000328759 
9.81383e-05 0.00430795 0.0177199 -0.0179633 0.000753354 0.00634484 0.00398154 -0.00350118 -0.00474171 
-0.0021275 0.00115407 -0.00289122 0.0244123 -0.00122815 1.4185e-05 0.000379907 0.000336937 0.00098394 
0.00900873 0.0100277 -0.00752009 0.00405829 -0.00210471 -0.0279779 0.00251881 0.000107061 0.00134981 
0.0016482 -2.76818e-05 -0.00175364 0.000880073 -0.000263441 0.00511948 -0.000173152 7.53892e-08 6.62998e-07 
3.29317e-06 7.96269e-06 0.000339242 -0.00147531 -0.00117884 -0.0017539 0.000241148 0.000374844 -2.0706e-05 
-1.94466e-05 3.0144e-05 7.02321e-05 3.59683e-06 -3.87995e-05 -1.07362e-05 -7.73569e-06 1.52133e-05 2.72874e-05 
-0.000174014 -0.000244641 -2.3777e-05 5.55475e-06 1.73936e-05 -0.000183256 -9.35259e-05 7.95555e-06 8.8464e-05 
-0.00011663 0.0014911 0.00125749 -0.00161 0.000208327 0.0059082 -0.0039807 0.00837932 -0.00264241 
0.00019586 3.95761e-05 4.9448e-06 1.181e-05 -1.1254e-05 -8.83627e-06 -5.74884e-06 5.6512e-06 -2.99975e-05 
-2.55691e-05 -3.35175e-05 -1.54318e-05 -2.34187e-05 7.44241e-06 1.19401e-05 4.76911e-06 1.14634e-07 0.00104651 
8.51844e-05 -0.00302933 -0.00518613 9.87832e-06 -3.34757e-06 2.43778e-05 -0.0101691 -0.0114261 -0.00268868 
0.00519933 0.000652782 -1.68945e-05 -0.00503319 -8.23601e-05 -2.42583e-05 -1.14094e-05 3.09657e-05 -0.00805429 
0.00271275 -0.00863063 0.00235727 6.90787e-06 4.26392e-05 7.44661e-05 0.000121953 0.0013844 -8.65834e-05 
-0.000154714 -1.35376e-05 -6.471e-05 9.1174e-06 1.71179e-07 -5.19982e-06 -2.75186e-06 -1.44229e-05 -1.10797e-05 
-1.46416e-07 -4.7375e-07 -0.00223629 0.00903824 0.00174429 -1.38474e-06 2.48293e-06 4.7711e-06 4.18956e-06 
4.67538e-05 -9.64723e-06 1.12461e-05 -0.00652291 0.00020942 0.000311626 -0.00120894 -0.00168643 -6.89396e-05 
-6.9384e-05 9.91847e-06 -1.29012e-06 -6.28968e-06 -0.00332792 -0.0034544 0.00974515 7.7793e-05 6.18813e-05 
4.90951e-05 -9.72549e-06 -2.29103e-05 -1.15033e-06 -1.08104e-05 9.59691e-06 -5.04849e-05 -4.53109e-05 -2.52103e-05 
5.292e-05 4.99424e-05 -7.79365e-05 -0.000106215 0.00162697 -0.000149838 2.23667e-06 2.90016e-06 3.40681e-06 
-9.36711e-06 0.000147546 -4.74026e-06 -3.01888e-05 1.02678e-05 -8.03567e-05 -4.93903e-05 -1.50952e-05 2.65991e-06 
-7.26877e-06 1.15745e-05 -1.30153e-05 -1.61775e-05 -5.30454e-06 4.1313e-06 7.6231e-07 -2.30985e-06 -6.47403e-06 
-5.36849e-06 2.35236e-07 1.15167e-05 2.40718e-05 3.26829e-05 -3.05484e-05 -8.10492e-06 2.53348e-06 4.77586e-05 
-6.28136e-05 -1.87909e-05 -4.83341e-06 -3.78198e-06 -5.25877e-06 -8.66253e-06 8.68966e-06 4.76452e-06 -5.78173e-06 
-0.00792159 -0.00919154 -9.04894e-06 -7.63128e-06 5.21355e-06 -2.18586e-06 -9.73937e-05 -6.11115e-05 -4.53016e-05 
-8.85112e-05 5.57533e-06 2.12022e-06 6.4474e-06 -1.45677e-05 -3.16792e-06 3.67392e-06 4.00387e-07 -7.15963e-06 
-2.23937e-06 -2.97754e-05 3.18428e-05 -4.15622e-05 5.05806e-05 0.000170469 -9.19451e-05 -4.56234e-05 3.7921e-05 
-2.76068e-05 3.14695e-05 2.34482e-05 -9.02188e-06 2.6851e-05 0.00796156 -0.00430688 5.8516e-06 0.000190139 
-0.000108566 -3.69521e-05 -5.00074e-05 2.05641e-05 5.35379e-06 -9.90315e-06 7.60322e-06 -2.49668e-05 3.91552e-05 
0.000270579 -0.000367073 5.00006e-05 1.7888e-05 -3.76102e-06 1.83205e-05 -1.3764e-05 4.63216e-05 1.60743e-05 
3.53933e-05 1.8706e-05 -2.2552e-05 4.13779e-05 8.05043e-06 8.36274e-07 -3.80706e-06 1.74286e-06 1.13796e-05 
4.81751e-05 4.16623e-05 2.72206e-05 -2.03871e-05 4.99321e-06 3.58456e-05 3.26623e-05 -6.31768e-05 5.08195e-06 
-2.02595e-05 -4.04354e-05 2.65312e-05 -2.81639e-05 1.60537e-05 3.09875e-06 -1.63533e-05 3.81742e-06 -7.63323e-06 
2.27078e-06 0.0282972 0.0261642 -0.0107566 1.08559e-06 -1.09303e-06 -8.9928e-06 2.86783e-06 3.47269e-06 
-2.1297e-06 -4.12715e-06 -0.000191732 1.95199e-06 5.75713e-06 1.13904e-06 -2.8675e-07 -3.99291e-05 0.000109856 
-0.000128778 1.53193e-08 -1.73948e-07 2.53157e-06 1.05688e-06 -8.54556e-07 5.71965e-06 -7.24837e-06 1.66131e-06 
1.21048e-05 -5.26507e-06 2.55153e-06 -1.0404e-06 -2.61401e-07 8.00623e-08 1.14942e-06 7.42223e-06 -3.99074e-06 
6.73559e-06 -5.2589e-06 1.00448e-06 7.33962e-06 9.14624e-06 -1.03556e-05 2.77145e-05 -1.6444e-05 2.64957e-05 
4.63904e-06 1.81754e-05 -2.0448e-05 3.39756e-05 -2.04953e-05 2.47169e-05 9.44019e-06 -3.26854e-05 2.00091e-05 
-3.1352e-05 -5.15754e-05 -1.62883e-05 -5.31728e-05 -2.22575e-05 6.73373e-07 -7.68233e-06 -2.71526e-06 -1.62069e-05 
-1.84459e-05 3.23369e-05 -1.51592e-06 -5.43771e-06 -1.73876e-05 -8.24033e-06 -4.392e-07 2.83694e-06 3.04257e-05 
2.12456e-05 -6.29197e-05 -5.96946e-06 5.75623e-06 1.88494e-05 -2.31064e-06 -7.74468e-06 -8.49406e-05 -4.82236e-05 
-7.34875e-05 -6.8973e-05 -1.48411e-05 7.76724e-07 -3.66648e-05 -3.4893e-05 -6.55764e-05 0.00269672 -0.0263416 
0.00176606 -5.20719e-05 2.5413e-05 -4.9371e-05 -0.000582675 -0.000339606 0.000369538 0.00136956 -2.87772e-05 
1.34929e-06 1.17577e-05 4.1376e-06 2.12922e-06 -2.28534e-06 -5.46458e-06 3.31579e-06 -1.01012e-05 -1.32672e-05 
-1.25831e-06 -4.94903e-06 -2.84753e-06 2.07146e-06 -2.46492e-05 -5.02093e-05 6.71439e-06 2.23788e-05 -2.32352e-05 
1.79653e-05 -0.00056356 -9.58701e-06 -4.94461e-07 -1.16877e-07 -0.000286448 1.62368e-05 -6.85171e-05 0.000139891 
6.28931e-06 -1.90863e-05 3.52212e-06 -0.000495659 0.00876147 0.00164567 0.00149166 -2.15072e-05 4.12959e-05 
-4.14557e-05 -9.27425e-07 -0.000175696 1.67941e-05 0.00203564 -0.00103145 -0.00446741 -0.0190657 -7.44421e-06 
-1.51439e-05 1.02538e-05 1.19819e-05 -0.00620456 -0.00279144 0.0019287 -1.68292e-06 -0.00013081 -1.50801e-05 
4.70569e-06 -0.000452004 6.24263e-05 2.28137e-05 -2.42652e-05 4.88713e-06 -1.59907e-05 3.74301e-05 -1.83267e-05 
-0.0041183 -2.22361e-06 4.17837e-05 -2.81766e-05 -3.93837e-06 4.40142e-06 -7.02346e-06 2.53539e-05 2.92809e-05 
8.38185e-06 1.6171e-05 -8.78951e-07 6.05116e-06 -4.91627e-06 -0.0136008 0.00571156 -0.0131887 0.0061652 
2.81473e-06 -5.49164e-05 -4.86371e-06 1.36611e-05 2.14513e-05 -2.57302e-05 -3.17104e-05 -0.00208846 0.00269569 
-0.00667627 5.74235e-05 -2.44234e-05 -2.0879e-05 5.11333e-05 4.0506e-05 -1.35934e-06 6.94043e-07 1.28817e-05 
-1.84078e-06 3.47583e-06 -3.10879e-06 1.49407e-08 -2.60226e-06 5.72823e-06 1.19272e-06 4.26274e-06 1.03333e-05 
5.34846e-06 3.11129e-05 3.41761e-05 2.93203e-05 4.72945e-06 2.69295e-05 -6.54389e-07 -2.9052e-06 -4.64038e-06 
9.11152e-06 4.38361e-06 -1.52663e-05 -3.47574e-06 -1.99396e-06 -0.00691105 0.0104771 0.0025258 0.00203284 
0.00129757 -5.07163e-06 -1.01902e-06 2.23241e-06 3.4631e-06 -6.96222e-06 -1.3717e-05 -1.06709e-05 -4.25647e-06 
8.76464e-06 8.91033e-05 2.01674e-06 -8.59635e-06 6.16979e-06 -6.63944e-06 -5.18974e-07 -5.48776e-05 0.000105995 
-0.000119786 1.39694e-05 4.17242e-05 -4.95526e-05 -1.02345e-05 -5.44579e-06 -3.37878e-05 9.32078e-06 1.18689e-05 
-3.57281e-05 -4.17409e-05 -5.13416e-06 -8.717e-05 4.39366e-05 -2.84177e-05 -0.000203057 -2.65879e-05 1.89791e-05 
-2.14269e-05 5.06392e-05 -6.31423e-05 6.5572e-05 -2.60357e-05 -2.34251e-05 -7.64904e-06 1.14304e-05 7.57049e-06 
1.79475e-05 1.46744e-05 -3.05255e-05 -4.28167e-05 1.19237e-07 -7.62782e-06 1.60819e-05 2.50681e-06 8.87463e-08 
1.32833e-05 1.52125e-05 5.54491e-05 -2.60636e-05 0.000184535 -0.000173712 9.13832e-05 -3.75549e-05 -2.61871e-05 
2.51062e-05 -2.85737e-05 3.83336e-05 -6.73028e-05 1.48359e-05 2.95377e-05 2.29803e-05 1.43757e-05 -3.0656e-05 
3.868e-05 -2.39821e-05 -1.31641e-06 -1.54276e-05 8.96755e-06 0.00574606 -9.34504e-05 2.10954e-05 -3.98206e-05 
-1.47541e-05 -0.00716173 -0.013376 -0.0111213 1.67305e-05 -6.96062e-06 5.72352e-06 5.11414e-06 -9.3735e-07 
8.00613e-06 2.61766e-05 8.21113e-06 5.14808e-06 9.5311e-06 4.26615e-06 -4.06296e-06 1.17481e-05 3.3473e-06 
-4.8905e-06 -9.12619e-06 -2.66159e-06 3.94008e-06 -1.03307e-05 1.14322e-05 7.16306e-06 -4.25349e-06 -6.61679e-06 
-1.56405e-05 -1.02566e-05 3.30003e-06 5.53129e-05 -3.74593e-05 -4.92935e-06 -8.40009e-06 1.30024e-05 -6.63753e-06 
9.42311e-06 -4.56214e-06 -2.40738e-06 4.22071e-06 2.93354e-06 -1.52569e-05 -3.76473e-06 2.17161e-06 -9.33409e-06 
-2.53687e-05 0.000202208 5.5159e-05 0.000233522 -0.000110038 7.30285e-05 -4.86173e-06 3.32049e-06 -1.20051e-05 
-4.89097e-06 -1.03429e-05 -8.32433e-05 3.93141e-05 3.03631e-05 -1.63768e-05 4.29977e-05 -9.81861e-06 2.44975e-05 
3.91849e-07 5.79992e-06 -3.1938e-05 -1.83086e-06 9.14039e-05 -0.00167548 -0.00197772 0.00218499 -0.000752075 
0.000115838 6.11021e-06 -8.25928e-06 4.32834e-06 5.57008e-06 -4.30944e-05 5.75438e-05 -3.62922e-05 -3.10731e-05 
-8.14062e-06 -9.33392e-06 3.886e-06 -1.97776e-05 6.2539e-05 -1.54605e-05 1.37003e-05 1.11741e-05 0.0001648 
-6.29881e-05 -2.78656e-05 -1.23532e-05 1.86149e-05 -1.21623e-05 1.27954e-05 -5.99084e-05 -9.94518e-05 9.06791e-06 
3.06513e-06 -1.75283e-06 -4.36645e-06 -0.000347951 -0.00151204 0.0282288 -3.2266e-05 -5.14972e-05 2.75983e-05 
4.18573e-06 3.48169e-05 1.78067e-05 -1.71722e-05 1.74239e-05 -6.31378e-06 3.2112e-05 -0.00187874 -0.00170277 
2.38059e-05 2.87123e-05 -2.87157e-05 -6.93309e-05 0.000114756 -3.06286e-05 3.93767e-05 -2.24193e-05 -1.38499e-05 
9.26805e-06 2.1205e-05 1.46301e-06 1.94352e-05 -2.9629e-05 8.4973e-05 -0.000105405 -5.99623e-05 -8.55856e-05 
-0.000101125 4.08304e-05 -0.000184898 -1.33327e-05 2.46378e-05 3.67302e-05 1.14191e-05 3.92346e-07 4.01117e-06 
-5.38492e-06 -6.45193e-05 4.28798e-05 0.000407827 -0.000119042 -2.20669e-05 1.67926e-05 -1.00133e-05 1.74453e-06 
-1.57719e-06 -3.3501e-06 9.06533e-06 -1.8737e-06 5.1891e-06 1.75741e-05 -3.36769e-05 -9.19737e-06 1.70726e-05 
2.83881e-05 1.92329e-05 2.65811e-06 -6.16577e-05 -4.10583e-05 2.5564e-05 1.49015e-05 1.47957e-05 4.50113e-05 
-2.86316e-05 1.49378e-05 0.0283634 0.000434107 0.000984051 -0.00480851 0.00286629 0.00120684 0.000856382 
1.02324e-05 -2.7328e-05 0.00026336 0.00529874 -0.000141106 -0.000171908 -3.07783e-05 2.62186e-05 -1.95059e-05 
1.34708e-05 3.54637e-06 4.58837e-06 -0.00168004 0.000415312 0.000271836 -3.07238e-05 3.99787e-05 -3.85703e-05 
7.25103e-05 1.65246e-05 -3.24207e-06 8.66542e-06 -1.19735e-05 3.23861e-05 -1.70138e-05 9.51194e-05 3.97614e-05 
0.000153569 0.000253075 -2.80025e-05 -0.000204955 0.00553199 1.33316e-05 4.27714e-05 7.19327e-06 -7.26917e-06 
-1.54805e-06 -1.27592e-05 -2.56499e-06 -2.89694e-06 4.27795e-05 0.000630462 -0.000528137 -0.000482336 -5.6058e-05 
-5.5092e-05 6.62484e-06 5.43712e-05 -1.89254e-05 -0.000186644 -0.00046487 0.000341048 2.90678e-05 2.30898e-05 
0.000252981 0.000359207 -2.0722e-05 -6.50774e-06 7.66932e-06 1.0196e-05 -0.000181342 -2.06221e-06 -1.15838e-06 
5.85118e-06 -0.000468883 -0.000223968 0.000813164 0.00727813 -2.31439e-05 -3.29693e-05 1.06854e-05 -7.85628e-05 
-0.00937925 -0.00268401 -0.00863334 3.09797e-05 -0.000328173 -0.000186186 0.000288585 3.27043e-05 0.000205982 
-0.00152027 -4.90577e-06 1.6678e-06 0.000104695 0.000335073 0.0114791 0.00241216 0.0174768 -0.00500007 
0.0192029 -2.79412e-05 -7.3647e-05 -5.57661e-06 -2.24691e-06 -9.32587e-07 8.5969e-05 8.73422e-05 0.000300098 
3.06514e-05 -3.95037e-06 -3.4207e-05 -8.71127e-05 0.000187949 -0.00691273 -0.0059602 0.00191131 -2.07164e-05 
4.17297e-05 -2.53509e-05 -0.00923946 0.0033646 0.00299819 4.81306e-06 -0.0103704 -2.98184e-05 -6.54468e-05 
4.30639e-05 2.7481e-05 -7.70136e-05 9.38893e-05 3.08013e-05 -8.28178e-05 0.000306067 0.000149102 -5.35135e-05 
0.000333698 0.000106114 0.000278685 -8.97211e-05 -3.37408e-05 2.98058e-05 2.06356e-06 2.36549e-05 1.56056e-05 
1.23562e-05 -4.10153e-06 -4.63423e-06 3.84919e-06 -8.99911e-05 0.000232928 -0.000167445 0.000128766 6.02433e-06 
3.72454e-06 4.38913e-06 8.41311e-06 -2.63622e-06 -1.50341e-06 -1.10261e-05 -9.56527e-07 -1.02097e-06 -9.88674e-06 
3.63047e-05 -6.69727e-05 -7.88888e-06 0.000220782 0.00037246 7.61759e-05 5.92369e-05 -2.59273e-05 3.21233e-05 
-2.60961e-05 -0.000142656 0.000290964 9.96916e-05 -4.94459e-06 -8.10694e-06 -5.34091e-06 -4.15206e-06 1.64327e-07 
-1.49553e-05 3.26816e-05 -1.49511e-05 -1.24136e-05 5.20491e-06 -1.5925e-05 8.08304e-06 -1.93589e-05 2.14905e-05 
-1.09253e-05 2.20477e-06 0.0176331 0.0189133 4.46227e-06 4.38898e-06 3.73923e-06 1.46529e-05 8.28578e-06 
-1.36106e-05 -1.09227e-05 -3.21432e-06 -1.93976e-05 1.79906e-05 -2.80279e-05 -3.46838e-05 2.53998e-05 1.92668e-05 
0.00364292 -1.07218e-06 0.0250715 -4.5518e-05 -8.72626e-06 3.78883e-05 -2.87608e-06 4.53102e-06 -2.77348e-05 
-4.27716e-05 3.37661e-05 -0.00124582 -0.000473357 -0.00421405 7.23623e-07 6.27095e-06 -6.13176e-07 6.42717e-06 
-4.30177e-08 0.031552 0.0316309 -0.0124209 0.0282934 1.00623e-05 -1.59576e-05 -0.0269603 0.00283563 
0.0296192 0.00364094 -3.08677e-05 2.11067e-05 2.08114e-05 -0.000200973 -8.3219e-05 -0.000358715 -0.000255095 
1.58801e-05 -1.51107e-06 1.40837e-05 -1.58743e-06 -4.41498e-05 -4.44401e-05 1.88177e-05 1.72262e-05 -6.64206e-07 
1.31525e-05 -1.87009e-05 -2.06962e-05 -1.18275e-05 -1.78504e-06 -1.22394e-05 2.38435e-05 3.48575e-05 -2.11309e-05 
1.04964e-05 -5.10227e-05 -6.13237e-05 -7.84086e-06 -8.13596e-06 1.39854e-05 3.70693e-05 -1.64984e-05 -9.02236e-06 
-0.00764111 -0.00905908 -1.20549e-05 -5.32365e-06 5.94266e-06 0.00249395 0.00158109 0.0279241 1.25709e-06 
2.93308e-06 0.00212956 -0.00208142 0.000221134 -4.73166e-05 -0.000118959 -0.000152945 -3.49601e-05 1.6693e-05 
5.43588e-06 -3.45999e-06 -0.00796315 -0.00169421 0.000120394 0.00028031 -2.35999e-05 -1.09064e-05 3.13661e-07 
-3.02142e-06 -1.4644e-05 -5.68487e-06 -1.4825e-05 1.94862e-06 3.00659e-07 -3.47236e-05 7.31155e-05 6.03991e-05 
2.07856e-05 1.71324e-05 -3.44901e-05 -1.79732e-05 1.24862e-05 -1.65042e-05 4.85882e-06 -0.0135807 -2.54718e-05 
-4.20679e-05 -8.96911e-06 2.41744e-05 1.5678e-05 -8.51721e-06 4.10854e-06 6.90455e-07 1.23219e-06 -2.27534e-07 
-0.00272495 0.000236482 1.86347e-06 3.56156e-05 -3.78029e-06 -0.000103162 -6.5428e-06 1.57759e-05 8.01901e-06 
-3.66251e-05 -4.22011e-05 6.71433e-05 -1.3652e-06 7.82317e-07 1.04624e-06 -2.93094e-05 4.08767e-06 -1.88324e-05 
-8.82502e-06 6.57817e-06 5.07871e-06 -1.89649e-07 -3.3639e-06 -1.42508e-05 1.56069e-05 2.04197e-05 -8.96046e-06 
-1.97704e-06 -1.5086e-06 8.25665e-06 3.2772e-05 2.26446e-05 -2.02378e-05 -2.71494e-05 -2.19364e-05 5.1891e-05 
-1.24277e-05 0.00729255 2.17813e-05 1.22821e-05 -8.27004e-07 -8.52036e-06 -2.52015e-05 8.12143e-06 -1.90897e-05 
3.35465e-05 -2.87334e-06 -9.78783e-06 7.96255e-07 0.000104975 -0.000109356 3.29525e-06 1.34925e-05 -6.88038e-06 
-7.87934e-06 3.91605e-06 9.42565e-06 2.90275e-05 2.66277e-05 2.54362e-05 -2.09201e-05 -7.41858e-07 5.58623e-07 
0.00250083 0.000172887 3.73359e-05 0.000159781 -2.48195e-05 -2.57109e-05 9.71983e-06 -4.60478e-05 9.45476e-06 
-5.1977e-07 2.51168e-05 -3.97078e-05 -0.0283205 -2.19207e-05 1.19232e-05 -2.38421e-05 1.08797e-05 5.45283e-05 
5.89115e-05 -0.000118219 -1.91426e-05 -1.08061e-05 -2.05714e-06 -5.5807e-06 -1.10442e-05 1.08979e-05 -1.10358e-05 
-1.60402e-07 -8.29566e-05 9.58882e-05 0.0001244 6.91131e-05 -8.84866e-06 0.000473463 -5.04371e-05 6.85086e-05 
0.00331618 -0.0042883 0.00106177 -0.00418143 -0.00197717 0.0280401 -9.93755e-05 0.00119443 1.32985e-05 
6.70432e-05 -2.94827e-05 -0.000107997 -2.24497e-05 -4.4391e-05 -3.66483e-05 -5.22477e-06 -0.00285383 -0.00505341 
0.000970943 0.00019011 -8.35389e-05 -5.59902e-05 -0.000232827 -2.15762e-05 1.37992e-06 0.000103152 -3.19778e-05 
0.00560408 -2.00742e-05 2.63709e-05 -3.28741e-05 4.0732e-05 -5.96873e-05 1.30915e-06 -0.000997027 -0.00501647 
0.000112063 0.000824629 0.00597228 -5.8075e-05 2.8208e-06 1.63758e-05 -8.45662e-06 1.72254e-06 3.78787e-06 
-1.65533e-05 1.01756e-05 -2.25659e-05 -0.000116283 0.000108597 3.00717e-05 -3.75412e-07 -4.89258e-06 -0.000295288 
-2.45763e-05 -6.47538e-05 -0.00495967 -0.000288906 1.41143e-05 -8.93211e-06 1.27385e-05 4.08376e-07 -1.1941e-05 
1.03527e-06 -1.24427e-05 5.83682e-07 2.57035e-06 9.62729e-06 -1.11519e-05 1.34557e-05 -5.35969e-07 3.98841e-07 
-2.36077e-06 -0.00198727 0.000407694 -0.00398115 -0.00186095 1.01547e-05 -7.2883e-07 2.46802e-05 -1.34059e-05 
1.84836e-05 -1.63675e-05 -4.61644e-05 1.8331e-05 5.82426e-07 -3.44898e-05 -3.04187e-05 -9.28248e-06 -0.00228879 
0.000661407 -4.0933e-06 -6.7266e-06 -8.45805e-05 -1.08188e-05 -2.55215e-06 2.50303e-06 -3.54362e-05 -4.08017e-05 
9.87411e-06 -1.98782e-06 -9.90598e-06 6.40107e-06 -7.1827e-06 -0.000241604 -1.75248e-05 8.11367e-06 1.51958e-05 
3.82091e-06 3.91694e-05 6.86533e-05 -2.93202e-05 6.29868e-06 1.37065e-05 0.000202567 -6.85906e-05 -4.00505e-05 
-4.57768e-06 -1.81424e-05 2.96079e-06 -3.52208e-05 -0.0043962 0.0254094 0.000103981 -0.000180548 0.00114253 
0.000966365 -2.60957e-05 -4.46347e-05 -3.34296e-05 -1.01053e-05 6.70471e-07 0.00141052 0.00426016 0.00141932 
0.0294158 6.36366e-05 -0.000102457 0.000164164 0.00188953 -0.00175174 0.00770924 0.000197343 0.000109139 
-0.000147446 -3.41068e-06 -1.61699e-06 3.96766e-06 8.396e-06 -3.89747e-06 -0.00142249 -0.00795272 0.0076279 
-0.0140629 0.00939571 6.60131e-06 -3.39922e-05 -1.17558e-05 -4.04047e-06 -2.26688e-05 6.3916e-06 5.43191e-06 
-8.98619e-06 2.85627e-06 4.5621e-06 4.02881e-06 1.22414e-05 2.64258e-05 -2.77252e-05 -2.54511e-05 5.3157e-05 
-5.20358e-06 3.9322e-05 6.73937e-07 1.86512e-06 5.16824e-06 2.76016e-08 -1.26064e-06 0.000218155 -7.79093e-05 
0.00028919 -1.02957e-05 1.05876e-05 6.73755e-06 -6.41035e-06 4.40937e-06 -4.25767e-06 1.20811e-06 1.51804e-05 
-2.81109e-05 -2.23531e-05 9.35482e-06 -7.95866e-05 1.69907e-05 -9.5003e-05 4.7384e-06 1.02015e-05 -1.7226e-05 
-1.2716e-05 -1.01243e-05 0.000146305 4.99369e-05 -7.99677e-06 9.45881e-06 -1.48358e-05 -1.13484e-05 -1.51391e-05 
3.6053e-05 1.19065e-05 -2.11331e-05 9.93004e-06 1.4359e-05 -2.32722e-05 -1.61159e-07 3.73029e-05 -2.02426e-05 
-3.01213e-06 4.71563e-05 5.03158e-05 -9.6244e-05 -5.94018e-05 -1.13912e-05 -1.11851e-05 5.40989e-07 -0.00831061 
4.40757e-05 -4.24906e-06 -2.73749e-05 -2.05835e-05 1.40633e-05 -2.78642e-05 -1.99788e-06 -2.19616e-05 -2.46299e-06 
0.00012882 -3.60925e-05 3.38487e-05 1.40633e-05 -1.28213e-06 0.0050571 -0.00150452 0.000429985 -7.11062e-06 
1.51814e-05 2.18058e-06 2.50392e-06 -3.07577e-06 -8.20308e-06 1.24274e-05 1.92697e-05 -3.05149e-06 3.537e-08 
0.000172787 -9.9236e-05 -0.000159524 6.1701e-05 -3.69596e-05 2.99053e-05 -5.87117e-05 4.19655e-06 6.49994e-06 
-1.003e-05 -7.91845e-06 -4.55787e-06 4.96515e-07 7.03197e-05 7.97346e-05 0.000270624 -1.90599e-05 1.24898e-05 
-7.01333e-07 -3.1927e-07 -3.73181e-06 3.8231e-05 2.31824e-05 0.000127237 6.09995e-06 -3.36654e-05 -4.30897e-05 
-4.7476e-05 -3.05102e-06 0.000148186 0.000238722 1.86429e-05 -5.01105e-06 -9.57628e-06 -3.93534e-05 3.72979e-05 
-3.12803e-05 6.59391e-06 1.95557e-06 0.00203666 -0.000611195 -0.000408017 1.27861e-05 -3.81003e-05 3.60509e-05 
-4.11705e-07 3.69462e-06 -5.11152e-06 -0.00393662 4.90292e-06 -1.24777e-06 -8.77446e-05 5.4219e-05 -6.71451e-05 
4.29236e-06 3.25994e-05 -1.9057e-05 1.47047e-06 -0.00697478 0.00158443 -6.71401e-06 9.05453e-06 1.87168e-05 
-7.75301e-05 2.28603e-05 -1.48274e-05 -4.75509e-05 4.18948e-06 -1.58343e-05 1.86696e-05 -1.0262e-05 -1.66618e-06 
7.18506e-06 -1.37188e-05 1.32533e-05 -2.99677e-05 9.72239e-06 4.18699e-05 -0.00033412 5.74298e-06 -0.000139553 
-8.96768e-05 0.000243553 0.0034678 -0.00778636 0.00369308 -1.44062e-05 2.87183e-06 -3.90713e-05 -1.06073e-05 
0.000106729 -7.99649e-05 3.08074e-06 -3.24819e-05 3.70569e-06 -1.06315e-05 -6.32717e-06 6.06126e-06 1.243e-06 
0.0014432 0.000458453 1.60906e-06 -1.11911e-05 -5.32291e-06 2.86534e-05 -2.44436e-06 2.01519e-05 0.0363727 
0.0168305 -2.6704e-05 -6.39826e-07 -1.03498e-05 0.0232471 0.00365289 -1.13353e-05 -3.75234e-05 3.81443e-05 
-0.000196585 -0.000228879 -0.00225117 -0.000299775 0.000323014 9.86758e-06 1.82921e-05 1.91284e-05 -1.61234e-06 
9.8831e-06 -0.00013853 -2.29629e-06 -2.27529e-05 1.14395e-05 0.00012126 3.7691e-05 -0.000194043 9.57834e-05 
-1.14963e-06 7.43624e-07 -3.01347e-06 -0.000294787 0.000100431 -2.26503e-05 -0.0041117 3.26126e-05 1.73191e-05 
0.00168206 -0.000289224 3.4223e-05 1.13682e-06 -1.17854e-05 -2.10164e-05 -9.45293e-06 -1.21094e-05 1.00956e-05 
-8.43227e-06 -3.23354e-06 1.39783e-05 -2.60319e-06 9.58811e-05 -2.67769e-05 -0.00556859 -0.0124158 -0.0101843 
2.60531e-06 0.000633036 0.0013073 3.36258e-05 1.1386e-05 0.000167969 1.86042e-05 -1.89611e-05 3.86268e-07 
-0.00466279 -8.56149e-06 4.07225e-06 2.9747e-05 -3.05271e-05 -9.05677e-06 -0.000158909 -0.0002846 -6.91867e-06 
8.39924e-06 -2.41515e-06 0.000115823 6.67129e-05 6.55837e-05 1.70744e-05 -5.28082e-05 0.000133698 2.5325e-06 
-5.11449e-06 -5.96195e-06 5.85455e-06 -1.94548e-07 -0.0120675 -0.0162233 -2.62789e-06 5.15314e-06 -6.11275e-06 
-8.03557e-06 -1.94644e-05 2.25974e-05 8.01527e-06 -8.11076e-06 -3.76247e-05 3.56469e-05 -0.000111502 0.0242195 
-0.000202461 2.44673e-05 0.000154591 0.00068924 -0.000159335 -3.87744e-06 -4.2895e-05 -1.53345e-05 -0.0017498 
0.000147641 -0.000149147 -0.000122489 2.72117e-05 0.00133308 -0.00018227 -0.00191191 -0.0017739 -2.61774e-05 
-6.75549e-05 2.28666e-05 2.02333e-05 2.38472e-05 -5.64277e-05 3.73482e-05 -2.91092e-05 -1.21099e-05 6.24563e-05 
0.000206496 -3.57738e-05 9.3417e-06 1.06031e-05 -0.000165904 7.31371e-06 -8.1616e-08 -0.0129934 5.1919e-05 
3.9559e-05 4.27112e-06 -1.3996e-05 -1.17294e-06 -2.62262e-06 8.56749e-06 3.42888e-06 4.08903e-06 -2.69378e-06 
9.627e-08 -5.07402e-06 3.19107e-06 0.0349823 2.45792e-06 -1.12261e-05 4.42774e-06 2.73189e-06 1.66452e-05 
-3.19086e-06 -1.21346e-06 1.67945e-06 4.73299e-06 2.01313e-05 3.20412e-07 -3.00515e-05 1.73087e-05 7.5369e-06 
1.01375e-05 -2.32921e-06 7.10932e-06 -6.42529e-06 1.5478e-06 -2.08179e-05 1.75047e-05 -2.70612e-05 -3.3265e-06 
-2.18119e-06 5.92422e-07 -1.57103e-06 -2.18753e-06 7.81803e-06 5.61129e-06 4.73628e-05 -1.72986e-05 -1.79886e-05 
0.000158029 -0.000344769 -5.50652e-06 1.67073e-05 9.76941e-06 5.62879e-05 -0.0146972 -0.0124781 0.00538168 
0.00764601 3.9742e-05 -1.85462e-05 6.30585e-05 3.75805e-05 -2.71928e-05 -4.57671e-06 2.30659e-05 0.0106865 
-0.0238888 3.22808e-05 -6.04167e-05 2.22933e-06 3.0697e-06 -6.69054e-06 9.58064e-06 4.15177e-05 1.99582e-05 
-2.49559e-06 1.08389e-05 5.77679e-05 4.63344e-05 5.08638e-05 -0.0011598 -9.22608e-05 -0.000211728 -6.86987e-06 
4.73003e-06 8.14922e-06 -3.18764e-05 4.85343e-06 2.24726e-05 2.44175e-06 0.000434159 0.000724766 -3.43692e-05 
0.000553218 -0.00517555 -9.015e-05 4.42484e-05 -2.26321e-06 4.89458e-05 8.14638e-06 -1.15593e-06 -7.76826e-06 
-1.79166e-06 -7.3058e-05 2.57713e-05 -4.07277e-05 -6.63922e-06 -0.00329418 3.85452e-06 -7.23088e-05 2.58781e-05 
-0.00196512 5.08028e-05 -3.41578e-05 6.35219e-06 2.42305e-06 3.79579e-06 -5.81817e-06 -2.96562e-06 1.31216e-05 
-1.15571e-06 -4.01126e-06 3.69529e-05 -3.24867e-06 -3.07934e-07 -2.70938e-05 -2.56559e-05 -4.9636e-05 6.02401e-05 
0.000124053 2.95337e-05 -3.05895e-05 0.000213156 -5.392e-05 -0.000120787 -0.000137026 1.19587e-05 -2.03984e-05 
-7.81071e-05 0.000194694 1.74838e-05 0.000245319 3.10179e-05 -0.000186284 3.98552e-05 -6.4852e-05 3.16864e-05 
-4.10128e-05 -1.27698e-07 6.9921e-06 -7.0052e-06 -3.61404e-06 -3.51613e-07 1.12343e-06 4.51019e-06 2.3256e-05 
-7.57161e-06 -1.22253e-05 1.06184e-05 -3.16183e-06 -1.66419e-06 -3.353e-05 -1.73011e-05 1.10374e-06 -2.40267e-06 
-4.17924e-05 -1.07485e-05 2.7705e-05 5.31974e-05 -7.59478e-05 2.23347e-05 -3.56896e-05 8.44477e-06 7.06168e-05 
-6.99802e-06 1.3504e-05 -2.56886e-05 6.74941e-05 6.13895e-05 -0.000107962 -2.16459e-05 -4.53903e-05 -2.26327e-05 
2.81941e-05 -1.24247e-05 9.69803e-06 3.35622e-05 -0.000412057 0.000415624 -0.000184239 2.24424e-07 -1.59167e-05 
-4.35802e-05 1.36379e-05 -1.75332e-05 1.24086e-05 7.76309e-06 7.15435e-07 -1.7221e-05 1.71206e-05 -3.08308e-05 
-2.77281e-05 3.81258e-07 4.34663e-06 -6.75515e-06 -0.00304393 0.00725787 -0.0167223 1.65227e-06 -4.97585e-05 
-9.04346e-06 -3.5479e-06 -1.23021e-05 -1.74991e-05 -3.92537e-05 1.85389e-05 -2.18083e-05 4.36574e-05 -0.00688287 
0.00902145 1.75057e-05 1.00191e-05 0.000215487 -8.84373e-05 0.00163443 -0.00173861 -0.00187332 -1.01278e-05 
3.99647e-05 7.94326e-06 3.681e-05 0.000124015 0.000441338 -2.2294e-05 1.73659e-05 -3.24764e-05 3.36061e-05 
-1.1372e-06 2.18873e-06 9.05758e-05 5.44536e-05 1.2913e-05 0.0016596 -0.000207959 -0.00142607 -6.18968e-05 
3.12854e-05 1.75477e-05 2.65555e-05 -7.15674e-06 -1.9312e-08 0.000791465 1.76653e-05 1.95525e-05 -3.89148e-05 
1.91383e-05 3.74584e-07 4.27375e-06 7.16456e-06 3.17372e-05 -8.79913e-06 1.46611e-05 7.11916e-05 0.00010127 
0.00026392 6.94538e-06 -0.0018536 4.0159e-07 3.31092e-06 -1.20129e-05 -1.01975e-05 0.000149059 -3.48754e-05 
-0.000199198 1.10412e-05 -2.65979e-06 6.79172e-06 -2.12582e-06 4.07192e-05 5.09992e-05 -9.96824e-06 -1.16918e-05 
-2.09462e-06 -1.33773e-06 -3.65306e-06 0.000115633 1.70573e-05 -3.59904e-05 0.000437547 0.00318028 -2.81996e-05 
9.75061e-06 2.53954e-05 1.65532e-05 -0.00498779 0.00038893 0.000163 -5.41992e-05 -8.46103e-06 1.79509e-06 
-8.03191e-06 -2.22977e-05 -5.15463e-05 1.67286e-06 2.97761e-05 2.9945e-05 2.98674e-05 5.8992e-06 -4.1973e-05 
-1.64299e-05 7.64085e-06 -9.27538e-06 -0.000447879 -5.26745e-05 0.000372747 -2.64301e-05 3.45623e-05 1.3418e-05 
-5.39847e-06 0.000179507 -2.89118e-05 -0.000405042 2.05839e-05 7.46363e-06 -1.98434e-05 -0.00034375 7.83902e-05 
1.56216e-06 0.027181 -1.94228e-05 0.0295445 -7.64759e-06 -7.71665e-06 2.80021e-05 -6.62093e-05 9.06093e-05 
1.56492e-06 7.72996e-06 -3.54493e-06 -3.91757e-05 3.03816e-06 1.43175e-05 -1.236e-05 2.68735e-06 4.06285e-06 
-2.9268e-05 1.40724e-05 -1.51954e-05 7.38376e-06 -6.96659e-06 -1.22544e-05 -9.69816e-06 2.27238e-05 2.95203e-05 
-0.000199273 2.42497e-05 -5.10805e-06 3.60127e-05 -3.7656e-05 2.05181e-05 -3.30397e-05 -2.74486e-05 -8.89269e-05 
-3.45523e-05 1.31077e-05 4.57942e-07 2.49017e-05 0.00538308 0.000120125 -0.000120057 4.70346e-05 8.6953e-06 
0.000143265 -3.37962e-05 4.01209e-05 -0.000126255 -0.000251429 -2.68232e-05 7.12595e-07 -2.2126e-05 1.46496e-05 
4.97331e-06 -7.11535e-06 -5.88886e-06 -1.1846e-05 0.00286309 -0.000653189 4.83239e-05 7.35639e-06 4.42215e-06 
-4.49929e-05 0.00154904 -0.00688087 -0.00292315 7.93256e-06 1.76682e-05 -3.16543e-05 -6.14211e-06 6.48872e-06 
4.26478e-06 -4.33921e-05 -5.4253e-06 0.0293506 -3.58306e-06 -7.90266e-06 -6.9635e-05 3.28375e-05 1.86618e-05 
-3.04858e-05 -8.06362e-05 2.03443e-05 1.16283e-05 -9.41117e-06 -2.80212e-05 2.91066e-05 -2.61564e-06 -3.73602e-05 
-7.1067e-05 5.60241e-06 1.38441e-05 -4.78853e-06 -1.42171e-05 8.00878e-05 1.6787e-07 6.41725e-05 2.01592e-05 
2.71053e-05 -0.00249682 0.0010916 -0.000185273 0.00459357 -0.00297032 -0.00392191 -0.0145844 0.00821176 
-0.0167985 -6.87867e-05 -3.37956e-05 3.72275e-06 -1.38991e-05 -5.08254e-06 2.60515e-05 2.1515e-05 4.79546e-06 
-3.85537e-06 -9.89443e-06 1.71049e-05 -2.2891e-05 -2.83241e-05 -1.26324e-05 -7.59566e-06 -1.76387e-05 4.53198e-06 
2.41014e-06 -0.0102389 1.76945e-05 -0.000188575 3.99643e-05 -3.25906e-06 1.6483e-05 -0.00596661 1.51385e-05 
0.000145413 0.000186938 2.15131e-05 7.39023e-06 -1.39844e-05 3.4861e-05 1.973e-05 -6.52755e-06 2.9408e-06 
3.05641e-06 -4.73115e-05 4.17271e-07 -6.13652e-06 9.43647e-05 -7.56699e-05 2.34992e-05 -4.49496e-05 2.87136e-05 
-0.000152531 7.65356e-05 0.000548319 -4.67355e-05 5.43439e-05 -6.56619e-05 2.52948e-05 0.00132888 0.00143651 
-0.000376113 -4.05408e-05 -1.98988e-05 -1.15165e-06 -6.06532e-07 7.97622e-06 -4.69804e-05 -5.80597e-07 -2.19234e-05 
-6.00761e-05 6.00006e-05 -5.25572e-05 4.37619e-05 0.00111243 7.61296e-05 2.97316e-05 -1.84206e-05 7.41461e-06 
-4.8727e-05 4.0572e-05 4.26305e-05 0.00044577 0.000195862 2.91175e-06 8.68313e-06 3.23173e-05 -7.9486e-05 
0.000517917 -2.06299e-08 6.79116e-05 -0.000116739 -7.48232e-05 6.54675e-06 -1.16105e-05 2.60061e-05 1.09711e-05 
4.73456e-05 -0.000380491 -0.000137472 -7.32936e-05 0.0017774 -0.00142333 3.7283e-06 5.22769e-05 1.13655e-05 
-1.23171e-05 1.43821e-05 1.32427e-05 -3.93331e-05 -1.2795e-05 1.02136e-05 7.89053e-06 -1.41412e-05 1.5581e-05 
-1.33996e-05 -5.77331e-06 1.85082e-05 -3.44603e-05 1.42248e-05 2.01237e-05 1.45836e-05 -2.46058e-06 -1.31411e-06 
-2.55345e-06 1.00019e-05 3.16312e-05 6.86217e-07 -3.24095e-06 2.00143e-05 1.68451e-05 -1.58931e-06 3.79675e-06 
-6.41642e-06 -5.93054e-06 -2.29814e-05 -1.47256e-05 5.07383e-06 -1.16923e-05 2.3866e-06 2.07209e-05 1.82833e-05 
2.95911e-05 -2.29063e-05 -8.84371e-06 -3.76749e-06 7.32156e-06 -0.00282776 -0.00185623 0.00165017 -0.00095457 
-7.23522e-06 0.00130789 -0.00303912 -0.00487262 -1.74974e-05 0.00148258 7.69139e-05 6.29275e-05 -8.23198e-06 
1.49656e-05 -5.18852e-05 8.43346e-05 -4.47964e-05 -4.92734e-05 2.96088e-07 -0.000268259 0.00326624 0.00310554 
-0.00953353 -0.00899272 -3.45037e-05 0.000511189 1.15396e-05 9.784e-05 1.76921e-05 -4.43408e-05 5.48594e-05 
5.93373e-06 -0.000172989 -3.88753e-06 8.56661e-06 -1.00757e-05 -1.72118e-05 -6.23211e-06 -2.38123e-05 -1.64292e-06 
-1.38527e-05 3.63805e-05 3.06961e-05 9.01543e-06 4.16178e-05 4.72658e-05 1.26837e-05 1.07811e-07 -1.14555e-05 
5.59023e-05 1.58099e-05 -1.45949e-06 -3.1855e-06 7.80756e-05 8.91545e-05 -3.68314e-05 3.2432e-05 -4.25754e-05 
-1.88058e-05 -4.0218e-06 -2.96522e-05 -3.5957e-06 4.13765e-07 -1.7661e-06 -1.67749e-06 -2.6721e-06 -3.65352e-05 
-0.0255508 0.000108447 4.10233e-08 1.70802e-06 -8.99094e-06 -0.000461596 0.0089098 0.00891813 6.13449e-06 
-2.23324e-05 -3.35226e-05 -4.93499e-06 4.07532e-05 8.33178e-06 9.53026e-06 -7.59412e-07 1.12904e-05 1.77887e-05 
1.49339e-05 9.81298e-06 0.00870236 5.53666e-06 1.3159e-05 8.08478e-05 0.0271391 -0.000943447 -0.000683867 
-2.20985e-05 2.55243e-05 2.45111e-05 3.16928e-05 -3.24339e-05 -2.98249e-05 3.16431e-05 -5.99479e-06 -1.26835e-05 
4.13988e-05 -0.00145907 4.12928e-07 0.00862807 -0.0064568 0.00218674 -2.14151e-05 -2.19409e-05 -0.00497598 
5.17881e-06 3.67006e-05 -9.30834e-05 -4.82348e-05 0.0324662 -0.0263356 -5.12878e-06 5.93878e-06 3.91168e-06 
-7.61922e-07 7.47336e-06 3.80117e-06 0.0302532 0.0376868 7.3975e-05 1.18715e-05 4.17602e-05 -1.84898e-05 
7.06504e-06 8.42682e-06 0.00994661 -6.92367e-06 5.46155e-06 1.06816e-05 3.25253e-05 1.63534e-05 -0.00817344 
4.49606e-05 1.04194e-05 0.00088168 1.94962e-05 5.19937e-07 5.03809e-05 -4.10331e-07 2.00199e-05 -2.62889e-05 
0.0295266 0.0256492 -0.0115387 0.028069 1.02636e-05 3.01341e-06 -1.48845e-05 -1.37832e-05 2.15597e-06 
-5.79935e-06 -3.08445e-05 -8.36259e-06 2.80175e-05 4.28441e-06 6.63565e-05 -6.85364e-05 -0.000161828 -2.70801e-06 
-4.69917e-05 -0.0125166 -1.90283e-06 4.18412e-06 4.47726e-07 1.15383e-05 3.14279e-06 4.96203e-06 4.04403e-06 
5.9016e-06 -3.72481e-05 3.38811e-05 8.26524e-06 -0.000305336 -0.0079363 -0.00185149 0.00702692 -0.0035168 
0.00868047 -0.00235406 -7.56818e-05 0.000204462 0.0095156 0.0104663 0.000154699 -0.00477133 -9.94959e-06 
-3.21888e-05 2.40614e-05 3.99301e-05 1.85644e-05 2.06684e-05 2.94615e-05 -7.28056e-05 -2.21791e-05 6.02955e-06 
-0.000157334 0.000129658 8.47159e-05 -4.87001e-05 -6.99953e-05 7.72669e-05 -0.000150729 -3.52534e-05 5.56128e-05 
-0.0146995 8.18295e-06 1.05485e-06 5.88776e-08 9.22188e-06 1.98179e-05 -1.7336e-05 9.00302e-06 -1.4133e-05 
-5.80779e-06 9.29849e-06 -1.25126e-05 5.79245e-05 6.28724e-06 -1.48367e-05 1.59877e-05 -1.08575e-05 3.07298e-05 
1.10034e-06 -0.000144776 1.21072e-05 3.92526e-05 -4.73091e-05 -3.54858e-06 5.42915e-06 -1.81115e-05 0.00224502 
1.38065e-05 -4.08516e-07 4.73914e-05 -2.2481e-05 -4.12975e-05 1.55575e-05 2.86548e-05 -7.9926e-06 -2.32527e-05 
-0.000237479 -2.41308e-05 0.000115364 -2.00441e-05 6.31268e-05 -3.82779e-06 1.61861e-06 -1.67541e-06 -2.44976e-05 
-1.36919e-05 -5.18542e-06 4.69082e-05 4.19983e-05 3.24737e-05 -3.14124e-05 7.53984e-05 -3.61859e-05 0.000195918 
4.21082e-06 -4.27055e-05 0.000559247 -8.8324e-06 1.00662e-05 5.57432e-06 -4.0836e-06 2.26558e-05 -1.44335e-05 
2.14682e-06 5.81341e-06 4.13382e-06 0.00329668 1.83275e-06 3.87308e-06 -1.70884e-05 7.87721e-06 4.38835e-06 
-8.25333e-07 1.08626e-05 7.56528e-07 -1.24799e-05 7.60307e-05 -4.45684e-05 -3.23206e-05 1.09578e-05 -2.76786e-05 
1.4199e-07 8.62746e-06 4.79417e-08 8.18092e-06 -2.8846e-05 0.000674461 0.000202317 -3.21457e-05 -6.80111e-06 
-2.52084e-07 7.22384e-06 -0.0104695 -0.000376473 -7.7879e-07 2.27237e-06 9.25216e-08 0.000103321 3.46729e-05 
-2.58392e-05 -0.00268077 0.0022424 5.71929e-06 -0.00137172 2.4756e-05 2.4296e-05 -1.46508e-05 1.78966e-05 
6.93889e-05 0.000113955 -1.69029e-05 -9.71628e-06 -0.00325885 -0.00462297 0.00108651 -5.01418e-06 8.68835e-05 
-3.50774e-05 -2.1622e-05 -6.18835e-06 -6.04363e-06 4.53724e-06 0.0015062 -0.000579668 0.000227021 0.000239186 
0.000113224 0.00013329 -1.42686e-05 -3.24825e-06 1.46395e-05 2.94637e-05 -5.33001e-06 3.46083e-06 -4.19149e-06 
1.80379e-06 3.91879e-06 -1.50135e-05 0.0159426 -1.79491e-06 -4.82672e-05 -0.00274458 -2.71251e-06 -1.86829e-05 
2.70548e-06 5.64717e-06 1.78839e-06 -9.94648e-05 -4.63492e-05 -5.06942e-06 4.934e-05 2.79673e-05 2.53255e-05 
-2.24386e-05 1.81193e-05 3.41135e-05 -4.28179e-06 7.56903e-06 -5.82291e-05 1.27011e-05 2.66316e-05 5.34186e-06 
5.22037e-06 2.81541e-06 9.17735e-06 2.08027e-05 -1.71602e-05 -1.17823e-06 6.26454e-06 4.63206e-06 2.61039e-06 
3.18025e-05 -4.13247e-06 1.07646e-05 -1.983e-05 2.25805e-05 -4.44173e-06 1.8514e-05 -3.19195e-05 2.26122e-06 
-5.27938e-06 -9.07949e-07 1.45633e-05 2.57832e-06 6.95452e-06 -7.82353e-06 6.17703e-06 -1.77263e-07 0.000367934 
-0.00204048 4.33896e-06 -3.0483e-05 7.60922e-06 4.12175e-05 8.6711e-06 -8.15492e-05 6.06198e-05 1.40313e-05 
-0.00105005 -0.00504747 1.72857e-07 0.000228332 0.0100892 -0.0039216 0.00999676 -6.46661e-06 -3.01652e-05 
-7.77402e-06 2.5385e-06 5.91973e-05 -6.44684e-06 2.32801e-05 -8.9959e-05 -0.000150955 -1.86862e-06 2.7919e-06 
-7.61953e-06 6.26865e-06 -1.44575e-07 5.95609e-06 -0.000121417 -2.61051e-05 3.83689e-06 -4.34505e-06 1.02914e-05 
-7.56698e-06 3.69715e-05 -3.04961e-07 -0.00826458 -2.19206e-05 -4.07389e-06 3.27709e-06 2.15854e-05 -5.9769e-05 
0.00167268 0.00121628 6.04212e-05 -1.1164e-05 3.02795e-05 5.06275e-06 9.33336e-06 -3.08466e-05 -1.65761e-06 
-7.49706e-07 -5.34354e-06 -3.26487e-05 9.06809e-05 -1.19622e-05 5.97303e-06 7.60136e-06 -7.12156e-06 2.15779e-06 
1.46497e-05 0.00011386 0.000161811 5.88297e-07 -0.000248759 7.01047e-05 3.01693e-05 -0.000102628 -8.82714e-06 
-3.80383e-05 3.3539e-05 -1.36258e-05 2.45732e-05 -1.70066e-05 -3.90988e-06 -2.78439e-05 4.07712e-05 7.01047e-06 
-2.32799e-05 -1.45341e-05 6.66378e-06 3.05807e-05 -6.53895e-06 -1.82029e-05 -3.22298e-06 8.45313e-06 2.77396e-05 
0.000234296 -3.62728e-06 -7.74669e-05 5.29505e-07 3.75071e-07 6.61693e-06 -9.41975e-06 -2.994e-06 -0.000120636 
-0.000121089 -3.31257e-06 -3.40541e-05 -1.18953e-05 1.13325e-05 2.19675e-05 0.000114606 1.30245e-05 2.91627e-05 
3.28845e-06 -3.18152e-06 1.64515e-05 3.71413e-06 -8.8996e-06 2.87169e-05 1.878e-06 2.50998e-06 0.000317486 
-1.12116e-05 -3.4837e-06 2.8757e-05 -2.75321e-05 -5.38705e-05 6.36368e-05 5.44888e-06 -7.33197e-06 -4.31729e-05 
-1.95193e-05 -1.26886e-05 0.000108792 -1.58781e-05 -7.53034e-06 -9.12093e-05 0.000966807 -2.41333e-05 2.26896e-05 
0.00281951 -0.00246838 -0.0050187 6.39107e-05 5.89246e-05 5.06874e-05 -3.54184e-05 -8.51043e-07 1.76992e-06 
5.84357e-06 1.14899e-05 8.83499e-06 -3.57853e-05 -0.0280807 -1.62055e-05 2.1681e-06 1.52693e-05 -9.22335e-05 
1.52024e-05 1.41806e-05 0.0012478 0.00139963 -0.00336785 0.000576331 0.00131054 -3.51073e-05 -2.64734e-06 
2.31557e-05 1.52019e-05 6.83341e-07 0.00883615 6.59994e-06 1.02568e-05 -5.82949e-05 2.07794e-05 7.58842e-05 
-8.11356e-06 2.25193e-06 0.00551502 1.56053e-06 0.000259658 -0.000248386 -7.08142e-06 4.11987e-06 -0.000214425 
7.62717e-06 -9.701e-05 -6.28995e-06 -1.25286e-05 6.31845e-07 -2.26159e-05 1.44841e-05 1.84609e-06 -9.84159e-05 
-1.86742e-05 -3.53772e-06 -6.27762e-06 2.63329e-05 -1.64562e-05 -2.76871e-05 -4.23646e-05 -2.0809e-05 -1.62861e-06 
-2.04672e-05 5.00706e-06 3.60475e-06 5.62121e-06 -1.06849e-06 7.29607e-06 8.16047e-05 8.95972e-05 -2.83355e-05 
2.6466e-05 -1.65361e-05 -4.99912e-05 -0.0271793 0.0010644 2.25142e-05 8.64788e-07 8.61031e-06 -3.02326e-06 
-0.000211698 -1.42446e-05 5.50947e-05 -1.33932e-05 6.2143e-06 -1.98981e-05 4.06381e-06 3.49285e-06 3.83194e-06 
-6.22041e-05 0.000269444 7.813e-05 7.93382e-05 3.6733e-05 2.66417e-05 2.78648e-07 2.20437e-06 0.0294068 
-3.43831e-06 -2.07972e-05 -1.3678e-05 -5.45346e-06 -5.83126e-05 -2.07356e-05 1.40639e-05 0.0290035 -9.42067e-05 
5.26056e-06 -7.21846e-05 -5.8098e-05 -0.0288204 0.01255 -1.40034e-05 3.04618e-07 0.0393804 1.11113e-06 
8.87661e-06 -3.73734e-06 -1.72019e-05 -2.00832e-05 9.5536e-05 4.89806e-06 5.30388e-07 1.02879e-05 4.21605e-06 
-9.70305e-06 1.71183e-06 -6.28551e-06 2.84584e-05 -8.30055e-05 1.02087e-05 3.57791e-05 8.06087e-06 -4.56193e-05 
-1.1596e-05 -9.89476e-05 1.46379e-05 4.28303e-05 -1.46026e-05 0.000527858 4.56692e-06 -6.38163e-07 -5.97391e-05 
-0.0106565 -0.0271066 0.00179126 -3.9648e-05 -1.83045e-05 -0.000103377 1.37033e-05 3.58477e-05 -7.19924e-06 
-1.67345e-06 6.29971e-06 9.50963e-06 1.70754e-05 -7.67586e-05 6.01287e-05 -8.11561e-05 -9.46645e-05 -3.03214e-05 
3.82214e-05 3.93169e-06 -4.767e-05 -1.623e-06 -3.11885e-06 -9.32131e-06 -9.65789e-06 1.18536e-05 1.65129e-05 
-1.43041e-05 -6.43267e-06 1.8865e-05 9.55597e-05 0.000683548 -0.00653386 -1.27278e-06 -5.13048e-06 5.02496e-06 
-4.94119e-06 3.39663e-06 4.75952e-06 -0.00018447 -0.00247658 0.00195532 -0.00488892 0.027886 -0.0253979 
0.000800743 -3.41818e-05 -1.30036e-05 -2.49644e-05 0.00143367 -0.0151403 0.00266226 -3.18277e-06 2.22463e-05 
-6.92892e-06 0.000289643 1.74668e-06 3.14955e-05 1.91105e-05 -0.0113732 0.00309822 -3.69447e-05 -8.37943e-06 
-8.12491e-05 -4.6765e-05 6.24814e-06 0.00370778 0.000788363 -1.41034e-05 2.35068e-05 -2.58355e-05 3.75514e-05 
-1.79171e-06 -1.31646e-05 1.26547e-05 2.34584e-05 -5.79782e-06 -0.0114173 -1.203e-05 -4.73303e-06 4.18595e-05 
-0.0065622 -0.000189309 6.09113e-05 3.71838e-06 -5.77369e-05 -3.75689e-06 -4.76203e-05 -3.67299e-05 3.72616e-06 
1.28832e-05 6.27148e-06 -1.95205e-05 -0.00670587 0.00137055 -0.00169179 8.55756e-05 2.95108e-05 2.1481e-05 
8.06081e-06 -7.68627e-06 -0.000443967 -4.93819e-05 -0.00800355 2.67616e-05 6.16776e-05 6.77451e-06 9.88629e-06 
-1.00524e-05 0.000356139 0.00620627 -4.17371e-05 0.00108314 -1.60011e-05 0.000877646 0.00167587 -9.74533e-06 
7.82981e-05 -3.6357e-05 1.98491e-05 -1.75282e-05 8.27786e-06 -1.5266e-05 6.40168e-06 3.13467e-06 -0.000215348 
3.11656e-06 2.62905e-06 5.76035e-06 2.52596e-05 7.90586e-06 2.794e-06 3.46166e-05 -4.19613e-05 0.000176309 
0.000273798 -0.000129267 0.00528749 -8.35937e-06 -2.19233e-05 0.0274591 -2.38247e-05 -6.88375e-05 7.50881e-05 
-2.85449e-05 2.60334e-05 0.0317467 0.000106976 -4.87134e-05 1.27928e-05 -4.26368e-06 1.91276e-05 4.81072e-06 
0.00539555 -0.00139277 1.74643e-05 -4.93428e-05 1.9834e-05 -0.0077969 0.00968215 -7.07089e-06 -3.98678e-06 
-1.30287e-05 1.7829e-05 8.38287e-06 -0.000159861 0.00279665 0.00312284 0.00144279 5.49476e-05 5.20949e-06 
0.00910397 4.51563e-05 -1.09064e-05 5.65895e-05 -5.78622e-05 -2.44992e-05 1.40991e-05 5.44274e-05 0.0053505 
-9.61463e-07 1.29086e-05 -3.81096e-05 8.92702e-07 -1.26591e-06 -8.44322e-05 -0.000112063 -3.90703e-05 -7.34254e-06 
3.34608e-05 1.8931e-05 6.96673e-06 -7.73461e-06 2.38496e-05 -1.31042e-05 3.59446e-06 1.77388e-05 2.0108e-05 
-0.000126673 -4.14789e-05 1.19278e-05 9.27685e-06 0.000104094 -4.39497e-05 -3.37409e-05 -9.64706e-06 2.28344e-05 
2.59122e-05 -8.98069e-05 6.06585e-05 -9.98392e-05 -6.85567e-05 -0.000388435 -0.0055264 1.76406e-05 -1.81132e-06 
2.57677e-05 2.68468e-05 -5.09878e-06 2.26311e-05 -8.57656e-06 7.65631e-05 -0.000291335 -0.00200216 -3.58778e-05 
0.000114979 5.57269e-05 1.38174e-05 1.30583e-05 8.24223e-06 -5.25765e-05 -1.04602e-05 0.000332351 0.000604512 
0.00226408 0.00139888 1.16111e-05 1.59223e-06 1.70157e-06 -9.91756e-06 6.27718e-05 1.64849e-05 -0.000114621 
1.59578e-06 -9.93453e-06 5.45823e-06 -4.70677e-06 0.000166734 -1.30368e-05 4.62377e-06 1.51049e-06 -1.39214e-05 
4.43196e-06 -6.06249e-06 -0.000153783 -7.03534e-07 5.80202e-06 -4.70284e-05 -4.95063e-05 -1.31108e-05 -3.75053e-06 
3.79331e-06 -0.000223362 3.67998e-06 1.06315e-05 -0.0281249 -0.000243938 0.0293496 -0.0287451 1.65146e-05 
-2.97267e-06 2.34686e-05 -7.18115e-06 0.0011075 -2.98361e-05 -0.0050717 0.000322821 6.85601e-06 -5.19816e-06 
4.41035e-06 4.26691e-07 -3.99189e-05 -1.33728e-05 3.56805e-05 1.13171e-05 -4.45556e-05 -3.84264e-05 -5.39345e-05 
3.90657e-05 -9.18844e-06 -0.000173786 0.0111227 2.33361e-05 -4.05635e-05 5.97945e-06 -3.6798e-06 2.16524e-05 
-6.88163e-05 8.63625e-06 -0.000427971 -0.000338742 -2.46007e-06 -7.45708e-06 -4.26423e-06 -5.47274e-07 -4.79186e-06 
2.98886e-05 -1.35824e-06 8.24196e-06 -4.91834e-06 9.83566e-06 1.45735e-05 0.00838788 2.48683e-05 -2.87426e-06 
2.45691e-05 3.35806e-06 -0.0263706 -9.17417e-06 0.00264775 1.02778e-05 4.91409e-05 1.60541e-05 -1.37263e-05 
-0.000256383 -1.02422e-06 -0.000382536 2.34649e-05 -1.59374e-05 3.21673e-05 9.55527e-05 -9.25807e-06 1.06705e-06 
5.36545e-05 -1.5654e-05 -6.13324e-05 3.57922e-05 4.42989e-07 1.78426e-05 8.33811e-06 -3.66889e-05 -7.11379e-06 
-3.12096e-06 0.000660877 -1.20598e-05 5.5043e-06 1.89074e-06 1.16218e-05 3.17641e-06 3.63152e-06 1.15881e-05 
-2.4173e-06 -0.000160759 -0.000134374 8.71399e-06 -3.9267e-05 7.12955e-06 -1.64548e-05 0.00117734 -6.54701e-06 
-2.67669e-06 1.43912e-05 -1.77225e-05 -9.3202e-06 -8.32304e-06 9.14946e-06 -0.00228187 1.76004e-05 -0.00257693 
-0.00825142 -0.00346027 4.92973e-05 3.19241e-05 0.000941668 0.00123962 -2.89329e-05 -0.00137956 -0.00143764 
2.28344e-05 6.36033e-05 -7.01452e-05 7.0071e-05 -6.91516e-06 0.00550817 6.07403e-06 2.39971e-05 -5.79261e-06 
6.01901e-06 1.65718e-06 1.69472e-05 -2.41337e-05 7.56125e-06 0.000139203 3.89938e-07 5.6434e-05 -2.39585e-06 
-4.69749e-06 1.3697e-05 -2.71609e-05 4.26538e-05 1.00901e-06 5.88355e-06 1.6272e-06 5.06826e-06 2.67542e-05 
5.11312e-05 1.8474e-05 4.77401e-05 2.69668e-05 7.98796e-05 0.000195145 6.00163e-05 3.7069e-06 -0.0271829 
-1.37932e-05 -1.89219e-05 -1.30583e-05 -8.89796e-07 -4.54109e-05 -7.29832e-05 8.38479e-05 4.78491e-05 -0.000184733 
-6.62024e-05 4.58262e-05 5.06863e-05 1.7072e-05 -4.95846e-06 2.301e-06 1.8585e-05 1.46696e-05 -2.02222e-05 
-1.30545e-05 -3.2056e-05 -1.52441e-05 0.00128965 0.0056455 0.000343236 -0.000444925 2.55842e-05 -0.00119761 
0.00152583 -0.000320023 -0.000145829 1.00982e-05 -0.000147843 2.3485e-06 -1.63391e-05 1.05326e-05 2.74868e-05 
4.16035e-05 -2.96611e-05 -2.6803e-05 -4.33564e-05 3.24071e-06 0.00376068 2.38087e-06 1.39065e-06 -0.00554835 
-0.000131732 0.0104048 -2.23132e-05 0.0148056 -6.81544e-06 -1.80395e-05 4.74234e-05 4.40568e-06 3.1229e-05 
0.000725857 -0.00122878 -2.71287e-05 7.08739e-06 5.4397e-06 5.05387e-06 -1.16463e-05 -1.8568e-07 -2.24271e-05 
7.45609e-06 5.08666e-05 -2.80818e-06 -1.24556e-05 4.98232e-07 -1.2813e-05 1.84465e-05 -3.15926e-05 3.93831e-05 
4.32796e-05 2.20158e-06 -6.23168e-05 3.29949e-05 8.58813e-05 -0.000102089 0.000158877 2.045e-05 9.87273e-06 
-7.39909e-06 -1.89821e-05 5.51764e-06 0.000143802 -1.28848e-06 7.6195e-05 7.28098e-05 -1.01083e-06 -1.02254e-05 
-2.43985e-05 -1.04493e-05 1.64939e-05 -6.16e-06 -9.80293e-05 -8.76173e-06 -2.48825e-05 6.4458e-05 8.93314e-07 
1.74412e-05 -5.2266e-05 -1.69967e-05 2.48604e-05 -8.17102e-05 2.74273e-05 2.29362e-05 -4.74419e-06 -3.66713e-06 
4.62506e-06 -1.07071e-05 -2.24505e-05 -8.78934e-06 -3.6245e-05 7.9897e-05 -6.4972e-06 -3.12585e-05 0.00504686 
0.00991145 1.3417e-05 -3.78963e-05 1.09274e-05 5.5404e-05 -6.33626e-06 -4.4335e-05 -6.04062e-06 3.23099e-05 
-2.52245e-05 8.83774e-06 3.38475e-07 -2.80657e-05 1.10332e-05 -1.17814e-05 8.02034e-06 2.23656e-05 -1.8627e-05 
7.19587e-05 -4.50241e-05 -6.67101e-05 -1.7964e-05 -1.38996e-05 -1.02364e-05 -1.41969e-06 -6.75595e-06 -2.85682e-05 
1.0365e-05 -4.62458e-05 5.06361e-05 2.71379e-06 4.33371e-05 -6.82665e-07 -8.80995e-06 5.85187e-06 -5.32176e-05 
2.43334e-05 4.1806e-06 2.09415e-05 5.24141e-06 3.1614e-05 6.42788e-06 -4.52795e-05 -4.00672e-05 -4.02641e-05 
3.24662e-05 3.82667e-05 -4.57931e-06 -8.05329e-06 -9.47414e-06 -9.03878e-05 -7.64933e-07 -3.21765e-05 -1.0221e-06 
-2.06043e-05 -0.000137501 1.55546e-05 0.000755512 -2.81271e-05 -4.10538e-05 0.0118845 -2.49874e-06 -1.20446e-05 
5.77938e-06 3.5918e-06 -8.75909e-05 -0.0288478 6.57244e-06 -1.11548e-05 -1.00902e-05 2.2863e-05 -3.86736e-05 
0.00015759 0.000475289 -1.95328e-05 -0.00678352 -2.83296e-05 -0.027331 -0.00260648 -0.00484427 0.000236296 
-8.39259e-06 -1.12283e-05 -0.00221935 1.00995e-06 -5.34486e-06 -0.000921836 2.86348e-05 2.64206e-06 0.00342451 
2.59383e-05 -9.25885e-06 0.000117013 6.45726e-06 9.81114e-06 6.49844e-06 1.72916e-06 0.000100173 -3.22996e-06 
-0.0277924 2.26816e-05 -1.12473e-05 -8.27948e-06 -0.0027001 4.232e-06 -2.37948e-05 2.41687e-05 -3.12491e-06 
-2.2356e-07 5.05364e-05 -1.01396e-06 -6.58324e-06 0.00187225 4.74591e-06 4.29938e-06 0.0131731 -0.00555313 
-0.0118736 0.000182064 2.49896e-06 -5.22067e-07 8.92267e-06 0.00289253 4.84151e-05 0.0041826 -0.00254877 
-7.12128e-06 5.76564e-05 -1.51739e-06 -6.78053e-05 -2.03117e-06 0.000236348 0.000936749 0.000766299 0.00124411 
-0.00016224 2.77697e-05 -0.00386081 -0.00856579 2.09104e-05 -2.07308e-05 -0.000305943 -4.78702e-05 3.55711e-06 
0.000113469 -0.00311543 9.5465e-06 1.4753e-05 -4.82801e-06 0.000837111 0.0014572 -0.00511338 -2.98985e-05 
1.80411e-05 -1.99544e-05 1.54728e-06 2.23355e-05 -1.92042e-05 -2.33097e-05 -1.55153e-05 -0.00813007 6.69357e-06 
3.2945e-06 -0.00517245 -0.00505304 -1.49382e-06 -6.0411e-06 -0.000135488 -5.5294e-05 -0.0151207 0.000867007 
0.0300056 9.09836e-06 0.0263209 0.0200859 -0.00572651 -1.19574e-05 0.000160199 -6.23775e-05 5.90863e-05 
-0.00769427 -0.000665825 5.12099e-06 -0.00311655 -0.00106543 4.38162e-06 -0.000335035 -0.00532662 0.00666023 
0.0265148 -0.0143864 3.99009e-05 -4.44197e-06 -0.00325702 -6.59623e-06 2.04351e-06 0.00145866 0.0107617 
0.00850636 -0.000277176 -0.000825947 -0.00644808 4.47323e-06 -0.0122351 -0.0029332 0.0126913 0.000769855 
-3.24747e-06 0.00139598 6.34896e-06 0.000255921 1.01706e-05 0.00223845 -3.45419e-05 -0.00704477 1.37084e-05 
-2.26492e-05 -2.74543e-06 4.73888e-05 0.0162133 8.62623e-07 -0.0054034 -1.15417e-05 2.70255e-05 -0.00127422 
-0.000872164 -0.000412802 1.51397e-05 0.0118077 0.0175621 -0.00565356 -0.026781 -1.43697e-05 2.51941e-05 
-9.43375e-06 -1.81609e-06 7.68903e-06 -0.0121066 -0.00839496 0.00376346 -0.000835572 -0.00050163 -0.000718071 
-3.47874e-05 -0.0306281 -0.0260062 0.0142144 0.00177051 0.000616454 -0.00351921 -0.00766353 -0.00932357 
0.00349336 0.00966179 0.0168668 0.00454652 -0.000429448 -0.000680561 0.00032385 -0.0012037 0.000100729 
0.000499753 0.000264589 0.00506858 -0.00332069 0.000526959 -0.000721934 -0.00102801 0.00782977 -0.016722 
0.0176139 0.0120681 0.0186503 0.0127417 -0.00573012 -0.00661714 -0.00152701 -0.0139411 0.00955537 
-0.00328093 -0.00283308 0.000190093 0.00183143 0.00211616 0.00475769 -0.0240047 0.000981255 -0.0109738 
-0.00831827 -0.00807577 0.00035783 -0.009942 0.00198522 -0.00114848 -0.000632375 0.00415645 -0.00323898 
-0.0259898 0.0104027 -0.00288456 0.0209947 0.0123946 -0.0128074 0.0268044 -0.00447748 0.000948064 
2.17045e-05 0.000318696 -0.000231613 -0.00395041 -0.000836423 -0.00200259 0.00160541 0.0172943 -0.000514622 
0.00857427 -0.00131655 -0.00149463 -0.000104759 0.0158866 0.0097828 0.00979673 0.00149195 -0.00453946 
-0.00426318 -0.0163677 -0.000463239 -0.00311716 -0.00381666 0.00828028 -0.0149749 -0.00457022 0.0133219 
0.00190554 0.00132826 -0.00060016 0.0150947 -0.00370166 0.00891709 0.00580021 -0.0012333 0.0102993 
0.00832431 -0.0175499 0.00146897 -4.97436e-05 -0.00373402 -0.000570183 -0.00346359 0.0106164 0.00149876 
-0.000115538 -0.00371928 
Strain%20zz%20component 1 13529 double
1.14355e-06 -0.150387 1.17232e-06 -0.102179 -0.123115 -0.12312 -0.123114 -0.123127 -0.0302554 
-0.0299769 -0.0311226 -0.0249165 -0.0287662 -0.0221529 -0.0267762 -0.0289178 -0.0316613 -0.0289083 
-0.0250487 -0.0376207 -0.0320549 -0.0172092 -0.0310214 -0.0207546 -0.0321571 -0.03633 -0.0302238 
-0.0343306 -0.039381 -0.0327725 -0.0306685 -0.0343156 -0.0251024 -0.0183427 -0.131289 -0.145687 
-0.117834 -0.137385 -0.0147124 -0.025108 -0.0846713 -0.0677855 -0.0661154 -0.0901374 -0.0727569 
-0.0225457 -0.0278071 -0.0385388 -0.0364773 -0.0402992 -0.0399589 -0.0465579 0.00242208 -0.00305683 
-0.0233354 -0.0156604 -0.028488 -0.0631994 -0.062694 -0.0619485 -0.0542795 -0.0294746 -0.0427568 
-0.0315882 -0.0363973 -0.0392169 -0.0419084 -0.0626473 -0.0221488 -0.00612718 -0.00595009 -0.0027891 
-0.00319337 -0.00189412 0.0067634 0.00656233 -0.0319737 -0.0282073 -0.0363727 -0.0350245 -0.0322081 
-0.0321894 -0.0640849 -0.0830345 -0.0640816 -0.0621528 -0.059641 -0.056921 -0.0298744 -0.0163857 
-0.0245558 -0.0358128 -0.0193962 -0.0257564 -0.0244851 -0.0370165 -0.0481174 -0.0536251 -0.0546593 
-0.0649632 -0.063985 -0.0628783 -0.0630486 -0.0765064 0.000751709 -0.021572 -0.00305898 5.75119e-05 
-0.00986324 -0.0418733 -0.0373162 -0.0410563 -0.0302649 -0.0267431 -0.02261 -0.0167294 -0.0677414 
-0.0646525 -0.0674661 -0.0665894 -0.0749217 0.00190699 -0.0146277 -0.0179761 -0.0170769 -0.0693863 
-0.0458328 -0.0412148 -0.0436844 -0.0402224 -0.0355349 -0.0426546 -0.0698051 -0.0640223 -0.0624162 
-0.0599691 -0.0560014 -0.0817387 -0.0637413 -0.0643592 -0.0687453 -0.074406 -0.0579395 -0.0525359 
-0.0409156 -0.0434165 -0.0349481 -0.0361176 -0.0221386 -0.0161518 -0.017634 -0.0250109 -0.0047616 
-0.0630622 -0.0678046 -0.0661201 -0.0621326 -0.0589142 -0.0606084 -0.0395793 -0.0393341 -0.0300015 
-0.0347346 -0.0217205 -0.0272467 -0.000824234 -0.00262623 -0.00498596 0.00268755 -0.0156219 -0.0879731 
-0.0487471 -0.0309893 -0.0306243 -0.0317566 -0.041794 -0.0322105 -0.0332794 -0.0321663 -0.0431196 
-0.0331178 -0.0326952 -0.0326535 -0.0577293 -0.0556517 -0.0563201 -0.0337294 -0.0313109 -0.0481927 
-0.0549623 -0.0320439 -0.0301387 -0.0525228 -0.0751467 0.000371337 1.03991e-06 -0.0403053 -0.0416418 
-0.0430125 -0.0396766 -0.000222833 -0.0360117 -0.0392212 -0.0418686 -0.0409848 4.26305e-05 -0.0398697 
-0.0421793 -0.0426957 -0.0418439 -0.000194646 -3.03788e-05 -0.000604785 -0.0434234 -0.0408927 -0.0384377 
-4.49241e-05 -0.00034054 -0.0401183 -0.0417682 -0.0449674 9.93866e-05 1.19782e-06 -0.123101 -0.123185 
-0.1227 -0.121929 -0.1208 -0.119503 -0.118154 -0.116575 -0.114979 -0.113691 -0.112479 
-0.111565 -0.110919 -0.110583 -0.110529 -0.110891 -0.111504 -0.112487 -0.113509 -0.114779 
-0.116337 -0.117641 -0.119008 -0.120212 -0.121253 -0.122128 -0.122788 -0.123132 -0.123218 
-0.271228 -0.123935 -0.110399 -0.104752 -0.10047 -0.0973181 -0.0959645 -0.0950867 -0.0947088 
-0.0948073 -0.0952761 -0.0963713 -0.0978981 -0.100046 -0.102346 -0.104855 -0.108015 -0.111473 
-0.114922 -0.11829 -0.120732 -0.122347 -0.122409 -0.121231 -0.1192 -0.116995 -0.115084 
-0.113417 -0.112041 -0.111086 -0.110575 -0.110515 -0.110823 -0.11148 -0.112476 -0.113865 
-0.115225 -0.116636 -0.118185 -0.119566 -0.120768 -0.121914 -0.122713 -0.123151 -0.123203 
-0.123134 -0.123163 -0.122832 -0.122229 -0.121413 -0.120321 -0.119218 -0.117988 -0.116978 
-0.116017 -0.115196 -0.114532 -0.114246 -0.114276 -0.114595 -0.115429 -0.116298 -0.117607 
-0.11915 -0.120839 -0.122387 -0.123557 -0.124179 -0.12387 -0.122611 -0.120616 -0.118249 
-0.115255 -0.112237 -0.109086 -0.10648 -0.104124 -0.102025 -0.100308 -0.0988406 -0.097973 
-0.0974763 -0.0974665 -0.0979055 -0.0993287 -0.101581 -0.105538 -0.111287 -0.1214 -0.286636 
-0.0249127 -0.0460444 -0.0544469 -0.0471399 -0.0449855 -0.0434879 -0.0486839 -0.0500419 -0.0441603 
-0.0335156 -0.0649061 -0.0604592 -0.0420882 -0.0425467 -0.043318 -0.0447565 -0.0466499 -0.0576458 
-0.0452644 -0.0401898 -0.0394089 -0.0433656 -0.0451046 -0.0450105 -0.0436984 -0.0384152 -0.035966 
-0.0351026 -0.033206 -0.0716355 -0.0614358 -0.0502532 -0.0489452 -0.0440124 -0.049431 -0.045028 
-0.0596919 -0.0654556 -0.0438381 -0.0242668 -0.123244 -0.123051 -0.122324 -0.121157 -0.119543 
-0.117716 -0.115686 -0.113697 -0.112252 -0.111244 -0.110592 -0.110622 -0.111164 -0.112153 
-0.113516 -0.115252 -0.117049 -0.118768 -0.120379 -0.121704 -0.122638 -0.123139 -0.123151 
-0.165754 -0.118893 -0.106919 -0.101345 -0.0973281 -0.0955628 -0.0947481 -0.0948564 -0.0955111 
-0.0970764 -0.0992504 -0.102271 -0.105582 -0.109051 -0.112874 -0.11708 -0.120578 -0.122281 
-0.122066 -0.120241 -0.117768 -0.115234 -0.112851 -0.111426 -0.110703 -0.110538 -0.111014 
-0.112028 -0.113601 -0.115226 -0.116785 -0.118623 -0.120245 -0.121503 -0.122551 -0.123157 
-0.123172 -0.12321 -0.123111 -0.122562 -0.121695 -0.120372 -0.119059 -0.117571 -0.116376 
-0.11523 -0.114527 -0.114255 -0.114447 -0.115238 -0.116582 -0.118242 -0.120032 -0.121954 
-0.12356 -0.124135 -0.123527 -0.121289 -0.117933 -0.11421 -0.110382 -0.106632 -0.10362 
-0.101051 -0.0991715 -0.0979852 -0.0975853 -0.0978525 -0.0992759 -0.102582 -0.108024 -0.120032 
-0.149161 -0.0295148 -0.0410002 -0.037122 -0.045827 -0.0446006 -0.0434732 -0.0337351 -0.033493 
-0.0393674 -0.0684328 -0.0346807 -0.0240305 -0.041918 -0.0430375 -0.0436234 -0.0449946 -0.0457482 
-0.0338847 -0.0370118 -0.0233781 -0.0248272 -0.0505695 -0.047242 -0.045713 -0.0433765 -0.0462653 
-0.0475629 -0.0476509 -0.0253072 -0.0254849 -0.0242245 -0.0265475 -0.0369477 -0.0339258 -0.0442277 
-0.0339494 -0.0344993 -0.0463866 -0.0287735 -0.103965 -0.0893492 -0.111832 -0.111106 -0.129128 
-0.105783 -0.135483 -0.0915288 -0.111075 -0.0923522 -0.0908924 -0.0917965 -0.0958512 -0.125371 
-0.106974 -0.105299 -0.130059 -0.112548 -0.136941 -0.103461 -0.092807 -0.106017 -0.104617 
-0.145794 -0.111156 -0.0885999 -0.092582 -0.109919 -0.118092 -0.100454 -0.101632 -0.104986 
-0.0961833 -0.0894737 -0.0921031 -0.0939244 -0.0913197 -0.0900077 -0.101866 -0.109109 -0.129531 
-0.111101 -0.113008 -0.111707 -0.0908997 -0.136994 -0.103001 -0.092657 -0.0937127 -0.111472 
-0.125116 -0.0942712 -0.0979065 -0.111134 -0.119815 -0.109821 -0.0982318 -0.0900419 -0.0917701 
-0.0922294 -0.104423 -0.140546 -0.117081 -0.105972 -0.111936 -0.0944542 -0.0918266 -0.0887341 
-0.109204 -0.121318 -0.127383 -0.109128 -0.109583 -0.108969 -0.11234 -0.113974 -0.0933182 
-0.122829 -0.122452 -0.121846 -0.12109 -0.120119 -0.119007 -0.117837 -0.11665 -0.115588 
-0.114577 -0.113742 -0.113168 -0.112785 -0.112716 -0.112782 -0.113157 -0.113739 -0.114483 
-0.115459 -0.116526 -0.117568 -0.118635 -0.119667 -0.120584 -0.121367 -0.122037 -0.12252 
-0.122849 -0.123052 -0.148156 -0.131812 -0.120428 -0.113174 -0.10865 -0.105283 -0.103082 
-0.101534 -0.100951 -0.100954 -0.10087 -0.101433 -0.102397 -0.103879 -0.105626 -0.107427 
-0.109526 -0.11171 -0.113722 -0.115439 -0.116463 -0.117268 -0.117311 -0.11671 -0.115784 
-0.114762 -0.113697 -0.112937 -0.112409 -0.112084 -0.112068 -0.112257 -0.112807 -0.113544 
-0.114559 -0.115623 -0.116718 -0.117873 -0.119053 -0.120111 -0.121006 -0.121804 -0.122363 
-0.122787 -0.122786 -0.122535 -0.122031 -0.121393 -0.12064 -0.119723 -0.118774 -0.117937 
-0.117111 -0.116349 -0.115758 -0.115397 -0.115181 -0.115242 -0.115521 -0.116065 -0.116843 
-0.117634 -0.118606 -0.11953 -0.120236 -0.120455 -0.120451 -0.119631 -0.118498 -0.117002 
-0.114842 -0.11285 -0.110806 -0.10882 -0.106987 -0.105417 -0.104291 -0.103437 -0.102809 
-0.102897 -0.103226 -0.10435 -0.106028 -0.108958 -0.113665 -0.121391 -0.133014 -0.196019 
-0.225707 -0.192673 -0.18384 -0.178992 -0.17981 -0.182068 -0.192175 -0.184266 -0.185481 
-0.186029 -0.189026 -0.19672 -0.192476 -0.189078 -0.189061 -0.193705 -0.219693 -0.21325 
-0.192931 -0.185173 -0.183422 -0.18653 -0.20908 -0.185004 -0.179604 -0.180134 -0.194837 
-0.226843 -0.0890708 -0.109608 -0.119047 -0.110364 -0.11991 -0.121041 -0.124124 -0.120876 
-0.128638 -0.182486 -0.226831 -0.18256 -0.154397 -0.145267 -0.131514 -0.123619 -0.119677 
-0.118597 -0.107889 -0.104536 -0.094593 -0.0860991 -0.084905 -0.10031 -0.12051 -0.120641 
-0.12023 -0.119888 -0.122594 -0.129806 -0.144739 -0.147155 -0.173913 -0.173555 -0.14842 
-0.127445 -0.116994 -0.111964 -0.120593 -0.109862 -0.109399 -0.10721 -0.116197 -0.0899795 
-0.0813111 -0.194601 -0.185535 -0.0861966 -0.195586 -0.0922712 -0.12174 -0.121163 -0.120472 
-0.119679 -0.118845 -0.117973 -0.117191 -0.116444 -0.115795 -0.115286 -0.114993 -0.114812 
-0.114775 -0.114944 -0.115262 -0.115784 -0.116399 -0.117118 -0.117868 -0.118632 -0.119428 
-0.120158 -0.120792 -0.121369 -0.121908 -0.122374 -0.10815 -0.136297 -0.126283 -0.120046 
-0.114716 -0.111444 -0.109086 -0.107484 -0.106599 -0.106019 -0.105689 -0.10581 -0.106346 
-0.107066 -0.107784 -0.108607 -0.109591 -0.110567 -0.111394 -0.111534 -0.1116 -0.112393 
-0.112924 -0.113103 -0.113213 -0.113265 -0.113186 -0.11305 -0.113094 -0.113268 -0.11362 
-0.114091 -0.114667 -0.115479 -0.116293 -0.117081 -0.117934 -0.118822 -0.119669 -0.120418 
-0.121109 -0.121694 -0.12231 -0.155425 -0.149155 -0.122289 -0.121898 -0.121384 -0.120804 
-0.120113 -0.119413 -0.118727 -0.118037 -0.117385 -0.116829 -0.116381 -0.116073 -0.115909 
-0.115897 -0.116024 -0.116207 -0.116441 -0.116732 -0.11708 -0.117362 -0.117292 -0.116992 
-0.116506 -0.116001 -0.115182 -0.114061 -0.112924 -0.11179 -0.11049 -0.109362 -0.108395 
-0.107805 -0.107372 -0.107366 -0.107696 -0.108404 -0.109797 -0.111695 -0.114866 -0.119681 
-0.126971 -0.137071 -0.091544 -0.147827 -0.148694 -0.14954 -0.150487 -0.152205 -0.152532 
-0.153927 -0.155848 -0.156831 -0.158264 -0.157389 -0.159222 -0.159695 -0.160064 -0.161079 
-0.16055 -0.158302 -0.15656 -0.154413 -0.153068 -0.15313 -0.152316 -0.150283 -0.149484 
-0.14941 -0.102671 -0.168266 -0.0962572 -0.111135 -0.113526 -0.117065 -0.123031 -0.132182 
-0.146552 -0.16458 -0.0954191 -0.142807 -0.15702 -0.120721 -0.115081 -0.111531 -0.108931 
-0.105902 -0.101315 -0.0961592 -0.0944751 -0.156636 -0.10372 -0.0984932 -0.109682 -0.111142 
-0.11391 -0.118765 -0.126216 -0.137835 -0.151071 -0.157753 -0.136516 -0.148971 -0.119367 
-0.115018 -0.112508 -0.11071 -0.108398 -0.103453 -0.0969576 -0.129919 -0.107479 -0.126264 
-0.0967933 -0.168961 -0.0986788 -0.151673 -0.120646 -0.120143 -0.119598 -0.119034 -0.118482 
-0.118007 -0.117556 -0.117242 -0.117104 -0.117026 -0.116907 -0.116728 -0.116827 -0.117238 
-0.117626 -0.118007 -0.118434 -0.118943 -0.119487 -0.119993 -0.120485 -0.120922 -0.12136 
-0.121828 -0.1043 -0.114634 -0.101886 -0.139603 -0.157916 -0.130118 -0.124563 -0.120012 
-0.116902 -0.114591 -0.113001 -0.111706 -0.110659 -0.109889 -0.109477 -0.109347 -0.109199 
-0.108956 -0.108735 -0.108568 -0.10801 -0.107703 -0.105079 -0.106437 -0.107712 -0.109452 
-0.110801 -0.111803 -0.112595 -0.113176 -0.113679 -0.11417 -0.114753 -0.115311 -0.115871 
-0.116513 -0.117189 -0.117757 -0.118346 -0.118933 -0.119515 -0.120056 -0.120584 -0.121046 
-0.0995719 -0.121352 -0.120894 -0.120419 -0.1199 -0.119396 -0.118922 -0.11839 -0.117854 
-0.117408 -0.117031 -0.116688 -0.1164 -0.116165 -0.115914 -0.115635 -0.115302 -0.115074 
-0.114962 -0.114555 -0.113767 -0.113065 -0.11305 -0.112948 -0.112527 -0.112243 -0.11195 
-0.111629 -0.111225 -0.110913 -0.110855 -0.111073 -0.111384 -0.111963 -0.113064 -0.114773 
-0.116984 -0.120302 -0.124674 -0.129321 -0.138944 -0.162768 -0.111463 -0.143445 -0.14593 
-0.147317 -0.149038 -0.15087 -0.152479 -0.154062 -0.155148 -0.156136 -0.15699 -0.157647 
-0.157744 -0.157365 -0.156673 -0.15558 -0.154119 -0.152769 -0.150957 -0.148674 -0.147121 
-0.145716 -0.145033 -0.107943 -0.115734 -0.118454 -0.123559 -0.130253 -0.139315 -0.149806 
-0.1151 -0.10249 -0.112116 -0.120687 -0.108971 -0.105966 -0.102905 -0.143852 -0.159944 
-0.14426 -0.118792 -0.112516 -0.124172 -0.13102 -0.138693 -0.144195 -0.10196 -0.113631 
-0.119692 -0.111054 -0.107883 -0.116286 -0.100843 -0.104062 -0.157914 -0.136074 -0.104422 
-0.102299 -0.110249 -0.154349 -0.10784 -0.140151 -0.105061 -0.143513 -0.127463 -0.130207 
-0.103578 -0.124416 -0.104064 -0.145276 -0.137208 -0.120403 -0.105894 -0.120064 -0.119829 
-0.119596 -0.119392 -0.119252 -0.118863 -0.119081 -0.119154 -0.119211 -0.118956 -0.11846 
-0.119018 -0.11929 -0.119375 -0.11938 -0.119588 -0.119831 -0.120105 -0.120362 -0.120619 
-0.120883 -0.122771 -0.107054 -0.1388 -0.13318 -0.128741 -0.12519 -0.122387 -0.120056 
-0.118141 -0.116563 -0.115013 -0.113633 -0.11262 -0.111541 -0.110371 -0.108962 -0.107633 
-0.109322 -0.111456 -0.11263 -0.113739 -0.114752 -0.115641 -0.116507 -0.117216 -0.117851 
-0.118388 -0.118772 -0.119089 -0.11939 -0.119679 -0.119952 -0.120242 -0.120623 -0.120277 
-0.119975 -0.119679 -0.119341 -0.118921 -0.11848 -0.118091 -0.11766 -0.117134 -0.116615 
-0.116018 -0.115232 -0.114377 -0.113478 -0.11283 -0.112542 -0.11084 -0.108808 -0.110213 
-0.11065 -0.111435 -0.111918 -0.112358 -0.112803 -0.113395 -0.114018 -0.114929 -0.116029 
-0.117485 -0.119406 -0.12169 -0.124563 -0.128672 -0.134152 -0.152221 -0.111786 -0.109655 
-0.140431 -0.141998 -0.14405 -0.146064 -0.148138 -0.150035 -0.151724 -0.153004 -0.153907 
-0.154624 -0.15497 -0.154956 -0.154476 -0.153346 -0.151867 -0.150178 -0.148061 -0.145658 
-0.143373 -0.141036 -0.135503 -0.128122 -0.118383 -0.137271 -0.134686 -0.142076 -0.121669 
-0.115106 -0.135156 -0.119122 -0.135849 -0.126214 -0.117913 -0.115053 -0.131054 -0.111552 
-0.114251 -0.116418 -0.154813 -0.11472 -0.119123 -0.105763 -0.106396 -0.106992 -0.112871 
-0.122522 -0.107766 -0.150059 -0.154304 -0.152635 -0.109342 -0.110419 -0.132425 -0.130759 
-0.108691 -0.137687 -0.111705 -0.149272 -0.110991 -0.136242 -0.124458 -0.106937 -0.126391 
-0.107322 -0.108946 -0.130615 -0.120192 -0.120279 -0.120422 -0.120823 -0.121162 -0.120891 
-0.121485 -0.121549 -0.120674 -0.121465 -0.121251 -0.120897 -0.120473 -0.120584 -0.120418 
-0.120466 -0.12047 -0.120537 -0.135475 -0.13688 -0.133027 -0.129991 -0.127229 -0.124981 
-0.123003 -0.12118 -0.119042 -0.116781 -0.114957 -0.112948 -0.114912 -0.116281 -0.117597 
-0.118667 -0.11938 -0.119803 -0.120119 -0.120293 -0.120305 -0.120184 -0.120137 -0.120171 
-0.149435 -0.120362 -0.120299 -0.120228 -0.119953 -0.119587 -0.119265 -0.11889 -0.118217 
-0.117391 -0.116709 -0.115507 -0.113981 -0.112285 -0.11076 -0.109729 -0.11152 -0.112767 
-0.113984 -0.11516 -0.116605 -0.117736 -0.11927 -0.121399 -0.123576 -0.125791 -0.128436 
-0.131783 -0.135773 -0.128863 -0.140796 -0.143165 -0.145492 -0.147719 -0.149677 -0.150905 
-0.151794 -0.152425 -0.152594 -0.152345 -0.151507 -0.149937 -0.147916 -0.145558 -0.142869 
-0.140054 -0.136319 -0.125351 -0.121051 -0.130674 -0.125125 -0.112996 -0.144893 -0.119755 
-0.12277 -0.129373 -0.117448 -0.13168 -0.118695 -0.131656 -0.129045 -0.151442 -0.120783 
-0.150452 -0.116922 -0.147062 -0.150956 -0.109658 -0.131494 -0.127159 -0.13808 -0.114735 
-0.142685 -0.127135 -0.123449 -0.121333 -0.116754 -0.116956 -0.125546 -0.126515 -0.110231 
-0.131049 -0.121067 -0.121629 -0.122839 -0.124691 -0.123395 -0.124616 -0.123927 -0.123688 
-0.122622 -0.121851 -0.121029 -0.12061 -0.119417 -0.11834 -0.134395 -0.131819 -0.129522 
-0.127521 -0.121646 -0.120569 -0.121516 -0.121777 -0.122009 -0.121971 -0.12163 -0.121029 
-0.121157 -0.120659 -0.120425 -0.120546 -0.11978 -0.138121 -0.130424 -0.112643 -0.114727 
-0.116203 -0.118506 -0.120515 -0.121648 -0.127291 -0.129493 -0.131953 -0.134779 -0.122311 
-0.137846 -0.14064 -0.143387 -0.146009 -0.148294 -0.149094 -0.150652 -0.150782 -0.151064 
-0.150226 -0.149123 -0.146323 -0.143599 -0.140586 -0.137178 -0.147923 -0.111738 -0.120505 
-0.118262 -0.125782 -0.145753 -0.120929 -0.149948 -0.124586 -0.124692 -0.136891 -0.126866 
-0.131204 -0.127454 -0.124758 -0.118033 -0.127129 -0.143551 -0.132231 -0.148567 -0.141504 
-0.134395 -0.120608 -0.147682 -0.12429 -0.123819 -0.122225 -0.125948 -0.122427 -0.130659 
-0.122281 -0.122703 -0.123965 -0.138688 -0.142979 -0.135337 -0.125467 -0.136742 -0.132926 
-0.142334 -0.13872 -0.142337 -0.146184 -0.138143 -0.137475 -0.122634 -0.122121 -0.121293 
-0.120152 -0.118927 -0.117407 -0.116022 -0.11475 -0.113876 -0.113303 -0.113035 -0.113272 
-0.113837 -0.114674 -0.115832 -0.117106 -0.118402 -0.119697 -0.120805 -0.121709 -0.122384 
-0.122813 -0.162834 -0.129337 -0.116162 -0.109145 -0.105495 -0.10351 -0.10243 -0.101923 
-0.102021 -0.102767 -0.104184 -0.105841 -0.107877 -0.110055 -0.1123 -0.114101 -0.115682 
-0.116482 -0.116317 -0.11553 -0.114563 -0.113607 -0.112812 -0.112382 -0.112387 -0.112697 
-0.113415 -0.114446 -0.115605 -0.116822 -0.118123 -0.119358 -0.12049 -0.121418 -0.12213 
-0.122737 -0.122289 -0.121649 -0.120793 -0.119827 -0.118731 -0.117765 -0.116812 -0.116029 
-0.115573 -0.115389 -0.115553 -0.116055 -0.11675 -0.117676 -0.11846 -0.119231 -0.119741 
-0.119483 -0.118627 -0.116854 -0.114535 -0.112227 -0.109871 -0.10781 -0.106035 -0.10496 
-0.104248 -0.104308 -0.105463 -0.107484 -0.111349 -0.118044 -0.128053 -0.146475 -0.1668 
-0.18963 -0.184039 -0.184131 -0.179772 -0.180615 -0.18437 -0.187532 -0.187514 -0.187706 
-0.189997 -0.193229 -0.190008 -0.16433 -0.161172 -0.186113 -0.18729 -0.183923 -0.158315 
-0.179457 -0.185116 -0.187266 -0.0871801 -0.109723 -0.119746 -0.128509 -0.122119 -0.122887 
-0.126254 -0.14411 -0.153887 -0.155958 -0.187721 -0.233142 -0.190687 -0.151193 -0.130957 
-0.123035 -0.120419 -0.119463 -0.127442 -0.126892 -0.116073 -0.0886381 -0.0942548 -0.121341 
-0.120721 -0.120519 -0.119009 -0.120063 -0.123643 -0.135131 -0.173379 -0.211184 -0.216972 
-0.185446 -0.153891 -0.138127 -0.131747 -0.121601 -0.129209 -0.131772 -0.130027 -0.0931846 
-0.0828843 -0.21583 -0.0801488 -0.0847687 -0.196566 -0.174712 -0.121335 -0.12175 -0.119734 
-0.118766 -0.117716 -0.116841 -0.116111 -0.115686 -0.11536 -0.11535 -0.115637 -0.116074 
-0.116745 -0.117544 -0.118459 -0.119422 -0.120285 -0.121036 -0.121684 -0.0969952 -0.121587 
-0.129684 -0.143555 -0.115865 -0.112227 -0.110074 -0.108851 -0.107752 -0.107281 -0.107164 
-0.107585 -0.10816 -0.108862 -0.109465 -0.109591 -0.109558 -0.110408 -0.111768 -0.112269 
-0.112581 -0.112836 -0.113099 -0.113395 -0.11371 -0.114119 -0.114756 -0.115503 -0.116387 
-0.117283 -0.118182 -0.119064 -0.119867 -0.12062 -0.121224 -0.120985 -0.121588 -0.122233 
-0.120318 -0.119576 -0.118776 -0.11807 -0.117409 -0.11684 -0.116416 -0.116149 -0.116051 
-0.116085 -0.116091 -0.116105 -0.116012 -0.115586 -0.115432 -0.115219 -0.114676 -0.113621 
-0.112573 -0.111553 -0.110598 -0.109919 -0.109576 -0.109494 -0.110063 -0.111257 -0.113917 
-0.117759 -0.124041 -0.133167 -0.146386 -0.0933666 -0.171131 -0.148011 -0.146257 -0.149913 
-0.151816 -0.152672 -0.154579 -0.156232 -0.158061 -0.15942 -0.159332 -0.159064 -0.158979 
-0.158192 -0.157046 -0.154927 -0.15292 -0.151552 -0.150425 -0.149201 -0.148211 -0.0935417 
-0.0958171 -0.17415 -0.103526 -0.108504 -0.110893 -0.112794 -0.116671 -0.123366 -0.131586 
-0.144257 -0.160379 -0.146739 -0.131367 -0.120736 -0.114391 -0.11077 -0.10871 -0.107012 
-0.102739 -0.0958854 -0.158053 -0.104491 -0.107757 -0.109345 -0.111943 -0.115409 -0.122545 
-0.1334 -0.148205 -0.0930937 -0.139737 -0.127517 -0.119563 -0.11482 -0.111938 -0.11103 
-0.108529 -0.103377 -0.0964415 -0.120581 -0.16494 -0.0984902 -0.15194 -0.100922 -0.167938 
-0.0969075 -0.158511 -0.153241 -0.101662 -0.104533 -0.119629 -0.103268 -0.118462 -0.117562 
-0.117758 -0.117435 -0.117655 -0.117965 -0.118441 -0.118953 -0.119511 -0.120095 -0.12059 
-0.121113 -0.100257 -0.132258 -0.12093 -0.126197 -0.138804 -0.118025 -0.115798 -0.114094 
-0.1127 -0.111694 -0.110689 -0.109986 -0.109249 -0.108318 -0.106906 -0.107431 -0.10916 
-0.111 -0.112345 -0.113555 -0.114504 -0.11537 -0.116173 -0.116824 -0.117582 -0.118193 
-0.118759 -0.11928 -0.119744 -0.120172 -0.146736 -0.137192 -0.11805 -0.120129 -0.119571 
-0.120948 -0.120996 -0.104847 -0.119056 -0.118549 -0.118033 -0.117582 -0.117068 -0.116555 
-0.116043 -0.115433 -0.114665 -0.113602 -0.112579 -0.110861 -0.111906 -0.111415 -0.111736 
-0.111711 -0.111829 -0.112096 -0.11242 -0.112961 -0.113735 -0.114771 -0.116476 -0.118926 
-0.122111 -0.127403 -0.159075 -0.10194 -0.143424 -0.10743 -0.104394 -0.148789 -0.150556 
-0.152274 -0.154088 -0.155555 -0.156449 -0.156783 -0.156477 -0.155685 -0.154504 -0.152639 
-0.150297 -0.147802 -0.145732 -0.14486 -0.160777 -0.149153 -0.10298 -0.120581 -0.107958 
-0.11143 -0.114644 -0.118369 -0.123303 -0.129806 -0.138093 -0.138392 -0.117428 -0.146938 
-0.129119 -0.12136 -0.11597 -0.112125 -0.109076 -0.105658 -0.141453 -0.11011 -0.112833 
-0.116105 -0.12113 -0.128118 -0.119048 -0.12025 -0.124881 -0.119688 -0.115961 -0.113157 
-0.110554 -0.107492 -0.104111 -0.158495 -0.132827 -0.150955 -0.147883 -0.101884 -0.106548 
-0.120541 -0.157752 -0.145502 -0.10188 -0.141487 -0.106262 -0.156201 -0.144057 -0.102374 
-0.136469 -0.119847 -0.119595 -0.11955 -0.119527 -0.119843 -0.119966 -0.120187 -0.120439 
-0.12068 -0.119697 -0.108957 -0.119669 -0.119243 -0.12333 -0.117505 -0.115493 -0.113185 
-0.111279 -0.109229 -0.106183 -0.113072 -0.114994 -0.116408 -0.117526 -0.118432 -0.119122 
-0.119553 -0.119799 -0.119942 -0.120017 -0.120156 -0.145429 -0.137129 -0.119573 -0.120178 
-0.119237 -0.118813 -0.118323 -0.117592 -0.116682 -0.115539 -0.114138 -0.112292 -0.109829 
-0.108603 -0.107949 -0.109673 -0.110438 -0.11232 -0.113938 -0.115673 -0.117318 -0.118901 
-0.120879 -0.123079 -0.125881 -0.129844 -0.135587 -0.109069 -0.14076 -0.107875 -0.152601 
-0.107427 -0.147503 -0.149641 -0.151652 -0.153165 -0.153843 -0.153967 -0.153431 -0.152128 
-0.150273 -0.147579 -0.144607 -0.141233 -0.119673 -0.12102 -0.120072 -0.13275 -0.111594 
-0.114925 -0.118375 -0.122589 -0.127646 -0.133571 -0.140613 -0.105739 -0.138756 -0.152744 
-0.125874 -0.120182 -0.115223 -0.11162 -0.108394 -0.129571 -0.139077 -0.111958 -0.115099 
-0.119018 -0.123884 -0.140192 -0.123347 -0.119473 -0.116164 -0.113464 -0.110693 -0.153659 
-0.143328 -0.106157 -0.110878 -0.147942 -0.13512 -0.140289 -0.119961 -0.119627 -0.126284 
-0.119617 -0.152497 -0.108925 -0.106655 -0.141199 -0.129137 -0.120467 -0.150655 -0.136464 
-0.132864 -0.128236 -0.119811 -0.120516 -0.120878 -0.117704 -0.140909 -0.122101 -0.133035 
-0.124081 -0.117445 -0.118934 -0.120224 -0.121213 -0.121419 -0.121417 -0.121175 -0.120766 
-0.120296 -0.144982 -0.121952 -0.12048 -0.120432 -0.119831 -0.120361 -0.119138 -0.117979 
-0.116457 -0.11463 -0.112393 -0.121975 -0.150635 -0.114216 -0.117092 -0.11985 -0.122477 
-0.124759 -0.127131 -0.129667 -0.1329 -0.146003 -0.127726 -0.147321 -0.14966 -0.151288 
-0.151841 -0.151687 -0.15043 -0.148574 -0.145653 -0.142067 -0.138107 -0.112196 -0.146974 
-0.132097 -0.121999 -0.134535 -0.120111 -0.117785 -0.121114 -0.125153 -0.129754 -0.114446 
-0.131372 -0.134025 -0.148849 -0.142312 -0.120596 -0.118831 -0.116162 -0.139778 -0.149671 
-0.128984 -0.13535 -0.121785 -0.121188 -0.132233 -0.121675 -0.128084 -0.131111 -0.125739 
-0.12136 -0.121522 -0.121358 -0.133032 -0.150823 -0.111004 -0.134205 -0.136853 -0.126196 
-0.120906 -0.118062 -0.114549 -0.122433 -0.127174 -0.120538 -0.125118 -0.120843 -0.147738 
-0.120056 -0.128671 -0.124279 -0.125243 -0.128968 -0.121864 -0.123891 -0.123105 -0.122101 
-0.120876 -0.146394 -0.1211 -0.12564 -0.144426 -0.128437 -0.140936 -0.12818 -0.130818 
-0.133287 -0.136392 -0.140825 -0.130285 -0.143156 -0.15042 -0.150023 -0.147801 -0.145452 
-0.141318 -0.135705 -0.121473 -0.126268 -0.123723 -0.139662 -0.144015 -0.118002 -0.127002 
-0.122284 -0.12397 -0.129848 -0.131833 -0.124339 -0.130691 -0.121442 -0.124453 -0.123167 
-0.123332 -0.149179 -0.123559 -0.121171 -0.121306 -0.121565 -0.150705 -0.122324 -0.121374 
-0.123329 -0.128176 -0.135394 -0.127674 -0.120851 -0.142076 -0.131588 -0.137218 -0.124514 
-0.137343 -0.12438 -0.12774 -0.125854 -0.122449 -0.123189 -0.134544 -0.126177 -0.124678 
-0.138284 -0.0292977 -0.0136867 -0.0196608 -0.0141429 -0.0341521 -0.0547597 -0.0358189 -0.0578426 
-0.0616261 -0.13942 -0.0607451 -0.0650068 -0.063732 -0.0628873 -0.0857623 -0.0557806 -0.019497 
-0.0260774 -0.0292862 -0.0445502 -0.0336563 -0.0375001 -0.0417884 -0.0494573 -0.0123729 0.00658334 
-0.0036478 -0.00705149 -0.00629522 -0.0385859 -0.0586776 -0.061342 -0.0600595 -0.0576379 -0.0508413 
-0.0284886 -0.0449179 -0.0358316 -0.0237871 -0.0475718 -0.0381573 -0.0415574 -0.0536108 -0.0199956 
-0.00400412 0.00535088 0.00706322 0.000389419 -0.000297836 0.00672296 0.00731764 0.00732849 0.000132102 
-0.0352485 -0.0182097 -0.0290628 -0.0416473 -0.0336444 -0.0321672 -0.0344076 -0.0656831 -0.0626295 
-0.0631222 -0.0637087 -0.0615626 -0.057127 -0.0543603 -0.0328134 -0.00784102 -0.00728706 -0.0283508 
-0.013417 -0.0204143 -0.0219289 -0.0212687 -0.0294669 -0.0499297 -0.0604586 -0.0552854 -0.047981 
-0.0552784 -0.0642094 -0.0636212 -0.0621351 -0.06766 -0.0560733 -0.0118777 0.00011682 -0.00539493 
0.00832233 0.00940611 -0.0255029 -0.0495999 -0.0378738 -0.0393513 -0.0348454 -0.0313359 -0.0277446 
-0.024154 -0.0162169 -0.0564287 -0.0622617 -0.0644168 -0.0684096 -0.0684529 -0.0544592 -0.00940125 
0.00429271 -0.00553124 -0.00566462 -0.0110585 -0.0576487 -0.0564637 -0.038734 -0.049546 -0.0456052 
-0.0435382 -0.0247636 -0.038859 -0.0592819 -0.0655633 -0.0615105 -0.0615242 -0.057626 -0.0518812 
-0.067696 -0.0688279 -0.0616435 -0.0664717 -0.0707147 -0.0599772 -0.0565827 -0.0442775 -0.0532261 
-0.0354832 -0.0454016 -0.0296511 -0.0348353 -0.0167067 -0.0124704 -0.00708883 -0.00867133 -0.00529513 
-0.0106754 -0.0559044 -0.0646559 -0.0686206 -0.0629981 -0.0609655 -0.0551883 -0.0519075 -0.0554732 
-0.0373769 -0.0353449 -0.0311115 -0.0283371 -0.0209621 -0.0389923 -0.0201475 0.0114344 0.00870156 
0.00860094 -0.0102256 -0.0107863 1.28552e-06 1.17232e-06 -0.120588 -0.0591717 8.20203e-07 7.9414e-07 
7.97603e-07 7.7005e-07 7.65091e-07 7.7576e-07 8.03233e-07 8.09535e-07 7.97919e-07 8.16902e-07 8.23481e-07 
8.19929e-07 -0.0615588 -0.0614076 8.23282e-07 7.99128e-07 7.9158e-07 -0.058266 7.78835e-07 7.93648e-07 
8.33816e-07 -0.0602095 -0.118561 1.00158e-06 7.83311e-07 7.76555e-07 7.10689e-07 7.04742e-07 7.17e-07 
7.16724e-07 7.54171e-07 7.29536e-07 7.41503e-07 7.3707e-07 7.57131e-07 7.63136e-07 7.47923e-07 7.45226e-07 
7.42646e-07 7.50785e-07 7.97392e-07 7.76129e-07 7.50344e-07 7.40687e-07 7.19396e-07 7.36168e-07 7.59258e-07 
7.25268e-07 7.12845e-07 6.99376e-07 7.50455e-07 7.63332e-07 1.17232e-06 -0.123088 -0.123186 -0.122954 
-0.122356 -0.121399 -0.12016 -0.118836 -0.117365 -0.11577 -0.114319 -0.113072 -0.11198 
-0.111193 -0.110733 -0.110523 -0.110699 -0.111149 -0.111953 -0.112989 -0.114131 -0.115557 
-0.116992 -0.118321 -0.119634 -0.120739 -0.121719 -0.122486 -0.122972 -0.123203 -0.123156 
-0.215015 -0.146195 -0.117717 -0.106973 -0.102489 -0.0987533 -0.096518 -0.0953864 -0.0947826 
-0.0947343 -0.0949699 -0.0958092 -0.0970587 -0.098896 -0.101177 -0.103519 -0.106443 -0.109733 
-0.113199 -0.116651 -0.119557 -0.12164 -0.122443 -0.121959 -0.120289 -0.118113 -0.116018 
-0.114227 -0.112655 -0.111495 -0.110819 -0.110498 -0.110645 -0.111098 -0.111928 -0.113152 
-0.114547 -0.115914 -0.117418 -0.118894 -0.120192 -0.121374 -0.122319 -0.122962 -0.123213 
-0.123152 -0.123098 -0.123189 -0.123021 -0.122558 -0.121844 -0.120872 -0.119785 -0.118598 
-0.117471 -0.116484 -0.115601 -0.11484 -0.114372 -0.114244 -0.114386 -0.114958 -0.115841 
-0.116947 -0.118361 -0.119982 -0.121619 -0.122976 -0.123914 -0.12406 -0.12336 -0.121695 
-0.119447 -0.116783 -0.113744 -0.110661 -0.107776 -0.105316 -0.10306 -0.101131 -0.0995846 
-0.0983679 -0.0977272 -0.0974476 -0.0976097 -0.0986352 -0.1004 -0.103447 -0.107934 -0.116757 
-0.14107 -0.209739 -0.0152718 -0.03281 -0.0424915 -0.0504336 -0.0420285 -0.0402321 -0.0388394 
-0.0536835 -0.0573867 -0.0365617 -0.0496073 -0.0944892 -0.067228 -0.0393442 -0.0383198 -0.0391495 
-0.0404178 -0.0416575 -0.058393 -0.0514394 -0.0499948 -0.0225906 -0.0343827 -0.0505396 -0.0336254 
-0.0428101 -0.0410494 -0.0391047 -0.0293731 -0.0274735 -0.0250684 -0.0620408 -0.0853754 -0.0949171 
-0.0603953 -0.0551374 -0.0442905 -0.0536946 -0.0397228 -0.05729 -0.0611631 -0.0593343 -0.029827 
-0.0187021 -0.123185 -0.123142 -0.122778 -0.121777 -0.120398 -0.118639 -0.116702 -0.114669 
-0.112914 -0.111698 -0.110833 -0.110568 -0.110803 -0.111604 -0.112777 -0.114362 -0.116146 
-0.117913 -0.119585 -0.121089 -0.122216 -0.122947 -0.123168 -0.123105 -0.238707 -0.138306 
-0.11108 -0.103543 -0.0990168 -0.0962587 -0.0950066 -0.0946511 -0.0951285 -0.0961558 -0.098071 
-0.10064 -0.1039 -0.107277 -0.110928 -0.115018 -0.118985 -0.121597 -0.122501 -0.121305 
-0.119034 -0.116502 -0.113922 -0.112044 -0.110952 -0.110568 -0.110681 -0.111449 -0.112741 
-0.114413 -0.116005 -0.117718 -0.119461 -0.120911 -0.122103 -0.1229 -0.123185 -0.123124 
-0.123157 -0.123193 -0.122885 -0.122171 -0.121071 -0.119718 -0.118304 -0.116954 -0.115767 
-0.114872 -0.114352 -0.114265 -0.114792 -0.115873 -0.117367 -0.119115 -0.121016 -0.122814 
-0.123954 -0.124039 -0.122555 -0.119729 -0.116076 -0.112282 -0.108472 -0.105075 -0.102211 
-0.100018 -0.0985831 -0.0977415 -0.0975093 -0.098393 -0.100724 -0.104588 -0.11315 -0.135831 
-0.227116 -0.0184594 -0.0308941 -0.034257 -0.0418644 -0.0414098 -0.0401831 -0.038444 -0.0361946 
-0.0339069 -0.0626719 -0.101952 -0.0681901 -0.0332917 -0.0279145 -0.0381675 -0.0389432 -0.0402204 
-0.0416797 -0.0405341 -0.0377044 -0.0299145 -0.0161169 -0.0200558 -0.031458 -0.0431968 -0.0422779 
-0.0405346 -0.0393481 -0.0396517 -0.0385169 -0.0371379 -0.0681714 -0.0655312 -0.0298878 -0.0316616 
-0.03361 -0.0366248 -0.0386419 -0.0391193 -0.0338459 -0.0383346 -0.0423128 -0.0246576 -0.123104 
-0.123112 -0.0287195 -0.0311687 -0.0264336 -0.0300759 -0.0255162 -0.0280739 -0.0380279 -0.0298584 
-0.0325871 -0.0346084 -0.0309012 -0.0281003 -0.0151126 -0.116608 -0.106973 -0.0148466 -0.0596793 
-0.0834283 -0.105134 -0.081288 -0.0823732 -0.0877283 -0.106685 -0.0872705 -0.0912817 -0.0704584 
-0.0849647 -0.0824802 -0.0873723 -0.0851906 -0.0935532 -0.0942986 -0.0998807 -0.0856584 -0.0736743 
-0.0753212 -0.0916438 -0.0905695 -0.086732 -0.107096 -0.0969951 -0.0881427 -0.0819298 -0.0932337 
-0.0884849 -0.084568 -0.0900036 -0.0957685 -0.0842471 -0.102861 -0.0970945 -0.0815872 -0.0856382 
-0.0953072 -0.0726467 -0.0949974 -0.0955286 -0.0907546 -0.087962 -0.114574 -0.0902318 -0.0923038 
-0.111052 -0.0751558 -0.0817353 -0.0824015 -0.0826606 -0.0820038 -0.0901284 -0.0749862 -0.0867007 
-0.0847976 -0.0881392 -0.0871214 -0.0913605 -0.0958916 -0.101436 -0.0784959 -0.0822316 -0.0842107 
-0.0919264 -0.0875758 -0.0810697 -0.0812345 -0.0914342 -0.0824392 -0.0816745 -0.0898262 -0.10224 
-0.0877756 -0.09068 -0.11109 -0.103415 -0.0949952 -0.0847813 -0.07873 -0.0904888 -0.0906129 
-0.0946669 -0.0717404 -0.0794033 -0.0800667 -0.0921589 -0.0885312 -0.105788 -0.0863326 -0.07646 
-0.0816038 -0.0857342 -0.0812142 -0.0830778 -0.0927475 -0.093794 -0.0964006 -0.0821797 -0.0852106 
-0.0775561 -0.0818606 -0.104845 -0.0856939 -0.0836499 -0.0837292 -0.069776 -0.114962 -0.0827854 
-0.0822576 -0.0884393 -0.0876325 -0.120213 -0.0962156 -0.0860104 -0.0807921 -0.0912597 -0.0891595 
-0.0816536 -0.0968925 -0.0902216 -0.0981605 -0.0962541 -0.144329 -0.0905728 -0.0920819 -0.0959438 
-0.0930497 -0.0936059 -0.0784142 -0.086514 -0.0834862 -0.0869449 -0.0934691 -0.103549 -0.0671276 
-0.0622013 -0.0779095 -0.0756642 -0.0905426 -0.0833789 -0.0821584 -0.0920267 -0.0804677 -0.0792628 
-0.106786 -0.0885481 -0.0903622 -0.0963026 -0.0936246 -0.0869692 -0.0816396 -0.0806597 -0.0821128 
-0.0813981 -0.091532 -0.0840294 -0.0814314 -0.0923157 -0.0959005 -0.0902373 -0.0925578 -0.0873828 
-0.0940128 -0.0940937 -0.0901671 -0.0789629 -0.0793954 -0.0894457 -0.0914685 -0.0914271 -0.0924854 
-0.0910752 -0.0891668 -0.0985699 -0.0893615 -0.0877009 -0.0881123 -0.0853522 -0.0818807 -0.0771055 
-0.0779981 -0.0825083 -0.0925844 -0.0856209 -0.0930231 -0.0953726 -0.0855503 -0.0866533 -0.101845 
-0.0833113 -0.0855454 -0.112206 -0.0827755 -0.0837761 -0.110967 -0.0604535 -0.0815788 -0.0814018 
-0.0838084 -0.0850826 -0.110067 -0.0909389 -0.104712 -0.0846613 -0.0878612 -0.089851 -0.0902654 
-0.105325 -0.0927867 -0.0784771 -0.0830357 -0.0925652 -0.0906111 -0.0834531 -0.0811112 -0.0864633 
-0.0896368 -0.0823442 -0.0870958 -0.0963866 -0.0882929 -0.0907312 -0.0984158 -0.127412 -0.0926549 
-0.0964204 -0.0914026 -0.0897073 -0.0921381 -0.0822519 -0.0874652 -0.0806206 -0.0961902 -0.0914115 
-0.0878356 -0.0862001 -0.0872477 -0.0857407 -0.0927255 -0.0792097 -0.082114 -0.0857758 -0.0841913 
-0.0736443 -0.1022 -0.0866858 -0.102603 -0.0875737 -0.0924856 -0.0851157 -0.0900599 -0.0897349 
-0.085673 -0.0884088 -0.0891294 -0.08452 -0.0839301 -0.100601 -0.0898461 -0.0816547 -0.0807864 
-0.0893705 -0.0835729 -0.0937703 -0.0875588 -0.104329 -0.109179 -0.098865 -0.091416 -0.0908254 
-0.0709832 -0.0834411 -0.0892155 -0.0821004 -0.0817538 -0.0897849 -0.0900378 -0.0861625 -0.0909538 
-0.0709658 -0.0870299 -0.11718 -0.0916234 -0.0915587 -0.0946124 -0.0929002 -0.102715 -0.0867425 
-0.0902159 -0.100052 -0.0854021 -0.0858599 -0.085101 -0.0857824 -0.0941236 -0.0747051 -0.0795174 
-0.078709 -0.0965298 -0.0865912 -0.0965479 -0.0905529 -0.0870865 -0.105896 -0.0881711 -0.0964014 
-0.0932095 -0.0975355 -0.0913294 -0.0934044 -0.0783647 -0.080559 -0.082084 -0.0830127 -0.0832626 
-0.0880084 -0.0860587 -0.0863132 -0.0907433 -0.0772782 -0.0662527 -0.0923364 -0.0954294 -0.0980937 
-0.0910942 -0.0945661 -0.123511 -0.0865485 -0.0874372 -0.103343 -0.0841858 -0.0848143 -0.114054 
-0.0858709 -0.0878581 -0.0757928 -0.0792886 -0.080077 -0.0844746 -0.0984626 -0.0775713 -0.085123 
-0.0836981 -0.0894541 -0.107701 -0.0838534 -0.0967018 -0.0719017 -0.0864342 -0.0865569 -0.0960769 
-0.0973832 -0.0912431 -0.116789 -0.0904389 -0.0945883 -0.0963035 -0.0901017 -0.094392 -0.0959378 
1.14355e-06 1.10924e-06 1.20632e-06 0.000136143 7.64753e-07 -0.0328659 -0.00758321 -0.0243589 -0.0137584 
-0.0190454 -0.0217338 -0.0121679 -0.0291326 -0.0307197 -0.00469188 -0.0263449 -0.014199 -0.0181651 
-0.0230119 -0.0105006 -0.0327483 -0.0315564 -0.00739635 -0.0272379 -0.0143761 -0.0187491 -0.0231587 
-0.0103532 -0.0311436 -0.00044223 7.90087e-07 7.69743e-07 -0.000947248 -0.0279197 -0.0166551 -0.0175366 
-0.0239492 -0.00620346 -0.0307683 7.52161e-07 -0.000500915 -0.0209985 -0.0186192 -0.0126736 -0.0291551 
-0.000238803 7.5974e-07 -0.0288246 -0.0133727 1.03991e-06 -0.000286181 4.51789e-05 -2.91943e-06 -8.11462e-05 
-0.123096 -0.122963 -0.123004 -0.122815 -0.122567 -0.122634 -0.122258 -0.121864 -0.122196 
-0.121493 -0.120933 -0.121494 -0.120448 -0.119817 -0.120616 -0.119237 -0.118577 -0.11957 
-0.11799 -0.117196 -0.118435 -0.116621 -0.11582 -0.117237 -0.115292 -0.114659 -0.116101 
-0.114131 -0.113544 -0.115074 -0.113126 -0.112676 -0.114138 -0.11239 -0.112055 -0.11342 
-0.111874 -0.111692 -0.112936 -0.11168 -0.111609 -0.11275 -0.111687 -0.111861 -0.112728 
-0.112039 -0.112351 -0.112928 -0.112645 -0.113128 -0.113411 -0.1135 -0.113993 -0.114091 
-0.114504 -0.115126 -0.114964 -0.115662 -0.116441 -0.115974 -0.116947 -0.117605 -0.11704 
-0.118131 -0.118797 -0.11811 -0.119349 -0.119911 -0.11917 -0.120403 -0.120912 -0.120114 
-0.121298 -0.12174 -0.120994 -0.122062 -0.122402 -0.12173 -0.122643 -0.122822 -0.122311 
-0.122969 -0.123045 -0.122683 -0.123115 -0.123081 -0.123074 -0.122965 -0.199588 -0.155031 
-0.134467 -0.128556 -0.121086 -0.141435 -0.11566 -0.112905 -0.124734 -0.109219 -0.106833 
-0.116315 -0.104714 -0.103038 -0.110929 -0.101406 -0.100775 -0.106663 -0.0995825 -0.0991629 
-0.104007 -0.0983754 -0.0981802 -0.102173 -0.0978724 -0.0978687 -0.101183 -0.0979733 -0.0980875 
-0.100968 -0.0981419 -0.0986666 -0.10085 -0.098916 -0.0997316 -0.101051 -0.100173 -0.101262 
-0.101877 -0.101978 -0.103088 -0.103119 -0.104087 -0.1052 -0.104791 -0.106226 -0.107747 
-0.106458 -0.108776 -0.110521 -0.108409 -0.111568 -0.113318 -0.110591 -0.114286 -0.115989 
-0.112748 -0.116823 -0.118032 -0.114668 -0.118552 -0.119442 -0.115979 -0.119709 -0.119777 
-0.116894 -0.11979 -0.119199 -0.117421 -0.118946 -0.117924 -0.117129 -0.117484 -0.116384 
-0.116271 -0.115886 -0.114969 -0.115241 -0.114365 -0.113585 -0.114209 -0.113206 -0.112511 
-0.113322 -0.112268 -0.111764 -0.112645 -0.111616 -0.111364 -0.112186 -0.111304 -0.111341 
-0.112041 -0.11139 -0.111562 -0.11217 -0.111842 -0.112175 -0.112498 -0.112531 -0.113031 
-0.113131 -0.11353 -0.114209 -0.114021 -0.114746 -0.115411 -0.115103 -0.115996 -0.11667 
-0.116176 -0.117274 -0.118027 -0.117279 -0.118614 -0.119301 -0.118462 -0.119826 -0.120424 
-0.119597 -0.12087 -0.12144 -0.120588 -0.121844 -0.122242 -0.121428 -0.122546 -0.122727 
-0.122104 -0.122956 -0.123003 -0.122572 -0.122977 -0.122979 -0.122922 -0.122836 -0.122672 
-0.122679 -0.12242 -0.122115 -0.122305 -0.121796 -0.121393 -0.121722 -0.121021 -0.120491 
-0.12103 -0.12 -0.119476 -0.120171 -0.118974 -0.11838 -0.119262 -0.117966 -0.117463 
-0.118357 -0.117054 -0.116573 -0.117512 -0.116191 -0.115775 -0.116719 -0.115497 -0.115137 
-0.116056 -0.115003 -0.114812 -0.115567 -0.114735 -0.114755 -0.115266 -0.114771 -0.114956 
-0.115167 -0.115076 -0.115486 -0.115361 -0.115786 -0.116154 -0.115776 -0.116632 -0.117232 
-0.11645 -0.11763 -0.118417 -0.117169 -0.118875 -0.11973 -0.118097 -0.120166 -0.120952 
-0.119084 -0.12129 -0.12188 -0.119907 -0.121997 -0.122336 -0.120381 -0.122272 -0.122112 
-0.120467 -0.121701 -0.121054 -0.120121 -0.120523 -0.11952 -0.119147 -0.118792 -0.117668 
-0.117786 -0.116489 -0.115048 -0.115907 -0.11404 -0.112522 -0.113928 -0.111538 -0.109936 
-0.111852 -0.108973 -0.107663 -0.109799 -0.106704 -0.105566 -0.107849 -0.104741 -0.103729 
-0.106228 -0.103188 -0.10231 -0.104847 -0.101896 -0.10115 -0.103845 -0.100815 -0.100453 
-0.103081 -0.100439 -0.10019 -0.102835 -0.100338 -0.100385 -0.103057 -0.100954 -0.101178 
-0.103703 -0.102039 -0.102702 -0.105168 -0.104191 -0.105272 -0.107391 -0.107571 -0.109822 
-0.111259 -0.113706 -0.11706 -0.117038 -0.12304 -0.129543 -0.126634 -0.145888 -0.228594 
-0.143864 -0.183572 -0.136535 -0.143667 -0.142427 -0.141473 -0.214641 -0.136192 -0.137097 
-0.164701 -0.137024 -0.136991 -0.161782 -0.138 -0.136091 -0.1625 -0.13278 -0.13214 
-0.162109 -0.137859 -0.135158 -0.199558 -0.13544 -0.136982 -0.165826 -0.138685 -0.140165 
-0.168733 -0.140591 -0.13988 -0.168296 -0.138232 -0.138604 -0.167877 -0.140145 -0.139809 
-0.206493 -0.140879 -0.141496 -0.170722 -0.142049 -0.142613 -0.170651 -0.142503 -0.142492 
-0.171802 -0.141044 -0.13911 -0.170533 -0.144387 -0.146334 -0.210981 -0.142295 -0.140929 
-0.214373 -0.13985 -0.139922 -0.211524 -0.141354 -0.139705 -0.166553 -0.137364 -0.136823 
-0.167443 -0.136384 -0.135304 -0.16423 -0.139208 -0.137536 -0.203089 -0.134284 -0.133776 
-0.20129 -0.135643 -0.137207 -0.162331 -0.13655 -0.138687 -0.163522 -0.142962 -0.139869 
-0.163856 -0.139156 -0.140002 -0.219591 -0.0667749 -0.0598797 -0.0916875 -0.0806285 -0.0929161 
-0.101846 -0.0975023 -0.106602 -0.101065 -0.101423 -0.109929 -0.0991573 -0.0994113 -0.111776 
-0.0988265 -0.0976128 -0.11436 -0.102951 -0.099757 -0.116411 -0.108315 -0.104917 -0.118765 
-0.11754 -0.112902 -0.12188 -0.136032 -0.132615 -0.14242 -0.187826 -0.161397 -0.208698 
-0.160567 -0.199195 -0.129878 -0.149856 -0.168411 -0.113115 -0.120707 -0.145018 -0.103136 
-0.104961 -0.130663 -0.0984794 -0.0995125 -0.119962 -0.0971564 -0.0980149 -0.114882 -0.0980571 
-0.097949 -0.11294 -0.101006 -0.0989735 -0.109878 -0.0983016 -0.101382 -0.105774 -0.082124 
-0.0947853 -0.0993879 -0.0621522 -0.0700015 -0.0888761 -0.0827614 -0.0644203 -0.0966211 -0.09026 
-0.0924365 -0.10027 -0.100242 -0.106674 -0.100239 -0.0995771 -0.113966 -0.0982882 -0.0980587 
-0.113392 -0.0973414 -0.0976278 -0.113096 -0.0970637 -0.0976031 -0.113708 -0.101595 -0.101771 
-0.118342 -0.112002 -0.111169 -0.127738 -0.138347 -0.125238 -0.140145 -0.189537 -0.156819 
-0.156597 -0.16046 -0.188028 -0.126989 -0.140957 -0.157249 -0.109799 -0.118646 -0.136818 
-0.103758 -0.107357 -0.121833 -0.0999083 -0.103356 -0.1141 -0.100301 -0.101874 -0.112581 
-0.102134 -0.0995825 -0.111756 -0.104266 -0.102952 -0.109228 -0.100889 -0.103458 -0.107732 
-0.0894817 -0.0975468 -0.10599 -0.0622967 -0.071861 -0.107064 -0.240269 -0.0855059 -0.0545041 
-0.0853869 -0.147296 -0.190637 -0.203363 -0.200801 -0.201825 -0.18783 -0.0830862 -0.0600631 
-0.0889628 -0.182492 -0.191849 -0.178516 -0.215279 -0.123023 -0.0873505 -0.0845721 -0.122065 
-0.121781 -0.121497 -0.121121 -0.12148 -0.120787 -0.120301 -0.120806 -0.119867 -0.119357 
-0.120065 -0.118913 -0.118343 -0.119287 -0.117918 -0.117303 -0.118414 -0.116928 -0.116404 
-0.117569 -0.115997 -0.115548 -0.116788 -0.115188 -0.11476 -0.11613 -0.114518 -0.114243 
-0.115546 -0.1141 -0.113913 -0.11512 -0.113785 -0.113792 -0.114877 -0.113759 -0.113763 
-0.114796 -0.113888 -0.114071 -0.11485 -0.114225 -0.114504 -0.115086 -0.114755 -0.115135 
-0.11553 -0.115476 -0.115911 -0.116101 -0.116305 -0.116826 -0.116733 -0.117191 -0.117725 
-0.117486 -0.118097 -0.118625 -0.118251 -0.119049 -0.119525 -0.119053 -0.119925 -0.120366 
-0.119788 -0.12068 -0.121075 -0.120463 -0.121354 -0.121689 -0.121109 -0.121987 -0.122207 
-0.121642 -0.12243 -0.122623 -0.122129 -0.122791 -0.108667 -0.108706 -0.172754 -0.122817 
-0.13496 -0.12869 -0.123811 -0.119871 -0.130613 -0.116614 -0.114416 -0.123147 -0.111803 
-0.109884 -0.117321 -0.108491 -0.107362 -0.113015 -0.106119 -0.105323 -0.11012 -0.104484 
-0.104283 -0.108317 -0.103769 -0.103773 -0.107056 -0.103557 -0.103406 -0.106322 -0.103372 
-0.103511 -0.10581 -0.103633 -0.104108 -0.105675 -0.104376 -0.105136 -0.106104 -0.105484 
-0.106318 -0.106725 -0.106775 -0.107559 -0.107454 -0.108079 -0.109032 -0.108144 -0.109597 
-0.110605 -0.109045 -0.111165 -0.112106 -0.110021 -0.112625 -0.113297 -0.111072 -0.113539 
-0.113892 -0.111547 -0.11404 -0.114491 -0.111517 -0.114718 -0.114803 -0.11202 -0.115093 
-0.114751 -0.112715 -0.114897 -0.11447 -0.113023 -0.114463 -0.114022 -0.113102 -0.11398 
-0.113556 -0.113197 -0.113436 -0.113058 -0.113265 -0.112995 -0.11273 -0.113143 -0.112716 
-0.112634 -0.113037 -0.112657 -0.112682 -0.113178 -0.11285 -0.112932 -0.113442 -0.113209 
-0.113428 -0.113851 -0.113755 -0.114121 -0.11437 -0.114518 -0.115019 -0.115051 -0.115435 
-0.115955 -0.115897 -0.116351 -0.116886 -0.116697 -0.117341 -0.117891 -0.117521 -0.118359 
-0.118936 -0.118366 -0.119369 -0.119893 -0.119235 -0.120265 -0.120717 -0.120031 -0.121066 
-0.121448 -0.120766 -0.121765 -0.122035 -0.121418 -0.12232 -0.122549 -0.122577 -0.121987 
-0.1648 -0.162609 -0.144681 -0.148978 -0.140634 -0.143317 -0.122531 -0.122417 -0.122192 
-0.12197 -0.122095 -0.121702 -0.121389 -0.121662 -0.121103 -0.120716 -0.12109 -0.12037 
-0.119926 -0.120447 -0.119555 -0.119104 -0.11975 -0.118742 -0.118333 -0.119082 -0.117984 
-0.117572 -0.118393 -0.117237 -0.116878 -0.117711 -0.116577 -0.116322 -0.117097 -0.116053 
-0.115894 -0.116603 -0.115754 -0.115617 -0.116232 -0.115583 -0.115557 -0.115982 -0.115574 
-0.115723 -0.115871 -0.115772 -0.116066 -0.115968 -0.11614 -0.116492 -0.116129 -0.11667 
-0.117009 -0.116347 -0.117229 -0.117654 -0.116543 -0.117868 -0.118293 -0.116861 -0.118483 
-0.118759 -0.117196 -0.11881 -0.118829 -0.117381 -0.118692 -0.118732 -0.117146 -0.118409 
-0.118123 -0.116753 -0.117777 -0.117202 -0.116298 -0.116832 -0.116098 -0.115618 -0.115504 
-0.114526 -0.114575 -0.113861 -0.112919 -0.113462 -0.112285 -0.111312 -0.112412 -0.11062 
-0.109656 -0.111184 -0.10905 -0.108201 -0.109887 -0.107675 -0.10693 -0.10884 -0.106631 
-0.106031 -0.108136 -0.105816 -0.105413 -0.107599 -0.105365 -0.105152 -0.107338 -0.105206 
-0.105342 -0.107518 -0.105697 -0.105831 -0.108025 -0.10658 -0.107026 -0.109118 -0.107981 
-0.108961 -0.110707 -0.110328 -0.11202 -0.11324 -0.114443 -0.116716 -0.117216 -0.120571 
-0.124014 -0.123336 -0.129151 -0.135464 -0.14514 -0.132267 -0.157697 -0.0856054 -0.0841635 
-0.152211 -0.152119 -0.151234 -0.15238 -0.148036 -0.152351 -0.152337 -0.150137 -0.153884 
-0.151068 -0.150947 -0.153359 -0.153799 -0.151754 -0.153946 -0.156461 -0.15164 -0.156884 
-0.157569 -0.154446 -0.157896 -0.158165 -0.156001 -0.1596 -0.156307 -0.15744 -0.15898 
-0.158571 -0.157827 -0.158794 -0.160955 -0.157727 -0.160477 -0.162018 -0.15797 -0.161832 
-0.161781 -0.160696 -0.162509 -0.160107 -0.161059 -0.163258 -0.162704 -0.160255 -0.161529 
-0.166544 -0.160335 -0.162162 -0.160436 -0.159503 -0.157453 -0.158656 -0.157552 -0.157489 
-0.156573 -0.156552 -0.156335 -0.153254 -0.154892 -0.156004 -0.154766 -0.152833 -0.154346 
-0.154973 -0.152392 -0.15163 -0.153787 -0.151333 -0.15245 -0.153342 -0.150721 -0.152858 
-0.154265 -0.150373 -0.105714 -0.100934 -0.10543 -0.173473 -0.180632 -0.09751 -0.0908928 
-0.0985617 -0.110068 -0.110312 -0.109834 -0.112298 -0.111461 -0.112353 -0.115238 -0.113855 
-0.11523 -0.1214 -0.117686 -0.120088 -0.131464 -0.125548 -0.12708 -0.151703 -0.139117 
-0.139372 -0.178225 -0.162023 -0.155427 -0.0896944 -0.0895091 -0.137651 -0.146784 -0.15567 
-0.166284 -0.163075 -0.150687 -0.117657 -0.120657 -0.112226 -0.113907 -0.117896 -0.10967 
-0.110469 -0.113269 -0.107717 -0.108213 -0.110214 -0.104141 -0.106161 -0.10734 -0.0971621 
-0.101708 -0.103579 -0.090362 -0.0936356 -0.0990114 -0.0897381 -0.0876464 -0.167729 -0.168888 
-0.105148 -0.100994 -0.0975341 -0.0918564 -0.097184 -0.101444 -0.10937 -0.109506 -0.11038 
-0.110697 -0.11048 -0.113121 -0.112005 -0.112791 -0.119006 -0.115748 -0.116457 -0.129279 
-0.122405 -0.122612 -0.143027 -0.13411 -0.132071 -0.16275 -0.148542 -0.144639 -0.169488 
-0.166062 -0.131266 -0.139417 -0.147609 -0.160862 -0.152204 -0.143321 -0.115099 -0.117613 
-0.111818 -0.113296 -0.117123 -0.110593 -0.110658 -0.113674 -0.109448 -0.109624 -0.111562 
-0.108038 -0.108436 -0.109468 -0.101532 -0.10605 -0.105943 -0.089303 -0.0999195 -0.100239 
-0.0938018 -0.122371 -0.126198 -0.131912 -0.136589 -0.1255 -0.108617 -0.107354 -0.105472 
-0.108412 -0.120791 -0.126016 -0.131563 -0.122778 -0.16432 -0.0946695 -0.089941 -0.12258 
-0.151288 -0.168244 -0.179104 -0.0948668 -0.122052 -0.1503 -0.156154 -0.173532 -0.0949243 
-0.0969486 -0.0917667 -0.097174 -0.175357 -0.0947724 -0.153069 -0.164841 -0.154502 -0.155156 
-0.122327 -0.143539 -0.120904 -0.12056 -0.12031 -0.11993 -0.12038 -0.119621 -0.119241 
-0.119858 -0.11892 -0.118505 -0.119341 -0.118234 -0.117857 -0.118757 -0.117581 -0.117245 
-0.118224 -0.116998 -0.116672 -0.117773 -0.116524 -0.116269 -0.117406 -0.116198 -0.116067 
-0.117178 -0.115996 -0.115932 -0.11704 -0.115879 -0.115824 -0.116971 -0.11579 -0.115822 
-0.116802 -0.115897 -0.116048 -0.116754 -0.116255 -0.116513 -0.117038 -0.116702 -0.117006 
-0.117438 -0.117225 -0.117545 -0.117809 -0.1178 -0.11814 -0.118205 -0.118413 -0.118783 
-0.118673 -0.119073 -0.119438 -0.119235 -0.119719 -0.120074 -0.119747 -0.120326 -0.120628 
-0.120229 -0.120843 -0.121143 -0.120711 -0.121354 -0.121634 -0.12115 -0.121869 -0.122096 
-0.122061 -0.1216 -0.10383 -0.101295 -0.114226 -0.112746 -0.0974953 -0.0990313 -0.138127 
-0.133127 -0.162907 -0.163123 -0.128193 -0.125069 -0.13498 -0.122438 -0.119492 -0.127446 
-0.117615 -0.115654 -0.122175 -0.114363 -0.112941 -0.118422 -0.111954 -0.111024 -0.115676 
-0.110198 -0.109847 -0.11376 -0.109112 -0.108854 -0.112378 -0.108402 -0.10814 -0.111198 
-0.107869 -0.107824 -0.11022 -0.107695 -0.107908 -0.109645 -0.107839 -0.1082 -0.109429 
-0.108125 -0.108451 -0.109302 -0.108429 -0.108756 -0.109116 -0.108738 -0.109169 -0.108766 
-0.109121 -0.109512 -0.108576 -0.109312 -0.109553 -0.108359 -0.109586 -0.109577 -0.107957 
-0.108413 -0.10838 -0.106283 -0.108928 -0.109413 -0.105791 -0.110061 -0.110363 -0.107013 
-0.111229 -0.111306 -0.108621 -0.111892 -0.112063 -0.110061 -0.112509 -0.112568 -0.111249 
-0.1129 -0.112902 -0.112197 -0.113156 -0.113127 -0.112932 -0.113376 -0.1134 -0.113435 
-0.113619 -0.113746 -0.113894 -0.113995 -0.114192 -0.114455 -0.114476 -0.114688 -0.115036 
-0.115005 -0.115259 -0.115587 -0.115616 -0.115984 -0.116186 -0.11636 -0.116728 -0.116832 
-0.117025 -0.117402 -0.117484 -0.117717 -0.118123 -0.118065 -0.118442 -0.118874 -0.118656 
-0.119184 -0.119597 -0.119212 -0.119872 -0.120247 -0.119775 -0.120508 -0.120842 -0.120312 
-0.121072 -0.121376 -0.120804 -0.121688 -0.121867 -0.097738 -0.095667 -0.121621 -0.121376 
-0.121596 -0.121118 -0.120858 -0.120615 -0.120275 -0.120654 -0.120007 -0.119667 -0.120147 
-0.119395 -0.119065 -0.119636 -0.118811 -0.118478 -0.119173 -0.118202 -0.117892 -0.118668 
-0.117622 -0.117354 -0.118124 -0.117106 -0.11692 -0.117621 -0.116692 -0.116557 -0.117216 
-0.116396 -0.116288 -0.116868 -0.116184 -0.116144 -0.116531 -0.116055 -0.116089 -0.116258 
-0.115967 -0.116055 -0.116047 -0.115924 -0.11602 -0.115793 -0.11591 -0.116007 -0.115495 
-0.115959 -0.116081 -0.115128 -0.116074 -0.116103 -0.114979 -0.115973 -0.115841 -0.114797 
-0.115553 -0.115352 -0.114193 -0.115022 -0.114812 -0.113421 -0.114712 -0.114552 -0.113084 
-0.114438 -0.114078 -0.113052 -0.113811 -0.113349 -0.112702 -0.113142 -0.112626 -0.112344 
-0.112419 -0.111878 -0.112056 -0.111662 -0.111075 -0.111849 -0.110847 -0.110321 -0.111459 
-0.110113 -0.109673 -0.111022 -0.109637 -0.109327 -0.110848 -0.109438 -0.109216 -0.110995 
-0.109398 -0.109408 -0.111224 -0.109622 -0.10992 -0.111651 -0.110337 -0.1108 -0.112445 
-0.111576 -0.112223 -0.113958 -0.11344 -0.114309 -0.115934 -0.116055 -0.117783 -0.118588 
-0.119588 -0.122213 -0.122439 -0.12443 -0.127947 -0.126989 -0.144301 -0.144393 -0.142861 
-0.167583 -0.17123 -0.111412 -0.109881 -0.113094 -0.146225 -0.146698 -0.141148 -0.147957 
-0.148544 -0.14461 -0.149206 -0.150655 -0.146732 -0.151546 -0.151447 -0.148126 -0.152469 
-0.152939 -0.150025 -0.153793 -0.15447 -0.151656 -0.155256 -0.155956 -0.153333 -0.156473 
-0.157595 -0.154644 -0.158205 -0.157895 -0.155562 -0.158376 -0.158559 -0.156661 -0.158949 
-0.159118 -0.157339 -0.159193 -0.159377 -0.157639 -0.159165 -0.159511 -0.157642 -0.159273 
-0.158791 -0.157076 -0.158325 -0.157548 -0.156002 -0.156826 -0.155596 -0.15486 -0.154956 
-0.154123 -0.153529 -0.153134 -0.152616 -0.151784 -0.151298 -0.151253 -0.149938 -0.150509 
-0.150143 -0.147912 -0.149564 -0.148254 -0.146347 -0.147933 -0.147501 -0.145477 -0.14498 
-0.144222 -0.108196 -0.105618 -0.105827 -0.109644 -0.113624 -0.115646 -0.117823 -0.116076 
-0.116406 -0.123425 -0.120389 -0.121024 -0.131274 -0.126687 -0.12677 -0.143037 -0.135754 
-0.134766 -0.156141 -0.148105 -0.144733 -0.114804 -0.113509 -0.0985685 -0.099079 -0.110469 
-0.112098 -0.113901 -0.117881 -0.121012 -0.11813 -0.107355 -0.10914 -0.110451 -0.103614 
-0.106024 -0.107525 -0.0995215 -0.10172 -0.10438 -0.149614 -0.148711 -0.169641 -0.164027 
-0.155258 -0.160678 -0.151395 -0.1478 -0.119118 -0.11668 -0.116882 -0.112278 -0.11107 
-0.113697 -0.125651 -0.121712 -0.121396 -0.134694 -0.128765 -0.127631 -0.145234 -0.138539 
-0.134586 -0.14795 -0.151415 -0.0991585 -0.0972352 -0.102066 -0.102986 -0.121401 -0.121108 
-0.112105 -0.11329 -0.117341 -0.119669 -0.109597 -0.111106 -0.112309 -0.1056 -0.108262 
-0.109343 -0.114342 -0.115854 -0.114892 -0.120848 -0.100193 -0.0966769 -0.102887 -0.100262 
-0.158334 -0.163737 -0.133222 -0.139117 -0.100607 -0.102044 -0.104297 -0.121136 -0.138591 
-0.0986426 -0.159989 -0.142097 -0.14153 -0.0989289 -0.100217 -0.144057 -0.111419 -0.110371 
-0.108829 -0.161892 -0.156039 -0.155485 -0.102375 -0.108 -0.105689 -0.108913 -0.141971 
-0.146026 -0.1065 -0.10434 -0.101742 -0.150497 -0.144136 -0.145809 -0.124079 -0.124285 
-0.128765 -0.128359 -0.13308 -0.100838 -0.0997521 -0.104059 -0.141892 -0.122069 -0.121897 
-0.125322 -0.103564 -0.106024 -0.100583 -0.101691 -0.0999555 -0.11795 -0.144537 -0.150732 
-0.140971 -0.137372 -0.142759 -0.140384 -0.133456 -0.103014 -0.120515 -0.120285 -0.10278 
-0.10306 -0.120102 -0.119849 -0.120236 -0.119692 -0.119456 -0.119959 -0.119304 -0.119056 
-0.119732 -0.118924 -0.118748 -0.119474 -0.118612 -0.118424 -0.119299 -0.118216 -0.118054 
-0.119051 -0.118147 -0.118128 -0.118976 -0.118117 -0.118129 -0.11909 -0.118101 -0.118066 
-0.119173 -0.117961 -0.117827 -0.119095 -0.117637 -0.117639 -0.118696 -0.117938 -0.11812 
-0.118723 -0.118261 -0.118442 -0.119157 -0.118531 -0.118674 -0.119346 -0.118732 -0.1189 
-0.119356 -0.119032 -0.119255 -0.119463 -0.119397 -0.119636 -0.119727 -0.119806 -0.120026 
-0.119985 -0.120194 -0.120417 -0.120225 -0.120553 -0.120772 -0.120478 -0.120899 -0.121123 
-0.120754 -0.121351 -0.123219 -0.120623 -0.104399 -0.105511 -0.142145 -0.139095 -0.134251 
-0.131648 -0.128852 -0.135967 -0.126767 -0.124272 -0.131044 -0.122804 -0.120996 -0.126913 
-0.119757 -0.118552 -0.123706 -0.11733 -0.116572 -0.121208 -0.115541 -0.114959 -0.119122 
-0.114122 -0.113624 -0.11736 -0.112869 -0.112428 -0.115768 -0.111805 -0.11156 -0.114271 
-0.111068 -0.110957 -0.113145 -0.110458 -0.110341 -0.112121 -0.109809 -0.109625 -0.110997 
-0.109002 -0.108823 -0.109712 -0.105321 -0.105013 -0.102461 -0.104385 -0.105018 -0.108486 
-0.109259 -0.110039 -0.110631 -0.108303 -0.111632 -0.112009 -0.110422 -0.112588 -0.112913 
-0.112091 -0.113433 -0.11374 -0.113188 -0.114211 -0.114481 -0.114225 -0.114904 -0.115213 
-0.115176 -0.115628 -0.115907 -0.116067 -0.116268 -0.116536 -0.116871 -0.11688 -0.117181 
-0.117529 -0.117477 -0.117779 -0.118106 -0.117996 -0.118239 -0.118586 -0.118431 -0.118688 
-0.118944 -0.118876 -0.11914 -0.119268 -0.119324 -0.119598 -0.119523 -0.119745 -0.120001 
-0.119804 -0.120152 -0.120417 -0.120102 -0.120751 -0.120526 -0.133874 -0.13263 -0.120348 
-0.120099 -0.120451 -0.119931 -0.119692 -0.120111 -0.119524 -0.119305 -0.11984 -0.119111 
-0.118871 -0.119522 -0.118639 -0.118395 -0.119146 -0.118164 -0.117957 -0.118707 -0.117743 
-0.117578 -0.118275 -0.117339 -0.117176 -0.11787 -0.116919 -0.116766 -0.117407 -0.116529 
-0.11639 -0.116862 -0.11611 -0.115948 -0.1163 -0.115589 -0.115407 -0.115637 -0.115014 
-0.114813 -0.114817 -0.114441 -0.114269 -0.113962 -0.113989 -0.11388 -0.113083 -0.113788 
-0.11351 -0.112698 -0.11272 -0.112271 -0.111667 -0.110943 -0.11097 -0.111531 -0.111435 
-0.111558 -0.111531 -0.110375 -0.111794 -0.111705 -0.110985 -0.111932 -0.111795 -0.111687 
-0.111951 -0.111847 -0.112194 -0.111982 -0.111904 -0.112547 -0.112124 -0.112128 -0.113048 
-0.112457 -0.112557 -0.113692 -0.113007 -0.113146 -0.114506 -0.113716 -0.11405 -0.115479 
-0.114682 -0.115312 -0.116704 -0.116264 -0.117079 -0.118416 -0.118263 -0.1193 -0.120554 
-0.120813 -0.122383 -0.123183 -0.124516 -0.126871 -0.126598 -0.129529 -0.13203 -0.131242 
-0.102562 -0.155136 -0.154839 -0.110413 -0.111987 -0.108047 -0.109287 -0.110689 -0.142108 
-0.143157 -0.144022 -0.144744 -0.141189 -0.145757 -0.14667 -0.143039 -0.147598 -0.148517 
-0.145084 -0.149476 -0.150367 -0.147128 -0.151272 -0.152078 -0.149111 -0.152916 -0.153533 
-0.150897 -0.154195 -0.154652 -0.152344 -0.155076 -0.155554 -0.153465 -0.155827 -0.156135 
-0.154301 -0.156278 -0.156355 -0.154807 -0.156372 -0.156243 -0.154973 -0.156051 -0.155714 
-0.154738 -0.155161 -0.154573 -0.153915 -0.15384 -0.153115 -0.152611 -0.152263 -0.151507 
-0.151025 -0.150466 -0.149455 -0.149135 -0.148301 -0.147216 -0.146864 -0.146129 -0.145271 
-0.1446 -0.144278 -0.143498 -0.142259 -0.142445 -0.140031 -0.13706 -0.12922 -0.125855 
-0.12541 -0.118486 -0.116514 -0.1206 -0.140842 -0.14073 -0.136971 -0.132429 -0.131398 
-0.146221 -0.140741 -0.138255 -0.122949 -0.12023 -0.113587 -0.115502 -0.113492 -0.139109 
-0.137707 -0.117471 -0.119923 -0.117049 -0.138464 -0.139555 -0.127512 -0.128681 -0.125149 
-0.124015 -0.118373 -0.116546 -0.119777 -0.121112 -0.115114 -0.113845 -0.116474 -0.134525 
-0.131523 -0.128409 -0.120717 -0.131864 -0.109633 -0.111376 -0.112621 -0.114035 -0.11287 
-0.114979 -0.116484 -0.115298 -0.103528 -0.156923 -0.157944 -0.114827 -0.113017 -0.116472 
-0.117674 -0.119455 -0.11774 -0.106848 -0.10436 -0.104472 -0.10721 -0.135993 -0.105967 
-0.103516 -0.104995 -0.105378 -0.104613 -0.113887 -0.11282 -0.111584 -0.120896 -0.12084 
-0.121091 -0.123388 -0.107842 -0.106406 -0.106476 -0.105007 -0.108317 -0.10819 -0.139042 
-0.105547 -0.106519 -0.120754 -0.12051 -0.154043 -0.15118 -0.152083 -0.136235 -0.158786 
-0.157053 -0.154787 -0.152706 -0.154764 -0.111141 -0.109114 -0.106882 -0.111519 -0.111685 
-0.111687 -0.139893 -0.13398 -0.13579 -0.129174 -0.133181 -0.137267 -0.106726 -0.107731 
-0.108415 -0.108238 -0.110011 -0.110368 -0.13437 -0.137086 -0.141199 -0.134383 -0.111676 
-0.109792 -0.109988 -0.113246 -0.136311 -0.149972 -0.145677 -0.15455 -0.149966 -0.110641 
-0.109466 -0.111763 -0.139986 -0.135503 -0.139604 -0.121755 -0.122567 -0.125893 -0.105358 
-0.106213 -0.125447 -0.128173 -0.124609 -0.108242 -0.133522 -0.104521 -0.104616 -0.107116 
-0.107099 -0.108416 -0.110261 -0.106512 -0.154194 -0.130738 -0.133781 -0.128387 -0.120101 
-0.120015 -0.120032 -0.119963 -0.120268 -0.119977 -0.119913 -0.120322 -0.120117 -0.120091 
-0.120627 -0.120171 -0.12002 -0.120983 -0.120177 -0.030454 -0.0304704 -0.119985 -0.120079 
-0.121007 -0.120297 -0.120372 -0.121177 -0.12036 -0.120234 -0.121486 -0.119844 -0.119579 
-0.121126 -0.119894 -0.033405 -0.0338586 -0.120239 -0.120359 -0.121056 -0.120297 -0.120301 
-0.121357 -0.120173 -0.120129 -0.121072 -0.119953 -0.120018 -0.120665 -0.120103 -0.12019 
-0.120508 -0.120125 -0.120239 -0.120529 -0.120309 -0.120413 -0.120435 -0.120428 -0.120536 
-0.120464 -0.120576 -0.120704 -0.120589 -0.120497 -0.109558 -0.136869 -0.136287 -0.139438 
-0.135843 -0.135034 -0.132772 -0.138959 -0.131046 -0.129061 -0.13505 -0.127701 -0.126145 
-0.131485 -0.124919 -0.123642 -0.128562 -0.12251 -0.121579 -0.126098 -0.120553 -0.119776 
-0.12401 -0.118896 -0.118077 -0.122117 -0.117081 -0.116317 -0.120064 -0.115267 -0.114641 
-0.117888 -0.113802 -0.113155 -0.115916 -0.112309 -0.111598 -0.114027 -0.120317 -0.111178 
-0.111842 -0.114328 -0.11485 -0.115512 -0.115952 -0.11555 -0.116636 -0.117054 -0.116955 
-0.117593 -0.117928 -0.118131 -0.118314 -0.118626 -0.11902 -0.118849 -0.119104 -0.119572 
-0.119274 -0.119425 -0.119951 -0.119553 -0.119652 -0.120215 -0.119711 -0.119827 -0.120317 
-0.119798 -0.119923 -0.120267 -0.119913 -0.12003 -0.120153 -0.12007 -0.120207 -0.120289 
-0.120129 -0.12041 -0.150916 -0.150992 -0.107683 -0.120318 -0.120175 -0.120125 -0.120003 
-0.120329 -0.119923 -0.119799 -0.120281 -0.119613 -0.11945 -0.120113 -0.119226 -0.119045 
-0.119785 -0.118865 -0.118688 -0.119441 -0.118491 -0.118277 -0.119064 -0.117941 -0.117669 
-0.118548 -0.117259 -0.117011 -0.117815 -0.116668 -0.116371 -0.117037 -0.115782 -0.115341 
-0.116117 -0.114638 -0.114152 -0.11477 -0.113351 -0.112846 -0.113137 -0.112101 -0.111831 
-0.111451 -0.127685 -0.110114 -0.110608 -0.111497 -0.111696 -0.110655 -0.11234 -0.112595 
-0.112175 -0.113115 -0.113435 -0.113395 -0.113995 -0.114267 -0.114577 -0.115041 -0.115313 
-0.115861 -0.115886 -0.116343 -0.117156 -0.117082 -0.117729 -0.118486 -0.118687 -0.119523 
-0.120316 -0.1205 -0.121545 -0.122443 -0.122576 -0.123721 -0.124716 -0.125063 -0.126497 
-0.127152 -0.128157 -0.130286 -0.130116 -0.132135 -0.13503 -0.138128 -0.133717 -0.138902 
-0.132065 -0.130623 -0.106374 -0.105706 -0.107495 -0.142305 -0.143461 -0.144521 -0.145684 
-0.142036 -0.146787 -0.14774 -0.144419 -0.148889 -0.149704 -0.146588 -0.15072 -0.151312 
-0.148662 -0.151973 -0.152364 -0.150309 -0.152796 -0.153245 -0.151365 -0.15345 -0.1537 
-0.152128 -0.153728 -0.15374 -0.152513 -0.153673 -0.153342 -0.152506 -0.15302 -0.152378 
-0.15193 -0.151629 -0.150913 -0.150749 -0.14989 -0.149091 -0.148931 -0.147844 -0.146808 
-0.146713 -0.14544 -0.144253 -0.144221 -0.142919 -0.141706 -0.141527 -0.140079 -0.138979 
-0.135786 -0.126774 -0.124084 -0.108045 -0.107379 -0.121937 -0.119705 -0.123188 -0.132728 
-0.129388 -0.128048 -0.133457 -0.127819 -0.12591 -0.11203 -0.112773 -0.113377 -0.112971 
-0.108567 -0.106125 -0.106716 -0.145054 -0.149809 -0.147382 -0.141334 -0.120722 -0.118868 
-0.124579 -0.122194 -0.1213 -0.123905 -0.112388 -0.114013 -0.132369 -0.130397 -0.127311 
-0.117906 -0.116136 -0.119209 -0.133924 -0.134208 -0.117492 -0.11896 -0.134739 -0.13357 
-0.130452 -0.131487 -0.130939 -0.132084 -0.152148 -0.152621 -0.110158 -0.120126 -0.109321 
-0.110066 -0.119966 -0.121665 -0.119712 -0.150113 -0.15109 -0.151182 -0.107597 -0.13318 
-0.108703 -0.109101 -0.114845 -0.115992 -0.118073 -0.115965 -0.148571 -0.149575 -0.14831 
-0.120452 -0.153079 -0.152459 -0.151423 -0.108753 -0.108659 -0.111211 -0.111073 -0.131219 
-0.134433 -0.128075 -0.129818 -0.111351 -0.141124 -0.139478 -0.139967 -0.138463 -0.114764 
-0.113322 -0.11604 -0.142514 -0.139487 -0.14608 -0.15153 -0.130507 -0.128153 -0.129338 
-0.123032 -0.124791 -0.122182 -0.113929 -0.120168 -0.120258 -0.122917 -0.119079 -0.116657 
-0.117717 -0.115487 -0.117391 -0.116019 -0.108358 -0.108542 -0.12504 -0.128011 -0.128591 
-0.127956 -0.124865 -0.126634 -0.128458 -0.110134 -0.136885 -0.108771 -0.109964 -0.1108 
-0.109347 -0.118316 -0.133635 -0.133268 -0.129981 -0.120651 -0.120792 -0.121019 -0.121205 
-0.121332 -0.121778 -0.121988 -0.122204 -0.0334671 -0.0349182 -0.1238 -0.122925 -0.122281 
-0.122151 -0.124132 -0.122537 -0.0434775 -0.0374803 -0.122962 -0.123103 -0.12404 -0.122795 
-0.122262 -0.124248 -0.044539 -0.0388005 -0.0460224 -0.0402968 -0.122722 -0.0406156 -0.0393566 
-0.122559 -0.122402 -0.123699 -0.121945 -0.121719 -0.123282 -0.121438 -0.121196 -0.122233 
-0.121215 -0.0483649 -0.0372582 -0.120809 -0.120729 -0.121462 -0.120732 -0.0379194 -0.0580401 
-0.12053 -0.120534 -0.12082 -0.120412 -0.117118 -0.118252 -0.120383 -0.118087 -0.117554 
-0.118525 -0.136468 -0.132263 -0.130781 -0.129594 -0.128392 -0.133081 -0.127256 -0.126263 
-0.130687 -0.125266 -0.124343 -0.128523 -0.120387 -0.119179 -0.120503 -0.115942 -0.116638 
-0.119061 -0.119584 -0.1201 -0.120487 -0.121024 -0.120552 -0.120794 -0.121742 -0.120878 
-0.121035 -0.121951 -0.121067 -0.121111 -0.121983 -0.120987 -0.120937 -0.121806 -0.120681 
-0.120596 -0.121348 -0.120175 -0.108431 -0.107818 -0.108119 -0.110269 -0.134889 -0.120645 
-0.120576 -0.120258 -0.120137 -0.120921 -0.119976 -0.119855 -0.120559 -0.119893 -0.119729 
-0.120482 -0.119336 -0.118981 -0.120161 -0.118299 -0.117849 -0.117543 -0.134778 -0.137889 
-0.141603 -0.11193 -0.1107 -0.132964 -0.13347 -0.130581 -0.130532 -0.112114 -0.112655 
-0.11153 -0.113752 -0.114378 -0.113687 -0.115038 -0.115696 -0.115436 -0.116814 -0.117524 
-0.117397 -0.118584 -0.119156 -0.11948 -0.119676 -0.120496 -0.121055 -0.124334 -0.125445 
-0.126514 -0.127643 -0.128425 -0.128843 -0.130198 -0.130744 -0.131555 -0.133269 -0.136462 
-0.123822 -0.121716 -0.139239 -0.140539 -0.141788 -0.143091 -0.139298 -0.14435 -0.145597 
-0.142116 -0.146911 -0.147865 -0.144671 -0.149003 -0.149546 -0.147143 -0.14996 -0.150492 
-0.148661 -0.151123 -0.151584 -0.149875 -0.151514 -0.151593 -0.150804 -0.151861 -0.15164 
-0.150982 -0.151321 -0.15077 -0.150649 -0.15039 -0.149484 -0.149683 -0.148114 -0.147149 
-0.147727 -0.145714 -0.144652 -0.144981 -0.142985 -0.141707 -0.142204 -0.139897 -0.138628 
-0.135089 -0.138938 -0.150962 -0.148717 -0.145024 -0.137801 -0.114917 -0.11612 -0.115039 
-0.113923 -0.111709 -0.110337 -0.110978 -0.113197 -0.120325 -0.120397 -0.120825 -0.120335 
-0.120479 -0.117618 -0.117272 -0.117907 -0.119001 -0.120454 -0.149439 -0.133574 -0.135756 
-0.123477 -0.122414 -0.146447 -0.147562 -0.120765 -0.120595 -0.120595 -0.120739 -0.120343 
-0.125581 -0.126481 -0.150875 -0.150301 -0.126688 -0.126776 -0.125891 -0.121077 -0.119053 
-0.116731 -0.109752 -0.128565 -0.108794 -0.124154 -0.125455 -0.126759 -0.133398 -0.136321 
-0.123083 -0.125985 -0.121967 -0.139728 -0.136645 -0.128808 -0.126092 -0.12455 -0.133693 
-0.131035 -0.129044 -0.127265 -0.129841 -0.123414 -0.129382 -0.114141 -0.121707 -0.120179 
-0.125698 -0.12855 -0.11269 -0.126982 -0.125099 -0.119586 -0.117789 -0.116353 -0.120168 
-0.128249 -0.125917 -0.129507 -0.150688 -0.150791 -0.144182 -0.146872 -0.145256 -0.140793 
-0.134074 -0.128983 -0.13187 -0.13523 -0.12991 -0.148966 -0.149446 -0.119443 -0.120989 
-0.123685 -0.144189 -0.14348 -0.142441 -0.131996 -0.130945 -0.133327 -0.147275 -0.119399 
-0.119754 -0.15037 -0.121046 -0.148759 -0.149318 -0.147983 -0.120732 -0.123041 -0.123162 
-0.123167 -0.123089 -0.122959 -0.12278 -0.124048 -0.121915 -0.121654 -0.12295 -0.127539 
-0.125367 -0.121597 -0.121836 -0.0386661 -0.0224542 -0.137464 -0.13384 -0.130956 -0.121375 
-0.121429 -0.121595 -0.121191 -0.1225 -0.124457 -0.122816 -0.122958 -0.12553 -0.139561 
-0.136643 -0.135154 -0.126363 -0.12793 -0.121596 -0.122002 -0.123246 -0.116322 -0.117114 
-0.118282 -0.120437 -0.121444 -0.142861 -0.140008 -0.145392 -0.134894 -0.133642 -0.136534 
-0.132396 -0.127669 -0.128956 -0.149466 -0.148851 -0.122014 -0.125896 -0.126063 -0.122482 
-0.124189 -0.125648 -0.122748 -0.123255 -0.124542 -0.127189 -0.12395 -0.123549 -0.124363 
-0.121653 -0.123884 -0.122951 -0.123565 -0.126206 -0.150215 -0.123604 -0.120234 -0.123542 
-0.123 -0.12167 -0.134287 -0.133094 -0.135598 -0.137782 -0.122217 -0.150269 -0.114773 
-0.130088 -0.131212 -0.134157 -0.123159 -0.113662 -0.14596 -0.14751 -0.131833 -0.12508 
-0.144004 -0.144316 -0.142949 -0.141983 -0.145251 -0.138012 -0.128016 -0.139572 -0.141068 
-0.137056 -0.142748 -0.144295 -0.14066 -0.146001 -0.147224 -0.149517 -0.150708 -0.140614 
-0.14106 -0.135095 -0.138085 -0.140921 -0.136253 -0.148334 -0.144224 -0.128336 -0.112137 
-0.125058 -0.126071 -0.128456 -0.139821 -0.124167 -0.124115 -0.137239 -0.133988 -0.122334 
-0.140406 -0.125645 -0.121425 -0.125962 -0.13923 -0.139556 -0.147557 -0.122555 -0.138054 
-0.146935 -0.144788 -0.142379 -0.121647 -0.135836 -0.139931 -0.13798 -0.135188 -0.123373 
-0.123163 -0.122842 -0.122946 -0.122187 -0.122564 -0.122419 -0.121203 -0.121788 -0.12176 
-0.119846 -0.120621 -0.120735 -0.118321 -0.119208 -0.119568 -0.116557 -0.117555 -0.118167 
-0.1149 -0.115863 -0.116699 -0.113547 -0.114226 -0.115343 -0.112597 -0.113095 -0.114297 
-0.112005 -0.11231 -0.113498 -0.111834 -0.111818 -0.11312 -0.112258 -0.111996 -0.113123 
-0.113025 -0.112537 -0.113468 -0.114098 -0.113459 -0.11424 -0.115548 -0.114708 -0.115216 
-0.117074 -0.11619 -0.116455 -0.118564 -0.117723 -0.117748 -0.120025 -0.119241 -0.119065 
-0.121235 -0.120582 -0.12026 -0.122145 -0.12168 -0.121308 -0.122759 -0.122474 -0.122064 
-0.122994 -0.122928 -0.122622 -0.123115 -0.163429 -0.138263 -0.16978 -0.118936 -0.126593 
-0.142013 -0.10905 -0.112005 -0.121466 -0.103415 -0.105368 -0.112333 -0.100636 -0.101584 
-0.107225 -0.0992133 -0.099639 -0.104219 -0.0987257 -0.0987107 -0.102896 -0.0987141 -0.0984214 
-0.102129 -0.0996197 -0.0988656 -0.101883 -0.101079 -0.0999885 -0.102309 -0.103248 -0.101793 
-0.103439 -0.10569 -0.104088 -0.104994 -0.108463 -0.10679 -0.106822 -0.111441 -0.109574 
-0.108955 -0.114623 -0.112595 -0.111145 -0.117138 -0.115548 -0.113312 -0.118954 -0.11815 
-0.115012 -0.119153 -0.119241 -0.116182 -0.118215 -0.11907 -0.116577 -0.116651 -0.117841 
-0.116027 -0.114953 -0.116134 -0.115034 -0.113317 -0.114424 -0.114026 -0.11218 -0.112889 
-0.113185 -0.111612 -0.111972 -0.112539 -0.111469 -0.111546 -0.112347 -0.111907 -0.111677 
-0.112486 -0.112763 -0.112269 -0.113013 -0.114032 -0.113273 -0.11386 -0.1154 -0.114614 
-0.115016 -0.116792 -0.11603 -0.116219 -0.118354 -0.117463 -0.117468 -0.119776 -0.118975 
-0.118748 -0.120962 -0.120342 -0.119938 -0.121946 -0.121428 -0.120973 -0.122649 -0.122341 
-0.12181 -0.16015 -0.122907 -0.122976 -0.122399 -0.122668 -0.122525 -0.121653 -0.122069 
-0.122 -0.120581 -0.121211 -0.121235 -0.119453 -0.120089 -0.120311 -0.118165 -0.118885 
-0.119286 -0.117095 -0.117678 -0.118243 -0.116058 -0.116611 -0.117279 -0.11533 -0.115619 
-0.116395 -0.114918 -0.115044 -0.115787 -0.114966 -0.114873 -0.11544 -0.115445 -0.115044 
-0.115425 -0.116344 -0.115661 -0.115774 -0.117502 -0.116666 -0.116394 -0.118843 -0.117974 
-0.117191 -0.120161 -0.119253 -0.118069 -0.121295 -0.120576 -0.118843 -0.121917 -0.121675 
-0.11956 -0.121408 -0.121707 -0.1197 -0.119882 -0.120962 -0.119149 -0.117398 -0.119012 
-0.117881 -0.114391 -0.116212 -0.11569 -0.111339 -0.113207 -0.113391 -0.108328 -0.110142 
-0.111056 -0.105747 -0.107196 -0.108773 -0.103619 -0.104854 -0.106869 -0.102144 -0.103061 
-0.105458 -0.10125 -0.101686 -0.104548 -0.100975 -0.101129 -0.104248 -0.10182 -0.101598 
-0.104779 -0.103649 -0.102785 -0.106395 -0.107076 -0.105262 -0.109242 -0.113771 -0.110633 
-0.114346 -0.12525 -0.118781 -0.122718 -0.15084 -0.133536 -0.134715 -0.173331 -0.146784 
-0.169138 -0.145038 -0.148696 -0.170435 -0.139739 -0.141046 -0.171433 -0.139486 -0.13948 
-0.170437 -0.14085 -0.137115 -0.168756 -0.138377 -0.135601 -0.163913 -0.139681 -0.138796 
-0.169289 -0.141617 -0.142975 -0.170232 -0.146122 -0.143492 -0.173599 -0.143463 -0.140409 
-0.171329 -0.145245 -0.145127 -0.174232 -0.145504 -0.145648 -0.177525 -0.149711 -0.145557 
-0.177683 -0.147559 -0.145678 -0.167334 -0.143102 -0.148148 -0.161046 -0.145312 -0.150066 
-0.164607 -0.14141 -0.142564 -0.173107 -0.142841 -0.141352 -0.171749 -0.139217 -0.138456 
-0.161387 -0.137932 -0.142882 -0.159277 -0.139369 -0.139462 -0.169181 -0.149985 -0.145511 
-0.173557 -0.0599316 -0.0715334 -0.0858297 -0.0919955 -0.0934463 -0.096508 -0.0989422 -0.108747 
-0.0991728 -0.0985058 -0.128286 -0.0983863 -0.0968699 -0.114093 -0.0982296 -0.0971589 -0.11434 
-0.0998084 -0.0991027 -0.115542 -0.104572 -0.105988 -0.136379 -0.114726 -0.117234 -0.148898 
-0.132922 -0.142689 -0.145849 -0.162549 -0.197209 -0.169677 -0.211616 -0.164899 -0.143303 
-0.130741 -0.215079 -0.114804 -0.113775 -0.174189 -0.103148 -0.104505 -0.129176 -0.0981901 
-0.0996825 -0.119105 -0.0959149 -0.0974534 -0.114468 -0.0962519 -0.0977724 -0.111418 -0.097945 
-0.0973376 -0.11126 -0.0970295 -0.0968673 -0.127897 -0.0921819 -0.0836503 -0.122676 -0.0708074 
-0.0619759 -0.105004 -0.0619609 -0.0751994 -0.0885849 -0.0977873 -0.111433 -0.101023 -0.100282 
-0.108472 -0.100714 -0.098977 -0.112032 -0.0996936 -0.0978395 -0.112292 -0.0991906 -0.0985383 
-0.112333 -0.100638 -0.101081 -0.114484 -0.108007 -0.110705 -0.120599 -0.127778 -0.129222 
-0.137029 -0.148427 -0.203252 -0.197017 -0.201323 -0.152016 -0.136308 -0.125819 -0.202078 
-0.111873 -0.109161 -0.166738 -0.100179 -0.102496 -0.145793 -0.0995924 -0.0982717 -0.134942 
-0.0959855 -0.0981205 -0.129854 -0.0990491 -0.0985229 -0.111978 -0.100129 -0.0997675 -0.131295 
-0.101257 -0.101843 -0.131893 -0.0933216 -0.0880496 -0.103797 -0.0798218 -0.0639552 -0.0860513 
-0.122902 -0.123018 -0.12281 -0.147236 -0.153859 -0.201297 -0.202268 -0.0604116 -0.0799675 
-0.144618 -0.0827598 -0.0626948 -0.23911 -0.0807451 -0.0838021 -0.21427 -0.189378 -0.188948 
-0.188088 -0.176588 -0.122401 -0.166702 -0.121301 -0.121721 -0.121926 -0.122181 -0.121959 
-0.121551 -0.119345 -0.119939 -0.118083 -0.118829 -0.119274 -0.116893 -0.117573 -0.115795 
-0.116415 -0.117258 -0.114997 -0.115429 -0.114533 -0.114807 -0.115883 -0.114186 -0.114329 
-0.115497 -0.114293 -0.114234 -0.115326 -0.114763 -0.114493 -0.115462 -0.115373 -0.114962 
-0.11584 -0.116275 -0.115709 -0.116407 -0.117332 -0.116706 -0.117127 -0.118425 -0.117784 
-0.117987 -0.119554 -0.118926 -0.118956 -0.120545 -0.120002 -0.119854 -0.121353 -0.120905 
-0.120687 -0.122014 -0.121704 -0.12139 -0.0899145 -0.0972543 -0.115172 -0.119111 -0.123192 
-0.129499 -0.125536 -0.135658 -0.150836 -0.137039 -0.110576 -0.112935 -0.118484 -0.108021 
-0.109069 -0.11389 -0.106298 -0.106781 -0.111029 -0.105439 -0.105582 -0.109461 -0.104864 
-0.104821 -0.108289 -0.104973 -0.104752 -0.107459 -0.10567 -0.104983 -0.107145 -0.106703 
-0.105861 -0.107386 -0.10802 -0.107 -0.107879 -0.109447 -0.108454 -0.108495 -0.110783 
-0.109841 -0.109122 -0.111662 -0.111024 -0.109605 -0.112574 -0.111873 -0.109643 -0.113467 
-0.112971 -0.110016 -0.113994 -0.114092 -0.111135 -0.113911 -0.114307 -0.112058 -0.113667 
-0.113997 -0.112371 -0.113223 -0.113693 -0.112667 -0.112974 -0.113328 -0.112986 -0.112945 
-0.11307 -0.113235 -0.113095 -0.113019 -0.113539 -0.113391 -0.11324 -0.113906 -0.114066 
-0.113764 -0.114414 -0.114993 -0.114493 -0.1151 -0.115985 -0.115423 -0.115917 -0.117032 
-0.116446 -0.116848 -0.118148 -0.117511 -0.117745 -0.119212 -0.118613 -0.118616 -0.120182 
-0.11962 -0.119461 -0.121007 -0.120556 -0.120244 -0.121635 -0.121334 -0.120932 -0.121482 
-0.150763 -0.120898 -0.12131 -0.122768 -0.121629 -0.121938 -0.121316 -0.122232 -0.122485 
-0.122525 -0.121916 -0.120087 -0.120561 -0.120642 -0.119162 -0.119693 -0.119938 -0.118271 
-0.118733 -0.119189 -0.117453 -0.117906 -0.118431 -0.116754 -0.117094 -0.117736 -0.116244 
-0.116417 -0.11711 -0.115894 -0.115982 -0.116619 -0.115832 -0.115798 -0.116266 -0.116039 
-0.115803 -0.116071 -0.116403 -0.116051 -0.116075 -0.116866 -0.116436 -0.116105 -0.117263 
-0.11695 -0.116071 -0.117557 -0.117279 -0.116023 -0.117548 -0.117468 -0.115873 -0.117477 
-0.117624 -0.115544 -0.116979 -0.117274 -0.115364 -0.11576 -0.116582 -0.115025 -0.114153 
-0.115208 -0.114127 -0.112416 -0.113517 -0.113054 -0.110758 -0.111835 -0.112072 -0.109289 
-0.110188 -0.11107 -0.107977 -0.108832 -0.110208 -0.107277 -0.107813 -0.10972 -0.106978 
-0.107189 -0.109496 -0.107315 -0.1071 -0.109737 -0.108346 -0.107737 -0.110558 -0.110779 
-0.109737 -0.112583 -0.11505 -0.11247 -0.115738 -0.121028 -0.117468 -0.120682 -0.130713 
-0.125756 -0.128637 -0.147045 -0.138423 -0.138953 -0.0898183 -0.0884694 -0.180654 -0.183726 
-0.153203 -0.153528 -0.15225 -0.152863 -0.147689 -0.151713 -0.153517 -0.153334 -0.154333 
-0.149491 -0.153959 -0.153552 -0.151404 -0.156756 -0.155618 -0.152743 -0.158114 -0.156773 
-0.154367 -0.159571 -0.159095 -0.155999 -0.160298 -0.159527 -0.157679 -0.161661 -0.161078 
-0.158738 -0.163063 -0.16249 -0.159885 -0.162385 -0.163083 -0.159934 -0.159445 -0.160388 
-0.159397 -0.158816 -0.158568 -0.158487 -0.157655 -0.158591 -0.157606 -0.158042 -0.15866 
-0.156372 -0.156201 -0.157553 -0.154696 -0.15241 -0.153852 -0.152603 -0.151931 -0.152309 
-0.151043 -0.154784 -0.153071 -0.150118 -0.155809 -0.153712 -0.149174 -0.14644 -0.0872262 
-0.0869443 -0.0952587 -0.0882106 -0.0902456 -0.185821 -0.184966 -0.102214 -0.106524 -0.100507 
-0.109223 -0.110242 -0.106212 -0.11131 -0.111297 -0.109733 -0.112312 -0.112845 -0.111682 
-0.11448 -0.115562 -0.114704 -0.119234 -0.122489 -0.119896 -0.126433 -0.133006 -0.127511 
-0.1384 -0.148753 -0.137489 -0.157361 -0.171101 -0.166647 -0.151971 -0.152894 -0.14101 
-0.132271 -0.125867 -0.139343 -0.121043 -0.117005 -0.126195 -0.114433 -0.111986 -0.118034 
-0.110362 -0.109781 -0.112548 -0.108697 -0.109499 -0.109494 -0.108196 -0.108296 -0.10754 
-0.104772 -0.101673 -0.104651 -0.0962166 -0.0890048 -0.0953054 -0.0994495 -0.168346 -0.172085 
-0.10458 -0.106175 -0.108179 -0.108487 -0.105739 -0.108962 -0.109434 -0.108393 -0.110483 
-0.111069 -0.111428 -0.112806 -0.114659 -0.113825 -0.118156 -0.123375 -0.11893 -0.128968 
-0.139282 -0.128088 -0.148929 -0.162623 -0.153496 -0.140789 -0.0873581 -0.0868794 -0.144007 
-0.135941 -0.128709 -0.123578 -0.133839 -0.118699 -0.117 -0.123558 -0.114034 -0.112673 
-0.117178 -0.110488 -0.111957 -0.113286 -0.111021 -0.112483 -0.111189 -0.110083 -0.111311 
-0.109759 -0.108553 -0.0984667 -0.105783 -0.0942192 -0.0893604 -0.100266 -0.120378 -0.120933 
-0.120961 -0.180969 -0.165436 -0.156644 -0.0926269 -0.0995687 -0.101295 -0.169307 -0.151486 
-0.145868 -0.118235 -0.116469 -0.122317 -0.121967 -0.0980555 -0.0931804 -0.096543 -0.146739 
-0.0970874 -0.168257 -0.180891 -0.0891763 -0.0948605 -0.172425 -0.0944361 -0.120151 -0.168787 
-0.168746 -0.164639 -0.157695 -0.0950114 -0.163422 -0.166813 -0.151988 -0.0978279 -0.0990708 
-0.100522 -0.102368 -0.119222 -0.119663 -0.0985681 -0.100424 -0.117703 -0.118064 -0.116498 
-0.116612 -0.116727 -0.116927 -0.117629 -0.11652 -0.116428 -0.116853 -0.116651 -0.11751 
-0.117336 -0.117028 -0.117819 -0.117975 -0.117638 -0.118184 -0.118682 -0.118287 -0.118675 
-0.119435 -0.119005 -0.119246 -0.120176 -0.119773 -0.119819 -0.120812 -0.120432 -0.120339 
-0.12139 -0.121066 -0.12087 -0.0982594 -0.0965673 -0.126916 -0.130884 -0.121145 -0.121326 
-0.121087 -0.120851 -0.123966 -0.129315 -0.13453 -0.141418 -0.143567 -0.135248 -0.113966 
-0.115301 -0.112365 -0.112963 -0.116858 -0.110948 -0.111439 -0.114941 -0.10996 -0.110215 
-0.113368 -0.109358 -0.109557 -0.112163 -0.109099 -0.108953 -0.111182 -0.109026 -0.108779 
-0.110347 -0.109044 -0.108719 -0.109648 -0.108847 -0.108666 -0.108811 -0.10808 -0.108211 
-0.107563 -0.107 -0.107171 -0.105862 -0.105571 -0.109869 -0.109634 -0.110984 -0.110631 
-0.10815 -0.111955 -0.111788 -0.110037 -0.112733 -0.112577 -0.111683 -0.113494 -0.113287 
-0.112988 -0.114139 -0.113935 -0.114018 -0.114762 -0.11453 -0.114933 -0.11545 -0.115142 
-0.11577 -0.116141 -0.115823 -0.116487 -0.116966 -0.11658 -0.117183 -0.117706 -0.117308 
-0.117905 -0.118438 -0.118035 -0.118495 -0.11916 -0.118749 -0.119044 -0.119803 -0.119421 
-0.1195 -0.1204 -0.120027 -0.119946 -0.149494 -0.148583 -0.142808 -0.141712 -0.117088 
-0.117422 -0.118232 -0.117904 -0.119877 -0.120218 -0.119185 -0.11956 -0.119845 -0.116455 
-0.118647 -0.123407 -0.119405 -0.121004 -0.121286 -0.121639 -0.101965 -0.10446 -0.104074 
-0.118568 -0.118894 -0.119328 -0.117987 -0.118291 -0.118814 -0.117463 -0.117705 -0.118295 
-0.11702 -0.117197 -0.117798 -0.116605 -0.116731 -0.117317 -0.116288 -0.116371 -0.116805 
-0.116041 -0.116058 -0.116281 -0.115729 -0.115764 -0.115756 -0.115355 -0.115398 -0.115078 
-0.114747 -0.114932 -0.114115 -0.113962 -0.114353 -0.113029 -0.113124 -0.113307 -0.111744 
-0.113561 -0.113661 -0.111408 -0.113106 -0.11324 -0.11168 -0.11277 -0.113146 -0.111638 
-0.112246 -0.112625 -0.111656 -0.111731 -0.11216 -0.111684 -0.111379 -0.111786 -0.111983 
-0.11127 -0.11149 -0.112213 -0.111283 -0.111399 -0.112645 -0.111615 -0.111663 -0.113335 
-0.11254 -0.112091 -0.114216 -0.113857 -0.113234 -0.115573 -0.116383 -0.115111 -0.117676 
-0.119992 -0.118021 -0.120536 -0.126063 -0.122398 -0.124687 -0.164505 -0.164467 -0.0995245 
-0.0977189 -0.101763 -0.146954 -0.145924 -0.140189 -0.145093 -0.106168 -0.108387 -0.106091 
-0.101048 -0.104306 -0.102909 -0.151219 -0.150444 -0.147784 -0.152908 -0.152017 -0.149688 
-0.154546 -0.153772 -0.151464 -0.156312 -0.1555 -0.153208 -0.157506 -0.157087 -0.154832 
-0.158206 -0.158014 -0.156036 -0.158284 -0.158296 -0.156655 -0.157839 -0.158104 -0.156656 
-0.157116 -0.157428 -0.156083 -0.155853 -0.156434 -0.155119 -0.15406 -0.154925 -0.153565 
-0.151855 -0.152988 -0.151487 -0.149738 -0.150689 -0.149123 -0.148249 -0.14877 -0.146823 
-0.147184 -0.147826 -0.145253 -0.163836 -0.16814 -0.15687 -0.148874 -0.098281 -0.0998008 
-0.120467 -0.120778 -0.120789 -0.120348 -0.10603 -0.108398 -0.106002 -0.110081 -0.111735 
-0.109677 -0.11319 -0.114558 -0.113032 -0.116233 -0.117927 -0.116553 -0.120489 -0.123585 
-0.12069 -0.126923 -0.13095 -0.1265 -0.135237 -0.141228 -0.133866 -0.142408 -0.135218 
-0.144058 -0.116378 -0.116385 -0.117481 -0.152515 -0.152335 -0.130523 -0.125105 -0.13404 
-0.121526 -0.118256 -0.125271 -0.115909 -0.113789 -0.118582 -0.112124 -0.110751 -0.113969 
-0.10947 -0.108178 -0.110587 -0.106619 -0.104237 -0.107182 -0.145498 -0.140927 -0.109316 
-0.110386 -0.108712 -0.111595 -0.112598 -0.111476 -0.114203 -0.116035 -0.114503 -0.118536 
-0.122116 -0.118494 -0.125568 -0.131114 -0.124489 -0.118396 -0.118897 -0.119363 -0.118734 
-0.120023 -0.12041 -0.119934 -0.120759 -0.126169 -0.122181 -0.119829 -0.117367 -0.122309 
-0.115775 -0.114206 -0.117786 -0.11301 -0.112198 -0.114518 -0.111094 -0.109703 -0.111746 
-0.108348 -0.105749 -0.108872 -0.10385 -0.100694 -0.102469 -0.166606 -0.160768 -0.135642 
-0.130213 -0.129101 -0.137451 -0.155665 -0.161281 -0.153687 -0.139907 -0.135802 -0.120587 
-0.117405 -0.142956 -0.14632 -0.154288 -0.10158 -0.15365 -0.0989672 -0.0988444 -0.103175 
-0.121048 -0.121365 -0.105849 -0.109152 -0.108464 -0.120883 -0.120586 -0.120355 -0.120725 
-0.158829 -0.162705 -0.130904 -0.132087 -0.14617 -0.152045 -0.148064 -0.101293 -0.0975786 
-0.159556 -0.159469 -0.14496 -0.145499 -0.143141 -0.140615 -0.102835 -0.104633 -0.101948 
-0.158888 -0.163146 -0.157866 -0.151774 -0.151496 -0.145182 -0.104749 -0.105234 -0.102359 
-0.0994358 -0.104009 -0.132473 -0.135194 -0.145987 -0.142282 -0.147851 -0.105801 -0.103917 
-0.119461 -0.119677 -0.118485 -0.118515 -0.118739 -0.118625 -0.118569 -0.118526 -0.119528 
-0.119531 -0.119378 -0.119191 -0.119706 -0.119486 -0.119885 -0.12013 -0.119863 -0.120098 
-0.120507 -0.120285 -0.120302 -0.120896 -0.120633 -0.120553 -0.120843 -0.104439 -0.106414 
-0.119051 -0.118848 -0.119629 -0.11976 -0.10676 -0.108386 -0.118659 -0.118695 -0.115934 
-0.11667 -0.119565 -0.120708 -0.114561 -0.115181 -0.118359 -0.113021 -0.113614 -0.116446 
-0.111502 -0.111941 -0.114352 -0.110175 -0.110655 -0.11225 -0.108761 -0.109221 -0.110342 
-0.106543 -0.107287 -0.107831 -0.104 -0.113361 -0.112656 -0.114769 -0.114241 -0.114057 
-0.115899 -0.115454 -0.11572 -0.116835 -0.116446 -0.116966 -0.117607 -0.117311 -0.118 
-0.118334 -0.118003 -0.118763 -0.118825 -0.118601 -0.119331 -0.11923 -0.119018 -0.119704 
-0.119592 -0.119373 -0.119901 -0.119877 -0.119671 -0.119974 -0.120165 -0.119985 -0.120083 
-0.148038 -0.147032 -0.131742 -0.134909 -0.119072 -0.119284 -0.119723 -0.119895 -0.120137 
-0.120038 -0.118647 -0.118866 -0.119422 -0.118214 -0.118411 -0.119035 -0.117698 -0.117944 
-0.118561 -0.117069 -0.117328 -0.117961 -0.116348 -0.116629 -0.117139 -0.115433 -0.115815 
-0.116104 -0.114359 -0.114797 -0.114865 -0.112949 -0.113503 -0.113284 -0.111215 -0.111779 
-0.111004 -0.109747 -0.110625 -0.109152 -0.109101 -0.108423 -0.108964 -0.109928 -0.109593 
-0.110839 -0.110634 -0.10888 -0.111212 -0.11102 -0.109958 -0.11227 -0.112087 -0.111378 
-0.113233 -0.112979 -0.113143 -0.114345 -0.114057 -0.114802 -0.115552 -0.115185 -0.11642 
-0.116846 -0.116328 -0.118108 -0.118781 -0.117787 -0.119826 -0.121028 -0.119707 -0.121919 
-0.123992 -0.12239 -0.124507 -0.12868 -0.125917 -0.127915 -0.136239 -0.131455 -0.132668 
-0.13968 -0.108227 -0.106578 -0.140203 -0.14593 -0.141314 -0.10856 -0.105674 -0.106221 
-0.109483 -0.156664 -0.15576 -0.104964 -0.105793 -0.108078 -0.149996 -0.148952 -0.146489 
-0.151844 -0.151007 -0.148613 -0.153604 -0.152896 -0.150647 -0.154837 -0.154359 -0.152441 
-0.155328 -0.155083 -0.153522 -0.155187 -0.15536 -0.15393 -0.154507 -0.154977 -0.153705 
-0.153319 -0.153975 -0.15281 -0.151469 -0.152378 -0.151229 -0.14891 -0.150106 -0.148925 
-0.146095 -0.147526 -0.146135 -0.143475 -0.144548 -0.14301 -0.107089 -0.118573 -0.118598 
-0.11965 -0.117573 -0.118388 -0.122182 -0.120138 -0.119869 -0.120139 -0.135337 -0.13093 
-0.109804 -0.111623 -0.110266 -0.113201 -0.114835 -0.113196 -0.116489 -0.118416 -0.116664 
-0.120544 -0.122968 -0.12038 -0.125605 -0.128762 -0.125118 -0.131738 -0.135819 -0.130557 
-0.14488 -0.139867 -0.136841 -0.103099 -0.104386 -0.141295 -0.142852 -0.146378 -0.155012 
-0.155654 -0.127397 -0.123598 -0.12943 -0.120842 -0.118116 -0.12306 -0.115716 -0.11368 
-0.117641 -0.112067 -0.110291 -0.113276 -0.108899 -0.107008 -0.110018 -0.128775 -0.132708 
-0.143222 -0.142471 -0.138771 -0.110964 -0.112362 -0.113921 -0.115687 -0.113598 -0.11757 
-0.120098 -0.117044 -0.122477 -0.125998 -0.126837 -0.1214 -0.143426 -0.144867 -0.124144 
-0.121523 -0.119708 -0.117683 -0.121434 -0.116225 -0.114642 -0.11777 -0.113479 -0.112008 
-0.114767 -0.110869 -0.109148 -0.109835 -0.112067 -0.156012 -0.157328 -0.153177 -0.103886 
-0.146094 -0.144937 -0.144439 -0.105066 -0.103343 -0.106093 -0.107632 -0.111599 -0.110951 
-0.109508 -0.112004 -0.153325 -0.14844 -0.144181 -0.135983 -0.139776 -0.132149 -0.119632 
-0.136991 -0.13916 -0.144029 -0.119748 -0.120038 -0.119542 -0.120639 -0.102382 -0.119618 
-0.118716 -0.11882 -0.136975 -0.124673 -0.122075 -0.12379 -0.107091 -0.120431 -0.120195 
-0.12033 -0.138852 -0.118898 -0.119032 -0.119594 -0.136683 -0.104205 -0.106874 -0.154325 
-0.153416 -0.150134 -0.152823 -0.108329 -0.107266 -0.108081 -0.109729 -0.105241 -0.104387 
-0.104214 -0.144043 -0.142259 -0.138386 -0.142291 -0.107001 -0.105921 -0.141469 -0.139303 
-0.141112 -0.107109 -0.124909 -0.127673 -0.133217 -0.127679 -0.120322 -0.120328 -0.120519 
-0.15342 -0.154824 -0.151831 -0.109617 -0.107186 -0.140546 -0.110376 -0.141008 -0.138272 
-0.137593 -0.136855 -0.137064 -0.12668 -0.125896 -0.130486 -0.119175 -0.119385 -0.119862 
-0.119715 -0.133364 -0.12047 -0.120367 -0.120416 -0.120399 -0.120562 -0.120474 -0.11533 
-0.116633 -0.144515 -0.140698 -0.118736 -0.119864 -0.119915 -0.135945 -0.136139 -0.120134 
-0.120792 -0.121667 -0.123136 -0.116893 -0.116185 -0.118209 -0.117646 -0.118237 -0.119308 
-0.118877 -0.119588 -0.120158 -0.119841 -0.1207 -0.120478 -0.120296 -0.121351 -0.120539 
-0.12053 -0.121461 -0.12051 -0.120516 -0.121332 -0.120368 -0.120375 -0.120992 -0.120206 
-0.120165 -0.120517 -0.120159 -0.147266 -0.146283 -0.122628 -0.120705 -0.120047 -0.120129 
-0.120149 -0.120272 -0.120479 -0.119073 -0.119314 -0.11982 -0.119924 -0.120433 -0.118343 
-0.118725 -0.119479 -0.117327 -0.117787 -0.118579 -0.115977 -0.116573 -0.11722 -0.114242 
-0.115137 -0.115581 -0.112298 -0.113279 -0.113501 -0.107802 -0.120861 -0.120785 -0.151837 
-0.151944 -0.114102 -0.113268 -0.116402 -0.115461 -0.115619 -0.118607 -0.117788 -0.118494 
-0.120746 -0.119869 -0.121118 -0.122893 -0.121827 -0.123593 -0.125113 -0.12398 -0.125937 
-0.127791 -0.126349 -0.128422 -0.131409 -0.129343 -0.13133 -0.14932 -0.147085 -0.14342 
-0.130071 -0.126827 -0.149485 -0.148527 -0.146172 -0.151466 -0.150632 -0.148523 -0.152602 
-0.152083 -0.150525 -0.152933 -0.152776 -0.151603 -0.152488 -0.15283 -0.151796 -0.151139 
-0.151991 -0.151134 -0.149403 -0.1504 -0.149548 -0.146638 -0.147973 -0.147131 -0.143319 
-0.14479 -0.14383 -0.13944 -0.141432 -0.140267 -0.110651 -0.111886 -0.147347 -0.151674 
-0.1436 -0.133602 -0.135564 -0.132466 -0.120832 -0.120844 -0.121977 -0.104292 -0.137555 
-0.133823 -0.131196 -0.137645 -0.119475 -0.119638 -0.120261 -0.119995 -0.11636 -0.118163 
-0.119784 -0.121826 -0.119393 -0.123914 -0.12638 -0.123092 -0.128724 -0.131635 -0.127481 
-0.107179 -0.105977 -0.114902 -0.113209 -0.135932 -0.13213 -0.137662 -0.137316 -0.132475 
-0.116244 -0.118243 -0.151181 -0.150826 -0.149767 -0.14493 -0.143796 -0.143725 -0.120384 
-0.12029 -0.120746 -0.120558 -0.119191 -0.117422 -0.120421 -0.116282 -0.114765 -0.117475 
-0.142614 -0.141578 -0.141093 -0.150671 -0.151256 -0.130474 -0.12952 -0.131949 -0.130652 
-0.108744 -0.107943 -0.134432 -0.137656 -0.132592 -0.12016 -0.120672 -0.120694 -0.121847 
-0.121041 -0.120485 -0.120497 -0.120501 -0.132526 -0.135662 -0.120741 -0.120651 -0.121799 
-0.115063 -0.124536 -0.125763 -0.127152 -0.128742 -0.129575 -0.112689 -0.113867 -0.110282 
-0.111539 -0.124926 -0.122481 -0.123384 -0.108757 -0.108915 -0.120494 -0.120489 -0.121253 
-0.114066 -0.121428 -0.120516 -0.120575 -0.120525 -0.120446 -0.121484 -0.136571 -0.133484 
-0.135035 -0.151411 -0.150912 -0.150363 -0.109354 -0.11063 -0.110703 -0.109397 -0.109928 
-0.11163 -0.11264 -0.110809 -0.1353 -0.137841 -0.111374 -0.108161 -0.147354 -0.136221 
-0.133282 -0.134917 -0.139076 -0.116092 -0.136266 -0.148689 -0.124842 -0.124099 -0.127248 
-0.119133 -0.119961 -0.122403 -0.119942 -0.116623 -0.116194 -0.117947 -0.119132 -0.113032 
-0.11479 -0.116156 -0.113325 -0.111406 -0.134806 -0.124108 -0.121302 -0.120256 -0.125176 
-0.129315 -0.129943 -0.138349 -0.136283 -0.120371 -0.120489 -0.120519 -0.120486 -0.124446 
-0.127343 -0.126926 -0.120229 -0.12032 -0.121136 -0.126657 -0.129443 -0.131679 -0.150369 
-0.148737 -0.148874 -0.120972 -0.119497 -0.130799 -0.130493 -0.122675 -0.122251 -0.126928 
-0.123615 -0.123632 -0.12556 -0.126512 -0.12109 -0.120394 -0.121371 -0.123036 -0.119987 
-0.13022 -0.122629 -0.122594 -0.122064 -0.1223 -0.123578 -0.121409 -0.121641 -0.122624 
-0.120601 -0.120826 -0.121483 -0.120383 -0.148031 -0.146785 -0.120806 -0.120767 -0.118962 
-0.119593 -0.124086 -0.122689 -0.115412 -0.116296 -0.14564 -0.147653 -0.14606 -0.131298 
-0.130321 -0.140708 -0.144034 -0.142596 -0.13804 -0.132647 -0.126469 -0.125346 -0.126956 
-0.128977 -0.127779 -0.129531 -0.13149 -0.130156 -0.132106 -0.134678 -0.132973 -0.134892 
-0.138133 -0.143432 -0.140862 -0.131203 -0.132968 -0.131867 -0.145197 -0.144099 -0.14487 
-0.151103 -0.150714 -0.150241 -0.150921 -0.148001 -0.149076 -0.148906 -0.145536 -0.147121 
-0.14666 -0.141561 -0.143551 -0.143346 -0.136747 -0.138744 -0.138653 -0.11255 -0.120978 
-0.120945 -0.121255 -0.13447 -0.128796 -0.126836 -0.127182 -0.125315 -0.125323 -0.12348 
-0.12515 -0.114026 -0.142347 -0.14092 -0.141464 -0.139369 -0.120411 -0.146698 -0.148122 
-0.140036 -0.146477 -0.145063 -0.142517 -0.11302 -0.117046 -0.117234 -0.117998 -0.118419 
-0.127947 -0.129343 -0.128825 -0.121647 -0.121561 -0.121796 -0.122972 -0.122779 -0.124631 
-0.122272 -0.131528 -0.131909 -0.129005 -0.128709 -0.129944 -0.123199 -0.124954 -0.123036 
-0.129834 -0.127349 -0.128246 -0.12102 -0.121146 -0.121877 -0.138047 -0.131761 -0.128433 
-0.122793 -0.122744 -0.124196 -0.122111 -0.12231 -0.122778 -0.12234 -0.122459 -0.123161 
-0.13362 -0.120783 -0.150347 -0.149295 -0.122641 -0.122472 -0.123811 -0.120623 -0.120136 
-0.120487 -0.150093 -0.150653 -0.120582 -0.119195 -0.11156 -0.117511 -0.115954 -0.120854 
-0.120727 -0.120774 -0.121385 -0.151231 -0.15057 -0.150826 -0.151128 -0.150358 -0.124545 
-0.149809 -0.123002 -0.121848 -0.121587 -0.123418 -0.11954 -0.120769 -0.120803 -0.121443 
-0.121476 -0.12262 -0.121655 -0.122224 -0.124712 -0.130041 -0.130679 -0.128299 -0.138209 
-0.134928 -0.132123 -0.138013 -0.121289 -0.12319 -0.125438 -0.127613 -0.128442 -0.129913 
-0.149239 -0.148371 -0.120696 -0.120673 -0.120713 -0.121028 -0.150616 -0.145027 -0.144228 
-0.142554 -0.142917 -0.145905 -0.127896 -0.128613 -0.130663 -0.133447 -0.129856 -0.136474 
-0.131268 -0.131909 -0.123051 -0.138449 -0.135228 -0.133965 -0.12483 -0.123297 -0.123865 
-0.119041 -0.133765 -0.147817 -0.124844 -0.126514 -0.122466 -0.134647 -0.136291 -0.139509 
-0.133995 -0.12156 -0.122905 -0.123077 -0.123924 -0.129259 -0.130053 -0.128717 -0.113301 
-0.114319 -0.149382 -0.150231 -0.144762 -0.127087 -0.12738 -0.121908 -0.121728 -0.122697 
-0.142336 -0.126486 -0.125681 -0.124586 -0.123488 -0.122338 -0.123881 -0.14014 -0.132684 
-0.131351 -0.133154 -0.135982 -0.122208 -0.140758 -0.133079 -0.139534 -0.124247 -0.128011 
-0.127293 -0.12524 -0.126995 -0.121129 -0.125966 -0.126344 -0.122362 -0.123404 -0.121957 
-0.121276 -0.123325 -0.12389 -0.123441 -0.124462 -0.124793 -0.125476 -0.125151 -0.126625 
-0.125902 -0.139073 -0.127719 -0.126552 -0.126003 -0.123551 -0.136394 -0.134929 -0.136982 
-0.139513 -0.136153 -0.124688 -0.126101 -0.126128 -0.125273 -0.138366 -0.124753 -0.122965 
-0.125293 -0.124151 -0.122266 -0.122366 -0.141354 -0.126019 -0.140416 -0.126006 -0.12313 
-0.237444 -0.123175 -0.123202 -0.12315 -0.122987 -0.122719 -0.122412 -0.121979 -0.120908 
-0.121567 -0.119797 -0.119137 -0.118515 -0.117773 -0.117268 -0.116667 -0.115625 -0.116183 
-0.114866 -0.114534 -0.114363 -0.114253 -0.114493 -0.114898 -0.11576 -0.116447 -0.11708 
-0.117906 -0.118684 -0.119582 -0.120436 -0.121406 -0.122197 -0.122952 -0.123923 -0.124155 
-0.124049 -0.12379 -0.12313 -0.122003 -0.120998 -0.119327 -0.116582 -0.114742 -0.113229 
-0.1113 -0.10972 -0.107882 -0.105358 -0.103867 -0.102788 -0.101494 -0.100651 -0.0997283 
-0.099026 -0.0983969 -0.0977036 -0.0975268 -0.0974725 -0.0975755 -0.0977969 -0.0986296 -0.100351 
-0.102088 -0.103904 -0.106363 -0.109338 -0.11505 -0.121045 -0.134858 -0.16256 -0.120346 
-0.115217 -0.114246 -0.114327 -0.115303 -0.123549 -0.118083 -0.10656 -0.0979678 -0.0993183 
-0.216293 -0.123154 -0.170049 -0.140244 -0.122187 -0.114317 -0.108091 -0.1055 -0.102877 
-0.099257 -0.097187 -0.0965706 -0.0956648 -0.095243 -0.0948542 -0.0946574 -0.0947467 -0.0950306 
-0.095405 -0.0974404 -0.0985352 -0.0996031 -0.10111 -0.103542 -0.105237 -0.106815 -0.108507 
-0.110251 -0.112167 -0.113901 -0.116027 -0.117751 -0.119412 -0.121565 -0.122292 -0.122421 
-0.122351 -0.121717 -0.120792 -0.119752 -0.118493 -0.117376 -0.116139 -0.114263 -0.11309 
-0.112415 -0.111691 -0.111211 -0.110876 -0.110649 -0.110526 -0.110668 -0.110878 -0.111219 
-0.111724 -0.112222 -0.113013 -0.113736 -0.114541 -0.115932 -0.116713 -0.117498 -0.118412 
-0.119102 -0.119922 -0.12052 -0.121153 -0.121736 -0.122248 -0.12262 -0.122962 -0.123196 
-0.123195 -0.0959263 -0.0966714 -0.100853 -0.0948227 -0.102307 -0.120661 -0.115142 -0.110521 
-0.11523 -0.123158 -0.123131 -0.123138 -0.123199 -0.12322 -0.123111 -0.122907 -0.122541 
-0.122147 -0.121558 -0.120998 -0.120195 -0.118838 -0.117941 -0.117147 -0.116127 -0.115323 
-0.114343 -0.11306 -0.112341 -0.111888 -0.111377 -0.110534 -0.110584 -0.110735 -0.110993 
-0.111306 -0.111806 -0.112296 -0.112975 -0.114154 -0.115004 -0.115791 -0.116694 -0.118882 
-0.119702 -0.120832 -0.121498 -0.121934 -0.122401 -0.122735 -0.122985 -0.123198 -0.123185 
-0.111046 -0.110584 -0.117347 -0.118199 -0.110745 -0.119529 -0.113685 -0.113504 -0.120298 
-0.123141 -0.060918 -0.0532103 -0.0652569 -0.0650119 -0.0647677 -0.0632169 -0.0639795 -0.063304 
-0.0571502 -0.0583329 -0.0185264 -0.0477486 -0.0453137 -0.0199196 -0.0230247 -0.0249588 -0.02602 
-0.0275321 -0.0298613 -0.0302344 -0.030996 -0.0341351 -0.0407955 -0.0368469 -0.0446557 -0.00781005 
-0.0101407 -0.00191482 -0.000624487 -0.00904116 -0.0117857 -0.0033627 -0.00187447 -0.00918435 -0.0121929 
-0.00875129 -0.0243844 -0.00283925 -0.00361335 -0.0129597 -0.00214909 -0.012883 -0.000360895 -0.000508335 
-0.0155462 -0.016264 -0.0468202 -0.0456152 -0.0219981 -0.0272356 -0.0263712 -0.0322554 -0.0270168 
-0.030552 -0.0294795 -0.0376556 -0.0350501 -0.0419799 -0.0337422 -0.0595453 -0.0570143 -0.0597046 
-0.0652704 -0.0630592 -0.0647074 -0.0621949 -0.0615198 -0.0606513 -0.0590028 -0.0598292 -0.00760397 
-0.00948905 0.006069 -0.00594775 -0.0105841 -0.00455854 -0.0105289 -0.00262513 -0.0102904 -0.00185226 
-0.0503371 -0.0178034 -0.0184642 -0.0472669 -0.0407629 -0.042469 -0.0354213 -0.0322011 -0.0310442 
-0.0288915 -0.0274568 -0.0249541 -0.0231077 -0.0254282 -0.0380811 -0.0571696 -0.056719 -0.0597158 
-0.0647226 -0.0650891 -0.0649787 -0.0632653 -0.061969 -0.062379 -0.0607346 -0.0626165 -0.0597968 
-0.0554141 -0.0596634 -0.0662636 -0.0630808 -0.0636879 -0.0634184 -0.0636357 -0.0627392 -0.0610412 
-0.0601754 -0.0497571 -0.0169344 -0.0171397 -0.0391636 -0.0476047 -0.0343733 -0.0346028 -0.0311391 
-0.0392312 -0.0287965 -0.0289828 -0.0233808 -0.0334211 -0.0200269 -0.0387749 -0.00860394 -0.0156887 
-0.000517917 -0.00671229 0.000573511 -0.00711082 -0.00710227 -0.00606397 -0.0133595 0.000906719 -0.0175568 
-0.0549658 -0.0352359 -0.0254627 -0.0316846 -0.0383323 -0.047909 -0.0417374 -0.0449588 -0.0409277 
-0.0428408 -0.0396292 -0.0394291 -0.0391363 -0.0382546 -0.0405634 -0.0365834 -0.0420429 -0.0313255 
-0.0267219 -0.0185429 -0.0195802 -0.0349992 -0.0363188 -0.0377316 -0.0367336 -0.0366985 -0.0333039 
-0.0325651 -0.0309389 -0.0299059 -0.0281078 -0.027225 -0.0251408 -0.0239644 -0.0212465 -0.0211932 
-0.0220552 -0.029232 -0.0317901 -0.0464051 -0.0297724 -0.0346778 -0.0323845 -0.0259109 -0.0204424 
-0.0206895 -0.0203543 -0.0257375 -0.0225948 -0.0257974 -0.0265896 -0.0285633 -0.0293653 -0.0315821 
-0.0333434 -0.034845 -0.0348567 -0.037506 -0.0357282 -0.0349121 -0.0262205 -0.0219952 -0.0210248 
-0.0246645 -0.0251981 -0.0277605 -0.0281736 -0.03035 -0.0306268 -0.0329385 -0.0333741 -0.0354441 
-0.0366692 -0.0391492 -0.0336308 -0.0321481 -0.0236726 -0.0188212 -0.0153239 -0.0181471 -0.0175506 
-0.0357841 -0.0377828 -0.0338029 -0.0332816 -0.0320154 -0.0308542 -0.0292967 -0.027457 -0.0277822 
-0.0261607 -0.0254749 -0.0231477 -0.0213115 -0.0191323 -0.0207308 -0.0309607 -0.02528 -0.0046762 
-0.0226345 0.00395326 0.00441457 0.00522994 0.00472043 0.00486002 0.00479819 -0.0171722 -0.00171628 
-0.0413125 -0.0564528 -0.063375 -0.0658855 -0.0618838 -0.0620826 -0.0605564 -0.0591452 -0.0584523 
-0.063293 -0.0502605 -0.0401616 -0.0257734 -0.0400485 -0.0210775 -0.00133637 0.00972736 0.00291584 
0.00660911 0.0112742 0.00563244 0.00514228 0.00541153 0.00811174 -0.00140675 -0.0680085 -0.0629705 
-0.0616254 -0.0616169 -0.0604413 -0.0611265 -0.0595999 -0.0598759 -0.0583663 -0.0567074 -0.0414318 
-0.0466849 -0.0337866 -0.0193696 -0.032476 -0.032996 -0.0619276 -0.0297905 0.0058336 -0.0231674 
-0.0207657 0.00420825 -0.0205632 -0.016467 -0.0318476 -0.0270768 -0.0375529 -0.0422552 -0.0336277 
-0.0336431 -0.0321973 -0.0328432 -0.0295398 -0.0307895 -0.0272229 -0.0279588 -0.024222 -0.0245795 
-0.0162345 -0.021006 -0.030487 -0.023239 -0.055255 -0.0233841 -0.0261224 -0.0221062 -0.0191755 
-0.0230052 -0.0310699 -0.0187012 -0.0150593 -0.0249878 -0.0204319 -0.0268044 -0.0267703 -0.0293906 
-0.0281338 -0.0312262 -0.0307516 -0.0346874 -0.0336812 -0.043405 -0.0363857 -0.0176668 -0.0315437 
-0.0208727 -0.0325788 -0.0387094 -0.0245148 -0.0221065 -0.0245889 -0.0242204 -0.027844 -0.0271768 
-0.0305885 -0.0297972 -0.0327489 -0.0321618 -0.0329421 -0.0343821 -0.0396432 -0.0362444 -0.0276183 
-0.0354745 -0.0118126 -0.01844 -0.0248444 -0.018278 -0.0348332 -0.0380874 -0.0331156 -0.0334711 
-0.0302572 -0.0314873 -0.0295495 -0.0296628 -0.025278 -0.0251942 -0.0207004 -0.0215926 -0.022337 
-0.0246895 -0.000667982 0.0105893 0.00576151 0.00592273 0.00569326 0.00543828 0.00615733 0.00515105 
0.00689227 -0.000289842 -0.0189622 -0.0641817 -0.0572758 -0.062492 -0.062134 -0.0615138 -0.0618232 
-0.0602574 -0.0601017 -0.0561421 -0.0572652 -0.0421023 -0.0527374 -0.0364569 0.00514405 -0.00680779 
0.00318106 0.00583316 0.00390726 0.00468519 0.0043721 0.00500085 -0.00162841 -0.013988 -0.0406104 
-0.0569664 -0.0620831 -0.0617519 -0.0616847 -0.060956 -0.0600212 -0.0591445 -0.0568052 -0.0572122 
-0.0503209 -0.0295664 -0.0234421 -0.0353538 -0.0323814 -0.0324989 -0.0317141 -0.0253316 -0.0279771 
-0.0157371 -0.027502 -0.0563202 -0.0386786 -0.0248041 -0.0259958 -0.0309597 -0.0331132 -0.0477599 
-0.0359742 -0.042534 -0.0367767 -0.0428953 -0.0380304 -0.0439108 -0.0394573 -0.045513 -0.0396762 
-0.0378313 -0.0395888 -0.040341 -0.034184 -0.0297937 -0.0524626 -0.0342978 -0.0150791 -0.0297629 
-0.0283002 -0.0293379 -0.0298798 -0.034625 -0.0335316 -0.0326857 -0.0356358 -0.0437971 -0.0381321 
-0.0364046 -0.039115 -0.0398128 -0.0348647 -0.0364528 -0.0300815 -0.0209768 -0.0399478 -0.0216454 
0.0110238 0.00304068 -0.026118 -0.0242897 -0.0564262 -0.0552008 -0.028585 -0.0303483 -0.0619556 
-0.061809 -0.0356449 -0.030208 -0.0396694 -0.0396449 -0.0320317 -0.0361327 0.00772902 -0.0240804 
-0.0605738 -0.0609145 -0.0349784 -0.0324232 -0.0219805 -0.0312148 -0.0298153 -0.0301558 0.0111897 
-0.0230902 -0.0173358 -0.0297564 -0.037715 -0.0534448 -0.0212355 -0.022023 -0.0319727 0.00965497 
0.00925442 -0.0324293 -0.0215947 -0.0175154 -0.016751 0.00968231 -0.0583841 -0.0282583 -0.0242827 
-0.015481 -0.0607341 -0.0152432 -0.0218055 -0.0202746 -0.0327795 -0.0227812 -0.0184008 -0.0181157 
-0.0152408 -0.0597904 0.00937796 0.0103438 -0.0291299 -0.0180863 -0.0193526 0.00145093 -0.0370746 
-0.0360751 -0.0159723 0.00219299 -0.0228655 -0.0336355 -0.0331564 -0.0185473 -0.0196 -0.0274314 
-0.0275691 -0.0298607 -0.0286546 -0.0296167 -0.0308565 -0.0308633 -0.0313654 -0.0355031 -0.0978894 
-0.0904834 0.00947488 0.0100488 -0.0182977 -0.042769 -0.0294625 -0.0212906 -0.0301883 -0.0718139 
-0.0277069 -0.0277706 -0.0446824 -0.0641683 -0.0599437 -0.0950128 -0.0836753 -0.0953462 -0.0262499 
-0.0279618 -0.0345219 -0.0903035 -0.102353 -0.097182 -0.112708 -0.0194383 -0.021025 -0.0323562 
0.00990152 0.00967011 -0.0598602 -0.0582955 -0.0598608 0.00224373 -0.0658983 -0.0621923 -0.0505645 
-0.0112738 -0.0224952 -0.0319948 -0.0509718 -0.0626496 -0.0390444 -0.0323536 -0.0281635 -0.0347665 
-0.0913296 -0.118282 -0.113088 0.0102521 -0.0267951 -0.0146759 0.0099842 -0.024564 -0.0588741 
-0.0452878 -0.0560515 -0.0243486 -0.0258769 -0.033793 -0.0252079 -0.0221932 -0.0330089 -0.0239056 
-0.0314731 -0.0231139 -0.0480058 -0.0318792 -0.0343098 -0.0582262 -0.0587748 -0.0335555 -0.0530391 
-0.0312621 -0.105937 -0.0837759 -0.0853174 -0.0263663 -0.0274458 -0.0210964 -0.0573909 -0.0196033 
-0.0858113 -0.127459 -0.0890603 -0.0944012 -0.0820891 -0.10001 -0.0959485 -0.111053 -0.11133 
0.0103144 -0.0570247 -0.141342 -0.146616 -0.14271 -0.145679 -0.150358 -0.0943062 -0.114594 
-0.0527314 -0.0881053 -0.08766 -0.138941 -0.0604159 -0.149236 -0.161077 -0.0455821 -0.055128 
-0.100871 -0.0938562 -0.0702395 0.0104473 -0.0848869 -0.0644018 -0.0837321 -0.0964722 -0.0295027 
-0.0364533 -0.0940958 -0.0801443 -0.0818043 -0.107346 -0.0843284 -0.0973225 -0.0952778 -0.164138 
0.00846065 -0.0352702 -0.0400933 -0.08786 -0.0334323 -0.0907105 -0.091009 -0.0893161 -0.0291568 
-0.0729697 -0.0814899 -0.0863514 -0.0876354 -0.0361568 -0.074442 -0.0610375 -0.0586824 -0.0319569 
-0.0830682 -0.061682 -0.135242 -0.0934289 -0.0809383 -0.0480767 -0.0899657 -0.114692 -0.114053 
-0.114438 -0.113726 -0.117328 -0.114946 -0.11676 -0.106748 -0.107011 -0.108255 -0.115502 
-0.11548 -0.116565 -0.112717 -0.112233 -0.111254 -0.112043 -0.110909 -0.112822 -0.111778 
-0.110508 -0.110061 -0.112328 -0.111261 -0.153484 -0.155613 -0.155005 -0.154421 -0.15519 
-0.15641 -0.122129 -0.121003 -0.116531 -0.120737 -0.0735277 -0.0897753 -0.0851428 -0.09831 
-0.103883 -0.10432 -0.106141 -0.122869 -0.125323 -0.126573 -0.155517 -0.153931 -0.155703 
-0.154215 -0.155068 -0.153329 -0.154547 -0.152727 -0.146553 -0.147824 -0.148871 -0.152209 
-0.150681 -0.156877 -0.154986 -0.120033 -0.118473 -0.120057 -0.166816 -0.170606 -0.15777 
-0.157712 -0.184402 -0.157539 -0.161895 -0.123116 -0.123472 -0.120567 -0.120852 -0.100148 
-0.11462 -0.0987719 -0.112627 -0.11777 -0.115581 -0.119778 -0.117351 -0.112131 -0.112676 
-0.113744 -0.106858 -0.107983 -0.107766 -0.120011 -0.119244 -0.119677 -0.117999 -0.117342 
-0.118014 -0.117393 -0.122916 -0.0971357 -0.115771 -0.120143 -0.119831 -0.12002 -0.119659 
-0.12521 -0.124695 -0.126949 -0.0980604 -0.111638 -0.110038 -0.110509 -0.109307 -0.112821 
-0.111325 -0.122734 -0.122474 -0.122559 -0.110115 -0.108635 -0.102086 -0.110478 -0.110147 
-0.111665 -0.114896 -0.1147 -0.116338 -0.115547 -0.115193 -0.113702 -0.151345 -0.150583 
-0.150874 -0.103799 -0.103115 -0.099777 -0.113708 -0.115341 -0.120213 -0.120192 -0.120057 
-0.12007 -0.0987092 -0.100047 -0.094264 -0.0962296 -0.125796 -0.12409 -0.124382 -0.114029 
-0.114164 -0.113039 -0.11854 -0.118967 -0.119258 -0.122304 -0.122032 -0.122255 -0.118004 
-0.118423 -0.117751 -0.118237 -0.115171 -0.115529 -0.114505 -0.114924 -0.115903 -0.123062 
-0.123186 -0.124832 -0.12503 -0.137084 -0.14015 -0.138783 -0.120478 -0.120263 -0.120385 
-0.105028 -0.104491 -0.118019 -0.122808 -0.122419 -0.12254 -0.102053 -0.143603 -0.138731 
-0.139884 -0.120372 -0.120508 -0.120696 -0.137421 -0.136291 -0.120286 -0.120339 -0.120509 
-0.120526 -0.123138 -0.120888 -0.125934 -0.101514 -0.1035 -0.1046 -0.11083 -0.113319 
-0.111275 -0.11389 -0.112193 -0.109874 -0.113028 -0.101647 -0.111385 -0.15273 -0.149989 
-0.148039 -0.112986 -0.112042 -0.111421 -0.120562 -0.120489 -0.120496 -0.113591 -0.115346 
-0.159529 -0.155405 -0.157992 -0.120797 -0.121858 -0.11972 -0.111873 -0.112808 -0.115463 
-0.105987 -0.105927 -0.107199 -0.121048 -0.116486 -0.119095 -0.114718 -0.115023 -0.114091 
-0.107522 -0.108156 -0.106622 -0.118024 -0.11352 -0.115965 -0.111816 -0.104028 -0.102181 
-0.103278 -0.107424 -0.108624 -0.10828 -0.116817 -0.116721 -0.0978873 -0.121512 -0.121843 
-0.121788 -0.140315 -0.139774 -0.164342 -0.112971 -0.113775 -0.112701 -0.11896 -0.119188 
-0.118462 -0.118733 -0.104232 -0.120479 -0.116925 -0.117134 -0.116625 -0.132516 -0.1299 
-0.129946 -0.120038 -0.119722 -0.119799 -0.119441 -0.111645 -0.111646 -0.115146 -0.115488 
-0.117334 -0.114804 -0.114954 -0.115498 -0.121169 -0.121186 -0.121463 -0.12093 -0.121177 
-0.120799 -0.121101 -0.106759 -0.119961 -0.119714 -0.119881 -0.142704 -0.141441 -0.112423 
-0.113399 -0.11261 -0.110309 -0.110864 -0.111537 -0.111979 -0.107758 -0.109357 -0.110194 
-0.111049 -0.111651 -0.104335 -0.106989 -0.106771 -0.120319 -0.120463 -0.119539 -0.115729 
-0.115848 -0.116273 -0.118929 -0.11888 -0.1144 -0.116893 -0.116951 -0.117393 -0.108279 
-0.108338 -0.106763 -0.123574 -0.126461 -0.123983 -0.126828 -0.120544 -0.134152 -0.135135 
-0.131707 -0.110263 -0.113268 -0.108595 -0.133016 -0.135099 -0.135937 -0.176078 -0.148118 
-0.187108 -0.114945 -0.115013 -0.114 -0.138111 -0.141077 -0.152496 -0.150755 -0.115634 
-0.114001 -0.115069 -0.117802 -0.117172 -0.11797 -0.120338 -0.119968 -0.120115 -0.119767 
-0.119526 -0.119367 -0.122313 -0.157019 -0.132954 -0.129678 -0.130223 -0.116485 -0.11659 
-0.116347 -0.141602 -0.118542 -0.118995 -0.118702 -0.152459 -0.156504 -0.155238 -0.159425 
-0.117015 -0.116358 -0.117303 -0.158335 -0.181059 -0.162406 -0.161569 -0.112695 -0.113048 
-0.112348 -0.130055 -0.126582 -0.12663 -0.183163 -0.196577 -0.200996 -0.16409 -0.11935 
-0.118612 -0.118584 -0.117892 -0.0979424 -0.121325 -0.114034 -0.1436 -0.145297 -0.146239 
-0.147837 -0.0897265 -0.0924482 -0.120484 -0.11978 -0.118363 -0.103409 -0.107143 -0.101486 
-0.112893 -0.113579 -0.113655 -0.114432 -0.143951 -0.146475 -0.145375 -0.152318 -0.153554 
-0.151696 -0.152901 -0.121198 -0.121398 -0.12099 -0.127241 -0.154938 -0.116913 -0.142682 
-0.154076 -0.153185 -0.152032 -0.11382 -0.113562 -0.11231 -0.112163 -0.154808 -0.13431 
-0.154062 -0.108852 -0.113242 -0.112279 -0.114247 -0.113368 -0.119753 -0.121546 -0.12125 
-0.121571 -0.123032 -0.122992 -0.119597 -0.119907 -0.120134 -0.121753 -0.122076 -0.121917 
-0.122306 -0.106557 -0.104584 -0.10754 -0.153109 -0.154272 -0.120324 -0.120624 -0.122051 
-0.129099 -0.127731 -0.130764 -0.120236 -0.120084 -0.0963266 -0.101085 -0.112635 -0.167521 
-0.176035 -0.127128 -0.125826 -0.130723 -0.131833 -0.129045 -0.114801 -0.115628 -0.121215 
-0.120976 -0.109977 -0.115417 -0.108572 -0.120543 -0.120282 -0.120385 -0.107507 -0.108489 
-0.108394 -0.109237 -0.109324 -0.101677 -0.101957 -0.104946 -0.118841 -0.114617 -0.117522 
-0.104474 -0.108817 -0.105462 -0.132612 -0.129649 -0.137203 -0.134629 -0.11437 -0.113107 
-0.114963 -0.109059 -0.108558 -0.108827 -0.100848 -0.105389 -0.102483 -0.111552 -0.112384 
-0.121089 -0.122621 -0.123946 -0.125592 -0.116026 -0.117719 -0.116531 -0.116442 -0.115908 
-0.116191 -0.140786 -0.143528 -0.140369 -0.104722 -0.10265 -0.106363 -0.107393 -0.107794 
-0.108549 -0.110507 -0.108732 -0.110427 -0.109157 -0.110994 -0.109204 -0.111123 -0.114769 
-0.112699 -0.113986 -0.118891 -0.118796 -0.118369 -0.15195 -0.150726 -0.144587 -0.146173 
-0.146656 -0.159769 -0.179013 -0.169446 -0.132663 -0.131389 -0.134308 -0.11621 -0.11633 
-0.117309 -0.145196 -0.146327 -0.144155 -0.115334 -0.115162 -0.118423 -0.117443 -0.118427 
-0.118335 -0.118752 -0.118368 -0.118329 -0.118363 -0.117221 -0.119748 -0.119444 -0.119261 
-0.118057 -0.11764 -0.116941 -0.109723 -0.109118 -0.107708 -0.112852 -0.113688 -0.112998 
-0.113884 -0.116397 -0.117315 -0.120921 -0.120462 -0.120519 -0.121451 -0.12114 -0.121173 
-0.147387 -0.146246 -0.149542 -0.114214 -0.124329 -0.117997 -0.11933 -0.119836 -0.119993 
-0.120409 -0.12049 -0.12498 -0.12452 -0.123278 -0.113009 -0.113146 -0.112933 -0.113082 
-0.120906 -0.11718 -0.144537 -0.143435 -0.14656 -0.133535 -0.141833 -0.139199 -0.175861 
-0.173208 -0.117255 -0.117115 -0.118039 -0.117964 -0.137188 -0.141736 -0.138251 -0.116691 
-0.117335 -0.117044 -0.117672 -0.149985 -0.150506 -0.15092 -0.120581 -0.120493 -0.151796 
-0.151049 -0.151241 -0.119798 -0.119487 -0.119664 -0.119319 -0.106103 -0.106386 -0.115099 
-0.116759 -0.117435 -0.116953 -0.0884272 -0.084782 -0.13184 -0.116118 -0.115505 -0.116588 
-0.115971 -0.11579 -0.116339 -0.117234 -0.118119 -0.117576 -0.118559 -0.112843 -0.111515 
-0.112222 -0.111784 -0.112191 -0.127763 -0.127755 -0.11176 -0.111585 -0.111841 -0.111683 
-0.111921 -0.111857 -0.112117 -0.111112 -0.111935 -0.110319 -0.105879 -0.107037 -0.112463 
-0.115705 -0.115463 -0.118707 -0.101303 -0.0980421 -0.103548 -0.100821 -0.120805 -0.121228 
-0.120896 -0.124369 -0.119292 -0.145796 -0.142392 -0.119422 -0.119705 -0.113366 -0.121583 
-0.1219 -0.12049 -0.120473 -0.120613 -0.120571 -0.104515 -0.105714 -0.104075 -0.147399 
-0.145718 -0.14471 -0.149514 -0.15018 -0.10363 -0.106332 -0.106055 -0.149853 -0.148985 
-0.152297 -0.151467 -0.133092 -0.17136 -0.176633 -0.120697 -0.112002 -0.103913 -0.104947 
-0.098601 -0.100681 -0.0962894 -0.1559 -0.153878 -0.153451 -0.111934 -0.111936 -0.110436 
-0.110297 -0.121 -0.120793 -0.102821 -0.102405 -0.104528 -0.136011 -0.13978 -0.135651 
-0.139573 -0.140116 -0.137532 -0.138519 -0.135836 -0.127657 -0.12912 -0.10235 -0.104097 
-0.0985113 -0.100688 -0.111126 -0.153976 -0.155238 -0.154215 -0.106809 -0.151066 -0.152002 
-0.150109 -0.151053 -0.150593 -0.148017 -0.149153 -0.160188 -0.15743 -0.156919 -0.107311 
-0.104459 -0.105717 -0.156352 -0.102723 -0.151585 -0.15837 -0.155538 -0.113207 -0.0992134 
-0.100865 -0.0971248 -0.119588 -0.116954 -0.120535 -0.117941 -0.100034 -0.119375 -0.119254 
-0.118326 -0.085812 -0.0894153 -0.0799784 -0.101548 -0.109503 -0.107735 -0.109944 -0.10842 
-0.175412 -0.171771 -0.196586 -0.11348 -0.146522 -0.140373 -0.145225 -0.151287 -0.161216 
-0.160691 -0.135578 -0.140304 -0.137969 -0.187259 -0.193215 -0.174405 -0.202902 -0.203397 
-0.197177 -0.112434 -0.113994 -0.12179 -0.122074 -0.122142 -0.0971973 -0.100505 -0.0944001 
-0.112559 -0.112669 -0.108233 -0.106016 -0.106213 -0.0772069 -0.0632946 -0.0855352 -0.11048 
-0.111238 -0.110212 -0.0968591 -0.1187 -0.10434 -0.117924 -0.0903946 -0.1092 -0.109562 
-0.119564 -0.117964 -0.105505 -0.107293 -0.10668 -0.10785 -0.0980734 -0.101917 -0.137651 
-0.137758 -0.134645 -0.12041 -0.120264 -0.15323 -0.152438 -0.120632 -0.12052 -0.121621 
-0.121543 -0.112488 -0.113457 -0.112812 -0.127493 -0.123622 -0.102628 -0.104466 -0.121275 
-0.124427 -0.122425 -0.118774 -0.118107 -0.118516 -0.117838 -0.113022 -0.113798 -0.112751 
-0.131484 -0.129296 -0.127723 -0.134472 -0.139581 -0.135342 -0.139358 -0.11474 -0.114038 
-0.116291 -0.0864154 -0.0945882 -0.0930341 -0.125367 -0.128282 -0.127215 -0.120762 -0.120609 
-0.120725 -0.121389 -0.120772 -0.12355 -0.125781 -0.124371 -0.126636 -0.104208 -0.106186 
-0.104602 -0.12047 -0.147135 -0.167217 -0.116202 -0.116648 -0.115603 -0.119825 -0.119945 
-0.120789 -0.120829 -0.116994 -0.117616 -0.117029 -0.112879 -0.113124 -0.112466 -0.112785 
-0.112874 -0.116178 -0.137738 -0.122573 -0.122943 -0.121667 -0.120954 -0.120934 -0.113106 
-0.112463 -0.113348 -0.172061 -0.1713 -0.182802 -0.116437 -0.116652 -0.115438 -0.115664 
-0.119682 -0.143823 -0.148034 -0.162085 -0.137844 -0.118113 -0.118163 -0.149386 -0.179585 
-0.132073 -0.173501 -0.114127 -0.111424 -0.11095 -0.143998 -0.147075 -0.137599 -0.14003 
-0.120082 -0.120224 -0.120135 -0.121758 -0.11056 -0.110099 -0.118542 -0.118782 -0.120899 
-0.110872 -0.112219 -0.117504 -0.117902 -0.119741 -0.119212 -0.153522 -0.154716 -0.105621 
-0.106434 -0.104859 -0.107342 -0.120311 -0.120082 -0.115151 -0.115689 -0.113934 -0.114325 
-0.106787 -0.102774 -0.108461 -0.110802 -0.110061 -0.187461 -0.172016 -0.132385 -0.117904 
-0.118224 -0.116671 -0.12492 -0.103371 -0.104097 -0.138557 -0.135066 -0.112524 -0.121152 
-0.123115 -0.124244 -0.136532 -0.109732 -0.1094 -0.110472 -0.149098 -0.146765 -0.148225 
-0.116352 -0.117179 -0.119085 -0.118942 -0.118488 -0.131335 -0.126545 -0.130157 -0.125494 
-0.117569 -0.116079 -0.115875 -0.114485 -0.149208 -0.112453 -0.112536 -0.133119 -0.137266 
-0.136207 -0.140045 -0.139099 -0.130221 -0.128282 -0.127576 -0.119397 -0.122277 -0.122179 
-0.11469 -0.0595081 -0.116149 -0.114349 -0.116909 -0.141745 -0.11541 -0.115529 -0.115771 
-0.13361 -0.129608 -0.132449 -0.11713 -0.117393 -0.117635 -0.114472 -0.116572 -0.11261 
-0.11458 -0.116255 -0.11639 -0.115826 -0.115989 -0.116284 -0.116006 -0.116038 -0.116404 
-0.1226 -0.122384 -0.0603672 -0.114349 -0.114068 -0.113766 -0.113536 -0.102659 -0.119518 
-0.112196 -0.10222 -0.118386 -0.118444 -0.111696 -0.109749 -0.111529 -0.116652 -0.118282 
-0.116531 -0.113537 -0.115033 -0.112746 -0.152895 -0.150519 -0.143827 -0.141402 -0.142859 
-0.120978 -0.120137 -0.120247 -0.114985 -0.126262 -0.126045 -0.114568 -0.116384 -0.116182 
-0.0825427 -0.101866 -0.104902 -0.104224 -0.125229 -0.11939 -0.121232 -0.117953 -0.119649 
-0.112117 -0.102424 -0.103742 -0.1475 -0.117785 -0.116565 -0.123338 -0.124056 -0.12613 
-0.128501 -0.127038 -0.11677 -0.116223 -0.101334 -0.119701 -0.12017 -0.119627 -0.120723 
-0.120453 -0.150412 -0.151703 -0.149382 -0.147718 -0.144973 -0.14812 -0.149043 -0.170253 
-0.173999 -0.158408 -0.14741 -0.155922 -0.15644 -0.138096 -0.19292 -0.17819 -0.14688 
-0.147309 -0.148593 -0.149112 -0.125127 -0.128339 -0.126198 -0.129166 -0.16544 -0.164422 
-0.160743 -0.160066 -0.158735 -0.158975 -0.160565 -0.125423 -0.12821 -0.136983 -0.16662 
-0.160755 -0.109621 -0.113383 -0.110574 -0.149789 -0.157163 -0.157268 -0.105568 -0.15527 
-0.149772 -0.174093 -0.151652 -0.15046 -0.118342 -0.119289 -0.119262 -0.116314 -0.117185 
-0.153391 -0.1529 -0.152952 -0.15145 -0.151386 -0.150054 -0.120556 -0.12022 -0.132617 
-0.136659 -0.134189 -0.157374 -0.149306 -0.121633 -0.120493 -0.121485 -0.120144 -0.120229 
-0.119974 -0.119775 -0.119843 -0.122982 -0.122273 -0.12199 -0.121307 -0.115082 -0.115662 
-0.115324 -0.129116 -0.135117 -0.130913 -0.126498 -0.114326 -0.113674 -0.113501 -0.112786 
-0.113388 -0.11275 -0.104377 -0.123792 -0.115653 -0.124102 -0.122862 -0.124137 -0.0598391 
-0.135682 -0.132249 -0.119837 -0.132551 -0.118307 -0.117689 -0.115425 -0.11694 -0.115751 
-0.108819 -0.120127 -0.119676 -0.119609 -0.147823 -0.14851 -0.141966 -0.117189 -0.116785 
-0.116732 -0.117864 -0.119316 -0.119609 -0.148657 -0.147531 -0.129829 -0.132317 -0.127227 
-0.121496 -0.119138 -0.119617 -0.131641 -0.0975941 -0.132379 -0.125558 -0.123064 -0.117619 
-0.122051 -0.139467 -0.142172 -0.141145 -0.118606 -0.120538 -0.133838 -0.131762 -0.126701 
-0.148415 -0.119588 -0.119848 -0.122187 -0.117018 -0.115969 -0.0979889 -0.0996293 -0.15346 
-0.148761 -0.121081 -0.121285 -0.12207 -0.119434 -0.119361 -0.113554 -0.189736 -0.182187 
-0.189763 -0.181576 -0.118445 -0.101465 -0.104001 -0.10136 -0.101202 -0.150673 -0.121556 
-0.121876 -0.121897 -0.118669 -0.119424 -0.119463 -0.112455 -0.111991 -0.111896 -0.138257 
-0.122345 -0.123189 -0.1202 -0.12028 -0.119788 -0.117448 -0.116234 -0.0965819 -0.100688 
-0.14485 -0.117366 -0.117628 -0.117993 -0.119485 -0.119785 -0.119726 -0.120746 -0.121229 
-0.121846 -0.122329 -0.149172 -0.152452 -0.150726 -0.150134 -0.120329 -0.120309 -0.112242 
-0.118988 -0.117561 -0.10804 -0.108607 -0.115608 -0.117375 -0.132064 -0.134142 -0.130824 
-0.11542 -0.11749 -0.118392 -0.112218 -0.116124 -0.112926 -0.11533 -0.137331 -0.133902 
-0.119208 -0.143102 -0.143905 -0.144871 -0.145595 -0.148372 -0.120126 -0.120104 -0.0972701 
-0.119328 -0.145997 -0.145839 -0.144626 -0.144489 -0.113633 -0.113435 -0.152041 -0.147464 
-0.105601 -0.110872 -0.112731 -0.109452 -0.112108 -0.16685 -0.165627 -0.15478 -0.131151 
-0.131394 -0.129224 -0.135625 -0.134166 -0.133779 -0.132427 -0.113503 -0.121231 -0.121534 
-0.104802 -0.10396 -0.102165 -0.130004 -0.131702 -0.129281 -0.130761 -0.118195 -0.117981 
-0.119144 -0.118983 -0.118918 -0.119251 -0.13162 -0.132885 -0.134842 -0.10403 -0.119352 
-0.118844 -0.119535 -0.119035 -0.116433 -0.116397 -0.163435 -0.156251 -0.115616 -0.121829 
-0.122751 -0.121802 -0.145302 -0.15098 -0.116032 -0.115579 -0.115065 -0.114627 -0.111123 
-0.110517 -0.120426 -0.120602 -0.107908 -0.10437 -0.106108 -0.122318 -0.114693 -0.109656 
-0.122955 -0.122691 -0.123003 -0.103977 -0.114313 -0.121106 -0.109068 -0.109378 -0.109816 
-0.11946 -0.119928 -0.118757 -0.119154 -0.16612 -0.166697 -0.121953 -0.120944 -0.124727 
-0.123439 -0.126374 -0.123992 -0.12194 -0.123051 -0.121069 -0.119411 -0.121397 -0.12043 
-0.113928 -0.112192 -0.114107 -0.121813 -0.154413 -0.155394 -0.156512 -0.113927 -0.145462 
-0.151726 -0.144156 -0.113197 -0.102579 -0.112985 -0.11859 -0.119672 -0.11963 -0.120784 
-0.147962 -0.150475 -0.116479 -0.117365 -0.117375 -0.118337 -0.123261 -0.121764 -0.12271 
-0.176701 -0.172603 -0.120758 -0.147767 -0.150233 -0.155215 -0.15393 -0.155509 -0.190885 
-0.171196 -0.152748 -0.151412 -0.156628 -0.133717 -0.16985 -0.109432 -0.108919 -0.111502 
-0.157992 -0.158238 -0.125566 -0.12473 -0.129793 -0.112475 -0.112609 -0.112854 -0.152274 
-0.150221 -0.13532 -0.134137 -0.131993 -0.113543 -0.111852 -0.112929 -0.152514 -0.158196 
-0.105896 -0.104866 -0.127518 -0.146988 -0.142675 -0.129657 -0.170673 -0.151503 -0.150252 
-0.182371 -0.174332 -0.132892 -0.13259 -0.129417 -0.121411 -0.116837 -0.117113 -0.117361 
-0.111343 -0.111425 -0.112246 -0.112218 -0.12466 -0.113287 -0.16048 -0.172885 -0.171516 
-0.144971 -0.148732 -0.110195 -0.129509 -0.127939 -0.127116 -0.120938 -0.121228 -0.120815 
-0.16106 -0.126309 -0.12877 -0.135829 -0.132521 -0.133162 -0.111316 -0.112047 -0.114124 
-0.113021 -0.113188 -0.134964 -0.132945 -0.150137 -0.149284 -0.150155 -0.11421 -0.118504 
-0.118982 -0.120523 -0.120654 -0.119608 -0.182164 -0.187271 -0.120437 -0.120224 -0.120356 
-0.12057 -0.120579 -0.11941 -0.119456 -0.122056 -0.123862 -0.121559 -0.101607 -0.136908 
-0.123245 -0.111381 -0.0923908 -0.0885729 -0.148985 -0.125161 -0.125682 -0.127878 -0.16283 
-0.154742 -0.153778 -0.147519 -0.0994557 -0.117355 -0.121214 -0.125842 -0.121579 -0.137729 
-0.139432 -0.105508 -0.106546 -0.108911 -0.106514 -0.108612 -0.149317 -0.147815 -0.149162 
-0.142831 -0.102563 -0.104295 -0.104561 -0.136305 -0.118705 -0.119141 -0.127428 -0.112169 
-0.11165 -0.119177 -0.118517 -0.119547 -0.118937 -0.120449 -0.116261 -0.116859 -0.115933 
-0.115265 -0.114662 -0.0982403 -0.157716 -0.121176 -0.111964 -0.120318 -0.120241 -0.120168 
-0.117012 -0.117346 -0.117818 -0.118126 -0.117473 -0.121515 -0.111286 -0.11174 -0.118985 
-0.119298 -0.118018 -0.11817 -0.121937 -0.121703 -0.126606 -0.123805 -0.127323 -0.120379 
-0.120406 -0.120599 -0.120219 -0.120076 -0.120207 -0.120042 -0.115358 -0.115659 -0.116024 
-0.146062 -0.148828 -0.120628 -0.120674 -0.114867 -0.133819 -0.139807 -0.161789 -0.152505 
-0.16505 -0.110137 -0.109652 -0.108642 -0.107627 -0.148212 -0.111849 -0.111267 -0.227857 
-0.200571 -0.106378 -0.105748 -0.120131 -0.120206 -0.111 -0.155865 -0.151468 -0.113187 
-0.114565 -0.11288 -0.138723 -0.141979 -0.138014 -0.0943936 -0.0991312 -0.0963226 -0.126477 
-0.138526 -0.136322 -0.135692 -0.148759 -0.14777 -0.120771 -0.0950367 -0.0881353 -0.0951488 
-0.180446 -0.164088 -0.159916 -0.154705 -0.150708 -0.147362 -0.147815 -0.14426 -0.143188 
-0.121501 -0.139112 -0.141195 -0.136996 -0.139086 -0.115501 -0.109291 -0.108749 -0.10829 
-0.0869674 -0.148324 -0.149406 -0.146692 -0.151541 -0.121614 -0.12164 -0.121224 -0.120655 
-0.122232 -0.12221 -0.121743 -0.145082 -0.12216 -0.111771 -0.111704 -0.104305 -0.103663 
-0.106023 -0.105562 -0.107832 -0.132725 -0.1293 -0.131461 -0.0981129 -0.118978 -0.120711 
-0.113674 -0.111702 -0.115622 -0.113307 -0.132721 -0.139284 -0.134784 -0.0901778 -0.114667 
-0.114829 -0.116029 -0.116219 -0.120467 -0.114649 -0.114555 -0.113974 -0.109688 -0.107943 
-0.12653 -0.12419 -0.123002 -0.119701 -0.120098 -0.102755 -0.114709 -0.112297 -0.119704 
-0.120918 -0.120468 -0.121915 -0.110738 -0.109597 -0.110223 -0.112192 -0.112049 -0.110614 
-0.120778 -0.114762 -0.115512 -0.112058 -0.110535 -0.110806 -0.1217 -0.14549 -0.116271 
-0.116355 -0.110527 -0.10781 -0.107384 -0.16131 -0.156301 -0.160084 -0.156527 -0.121666 
-0.122951 -0.121778 -0.120542 -0.120588 -0.120401 -0.120446 -0.110269 -0.109737 -0.107754 
-0.107157 -0.121171 -0.121478 -0.121239 -0.10688 -0.177014 -0.142595 -0.107582 -0.105346 
-0.107812 -0.116732 -0.113417 -0.113057 -0.113852 -0.112886 -0.110847 -0.112284 -0.10376 
-0.0984793 -0.110942 -0.108139 -0.15584 -0.103602 -0.101942 -0.106215 -0.115063 -0.125476 
-0.125813 -0.120694 -0.140324 -0.142892 -0.144982 -0.120596 -0.123957 -0.121551 -0.124957 
-0.112142 -0.111711 -0.151269 -0.149872 -0.121119 -0.125553 -0.131027 -0.137773 -0.127512 
-0.12892 -0.124733 -0.133386 -0.133778 -0.130568 -0.159574 -0.15171 -0.121888 -0.121972 
-0.121231 -0.120264 -0.120395 -0.120624 -0.116089 -0.114178 -0.11702 -0.131857 -0.133702 
-0.166692 -0.12028 -0.0819912 -0.108427 -0.118373 -0.119101 -0.118829 -0.129782 -0.127172 
-0.128457 -0.126129 -0.120053 -0.120118 -0.111695 -0.110925 -0.122121 -0.121054 -0.120853 
-0.119934 -0.119791 -0.119423 -0.110684 -0.109377 -0.110992 -0.195478 -0.169871 -0.116296 
-0.120261 -0.121556 -0.120841 -0.154759 -0.165859 -0.16259 -0.158057 -0.114569 -0.113963 
-0.115029 -0.142704 -0.144678 -0.129158 -0.130664 -0.110883 -0.109859 -0.143445 -0.110491 
-0.115339 -0.11729 -0.115662 -0.0906095 -0.09673 -0.0998535 -0.115317 -0.115966 -0.11569 
-0.147115 -0.14705 -0.122631 -0.159619 -0.113544 -0.112446 -0.113133 -0.152968 -0.151075 
-0.128983 -0.137903 -0.0992404 -0.137918 -0.119229 -0.149555 -0.148393 -0.15057 -0.150481 
-0.119648 -0.119306 -0.117765 -0.113216 -0.114231 -0.1138 -0.101426 -0.119475 -0.119745 
-0.119771 -0.121239 -0.120343 -0.120156 -0.12055 -0.119632 -0.119386 -0.120238 -0.119326 
-0.148996 -0.146298 -0.117489 -0.103943 -0.106913 -0.103889 -0.106698 -0.149001 -0.13733 
-0.135084 -0.117462 -0.117836 -0.0993135 -0.156866 -0.15525 -0.155809 -0.101786 -0.123981 
-0.124109 -0.110014 -0.110729 -0.126426 -0.105769 -0.102107 -0.12206 -0.116597 -0.115715 
-0.114202 -0.113613 -0.114576 -0.120983 -0.143 -0.0988436 -0.112678 -0.120523 -0.120882 
-0.111703 -0.103984 -0.0827268 -0.100158 -0.107215 -0.108071 -0.109186 -0.110536 -0.106882 
-0.113395 -0.102761 -0.106797 -0.139159 -0.152045 -0.152424 -0.154737 -0.110325 -0.145615 
-0.14414 -0.142499 -0.144881 -0.118252 -0.118454 -0.123143 -0.120563 -0.11399 -0.124229 
-0.124664 -0.119153 -0.11793 -0.122879 -0.121414 -0.122624 -0.123424 -0.122179 -0.118769 
-0.117583 -0.1107 -0.109171 -0.101714 -0.0945714 -0.143332 -0.1525 -0.163085 -0.169086 
-0.137737 -0.110146 -0.109961 -0.123035 -0.122817 -0.123108 -0.122942 -0.121537 -0.117099 
-0.118169 -0.119791 -0.120776 -0.1226 -0.122945 -0.116108 -0.117076 -0.115402 -0.11825 
-0.119182 -0.111279 -0.117607 -0.142206 -0.110452 -0.120136 -0.120787 -0.161226 -0.108257 
-0.133478 -0.103583 -0.10318 -0.119991 -0.122256 -0.120123 -0.150265 -0.119888 -0.120219 
-0.12048 -0.106515 -0.119413 -0.119271 -0.148351 -0.146981 -0.114329 -0.106505 -0.158599 
-0.160185 -0.158345 -0.159968 -0.115182 -0.113865 -0.114446 -0.104155 -0.110781 -0.110258 
-0.10902 -0.147022 -0.114415 -0.115178 -0.119947 -0.118696 -0.107122 -0.109768 -0.130166 
-0.128088 -0.137512 -0.134301 -0.138532 -0.12569 -0.10757 -0.131469 -0.134922 -0.121877 
-0.114025 -0.115269 -0.116149 -0.151732 -0.153826 -0.127614 -0.130123 -0.130629 -0.110008 
-0.152734 -0.121551 -0.123465 -0.124818 -0.124254 -0.126633 -0.124235 -0.125782 -0.121527 
-0.108462 -0.148119 -0.147958 -0.145356 -0.117893 -0.112211 -0.123442 -0.109154 -0.118658 
-0.117964 -0.118469 -0.135377 -0.137122 -0.116013 -0.113555 -0.115623 -0.11142 -0.112471 
-0.1118 -0.120699 -0.154449 -0.152854 -0.15317 -0.136745 -0.136763 -0.120128 -0.114461 
-0.113206 -0.113499 -0.108472 -0.115474 -0.114588 -0.155907 -0.115804 -0.115142 -0.109239 
-0.100396 -0.100439 -0.103532 -0.119856 -0.119702 -0.11449 -0.114965 -0.12251 -0.121309 
-0.113267 -0.113951 -0.115473 -0.112216 -0.111513 -0.151763 -0.157897 -0.147447 -0.144652 
-0.120187 -0.159088 -0.164347 -0.164564 -0.114673 -0.0981156 -0.143728 -0.144732 -0.119975 
-0.119853 -0.143041 -0.13755 -0.136089 -0.109054 -0.113447 -0.120717 -0.120125 -0.117142 
-0.102047 -0.101024 -0.108482 -0.139131 -0.122938 -0.12401 -0.113137 -0.116289 -0.118281 
-0.112728 -0.1465 -0.119441 -0.124602 -0.11614 -0.118439 -0.116822 -0.115039 -0.117492 
-0.117331 -0.114147 -0.146382 -0.14711 -0.144422 -0.110666 -0.119502 -0.118621 -0.119421 
-0.169313 -0.104274 -0.115978 -0.114244 -0.117942 -0.120054 -0.108695 -0.106905 -0.109529 
-0.13542 -0.119894 -0.109613 -0.120141 -0.118256 -0.118489 -0.117937 -0.156231 -0.155676 
-0.138721 -0.127872 -0.118248 -0.118717 -0.118748 -0.133103 -0.101313 -0.100458 -0.121026 
-0.118126 -0.112932 -0.120725 -0.147302 -0.145671 -0.109731 -0.120264 -0.112847 -0.121883 
-0.123319 -0.125264 -0.0997053 -0.142927 -0.123792 -0.12121 -0.135554 -0.172501 -0.183234 
-0.148032 -0.150714 -0.148501 -0.110467 -0.108475 -0.108423 -0.110267 -0.13546 -0.108472 
-0.110333 -0.119624 -0.123118 -0.0957238 -0.0979316 -0.115116 -0.151776 -0.150088 -0.154032 
-0.116134 -0.119928 -0.120328 -0.122606 -0.143481 -0.146386 -0.119588 -0.121007 -0.115052 
-0.11611 -0.11508 -0.114664 -0.14938 -0.146195 -0.160158 -0.158957 -0.121948 -0.12093 
-0.121012 -0.1207 -0.103486 -0.115361 -0.114737 -0.11632 -0.11607 -0.1164 -0.100226 
-0.143219 -0.141589 -0.0821977 -0.121107 -0.120999 -0.109766 -0.121305 -0.114366 -0.113511 
-0.143823 -0.146183 -0.169873 -0.144039 -0.119427 -0.118112 -0.118554 -0.116339 -0.115943 
-0.116793 -0.111716 -0.111476 -0.112799 -0.120557 -0.118045 -0.141839 -0.138087 -0.121532 
-0.122341 -0.17332 -0.11805 -0.117727 -0.105339 -0.118194 -0.116087 -0.116576 -0.115542 
-0.100953 -0.103553 -0.111056 -0.126498 -0.0995662 -0.0971953 -0.115197 -0.0992329 -0.124204 
-0.095713 -0.120276 -0.105086 -0.099008 -0.0939904 -0.0976828 -0.102374 -0.154327 -0.123304 
-0.125081 -0.122774 -0.114654 -0.115757 -0.108612 -0.108854 -0.109107 -0.124033 -0.121411 
-0.143706 -0.137751 -0.150182 -0.111445 -0.112324 -0.141447 -0.13997 -0.108387 -0.108998 
-0.0930218 -0.119474 -0.118741 -0.118496 -0.11967 -0.115065 -0.11445 -0.115467 -0.126086 
-0.121585 -0.121588 -0.112146 -0.112916 -0.120352 -0.120618 -0.120203 -0.120442 -0.102819 
-0.122475 -0.123447 -0.12391 -0.124925 -0.125386 -0.121098 -0.120094 -0.115665 -0.148657 
-0.117178 -0.116629 -0.105193 -0.11207 -0.111998 -0.115984 -0.116035 -0.116111 -0.116192 
-0.100336 -0.105038 -0.107522 -0.106611 -0.109052 -0.116949 -0.114817 -0.1102 -0.112373 
-0.102879 -0.112389 -0.112236 -0.112037 -0.109571 -0.114796 -0.114271 -0.114033 -0.125098 
-0.117483 -0.160911 -0.165393 -0.119029 -0.119352 -0.118381 -0.118826 -0.121048 -0.121099 
-0.121862 -0.119413 -0.120035 -0.159461 -0.120449 -0.12157 -0.120817 -0.120507 -0.121521 
-0.105237 -0.117008 -0.124009 -0.124344 -0.121274 -0.128224 -0.125154 -0.106472 -0.106613 
-0.11636 -0.116012 -0.116703 -0.115749 -0.127341 -0.184885 -0.182466 -0.134285 -0.119877 
-0.121223 -0.121198 -0.105205 -0.139994 -0.115784 -0.115726 -0.136283 -0.124906 -0.117659 
-0.117816 -0.11572 -0.119269 -0.113094 -0.110112 -0.106121 -0.105847 -0.108662 -0.109585 
-0.110274 -0.126572 -0.126844 -0.119522 -0.163844 -0.164001 -0.159466 -0.116484 -0.114653 
-0.115983 -0.114141 -0.119608 -0.119752 -0.11938 -0.109828 -0.164981 -0.099171 -0.0978908 
-0.107367 -0.101652 -0.112911 -0.120085 -0.121215 -0.136991 -0.119259 -0.119614 -0.120605 
-0.121226 -0.119099 -0.117964 -0.090552 -0.119 -0.108382 -0.129759 -0.115934 -0.116346 
-0.113533 -0.121526 -0.121085 -0.140574 -0.135772 -0.125364 -0.108787 -0.108759 -0.104938 
-0.105511 -0.113634 -0.113012 -0.114328 -0.118572 -0.10898 -0.12014 -0.114837 -0.120794 
-0.120807 -0.120733 -0.119799 -0.131131 -0.128451 -0.115126 -0.115286 -0.116052 -0.116156 
-0.114827 -0.115762 -0.112563 -0.112401 -0.113873 -0.115681 -0.113479 -0.10886 -0.140252 
-0.142044 -0.119321 -0.110608 -0.118685 -0.116794 -0.115943 -0.116425 -0.1302 -0.159061 
-0.160224 -0.116014 -0.137969 -0.140967 -0.139848 -0.142738 -0.145575 -0.147971 -0.148768 
-0.162806 -0.158763 -0.119468 -0.1155 -0.104469 -0.119739 -0.100848 -0.113103 -0.11474 
-0.116556 -0.11869 -0.124713 -0.119159 -0.108712 -0.109055 -0.110412 -0.118867 -0.118638 
-0.119215 -0.112891 -0.112891 -0.110608 -0.117293 -0.114595 -0.120676 -0.11656 -0.116885 
-0.137904 -0.135188 -0.122793 -0.105578 -0.106217 -0.130567 -0.11904 -0.131171 -0.129752 
-0.11111 -0.132905 -0.110807 -0.110986 -0.113019 -0.117089 -0.11751 -0.108794 -0.115804 
-0.116583 -0.116427 -0.113133 -0.111535 -0.113163 -0.119039 -0.116159 -0.116319 -0.117935 
-0.116603 -0.105739 -0.106193 -0.119068 -0.0867296 -0.10768 -0.105622 -0.107641 -0.111143 
-0.114138 -0.136143 -0.139406 -0.137667 -0.111427 -0.118139 -0.10867 -0.105928 -0.14369 
-0.142389 -0.140553 -0.139067 -0.120885 -0.120467 -0.128176 -0.129623 -0.116869 -0.108406 
-0.131314 -0.120022 -0.123054 -0.122428 -0.120227 -0.12016 -0.116331 -0.148426 -0.151144 
-0.150054 -0.120143 -0.12828 -0.120472 -0.120638 -0.151281 -0.149613 -0.0979263 -0.0981527 
-0.115415 -0.146485 -0.120798 -0.120735 -0.120341 -0.121089 -0.122455 -0.122218 -0.147762 
-0.115992 -0.115875 -0.116151 -0.114012 -0.112999 -0.115597 -0.113951 -0.10025 -0.116136 
-0.116863 -0.117224 -0.111023 -0.134304 -0.116862 -0.149149 -0.158671 -0.152181 -0.152001 
-0.174116 -0.162174 -0.160653 -0.113815 -0.155448 -0.10852 -0.109909 -0.137281 -0.138965 
-0.139621 -0.137426 -0.140744 -0.139175 -0.143089 -0.118695 -0.122013 -0.132373 -0.142222 
-0.139573 -0.10838 -0.0841182 -0.0790603 -0.0581673 -0.0561031 -0.0592063 -0.141823 -0.130806 
-0.120104 -0.120072 -0.115222 -0.0934864 -0.117759 -0.120304 -0.113366 -0.113199 -0.115107 
-0.119495 -0.119085 -0.0694477 -0.129568 -0.131025 -0.132003 -0.122979 -0.118908 -0.144211 
-0.113921 -0.127609 -0.120209 -0.120565 -0.120378 -0.11932 -0.119639 -0.135822 -0.131222 
-0.129976 -0.133781 -0.131189 -0.135125 -0.128831 -0.149813 -0.148829 -0.128967 -0.116581 
-0.135753 -0.137202 -0.117893 -0.117428 -0.11851 -0.117985 -0.12852 -0.116222 -0.119428 
-0.121748 -0.105152 -0.113644 -0.144002 -0.112947 -0.116654 -0.117422 -0.12471 -0.12256 
-0.155681 -0.120234 -0.111948 -0.122657 -0.124441 -0.120181 -0.115112 -0.117504 -0.118667 
-0.118191 -0.115307 -0.126665 -0.12606 -0.127381 -0.12619 -0.121726 -0.114626 -0.138918 
-0.116914 -0.122065 -0.121476 -0.117698 -0.109802 -0.108671 -0.106352 -0.137805 -0.112359 
-0.11236 -0.139892 -0.132802 -0.147764 -0.121277 -0.142398 -0.138601 -0.182344 -0.12256 
-0.116735 -0.117487 -0.111923 -0.111896 -0.129312 -0.117649 -0.117809 -0.116675 -0.11684 
-0.120904 -0.120713 -0.114853 -0.119089 -0.132698 -0.134315 -0.132062 -0.134103 -0.133587 
-0.149694 -0.144618 -0.146309 -0.142075 -0.113188 -0.152418 -0.114508 -0.115042 -0.110579 
-0.170588 -0.144779 -0.172263 -0.112189 -0.101666 -0.138595 -0.103999 -0.103072 -0.115655 
-0.1157 -0.115285 -0.115397 -0.114621 -0.0925907 -0.0944485 -0.127443 -0.125859 -0.12579 
-0.0979274 -0.113628 -0.116521 -0.118488 -0.115957 -0.1194 -0.104213 -0.117639 -0.117987 
-0.118544 -0.118276 -0.118907 -0.0948774 -0.0871 -0.173274 -0.117615 -0.117844 -0.117316 
-0.111952 -0.122556 -0.122517 -0.0965502 -0.158807 -0.169091 -0.157884 -0.134766 -0.142329 
-0.130148 -0.109168 -0.153947 -0.153185 -0.0910229 -0.192187 -0.21197 -0.117373 -0.117471 
-0.115348 -0.114921 -0.0993838 -0.103217 -0.0994104 -0.163152 -0.157781 -0.114116 -0.117016 
-0.130263 -0.116152 -0.111723 -0.175451 -0.178362 -0.11891 -0.11704 -0.118448 -0.111507 
-0.113461 -0.113864 -0.157222 -0.15572 -0.155852 -0.163654 -0.1185 -0.157072 -0.156749 
-0.100183 -0.106579 -0.106419 -0.150847 -0.151277 -0.122471 -0.112277 -0.110901 -0.113489 
-0.120962 -0.120299 -0.115618 -0.098818 -0.118249 -0.110974 -0.126175 -0.130661 -0.128076 
-0.102712 -0.118272 -0.108121 -0.110051 -0.0969854 -0.15091 -0.140246 -0.114862 -0.119852 
-0.112478 -0.112633 -0.0601929 -0.113566 -0.11063 -0.10781 -0.0978946 -0.0903079 -0.117371 
-0.112599 -0.132977 -0.119779 -0.12089 -0.151167 -0.150286 -0.151533 -0.149323 -0.134051 
-0.116462 -0.120213 -0.115694 -0.121913 -0.122769 -0.108413 -0.108649 -0.107607 -0.138057 
-0.151631 -0.14967 -0.15196 -0.119491 -0.111888 -0.147319 -0.113707 -0.123382 -0.124591 
-0.125281 -0.11037 -0.147641 -0.108213 -0.105758 -0.141472 -0.150653 -0.152855 -0.112892 
-0.183676 -0.111492 -0.141412 -0.122315 -0.122922 -0.0982418 -0.104603 -0.118691 -0.119416 
-0.120314 -0.121278 -0.113472 -0.107367 -0.123012 -0.113194 -0.108379 -0.139354 -0.139453 
-0.0969835 -0.117245 -0.120237 -0.114862 -0.127862 -0.125719 -0.0986579 -0.15342 -0.0997795 
-0.127898 -0.121677 -0.123462 -0.119609 -0.119869 -0.141584 -0.141245 -0.144592 -0.119308 
-0.142643 -0.143651 -0.116054 -0.116468 -0.116158 -0.12034 -0.116027 -0.116131 -0.142527 
-0.14493 -0.112745 -0.112616 -0.1476 -0.143237 -0.145023 -0.113293 -0.133078 -0.144908 
-0.107278 -0.103551 -0.13817 -0.133829 -0.133251 -0.178716 -0.157598 -0.122933 -0.122746 
-0.133755 -0.123983 -0.127076 -0.120024 -0.112186 -0.157207 -0.153095 -0.149175 -0.108259 
-0.154477 -0.109892 -0.135978 -0.133078 -0.118255 -0.115886 -0.112232 -0.111972 -0.102163 
-0.121016 -0.109581 -0.120238 -0.119503 -0.154467 -0.15443 -0.111399 -0.127273 -0.126349 
-0.124952 -0.100392 -0.120605 -0.120864 -0.160655 -0.119311 -0.119285 -0.118201 -0.119427 
-0.122041 -0.122769 -0.129726 -0.116173 -0.123348 -0.121035 -0.13277 -0.131706 -0.115989 
-0.116725 -0.113028 -0.110706 -0.118452 -0.139766 -0.175877 -0.136915 -0.144105 -0.100423 
-0.117385 -0.110631 -0.117843 -0.180014 -0.118326 -0.16406 -0.113814 -0.113477 -0.114346 
-0.113373 -0.118376 -0.116643 -0.103807 -0.11166 -0.113445 -0.141576 -0.140049 -0.13563 
-0.114884 -0.109266 -0.126236 -0.106545 -0.112294 -0.153248 -0.153211 -0.152511 -0.1164 
-0.125067 -0.11551 -0.109042 -0.109928 -0.114831 -0.118589 -0.119196 -0.118012 -0.119948 
-0.123499 -0.122831 -0.117035 -0.116175 -0.115312 -0.115644 -0.0994131 -0.108578 -0.108246 
-0.110217 -0.11649 -0.144984 -0.117533 -0.118832 -0.11859 -0.128853 -0.121958 -0.121643 
-0.166154 -0.12369 -0.152222 -0.156341 -0.10696 -0.10845 -0.107727 -0.120343 -0.120676 
-0.126668 -0.111234 -0.111917 -0.112087 -0.156731 -0.157188 -0.117341 -0.157908 -0.117706 
-0.117059 -0.158648 -0.115084 -0.114086 -0.115371 -0.126509 -0.117696 -0.122642 -0.122766 
-0.120421 -0.150175 -0.149528 -0.118832 -0.141934 -0.122006 -0.142255 -0.153089 -0.117392 
-0.11773 -0.112458 -0.121014 -0.12114 -0.115835 -0.119907 -0.120093 -0.113833 -0.121887 
-0.0978765 -0.180796 -0.108888 -0.110697 -0.110124 -0.0938659 -0.130382 -0.113411 -0.114693 
-0.153979 -0.125546 -0.150813 -0.150723 -0.118049 -0.160934 -0.117193 -0.111139 -0.118935 
-0.119237 -0.122383 -0.124346 -0.12123 -0.117104 -0.108762 -0.118426 -0.131138 -0.132846 
-0.118873 -0.117606 -0.122413 -0.12337 -0.117062 -0.12153 -0.121824 -0.120114 -0.112302 
-0.127042 -0.131113 -0.112919 -0.113272 -0.142232 -0.148066 -0.115265 -0.121258 -0.139255 
-0.143468 -0.140564 -0.15309 -0.118206 -0.109173 -0.110177 -0.110035 -0.110879 -0.107508 
-0.112054 -0.112875 -0.130511 -0.118412 -0.120266 -0.117102 -0.111123 -0.111138 -0.110128 
-0.127441 -0.122424 -0.153199 -0.153021 -0.15677 -0.160199 -0.133453 -0.113149 -0.108053 
-0.114115 -0.117239 -0.106155 -0.113786 -0.103834 -0.107903 -0.120784 -0.119402 -0.154217 
-0.121696 -0.117105 -0.117922 -0.122226 -0.121386 -0.150066 -0.118726 -0.120999 -0.159334 
-0.15651 -0.115639 -0.151436 -0.0718939 -0.118933 -0.123518 -0.12246 -0.115636 -0.130987 
-0.176422 -0.164098 -0.138044 -0.117974 -0.120024 -0.119924 -0.121341 -0.120725 -0.110262 
-0.114169 -0.129284 -0.132088 -0.149659 -0.115976 -0.123634 -0.146801 -0.154065 -0.140792 
-0.128615 -0.115272 -0.128787 -0.128291 -0.114476 -0.118012 -0.13738 -0.1219 -0.146969 
-0.147298 -0.122039 -0.120345 -0.135125 -0.113998 -0.145846 -0.14278 -0.131804 -0.136064 
-0.139051 -0.14271 -0.142869 -0.118948 -0.135379 -0.132229 -0.116778 -0.10865 -0.11662 
-0.116044 -0.106609 -0.109482 -0.11471 -0.156323 -0.120104 -0.118305 -0.113086 -0.123199 
-0.120308 -0.122009 -0.112028 -0.147627 -0.13478 -0.155734 -0.116233 -0.145076 -0.150794 
-0.116575 -0.0999329 -0.115514 -0.120089 -0.122477 -0.126582 -0.122879 -0.117275 -0.113164 
-0.11757 -0.118243 -0.116501 -0.120404 -0.118908 -0.115703 -0.149851 -0.122184 -0.124453 
-0.122908 -0.134207 -0.142858 -0.151902 -0.146326 -0.114878 -0.114126 -0.11365 -0.10968 
-0.11825 -0.132541 -0.129576 -0.114243 -0.126474 -0.114474 -0.119009 -0.119439 -0.141852 
-0.127547 -0.119618 -0.152232 -0.1168 -0.152127 -0.151004 -0.101421 -0.10927 -0.109162 
-0.098224 -0.123799 -0.120944 -0.121556 -0.119544 -0.128702 -0.117304 -0.123935 -0.127759 
-0.121444 -0.129815 -0.125481 -0.130777 -0.110746 -0.107638 -0.120009 -0.121734 -0.114218 
-0.114489 -0.122288 -0.146919 -0.142499 -0.117337 -0.116207 -0.115991 -0.177589 -0.12044 
-0.124477 -0.158047 -0.11533 -0.113873 -0.104305 -0.140109 -0.158008 -0.155369 -0.152764 
-0.151297 -0.122263 -0.12214 -0.117443 -0.116999 -0.0782069 -0.100867 -0.122829 -0.125037 
-0.110154 -0.121968 -0.122844 -0.122098 -0.125957 -0.117828 -0.111305 -0.149521 -0.120876 
-0.142787 -0.117338 -0.117636 -0.117141 -0.12285 -0.121734 -0.121885 -0.12111 -0.121921 
-0.129088 -0.0793789 -0.118202 -0.118611 -0.192633 -0.119014 -0.119794 -0.073704 -0.0965027 
-0.0761179 -0.142681 -0.110376 -0.150297 -0.11648 -0.096349 -0.14537 -0.0987414 -0.0842879 
-0.116658 -0.112544 -0.128249 -0.136255 -0.114808 -0.117567 -0.0939312 -0.0923162 -0.0939071 
-0.0802786 -0.11828 -0.101281 -0.0822323 -0.120075 -0.120354 -0.0805619 -0.123335 -0.120466 
-0.123685 -0.0951831 -0.126006 -0.119094 -0.127757 -0.108684 -0.103809 -0.0462517 -0.107939 
-0.111775 -0.112927 -0.142866 -0.116115 -0.116316 -0.112028 -0.111049 -0.089327 -0.120102 
-0.118841 -0.158098 -0.146535 -0.114431 -0.122635 -0.126704 -0.109241 -0.085302 -0.172642 
-0.1328 -0.117043 -0.104819 -0.0909728 -0.157688 -0.101544 -0.138608 -0.114532 -0.107401 
-0.103 -0.104361 -0.119263 -0.0920162 -0.0900326 -0.150778 -0.134521 -0.0855277 -0.0837405 
-0.0829473 -0.102458 -0.130006 -0.114556 -0.106885 -0.123018 -0.12293 -0.0904625 -0.0803941 
-0.0811404 -0.0888862 -0.0931087 -0.0983773 -0.121979 -0.0819468 -0.0989735 -0.0754876 -0.11556 
-0.120661 -0.0917116 -0.0900462 -0.0946402 -0.0793162 -0.116722 -0.152383 -0.096498 -0.120562 
-0.121601 -0.118412 -0.127223 -0.0821196 -0.121419 -0.0968747 -0.120564 -0.154434 -0.0811722 
-0.0876932 -0.088793 -0.138536 -0.135031 -0.0978171 -0.113787 -0.147269 -0.158886 -0.0609463 
-0.123002 -0.123114 -0.122994 -0.0660733 -0.0883491 -0.0975965 -0.102486 -0.0826445 -0.0891908 
-0.081531 -0.0776051 -0.103148 -0.10443 -0.104261 -0.106928 -0.096353 -0.0870871 -0.0856999 
-0.0986538 -0.0847332 -0.0756112 -0.0987178 -0.114138 -0.114316 -0.113521 -0.0924612 -0.0914437 
-0.0901617 -0.0950555 -0.101001 -0.0975437 -0.0835112 -0.0915054 -0.0910639 -0.0875213 -0.084825 
-0.084546 -0.0912594 -0.0823382 -0.0700973 -0.100098 -0.0963868 -0.0873013 -0.0837889 -0.119679 
-0.104797 -0.120733 -0.096358 -0.0951626 -0.0916551 -0.0963435 -0.0860535 -0.0932703 -0.075023 
-0.0777192 -0.0876726 -0.0832649 -0.100369 -0.0979275 -0.0846937 -0.0868184 -0.097823 -0.0930881 
-0.0922869 -0.113369 -0.116419 -0.0796364 -0.0821677 -0.0779878 -0.0730016 -0.0955312 -0.0942568 
-0.0827649 -0.0903764 -0.0811013 -0.0965206 -0.0850557 -0.0878665 -0.0918982 -0.0788183 -0.104171 
-0.0893632 -0.091529 -0.0928604 -0.090783 -0.0892765 -0.0860152 -0.0842762 -0.113381 -0.114369 
-0.120965 -0.0945177 -0.0819283 -0.09697 -0.0963277 -0.0889612 -0.0789903 -0.106204 -0.0908006 
-0.0957056 -0.102495 -0.0937634 -0.0754672 -0.0979897 -0.0944651 -0.0901689 -0.100827 -0.0859399 
-0.0763628 -0.0693088 -0.111169 -0.09005 -0.098944 -0.0938571 -0.0927562 -0.084297 -0.0386133 
-0.0600052 -0.067715 
Stress%20xx%20component 1 13529 double
0.442529 0.484668 0.550334 0.477517 2.72421e-05 1.73439e-05 2.03184e-05 3.87622e-05 0.0420008 
0.00152783 -0.206091 -0.00279851 0.0875132 -0.311671 -0.0680242 0.0802933 -0.202859 0.0325436 
-0.0795708 -0.134823 0.0584114 -0.0880216 -0.168015 -0.0396258 0.102151 -0.234819 -0.0237723 
0.10256 -0.27776 0.0787964 0.00810377 -0.136967 -0.0583526 -0.0773116 0.0910577 0.0669299 
0.0889433 0.140348 -0.0846914 -0.0799557 0.0475293 0.0425842 0.0507399 0.0530458 0.0720649 
0.0560225 0.0778985 0.0777504 0.0836801 0.0949784 0.106269 0.129641 -0.212221 -0.224652 
-0.112897 -0.141878 -0.148151 0.0314801 0.0394332 0.0458239 0.0575268 0.0322716 0.0591056 
0.072588 0.0931631 0.100815 0.10904 0.119138 -0.115547 -0.213721 -0.225137 -0.23548 
-0.202389 -0.227291 -0.281978 -0.288028 0.0557852 0.0670761 0.0704022 0.0850258 0.118711 
0.133324 0.120233 0.0552643 0.0390622 0.0393587 0.0509199 0.0622915 -0.117677 -0.14263 
-0.126104 -0.115126 0.0370018 0.0572617 0.103134 0.0921811 0.0862528 0.0893086 0.119932 
0.0452482 0.052534 0.0580292 0.0583565 0.0719455 -0.209217 -0.144945 -0.243659 -0.240945 
-0.208573 0.177248 0.153098 0.103623 0.111732 0.0970508 0.0812312 0.0385851 0.0301345 
0.0427256 0.056079 0.0619748 0.0735354 -0.206314 -0.157628 -0.172828 -0.131554 0.134025 
0.102917 0.110072 0.0899814 0.0823676 0.0733432 0.0785557 0.0705104 0.0423369 0.0408704 
0.052881 0.0615424 0.0457969 0.0376624 0.0468399 0.0513862 0.0963057 0.164818 0.100772 
0.105128 0.0827983 0.0855598 0.0620168 0.0480466 -0.105187 -0.141395 -0.136863 -0.182471 
0.036277 0.0483012 0.0525954 0.0658612 0.0736904 0.14187 0.118098 0.106774 0.115518 
0.0840034 0.0803696 0.0534019 -0.190429 -0.226742 -0.215603 -0.257006 -0.17351 0.190911 
0.182792 0.178462 0.17129 0.169627 0.164848 0.171766 0.173049 0.17436 0.17031 
0.177941 0.177989 0.181004 0.172461 0.170956 0.170286 0.175257 0.174457 0.165484 
0.162671 0.172167 0.176742 0.181209 0.193091 0.204887 0.206172 0.182691 0.180648 
0.177259 0.176433 0.193387 0.176234 0.17856 0.18021 0.180471 0.199978 0.182735 
0.18448 0.184805 0.184788 0.19141 0.199513 0.188292 0.180189 0.178855 0.178795 
0.19282 0.184696 0.176245 0.179109 0.186134 0.198075 0.188345 0.000237629 0.000254773 
-0.000979281 -0.00290094 -0.00568526 -0.0089401 -0.0123569 -0.0162571 -0.0201909 -0.0234488 -0.026476 
-0.0287385 -0.0303309 -0.0311912 -0.0313044 -0.0304004 -0.0288927 -0.0264589 -0.0239073 -0.0206822 
-0.0168289 -0.0136102 -0.0101947 -0.00717279 -0.00457921 -0.00240369 -0.000768739 0.000132791 0.000345865 
-0.125703 -0.000812628 -0.00136871 -0.000610628 -0.000394358 -0.00039568 -0.000216321 -0.000145964 -0.000124865 
-0.000135853 -1.77332e-05 -0.000100489 -7.87126e-05 -8.4548e-05 -9.33506e-05 -5.39149e-06 -4.85421e-05 -1.43188e-05 
5.57272e-05 0.000153493 0.000182685 6.67323e-05 0.000211214 0.000132458 3.79516e-05 -2.36073e-05 -3.25128e-05 
-4.43052e-05 -6.25224e-05 -7.2623e-05 -2.31733e-05 -7.72141e-05 -7.25635e-05 -5.63496e-05 -4.47524e-05 -9.61175e-06 
-1.96068e-05 8.244e-06 9.32498e-06 2.55593e-05 4.012e-05 5.1015e-05 1.80177e-05 3.75636e-05 -2.1891e-06 
4.57304e-06 2.79963e-05 4.12713e-05 3.04564e-05 1.45389e-05 1.26035e-05 -3.92862e-06 -2.61863e-06 -1.89522e-05 
-3.13424e-05 -4.22821e-05 -2.6216e-05 -2.0762e-05 -4.97642e-05 -3.93061e-05 -5.18123e-05 -8.00568e-05 -4.97185e-05 
-1.1899e-05 2.68701e-05 7.92142e-05 0.00010181 2.62306e-05 0.00016245 9.07217e-05 5.14367e-05 5.35219e-05 
4.51765e-05 -1.635e-05 -4.38827e-05 -5.23236e-05 -2.7338e-05 -7.18901e-05 -8.95641e-05 -1.80963e-05 -0.000109923 
-3.81614e-05 -0.000152941 -0.000198783 -0.000274344 -0.000224323 -0.000766749 -0.00154643 -0.00279569 -0.142104 
0.0190214 0.0413128 0.0675266 0.0978895 0.093114 0.0825429 0.0602504 0.0541563 0.0741345 
0.0137656 0.0243526 0.0648492 0.0626981 0.0711929 0.0824131 0.0941434 0.0999075 0.072031 
0.0438582 0.02619 0.0226741 0.0280081 0.0745443 0.090294 0.0830903 0.0757768 0.0597995 
0.0455676 0.0515236 0.0206246 0.0019581 0.0563058 0.046666 0.0560303 0.0608958 0.085908 
0.0641796 0.0475147 0.0156061 0.0050618 0.000361161 -6.3812e-05 -0.00195387 -0.00485648 -0.00885582 
-0.0133915 -0.0184555 -0.0234066 -0.0269726 -0.0294888 -0.0311368 -0.0310685 -0.0296957 -0.0272263 
-0.023874 -0.0195526 -0.0150642 -0.0108044 -0.00675797 -0.00348328 -0.00114849 0.000133123 0.000212322 
-0.0154022 -0.00592665 -0.00124265 -0.00053704 -0.000302503 -0.000225823 -0.000170338 -0.000159956 -0.00013448 
-0.000141421 -0.000108869 -9.45268e-05 -8.91285e-05 -4.28054e-05 3.5705e-05 0.000118389 0.000224547 0.000246707 
0.000198138 0.000102304 1.90737e-05 -5.83106e-05 -8.93109e-05 -9.9505e-05 -0.000103689 -0.000104656 -8.5811e-05 
-6.67443e-05 -3.49995e-05 -2.53392e-05 -2.74846e-06 2.0648e-05 3.67036e-05 5.43685e-05 6.78138e-05 8.57333e-05 
4.16102e-06 3.86599e-05 4.10477e-05 5.07083e-05 4.96105e-05 1.78571e-05 5.98799e-06 -1.59758e-05 -3.24249e-05 
-4.57755e-05 -6.26396e-05 -7.40744e-05 -8.11502e-05 -7.39611e-05 -4.98025e-05 -4.1307e-05 5.38291e-06 5.36455e-05 
0.000130373 0.000141158 0.000189456 0.000149056 7.15354e-05 1.29431e-05 -2.04866e-05 -6.63533e-05 -7.66621e-05 
-8.94501e-05 -9.23582e-05 -0.000133615 -0.000133661 -0.000193498 -0.000331908 -0.00056004 -0.00111796 -0.00127895 
-0.0228702 0.02466 0.0308799 0.100096 0.0859552 0.0855571 0.0733417 0.0841509 0.0708072 
0.0687097 0.0378597 0.00468652 0.0790882 0.0537651 0.0632574 0.0750121 0.0848879 0.0889178 
0.105526 0.0666111 0.0470633 0.036988 0.0377455 0.0813947 0.0868958 0.0780515 0.0712623 
0.0517335 0.0597568 0.00542534 -0.0308146 0.0578206 0.0536396 0.0683457 0.086102 0.0754936 
0.112707 0.0827426 0.0430422 -0.0138132 0.0234766 0.0320254 0.0305947 0.0138754 0.00540467 
0.0098969 0.00623882 0.0147889 0.016092 0.0234065 0.0267955 0.0278641 0.0150918 0.00816567 
0.0163055 0.0213595 0.00655712 0.0137167 0.00938811 0.0292175 0.014827 0.0435124 0.0212255 
0.00599356 0.0160846 0.0315399 0.0232131 0.0159199 0.00897178 0.0380459 0.0267556 0.0194662 
-0.00417097 0.0263676 0.0331563 0.0110778 0.0411897 0.0238591 0.0131885 0.0164004 0.00375314 
0.0141417 0.0171183 0.0293054 0.0278859 0.00530391 0.0368427 0.0309164 0.0221384 0.0160894 
0.00367408 0.0188703 0.0324529 0.0127476 0.00337908 0.0437392 0.0117321 0.0301727 0.0242829 
0.0339003 0.029324 0.00894751 0.00325538 0.0134438 0.015 0.0189034 0.0297135 0.0298908 
0.0340348 -0.00422771 0.0107066 0.0123244 0.0206864 0.0184853 0.0162743 0.0480838 0.0245171 
-0.000390453 -0.00130795 -0.00283325 -0.00480069 -0.00732117 -0.0100575 -0.0130937 -0.0161106 -0.0188729 
-0.0213623 -0.0235268 -0.0250019 -0.0259887 -0.0262088 -0.0259982 -0.025032 -0.0235262 -0.0215827 
-0.0191751 -0.0164122 -0.0137637 -0.0110124 -0.00841866 -0.00612589 -0.00411871 -0.00241133 -0.00120707 
-0.000402058 -3.70998e-05 0.0146747 0.00510999 0.00343542 0.00215313 0.00134447 0.00100472 0.000643456 
0.000510708 0.000485649 0.000485252 0.000447421 0.000423921 0.000383387 0.000364876 0.000344361 0.000298573 
0.000183275 -2.03476e-05 -0.000395425 -0.000835304 -0.00108308 -0.00113648 -0.000794384 -0.000385025 -5.70566e-06 
0.000218349 0.000249353 0.000335174 0.00036925 0.000377231 0.000351547 0.000336487 0.00031119 0.000240794 
0.000178498 9.99632e-05 3.57678e-05 -1.78359e-05 -8.55564e-05 -0.000152196 -0.000202286 -0.00025545 -0.000249285 
-0.000233053 -0.000256693 -0.000175813 -0.00016841 -0.000128196 -7.39306e-05 -3.44204e-05 3.31248e-06 5.75903e-05 
0.000105048 0.000162075 0.000203067 0.000233742 0.000259991 0.00026058 0.000263713 0.000213808 0.000206984 
0.000134473 2.88898e-06 -0.000159797 -0.000386908 -0.000529833 -0.00065316 -0.000665547 -0.000517315 -0.000309606 
-0.00016896 -1.09789e-05 0.000106165 0.000205806 0.00021448 0.000239646 0.000277753 0.000318548 0.000326071 
0.000343257 0.000398101 0.000526672 0.000718639 0.000955398 0.00169312 0.00319433 0.00680219 0.0175583 
0.0639552 0.0732866 0.0776215 0.0842814 0.0862479 0.0854497 0.0788072 0.0893691 0.0904103 
0.0919622 0.0890608 0.0812224 0.089581 0.0920998 0.0918914 0.0885462 0.0807427 0.0865186 
0.0879127 0.089192 0.0881813 0.0857644 0.0770456 0.0843367 0.0852171 0.082308 0.0739048 
0.064036 -0.00891939 -0.00601144 -0.0168305 -0.0239429 -0.0229537 -0.0205898 -0.015944 -0.00590598 
0.0110928 0.0355879 0.0631541 0.0424177 0.0334772 0.0135094 -0.00592587 -0.0164456 -0.0200401 
-0.0218102 -0.0214136 -0.0138201 -0.0027978 -0.0138088 -0.0132568 -0.000908546 -0.0111457 -0.0194393 
-0.0211803 -0.019115 -0.0138982 -0.00356309 0.014217 0.0286874 0.0274414 0.0363395 0.0301683 
0.00907374 -0.00722648 -0.0159785 -0.0199036 -0.0222148 -0.0220862 -0.0146636 0.000741225 -0.0147682 
-0.0441509 -0.0072706 0.0124898 -0.0363687 -0.0259965 -0.0206371 -0.00220763 -0.00388915 -0.00578971 
-0.00801829 -0.0103638 -0.0128656 -0.0151074 -0.0172416 -0.0191024 -0.0205424 -0.0214492 -0.0219659 
-0.0220226 -0.0214974 -0.0205364 -0.0190726 -0.0172835 -0.0152144 -0.0131052 -0.0109491 -0.00877203 
-0.00673361 -0.00499761 -0.00341692 -0.00208495 -0.00101468 -0.00803401 0.023948 0.0132643 0.00831312 
0.00522565 0.00375075 0.00287184 0.00235391 0.00217509 0.00202565 0.00189743 0.00177784 0.00166613 
0.00149852 0.0012464 0.000844736 0.000251254 -0.000771417 -0.00218131 -0.00385624 -0.00491049 -0.00407654 
-0.00236364 -0.000790097 0.000360485 0.000913145 0.00119108 0.00135127 0.00148409 0.00151121 0.0014357 
0.00130773 0.0011286 0.000861302 0.000577365 0.00027912 -4.84769e-06 -0.00028289 -0.000532512 -0.000759748 
-0.00100771 -0.00113831 -0.000938055 0.0470994 0.042887 -0.000664329 -0.000651121 -0.0005543 -0.00041832 
-0.000242539 -4.48923e-05 0.000165869 0.00036463 0.000581915 0.00076139 0.000906629 0.000996712 0.00109389 
0.0011134 0.0010674 0.00089523 0.000596478 0.000128339 -0.00047062 -0.00120635 -0.00200195 -0.00256039 
-0.00273743 -0.00226231 -0.00161184 -0.000836484 -0.000148171 0.000345207 0.000695002 0.000957828 0.00109507 
0.00123725 0.00134941 0.00152914 0.00169501 0.00189516 0.00238583 0.00304562 0.00429326 0.00681102 
0.0119989 0.0229493 -0.0267493 0.0603765 0.0706111 0.0787612 0.0836562 0.086747 0.0883981 
0.08948 0.0902982 0.091938 0.0917291 0.0918996 0.092128 0.0918004 0.0918944 0.0917834 
0.0924686 0.0901677 0.0892581 0.0875129 0.0865824 0.0854779 0.0836256 0.0806341 0.0729114 
0.0601459 -0.00180205 0.0224976 -0.00300411 -0.0115048 -0.0096234 -0.00392077 0.00652816 0.0212917 
0.0389256 0.0454567 -0.0161901 0.0362442 0.0411979 0.00593285 -0.00399112 -0.00900995 -0.0097769 
-0.00554746 4.91933e-05 -0.0040434 -0.0192966 0.00899432 0.000981575 -0.00136472 -0.00798369 -0.00743388 
-0.00281711 0.00612556 0.0189754 0.032484 0.0285763 0.00024358 0.0297043 0.0325513 0.00478226 
-0.00344695 -0.00834882 -0.0090119 -0.00546545 -3.06466e-05 -0.00508191 0.0206034 -0.00431319 0.0169689 
-0.0253511 0.00280962 -0.0192406 -0.00814399 -0.00444333 -0.00600815 -0.00793704 -0.00998193 -0.0120445 
-0.0138548 -0.0155402 -0.0168423 -0.0176662 -0.0181885 -0.0184632 -0.0185861 -0.0179968 -0.0166943 
-0.015221 -0.0136682 -0.012001 -0.0102406 -0.00842675 -0.00671525 -0.00508294 -0.00362968 -0.00244553 
-0.00141875 -0.0012336 -0.00246823 -0.0142004 0.0391164 0.0141783 0.0228411 0.0150596 0.010326 
0.00774517 0.00624732 0.00544115 0.00492643 0.00452811 0.00418844 0.00382664 0.00343532 0.00292089 
0.00219963 0.00119143 -0.000230592 -0.00273594 -0.00589403 -0.0108274 -0.0101357 -0.00672944 -0.00275232 
-1.38603e-06 0.00136982 0.00210067 0.00262274 0.00295512 0.00316038 0.00319466 0.00298229 0.00258741 
0.00210484 0.00147477 0.0008527 0.000222464 -0.000371661 -0.000914746 -0.00136567 -0.00191954 -0.00259172 
-0.0194861 -0.00140768 -0.00105155 -0.000694607 -0.000325481 0.000126839 0.000589918 0.00108899 0.0015211 
0.00187046 0.00215828 0.00235048 0.00241473 0.00237591 0.00206973 0.00156423 0.000758086 -0.000421389 
-0.00177765 -0.0034056 -0.00508951 -0.00605814 -0.00535838 -0.00393566 -0.0024885 -0.000851911 0.000395212 
0.00131226 0.00193911 0.00242792 0.00281145 0.00318001 0.00346513 0.00383099 0.00442584 0.00547045 
0.00701409 0.00958133 0.0139545 0.0188606 0.0356927 0.00889204 -0.00324409 0.0542243 0.0640861 
0.068474 0.0719191 0.0741602 0.0757734 0.0769904 0.0776577 0.0774385 0.0774571 0.0770729 
0.0771587 0.077636 0.0774758 0.0763103 0.0749656 0.0734636 0.0713969 0.0693249 0.0669172 
0.0632066 0.0590274 -0.0014095 0.00123299 0.00205429 0.0103784 0.0210755 0.0323729 0.0365301 
0.00167769 -0.00735972 -0.0020001 0.00854124 -0.00128769 0.000468147 -0.000623492 0.00145521 0.0251512 
0.00805882 0.00756363 -0.000870814 0.0163202 0.0238844 0.0230393 -0.00626756 -0.00745239 4.90918e-06 
0.00802995 -0.000194033 0.000206222 0.00247653 -0.0108629 -0.0158839 0.00879895 0.0294703 -0.0161885 
-0.0124673 -0.000278038 0.0280441 0.0015097 -0.00742968 0.000612325 0.0169638 0.018936 0.0226904 
-0.00588389 0.0158069 -0.0020264 0.0345506 0.0255571 -0.00377332 -0.0115526 -0.00554447 -0.00720819 
-0.00903219 -0.0107703 -0.0123596 -0.0139611 -0.0145268 -0.0151639 -0.0154557 -0.0156302 -0.0158781 
-0.0144783 -0.0130362 -0.0116467 -0.0104517 -0.00896578 -0.00751333 -0.00602424 -0.00461548 -0.00341696 
-0.00224214 0.0121726 -0.0101148 0.0420542 0.0298888 0.0215674 0.0162558 0.0129381 0.0107852 
0.00948789 0.00865341 0.0078981 0.00707703 0.00627152 0.00520688 0.0039883 0.00256305 -0.000943765 
0.00186673 0.00265015 0.00345214 0.00426398 0.00491318 0.00523081 0.00519495 0.0047536 0.00395509 
0.00290549 0.00180189 0.000727745 -0.000330996 -0.00130541 -0.00200602 -0.00255013 -0.00139224 -0.00094847 
-0.00028086 0.000534245 0.00139463 0.00222382 0.00293563 0.00355652 0.00396801 0.00404082 0.00398591 
0.00377589 0.00308608 0.00195897 0.000288399 -0.00182974 -0.00390755 -0.00691118 -0.010508 -0.00527795 
-0.00250323 2.81686e-05 0.00172994 0.00283668 0.00387985 0.00472912 0.00540749 0.00609582 0.00683961 
0.00789313 0.00950776 0.0118002 0.0153168 0.0210475 0.0301038 0.0156291 0.00247397 0.00288101 
0.0467073 0.0512178 0.0555376 0.0587516 0.0613726 0.0631719 0.0641593 0.0640452 0.0635827 
0.0631813 0.0629194 0.0632696 0.063448 0.0625587 0.0614373 0.060293 0.0581801 0.0556369 
0.0526199 0.0482505 0.0107521 0.019803 0.00622581 -0.0014676 0.0275306 0.0316445 0.0134955 
0.0049977 -0.00152182 0.00938736 -0.00864619 0.0182051 0.00832478 0.00496747 0.0184172 0.00263158 
0.00472917 0.00623946 0.0130214 0.00295416 0.00931437 -0.00138757 -0.00500955 -0.00220476 0.00337375 
0.0139818 0.00101525 0.0214109 0.0185036 0.0156882 -0.0100074 -0.0071813 -0.00729122 0.0239868 
0.000705428 0.0289782 0.00171585 0.0281282 0.00309066 0.00820586 0.0165555 0.00148345 0.017934 
-0.00586672 1.03641e-05 0.0193804 -0.00485486 -0.00627796 -0.00793185 -0.00941928 -0.0110775 -0.0128421 
-0.0131049 -0.0131525 -0.013297 -0.0112831 -0.00957608 -0.00812886 -0.00744946 -0.00578345 -0.00513155 
-0.00380736 -0.00285283 -0.00209359 0.0175295 0.0368353 0.0279116 0.0218824 0.0178635 0.0154846 
0.0140508 0.0130828 0.0117629 0.0100212 0.00820428 0.00576061 0.00599134 0.00697748 0.00756105 
0.00740516 0.00636019 0.00476814 0.00302136 0.00139045 -0.000241147 -0.00170712 -0.00279997 -0.00362535 
0.0209297 -0.001294 -0.00016188 0.00122786 0.00251552 0.00370492 0.00486428 0.00580797 0.00611434 
0.0056313 0.00578435 0.00507089 0.0036313 0.00160573 -0.001282 -0.0011866 0.00172928 0.00358952 
0.00516233 0.00653169 0.00793184 0.00890649 0.0100865 0.0118944 0.0140172 0.0167033 0.0206968 
0.0267002 0.0351615 -0.00143286 0.0444584 0.0475303 0.049778 0.0512017 0.0518869 0.0510773 
0.0498903 0.0490443 0.0489553 0.0495626 0.0498759 0.0490482 0.0478665 0.0467459 0.0446591 
0.0417385 0.0276671 0.0175469 0.0122077 0.0234239 0.0141077 0.00446852 0.0282181 0.0113046 
0.0141917 0.0112929 0.00775016 -0.0062626 0.00949391 0.00261024 -0.00987454 0.020639 0.0119456 
0.025586 0.00909388 0.021714 0.02047 -0.00530816 0.023675 -0.00727486 0.0399748 0.00568506 
0.028429 -0.00891259 0.0139808 0.0137759 0.00712429 0.00812007 0.0186277 0.0139525 0.00123079 
0.0053591 -0.00486489 -0.00650486 -0.00688559 -0.00735056 -0.0107477 -0.0113976 -0.0107299 -0.00799316 
-0.00600645 -0.00390674 -0.00263916 -0.00164979 0.012486 0.00800923 0.0263892 0.0220483 0.0196597 
0.0184843 0.0146251 0.0108704 0.00957993 0.00719934 0.00451136 0.00198242 -0.000331415 -0.00221935 
0.00236957 0.00400403 0.00549632 0.00739514 0.00844445 0.026301 0.0126432 0.00386415 0.00612807 
0.0077221 0.0102087 0.0121363 0.0129384 0.0183822 0.021199 0.0254178 0.0315713 0.0144498 
0.0355607 0.0384343 0.0398983 0.0408726 0.0420542 0.0371067 0.038564 0.0335577 0.0375676 
0.0370785 0.039391 0.035416 0.0367268 0.0358215 0.0330119 0.0249119 0.00301545 -0.00373467 
0.00927804 0.0179948 0.0260631 3.44451e-05 0.0277457 -0.00206845 0.0158592 0.0270572 0.0193477 
0.0232731 -0.00239054 0.00993206 0.00965615 0.00524291 0.0245582 0.0225985 0.0293682 0.0250981 
0.0231123 0.0108526 0.0274764 0.00251974 -0.00168591 -0.00340665 0.00641601 0.000833372 0.02222 
0.00587511 0.0104312 0.0061631 0.0292431 0.0287537 0.0292171 0.0174402 0.0250842 0.0248084 
0.0288759 0.031806 0.0328952 0.0335519 0.0246286 0.0281353 -0.000590031 -0.00205934 -0.00420082 
-0.00711 -0.0102935 -0.014198 -0.0177614 -0.0210728 -0.0233429 -0.0248378 -0.0255268 -0.0248885 
-0.0234174 -0.0212376 -0.0182211 -0.0149517 -0.0116422 -0.0083087 -0.00546045 -0.00315265 -0.00143225 
-0.00038478 0.0434229 0.00688225 0.00308819 0.0015116 0.00105116 0.000854536 0.000743863 0.000665059 
0.000635101 0.000589976 0.000565904 0.000453605 0.000344101 0.000114326 -0.000319797 -0.00108634 -0.00160384 
-0.00144659 -0.000885411 -0.000248136 0.00018141 0.000441315 0.000519387 0.000535308 0.000565761 0.000484134 
0.000403287 0.000317534 0.000195037 5.80142e-05 -5.83151e-05 -0.000148762 -0.000231035 -0.000350304 -0.000501358 
-0.000231753 -0.000308484 -0.000278785 -0.00016223 -6.69486e-05 3.56056e-05 0.000130678 0.000220828 0.000289117 
0.000366028 0.000405438 0.000397201 0.000382788 0.000271535 0.000107531 -0.000166916 -0.000535184 -0.000865488 
-0.00102914 -0.000801779 -0.00053089 -0.000152145 0.000113024 0.000286837 0.000437253 0.000496954 0.000574602 
0.000585779 0.000673274 0.000909635 0.00123837 0.0019642 0.00375207 0.00686847 0.013227 0.0653507 
0.076313 0.0824058 0.0832859 0.0874891 0.0903617 0.0886071 0.0893002 0.0916672 0.0932617 
0.0926614 0.0912871 0.0903918 0.093793 0.0939859 0.0898338 0.0895875 0.0872793 0.0912873 
0.0856402 0.0827165 0.0747884 -0.0118459 -0.00197271 -0.0137562 -0.0221419 -0.0220777 -0.0196873 
-0.0138823 -0.00645166 0.0154341 0.0347976 0.0426385 0.0487962 0.0418872 0.0182238 -0.00343215 
-0.0145124 -0.0203498 -0.0223516 -0.0211856 -0.0127455 -0.000192788 -0.0123172 -0.00673811 -0.00214143 
-0.0162985 -0.0212965 -0.0199762 -0.0173385 -0.0111249 0.00541493 0.0324017 0.0469751 0.0486587 
0.0321226 0.0121769 -0.00608732 -0.0151756 -0.0192149 -0.0216058 -0.0201517 -0.0112831 -0.00915273 
-0.0161748 -0.022604 -0.0451626 -0.0356266 -0.00801904 -0.00403254 -0.00339492 -0.00185346 -0.0077207 
-0.010637 -0.0137493 -0.0164081 -0.0186423 -0.0200271 -0.02098 -0.0209475 -0.0200499 -0.0186022 
-0.0165444 -0.0141008 -0.0114734 -0.0087257 -0.00625541 -0.00417756 -0.00235049 -0.00305373 0.0102319 
0.0174896 0.0405092 0.00613582 0.00426603 0.0034427 0.00313044 0.0027839 0.00257982 0.00227138 
0.00198287 0.00156562 0.000966837 -0.000164832 -0.00251991 -0.00547297 -0.00605415 -0.00409181 -0.00183913 
6.32408e-05 0.00123395 0.0017455 0.00208804 0.00214721 0.00201402 0.00174668 0.00134035 0.000915418 
0.000464602 -9.71371e-06 -0.000431321 -0.000755013 -0.00112395 -0.00152864 -0.000793624 -0.00124633 -0.00102634 
-0.000470234 -9.29219e-05 0.000296591 0.000649459 0.00100861 0.00129917 0.00146654 0.00154916 0.00148071 
0.00127654 0.00082891 -1.98982e-05 -0.00127127 -0.00292171 -0.00386782 -0.003667 -0.00264755 -0.00138593 
-9.97765e-05 0.000783127 0.00144678 0.00193154 0.0022424 0.00245145 0.00277898 0.00335357 0.00475197 
0.00709703 0.012048 0.0219936 0.0401493 -0.0175588 0.0193 0.0688499 0.0562513 0.0785513 
0.0840789 0.0859326 0.0868916 0.08779 0.089204 0.0889385 0.0885954 0.0881263 0.0873543 
0.0869479 0.0863162 0.0854342 0.0834502 0.0809297 0.0799625 0.0745024 0.0645408 -0.0204062 
-0.0157787 0.0137329 -0.00193236 -0.00838203 -0.0114698 -0.00937937 -0.00399072 0.00597444 0.0201556 
0.0381662 0.0433873 0.0393199 0.0223857 0.00568509 -0.00458471 -0.00941331 -0.0100654 -0.00682724 
-0.000483267 -0.00240274 0.0156302 -0.000375278 -0.00759895 -0.00960868 -0.00702951 -0.000282259 0.0124656 
0.0275278 0.034476 -0.0228611 0.0316953 0.0170772 0.00367163 -0.00471358 -0.00901099 -0.0102158 
-0.00686033 -0.0012467 -0.00377534 -0.00528124 0.0419319 -0.000127612 0.0344368 -0.0165471 0.00282363 
-0.0250847 -0.00736835 0.0174856 -0.00710113 -0.00798573 -0.00778003 -0.00397451 -0.0127852 -0.0173168 
-0.0163748 -0.0173732 -0.0162784 -0.0146958 -0.0126641 -0.0105334 -0.00837327 -0.00622859 -0.0044877 
-0.00282862 -0.00975593 0.0269271 -0.00326684 0.0175155 0.0384571 0.00872124 0.00726882 0.00644613 
0.00591249 0.00542608 0.00457934 0.00370848 0.00263634 0.00117267 -0.00177272 -0.00559785 -0.00119525 
0.00151289 0.00278455 0.0036045 0.00409881 0.0043074 0.00402965 0.00325881 0.00238986 0.00139398 
0.000360327 -0.000606337 -0.00137286 -0.0017782 0.0655863 0.0363507 -0.0148393 -0.000636458 0.000172632 
0.0113199 -0.00175337 0.00122994 0.000901277 0.00164357 0.00232963 0.00285581 0.00317337 0.00313198 
0.00284944 0.00220158 0.00105644 -0.00104506 -0.00395997 -0.00793763 -0.00730448 -0.00667857 -0.00389609 
-0.00132807 0.00079253 0.00238961 0.00353896 0.00444705 0.00515643 0.00585919 0.0070267 0.00902672 
0.0121956 0.0188181 0.0144016 -0.0150827 0.0555802 -0.000984837 -0.00124998 0.0693934 0.0714296 
0.0724218 0.0730778 0.0735381 0.0735373 0.0733751 0.07265 0.0720404 0.0715127 0.0699309 
0.0675769 0.0643406 0.0611353 0.0602736 0.0091765 0.0352779 -0.0160492 -0.00132407 -0.00146441 
-0.00331372 -0.00236778 0.00172925 0.0094827 0.0202609 0.0311646 0.0315654 -0.0177357 0.00142169 
0.0206969 0.00894837 0.00119947 -0.00195131 -0.00204727 -0.000292141 0.0260099 -0.00245392 -0.00113914 
0.00321954 0.0114665 0.0209439 -0.0103094 -0.00515811 0.0159759 0.00734102 0.000889266 -0.0021044 
-0.00231456 -0.000697351 -0.00141378 0.0239225 0.025582 -0.00324164 0.0369055 -0.00425585 -0.00947062 
-0.00262897 0.00871009 -0.00810724 -0.0119122 0.0491685 -0.0139674 0.0295618 0.0183237 -0.000110064 
0.0262277 0.000805133 -0.0149008 -0.0127945 -0.0141613 -0.00908919 -0.00742678 -0.00566611 -0.00403592 
-0.0027566 -0.0109873 0.000831563 -0.0143183 0.010895 0.0137201 0.0101694 0.00876034 0.00663757 
0.00475243 0.00292539 0.000921434 0.00435411 0.00588864 0.00671659 0.00680876 0.00608175 0.00455869 
0.00285333 0.00111325 -0.000592776 -0.00202805 -0.00314564 0.055773 0.0382914 0.00195252 -0.000480004 
0.00316586 0.00424104 0.00500664 0.00531069 0.00497751 0.00415686 0.00283822 0.000819723 -0.00294226 
-0.00786234 -0.00875782 -0.0038315 -0.000376278 0.00279089 0.00508105 0.00705375 0.00854636 0.00972524 
0.0112745 0.0134537 0.0170777 0.0233564 0.0347226 0.000433373 0.00950395 0.00128934 0.0178823 
-0.00148896 0.0572143 0.0581562 0.0588631 0.0592939 0.0587342 0.058266 0.0579272 0.0569403 
0.055791 0.0534847 0.0506572 0.0461391 -0.0149191 0.0118118 -0.00548157 0.0258281 0.00123787 
0.00278689 0.00624111 0.01185 0.0191212 0.0263868 0.0301455 -0.00792402 0.00717588 0.0172999 
0.0181294 0.0105069 0.00482307 0.00337723 0.00167336 0.0203545 -0.00397324 0.00243221 0.00533383 
0.00991073 0.0160333 -0.00514216 0.0147485 0.00924242 0.00495772 0.00322164 0.00139725 0.0132029 
0.0529918 -0.00333567 0.00294769 0.0267267 0.0176364 0.0317153 -0.00719945 -0.0132541 0.0173962 
-0.0116579 0.0162268 0.00161176 -0.00574216 0.049051 0.0222855 -0.00194258 0.0231524 -0.00857917 
0.0188458 0.0200832 -0.00945436 -0.00330263 -0.00579105 0.0107259 0.0263983 0.0150029 0.000636036 
0.0158715 0.00863477 0.00961291 0.00921788 0.00764852 0.00489648 0.00219815 -0.00040143 -0.00262545 
-0.0043028 0.0452728 0.0132245 0.00165391 0.000197992 0.0066293 0.00336727 0.00761549 0.00730956 
0.00628636 0.00482728 0.00290965 -0.0125825 0.0217173 0.00559332 0.00872495 0.0116165 0.0139542 
0.0157847 0.0182286 0.0219083 0.0280243 0.0229589 0.0207062 0.0447187 0.0451513 0.0456497 
0.0448427 0.0447215 0.0435097 0.0426266 0.0413018 0.0383518 0.0346851 0.00337738 0.0304494 
0.00933411 -0.0128405 0.0255937 0.00513071 0.00875016 0.0118975 0.017238 0.0225205 0.00711071 
0.00888861 0.000235612 0.0204165 0.0440468 -0.0045929 0.00962647 0.00656245 0.0416193 0.0246503 
0.0153239 0.0273565 -0.0123951 -0.00727604 -0.00643376 -0.0117065 0.0183843 0.0229548 0.0163737 
-0.00933319 -0.0111094 -0.010181 -0.00744426 0.0241575 0.00199603 0.0301375 0.0371627 0.0167531 
0.0125057 0.00993814 0.00511166 0.0151245 0.0131283 -0.00138657 0.0157839 -0.00872494 0.0252081 
0.0103291 -0.00309897 0.0117206 -0.0109565 0.0207776 0.0121669 0.00349214 -0.000260098 -0.00328053 
-0.00590855 0.032841 8.09506e-05 0.0180335 0.0275141 0.00136191 0.0295115 0.0199792 0.022381 
0.0259904 0.0324098 0.0246543 -0.00950647 0.0355546 0.0335257 0.0328855 0.0291615 0.0328518 
0.0303491 0.0266067 0.00262729 0.00692986 0.00969776 0.0350168 0.0255683 0.00843067 -0.00821736 
-0.00322364 -0.010514 -0.00449892 0.0215711 -0.0110307 0.0208311 -0.00248033 0.00760416 -0.00514252 
-0.00792188 0.0351121 -0.0087454 0.00942565 0.013259 0.00744504 0.0324579 -0.00681665 0.00499493 
0.0127947 0.00422685 0.0240674 0.0101079 -0.00230316 0.029259 0.0237995 0.0289304 0.000154449 
0.0246208 -0.00938924 -0.00894563 1.04305e-05 0.000663353 0.00510137 0.025633 -0.00497281 -0.00457744 
0.0277139 -0.0438449 -0.082579 -0.0406523 -0.123693 0.139182 0.122115 0.160297 0.0389689 
0.0685836 0.0259449 0.0693266 0.0425239 0.0518617 0.0579725 0.0685475 0.107317 0.0348789 
0.067238 0.0916336 0.0755337 0.102818 0.117312 0.126654 0.198434 -0.243624 -0.256966 
-0.179005 -0.186 -0.180503 -0.126231 0.0356893 0.0403235 0.0492841 0.0593398 0.0970186 
-0.00602131 0.0455491 0.0704432 0.104182 0.0785683 0.123054 0.141692 0.220438 -0.211822 
-0.188185 -0.279004 -0.28811 -0.343428 -0.296208 -0.265748 -0.275317 -0.294329 -0.327315 
0.0516761 0.0604456 0.0967532 0.0652964 0.0905447 0.123897 0.14703 0.157836 0.0283418 
0.042744 0.0419622 0.0476212 0.0737123 0.106882 -0.128024 -0.169957 -0.183373 -0.108244 
-0.196027 0.00384796 0.0779917 0.0803936 0.0975726 0.0753716 0.073822 0.0838964 0.190874 
-0.023093 0.0560872 0.0553422 0.0624322 0.0703914 0.117678 -0.233883 -0.187019 -0.187511 
-0.285433 -0.312358 -0.245869 0.189646 0.156125 0.117943 0.107814 0.0942706 0.082712 
0.0774712 -0.0152915 0.00947285 0.0373819 0.0532659 0.0587868 0.0692414 0.136293 -0.208123 
-0.253427 -0.186143 -0.188028 -0.247933 0.194872 0.0801053 0.130737 0.0814726 0.0775703 
0.0744074 0.0985515 0.0609972 -0.0127387 0.0548008 0.0474033 0.0545121 0.0677645 0.108398 
0.0278459 0.0337731 0.0444903 0.0548654 0.0826153 0.130628 0.196594 0.138115 0.077496 
0.116179 0.0726758 0.0942176 0.059031 0.0378257 -0.199423 -0.180885 -0.184156 -0.189828 
-0.22346 0.01082 0.0463825 0.0492417 0.0635902 0.0790052 0.0863634 0.268153 0.0765499 
0.122786 0.120446 0.10567 0.0992057 0.0788147 0.0489351 -0.205025 -0.276259 -0.273433 
-0.28138 -0.208289 -0.238921 0.519037 0.540907 0.335031 0.210228 0.254573 0.24192 
0.237802 0.237805 0.243701 0.242623 0.244902 0.244803 0.253395 0.249487 0.251367 
0.253662 0.174644 0.174571 0.247578 0.244548 0.242422 0.167204 0.239253 0.242667 
0.252938 0.201037 0.311699 0.299264 0.215419 0.231592 0.246125 0.24405 0.241292 
0.225418 0.226729 0.242831 0.245647 0.245742 0.233197 0.235209 0.250835 0.25262 
0.250787 0.231994 0.194841 0.193715 0.22714 0.24417 0.243982 0.223445 0.190163 
0.223783 0.241658 0.247703 0.231835 0.21868 0.346659 0.000103906 0.000444388 -0.000193399 
-0.00175526 -0.00414344 -0.00723419 -0.0106388 -0.0143116 -0.0182681 -0.0218669 -0.0250705 -0.0277942 
-0.0297653 -0.0309301 -0.0314137 -0.0310097 -0.0298625 -0.027853 -0.0252786 -0.0223397 -0.018782 
-0.0152129 -0.011905 -0.00863349 -0.00578191 -0.00335358 -0.00144251 -0.000217416 0.000344031 0.000158984 
0.0398041 -0.0177908 -0.00461104 -0.00234288 -0.00106072 -0.000558811 -0.000580559 -0.000392603 -0.000269603 
-0.00026382 -0.000171546 -0.000175916 -0.000212545 -0.000175871 -0.000183738 -0.000119956 -7.58044e-05 -4.72345e-05 
2.73653e-05 0.000193615 0.000273566 0.000324236 0.000414154 0.000374194 0.000169087 1.43054e-05 -1.91875e-05 
-9.35414e-05 -0.000158649 -0.000159182 -0.000141567 -0.000109118 -0.00013111 -0.000149741 -0.000119877 -6.48391e-05 
-3.7296e-05 -1.23673e-05 1.37704e-05 4.55478e-05 7.28183e-05 8.8651e-05 0.000102683 7.20811e-05 4.84004e-05 
-1.47354e-05 -8.68372e-06 6.39998e-05 6.71239e-05 6.86982e-05 5.25902e-05 2.20619e-05 1.28449e-05 -9.57966e-06 
-3.0479e-05 -5.21304e-05 -5.46644e-05 -6.96658e-05 -9.02569e-05 -0.000124356 -0.000128912 -0.00010205 -0.000123659 
-7.23126e-05 -4.68332e-05 1.52889e-05 7.78025e-05 0.000127178 0.000162929 0.000277269 0.000270201 0.000236543 
0.000130473 5.85283e-05 -1.40681e-05 -5.1249e-05 -4.61665e-05 -7.60458e-05 -0.00017128 -0.000156416 -0.000116516 
-0.000135945 -0.000149781 -0.000304226 -0.000336637 -0.000331443 -0.000461775 -0.0011271 -0.00202777 -0.00414043 
-0.0131725 0.0724901 -0.0338898 0.0690079 0.0848518 0.0920213 0.117746 0.109019 0.0993044 
0.0442195 0.0472476 0.0508017 0.0708908 0.0684825 0.0365184 0.0885298 0.0886329 0.0980229 
0.108332 0.117752 0.0675444 0.0574872 0.05308 -0.000498635 -0.0170749 0.0520308 0.0802674 
0.112993 0.108794 0.0990907 0.0919314 0.0747435 0.062128 0.0115414 0.0691862 0.0562925 
0.0211665 0.0364987 0.0517292 0.0438658 0.0990531 0.0616318 0.0644992 0.0309147 0.0447216 
-0.0334142 0.000232468 0.000317119 -0.000735024 -0.00324684 -0.00672158 -0.0110544 -0.0159239 -0.021034 
-0.0253651 -0.0284153 -0.030587 -0.0314071 -0.0306654 -0.0286535 -0.0257195 -0.0218197 -0.0173366 
-0.0128899 -0.00868086 -0.00498015 -0.00215269 -0.000299921 0.000366823 9.89603e-05 0.120277 -0.0124495 
-0.00425285 -0.00144029 -0.000756608 -0.000500193 -0.000367671 -0.000350799 -0.000404043 -0.000272941 -0.000255948 
-0.000211389 -0.000235117 -0.000168771 -4.43516e-05 0.000138553 0.000418916 0.000673125 0.000558448 0.000338385 
8.16982e-05 -6.24402e-05 -0.000173988 -0.000212508 -0.000231218 -0.000271477 -0.000192482 -0.000162557 -0.000109141 
-6.04787e-05 -5.57768e-05 1.59405e-05 6.18274e-05 0.000104927 0.000144704 0.000201769 0.000180155 -7.46555e-05 
-2.62045e-05 5.65336e-05 0.000113515 0.000113429 6.23742e-05 4.17028e-05 -1.21031e-05 -5.65861e-05 -8.78541e-05 
-0.000145559 -0.000179205 -0.000161479 -0.000154232 -0.000184009 -0.000118496 -2.99146e-05 7.92547e-05 0.000232244 
0.000353177 0.000424978 0.000322751 0.000197512 7.45056e-05 -5.41416e-05 -0.000135406 -0.000174522 -0.000202531 
-0.000259283 -0.000334568 -0.00032359 -0.000390265 -0.000591453 -0.000966908 -0.00172223 -0.00282201 -0.00402571 
0.127272 -0.0195778 0.0869542 0.089047 0.0973753 0.101948 0.0966619 0.0812665 0.06176 
0.0655441 0.0416248 0.0806599 0.0883143 0.0117224 0.083494 0.0760687 0.0863282 0.0971775 
0.104479 0.0875412 0.0975019 0.0512567 -0.0152851 -0.00909496 0.0484484 0.108894 0.106747 
0.0982499 0.0860091 0.0860745 0.0785253 0.0364296 0.104925 0.0479564 0.0210976 0.0411474 
0.0653281 0.063847 0.082242 0.0844792 0.11328 0.071603 0.0533584 -0.0428825 1.8333e-05 
2.12344e-05 -0.212845 0.028474 -0.060019 -0.296058 -0.0354182 0.0662959 -0.179252 -0.0374819 
0.0665195 -0.127857 0.0207142 -0.0861559 -0.080195 0.092221 0.112511 -0.0926089 0.0246883 
0.0317002 0.0200835 0.0372201 0.0342759 0.029003 0.0373731 0.0344168 0.0301533 0.0525111 
0.0248444 0.0282095 0.0141238 0.0164739 0.00781738 0.00441726 0.0155476 -0.0122332 0.0219591 
0.0289357 0.020213 0.0242313 0.0284547 0.0367538 -0.00627589 0.0391195 0.0109153 0.0265193 
0.0274903 0.0120132 0.00138924 0.0185525 0.0296349 0.0154732 0.015634 0.0280477 0.0249656 
0.0193205 0.0254142 0.0207711 0.0160276 0.0242914 0.0208071 0.00620988 0.027864 0.0249643 
0.0164229 0.0242444 0.0293892 0.032289 0.0334843 0.0352254 0.029654 0.0532901 0.0275524 
0.0192024 0.00269986 0.00644312 0.00778084 0.00632201 0.015821 0.0154566 0.0202329 0.023154 
0.0232519 0.0187209 0.0351073 0.0367959 0.0239819 0.0298714 0.021231 0.0219172 0.004153 
0.0262742 0.00217606 0.0148317 0.0206511 0.0208506 0.0234949 0.0235464 0.0220192 0.0225928 
0.0193938 0.0179988 0.0273979 0.0234285 0.0197425 0.018399 0.0173263 -0.0096286 0.0470774 
0.028071 0.0276207 0.0190493 0.0146453 0.0237804 0.011293 0.00630878 0.0481527 0.0528941 
0.0374799 0.0466576 0.0197777 0.0318167 0.0350413 0.0397258 0.0250866 0.000299578 0.0342496 
0.0293612 0.00600064 0.0115137 0.010745 0.016273 0.0174654 0.0372034 0.0299638 0.0250823 
0.0336502 0.0186875 0.0241656 0.0179141 0.0390214 0.00350948 0.0272612 0.022852 0.0167822 
0.0209803 0.020486 0.0162397 0.0243974 0.0257171 0.0225403 0.029495 0.0189745 0.0239844 
0.0648263 0.0416237 0.0443661 0.0490815 0.0232751 0.0300443 0.0371675 0.02248 0.0211233 
0.023068 0.00589238 0.00472751 0.0248351 -0.0118874 0.0216534 0.0321265 0.0244466 0.0393058 
0.0372669 0.0292122 0.041321 0.0109111 0.0251452 0.00945246 0.00594131 0.00570624 0.000418032 
0.0188489 0.0187615 0.0378618 0.048492 0.0427115 0.0298378 0.0364534 0.0210245 0.0194128 
0.020057 0.025533 0.00361229 0.0230162 0.0270274 0.0262329 0.0253648 0.0192078 0.0289612 
0.0312346 0.0250385 0.0238564 -0.006393 0.003711 0.00326414 0.012328 0.0124898 0.012957 
0.0228241 0.0168846 0.0148671 0.0337845 0.0258809 0.0226607 0.0716059 0.0311722 0.0344284 
0.0393908 0.0323755 0.0330035 -0.000381217 0.0336404 0.0200448 0.0045874 0.0232675 0.0202328 
0.0159045 0.048744 0.0465124 0.0370045 0.0269692 0.0224773 0.0340248 0.0336634 0.0426241 
0.0286104 0.02246 0.0215211 0.0204441 0.0200711 0.0249081 0.0163239 0.00518096 0.0184779 
0.0165885 0.0270041 0.00675725 0.018141 0.020622 0.0238163 0.01943 0.0039073 0.00554792 
0.0168136 0.0204379 0.0240514 0.0298493 0.0228245 0.0534566 0.0291698 0.0399229 0.0387657 
0.0212904 0.0217598 0.0284027 -0.00335434 0.0212811 0.0209629 0.0238204 0.00147457 0.0538728 
0.0478052 0.00804405 0.00759763 0.044278 0.0215768 0.0178601 0.0332989 0.0356999 0.0336469 
0.0243395 0.0441526 0.0151253 0.0253247 0.00998204 0.00727339 0.0361837 0.0186618 0.0252779 
0.0261901 0.0319874 0.0238516 0.0400517 0.0383243 0.0298199 0.0367933 0.0326759 0.0290462 
0.0630629 -0.00318425 0.00266823 0.00568005 0.0279105 -0.00357975 -0.00393636 0.0111818 0.0123404 
0.0152312 0.0136373 0.0274407 0.0328107 0.0229619 0.0232725 0.0226805 0.021142 0.0432982 
0.0478024 0.0207473 0.0138393 0.0269344 0.0267303 0.0161756 0.0195865 0.0181514 0.0160826 
0.0267442 0.0115282 0.0237197 0.0210159 0.0305901 0.0324778 0.0347151 0.0331946 0.0363239 
0.0294927 0.0399107 0.042201 0.0340107 0.053376 0.0317113 -0.00722479 -0.0135109 0.0261814 
0.00957996 0.0110541 0.00449704 0.00639181 0.0106215 0.0101976 0.0247451 0.0195625 0.0165859 
0.0282943 0.0249792 0.0276353 0.0297664 0.0311768 0.0271432 0.0237822 0.0427546 0.0523778 
0.0645521 0.0214807 0.0132629 0.0473151 0.0277873 0.0505955 0.0260794 0.0243934 0.0244994 
0.0194424 0.026391 0.0387641 0.0282549 0.0203365 0.0187863 0.027051 0.0217938 0.0226014 
0.325481 0.337232 0.211271 0.21642 0.209173 0.198814 0.199864 0.193373 0.192862 
0.188898 0.187776 0.189502 0.189388 0.186852 0.193756 0.187105 0.192397 0.193549 
0.190561 0.195636 0.192392 0.195584 0.200294 0.19393 0.198469 0.198175 0.19639 
0.202511 0.200287 0.193017 0.193366 0.190993 0.191772 0.196276 0.195133 0.192608 
0.189688 0.19772 0.188964 0.184949 0.184402 0.189227 0.192365 0.199431 0.203628 
0.198562 0.218552 0.188542 0.189075 0.201395 0.185513 0.191768 0.197465 0.186684 
4.62211e-05 -0.000108269 -0.000162663 -0.000644575 -0.00125716 -0.000723211 -0.0020118 -0.00295371 -0.00191069 
-0.00393615 -0.00528797 -0.00370348 -0.00656033 -0.00815779 -0.00596598 -0.00952864 -0.0112281 -0.00865088 
-0.0127672 -0.0146695 -0.0115549 -0.0161873 -0.018095 -0.0146268 -0.0194863 -0.0211114 -0.0175474 
-0.0223651 -0.0238424 -0.0201934 -0.024928 -0.0260292 -0.0225837 -0.0267738 -0.0275441 -0.0244363 
-0.0280261 -0.0284856 -0.0256931 -0.0285951 -0.0286654 -0.0262891 -0.0285106 -0.028072 -0.0263035 
-0.0275991 -0.0268726 -0.0257074 -0.0261122 -0.024933 -0.0244445 -0.0239479 -0.0227032 -0.0226811 
-0.0214964 -0.0198859 -0.0204501 -0.0184897 -0.0166138 -0.0178443 -0.0152876 -0.0137107 -0.0151066 
-0.0123198 -0.0106437 -0.0123688 -0.00932785 -0.00784754 -0.00966177 -0.00668786 -0.00542699 -0.00719908 
-0.00440778 -0.00332914 -0.00502125 -0.00248144 -0.00167026 -0.00315232 -0.00105892 -0.000594171 -0.00168013 
-0.000206182 -6.32328e-05 -0.000705307 9.15245e-05 -1.6803e-05 -3.0932e-05 -0.000155281 -0.0362931 -0.0132485 
0.00603625 0.00654992 0.00281694 0.00471618 0.00258902 0.00189509 0.000967906 0.00141975 0.000956888 
0.0014028 0.000760908 0.000746868 0.00118273 0.000614908 0.000552256 0.000533753 0.000419539 0.000415393 
0.000334533 0.000271105 0.000290779 0.000231257 0.000281778 0.000254716 0.000217023 0.000228408 0.000285214 
0.000297856 0.000237656 0.000275691 0.000244993 0.000211812 0.000258287 0.000189435 0.00018337 0.000222379 
0.000216949 0.000183511 0.000191843 0.000229425 0.000144279 0.000207599 0.000253067 0.0001261 0.000194435 
0.00017994 7.679e-05 0.00011781 0.000146453 -1.51946e-05 9.19193e-07 2.31865e-05 -0.0002002 -0.000212249 
-0.000128748 -0.000452489 -0.000419209 -0.000385105 -0.000521786 -0.000553843 -0.000661469 -0.000656204 -0.000593186 
-0.000758411 -0.000488223 -0.000409435 -0.000581069 -0.000225594 -0.000183304 -0.000397025 -1.6776e-05 -4.04655e-06 
-0.000136694 0.000123814 7.82951e-05 7.72677e-05 0.00014226 0.000138851 0.00017639 0.00019853 0.000160216 
0.000227071 0.000212527 0.000183636 0.000226075 0.000227237 0.000188365 0.000208383 0.000203512 0.000167541 
0.000230748 0.000168556 0.000179065 0.000235809 0.00017513 0.000155419 0.000194257 0.000146474 0.000130564 
0.000157914 0.000105542 9.92892e-05 0.000134292 5.82749e-05 4.09879e-05 8.57219e-05 1.82613e-05 2.54797e-05 
4.77235e-05 -1.78024e-05 -1.02362e-05 -1.6496e-06 -4.58208e-05 -4.28811e-05 -2.962e-05 -8.0231e-05 -7.35056e-05 
-7.57011e-05 -0.000107365 -0.000104788 -0.000109198 -0.000145006 -0.000130567 -0.000135556 -0.000136065 -0.000123591 
-0.000166051 -0.00011301 -0.000117912 -0.000161611 -0.000111139 -0.000103299 -0.000165453 -0.000107861 -7.57473e-05 
-0.000180906 -9.80585e-05 -7.84953e-05 -0.000105308 -7.96382e-05 -6.03198e-05 -8.33114e-05 -5.51095e-05 -2.55242e-05 
-5.5941e-05 -2.0367e-05 -1.76708e-05 -3.82296e-05 2.7106e-07 3.56275e-06 -1.03963e-06 3.08213e-05 2.7052e-05 
1.95326e-05 5.61323e-05 5.00848e-05 4.77193e-05 9.47249e-05 7.55954e-05 7.16533e-05 9.50634e-05 9.38176e-05 
0.000118029 0.000145036 0.000120517 0.000123229 0.000154265 0.000143521 0.000158046 0.000154254 0.000145055 
0.000120382 0.000160401 0.000126434 0.000150032 0.000135153 3.10008e-05 0.000171189 0.000102248 0.000116876 
0.000158821 7.34261e-05 8.22189e-05 8.42836e-05 8.41879e-06 1.45244e-05 2.51452e-05 -8.08172e-05 -7.10141e-05 
-5.21411e-05 -0.000210444 -0.000181674 -0.000143049 -0.000262781 -0.000261718 -0.000294659 -0.000395478 -0.000331317 
-0.000396894 -0.000366401 -0.000326393 -0.000393819 -0.000314973 -0.000287548 -0.000337399 -0.000210422 -0.000126394 
-0.000268631 -8.34861e-05 -8.57683e-05 -0.00018158 -1.72595e-05 -3.79745e-05 -1.01383e-05 5.56665e-05 1.5783e-05 
7.13912e-05 0.000118981 8.33596e-05 8.83033e-05 0.000121208 0.000103097 0.000118467 0.000168491 8.75157e-05 
0.00017304 0.000181687 9.38039e-05 0.0001255 0.00018906 0.000116936 0.000146828 0.000211383 0.000149176 
0.000162789 0.000196858 0.000176737 0.000143036 0.000278029 0.000185146 0.000216977 0.000318186 0.000244537 
0.000122109 0.000453961 0.000317953 0.000180317 0.00053913 0.000521814 0.000379841 0.000973743 0.000975784 
0.000726207 0.00165464 0.00185377 0.000910978 0.0032171 0.00563623 0.00235721 0.0078052 -0.0103578 
0.00826451 0.0146683 0.12219 0.112418 0.10369 0.103055 0.0680184 0.108849 0.105083 
0.0868461 0.105962 0.10505 0.0941775 0.105281 0.106614 0.0950268 0.106525 0.101415 
0.0966727 0.0995732 0.106043 0.0915493 0.110213 0.109246 0.0994028 0.110608 0.110592 
0.0988969 0.109095 0.111653 0.100318 0.109136 0.104451 0.101507 0.10303 0.109781 
0.095222 0.113002 0.111805 0.104681 0.113071 0.112485 0.102667 0.111656 0.112318 
0.101833 0.110738 0.103575 0.101679 0.113422 0.11476 0.0902411 0.116273 0.112123 
0.0879325 0.102158 0.11003 0.0895692 0.108975 0.109161 0.0979127 0.108617 0.109933 
0.0975235 0.105606 0.101706 0.0974312 0.110844 0.108982 0.0868997 0.0993323 0.108168 
0.0873922 0.106716 0.105959 0.0933596 0.105971 0.109798 0.0928473 0.105401 0.106515 
0.0893916 0.106111 0.118451 0.0692255 -0.00202055 -0.0452241 -0.0115441 -0.00801376 -0.00499196 
-0.0182632 -0.0191462 -0.00938787 -0.0324143 -0.0320969 -0.0218814 -0.0269345 -0.024999 -0.0200989 
-0.024865 -0.0257235 -0.0179445 -0.0187054 -0.0234178 -0.014955 -0.0130132 -0.0196191 -0.0117609 
0.00248069 -0.0100951 3.41676e-05 0.0313276 0.0309534 0.0251722 0.0701214 0.0389835 0.0385191 
0.0322448 0.0512445 0.0130964 0.0206315 0.0351086 -0.00623275 0.00815958 0.0231972 -0.0198158 
-0.012552 0.00450015 -0.0245639 -0.0215325 -0.00961292 -0.0255119 -0.0251976 -0.0149423 -0.0237335 
-0.0258481 -0.017237 -0.0288003 -0.0299823 -0.0182414 -0.0164289 -0.0226945 -0.0175933 -0.00713176 
-0.00993515 -0.00975368 -0.0435983 0.000231657 -0.00818142 -0.00996057 -0.0421955 -0.0138041 -0.00758773 
-0.00505495 -0.0216793 -0.0138346 -0.00310131 -0.0262328 -0.0276575 -0.0102349 -0.0255641 -0.0267089 
-0.0159192 -0.0237529 -0.0262474 -0.0170032 -0.0197699 -0.0216292 -0.0137478 -0.0110354 -0.0169403 
-0.00619377 0.00940811 -0.0046648 0.00648753 0.0153339 0.000658817 0.0232972 0.0374627 0.0128417 
0.0224937 0.015367 0.0388067 0.0154989 0.0210683 0.0306061 -0.0088673 0.00127983 0.0165612 
-0.0175977 -0.0157893 -0.000994521 -0.0256794 -0.0214379 -0.0129012 -0.0217075 -0.0220632 -0.0174323 
-0.0285198 -0.0300756 -0.018103 -0.0288809 -0.0280538 -0.0215403 -0.0291889 -0.0263366 -0.0181805 
-0.00991954 -0.0039494 -0.00415249 -0.0465262 -0.0125139 -0.003098 0.030717 -0.0243005 -0.0657285 
-0.0263664 0.0862663 0.00244289 0.0162875 -0.00153108 0.0431156 -0.0194096 -0.0270039 -0.0559224 
-0.0250057 0.00688921 0.0116986 -0.0121292 0.041569 -0.000126549 -0.0205174 -0.0347502 -0.00180828 
-0.00257748 -0.00342999 -0.00440758 -0.00296463 -0.00533837 -0.00658146 -0.00475615 -0.00771799 -0.00905028 
-0.00683939 -0.0102259 -0.0117215 -0.00916145 -0.0129951 -0.0144616 -0.0116271 -0.0155876 -0.0169522 
-0.0140176 -0.0180269 -0.0192268 -0.0162426 -0.0201818 -0.0212429 -0.0182889 -0.0219301 -0.0226448 
-0.0199557 -0.0231188 -0.0236032 -0.0211764 -0.0238914 -0.0239827 -0.0218862 -0.0240216 -0.0239073 
-0.0221862 -0.0236274 -0.0231657 -0.021909 -0.0226696 -0.021941 -0.0211807 -0.021229 -0.0202788 
-0.0199176 -0.0193609 -0.0182023 -0.0182888 -0.0171543 -0.0157903 -0.0163216 -0.0147324 -0.0134314 
-0.0141887 -0.0123497 -0.010989 -0.0120297 -0.00990982 -0.00862608 -0.00983212 -0.00760074 -0.00647686 
-0.00769475 -0.00562983 -0.00462458 -0.00579482 -0.00383387 -0.00298036 -0.00411548 -0.00229848 -0.00169186 
-0.00269421 -0.00118434 -0.000722106 -0.00148636 -0.000390912 -0.0140228 -0.0128058 0.0470001 -0.000342683 
0.018474 0.0128499 0.00990587 0.00734655 0.0166003 0.0059769 0.00471193 0.00987412 0.003698 
0.00305545 0.00597712 0.00267242 0.00228971 0.00396658 0.00196177 0.00175709 0.00286469 0.00153527 
0.0015018 0.0023265 0.00140076 0.00141725 0.00201012 0.00133031 0.00134701 0.00189409 0.00122997 
0.00122969 0.00174207 0.00115852 0.0011888 0.00165734 0.00103347 0.00108037 0.00159957 0.000933936 
0.000993346 0.00147351 0.000796882 0.00083943 0.00130259 0.000587579 0.000549398 0.000931044 0.000277749 
7.57979e-05 0.000484337 -0.000312692 -0.000755199 -0.000275475 -0.00119214 -0.00173115 -0.00139526 -0.00229974 
-0.00271636 -0.00283886 -0.00305359 -0.00309122 -0.00419977 -0.00287 -0.00238516 -0.00427299 -0.00184568 
-0.00126926 -0.00315882 -0.000735099 -0.00029827 -0.00155578 0.000125435 0.000330255 -0.000200737 0.000563721 
0.000609436 0.000597298 0.000750121 0.000760915 0.00104589 0.00088743 0.000882178 0.0012378 0.000969467 
0.000966817 0.00133768 0.00101198 0.000959115 0.00139555 0.000974965 0.000904837 0.00138308 0.000885027 
0.000807045 0.00128643 0.000781609 0.000688726 0.00114262 0.000600941 0.000513518 0.000932751 0.000421519 
0.000325658 0.000682516 0.000208286 0.000142433 0.000403898 3.03638e-05 -2.99666e-05 0.000140662 -0.000135332 
-0.000206759 -0.000135653 -0.000299707 -0.000366527 -0.000375879 -0.000457936 -0.000512552 -0.000598934 -0.000611879 
-0.00067785 -0.000827914 -0.000711885 -0.00070898 -0.00100499 -0.000664896 -0.000544429 -0.000663161 -0.00101418 
0.0312669 0.0647629 0.0227139 0.0340296 0.0210401 0.0295484 -0.000469059 -0.000406896 -0.000441123 
-0.000414745 -0.000622961 -0.000394253 -0.000342814 -0.000558326 -0.000297868 -0.000241877 -0.000460671 -0.000184613 
-0.00012652 -0.000310386 -6.1083e-05 -3.18802e-06 -0.000144298 6.81498e-05 0.000131092 6.59598e-05 0.000198055 
0.000257847 0.000251553 0.000331534 0.000410962 0.000442679 0.000462604 0.000535384 0.000615201 0.00056209 
0.000612403 0.000764463 0.000641493 0.00067666 0.000884237 0.000698843 0.000711446 0.000964893 0.000723405 
0.000752792 0.00101541 0.000688848 0.000676118 0.001023 0.000571602 0.000557493 0.000917809 0.000418801 
0.000367684 0.000717832 0.000185585 4.10124e-05 0.000314987 -0.000165463 -0.00037829 -0.000180509 -0.000616735 
-0.000914274 -0.000812608 -0.0011581 -0.00140279 -0.00145167 -0.00160906 -0.0016962 -0.00211772 -0.00176198 
-0.00171666 -0.00248749 -0.00159591 -0.00141561 -0.00234106 -0.0011682 -0.000937019 -0.00181824 -0.000654791 
-0.000436014 -0.00118536 -0.000180219 -6.65405e-05 -0.00050236 0.000134421 0.000228469 0.000139803 0.000391957 
0.000441223 0.00052247 0.000620771 0.000598312 0.000738966 0.000726037 0.000693156 0.000916313 0.000798717 
0.000753081 0.00109528 0.00086924 0.000852059 0.0011967 0.000998805 0.000973738 0.00128727 0.0010872 
0.00106864 0.00141054 0.00123388 0.00126711 0.00157868 0.00142707 0.00158861 0.00190543 0.00184632 
0.00218776 0.00239176 0.00250828 0.00310919 0.00314483 0.00382601 0.00501838 0.00476214 0.00642051 
0.00879972 0.00854493 0.0114772 0.0178407 0.0313705 0.0163016 0.0654219 -0.0390939 -0.0271096 
0.0734412 0.0747882 0.0800229 0.0820804 0.0667429 0.0855203 0.0864846 0.0760083 0.0886006 
0.0910974 0.0818374 0.0913894 0.0897653 0.0857332 0.0915811 0.0934062 0.0884115 0.0936672 
0.0938376 0.0888639 0.0941615 0.0958925 0.0900361 0.096094 0.0968092 0.0914284 0.0962135 
0.0938155 0.0923103 0.0939902 0.0960896 0.0931961 0.0961837 0.0963663 0.0930382 0.0960085 
0.0960655 0.0924382 0.0965945 0.0970319 0.0919218 0.0945156 0.0907626 0.0921235 0.0947357 
0.0918875 0.0922002 0.0914989 0.0933468 0.0914008 0.095397 0.0936696 0.0899553 0.0922183 
0.092159 0.0884673 0.0919524 0.093634 0.0869474 0.0895715 0.0867372 0.0863932 0.0847825 
0.0875105 0.0851008 0.0880872 0.0865882 0.0823506 0.0829569 0.0809221 0.0774861 0.0747209 
0.0740975 0.0680288 -0.00842174 0.000142327 -0.00650266 0.0402467 0.0120478 -0.00561924 -0.0054504 
-0.00362085 -0.0177021 -0.0181862 -0.0100204 -0.0150628 -0.0165462 -0.0103975 -0.00967691 -0.0108687 
-0.0065472 0.00014782 -0.00458069 0.00111719 0.0170455 0.00818143 0.0136728 0.0311653 0.0290433 
0.0300249 0.0430029 0.0358373 0.0428966 -0.0158357 -0.0269889 0.026352 0.0347049 0.0408375 
0.0389704 0.0325164 0.0393494 -0.00243581 0.000754458 -0.0113346 -0.00941998 0.000396693 -0.015147 
-0.0141285 -0.00652721 -0.015821 -0.0157283 -0.00926739 -0.00960202 -0.0126404 -0.00794861 0.000732797 
-0.00553089 -0.00365579 -0.00674534 -0.0032735 -0.00231328 -0.0317667 -0.0185969 0.0213724 -0.00383312 
-0.00424562 0.00173048 -0.000738871 -0.00454035 -0.00874925 -0.000415211 -0.0144099 -0.0136461 -0.0137864 
-0.0126605 -0.0078539 -0.00887129 -0.00855266 -0.00578294 0.000323032 -0.00131739 0.000646007 0.0145132 
0.010129 0.011584 0.0324334 0.025284 0.0253555 0.0296947 0.0358518 0.0332061 -0.00264772 
0.0156415 0.021326 0.0281907 0.0336442 0.0353228 0.0206632 0.0322615 -0.00491328 8.37194e-06 
-0.0114165 -0.00844938 0.000349905 -0.0150543 -0.0142136 -0.00583378 -0.0163084 -0.0153264 -0.00860177 
-0.00918755 -0.0131896 -0.00741867 -0.000191068 -0.0036201 -0.0033556 -0.00947488 -0.00425232 -0.00338074 
-0.015483 -0.00120114 0.0105587 0.0172833 0.0284557 0.0124728 -0.0109963 -0.00759147 -0.00188428 
-0.00595868 0.00593288 0.0140415 0.0235003 0.0106134 0.049986 -0.0241083 -0.0310731 -0.000581193 
0.0553553 0.00771917 -0.00553635 -0.0267836 -0.00149497 0.0552385 0.0622083 0.015057 -0.0103165 
-0.0186908 -0.0264534 -0.0205333 0.0322751 -0.012102 0.000500376 -0.0144016 0.0137925 -0.00589801 
-0.000856911 0.0400639 -0.00420914 -0.0051469 -0.00592272 -0.0070099 -0.00518989 -0.0080043 -0.0091347 
-0.0069544 -0.0101881 -0.0113815 -0.00896076 -0.0124743 -0.0135424 -0.0110305 -0.0144679 -0.0154868 
-0.0129778 -0.0163478 -0.0172617 -0.014765 -0.0179058 -0.0185974 -0.016307 -0.0190073 -0.0194201 
-0.0173644 -0.0197153 -0.0199762 -0.0180687 -0.0200945 -0.0201713 -0.0184932 -0.0201777 -0.0199732 
-0.0186815 -0.0196413 -0.0191887 -0.0184254 -0.0185348 -0.0178256 -0.0174354 -0.0170897 -0.0162245 
-0.0160623 -0.0154157 -0.0144326 -0.0145267 -0.0135539 -0.0125593 -0.0128655 -0.0116458 -0.0106162 
-0.0111313 -0.00969102 -0.00863626 -0.00932207 -0.00776407 -0.0067456 -0.0075353 -0.00594406 -0.00508365 
-0.00584897 -0.00434104 -0.00354507 -0.00430171 -0.00297602 -0.00227922 -0.00300677 -0.0017809 -0.00123046 
-0.00101495 -0.00191813 -0.00209855 -0.00108326 -0.00584343 -0.00749755 -0.017371 -0.0208126 0.0333004 
0.025201 0.0166413 0.0123347 0.0192461 0.0151412 0.0301702 0.0125647 0.00983757 0.0183877 
0.00837772 0.00697279 0.0121963 0.00608123 0.00529392 0.00866453 0.00484297 0.0043384 0.00669587 
0.00400505 0.00384971 0.00561651 0.00362212 0.00354577 0.00497468 0.00334751 0.00332308 0.00456986 
0.00310117 0.00307618 0.00418292 0.00284629 0.0028064 0.00389431 0.0025422 0.00249663 0.00357853 
0.00218202 0.0021273 0.00313309 0.0017398 0.00160117 0.00254246 0.00107398 0.000768851 0.00159333 
0.000107183 -0.00055972 0.000389107 -0.00166806 -0.0028047 -0.00142099 -0.00384396 -0.0051356 -0.00436139 
-0.00702829 -0.00794931 -0.0084043 -0.00779296 -0.00693963 -0.0105957 -0.00572359 -0.00418647 -0.00861226 
-0.00281345 -0.00155908 -0.00481735 -0.00049411 0.000301605 -0.00139196 0.000859249 0.00118007 0.000706655 
0.00154548 0.00161769 0.00179459 0.00191138 0.00198499 0.00240945 0.00220923 0.00223509 0.0028 
0.00236828 0.00234776 0.00301695 0.00240408 0.00232048 0.00313321 0.0022773 0.00213501 0.00304557 
0.00202043 0.00183837 0.00274917 0.0016882 0.00144473 0.00232269 0.00124053 0.000987504 0.00177505 
0.000749386 0.000520488 0.00116441 0.000277758 6.92454e-05 0.000545127 -0.000162199 -0.000356395 -5.5039e-05 
-0.000567982 -0.000745045 -0.000626617 -0.000928842 -0.00108854 -0.00111036 -0.00131518 -0.00150799 -0.00160745 
-0.00178154 -0.00183275 -0.00221467 -0.00172256 -0.00105215 -0.0240423 -0.0231937 -0.00104628 -0.000974045 
-0.00138897 -0.000839396 -0.000711962 -0.000579954 -0.000438432 -0.000855408 -0.00031032 -0.000151185 -0.00050472 
6.85331e-06 0.000171077 -0.000105982 0.000339883 0.00050926 0.000363142 0.00068555 0.000879721 0.000827447 
0.00103595 0.00119591 0.00128592 0.00130422 0.00144278 0.00165596 0.00152098 0.00162809 0.00196627 
0.00167622 0.00176942 0.00221624 0.00176159 0.00181161 0.00232967 0.00176584 0.0017523 0.00235023 
0.00157024 0.00147693 0.00220718 0.00123806 0.0010727 0.00180015 0.000737558 0.000427237 0.0011611 
-3.42769e-05 -0.000508094 0.000118677 -0.000982176 -0.0016207 -0.001148 -0.00222582 -0.00292471 -0.00253117 
-0.00345888 -0.00395917 -0.00416279 -0.00432981 -0.00442813 -0.0055415 -0.00419256 -0.00375732 -0.005626 
-0.00326698 -0.00268138 -0.00454609 -0.00217257 -0.00153107 -0.00323674 -0.000914676 -0.000433512 -0.00170338 
9.44039e-05 0.000373141 -0.000241674 0.000786281 0.00100163 0.000857698 0.00137054 0.00149613 0.00162115 
0.00174897 0.0018006 0.00206925 0.0020201 0.00203838 0.00251314 0.00223233 0.00229276 0.00291147 
0.00249429 0.0025562 0.00321352 0.00275713 0.00287484 0.00346461 0.00312509 0.00333944 0.00390945 
0.00364375 0.00412727 0.00472803 0.00462853 0.0053811 0.00595094 0.00623073 0.00754222 0.00792168 
0.00880673 0.0112128 0.011153 0.0121863 0.0162846 0.0153967 0.0459731 0.0521847 0.0400224 
0.00777067 0.00804856 -0.00698273 -0.00606617 -0.00318613 0.0617199 0.0663981 0.0460643 0.0709033 
0.0739034 0.0599633 0.0755262 0.0767 0.0666812 0.0785095 0.0793942 0.0706161 0.0809676 
0.0813722 0.0732135 0.0824465 0.082837 0.0751506 0.0832991 0.0843958 0.0765988 0.0843551 
0.0839475 0.0774633 0.0837127 0.0844018 0.0777792 0.0838932 0.0844859 0.077603 0.0844268 
0.0841585 0.0773664 0.0843546 0.0842399 0.0771873 0.0843972 0.084278 0.0775005 0.0836849 
0.0832807 0.0777694 0.0833162 0.0821704 0.0771395 0.0820371 0.0815591 0.0759135 0.0811778 
0.0802375 0.0744247 0.0792532 0.0786104 0.0725653 0.0775059 0.0769933 0.0705283 0.0750531 
0.0738964 0.0684223 0.0724033 0.0713513 0.0654928 0.0696701 0.0651076 0.0614772 0.0558971 
0.0482845 -0.00397733 -0.00144777 -0.00204427 -0.00305999 -0.00436417 -0.0010409 -0.000628099 -0.00388927 
-0.000592027 0.00856143 0.00288307 0.00605725 0.0210751 0.0138285 0.0156849 0.0338987 0.0272915 
0.0271627 0.0371036 0.0392703 0.0354624 -0.000413423 -0.0033265 -0.012439 -0.0076292 -0.00632539 
-0.00503797 -0.000536595 0.00191941 0.00738184 0.00469587 -0.00352461 -0.005046 -0.00208162 0.000710388 
-0.00183313 -0.000962221 -0.00128709 -0.000625833 -0.000688416 0.0014932 -0.00125444 0.0179992 0.0381901 
0.0317869 0.0146529 0.00625103 0.0189957 0.00679525 0.00204211 0.0043945 -0.00397584 -0.00496727 
0.000198327 0.0171756 0.0112086 0.0118869 0.0265021 0.0220369 0.0207597 0.0243384 0.0295453 
0.0243957 -0.00440636 -0.00490202 -0.00739821 -0.0123017 -0.0104927 -0.00448662 -0.00243666 -0.00326647 
-0.00493235 -0.00375206 0.00207896 0.00671435 -0.00304162 -0.00376246 -0.000356572 0.000269808 -0.00158196 
-0.000443301 -0.00329908 -0.000135691 0.000962916 -0.00344611 -0.0147787 -0.0172192 -0.0154979 -0.0201567 
0.0108028 0.00406996 0.0254001 0.0318798 -0.0205735 -0.0185053 -0.016065 -0.0011966 0.0308933 
-0.00974948 0.00900051 0.0499048 0.0158675 -0.0144478 -0.0163782 -0.00116454 -0.00091969 -0.0034337 
-0.00258986 0.0260708 0.0194516 0.0358276 -0.00430525 -0.000491245 0.0012117 -4.7777e-05 -0.00232935 
-0.0095995 0.000380307 0.000805102 0.000514534 0.0146076 0.00936283 0.0253777 0.0137105 0.0122936 
0.0194808 0.0203188 0.0252229 -0.00479847 -0.00991655 -0.0028651 -0.00749013 0.0118931 0.0103821 
0.0163234 -0.0010918 -0.00146028 -0.00235264 -0.015647 -0.0149437 0.00509276 0.036344 0.0363305 
0.0323588 0.0287303 0.0276679 0.021664 0.0243571 -0.0091172 -0.00409586 -0.00484368 -0.0149158 
-0.0125423 -0.00580076 -0.00672255 -0.00464296 -0.00761597 -0.00855946 -0.00637243 -0.00954535 -0.0104748 
-0.00811272 -0.0114191 -0.012241 -0.00991646 -0.0131008 -0.0138852 -0.0116086 -0.0147137 -0.0153237 
-0.0132048 -0.0156359 -0.0159571 -0.0143096 -0.0163444 -0.0165581 -0.0149532 -0.0167177 -0.0168824 
-0.0154543 -0.0169241 -0.0170596 -0.0156795 -0.0171094 -0.0168703 -0.0158543 -0.0161225 -0.0155185 
-0.0152451 -0.0147785 -0.0141131 -0.013832 -0.0133481 -0.0126543 -0.0124208 -0.0119927 -0.0112253 
-0.0111031 -0.0104383 -0.0096187 -0.00971381 -0.00887111 -0.00801007 -0.00822981 -0.00722959 -0.00640788 
-0.00674217 -0.00566069 -0.00488655 -0.00527863 -0.00427322 -0.0035523 -0.00398074 -0.0029435 -0.00234977 
-0.00280251 -0.00193403 0.0113533 0.00687907 -0.0120665 -0.0133567 0.0509693 0.0407497 0.0317693 
0.0271124 0.0221341 0.0358987 0.0188778 0.0157023 0.0254292 0.0137699 0.0119133 0.0185616 
0.0106863 0.00956777 0.014337 0.00873145 0.0080846 0.0116841 0.00759283 0.00721955 0.00997577 
0.0068684 0.00666525 0.00894013 0.00629357 0.00610835 0.00814364 0.00570191 0.00551313 0.00735867 
0.00509375 0.00482227 0.00662713 0.00432797 0.00403133 0.00573496 0.00345729 0.00312873 0.00466431 
0.00241938 0.00196478 0.00326102 -0.0047341 -0.00693116 -0.0144273 -0.0117128 -0.00918111 -0.0018836 
-0.0003133 0.000845367 0.00165282 0.000264972 0.00201421 0.00232741 0.0023676 0.00273974 0.00299655 
0.00307778 0.00341285 0.00361499 0.00395221 0.00390983 0.00405239 0.00466327 0.00419994 0.00421889 
0.00509661 0.00422669 0.004054 0.0052077 0.00393339 0.00361657 0.00499118 0.00334707 0.00296321 
0.00437299 0.00258344 0.00211251 0.0034643 0.00168845 0.00125318 0.0023989 0.000820405 0.000404149 
0.00130485 -2.7453e-05 -0.000403787 0.000237153 -0.000794948 -0.0011298 -0.000806288 -0.00142815 -0.00170713 
-0.00163232 -0.00193311 -0.00227051 -0.00225887 -0.00125552 -0.00102474 0.0269272 0.0227044 -0.000846402 
-0.00059727 -0.00115767 -0.000341439 -4.24472e-05 -0.00062035 0.00028082 0.000599782 0.000145271 0.00093213 
0.00129031 0.000974954 0.00159802 0.00192446 0.00181663 0.00218955 0.00245661 0.00257791 0.00268028 
0.0029071 0.0032313 0.00303511 0.00319978 0.00374403 0.00319236 0.00325784 0.0039945 0.00320626 
0.00319495 0.00400755 0.00308403 0.00289833 0.00389417 0.00257678 0.00229156 0.00347738 0.00177781 
0.00131751 0.00252791 0.000635714 -0.000136257 0.00107481 -0.000954943 -0.00194843 -0.000862212 -0.00269039 
-0.0038005 -0.00280504 -0.00499031 -0.00631014 -0.00544503 -0.00831977 -0.00774578 -0.00478277 -0.00365921 
-0.00259359 -0.00149476 -0.00399426 -0.000480992 0.000297168 -0.00125059 0.00100764 0.00154799 0.000859583 
0.00205225 0.00239922 0.00229622 0.00289876 0.00320619 0.00329966 0.00358306 0.0038351 0.0042119 
0.00412467 0.0043474 0.00494087 0.00465828 0.00484843 0.00565244 0.00521608 0.0054427 0.00634642 
0.0059033 0.00635283 0.00719334 0.00694672 0.00772061 0.00850004 0.00849788 0.00975701 0.0104499 
0.0109139 0.0129471 0.0133207 0.0148934 0.018067 0.0178988 0.0217878 0.025181 0.0251958 
-0.00654047 0.0139077 0.0133155 0.000802097 0.000766402 0.00178192 0.00120825 0.0024152 0.0498871 
0.0550649 0.0574943 0.0595199 0.0492564 0.0618062 0.0634441 0.0538296 0.0651101 0.0662037 
0.0575012 0.0675657 0.0683968 0.0604067 0.0692161 0.0699036 0.0625747 0.0703856 0.0707471 
0.0639708 0.0706566 0.0706175 0.0643647 0.0703521 0.0704751 0.0640501 0.0701722 0.0700479 
0.0635953 0.0698702 0.069875 0.063182 0.0701658 0.0702936 0.0631906 0.0704524 0.0702043 
0.0635224 0.0697156 0.069182 0.0631948 0.0686949 0.0679983 0.0622391 0.067449 0.0667347 
0.0611738 0.0656347 0.0645049 0.059554 0.0633181 0.0622457 0.0572226 0.0606935 0.0595466 
0.0545221 0.0572049 0.0556079 0.0508395 0.0524707 0.00990023 0.0177612 0.0202853 0.0150867 
0.0160714 0.00454913 0.00173478 0.00914268 -0.0022317 0.00296313 0.0292155 0.0246381 0.0240518 
0.0331311 0.0331673 0.0300404 0.0145981 0.010565 0.00129515 0.00333333 0.00356242 -0.00139729 
-0.00386642 0.00522071 0.00913637 0.00694736 -0.00676703 -0.00853071 0.0195078 0.0202937 0.017665 
0.0163108 0.00805324 0.00484543 0.0109361 -0.00184983 0.00371423 0.00199862 0.0065487 0.0198314 
0.0221593 0.018726 -0.00324371 0.0244496 0.00143654 0.00175452 0.00240699 0.00305082 0.00359585 
0.00319502 0.0048488 0.00517471 -0.00976984 0.0117053 0.00955206 0.000798491 -0.00013224 0.00430774 
0.00584654 0.00885545 0.00749084 -0.00220711 -0.00370452 -0.0014478 -0.000824592 0.0319991 -0.00859699 
-0.0075409 -0.00403694 -0.00256802 -0.00428239 0.00392036 0.00183306 0.0017126 -0.0016184 0.0116006 
0.010973 0.0147073 -0.0106417 -0.0130315 -0.0135374 -0.0140937 0.00112844 0.000447736 0.0419747 
-0.00694665 -0.00395496 -0.0018128 -0.00279768 0.0195993 0.0176615 0.024427 0.00392885 0.0151685 
0.0217044 0.0152358 0.0155423 0.0109298 -0.00818606 -0.0102615 -0.0128308 -0.00739805 -0.00647521 
-0.00543346 0.0456769 -0.00362714 -0.00819002 0.0217652 0.0261854 0.0385667 0.00021303 -0.00100474 
-0.000210432 0.00159779 -0.00865384 -0.00617604 0.0265882 0.0297733 0.030989 -0.00824921 -0.000164713 
0.000458485 0.00067179 0.00197511 -0.00589912 0.0337049 0.0303664 0.0260992 0.0319749 0.00202712 
0.00250805 0.00282814 0.00624245 0.00347748 0.0112947 0.0130118 0.0125099 0.0175091 0.00107578 
0.00106095 0.0170991 0.0197634 0.0162668 0.00187957 0.0148202 -0.00706531 -0.00995306 -0.00807868 
-0.00401954 0.000393263 0.00128073 -0.000683794 0.0144111 0.0216427 0.0216168 0.0190245 -0.00522476 
-0.00600985 -0.00679374 -0.00760904 -0.00555773 -0.00852132 -0.00928562 -0.00708512 -0.0100967 -0.0108026 
-0.00865929 -0.0117194 -0.0124633 -0.0102832 -0.0127202 -0.00338702 0.0418313 -0.0136483 -0.0139011 
-0.0120475 -0.0140863 -0.0141947 -0.0130781 -0.0142151 -0.0143857 -0.0132851 -0.0143943 -0.0145901 
-0.0132977 -0.0138207 0.0512007 0.0453541 -0.0128218 -0.0121693 -0.0123611 -0.0111992 -0.0106219 
-0.0105267 -0.00981089 -0.00930812 -0.00888486 -0.00891595 -0.00823163 -0.00779877 -0.0073431 -0.00669244 
-0.00658121 -0.00632075 -0.00561924 -0.00547082 -0.00489823 -0.00424533 -0.00442721 -0.00373034 -0.00316529 
-0.00328704 -0.00275906 -0.00219975 -0.00173474 -0.0024656 -0.00892511 0.0387431 0.0218624 0.0175102 
0.0128398 0.033951 0.0288909 0.0424615 0.0251999 0.0218544 0.0321351 0.0194452 0.0173122 
0.0246742 0.0156549 0.0142251 0.0197235 0.0132967 0.0124416 0.0166112 0.0118395 0.0113649 
0.0147428 0.0109177 0.0105183 0.013547 0.00989083 0.00940195 0.0123552 0.00862936 0.00806886 
0.0108205 0.00731792 0.00654388 0.0091241 0.00555865 0.00477657 0.00705419 -0.00314143 0.00283497 
0.00331309 0.00505835 0.00555567 0.00584447 0.00615014 0.00654247 0.00637132 0.00637124 0.00732474 
0.00631953 0.00599369 0.00750561 0.00563575 0.005045 0.00695144 0.00444916 0.00372209 0.0056482 
0.0030214 0.00229285 0.00401391 0.0016321 0.000968841 0.00232482 0.000267706 -0.000343477 0.00064974 
-0.00100051 -0.00152762 -0.000964974 -0.00202225 -0.0024139 -0.00224518 -0.00277637 -0.00306502 -0.00372731 
-0.00323517 -0.00150503 0.0175606 0.0188482 -0.0110768 -0.00113973 -0.000751618 -0.000269127 0.000226252 
-0.000718477 0.0008093 0.0013587 0.0005659 0.00187347 0.00242552 0.00191426 0.00288598 0.00337178 
0.0031359 0.00383739 0.00425701 0.00431029 0.00462228 0.00491697 0.0053754 0.00501083 0.00507206 
0.00596449 0.00484623 0.00480781 0.005874 0.00488881 0.00472009 0.005744 0.00440998 0.0039683 
0.00551598 0.00337266 0.00278117 0.00451254 0.00181847 0.000888024 0.00257174 -0.000339299 -0.00170847 
7.73914e-05 0.0204744 -0.00194111 -0.000473978 0.000850855 0.00175588 0.000371991 0.00266287 0.00324078 
0.00269327 0.00396526 0.00455074 0.00439799 0.00518252 0.00570227 0.00583405 0.006333 0.00674355 
0.00719568 0.00714997 0.00756892 0.00834212 0.00809838 0.00855283 0.00943944 0.00938041 0.0100172 
0.0109084 0.0109277 0.0119553 0.0128612 0.012991 0.0145148 0.0152638 0.0160296 0.0184442 
0.0185842 0.0206861 0.0242683 0.0235064 0.027849 0.0328846 0.0409932 0.0308023 0.0430498 
-0.00192151 -0.00437232 -0.000679265 -0.00291323 0.00170003 0.0497592 0.0513092 0.0528795 0.054148 
0.046425 0.0552732 0.0561588 0.0490809 0.0569366 0.0574786 0.0508962 0.0577365 0.0577976 
0.051945 0.0573425 0.0571905 0.0518827 0.0565436 0.0564407 0.0507159 0.0559264 0.0558451 
0.0497033 0.0557329 0.0559342 0.0490878 0.0563076 0.0563093 0.0494084 0.0565699 0.0559506 
0.0498844 0.0556736 0.0549918 0.0497744 0.0544685 0.0537877 0.0487621 0.0532981 0.0522128 
0.0477566 0.0511387 0.0498611 0.046191 0.0484668 0.0469128 0.0437037 0.0443483 0.0292664 
0.0281622 0.0185797 0.0149411 0.00203161 0.00124646 0.0122466 0.00922894 0.0149484 0.0251268 
0.0217994 0.0206611 0.0255785 0.0158094 0.0165644 0.00389585 0.00385522 0.00426093 0.00406146 
0.00184245 2.18401e-05 0.000118748 0.0320381 0.0279976 0.0243741 0.0289085 0.0122854 0.00988215 
0.0158445 0.0140402 0.0129661 0.0143497 0.00411991 0.00544743 0.0112426 0.0152275 0.0127266 
0.00720211 0.0054619 0.00996687 -0.00659345 -0.0043462 0.00805187 0.00964499 0.00131921 0.00663832 
0.00671382 -0.00216146 -0.00798496 -0.00975064 0.0184266 0.0161994 0.00238476 -0.00457442 0.00290052 
0.00358578 0.0107435 0.0127991 0.0105226 0.023187 0.0200295 0.0231379 -0.00273481 0.0191119 
-0.00580941 -0.00392684 0.00718474 0.00699123 0.00939019 0.00881017 0.0211177 0.0198007 0.0209548 
-0.0016816 0.0177285 0.0189771 0.0201675 -0.00859366 -0.00744501 -0.00333994 -0.004691 0.024112 
0.0258735 -0.0038085 -0.00775322 0.00438834 0.0475411 0.0426766 0.0454208 0.0398078 0.00467464 
0.00387484 0.00654474 0.0307073 0.0280934 0.0281175 0.0227361 -0.00857247 -0.00904223 -0.00815453 
0.014212 0.0155229 0.0132487 0.00522538 -0.00424704 0.0115859 0.0150421 0.0112954 0.00703627 
0.00807288 0.00612889 0.00837236 0.00654046 -0.00189357 -0.00341097 0.0178234 0.0209827 0.0211484 
-0.00885166 0.0142737 0.0161708 0.0159552 -0.00330767 0.0379166 -0.000105056 4.38869e-05 0.0014356 
0.000703231 0.00964245 0.00598917 0.00245993 0.00262618 -0.00562483 -0.00635924 -0.00730178 -0.00797517 
-0.00564831 -0.00822609 -0.00903307 -0.006708 0.0624924 0.0539939 -0.0070574 -0.00929482 -0.0108436 
-0.0118263 -0.00915777 -0.0118338 0.0588919 0.0643266 -0.0122123 -0.012286 -0.0111606 -0.0117401 
-0.0120282 -0.0112381 0.0704539 0.0761343 0.079478 0.0819534 -0.0110308 0.0803845 0.0654836 
-0.00945619 -0.00885397 -0.00958204 -0.00774406 -0.00715895 -0.00695026 -0.00594626 -0.00571475 -0.00490784 
-0.0049357 0.0414209 0.0205393 -0.00416573 -0.00388904 -0.0032243 -0.00329306 0.00792699 0.0268981 
-0.00273246 -0.00227698 -0.00212026 -0.00206017 0.0101624 0.0108739 0.0132622 0.0113412 0.00768331 
0.0088479 0.0344535 0.0244518 0.0219755 0.0201526 0.0186698 0.0241205 0.0176476 0.0168298 
0.0209145 0.0162357 0.0158072 0.0192144 0.0132867 0.0122416 0.0135266 0.00689394 0.00773225 
0.00911805 0.00904311 0.00857559 0.0078117 0.0103237 0.00688221 0.0058132 0.00859099 0.00470222 
0.00357892 0.00600409 0.00253475 0.00155054 0.00345041 0.00054022 -0.000336901 0.00096535 -0.00122772 
-0.00197267 -0.00127655 -0.00382157 -0.00903177 -0.00819219 -0.00546692 -0.00612292 0.0329514 0.00170469 
0.00250552 0.00315652 0.00390485 0.00319787 0.00450867 0.00520694 0.00481666 0.00600677 0.00663798 
0.00651532 0.00702237 0.00724892 0.00804422 0.00709891 0.0067739 0.00681701 0.0250779 0.0280607 
0.0270902 0.00219762 0.000825996 0.0145857 0.0111655 0.00897663 0.0162618 0.00281149 0.00370554 
0.00270592 0.00478707 0.00569471 0.00511116 0.00638977 0.00719452 0.00691806 0.00832692 0.00915142 
0.00895623 0.0100076 0.0105866 0.0111728 0.0109023 0.0115742 0.0125015 0.0151161 0.0162734 
0.0175071 0.0191241 0.019797 0.0208562 0.023363 0.0232868 0.0258233 0.0295048 0.0356729 
0.0160326 0.0135708 0.0397944 0.0412073 0.0426919 0.0437588 0.0374224 0.0444449 0.0452309 
0.0396345 0.0456807 0.046172 0.0408587 0.0465978 0.0462649 0.0418015 0.0438063 0.0433953 
0.0397863 0.0439666 0.0436817 0.0379717 0.0410625 0.0410279 0.0362897 0.0431416 0.043398 
0.0356465 0.0432193 0.0432381 0.0374409 0.0445519 0.0437993 0.0384516 0.0420022 0.0412896 
0.0374487 0.0420063 0.0414209 0.036538 0.041021 0.0400484 0.0368109 0.0385059 0.0371439 
0.0308704 0.0348317 0.0221538 0.0267953 0.0264015 0.0377118 0.00502139 0.00590819 0.00575146 
0.00479238 0.00252297 0.00214024 0.00202653 0.00424276 -0.00432846 -0.00500514 -0.00428479 -0.00326588 
-0.00148728 0.00875125 0.00804229 0.00850329 0.0102869 -0.000884544 0.0222252 0.0272201 0.0295115 
0.0155229 0.014815 0.0235334 0.0243213 -0.00083571 -9.60831e-05 0.000669848 -0.00299559 -0.00271254 
-0.0087446 -0.0105329 0.0245033 0.0238786 0.0183548 -0.00220446 -0.00452098 0.00125971 0.0082442 
0.00648907 -0.000728609 0.0138673 -0.00272945 -0.00469268 -0.00795484 -0.0106655 0.0284091 0.0339421 
0.0139131 0.0171155 0.0129885 0.0277321 0.0276417 0.0212413 0.0185234 0.0168276 0.0253105 
0.0236245 0.0212489 -0.00603212 -0.00370049 0.0163392 -0.000156806 0.00414108 0.0124619 0.0112495 
0.0184834 0.0206238 0.00304677 0.0105436 0.0123452 0.0108423 0.00891207 0.00772595 0.0121337 
0.00824668 0.00758109 0.00433661 0.029632 0.0267325 0.0265096 0.0237558 0.0226066 0.0253208 
0.0250832 0.0202936 0.0234065 0.0242663 0.0204104 0.0245427 0.0277124 0.0101599 -0.0012829 
0.0163113 0.0241144 0.0251999 0.0246082 0.0213295 0.0208402 0.0231112 0.0275097 0.00928198 
0.0103066 0.0304089 -0.00353657 0.0272721 0.0242705 0.0263311 0.0115266 0.00976538 0.00833635 
0.00358079 0.00203599 0.000300986 -0.00102736 0.000734132 -0.00191334 -0.00278453 -0.00265597 0.00272623 
0.00243943 0.000356935 0.00169774 0.0392769 0.0126408 0.0308592 0.0247935 0.0228004 0.00574597 
0.00681792 0.00867247 0.00946014 0.00837777 0.00811903 0.00676173 0.00515839 0.00586679 0.0323481 
0.0282208 0.0254288 0.0105575 0.00921319 -0.00420241 -0.004889 0.0115139 0.00772494 0.00872263 
0.010065 0.0122125 0.0133865 0.0288166 0.0278628 0.0268637 0.0301797 0.0275841 0.0322339 
0.0249478 0.0190529 0.0202326 0.0330923 0.0342556 0.0122045 -0.00779356 -0.00500905 0.0153746 
-0.00463439 -0.00224926 0.0124906 0.0125326 0.0119323 0.00144857 0.00321319 -0.000332027 0.00884087 
0.0107939 0.0159815 0.0147069 0.0152158 0.0185038 0.0311364 0.0165819 0.00958078 -0.00403319 
-0.00316593 -0.000998025 0.0237587 0.0223198 0.0243949 0.0272311 -0.00145608 0.0331301 0.00599704 
0.0214851 0.0231749 0.0269571 0.0143925 0.00473492 0.0303637 0.032623 0.0235416 0.0166576 
0.0280391 0.0318716 0.0325057 0.0269335 0.0281877 0.0334986 0.019785 0.0348748 0.0354814 
0.0308344 0.0360102 0.0367136 0.0328014 0.0367634 0.0377973 0.032461 0.0314456 0.0293908 
0.0326331 0.023611 0.0257039 0.0250337 0.0236922 0.0321074 0.0335968 0.0203814 0.00336296 
-0.00999769 -0.00990416 0.00553718 0.0247456 0.00443023 0.00612969 0.0275925 0.0249731 0.00331308 
0.0288584 0.00351166 0.00490636 0.00029324 0.0250783 0.0268639 0.035343 -0.0050918 0.0242635 
0.0302342 0.0311478 0.0305317 0.00390843 0.0280132 0.0302654 0.0298021 0.026716 -0.00414891 
2.44765e-05 -0.000467734 -0.000182362 -0.00208775 -0.00116241 -0.00118024 -0.00459587 -0.00316797 -0.00296408 
-0.00802494 -0.00608801 -0.005555 -0.0118228 -0.00964968 -0.00862796 -0.0162739 -0.0138425 -0.0122366 
-0.0204764 -0.0181175 -0.0160268 -0.0238847 -0.0221835 -0.0195539 -0.0262986 -0.0250744 -0.022373 
-0.0278349 -0.0270835 -0.0243314 -0.0281476 -0.0281697 -0.0254198 -0.0272026 -0.0278527 -0.0254353 
-0.0252441 -0.0264437 -0.0243818 -0.0225044 -0.0240986 -0.0224837 -0.0188865 -0.0209491 -0.0198559 
-0.0150395 -0.0172024 -0.0166311 -0.0112793 -0.0133393 -0.0133052 -0.00760054 -0.00957709 -0.00992836 
-0.00454573 -0.0061365 -0.00679088 -0.00224674 -0.00338011 -0.00416877 -0.000744108 -0.00140792 -0.0021764 
-8.72191e-05 -0.000277367 -0.000795528 2.32528e-05 0.0482869 0.0175698 0.0241511 0.00281551 0.00334885 
0.0192136 0.00143446 0.00189792 0.00357382 0.000754659 0.00105401 0.00125159 0.000524523 0.000625664 
0.000696924 0.000437306 0.000395339 0.000558778 0.000416706 0.000355512 0.000523171 0.000387817 0.00032865 
0.000426582 0.000334795 0.000301208 0.000380314 0.00032607 0.000245425 0.000427212 0.000325197 0.000235518 
0.000410048 0.000276307 0.000174428 0.000371256 0.000218649 0.00010967 0.000286211 8.42195e-05 2.93946e-05 
0.000178511 -0.000172919 -0.000146008 -9.17283e-05 -0.000560239 -0.000486279 -0.000555264 -0.000791365 -0.000748761 
-0.00099947 -0.00062577 -0.000768071 -0.00111909 -0.000366433 -0.000488045 -0.000873316 -9.11428e-05 -0.00015288 
-0.000431336 7.66108e-05 8.91762e-05 -5.58278e-05 0.000212449 0.000219255 0.000238547 0.000230285 0.00026061 
0.000404977 0.000258503 0.000282286 0.000408994 0.000265487 0.000312107 0.00039487 0.000223212 0.000264502 
0.000372452 0.000185599 0.000210448 0.000334407 0.000150372 0.0001513 0.000253584 7.85995e-05 9.74861e-05 
0.000200562 2.76958e-05 3.50329e-05 0.000102142 -2.91061e-05 -3.99016e-05 1.70021e-06 -7.39316e-05 -7.90007e-05 
-6.82161e-05 -0.000123386 -0.000119352 -0.000127485 -0.000179683 -0.000157456 -0.000207896 -0.000231158 -0.000237687 
-0.000329358 0.0818639 -0.000109745 -0.000127054 -0.000144393 -0.000156997 -0.000219909 -0.000123065 -0.000138706 
-0.000227184 -7.65459e-05 -8.33928e-05 -0.00017667 -2.3225e-05 -4.39516e-05 -7.88674e-05 2.20081e-05 1.90582e-05 
-5.21342e-06 6.81921e-05 5.99705e-05 5.94822e-05 0.000110826 9.42354e-05 0.000137193 0.000157428 0.000129999 
0.000177333 0.000190254 0.000167111 0.000239534 0.000207414 0.00019089 0.000278898 0.000224621 0.000171593 
0.000305125 0.000169607 0.00016463 0.00029033 0.000139751 0.000127638 0.000246066 6.04332e-05 4.90365e-05 
0.000143839 -8.88053e-05 -6.93784e-05 -8.54095e-06 -0.00026765 -0.000229453 -0.000282488 -0.000455006 -0.000384781 
-0.000498796 -0.000478228 -0.000533185 -0.000650629 -0.000355468 -0.000413311 -0.000688454 -0.000253305 -0.00026974 
-0.000441497 -5.94684e-05 -0.000108065 -0.000269866 4.47811e-05 4.21397e-05 -3.38059e-05 0.000129377 0.000140486 
0.000135035 0.000206313 0.000230143 0.00021502 0.000221167 0.000271208 0.000324061 0.000246434 0.000281378 
0.00038448 0.00028741 0.000342823 0.000362237 0.000346038 0.000356787 0.000388731 0.000473731 0.000451707 
0.000493969 0.000641222 0.000556983 0.000733401 0.00119148 0.00095884 0.0010014 0.00226145 0.00199405 
0.0018677 0.00446199 0.00297034 0.00367135 0.00488126 0.00545063 0.00526443 0.0365052 0.0911641 
0.0895568 0.0990832 0.110487 0.0746645 0.0984331 0.0999025 0.092831 0.0977376 0.0981 
0.095524 0.104186 0.100024 0.0976977 0.101299 0.104389 0.0964539 0.100556 0.100672 
0.10173 0.102357 0.100166 0.103242 0.107999 0.102723 0.103463 0.105885 0.108899 
0.0995958 0.103741 0.102917 0.105463 0.105423 0.103972 0.106481 0.11253 0.106732 
0.104558 0.102539 0.100549 0.0966639 0.0984168 0.0997738 0.0927234 0.102989 0.108544 
0.0970626 0.101799 0.102233 0.103486 0.108236 0.101699 0.102164 0.0963602 0.0965859 
0.0914821 0.101731 0.10534 0.0919712 0.101733 0.099967 0.0958987 0.106113 0.0965278 
0.0919755 -0.0394492 -0.00855019 -0.00705995 -0.0108527 -0.00212167 -0.0198198 -0.0265262 -0.00408412 
-0.0248241 -0.0229919 -0.0166064 -0.0265285 -0.0254031 -0.0175357 -0.0255972 -0.0233956 -0.016427 
-0.0216303 -0.0225837 -0.0136188 -0.0140857 -0.00980916 -0.0107417 -0.0048221 0.0132765 0.0020379 
0.0056092 0.0207476 0.0262165 0.016246 0.0559781 0.0361967 0.0489451 0.0277864 0.029012 
0.0278349 0.0321789 0.00981181 -0.00177738 0.026246 -0.0117937 -0.01854 0.00772668 -0.020407 
-0.0242227 -0.00757721 -0.0239586 -0.0267145 -0.0139688 -0.0259061 -0.0277647 -0.0166635 -0.0230447 
-0.0224342 -0.0168875 -0.0189028 -0.0156611 -0.0159773 -0.00953842 -0.00421253 -0.00721535 -0.00738805 
-0.0343742 -0.00275467 -0.0366329 -0.0088568 -0.00726744 -0.0093191 -0.000528232 -0.0213667 -0.0214061 
-0.00331776 -0.0258523 -0.0248466 -0.0118243 -0.025782 -0.0248948 -0.01509 -0.0253076 -0.0247185 
-0.0147029 -0.0232294 -0.0187412 -0.011303 -0.0149468 -0.00308513 -0.00143396 0.0178031 0.0257242 
0.01853 0.0276767 0.0403256 0.0296504 0.0486489 0.0264588 0.0291887 0.0235615 0.0324854 
0.00647706 -0.00315712 0.0146092 -0.010959 -0.0179986 -0.00205003 -0.023785 -0.0220106 -0.0137097 
-0.0278235 -0.024342 -0.0174565 -0.0239189 -0.0234289 -0.0164687 -0.0247114 -0.0232488 -0.02062 
-0.021331 -0.0118253 -0.0140134 -0.0182486 -0.00996864 -0.00690768 -0.0126657 -0.0406206 -0.0111212 
-0.000230345 -0.000110763 -0.00029968 0.0395517 0.0440899 0.0129975 0.0163296 -0.067916 -0.0313336 
0.0830378 -0.0293523 -0.0576247 -0.0173871 -0.0339615 -0.0220485 0.00619169 0.00777985 -0.028059 
0.0178391 -0.0201808 -0.000479107 0.0678748 -0.0038335 -0.00278586 -0.00196813 -0.00126292 -0.00115904 
-0.00256753 -0.00902546 -0.0074806 -0.0123812 -0.0105239 -0.00914409 -0.0156815 -0.0139846 -0.0186367 
-0.0170434 -0.0151431 -0.020901 -0.0198019 -0.0223093 -0.021614 -0.0195034 -0.0231226 -0.0227892 
-0.0206907 -0.0228308 -0.0230871 -0.0211447 -0.0216667 -0.0223508 -0.0206859 -0.0198644 -0.0209253 
-0.0194812 -0.0173487 -0.0187951 -0.0176716 -0.0145189 -0.0160985 -0.0153818 -0.0115875 -0.0131925 
-0.0127991 -0.00858263 -0.0101967 -0.0100746 -0.00589472 -0.0073018 -0.00744141 -0.00372955 -0.00485087 
-0.00513879 -0.0019567 -0.00279802 -0.00316931 -0.00655567 -0.00487932 0.00548194 0.00798455 0.00925045 
0.0137773 0.0129297 0.0220816 0.0442161 0.0285752 0.0035285 0.00450361 0.00752188 0.00260357 
0.00294249 0.00477169 0.00211001 0.00227657 0.00354396 0.00193536 0.00203525 0.00304369 0.0018359 
0.00179431 0.00273877 0.00165635 0.00167388 0.00249255 0.00145243 0.00143465 0.00227796 0.00124685 
0.00128066 0.00203775 0.00102476 0.00099429 0.00172464 0.000559357 0.000688519 0.00123994 -0.000378902 
8.08302e-05 0.000375901 -0.00213933 -0.00125899 -0.00134098 -0.00374939 -0.00318101 -0.0039161 -0.00366289 
-0.00393271 -0.00561339 -0.00230204 -0.0030545 -0.00500261 -0.000853161 -0.00161443 -0.00294459 0.000258411 
-0.000176655 -0.000924068 0.000871433 0.000711406 0.000632017 0.00115014 0.00109369 0.00146534 0.00133135 
0.0013307 0.00187272 0.0013548 0.00140919 0.00203784 0.00125649 0.00136577 0.00198969 0.00106339 
0.00118268 0.00180206 0.000817508 0.000936918 0.00148828 0.000510652 0.000667235 0.00109352 0.000218683 
0.000365195 0.000675291 -6.79643e-05 5.53642e-05 0.000229283 -0.000322101 -0.000216004 -0.000202908 -0.000527977 
-0.000431851 -0.000562019 -0.0007919 -0.000649755 -0.000893954 -0.00106751 -0.000925173 -0.00126564 -0.00163269 
0.0608002 -0.000444591 -0.000573738 -0.00037005 -0.000755119 -0.000782852 -0.000991961 -0.000714201 -0.000596445 
-0.000755451 -0.00113743 -0.000229093 -0.000353438 -0.000600493 5.30238e-06 -0.000114652 -0.000257297 0.000247908 
0.000125386 0.000103193 0.000483803 0.000353321 0.000451427 0.000693283 0.000592254 0.000796787 0.000875927 
0.000788763 0.00110517 0.000998061 0.000908525 0.00132677 0.00101714 0.000986512 0.00144027 0.000935527 
0.000940121 0.0014525 0.000760177 0.000838914 0.00133991 0.000437887 0.000583939 0.00104089 -0.000166317 
0.000134092 0.000385362 -0.00105617 -0.00058397 -0.000632378 -0.00205455 -0.00163466 -0.00203548 -0.00253319 
-0.00234243 -0.00326691 -0.0022175 -0.0024383 -0.0036108 -0.0015117 -0.00185229 -0.00300498 -0.000622012 
-0.00106358 -0.00197959 7.06573e-05 -0.000229759 -0.000748719 0.000588301 0.000384238 0.0002908 0.000992241 
0.000884041 0.00103956 0.00124939 0.00123595 0.00155597 0.00146407 0.00138723 0.00193871 0.00155478 
0.00158226 0.00218025 0.00181159 0.0017756 0.00241058 0.00236017 0.00203158 0.00279993 0.00333421 
0.00272335 0.00369949 0.00513214 0.00405017 0.00550751 0.00923832 0.00662666 0.00902635 0.0167836 
0.011625 0.0158253 0.0311941 0.0215697 0.0279221 -0.0253547 -0.016929 0.033503 0.0017369 
0.0804877 0.0788171 0.0732361 0.0704571 0.0645198 0.0493492 0.0589457 0.0869535 0.0845423 
0.074916 0.0883027 0.0883188 0.0821474 0.0919149 0.0912347 0.0859103 0.0927136 0.0930206 
0.0865159 0.0938898 0.0929429 0.0879175 0.0929802 0.093221 0.0892313 0.0943153 0.0950674 
0.0899295 0.0945775 0.0949424 0.0897385 0.0933505 0.0944686 0.0886859 0.092672 0.0917427 
0.0884307 0.0911479 0.0897575 0.0874413 0.0907596 0.0922342 0.0868348 0.0921846 0.0914158 
0.0866494 0.0895063 0.0913884 0.0848073 0.0873995 0.0869113 0.0831389 0.0844004 0.0852121 
0.0807877 0.0819122 0.0835771 0.0781895 0.07241 0.0771179 0.0709726 0.0552055 -0.0330558 
-0.0202464 -0.0105218 -0.0187676 -0.0268707 0.0075837 0.0274384 -0.00151175 -0.00810625 -0.00268078 
-0.0132638 -0.0182878 -0.00620613 -0.0192547 -0.0182777 -0.00961513 -0.016639 -0.0165338 -0.00960246 
-0.0126463 -0.0102958 -0.00641522 -0.00665193 -0.00266524 0.000464796 0.00520251 0.0158169 0.0126382 
0.028083 0.036404 0.0291395 0.0416231 0.0448814 0.0320941 0.0418828 0.0339934 0.0259579 
0.0178198 0.0110479 0.0303 -0.000463389 -0.00301239 0.013381 -0.0113654 -0.0127381 1.11893e-05 
-0.0163689 -0.0162848 -0.0065575 -0.0168182 -0.0171458 -0.00861793 -0.015638 -0.0137358 -0.00748075 
-0.00640964 -0.00335815 -0.00426253 -0.0044548 -0.00750518 -0.00901716 -0.00281319 0.0343267 0.00684701 
-0.00265395 -0.00744106 -0.012953 -0.0158547 -0.00303999 -0.0156911 -0.0161601 -0.00754117 -0.011907 
-0.0129436 -0.00836937 -0.00692561 -0.00601178 -0.00434861 0.00349063 0.00850723 0.00529369 0.0215359 
0.02516 0.0196692 0.0336587 0.0320631 0.0266857 0.0310704 -0.0230902 -0.0351234 0.0277514 
0.0185853 0.0136913 0.00229362 0.0241029 -0.00142306 -0.00881659 0.00959151 -0.0118471 -0.013593 
-0.001283 -0.0141699 -0.0158464 -0.00672532 -0.0177382 -0.0187709 -0.00878495 -0.0146787 -0.0140374 
-0.00802043 -0.00815399 0.00131709 -0.00519099 -0.00299452 -0.00682601 -0.0031378 -0.00622581 -0.00479127 
-0.00428668 0.0375474 0.0373283 0.0410908 -0.0049325 -0.0028968 -0.000500768 0.0324511 0.0316118 
0.0339523 -0.0122139 -0.0176445 -0.00129532 -0.00163012 -0.0177537 -0.0230775 -0.00798504 0.0516779 
-0.0188525 0.00970038 -0.00579692 -0.0330685 -0.0244644 0.00622471 -0.012531 -0.00646748 0.0275785 
-0.0126271 0.00163958 -0.000429071 -0.0250031 0.0102795 0.0185252 0.0249093 -0.0131444 -0.00644605 
-0.0111511 -0.0126146 -0.00919527 -0.00780948 -0.00926129 -0.00408841 -0.0144952 -0.013277 -0.0190301 
-0.0186085 -0.0181148 -0.0174665 -0.0170039 -0.0186581 -0.019053 -0.017409 -0.0180911 -0.0169598 
-0.0156129 -0.016543 -0.0155806 -0.0134012 -0.0145172 -0.0137319 -0.0110296 -0.0122568 -0.0116264 
-0.0085995 -0.00989514 -0.00945432 -0.00627658 -0.00746549 -0.00727315 -0.00435989 -0.00538269 -0.0053155 
-0.00263148 -0.00351542 -0.00360771 -0.00760171 -0.0154647 0.0176515 0.0233394 -0.00329907 -0.00259837 
-0.00236472 0.0114425 0.014885 0.0217166 0.0275915 0.0390155 0.0508132 0.0320944 0.00601364 
0.00683598 0.0051962 0.00552961 0.00776907 0.00463212 0.0049074 0.00664386 0.0043358 0.00441563 
0.00602173 0.00385118 0.00406526 0.00551822 0.00326064 0.00346424 0.00488134 0.00261914 0.0028472 
0.00409043 0.00182164 0.00209335 0.00322569 0.000458252 0.00111563 0.00197907 -0.00249123 -0.000844418 
-0.000273982 -0.00709738 -0.00486282 -0.0106422 -0.0101737 -0.00341095 -0.00532829 -0.000370215 -0.00173493 
-0.00346343 0.00141894 0.000797377 0.000244496 0.00225974 0.00201035 0.00222555 0.00285574 0.00265342 
0.00329513 0.00313776 0.00310292 0.00389039 0.00314415 0.00326586 0.00419506 0.00285615 0.00307747 
0.00414222 0.00225573 0.00257745 0.00361239 0.00158178 0.00195846 0.00283336 0.000856091 0.00121211 
0.00190348 0.000108731 0.000457856 0.000889085 -0.000562407 -0.00026115 -9.82251e-05 -0.0010944 -0.000860721 
-0.000965788 -0.00149003 -0.00123868 -0.00156445 0.074347 0.0717491 0.0520502 0.0447619 -0.0166297 
-0.0156122 -0.0138794 -0.0157182 -0.00030611 -0.000600061 0.000283891 -1.4828e-05 -0.000206004 0.00769868 
0.00926735 0.0140241 0.00970386 -0.00123745 -0.0015404 -0.00182419 0.00112519 0.000171498 -0.00121514 
0.000826959 0.000539508 0.000539178 0.00138683 0.00108709 0.00126191 0.0018739 0.00162359 0.00197448 
0.00220844 0.00205389 0.00257264 0.00240444 0.00229611 0.00299976 0.00232329 0.00234727 0.00312526 
0.00204046 0.00215806 0.00297759 0.00147384 0.00174914 0.00254566 0.000442836 0.000981462 0.00166606 
-0.00130337 -0.000366667 3.57499e-05 -0.00373225 -0.00237869 -0.00255011 -0.00595432 -0.0052272 -0.00596293 
-0.00552011 -0.00564133 -0.00777304 -0.00452786 -0.00533004 -0.00689739 -0.00240801 -0.00347002 -0.00521885 
-0.000512892 -0.00147856 -0.00265354 0.000892454 0.00025051 -0.000330541 0.00199194 0.00151216 0.0015654 
0.0028337 0.00252655 0.00290944 0.00340696 0.00320143 0.00390388 0.00387873 0.00370641 0.00467758 
0.00443751 0.00420145 0.00535223 0.00536955 0.0049319 0.00622863 0.00721791 0.00602619 0.00775983 
0.0102138 0.00823467 0.0102592 0.016154 0.0123953 0.0151474 0.0144022 0.0105901 -0.0203807 
-0.0171994 -0.0107663 0.0669488 0.0611993 0.0468654 0.0612401 -0.000888913 -0.00346239 -0.000151331 
-0.00100973 -0.00117423 -0.00410825 0.0775208 0.0763828 0.0678452 0.0790597 0.0784586 0.0707016 
0.0798958 0.0794544 0.0721738 0.0808197 0.0804221 0.0729629 0.0808597 0.0810588 0.0735376 
0.0810884 0.0810758 0.073724 0.0805942 0.0809727 0.0736139 0.0798309 0.0802962 0.0730983 
0.0792402 0.079296 0.0724091 0.0784602 0.0789533 0.0719665 0.0775037 0.0780378 0.0709605 
0.0753282 0.0764445 0.0690285 0.0723512 0.0737815 0.0662992 0.0701645 0.0705392 0.0631009 
0.0668337 0.0695366 0.0607768 0.00833178 0.00813967 0.0360274 0.0380638 -0.0194266 -0.0214419 
-0.000849205 -0.00110637 -0.00151749 -0.000948766 -0.00213559 -0.0040024 -0.00175329 -0.00655767 -0.00703534 
-0.00302708 -0.00746432 -0.00587779 -0.0030682 -0.00451783 -0.000878609 -0.000386852 0.00233679 0.00741051 
0.00525135 0.0126607 0.0205872 0.0147555 0.0265003 0.0336053 0.0259921 0.0334167 0.0271517 
0.0343433 -0.019261 -0.019239 -0.0176894 0.0069755 0.00038137 0.0216516 0.0130938 0.0263317 
0.0077132 0.00190199 0.0146657 -0.00146364 -0.00446382 0.00472626 -0.00546824 -0.00666732 -0.000693135 
-0.00549947 -0.0052822 -0.002151 -0.00281851 -0.000995082 -0.00177655 0.0282866 0.0297188 -0.0056913 
-0.00595502 -0.00169365 -0.00589708 -0.00399331 -0.00171652 -0.00226171 0.00153914 0.000964167 0.00553272 
0.0116967 0.00713086 0.0170249 0.0231659 0.0163456 -0.0119587 -0.0105297 -0.0090407 -0.0115777 
-0.00641 -0.00524885 -0.00640983 -0.00426659 0.0161987 0.00909627 0.00563894 0.000682754 0.0115273 
-0.00176852 -0.00459671 0.00392876 -0.00541556 -0.00702273 -0.000722592 -0.00597554 -0.00569197 -0.0022844 
-0.00317332 -0.00100658 -0.00198667 -0.000662529 -0.00157137 -0.00540834 0.0210285 0.0338762 0.0269404 
0.0211065 0.0214141 0.0274322 -0.00579165 -0.00681402 0.00697887 0.0373883 0.0310983 -0.00425082 
-0.0177153 0.0348254 0.0384408 0.0389086 -0.0130769 0.0302963 -0.00464477 -0.00928218 -0.00646998 
-0.00229929 -0.001972 -0.00490022 -0.00657247 -0.00809608 -0.00214476 -0.00184502 -0.00218276 -0.00290964 
0.0117785 0.00406864 0.0232468 0.0266079 -0.00457591 -0.0103103 0.0241938 -0.0158827 -0.0148051 
0.0145602 0.00845628 0.0560997 0.0614025 0.0552407 0.0449956 -0.00746502 -0.0154212 -0.0183971 
0.0374586 0.0253181 0.020325 0.0334838 0.0172953 0.00862824 -0.00804612 -0.00554376 -0.000704153 
-0.000609765 -0.000899962 0.0244058 0.0276419 0.027998 0.0284048 -0.00410022 -0.0018343 -0.0153072 
0.000902323 0.000409997 -0.0160828 -0.0161831 -0.013748 -0.0144255 -0.0151972 -0.0156427 -0.0146888 
-0.0136032 -0.00984575 -0.0108065 -0.00794803 -0.00894662 -0.00825076 -0.00599531 -0.00700079 -0.00652489 
-0.00428014 -0.00511904 -0.00480688 -0.00281492 -0.00362176 -0.00336662 -0.00224849 -0.00295716 -0.00239042 
-0.0118519 -0.0127302 -0.0119449 -0.0100361 0.000405326 -0.000105818 -0.015711 -0.0153109 0.00841244 
0.00875269 0.0104093 0.0115133 0.0078057 0.00809547 0.0104814 0.00656592 0.00718827 0.00939415 
0.00506467 0.00567047 0.00763551 0.00360768 0.00423684 0.00574473 0.00209434 0.00273753 0.00404313 
-0.000433441 0.000996482 0.00213523 -0.00172487 0.00398962 0.00357083 0.00505497 0.0046283 0.00530324 
0.00554071 0.00536836 0.00640826 0.00538176 0.00556756 0.00681005 0.00458106 0.00510872 0.00647539 
0.00335972 0.00401342 0.00538919 0.00202311 0.0027 0.00376977 0.000643346 0.00129841 0.00204331 
-0.000651894 -7.29156e-05 0.00031826 -0.00172714 -0.00127102 -0.00128486 -0.00243145 -0.00219837 -0.00258061 
0.0633398 0.0623528 0.0276139 0.03365 0.00185287 0.00134784 0.00139397 -8.42395e-05 -0.000612707 
0.000184509 0.00281141 0.00232785 0.00256914 0.00360869 0.00322195 0.00371829 0.00412887 0.00388548 
0.00464717 0.00423414 0.0042133 0.00518444 0.00389044 0.00406317 0.00516204 0.00313879 0.003501 
0.0046185 0.00190709 0.00250247 0.00359611 -0.000134225 0.00093678 0.00197578 -0.00375901 -0.00183983 
-0.000977245 -0.00811101 -0.00558466 -0.00545034 -0.0102784 -0.0112823 -0.0100737 -0.00600424 -0.00797276 
-0.0022904 -0.00405519 -0.0062442 0.000374424 -0.00096706 -0.00212399 0.00266286 0.00172316 0.00127741 
0.00442336 0.00368902 0.00390054 0.00581401 0.00527063 0.00606226 0.00692195 0.00646179 0.00770884 
0.00790014 0.00742271 0.00905276 0.00930787 0.00856778 0.0103507 0.0115055 0.0101575 0.0122119 
0.0150092 0.0128473 0.0150732 0.021651 0.0174192 0.0199613 0.0352607 0.0263433 0.0289372 
0.0453387 0.000264814 -0.000206419 0.0234024 0.0111305 0.0183099 8.02037e-05 -0.000889075 0.000580658 
0.00135785 0.0151058 0.0198695 -0.0038348 -0.00181631 -0.0004376 0.0646204 0.0640542 0.0568916 
0.0654309 0.0650112 0.0580922 0.0660608 0.0657301 0.0589027 0.0663053 0.0661912 0.059395 
0.065982 0.065951 0.0592125 0.0653128 0.0656934 0.0586613 0.0647669 0.0651675 0.0582382 
0.0639811 0.0643878 0.0575928 0.0625458 0.0634868 0.0566587 0.0601932 0.061531 0.0551069 
0.0571462 0.0588494 0.0525491 0.0534984 0.054825 0.0488873 -0.0115661 -0.0162312 -0.0160375 
-0.014772 0.0090934 0.00968566 0.0126367 0.0112635 -0.00661847 -0.00539415 0.0278424 0.0234026 
-0.000111199 -0.000473698 0.000575283 -0.000503426 0.000738684 0.00146656 0.00152372 0.00431859 0.00427924 
0.00679465 0.01087 0.00882638 0.014331 0.0197483 0.0155391 0.0235657 0.0283524 0.0229854 
0.0316488 0.031678 0.0284814 -0.00881064 -0.0122291 0.0126535 0.00552711 0.00442908 0.0145754 
0.0137597 0.0192343 0.0134972 0.0221391 0.0100027 0.00564811 0.0143232 0.0034994 0.00122109 
0.00746395 0.00128237 0.000545187 0.00367487 0.000412068 0.000566068 0.00245225 0.021234 0.022349 
-0.00243216 -0.00457816 0.000863136 -0.000423834 0.00075259 0.00207102 0.00447393 0.00396807 0.0065004 
0.0105343 0.00746867 0.0139086 0.0178965 0.0186174 0.0130639 -0.0059543 -0.00541221 0.0153352 
0.0109854 0.00858666 0.00490227 0.0119955 0.00338309 0.00117609 0.00691605 0.00115217 0.000287095 
0.00381997 0.000195455 0.000313532 0.000564103 0.00242489 0.0120143 0.0100526 0.0147017 -0.0127493 
0.0609293 0.0589918 0.054805 -0.00276221 -0.005807 -0.00521484 -0.00155286 0.00275665 0.00230371 
0.00224597 0.00388031 0.0259102 0.0320528 0.0288273 0.0234841 0.017851 0.0192137 -0.0150696 
0.0295132 0.0318873 0.033231 -0.00754911 -0.0063507 -0.00870869 -0.0020225 -0.00165202 -0.0139081 
-0.0147104 -0.0140404 0.037605 0.0152874 0.012943 0.0148524 -0.00740874 -0.00381302 -0.00413506 
-0.0029525 0.0429291 -0.0131431 -0.0122584 -0.0125263 0.0120214 -0.0113044 -0.0117405 0.0115735 
0.0147136 0.021617 0.0164745 0.00163549 0.00194991 -0.000149637 0.00199559 -0.011395 -0.0102701 
-0.00678262 0.0570052 0.0519051 0.0420183 0.05128 -0.00353417 -0.0116853 0.0495845 0.04293 
0.0490337 -0.0081991 0.0164443 0.0203703 0.0299148 0.0193787 -0.00119589 -0.00121717 -0.00168121 
0.0256524 0.0203922 0.0196463 -3.5688e-05 -0.00746302 0.00169123 0.00243775 -0.00957966 -0.0065098 
-0.0063831 0.0154794 0.021034 0.0182314 0.0175913 0.0221628 -0.011026 -0.00993568 -0.00830665 
-0.0105777 0.0232442 -0.00371055 -0.00446664 -0.00665484 -0.00740127 -0.0023696 -0.00295319 0.00843948 
0.00990218 0.0266609 0.0289392 0.0117404 0.0126594 0.0128273 0.00335895 -0.000832704 -0.00423941 
0.0130209 0.0133982 0.015554 0.0077933 0.00707033 0.00818592 0.00812025 0.00921686 0.00752696 
0.00804102 0.00950551 0.00594854 0.00698335 0.00852991 0.00371713 0.00485333 0.00643645 0.00154162 
0.00258336 0.00371631 -0.000566744 0.000376903 0.00100531 -0.00236858 -0.00158775 -0.00147047 -0.00374697 
-0.00313303 -0.00348236 -0.00489305 0.0513493 0.050935 0.0140225 0.0112583 0.0018495 0.00114361 
0.0005427 -0.000212444 0.000960419 0.00587038 0.00534654 0.00331798 0.00256632 0.00255561 0.0064666 
0.00624794 0.00720378 0.0061224 0.00629123 0.00751783 0.00510125 0.00566586 0.00686655 0.00372312 
0.00449288 0.00569983 0.00186642 0.00279175 0.00419256 -0.00522774 -0.0136187 -0.013431 0.0193976 
0.0167226 0.00545061 0.00413851 0.00800944 0.00678985 0.00721393 0.0101752 0.00924544 0.010228 
0.0119362 0.0112031 0.0127921 0.0136645 0.0127356 0.014844 0.0160281 0.0147141 0.0169865 
0.0197568 0.0175121 0.0199947 0.026073 0.022275 0.0248139 0.021293 0.0246867 0.0244901 
0.0227972 0.0195155 0.0515415 0.0510208 0.0454841 0.0520796 0.0516211 0.0453264 0.0521027 
0.0521336 0.0456681 0.0514754 0.0515818 0.0454088 0.0511153 0.0513763 0.0449091 0.0498476 
0.0506349 0.0443096 0.0488242 0.0495961 0.0432212 0.0468873 0.048305 0.0424704 0.0440171 
0.0456162 0.0404806 0.0398954 0.0422292 0.0372736 0.00237187 0.00262152 0.0341529 0.0299997 
0.0315124 0.013641 0.00865803 0.00468083 -0.0138253 -0.0137883 -0.0128205 0.000513485 0.0272925 
0.0261673 0.0233531 0.0261812 0.00473923 0.00405616 0.00428582 0.00593431 0.00591354 0.00796124 
0.00911423 0.0119775 0.0101396 0.0145042 0.0180482 0.0146976 0.0209113 0.0242076 0.0199664 
0.000987835 0.000753903 0.00641509 0.00533188 0.00881069 0.0144345 -0.00164785 0.00453082 0.00428001 
0.00718512 0.00940669 0.0178224 0.0183331 0.0205264 0.0502899 0.0496617 0.0451431 -0.00518169 
-0.00599119 -0.0051704 -0.003915 0.00966881 0.00723553 0.0114059 0.00617214 0.00493492 0.00786441 
0.0483163 0.0471698 0.0432327 0.0204466 0.020947 0.0202641 0.0186492 0.0161571 0.0124293 
0.00217531 -0.00339567 0.027051 0.0288838 0.0251652 -0.00571754 -0.0132694 -0.0134998 -0.0128089 
-0.00651664 -0.00823418 -0.0090419 -0.00257243 -0.00320881 -0.005972 -0.0128656 -0.0124854 -0.0122925 
0.00590143 0.0150117 0.016308 0.018131 0.0207001 0.0206395 0.00554195 0.00697443 0.00304313 
0.00421046 0.0161832 0.0135951 0.0141609 -0.00277478 -0.00102754 -0.0102254 -0.0109723 -0.00829076 
0.0046189 -0.0102407 -0.0119931 -0.0125118 -0.0115917 -0.0109629 -0.0109997 -0.00693261 -0.00405878 
-0.00740276 0.0198902 0.0230527 0.0243151 -0.00126534 0.000585869 0.000771749 0.000524479 0.00136546 
0.00240929 0.00384462 0.00171356 0.0336627 0.037693 0.00202822 -0.00475988 0.0209923 0.0360614 
0.0299708 0.0325356 0.0432499 0.00884537 0.033194 0.0260481 0.0159849 0.0151039 0.0183406 
0.010543 0.0112819 0.0139715 0.0109779 0.00722342 0.00812722 0.0105243 0.0102941 0.00303743 
0.00433758 0.00688147 0.00405133 0.00279524 -0.00668845 0.0164823 0.012795 0.0125415 0.0180299 
0.0114983 0.0151602 0.0396714 0.0345031 -0.000853591 -0.00173733 -0.00233677 -0.000595551 0.0162549 
0.0174857 0.0156817 -0.0101383 -0.00913339 -0.00945107 0.0152405 0.0181643 0.0267296 0.0219056 
0.0245009 0.0235904 0.011661 0.010135 -0.00184288 -0.00423924 0.00949312 0.0105738 0.0173747 
-0.0118246 -0.0117711 0.0179222 0.0182189 0.0106597 0.0109892 0.0124899 0.0120778 0.0126969 
0.0233644 0.00266693 0.00425187 -0.000401323 0.000983824 0.00185105 -0.00293645 -0.00186639 -0.00167791 
-0.00508368 -0.00423164 -0.0046211 -0.00661945 0.0387831 0.038356 0.000907855 0.000117934 0.00870657 
0.00890969 0.0160681 0.0146744 0.00540946 0.0065713 0.0287401 0.0263536 0.0258995 0.000780466 
0.00554456 0.031223 0.0299487 0.0282807 0.028588 0.0262755 0.0179163 0.0169216 0.0190954 
0.020425 0.019046 0.0212878 0.0241067 0.0219375 0.0242538 0.0304854 0.0268917 0.0291149 
0.0368573 0.0241809 0.0256474 -0.00784396 -0.00990495 -0.00798882 0.0397087 0.0399624 0.0348008 
0.0391068 0.0393466 0.037945 0.0387695 0.0355138 0.0360531 0.0310564 0.0366273 0.0374007 
0.0314744 0.0337495 0.0355715 0.0318803 0.0302765 0.0322016 0.0290219 0.00331446 0.00305665 
0.00204484 0.00145718 0.0283905 0.00761234 0.0104275 0.00421355 0.0132615 0.0109355 0.0115168 
0.00853327 0.00424515 0.0397522 0.0392734 0.0357916 0.0378435 -0.00764852 0.028546 0.0294492 
0.0447448 0.0237598 0.0238448 0.0251485 0.00299968 0.00753728 0.0072334 0.00793533 0.00904238 
-0.00552199 -0.00777865 -0.00856154 -0.0118219 -0.00459665 -0.00516925 -0.0113902 -0.0111505 -0.0105765 
0.0152893 -0.00535979 -0.00228907 -0.00180357 0.0188282 0.020004 -0.0118157 -0.0109034 -0.0116776 
0.0210259 0.0183463 0.0185896 -0.00358758 -0.00413171 -0.00283571 0.0340744 0.0228981 0.020988 
0.00598003 0.00774876 0.00583396 -0.00632433 -0.00722008 -0.00410178 -0.00865253 -0.00943518 -0.00651893 
0.0253348 -0.000721189 0.0403777 0.0397728 -0.0100902 -0.00957486 -0.00963228 0.0100351 0.00855323 
0.00786521 0.0287826 0.0287512 0.0126085 0.0107915 0.00261785 0.00897582 0.00697453 -0.00731237 
0.00708895 0.00616256 0.00864168 0.0385312 0.033102 0.0282616 0.0383941 0.0327148 0.00987338 
0.0344637 -0.00773321 -0.00843991 -0.00778982 0.0157238 0.011135 0.00511298 0.00407604 0.00381089 
0.00632472 0.0131751 0.0115998 0.0108361 0.0143961 0.00651117 0.00297297 0.000470676 0.0251106 
0.025225 0.0224881 0.024382 0.0127901 0.0150444 0.0178206 0.0201535 0.0130021 0.00977841 
0.0261122 0.024258 -0.00181213 -0.00284663 -0.00345305 -0.00106835 0.0268488 0.0277474 0.0307993 
0.0318076 0.0279281 0.0269112 0.00715829 0.020928 0.023236 0.0253074 0.0217514 0.0301953 
0.021247 0.0224832 0.014359 0.031837 0.027612 0.0254937 0.0176382 -0.00162803 -0.00226414 
0.00946773 0.0240311 0.0341017 0.0140833 0.0131339 0.00972486 0.0234065 0.0252978 0.0273724 
0.0227207 -0.00638244 -0.0102663 -0.0107458 -0.00863065 -0.00898026 -0.00878708 -0.00658825 0.0045748 
0.00550154 0.0297548 0.0270494 0.0289814 0.00193134 -0.00121565 0.00173969 0.000286373 0.00840528 
0.0275895 0.000426126 0.00381021 0.00575423 0.00772678 0.00642965 0.00268998 0.0319031 0.0239669 
0.0227666 0.025011 0.0275781 -0.00506904 0.0255752 0.0223532 0.0293605 -0.010431 -0.00510887 
-0.00162252 -0.00226227 -0.00694082 -0.00240614 0.00383341 0.00624618 -0.00135023 0.000356244 -0.00093148 
-0.0011652 -0.00392928 -0.00239505 -0.0057311 -0.000291201 0.00166731 -0.0094364 -0.00870966 -0.00406359 
-0.00625997 0.0242827 -0.0106634 -0.00981725 0.0110382 0.0136837 0.024268 0.0259206 0.0277655 
0.0281174 0.0263542 -0.00521054 -0.00959946 -0.00920445 -0.0069617 0.0275887 -0.00648439 0.00305476 
-0.00211857 -0.00661416 0.00502151 0.00365622 0.0281517 0.00847789 0.0285335 -0.0102003 -2.19592e-05 
0.0980489 4.16895e-05 4.18448e-05 5.84576e-05 7.82818e-05 6.83912e-05 7.37146e-05 6.75608e-05 4.91058e-05 
5.28992e-05 1.44388e-06 -6.20201e-06 -9.5532e-06 -1.46451e-05 -3.24748e-05 -3.90368e-05 -7.29989e-05 -5.44115e-05 
-5.03138e-05 -2.44367e-05 -7.00015e-05 -2.23589e-05 -0.000117165 -0.000107281 -0.00010873 -4.73105e-05 -0.000109227 
-6.78727e-05 -5.36688e-05 -9.67452e-06 2.01871e-05 5.94331e-05 0.000106142 0.000177569 0.000131774 3.75963e-05 
0.00035838 0.000262952 0.000233474 0.000215942 0.000164675 0.000197538 6.53701e-05 4.7341e-05 -7.13814e-07 
-2.03052e-05 -5.27421e-05 -7.4951e-05 -6.50944e-05 -3.35528e-05 -0.00015438 -0.000121569 -0.000134616 -0.000155064 
-5.54355e-06 -0.000112688 -0.000112262 -4.93115e-05 -0.000302468 -0.000256995 -0.000327704 -0.000446969 -0.000389448 
-0.000276946 -0.00136313 -0.0013438 -0.00214891 -0.00219812 -0.00357664 -0.00146329 -0.055075 1.5835e-05 
-3.88674e-05 -0.000136807 -0.00010358 -9.26023e-05 9.6401e-05 4.6752e-05 -4.36054e-05 -9.95909e-05 -0.000231903 
0.104654 -2.0896e-05 -0.0376978 0.00467304 7.40552e-05 -0.00376876 -0.00200301 -0.0013845 -0.00137368 
-0.000748261 -0.000544631 -0.000449813 -0.00035577 -0.000295729 -0.00025487 -0.00023871 -0.000309949 -0.000142001 
-3.17496e-05 -0.000189114 -0.000156056 -0.000153928 -0.000198868 -8.82306e-05 -6.31931e-06 -0.000130697 -6.46855e-05 
-6.53729e-05 1.07062e-05 5.97635e-05 0.000130165 0.000214983 0.000371771 0.000275425 8.73795e-05 0.000504556 
0.000344287 0.000268529 0.000197943 9.79916e-05 4.09405e-05 -6.79928e-06 -5.66414e-05 -0.000151871 -0.00010738 
-0.000139191 -0.000138613 -0.00014131 -0.000189119 -3.94312e-05 -0.000103846 -0.000171907 -0.000129161 -0.000123322 
-0.000103759 -9.08141e-05 -9.32834e-05 -2.09969e-05 -4.08014e-05 -3.49105e-06 1.06005e-05 1.74585e-05 2.54596e-05 
4.18281e-05 4.85433e-05 6.86826e-05 7.35787e-05 8.88129e-05 0.000117608 1.84764e-05 7.01716e-05 4.56452e-05 
1.20306e-05 -0.00023735 -0.000179798 -0.000474172 -0.000143473 -9.70993e-05 0.000176291 -5.68492e-05 -7.98208e-05 
-1.58831e-05 4.3208e-05 0.000164243 0.000119624 0.000352369 0.000429366 9.27179e-05 -0.000336594 -0.00136565 
-0.00234741 -0.00377842 -0.00522125 -0.00715719 -0.0105776 -0.0128526 -0.0148195 -0.0173645 -0.0193612 
-0.0218611 -0.0250947 -0.0267971 -0.0279793 -0.0292083 -0.0314367 -0.0311898 -0.0309243 -0.0301613 
-0.0293904 -0.028176 -0.026912 -0.0252974 -0.0223435 -0.0201508 -0.0182063 -0.0159485 -0.0104983 
-0.00840716 -0.00556208 -0.00396595 -0.00287185 -0.0016803 -0.000884912 -0.000167539 0.000357962 0.000291191 
-0.0300314 -0.0311965 -0.0143248 -0.012196 -0.0309149 -0.00887385 -0.0234609 -0.0239196 -0.0069538 
0.000160531 0.0589464 0.0968486 0.0442346 0.039838 0.0392137 0.0426536 0.0481147 0.0498729 
0.0644984 0.065632 -7.81271e-06 0.220504 0.11802 0.0359838 0.0562015 0.0596599 0.0675173 
0.0735308 0.0770041 0.07622 0.0920819 0.0836078 0.0888292 0.0922475 0.100378 -0.282864 
-0.250049 -0.155421 -0.247296 -0.156079 -0.157265 -0.209187 -0.204253 -0.157705 -0.157517 
-0.246908 -0.16949 -0.210848 -0.17152 -0.157648 -0.206066 -0.15884 -0.220766 -0.207378 
-0.0192268 0.0340319 0.229642 0.129019 0.0617012 0.0426454 0.0653752 0.0594935 0.0794286 
0.0944187 0.0745756 0.102389 0.0917434 0.109348 0.0864103 0.0156317 0.0989822 0.0806369 
0.0638482 0.0414794 0.045072 0.0426368 0.0429973 0.0477201 0.060779 0.0507996 -0.239452 
-0.276962 -0.21625 -0.200469 -0.156965 -0.207475 -0.216007 -0.212188 -0.167905 -0.186537 
0.213675 0.00970793 0.0476828 0.144889 0.11091 0.097677 0.0939361 0.103077 0.0840013 
0.0896104 0.0724459 0.0729661 0.0587267 0.0517811 0.106649 0.0253579 0.111648 0.0683931 
0.0394026 0.0598286 0.0406567 0.0385982 0.0514983 0.0501679 0.0612601 0.0439844 0.0107927 
0.124836 0.0863456 0.0549882 0.0369754 0.0395661 0.0414424 0.044447 0.0478687 0.0563473 
0.0703297 0.207727 -0.0103403 0.0331814 0.130627 0.17238 0.0913903 0.114834 0.0808089 
0.0856127 0.0704741 0.0869759 0.0520336 0.0605396 0.0422034 0.105026 -0.243679 -0.22275 
-0.190261 -0.159121 -0.180354 -0.153549 -0.206164 -0.207776 -0.172839 -0.225693 -0.0399557 
0.0500511 -0.0135947 0.0145868 0.0557304 0.0264076 0.0533181 0.0736729 0.0767528 0.0757205 
0.0736336 0.0660106 0.0633511 0.0594898 0.0553842 0.0372971 0.0429795 0.0257024 0.0445395 
-0.030284 0.0113485 0.0235938 0.188542 0.155421 0.22314 0.229378 0.258922 0.22449 
0.227338 0.202604 0.202584 0.184562 0.181123 0.150524 0.142576 0.113657 0.125983 
0.116772 0.0993426 0.0448444 0.0952559 0.0336094 -0.0453822 0.0666214 0.0535521 0.111171 
0.105869 0.10436 0.134419 0.128137 0.146005 0.164023 0.185029 0.185567 0.201942 
0.213572 0.222671 0.214187 0.240241 0.16376 0.158929 0.0765779 0.122227 0.116207 
0.15371 0.154825 0.179222 0.185261 0.205777 0.210537 0.228177 0.224293 0.244162 
0.24058 0.255838 0.18827 0.182631 0.0384137 0.000610641 -0.00992153 0.00180734 -0.135713 
0.160287 0.250651 0.212866 0.230902 0.208442 0.208486 0.185101 0.170185 0.167794 
0.157336 0.135018 0.126344 0.0972559 0.115292 0.0968263 0.04168 0.168684 -0.298571 
-0.405247 -0.377936 -0.355177 -0.417819 -0.40286 -0.411256 -0.417763 -0.315573 -0.355195 
-0.170812 -0.0375845 0.0613489 0.0428547 0.0597614 0.0666677 0.0684785 0.0715319 0.0698058 
0.0659809 0.122283 0.0535291 -0.427252 -0.274047 -0.411669 -0.269264 -0.3807 -0.362408 
-0.406767 -0.428074 -0.426279 -0.41889 -0.407177 -0.36252 -0.346183 0.0440338 -0.0977295 
0.045863 0.0497624 0.0568877 0.0575026 0.0555211 0.0531893 0.0768625 0.0635821 0.0578235 
0.0601693 0.174598 -0.170127 0.0215279 -0.0176085 0.0485334 0.118167 -0.421011 0.0595271 
-0.123634 -0.437742 -0.299947 -0.0198248 0.198777 0.0315916 0.255133 0.16231 0.225847 
0.213507 0.226339 0.218398 0.203731 0.207323 0.17457 0.173887 0.143835 0.15264 
0.154195 0.116776 0.171092 0.155413 0.173177 0.0235925 -0.0341218 0.0234487 0.0223668 
0.107514 0.0139647 0.0826837 0.128256 0.129231 0.0772065 0.165145 0.174839 0.192048 
0.187287 0.20108 0.20869 0.200428 0.226245 0.108034 0.204632 0.0430091 0.200441 
-0.154713 -0.00757747 0.0598134 0.132416 0.142303 0.150315 0.145052 0.183132 0.176806 
0.2076 0.203666 0.221761 0.225984 0.215714 0.239669 0.202986 0.224356 0.0785371 
0.171225 -0.0466631 0.00814759 -0.093453 -0.00956916 0.209222 0.174439 0.231737 0.214317 
0.212137 0.205906 0.200543 0.194709 0.126694 0.150496 0.0931043 0.107287 0.122288 
-0.358486 -0.2987 -0.369288 -0.374045 -0.403531 -0.419116 -0.434849 -0.427093 -0.416959 
-0.407276 -0.358749 -0.329104 0.0287541 0.0280747 0.0571656 0.0408924 0.0572562 0.0570039 
0.0766643 0.069253 0.0862194 0.070478 0.084299 0.0975593 -0.260386 -0.369991 -0.338087 
-0.417529 -0.380711 -0.409086 -0.431547 -0.397701 -0.409467 -0.336244 -0.312021 -0.197767 
0.00736296 0.0569031 0.0504208 0.0553707 0.0588945 0.0636852 0.0660398 0.0626385 0.076098 
0.0636104 -0.383091 0.13367 0.159079 0.0505108 -0.453186 0.119994 0.0872091 0.15435 
-0.188477 0.0737174 0.0250101 -0.0117275 -0.0319242 0.032751 -0.0140828 0.0559675 0.0336024 
0.0441526 0.0491204 0.0532571 0.0599642 0.0652305 0.0710078 0.0760752 0.0808829 0.082717 
0.0943482 0.0832512 0.0611219 0.0488199 0.0712487 0.000214247 -0.0229658 -0.0489209 -0.0230623 
0.0268528 0.0380617 0.0502309 0.0458625 0.0478579 0.0656143 0.0577147 0.0624101 0.0686726 
0.090995 0.080343 0.0813129 0.0449467 0.0284496 0.0339725 -0.00924954 0.0626849 -0.0340958 
-0.403851 -0.373268 0.132078 0.122025 0.0580174 0.0773242 0.150719 0.179671 0.0408773 
0.0439437 0.166654 0.170121 0.142441 0.199563 0.117821 0.126911 -0.374578 0.0471417 
0.0398194 0.0315758 0.187483 0.187947 0.087498 -0.026933 0.077056 -0.0257867 -0.411166 
0.0780754 0.0658557 0.172356 0.0757037 0.110103 0.074716 0.0868715 0.183333 -0.466533 
-0.460463 0.185488 0.0919788 -0.346535 -0.183098 -0.45308 0.0492349 0.146054 0.0433901 
-0.0360375 0.0365307 0.0898933 0.0641588 0.0739493 0.176132 0.0348576 -0.159251 -0.0284096 
-0.121007 0.0359117 -0.438648 -0.457189 0.167537 -0.0404963 -0.1468 -0.422912 0.231082 
0.148243 -0.326193 -0.375817 0.0997719 0.183427 0.202146 0.0550575 0.0762428 0.141566 
0.145241 0.166385 -0.0745246 -0.0606405 0.169329 0.167561 0.184801 0.168584 -0.00266163 
0.00545351 -0.465483 -0.461445 0.0450135 -0.195713 -0.447288 -0.408116 -0.0481679 0.0323503 
0.148852 -0.0281891 0.00995949 0.0260622 0.0436293 0.0278693 0.0277254 0.0367331 0.0192909 
-0.0239671 0.199542 0.0179663 0.01765 0.0170226 0.020699 0.0692896 -0.440202 -0.138182 
-0.456179 -0.439255 0.0541353 0.0530843 0.0424866 -0.399566 0.0776849 0.0378759 0.0344596 
-0.075912 0.0710994 0.151347 -0.0211077 0.0309458 0.119461 0.147761 0.00157238 0.0623537 
0.00722763 0.0253995 0.0151107 -0.417026 0.143154 0.0661884 -0.455448 0.113542 0.0808622 
0.0776088 0.0767152 0.109423 0.130931 0.186768 0.116979 0.0805904 0.13596 0.107411 
0.189561 0.104137 0.208778 0.241374 0.275493 0.0467361 0.0399771 0.211828 -0.118863 
0.181631 0.0286086 0.0209833 0.0333047 0.139331 0.0437627 0.0743726 0.0904502 0.0472261 
0.0271099 0.0188095 0.0431469 0.0352242 0.0294591 0.0170809 0.0221771 0.0174465 0.0214149 
-0.425451 0.0482488 0.0334429 0.0352681 0.0326661 0.0382416 0.0410566 0.00795885 0.0209787 
0.0667379 0.0165967 0.0132599 0.0190833 0.0422299 0.0242958 0.0411425 0.112594 0.0714594 
0.00123142 -0.0033552 -0.00114246 -0.445471 0.0692436 0.0767377 0.0320918 0.0221548 0.103296 
0.0948621 0.00918315 0.0246662 0.0263576 0.0248428 0.023042 0.0248588 0.0231458 0.0278678 
-0.443905 0.0905328 0.228104 0.0326083 0.153388 0.0251965 0.0278979 0.0314054 0.162981 
0.0366587 0.0287913 0.0506276 0.0384817 0.194945 0.035021 0.0877144 0.0479946 0.169761 
0.0378346 0.0391654 0.0241033 0.023286 0.0333042 0.188541 0.0349101 0.00139689 0.000823578 
0.00156906 0.000830742 -0.00422017 -0.0100223 -0.00834029 -0.0100351 -0.0053122 -0.00817796 -0.000942693 
-0.00153555 -0.000822256 -0.000938941 0.000925417 -0.00188781 0.00378334 0.0029742 0.00387051 0.00323705 
-0.0082277 -0.00863504 -0.00425132 -0.0050718 0.0723811 0.0806497 0.0797594 0.0733403 0.0739281 
0.081174 -0.000866171 0.0057499 -0.000409871 0.00908925 -0.0055904 -0.00112502 0.00503795 0.00165493 
-0.00164245 -0.00136251 -0.00196166 0.0134374 0.0158811 0.0175806 0.0680809 0.0606623 0.0679291 
0.0607395 0.0676779 0.0602984 0.0673449 0.0597151 0.0500191 0.0559766 0.0568707 0.0823209 
0.0806454 0.0878719 0.0863635 -0.000512153 -0.00156271 -0.000786276 0.106233 0.100197 0.099424 
0.0954082 0.105802 0.089692 0.0951064 0.0113051 0.00990161 0.00692138 0.00540268 -0.0126376 
-0.0113412 -0.0158529 -0.0132126 0.00414109 -0.00108843 0.00774702 0.00172399 -0.0139239 -0.00861204 
-0.00677646 0.000870524 0.00143061 0.000802889 -0.00763826 -0.00956974 -0.00836694 -3.80897e-05 1.02652e-05 
-5.6157e-05 4.76557e-05 -0.0158275 -0.021727 -0.0157786 -0.00585151 -0.00716958 -0.00656718 -0.00796038 
0.0151404 0.0128176 0.0144825 -0.0264613 -0.0110928 -0.00968505 -0.0129789 -0.0119744 -0.00729532 
-0.00676093 -0.000480224 -0.000771637 -0.000896204 -0.0114837 -0.0092459 -0.00995961 5.70214e-05 0.0017464 
0.00281684 -4.55754e-05 -0.000174924 -0.000122641 0.00343681 0.00495519 0.00140352 0.0411044 0.0353482 
0.0350162 -0.0127493 -0.013384 -0.0178204 -0.0105384 -0.00365713 -0.00215588 -0.00285619 -0.00191601 
-0.00255257 -0.0140857 -0.0162599 -0.0174129 -0.0195204 -0.00763293 -0.00808223 -0.00898567 -0.0234239 
-0.0230579 -0.0254468 -0.0113333 -0.0101693 -0.00952083 -0.00102327 -0.00121714 -0.000868833 -0.0130298 
-0.0123672 -0.0139179 -0.0131551 0.0013531 0.00188431 0.00149952 0.00210419 -0.0179467 0.0116756 
0.0100497 0.0133693 0.011441 0.0339359 0.0398934 0.0385739 -0.00318219 -0.00351244 -0.00261222 
-0.0126902 -0.0155838 -0.0126429 -0.000102111 -0.000232618 -0.000148169 -0.0121988 0.0349684 0.0317259 
0.0321093 -0.000580174 -0.000988788 -0.000756225 0.0296242 0.0286184 -0.00542507 -0.00472368 -0.00486639 
-0.00417886 0.0133307 0.00947364 0.0162146 -0.012622 -0.00772346 -0.00983986 0.00483822 0.00659604 
0.00500411 0.00694149 0.00397831 0.00270184 0.00446042 -0.0146825 -0.018007 0.0288859 0.0251885 
0.0289778 -0.000374733 -0.000147536 -0.000594739 -0.00249294 -0.00306083 -0.00355461 -0.000157215 -0.000218754 
0.0188919 0.0236083 0.0268355 -0.000248066 -0.000219739 -0.000475587 0.00361506 0.00399423 0.00595185 
0.000254116 0.000644586 0.00122311 0.010098 0.00608261 0.0085468 0.00253382 0.00233691 0.00162428 
0.00143036 0.00222079 0.00119255 0.00865682 0.00471275 0.00712142 0.00405786 0.000475005 0.000311362 
0.000396405 0.000366228 0.000721991 0.000257775 -0.0156846 -0.0158877 -0.0186947 -0.00043872 -0.000216514 
-0.000444188 0.112656 0.11618 0.0975013 -0.0252939 -0.0235098 -0.0260583 0.00155644 0.00112056 
0.0013466 0.00102201 -0.000220918 -0.00648597 0.00170325 0.00161729 0.00113359 0.00192143 0.00360247 
-0.000531894 -0.00647784 -0.00771451 -0.00729225 -0.00859669 -0.0286353 -0.028626 9.87343e-05 9.75836e-05 
-0.0146608 7.82809e-05 0.000108132 0.000336358 -0.00159759 -0.00107178 -0.00133532 -0.00454878 -0.00421265 
-0.00527002 -0.00472166 6.28988e-05 -0.00634302 -0.00751016 -0.00722428 0.0457639 0.0411776 0.00308585 
0.00455249 0.0037086 0.000174435 0.000357567 0.000129794 0.000233194 0.000112326 0.000239511 0.00053467 
0.000767775 0.00056992 -0.00692828 -0.00578291 -0.00385737 -0.00949949 -0.010297 -0.0113194 0.000826274 
0.00118864 0.000727226 -0.0115253 -0.0121869 -0.0029907 -0.00127939 -0.000926788 -0.0150579 0.00290289 
0.00308203 0.00203747 0.0149052 0.0179007 0.0156965 0.0186988 -0.00558779 0.0182449 0.0218828 
0.0190774 0.00172725 0.00363793 0.0011092 0.0254912 0.0276685 0.0276307 0.106001 0.109739 
0.105707 0.0059495 0.00572973 0.00521562 0.00880131 0.0242181 0.0335726 0.0442258 0.00423721 
0.00180597 0.00513887 -0.0149519 -0.0158813 -0.0142508 -0.00127692 -0.00106038 -0.00157266 -0.000652395 
-0.000349778 -0.000476844 -0.0018616 0.0750675 0.0245311 0.0223209 0.0221133 0.00277509 0.00355462 
0.00274153 0.030703 -0.011209 -0.00991215 -0.0108601 0.0165055 0.0126588 0.0172142 0.0112146 
0.00713554 0.0068546 0.00791543 0.0179504 0.0460467 0.0294421 0.0386724 0.00166004 0.00108026 
0.00130363 0.020567 0.0137303 0.0150921 -0.00336061 0.0025508 -0.00361911 0.050502 0.010451 
0.00945685 0.00989816 0.00900438 -0.026161 -0.015948 -0.0157516 0.0279612 0.027276 0.0260675 
0.0250578 -0.0265759 -0.0235485 0.0089491 0.00898834 0.00618744 0.000800332 0.000938603 0.000602697 
-0.0191776 0.000252692 0.000338012 0.000100609 0.0470916 0.0534064 0.0524734 0.0614625 0.0685602 
0.0616403 0.0685337 -0.00299222 -0.00225131 -0.00293272 0.0299901 0.0375292 0.0186147 0.0246762 
0.075042 0.0747035 0.0683404 -0.00332986 -0.00271653 -0.00402777 -0.00312306 0.037667 0.00127123 
0.010119 0.00146244 0.00228699 0.00122357 0.00239056 0.00144799 0.0102539 -0.0027482 -0.00363859 
-0.00316657 -6.78321e-05 -0.000127711 -0.00851554 -0.00758377 -0.007198 -0.00201047 -0.00162861 -0.00218843 
-0.00161952 -0.0124493 -0.0121875 -0.00937883 0.0618485 0.068711 -0.00647311 -0.00589095 -0.00021791 
0.0214576 0.0192674 0.0235763 -0.005429 -0.00615305 -0.019911 -0.015045 -0.00699803 0.100587 
0.0999124 0.0188314 0.0169702 0.0223415 0.0235244 0.0203697 0.00578346 0.00629079 -0.00376192 
-0.00393172 0.00294514 0.00600674 0.00273155 -0.004774 -0.00564448 -0.00568873 -0.003444 -0.00407739 
-0.0010592 -0.00219853 9.36012e-05 0.000621734 0.00051318 0.00165212 0.00934314 0.00627092 0.00839491 
0.00148969 0.00297536 0.0016641 0.0251441 0.0203304 0.0301977 0.026216 -0.00157545 -0.00189055 
-0.00205899 0.000420201 0.00116189 0.00107834 0.000564088 0.00106547 0.000672023 0.0045096 0.00494463 
0.0130106 0.0144377 0.0160851 0.0177524 -0.00108816 -0.000413556 -0.00162389 0.000558212 0.000282181 
0.00058408 0.0281618 0.0278042 0.0280453 0.00038132 -0.000582605 -0.00162358 -0.00230422 -0.000951437 
-0.00579548 -0.00368242 -0.00397395 -0.00246671 -0.00673176 -0.00456431 -0.00798064 -0.00541818 -0.000969769 
-0.0018092 -0.000591172 -0.0103198 -0.0105074 -0.0117409 0.0858465 0.0777465 0.0380725 0.0368778 
0.0427897 0.0660652 0.0772434 0.054589 0.02579 0.0235131 0.0275842 -0.0195129 -0.0191394 
-0.017738 0.0475438 0.0481282 0.0425267 -0.0207697 -0.0213166 -0.0157974 -0.0170286 -0.0154103 
4.55581e-05 1.66428e-05 2.68695e-05 -0.0165365 -0.0163701 -0.0180699 0.00219712 0.001643 0.00212863 
-9.5722e-06 0.000152359 0.000156157 -0.0041571 -0.00657757 -0.00663115 0.0010667 0.00173505 0.00104158 
0.00175433 -0.0187992 -0.0175883 -0.000583997 -0.000514235 -0.000950021 -0.00135134 -0.00205115 -0.00126515 
0.066075 0.0608699 0.0743617 0.00206546 0.0046165 0.00246496 -0.00913182 0.00436153 0.00358632 
0.00461662 0.00364291 -0.0111669 -0.0112258 -0.012007 0.000867902 0.0014994 0.00096657 0.00154692 
-0.00174965 -0.018085 0.056866 0.0545608 0.0640389 0.0197362 0.0300109 0.0237203 0.0186663 
0.00757335 -0.0171507 -0.0177681 -0.0161263 -0.0165716 -0.00689547 -0.00400219 -0.0025688 0.00535871 
0.0065082 0.00530515 0.0064457 0.0370089 0.0360397 0.0419971 -0.00150616 -0.00214991 0.0183345 
0.0224186 0.0213865 -0.00100832 -0.00095182 -0.0004746 -0.000495341 -0.00696716 -0.00503241 -0.0214584 
6.25145e-05 0.00011298 0.00014646 -0.0280284 -0.0360593 0.0990997 0.0049533 0.00456248 0.00604424 
0.00563545 0.00397309 0.00435968 0.000142473 2.72366e-05 -7.86008e-05 -5.99348e-05 -0.0131958 -0.0162414 
0.000106525 0.000651671 0.000148097 0.00487518 0.000688109 0.00112245 0.00106672 0.00184771 0.00123094 
0.00223589 0.00122582 0.00227046 0.00201067 0.00267634 0.0013392 -0.000327557 0.000821134 0.00174561 
0.00265129 0.00423017 0.00576502 -0.017684 -0.0231649 -0.0163968 -0.019782 -0.000296623 -0.00036415 
-0.000599268 0.0133018 0.00760122 -0.0032651 -0.000116535 -0.000415147 -0.000588009 0.000856421 -0.000716455 
-0.00084654 -0.00202215 -0.00239461 -0.00242458 -0.00284378 0.000124726 0.000371536 0.000271957 0.0639371 
0.0572563 0.0561089 0.0315 0.0306221 0.000579602 0.00133378 0.00129606 0.0718784 0.0706067 
0.0797939 0.0786859 0.0997911 0.100409 0.100954 -0.000792109 -0.00917973 -0.00197164 -0.0026423 
-0.000752153 -0.00369384 -0.00869027 0.0928439 0.0868977 0.0884045 0.00315738 0.00264012 0.00210332 
0.000927976 -0.00395558 -0.0038499 -0.00249207 0.000384197 -0.00357947 0.0268471 0.0288979 0.0263059 
0.028379 0.0366887 0.0322049 0.0355789 0.0308633 0.0181974 0.02031 -0.00555978 -0.0018427 
-0.00837158 -0.00260398 -0.00469286 0.0848047 0.0920012 0.0859641 -0.00807817 0.0586045 0.0593522 
0.0524576 0.0530791 0.069525 0.0617221 0.0627339 0.0902286 0.0826678 0.0818364 -0.00964505 
-0.013606 -0.00990759 0.0747158 -0.0133738 -0.00635802 -0.00440225 -0.00716131 0.00172856 -0.00668187 
-0.00169349 -0.00296449 0.0106634 0.0084222 0.0113372 0.00905675 -0.00279201 -0.0138753 -0.0136145 
-0.0151763 -0.0349828 -0.0309919 -0.0452877 -0.023828 0.00226214 0.00140451 0.00229274 0.00153843 
0.0499314 0.0491831 0.0551053 0.00350278 0.0370665 0.0331227 0.0378313 0.0416984 0.0420602 
0.0466769 0.0329318 0.0453042 0.036122 0.0405057 0.0561553 0.0489536 0.0882609 0.0280395 
0.0226349 0.00286505 0.00420959 -0.00221963 -0.0015174 -0.00178607 -0.0157783 -0.0105446 -0.0142168 
-0.0039549 -0.00296787 -0.0037786 -0.00641324 -0.00428482 0.00224598 -0.0338397 -0.00781986 -0.00162157 
-0.00184151 -0.0030958 -0.00262444 0.000777807 0.00145404 -0.000492139 0.00640999 0.000573259 5.38223e-05 
0.00952404 0.00818959 -0.00227726 -0.00168788 7.81258e-05 -0.000537132 -0.0123969 -0.0071415 -0.00293356 
0.00318284 -0.00051792 0.000773159 0.00284296 0.0780242 0.0770727 0.00487178 0.00607859 0.00609199 
0.00746347 0.000203091 0.000271313 0.000141998 0.0130428 0.00670041 -0.00428848 -0.00411049 0.0115277 
0.0150424 0.012754 -0.0111663 -0.0128782 -0.0115696 -0.0133333 -0.0251666 -0.0234737 -0.0259417 
0.023764 0.0212496 0.0195544 0.026851 0.0293185 0.0259078 0.025496 0.00770314 0.00736694 
0.00936491 -0.0321273 -0.0242941 -0.0203294 0.0161528 0.0196464 0.0183496 -0.00403363 -0.00396492 
-0.000351722 -0.00038476 0.000544125 0.0149735 0.017154 0.0152043 0.017444 0.000450189 0.00103624 
0.000408421 -0.00457762 0.0468891 0.0507708 -0.0175389 -0.0168187 -0.0191293 0.00291426 0.00219967 
0.00264851 0.0017081 -0.0152213 -0.013659 -0.0151558 0.00195543 0.00220604 0.00242896 0.00273398 
-0.0173254 -0.0172533 0.108026 0.000860721 0.00265284 0.00205439 -0.00137826 -0.000938409 0.00358962 
0.00311435 0.00310427 0.00717158 0.0178108 0.0122276 -0.0183818 -0.0176286 -0.0203372 -0.0196352 
-0.000862688 0.11491 0.116105 0.101796 0.110581 0.00675578 0.00764323 0.1048 0.0935835 
0.101113 0.0907154 -0.00311964 -0.00498805 -0.00557544 0.0481648 0.0511619 0.032415 0.0318718 
-0.00240343 -0.00355014 -0.00299312 -0.00187878 0.00461777 0.00420346 0.0115444 0.0113506 0.0137382 
-0.00701813 -0.00516473 0.00547015 0.00571958 -0.000131977 -0.000112736 0.0614376 0.0684839 0.001053 
0.00103816 0.000357008 0.00179611 -0.000182293 -0.000406892 5.14619e-05 -0.000102456 0.000302681 -7.64243e-05 
-0.00827899 -0.00888682 -0.00968431 -0.00755244 -0.00902648 0.0911931 0.0949933 0.102064 0.00107495 
0.000861071 -0.0136821 -0.0121982 -0.00510654 -0.00167027 0.00894743 0.00412334 4.31539e-05 0.0116378 
0.0139072 0.014975 0.0182231 -0.0153279 -0.009682 -0.00978329 0.0518006 0.0445584 0.0454221 
0.000271232 0.000367915 -0.000241586 -0.000363775 -0.000160325 0.0208569 0.0149992 0.0168471 0.0124711 
0.00921202 0.00744867 0.00734274 0.00587272 0.04576 0.00329259 0.00318035 0.0323632 0.0281213 
0.0257212 0.0299831 0.0277499 0.0229523 0.0207207 0.0201649 0.00340903 -9.44316e-05 -0.000208057 
-0.0128486 0.0372859 0.00739093 0.00566903 0.00791468 0.0295851 0.000151739 0.00032622 0.000246446 
0.0247355 0.0225447 0.0247911 0.000916526 0.0014074 0.00127392 -0.0011161 -0.000568089 -0.00210114 
-0.00176299 0.00125505 0.00115302 0.000690671 0.000684343 0.00199009 0.00131208 0.00133928 0.00195333 
-0.000714122 -0.00124621 0.0491816 0.00362754 0.00349853 0.00260116 0.00252723 0.000292485 0.00327156 
0.00212955 -0.0179856 0.00180964 0.00433806 0.00156306 -0.000112838 -0.000487338 -0.00134637 -0.000936718 
-0.00192934 -0.003811 -0.0032587 -0.00544912 0.0144659 0.0184213 0.0424647 0.0371677 0.0378167 
0.00636443 0.00611519 0.00527764 0.000905645 0.0187188 0.0183383 -0.00457177 -0.00283981 -0.00327239 
-0.011277 0.000623895 0.000816805 0.0007409 0.0173451 0.0103241 0.012775 0.00924089 0.0114336 
-0.0275171 -0.0139147 0.000494338 0.109321 -0.000325205 -0.000303501 0.0152313 0.0162846 -0.0102456 
-0.00928288 -0.0105971 5.20277e-05 6.66303e-05 0.000174699 -0.00905157 -0.00826173 -0.00975741 -0.000112348 
-0.000222299 0.0214554 0.0189179 0.0230623 0.0265262 0.0548888 0.0633902 0.0701213 0.035292 
0.0929863 0.0717642 0.0578228 0.0792901 0.077095 0.106481 0.104519 0.106752 0.0275104 
0.0236336 0.0250754 0.0206638 0.0172657 0.0211546 0.0189241 0.0221151 0.0947299 0.0950742 
0.0900503 0.0898124 0.0825202 0.0822966 0.0899188 0.016443 0.0200987 0.024819 0.0134637 
0.09634 0.00322236 0.00539017 0.00338014 0.0262031 0.0750587 0.0752603 -0.00781211 0.080899 
0.0693884 0.0979205 0.079724 0.0260554 -0.0153513 -0.0136797 -0.0143354 -0.0178236 -0.0159706 
0.0142609 0.0164758 0.014233 0.0186182 0.0174837 0.0213202 -0.000461763 -0.000351368 -0.0075939 
-0.00789184 -0.00427226 0.0698041 0.0634264 -0.0119023 -0.0126536 -0.0111898 -0.000744877 -7.19404e-05 
-0.0001459 -5.76115e-05 -0.00808661 -0.00693984 -0.0088031 -0.00765165 -0.00943579 0.00124084 0.00193332 
0.00221147 0.0124734 0.0222378 0.00613803 0.0116485 -0.00045967 -0.000219229 0.00183731 0.00103784 
0.00179905 0.0010374 -0.0112809 0.0143893 0.000236638 -0.0108805 -0.0114799 -0.0101587 -0.0432386 
0.0241823 0.0205773 -0.000187652 0.00289102 -0.0118553 -0.013522 -0.00080425 -0.000398843 -0.000237039 
0.000748141 -0.00867981 -0.00928026 -0.0101058 0.00749186 0.0164559 0.0125821 0.000129905 0.000252343 
0.000101722 0.0057414 0.00930695 0.00872884 0.0546152 0.0480451 0.0217596 0.0234336 0.01749 
-0.000339822 -0.000724805 -0.000730792 0.0152806 0.0252266 0.104489 0.0164238 0.0098083 0.00248564 
0.00815377 0.0246273 0.0247521 0.024637 -0.000556231 -0.000427742 0.0252395 0.0153512 0.017483 
0.123625 0.00630396 0.00477426 0.0103473 -0.0132969 -0.0111008 -0.0230478 -0.00892353 0.0334611 
0.0336048 -0.00981142 -0.0106087 -0.00852857 -0.0147162 -0.0145149 -0.0137024 0.0404422 0.0144313 
0.076215 0.0521171 -0.0143929 0.000667646 0.00139423 0.000472178 0.000344936 0.0611381 -0.00356641 
-0.00275754 -0.00286194 -0.0135484 -0.012887 -0.0119935 -0.000402422 -0.000123539 0.000610227 0.0310462 
-0.00990694 -0.00779985 -0.00746739 -0.00661222 -0.00819507 -0.0164771 -0.0189868 -0.0253243 -0.0193466 
0.0276852 0.00359545 0.00464033 0.00450422 0.000148756 -2.48341e-05 -0.000109511 0.0117215 0.0115367 
0.013437 0.0131107 0.0241107 0.0208609 0.0228932 0.0224281 0.0118997 0.00701556 6.78659e-05 
0.00956481 0.00688778 0.00104424 0.00189874 0.00792128 0.010083 0.0245514 0.0269705 0.0231535 
0.00640337 0.00835108 0.00898266 0.000441904 0.00800103 0.00574781 0.00757758 0.0278126 0.0254467 
-0.00924879 0.0272087 0.0307861 0.02565 0.0293031 0.0651087 -0.00673546 -0.00599473 -0.0227758 
-0.000722492 0.0385507 0.0340441 0.038985 0.0349896 0.0039147 0.00433195 0.0185592 0.0391348 
-0.00219266 -0.00231904 -0.00123565 -0.00664827 -0.004038 0.0269094 0.03494 0.022184 0.023787 
0.0235359 0.0215794 0.0322183 0.0287973 0.0297002 0.0268198 -1.546e-05 -0.00315009 -0.00284055 
-0.00415213 -0.00276907 -0.00608178 0.0167543 0.0141543 0.0134574 0.0104092 0.00215326 0.00264622 
0.00226242 0.00292509 0.00624572 0.00542219 -0.00815599 -0.00967764 -0.00764861 0.000398954 0.00624318 
0.00501002 0.00568847 0.00454368 7.09287e-05 0.000442241 0.0246263 0.0254791 -0.000180289 0.00415015 
0.00544503 0.00542101 0.0341984 0.0341428 0.00596968 0.00576989 0.00465297 0.00449462 0.00140304 
0.0010538 -0.00112458 -0.00135429 -0.00498631 0.0005007 -0.00323981 -0.000202758 0.00494549 0.00238083 
-0.000108935 -0.000438616 -3.78308e-05 -0.00249592 0.00515191 -0.00489103 0.00269063 0.0029549 0.00347978 
0.00801884 0.00934278 0.00782559 0.00905163 0.10695 0.10199 0.00980892 -0.00199153 0.0150896 
0.0134108 0.0153471 0.0148068 0.012074 0.0146801 0.0120191 -0.000295579 -0.0103888 -0.0110796 
-0.00389864 -0.00610698 -0.00459778 0.0139054 0.0791386 0.0870355 0.0872653 -0.0236983 0.00395419 
0.0113624 0.012553 -0.0159867 -0.0151475 -0.0187215 0.00981056 0.0117993 0.00993026 0.0121778 
0.0689128 0.0777503 0.00693338 0.00768482 0.00792029 0.00892756 -0.0120224 -0.012808 -0.0116187 
0.0970909 0.0990873 -0.000194958 0.0507693 0.0582219 0.068555 0.06142 0.0682529 0.0162348 
0.0941268 0.07189 0.0650301 0.074885 0.100826 0.104552 0.00238866 0.00230034 0.00352836 
0.0823155 0.0824669 0.0144813 0.0155855 0.023002 0.000266544 0.000423947 0.00041256 0.0656352 
0.0638822 0.0265279 0.0260554 0.0238621 -0.000879307 -0.00573325 -0.00486067 0.00285468 0.00657541 
0.000799151 0.000688355 0.0198266 -0.000847796 0.00632208 0.0215841 -0.000977308 0.0477306 0.0414315 
0.101148 0.10429 0.0245678 0.0239008 0.0210769 -0.0128129 0.00358264 0.00359885 0.00467294 
0.000118095 0.000197035 0.000505672 0.000413638 -0.00601128 0.00237422 0.0997652 0.102119 0.100867 
-0.00695723 -0.00727149 -0.0147343 -0.00813686 -0.00619618 -0.00863176 -0.00247673 -0.00255543 -0.00362759 
0.100465 -0.00975438 -0.00862894 0.0238714 0.0218932 0.0222796 -0.00896302 -0.00904787 -0.023109 
-0.0254782 -0.0250838 0.0224225 0.0155972 0.0349988 0.031175 0.0292287 -0.00400289 0.00065245 
0.000729624 -0.00371701 -0.00308768 -7.94386e-05 0.0569361 0.0505532 -0.000749661 -0.000353907 -3.54816e-06 
-0.0140009 -0.014002 -0.0152694 -0.0151772 0.0113623 0.0151716 0.0114015 0.000382893 0.103986 
0.00847056 -0.0023601 -0.00270629 -0.0146458 0.0365068 0.0156218 0.0148963 0.019445 0.066905 
0.038525 0.0422485 0.0383388 -0.0107421 -0.00340883 0.00573899 -0.00487369 0.00251647 0.0244344 
0.0250056 0.000100977 0.000162021 0.00351456 0.00229134 0.00341562 0.0409956 0.0350218 0.0361055 
0.0452007 0.000483858 0.00123625 0.00114149 0.0292062 -0.0112653 -0.0105285 0.0269991 0.00589019 
0.00544565 -0.00961897 -0.0113248 -0.00856525 -0.0101669 -0.00648692 -0.0178774 -0.016884 -0.018824 
-0.0200401 -0.0212388 0.00026072 0.127689 -0.000695122 0.000193912 -0.00526458 -0.00458895 -0.0033816 
0.00396296 0.00364131 0.00541373 0.0049611 -0.000114294 -0.00241625 0.00242509 -0.00534954 -0.000436364 
-0.000665443 -0.0126125 -0.0122885 -0.000944493 -0.00134448 0.0195629 0.0167556 0.0198738 -0.00142134 
-0.00163249 -0.00517946 -0.000770196 -0.000382833 -0.000784772 -0.000485482 0.00360714 0.00302206 0.00330456 
0.0636318 0.0735281 -0.00833325 -0.00690716 0.000212021 0.0251786 0.0314641 0.0440195 0.0386811 
0.0416914 -0.000751647 -0.00255526 0.00184772 0.00175564 0.0293381 0.00297998 0.00183062 0.0106777 
0.0929551 0.000890416 0.000450664 -0.00452097 -0.00440454 0.000684439 0.0682756 0.0412712 0.00458785 
0.00591895 0.00406161 0.0418124 0.0510682 0.0409796 -0.000513578 -0.00124818 -0.00279378 0.0181669 
0.0420645 0.0364019 0.0349905 0.0602297 0.0592557 0.0137343 -0.0110327 -0.0198233 -0.0173716 
0.107567 0.0954128 0.0907726 0.0753072 0.0337127 0.0372615 0.0435239 0.0515651 0.0501549 
-0.000873137 0.0432064 0.0473704 0.0376362 0.0416182 -0.00530335 0.000444608 0.000897496 0.000617438 
-0.0232124 0.0667653 0.0680102 0.0598986 0.070478 -0.000296246 -0.000181148 -0.000253268 -0.00355868 
-0.000412221 -0.000732853 0.00472947 0.0530908 -0.000133986 0.00269132 0.00303958 -0.00987422 -0.0011355 
-0.00107992 -0.00109477 -2.25573e-05 -0.00318754 -0.0031171 -0.000668286 -0.0099982 -0.000179835 -0.000111014 
-0.0042803 -0.00919152 -0.00120396 -0.00716693 0.0201591 0.0389896 0.028201 -0.0054793 0.00426907 
0.00286454 0.00622034 0.00514931 -0.0034535 0.00542364 0.000800479 0.000235333 -0.00278576 -0.00152312 
0.0168937 0.0146709 0.0136397 -0.00787514 -0.00673413 0.000456355 -0.00387301 -0.00649028 0.00504455 
0.010176 0.00895274 0.00986585 0.00444421 0.00334175 0.00389523 -0.00187659 0.00080673 -0.00240976 
-0.00249304 0.00372168 0.00476591 0.00518239 0.00392205 0.00433868 0.0122432 0.0433063 0.0039461 
0.00571501 -0.0051957 -0.00842844 -0.00800432 0.0126146 0.0163738 0.00861599 0.0139413 -0.012848 
-0.0120132 -0.0130173 -0.0137236 -0.0139439 -0.00433282 -0.00395527 0.00406336 0.00391065 0.00273236 
0.00239905 -0.0021068 -0.00181826 -0.00262574 0.0205588 0.0503105 0.0407904 -0.0120867 -0.014977 
-0.0120581 0.00185103 0.00492444 0.00465706 -0.00109459 -0.00123924 7.29536e-06 -1.4748e-05 -0.0170434 
-0.0179343 0.00435294 0.00266216 0.0105965 -0.00222312 -0.000582675 -0.00652567 -0.00317186 0.00421605 
0.00652702 -0.00660247 -0.00584159 -0.00768983 -0.00605461 0.0134346 0.0165197 0.0137907 0.0169189 
-0.0274579 -0.0284181 0.0193075 0.0199516 0.0124798 0.00998845 0.0210204 0.00978315 0.0200599 
0.0219835 0.0161519 0.0240665 0.0232878 0.021647 0.03394 0.0316362 -0.00488489 -0.00665815 
-0.00622749 -0.00286296 -0.00401722 -0.00319175 0.00678709 0.00532842 0.00754973 0.00571791 0.0100806 
0.0321802 -0.000871669 -0.0141995 -0.00812324 -0.0161744 -0.000498571 -0.00015118 0.00365707 0.00396641 
0.00610785 0.00668182 -0.00552712 -0.00518266 0.00222163 0.00171775 0.00880166 0.00742875 0.00836415 
-0.00754673 -0.00769133 -0.00874839 -0.00496187 -0.00437719 -0.00101658 -0.0152413 -0.0068908 0.00743002 
0.0109459 -0.00816163 -0.00907198 0.0841826 0.00743519 0.00588361 0.00936729 0.0057901 0.00511295 
0.00630675 0.0533337 0.0597513 0.0220691 0.0242464 -0.000168543 0.000176571 0.0550891 -0.00474388 
-0.00245887 -0.00164067 -0.0028516 -0.00622644 -0.00492956 -0.00176193 0.00264091 0.00246709 0.00213907 
0.0345476 0.0315798 0.0144736 0.00915767 0.00451252 0.00356497 0.00390907 0.0372692 0.0275751 
0.0197554 0.111341 0.000330581 0.10336 0.0096661 0.0363729 0.0341909 0.029074 0.023648 
-0.00783713 -0.00899185 -0.0132656 -0.00144428 -0.0015727 -0.00270521 0.000538998 -1.14761e-05 -0.000190034 
0.0104078 0.011984 0.0105917 -0.00759726 -0.00612371 -0.00114659 -0.000793483 0.0120065 0.0115919 
0.0235803 0.0271942 0.00950161 0.00134643 0.00247579 0.00133921 0.0022882 0.0436187 0.0285802 
0.0268518 -0.014426 -0.013841 0.000223477 0.0943412 0.0883391 0.0889823 -0.0147 0.00489653 
0.00301449 0.00122115 0.00188281 0.00246174 -0.00223696 0.000478004 -0.00248889 0.00667465 0.00590579 
-0.0224574 -0.023742 -0.0214327 -0.00537427 0.0347839 0.00161838 0.00628058 -0.00555004 -0.00502565 
0.00526321 0.00431457 -0.0105443 -0.00242171 0.000792891 0.000783926 0.00155136 0.00291549 0.00145032 
0.000961668 0.000650275 0.00103849 0.105187 0.0551893 0.0544319 0.0132909 -0.00209686 0.0440843 
0.0311738 0.0290089 0.0288505 -0.0133089 -0.0124589 0.0141266 0.0110396 -0.0227176 0.0068753 
0.00883296 0.00932394 0.00822884 0.00866204 0.00864571 -0.00178249 -0.00398168 -0.00335209 0.00956669 
0.00777027 -0.0130468 -0.0100104 -0.000219489 0.0019939 0.0316556 0.0262021 0.0533781 0.0418743 
0.0377339 -0.00151489 -0.000537387 -4.04511e-05 -0.000424622 5.51638e-05 -0.000157755 0.00103051 -0.0179529 
-0.0165417 0.0107171 0.00387173 0.00542739 0.00399073 0.00741803 0.00859368 0.00677237 0.00980425 
0.0109144 0.00420965 0.00824858 0.0336236 0.00221589 0.00289087 0.00293368 0.0432807 -0.0100855 
0.027877 -0.0065218 -0.00979393 -0.000824983 -0.000354468 -0.000669296 0.0480819 -0.00747334 -0.00650227 
-0.00613285 0.00202426 -0.00898894 -0.00974475 0.0310911 0.0301215 0.00498645 0.00213846 0.0828672 
0.0903221 0.0828796 0.090811 0.00547629 0.00398278 0.00474802 0.00120919 -0.0115745 -0.0126906 
-0.00809292 0.0277826 0.00640839 0.006775 -0.00687059 -0.000420075 -0.00802028 -0.00547115 -0.00405501 
-0.00266232 0.0273111 0.0254951 0.0290119 0.00253082 -0.00621631 0.0217213 0.0235891 0.0147787 
0.00748196 0.0085828 0.00940577 -0.004734 0.00263581 0.017988 0.0203152 0.0205366 0.00403392 
0.0865996 -0.00410255 -0.000984333 -0.000847728 -0.00316266 0.018448 0.0150089 0.0170168 0.0122849 
-8.03139e-05 0.0715957 0.0683914 0.0616526 -0.00926936 -0.00886873 0.0157952 0.00263836 0.00110061 
0.00109646 0.00157296 0.0140693 0.00889647 -0.00148739 -0.0028758 -0.00103232 0.000188176 0.000414285 
0.000253974 -0.00478905 0.0607757 0.0537078 0.0539557 0.0242751 0.0251727 -0.00651101 -0.022387 
-0.025055 -0.0242867 0.00315812 -0.0203317 -0.0218663 0.0754351 -0.0183261 -0.0200831 0.00369001 
0.000163889 0.000169213 0.000408034 -0.00167671 -0.00134568 0.000238337 0.000615002 -0.0112212 -0.0122381 
0.00179928 0.00266336 0.00105954 -0.00119502 -0.000324337 0.0510706 0.0653841 0.0423312 0.0224648 
0.00698759 0.0905144 0.0964607 0.0975009 -0.000150907 0.00204428 0.024143 0.0235461 -0.00204692 
-0.00169353 0.033422 0.0285157 0.0298404 0.00220222 0.0034008 0.00443777 -0.00256771 -0.00756743 
-0.00463198 -0.00876854 0.00185637 0.0217201 -0.0103994 -0.00870716 0.000949801 0.00906007 0.0109843 
0.000331836 0.0220668 -8.05089e-05 0.0109153 -0.000279326 -0.000211667 0.000996209 0.000130575 -0.0140158 
-0.0143743 0.000268682 0.0650996 0.0669319 0.0583036 0.00165563 -0.0120497 -0.0138633 -0.0129167 
0.00374364 0.00151851 -0.00326493 -0.00496467 0.00720747 0.0102104 0.0018042 0.000933291 0.000927248 
0.00425023 -0.00138177 0.00138361 -0.00716436 0.00263371 0.00230772 0.00189772 0.0825125 0.0820699 
0.103568 0.00471866 0.000170153 8.49225e-05 0.000226426 0.0170175 -0.0157802 -0.0193022 -0.00320528 
-0.00058341 0.00649417 -0.00196467 0.0653081 0.0585754 -0.00740112 -0.000706664 -0.00626385 0.0120188 
0.0137247 0.0164656 -0.0177116 0.0541513 0.0139156 0.0111837 0.102893 0.104353 0.101245 
0.0227012 0.0727938 0.0482619 0.00301463 0.00204772 0.00192513 0.00278403 0.0331952 0.00179573 
0.00277325 -0.00326055 4.55838e-05 -0.0216432 -0.0257001 -0.0141131 0.0533154 0.0463855 0.0953115 
-0.0196839 0.00948614 0.00872857 0.0138805 0.115019 0.10359 -0.000472922 -0.00412747 -0.0216443 
-0.0197171 -0.0214634 -0.0210533 0.141395 0.115825 0.0905605 0.0825222 0.00670718 0.0052776 
-0.00508165 -0.00577603 -0.00816413 0.00028449 0.000141589 0.000102115 0.000317259 0.000215541 -0.0169628 
0.037684 0.0375823 -0.0294165 0.00333597 0.00445084 0.0032988 0.00246104 -0.000663454 -0.000425745 
0.114861 0.122491 0.107091 0.116386 0.00829432 0.00713151 0.0067121 0.000742527 0.000386029 
0.00052923 3.93958e-05 -0.00109944 -0.000471155 -0.00172019 -0.000861747 0.0337915 0.028867 -0.000193298 
-0.000337044 0.0865792 0.0029154 0.00213293 8.3391e-05 0.00829066 -0.0177801 -0.0169098 -0.0192305 
0.000105811 0.000506428 0.00338885 0.0175283 -0.00148411 -0.0229587 -0.0131717 -0.0240433 -0.00156224 
-0.0222824 -0.0151179 0.000825286 -0.00478317 0.00292543 -0.00408614 -0.00243878 0.0948493 0.015005 
0.0172707 0.0148217 0.000197943 5.22115e-05 0.00190131 0.0015443 0.00241068 0.0159638 0.0124159 
0.0272057 0.0248827 0.031757 0.00503642 0.00588428 0.0204184 0.0142262 0.000331366 -0.000235253 
0.0244358 0.00467119 0.00366108 0.00428845 0.00379258 0.00374406 0.00260485 0.00361194 0.0186042 
-0.00342424 -0.00362882 0.000643978 0.000235201 -0.00566032 -0.00488131 -0.00557682 -0.00480642 -0.00855303 
-8.29756e-05 -0.00650378 -0.00356527 -0.00646802 -0.00345628 -0.000127557 0.000364286 0.000298643 0.0401196 
0.000151318 0.000466355 -0.0147601 -0.00201784 -0.0010522 0.00129247 0.00130362 0.00193774 0.000188052 
-0.00125464 -0.00302096 -0.00177927 -0.000685872 0.000255067 0.00818728 0.00621529 -0.00391542 -0.00315996 
-0.0160855 0.00292452 0.00263172 0.00209714 0.000582802 0.00399474 0.00417378 0.00320712 0.0128048 
0.00568247 0.0357437 0.0233242 -0.0101613 -0.00885318 -0.0116615 -0.0126089 -0.00769155 -0.00876166 
-0.00669886 3.83542e-06 -2.98329e-05 0.0475691 -0.0013546 -0.00553913 -0.00738681 -2.78328e-05 -0.00386873 
0.00119649 0.00596854 0.0169335 0.0136839 0.00750366 0.0197066 0.0131053 -0.00978941 0.000332297 
0.00295377 0.00327091 0.00442156 0.00351761 0.0193454 0.106954 0.107259 0.0271912 -0.00691262 
-0.00408482 -0.0044808 -0.00217971 -0.0081236 0.000745303 0.000785882 0.0259161 0.00825192 0.000118669 
0.00951188 -0.0128981 -0.0135579 0.00389343 -0.0128354 0.00102756 0.00109798 -0.000957643 0.000567775 
-0.00116624 0.0106766 0.0135153 -0.010761 0.0977719 0.0955608 0.0899053 -0.000631166 -0.00246436 
-0.00417136 -0.00549151 0.00113352 0.000647698 0.000755737 -0.0128322 0.00791173 -0.020742 -0.017076 
-0.000342401 -0.0107523 0.0009693 -0.0137124 -0.0128591 0.0203156 0.000410793 0.000319989 -0.000123302 
-0.000114388 0.0002487 7.44469e-05 0.0256561 -0.0150009 0.00118519 0.00683853 0.00475365 0.00459969 
0.00591637 -6.50942e-05 -9.45292e-05 0.0445801 0.0325889 0.015985 -0.00129333 -0.00271354 -0.00857594 
-0.00606834 0.00328788 0.000756701 -0.000535005 -0.000167107 0.00187087 -0.00536138 0.000231313 -0.00321611 
-0.00157572 -0.00121317 -0.00809542 -0.0057196 -0.00586713 -0.0213315 -0.0208015 -0.0197077 -0.019367 
0.00592757 0.000190358 0.00434463 0.00420736 0.00526901 0.0070167 0.00491674 0.00157483 0.0429969 
0.0486692 -0.00966641 7.66986e-05 -0.00030864 0.00120017 0.000914882 0.00145616 0.0218233 0.0887238 
0.0990561 0.00176555 0.0303414 0.0338779 0.030945 0.0342405 0.0239313 0.0208817 0.0262045 
0.0442245 0.0923687 -0.00871004 -0.00702641 -0.0077485 -0.00620458 -0.0118312 0.000352912 0.00630574 
0.00742831 -0.0131201 0.0158051 5.3369e-05 0.000477705 -0.00519455 -0.00621586 0.00309477 0.00354828 
0.00401049 -0.0258539 -0.0259084 -0.00876148 -0.000485464 0.00796636 -0.00478251 0.00190674 0.00277419 
0.0400996 0.0340462 -0.000332101 -0.00882661 -0.0127484 0.0224895 0.00980371 0.0258104 0.0233609 
-0.0115264 0.0216098 0.00182067 -0.000143106 0.00122682 0.000928068 0.000640941 -0.00785922 8.61107e-05 
0.000192945 0.000108027 -0.00304374 -0.00322376 -0.000384407 -0.00980788 0.00127071 0.00650109 0.00725202 
0.00424067 -0.00515404 -0.00167957 0.00265712 -0.0216138 -0.00254936 -0.000505961 0.000382164 0.00109109 
0.00424919 0.0302269 0.0355823 0.0338986 0.00263189 -3.97363e-05 0.00210585 0.00113164 0.047539 
0.0465267 0.0396462 0.0380632 -0.00243054 -0.0021748 0.0198755 0.0224271 0.00726399 0.000331288 
0.00726249 -0.000472003 0.00780558 -0.00953024 0.0105204 -8.56006e-05 -0.0169832 0.0708697 0.0810668 
0.0794596 -0.0140658 0.00944271 -0.0120541 -0.00309942 0.055033 0.0749833 0.000237357 0.000154052 
4.67932e-05 0.0623907 0.00195924 0.000909669 0.00140731 -0.00125223 -0.00130201 -0.00184215 0.023308 
0.00168719 0.00144812 0.00110666 0.0047407 0.00432221 0.00239603 0.000149066 0.00013384 0.00710078 
0.00779928 0.00838319 0.00257084 0.0233661 -0.000758291 0.0731642 0.0885967 0.0469846 0.0471303 
0.105014 0.0932247 0.0927186 -0.00272281 0.0756342 -0.00484005 -0.00471826 0.0364328 0.0411371 
0.0443635 0.0384967 0.0463841 0.0334117 0.107187 0.0101851 0.0129593 0.0275876 0.0252462 
0.0254594 -0.00692258 -0.00694458 -0.0326095 -0.0455434 -0.0673986 -0.0554582 -0.00230834 0.0250384 
-0.000435213 0.000485398 -0.0201116 -0.00737409 3.24324e-05 -0.0135117 0.00382701 0.00323554 0.00498445 
-7.17231e-05 1.91583e-05 -0.0103771 0.0216831 -0.00809014 -0.00621905 -0.000212356 -1.1965e-05 0.0510044 
-0.023682 0.0196582 -0.0040147 -0.00227681 -0.00185096 -7.81864e-06 -8.57589e-05 0.0343923 0.020497 
0.0202397 0.0242485 0.022227 0.0266841 0.0190578 0.0415705 0.0408652 0.0212802 0.00600452 
0.0320114 0.0358381 0.000251061 0.000316058 -0.0113059 -0.0126918 0.0106263 0.00179448 0.0100198 
-0.0130522 0.000370387 0.00631473 0.103666 -0.00651625 0.00446774 0.0071635 0.0158196 -0.00683775 
0.0108673 -0.0130445 -0.00106755 0.0119299 0.00565395 0.0118895 0.000206064 -0.0166098 0.006852 
0.00210024 -0.00404826 -0.00105298 -0.00348893 0.00765549 0.00999844 -0.0014988 5.51178e-05 0.106491 
-0.0159441 0.0134495 0.0130003 -0.0136324 0.000147862 0.000209302 0.00201746 0.103248 0.00475579 
0.000381048 0.0268658 0.0249911 0.110194 0.0184516 0.0334457 0.0207905 0.0479554 -0.00121188 
0.00279101 0.00233065 0.00366937 0.00336306 0.021411 -0.0158829 -0.0151828 -0.0177147 -0.0170764 
-0.00111484 -0.000715006 0.000681569 0.00991826 0.0290337 0.0318005 0.0252987 0.0276818 0.0289878 
0.0486231 0.0348568 0.0332704 0.030856 0.00494679 0.0832744 -0.0214448 -0.0203126 0.00303964 
0.0760065 0.107953 0.106906 0.00537463 0.0004339 0.0304595 0.000177785 0.00020001 0.000781594 
0.000734895 0.000285729 0.000295054 0.0072843 -0.0239634 -0.0262796 -0.00813126 -0.00980537 -0.0082543 
0.00027177 -0.00332202 -0.00119194 -0.0146162 -0.0188572 0.0123837 0.000626258 -0.00170941 -0.00197299 
0.000274214 0.000642195 0.000511903 -0.0103119 -0.0194389 0.110955 0.00338412 0.00323239 0.00253441 
0.00017011 -0.000602925 -0.000453628 -0.0213625 0.0896175 0.102948 0.0908073 0.10273 0.106431 
0.00582829 -0.00167168 0.067056 0.0664483 0.0266936 0.0786447 -0.0022564 0.00529295 0.00373319 
0.000171421 -0.00158534 0.000432315 0.000586673 0.000420446 0.0137527 0.0154822 0.000724804 0.000306841 
0.0227154 -0.000504836 -0.0284167 0.107478 0.104738 0.00880553 0.00571033 0.00910214 -0.000788853 
0.000701436 0.000504876 0.0752523 0.068278 0.0680529 0.101668 -0.00015588 0.0754274 0.0754272 
-0.0230837 0.00102061 0.00136382 0.0331553 0.0391323 -0.00033068 0.00133726 0.000699474 0.000156658 
0.0114818 0.0104174 0.000160757 -0.0236201 -0.00872956 -0.0128669 0.0168565 0.0243497 0.0200409 
0.000174306 0.00554047 -0.0057398 -0.00506794 -0.0211393 0.0465948 0.0333654 0.00224185 -0.000266708 
-0.00626671 -0.0103987 -0.0407934 0.00195187 -0.0116063 0.00256269 -0.00411804 -0.00402841 0.00188958 
0.00280424 0.017737 0.00772974 0.00943325 0.0677128 0.0670215 0.073632 0.0662827 0.00545155 
-0.0184473 -0.00623979 -0.019665 0.0117497 0.0136463 0.00247658 0.0022647 0.00149744 0.00226271 
0.0839905 0.0760363 0.0881695 -0.00840042 -0.00525337 0.12243 -3.08545e-05 0.000531486 -0.000917244 
0.0032771 0.00238719 0.121878 0.000890683 0.000346357 0.0447684 0.0553339 0.0543408 -0.0259011 
0.0311705 -0.0140588 0.00828656 -0.00508947 0.0135944 -0.0186376 -0.0134587 -0.0109501 0.0106009 
0.0117057 0.0128851 -0.0243321 -0.00404256 -0.0155522 -0.0112843 -0.0100905 0.0281678 0.0262085 
-0.0201826 0.0101902 0.00213272 0.00446537 0.016861 0.0169875 0.000427343 0.0176778 -0.0240031 
0.019087 0.0109648 0.0130823 -0.00786579 -0.00663356 0.0306677 0.0316852 0.0310809 -2.08381e-05 
0.0525249 0.0542483 0.00114723 0.000606461 0.000873215 -0.00445082 0.000761263 0.000660452 0.0415513 
0.0333408 -0.000124632 4.66698e-05 0.0660714 0.0541473 0.0599013 -0.000527198 0.0293796 0.0292679 
-0.00135836 -0.000292394 0.0140431 0.0212246 0.0130804 0.104301 0.0935874 -0.000270251 -0.000767997 
0.0085697 0.014949 0.0193082 0.00121749 -0.027256 0.0879706 0.0414823 0.0414646 -0.00419693 
0.0223046 -0.00620681 0.0290244 0.0255255 0.00451647 0.00129184 -0.0271332 -0.00714671 0.0034455 
-0.00983898 -0.00709024 -0.0104787 -0.0112576 0.0606628 0.060977 0.00137905 0.0187177 0.0173625 
0.0164427 0.000314396 -0.00152545 -0.00106489 -0.00566641 0.00150921 -0.0152435 -0.016626 0.000879178 
-0.00137793 -9.14877e-05 -0.00969521 0.000184951 0.0138006 0.00879227 0.0251399 0.0247242 2.06811e-05 
-6.13585e-07 -0.00498418 0.00152687 0.00392871 0.106031 0.106371 0.104149 0.107393 0.000247742 
6.80191e-05 0.000402834 8.54553e-05 0.104618 -0.00117648 0.0955598 -0.00957628 0.00456535 0.00564324 
0.00437218 -0.00172272 0.00820712 0.000397828 0.000436056 0.00478962 0.0501116 0.045378 0.0344502 
0.0054018 -0.00162925 0.00274976 -0.00110686 0.00222814 0.0535561 0.053697 0.0539988 -0.00255125 
0.00131695 -0.0189346 -0.00537679 -0.00773598 -0.021194 -6.36449e-05 -0.0105924 -0.0144177 7.8444e-05 
-0.00797868 0.0106046 -0.0152468 -0.0173705 -0.0194181 -0.0187061 -0.0218258 -0.00148284 -0.00333392 
0.00253752 -0.0166759 0.106814 0.00873972 -0.00783138 -0.00046575 0.0130057 -0.000900497 -0.00316447 
0.0122322 0.014305 0.0250233 0.0756442 0.00176446 0.00274717 7.25849e-05 0.000747636 0.000107911 
-0.00611378 0.00208026 0.00271368 0.00208574 0.0831111 0.0830657 -0.000121812 0.0826463 0.00147501 
0.00228582 0.0908065 0.000174561 7.97411e-05 0.000489972 0.0123944 0.00313082 -0.00018618 -0.000232799 
-0.0121044 0.0749946 0.0737565 -4.77085e-05 0.0512229 -0.00237214 0.0492878 0.0836786 0.000779313 
0.000631308 -0.00672056 3.89886e-05 0.00128384 -0.00327253 0.0117519 -0.00588071 -0.000819368 -0.0120298 
-0.0206462 -0.00887636 6.08766e-05 0.00306971 -0.0132969 0.0212911 0.0222266 -0.00925175 -0.00893545 
0.0158466 -0.00983485 0.0250706 0.0287629 0.000501326 0.0963147 -0.014904 0.00495543 -0.0103952 
-0.00929087 -0.00163167 -0.010956 -0.00759937 0.00464457 -0.00417712 -0.0117895 0.0247909 0.0289564 
-0.0103588 -0.0157462 -0.00108095 -0.00272531 -0.018257 -0.00332267 -0.00260319 -0.0097616 0.000392459 
0.0190188 0.0255931 -0.00236394 0.00035141 0.0398379 0.0513842 0.00197691 -0.000709068 0.103968 
0.051063 0.0438743 0.0538123 0.00161237 0.000243466 0.00160894 -0.000534162 0.000710216 -0.0076963 
-0.00151066 0.000495474 0.0197524 4.14969e-05 -0.0051243 0.000424183 -0.00338565 0.00274288 0.00243258 
0.0104148 0.00778944 0.0803282 0.0856032 0.0933153 0.0901068 0.0177848 0.0063602 -0.0118897 
-0.00552779 0.00283004 -0.00372003 0.00500463 -0.000391053 -0.0024619 -0.00262605 -0.0151415 0.0609512 
0.00334958 0.00934083 0.00980341 0.0135767 0.0125656 0.0403644 0.00191371 -0.00254643 0.093958 
0.0895648 0.0051919 0.0466981 0.0289235 0.0103598 -0.0096717 0.000763296 0.00641 0.010861 
0.0264827 0.00574402 0.0308645 0.00893337 0.00097897 0.00164001 -0.004892 -0.00578893 0.000318254 
-0.00483615 0.0225475 0.0277111 0.0551195 0.00751789 -0.0106768 0.058756 0.0810873 0.0480477 
-2.54667e-05 0.000318964 0.0158572 0.018037 0.0047864 0.00644282 0.0290055 0.0144653 0.0314652 
0.0360215 -0.00359532 -0.00863793 0.000229188 -0.0234644 0.0254863 0.0252996 0.0218813 0.0269586 
0.0293657 0.0291676 0.0273386 -0.0117402 0.0277186 -0.00317978 -2.55394e-06 0.00154139 -0.0163952 
0.00667581 0.000318124 0.000136092 0.00297238 0.014343 0.0107424 0.00927055 0.00164305 0.0142867 
0.0113994 0.0129035 0.00384948 0.0543624 0.0326746 0.0742269 0.00706909 0.0488815 0.0825982 
0.00779479 -0.0145201 0.00855828 -0.00187816 -0.00459617 -0.000638961 -0.0055663 0.0104842 0.00343284 
0.00718337 0.00854004 0.00674034 0.00998708 0.00841167 0.000719599 0.0607879 0.0125637 0.0156699 
0.0142769 -0.00688469 0.0316517 0.047573 0.0544614 0.000141598 -0.0223765 -0.0236612 0.00355847 
7.81388e-05 0.0226432 0.0200386 -0.0223865 0.0180965 0.00560827 -0.015448 0.0106675 0.0288678 
-0.00315405 0.00288127 0.04699 0.000467408 0.0469439 0.0409722 0.000485624 0.000587698 -0.000944735 
0.000287025 -0.00578197 -0.00374416 -0.00275623 0.000128781 0.00762425 -0.0144218 0.0117942 0.0151352 
0.00851963 0.0210743 0.0112639 0.00664426 3.48023e-05 0.000309478 0.0185018 -0.000972027 0.00267424 
-0.00238018 -0.000512526 0.0613112 0.105187 5.50245e-06 0.00193187 0.00180699 0.105313 0.00339905 
0.00465639 0.0904926 -0.00224828 -0.00550209 0.000634229 0.104755 0.0916149 0.0888216 0.0837519 
0.0762379 0.0134606 0.00526762 -0.0150873 -0.0158186 -0.0346604 0.000209888 -0.000579223 0.00416948 
-0.00852888 0.00180494 0.00295122 -0.000499134 0.0170132 0.000380489 0.000149607 0.0258065 -0.00454006 
0.104479 0.007092 0.00536894 0.00690425 -0.0165708 0.000353116 -0.00179043 -0.0012889 -0.000142104 
0.0196414 0.0418628 0.00424882 0.00542096 -0.00523714 0.00667243 0.00752913 0.0705467 0.062613 
0.0471567 0.0216422 -0.00882187 0.0403352 0.00175354 0.0480592 0.0603252 0.0176995 0.0495671 
0.00263948 0.00354531 0.0196298 -0.00839409 -0.0212142 0.000442187 0.021205 0.0248195 0.0225972 
0.038864 -0.00182079 0.0433795 0.0316105 -0.00113719 -0.011408 0.03692 0.0135162 0.0096292 
0.00110662 0.0213997 0.0170813 5.47781e-05 0.0190862 0.0208952 0.0236205 0.198083 0.000159227 
0.000282531 0.000175421 0.0420294 0.00260966 0.00340106 0.00407038 0.00159035 0.0187499 -0.000417605 
0.000424829 0.0936841 0.0304803 -0.0224153 -0.000807364 -0.00554221 0.00280392 0.0252553 0.0995453 
0.100678 0.00264559 0.0443513 0.0309991 0.0929396 0.00048877 -0.00735349 0.00253391 0.00103825 
0.0155484 0.0201593 0.00969908 0.027804 0.0269016 0.0477463 -0.00436105 0.0270503 0.026871 
0.0265667 0.0141045 -0.00830186 -0.0219046 0.0207232 0.00730243 -0.000104143 0.0305344 0.0222272 
0.0203487 0.0377124 0.0361739 -0.0274679 -0.000328474 0.0250627 0.0190262 0.0392826 -0.00300205 
-0.00204398 0.0269329 0.0292437 0.0473759 0.04777 0.0228217 0.0740872 0.0131244 0.0112958 
-0.000532706 0.00034179 0.0191563 0.0255565 -0.0114363 0.0205734 -0.00139596 0.0810044 0.0334909 
0.0298902 0.0328731 0.0285687 0.0346955 0.0297688 0.0121722 0.10804 0.0826097 0.0527751 
-8.81791e-05 4.73758e-05 -0.000125437 0.0470153 0.0156139 0.0211743 0.0198629 0.0277713 0.0297404 
0.0359978 0.0371631 0.0473716 0.0162824 0.0255437 0.0248821 0.0221678 0.0231975 0.0246861 
0.0228353 0.030272 0.0242577 0.018015 0.0154938 0.0221288 0.0151999 0.0278382 0.0283579 
0.0334032 0.0372617 0.0285775 0.0270612 0.0382077 0.0320407 0.0278578 0.0102332 0.0288111 
0.023178 0.0290333 0.0370855 0.080089 0.0115893 0.012668 0.0425933 0.0256957 0.0165634 
0.0318639 0.0169303 0.0198253 0.0497354 0.0499418 0.0124905 0.0288491 0.0251589 0.0562229 
0.0485645 0.0353539 0.0376353 0.0678323 0.0396973 0.0556707 0.0466128 0.0498993 0.0411701 
0.0270269 0.0181492 0.0198839 0.0307929 0.0473807 0.0536491 0.042615 0.0613523 0.0360525 
0.0360358 0.0331019 0.0327662 0.0335207 0.044341 0.0249923 0.0253718 0.0416005 0.0240835 
0.0157792 0.0285421 0.0234013 0.0271783 0.0274675 0.0228911 0.0273189 0.0185248 0.0175408 
0.0173733 0.0224657 0.0330968 0.021596 0.0287346 0.0201736 0.0276823 0.0241187 0.0259912 
0.020714 0.0203965 0.0219199 0.0750453 0.0167848 0.00982729 0.00830259 0.0248727 0.0344153 
0.00931618 0.0209271 0.0141154 0.0307532 0.0183333 0.0257052 0.0063295 0.0415306 0.149312 
0.0564895 0.0823551 
Stress%20xy%20component 1 13529 double
-0.222382 -0.201847 0.234624 0.213032 -2.6948e-05 -1.26394e-05 2.30256e-05 3.16299e-05 -0.164348 
0.227821 0.0624871 -0.187769 0.173435 -0.0481119 -0.240214 0.176474 -0.0618928 -0.186847 
0.218907 0.0833875 -0.157715 0.170836 0.0726276 -0.175906 0.192583 -0.0556583 -0.225027 
0.166427 -0.072957 -0.176232 0.278552 0.0814359 -0.0110224 -0.0181179 -0.0114397 0.00944703 
0.00581802 -0.0270282 0.019509 0.00400184 0.0302859 -0.00958809 -0.0202811 -0.039407 -0.0604888 
-0.0642757 -0.0199451 0.00902444 0.0523014 0.0712317 0.0967175 0.135144 -0.045184 -0.0100682 
-0.010608 -0.00526174 0.0163305 0.0101678 -0.0152104 -0.0320015 -0.0505207 -0.0605653 -0.00524209 
0.0349342 0.0484419 0.0692202 0.0900866 0.161914 -0.0194286 -0.0124346 -0.00571299 0.0193659 
0.0313422 0.0125518 0.00383455 -0.0190791 0.0589389 0.0158664 -0.0210205 -0.0498405 -0.0915351 
-0.135492 -0.150412 -0.0309119 0.00554335 0.0227554 0.0353812 0.0595156 0.0340424 0.00997771 
0.00572719 -0.00623524 0.0598334 0.000327136 -0.034709 -0.049139 -0.0542143 -0.0587217 -0.166464 
-0.0175303 0.00715579 0.0211859 0.0358239 0.0689021 0.0259798 0.0120992 0.00625455 -0.00782302 
-0.0345027 -0.210411 -0.141123 -0.086008 -0.0792043 -0.0498395 -0.00998337 0.0438418 -0.0139052 
0.0026759 0.0199388 0.0340083 0.0614617 0.0197166 0.00367287 -0.0039555 -0.024742 -0.172863 
-0.0937377 -0.081274 -0.0499248 -0.0262493 0.00611724 0.0593149 -0.0390062 0.00794526 0.0177837 
0.0350835 0.0601899 0.0213585 -0.0112645 -0.0215973 -0.0406919 -0.080498 0.21979 0.0705222 
0.0817004 0.0478839 0.0319227 -0.00796683 -0.0523608 -0.0203581 -0.00933221 0.00156942 0.0210191 
0.0111289 -0.00966398 -0.0238554 -0.0387905 -0.0680547 0.163227 0.126551 0.0815221 0.0723497 
0.0274469 -0.00470362 -0.0592971 -0.0300154 -0.0147312 -0.0059969 0.00709481 0.021748 -0.118955 
-0.0811565 -0.0725999 -0.0637946 -0.0552623 -0.0498611 -0.0431264 -0.0341208 -0.025658 -0.0198146 
-0.0132486 -0.00473883 0.0034855 0.00687764 0.0179686 0.0304092 0.0341001 0.0418561 0.0463522 
0.0589703 0.0638417 0.0729294 0.0821522 0.119205 -0.111185 -0.0816526 -0.0691205 -0.0643318 
-0.0606274 -0.0578045 -0.047167 -0.0361498 -0.0332124 -0.0319243 -0.0299343 -0.018892 -0.00671901 
-0.0036771 -0.00139071 0.000539333 0.010339 0.0186173 0.0255223 0.033661 0.034455 0.0369927 
0.0458911 0.056146 0.0654599 0.0689331 0.0728662 0.0838633 0.117909 6.14953e-05 1.12093e-05 
-3.75235e-05 -2.55408e-05 -3.254e-05 -8.07242e-05 -8.22761e-05 -7.76736e-05 -8.30365e-05 -8.05816e-05 -1.86961e-05 
-2.43831e-05 -4.95653e-05 -1.86605e-05 1.58667e-05 4.51326e-05 2.15194e-05 3.2319e-05 7.11916e-05 8.117e-05 
7.08887e-05 6.74529e-05 5.48287e-05 6.13477e-05 2.837e-05 3.78432e-05 4.38717e-05 -1.54563e-05 -5.96844e-05 
0.0108136 -0.00252929 -0.00137226 -0.000305964 -0.000476725 -0.000623647 -0.000260319 -0.000131846 -6.80693e-05 
-0.00011985 -0.000105504 -0.000169457 -0.00011069 -0.00012067 -0.000209278 -0.000181241 -0.000285637 -0.000303562 
-0.00032926 -0.000393557 -0.000248043 1.15018e-05 0.000251948 0.000256655 0.000271101 0.000273662 0.000243597 
0.000122681 0.000123975 0.000120295 6.39937e-05 3.49995e-05 -5.46073e-05 -2.89e-05 -2.59365e-05 -5.53354e-05 
-7.81093e-05 -6.11355e-05 -6.53432e-05 -6.20399e-05 -7.24176e-05 -6.32024e-05 -2.16266e-05 5.11462e-05 0.000104117 
-9.59093e-05 -1.18458e-05 8.72645e-06 1.48327e-05 1.30918e-05 4.89318e-05 4.06552e-05 4.72706e-05 5.01355e-05 
6.28036e-05 3.90868e-05 3.04876e-06 7.98824e-07 -2.38077e-05 5.74546e-06 -5.16649e-05 -0.000156172 -0.000159801 
-0.000153906 -0.000173232 -0.000213214 -0.000147116 -3.06037e-05 6.05724e-05 8.03813e-05 8.66468e-05 0.000202928 
0.00025307 0.000214578 0.000213611 0.000185059 0.000127614 0.000166018 0.000221648 0.000119036 0.000181078 
0.000169773 0.000272701 0.000456925 0.000387334 0.000440267 0.000659458 0.00186336 0.00493716 0.00107786 
0.00993983 -0.0162918 0.0718876 0.102392 0.096355 0.0846993 0.0560099 0.0386583 0.0243951 
-0.0659779 0.0611956 0.0118068 -0.0495521 -0.0699176 -0.086551 -0.0991773 -0.103223 -0.0634538 
0.00466812 0.0108903 -0.00667323 -0.0173952 0.0797317 0.0934833 0.0850454 0.0903369 0.0698851 
0.0479017 0.037859 -0.0697128 0.0732743 -0.00946186 -0.0252168 -0.0613394 -0.0604221 -0.0834916 
-0.0501152 -0.0303196 0.00531814 -0.00662844 0.00013285 -2.20264e-05 -4.29767e-05 -6.70489e-05 -6.51103e-05 
-8.34972e-05 -8.78009e-05 -6.90892e-05 -8.44942e-05 -6.49154e-05 -3.54298e-05 5.10663e-05 4.47012e-05 7.4608e-05 
5.94483e-05 7.37995e-05 7.5031e-05 7.61564e-05 4.05974e-05 4.25053e-05 -8.37885e-07 -2.09278e-05 -7.51359e-05 
0.0218863 -0.00329239 -0.00076198 -0.000137979 -0.000191177 -0.000205145 -0.000237716 -0.000111403 -0.000213541 
-0.000212637 -0.000243896 -0.000227211 -0.000323533 -0.00032177 -0.000379855 -0.000385735 -0.000339038 6.9161e-05 
0.000155895 0.000281274 0.000288752 0.000229713 0.000185023 0.000108768 0.000107257 9.0707e-06 2.65452e-06 
-4.9426e-05 -6.68084e-05 -8.65608e-05 -8.96502e-05 -8.34736e-05 -6.05538e-05 -4.73728e-05 -4.81577e-05 3.87878e-05 
0.000143413 -0.000134843 -4.3317e-05 1.99117e-05 5.30375e-05 5.00482e-05 6.18543e-05 5.84385e-05 4.79389e-05 
4.94967e-05 1.42145e-05 -4.74884e-05 -7.46199e-05 -0.000110711 -0.000117902 -0.000159555 -0.000191446 -0.000189089 
-0.000213405 2.75957e-05 3.20074e-05 0.000209792 0.000195048 0.000230834 0.0002113 0.000187107 0.000133941 
0.000144482 0.000161058 0.000117827 4.56473e-05 9.80976e-05 0.000257463 0.00020806 0.000479804 -2.12461e-05 
-0.014431 0.0148259 0.00521813 0.105224 0.103229 0.0969938 0.0840325 0.0853571 0.0611785 
0.0411339 -0.0802697 0.0750365 -0.0529846 -0.0500592 -0.0700091 -0.0864666 -0.0987451 -0.104626 
-0.137291 -0.0119078 -0.0236309 -0.00297682 -0.00346759 0.0838865 0.0910152 0.0784653 0.0441201 
0.0221514 -0.00506644 -0.0713903 0.0736798 -0.0336144 -0.0592935 -0.0471152 -0.0882847 -0.08612 
-0.133348 -0.113966 0.0458481 -0.0299728 -0.00776656 -0.0160328 -0.0319441 -0.0198808 -0.0103815 
-0.0146861 0.00183554 -0.0185546 -0.0123156 -0.0130968 -0.0143037 -0.0250273 -0.0147548 -0.0121524 
-0.0103037 -0.0250956 -0.00219675 0.00910559 0.0141513 0.0326618 0.0198761 0.0428512 0.00701761 
0.00393379 0.0212387 0.0177231 0.0153914 0.0127526 0.0120218 0.0392299 0.0297554 0.0255559 
0.000937289 0.00786706 0.0172129 0.0145776 0.028714 0.0160639 0.00848973 0.00641101 0.00597942 
0.0169239 0.0228506 0.0305006 0.00448403 -0.00403255 0.0376979 0.0140902 0.010881 0.00867188 
0.00689002 0.017577 0.0261924 -0.00185865 -0.00600455 0.040982 0.0104615 0.0125753 -0.00843919 
-0.0169956 -0.0308221 0.00267096 -0.00555619 -0.0168877 -0.00879649 -0.017542 -0.0089411 -0.0181352 
-0.0323168 -0.000451997 -0.0116329 -0.0174611 -0.0251817 -0.00919646 -0.00790271 -0.0463566 -0.0126628 
-0.000225222 -0.000895147 -0.00161014 -0.00219477 -0.00261097 -0.00288486 -0.00301433 -0.00304125 -0.00279019 
-0.00247294 -0.00194122 -0.00136512 -0.000707755 -1.96044e-05 0.000658189 0.00131164 0.0018892 0.00233854 
0.00262394 0.00282579 0.00284074 0.00279009 0.0025555 0.0022782 0.00179327 0.00128123 0.000740307 
0.00025216 -8.2986e-05 0.0460039 0.0284919 0.0185681 0.0119005 0.00794488 0.005094 0.00304429 
0.00147443 0.000298413 -0.000815768 -0.00176209 -0.00277345 -0.00375694 -0.00483189 -0.00567809 -0.00616794 
-0.00657715 -0.00665317 -0.00624141 -0.00500062 -0.0029686 -0.000419041 0.00190452 0.00337664 0.00391414 
0.00373632 0.00322781 0.00247832 0.00166074 0.000846921 5.10674e-05 -0.000769979 -0.00154981 -0.0021985 
-0.00281495 -0.00305341 -0.00313767 -0.00310153 -0.0029988 -0.00274183 -0.00229072 -0.00167898 -0.000993846 
-0.000356632 0.000333879 0.000720422 0.00123642 0.00164431 0.00193745 0.00212547 0.00224593 0.00219466 
0.0019562 0.00162726 0.00117995 0.000613693 1.42951e-05 -0.000618349 -0.00131693 -0.0019831 -0.00247344 
-0.00280482 -0.00287227 -0.0025814 -0.00189648 -0.000724853 0.000692912 0.00247826 0.00391077 0.00495138 
0.00559048 0.00568115 0.00534409 0.00488155 0.00440071 0.00381884 0.00310321 0.00229572 0.00147376 
0.000530772 -0.000549551 -0.00197509 -0.00364967 -0.00604824 -0.0100675 -0.0169611 -0.0299633 -0.0677799 
-0.101195 -0.0856556 -0.0763541 -0.064744 -0.0554725 -0.047468 -0.0454461 -0.0410267 -0.0333192 
-0.0248466 -0.0191614 -0.0168104 -0.0124473 -0.00372365 0.00479998 0.0119744 0.015696 0.0200575 
0.0246422 0.0325056 0.0412867 0.0481178 0.0517427 0.0546864 0.0642739 0.0754647 0.0879327 
0.104208 0.00830605 -0.0283379 -0.0313344 -0.017514 -0.0155804 -0.0135369 -0.0139124 -0.0142115 
-0.0190297 -0.045198 -0.0716226 0.0590766 0.0369624 0.022956 0.0148356 0.0121464 0.0117827 
0.014001 0.0167383 0.0251938 0.0181048 -0.0134489 -0.000884856 -0.0282581 -0.0359653 -0.0254101 
-0.0184126 -0.0157165 -0.0161968 -0.0183094 -0.0260083 -0.038284 -0.0621757 0.0596924 0.0384035 
0.0205742 0.0142566 0.0124852 0.0167607 0.0164875 0.0234456 0.0331372 0.0355664 0.00212018 
0.00771138 0.0337051 -0.043216 -0.00218663 0.0120365 0.0152351 -0.00253128 -0.00356963 -0.00439892 
-0.00514841 -0.00552639 -0.00560986 -0.00538011 -0.00481882 -0.00402254 -0.00306982 -0.00192198 -0.000648067 
0.000637491 0.00187045 0.00296417 0.00388439 0.00460397 0.00505218 0.00522657 0.00519123 0.00495655 
0.00453231 0.00397901 0.00318244 0.00212223 0.00112158 -0.0149067 0.0469287 0.0312702 0.0216249 
0.0141625 0.009626 0.00599264 0.00324264 0.000861895 -0.00123354 -0.00319306 -0.00507269 -0.006789 
-0.00839727 -0.00957077 -0.010364 -0.0108195 -0.0107063 -0.00933266 -0.00683354 -0.00314881 0.00105355 
0.00417376 0.00559049 0.0056374 0.00503943 0.00405681 0.00285363 0.0016103 0.000220764 -0.00128193 
-0.00263051 -0.00375734 -0.00484315 -0.00550424 -0.00580748 -0.00585152 -0.00572474 -0.00523082 -0.00458043 
-0.00377236 -0.0026301 -0.00123628 -0.0712532 0.0678016 0.00129545 0.00205352 0.00282574 0.00339858 
0.00385795 0.00413494 0.00413083 0.00382604 0.00335821 0.00263652 0.00172995 0.000693935 -0.000393215 
-0.00150637 -0.00263038 -0.00358583 -0.0042807 -0.00460919 -0.00439667 -0.00348186 -0.00179422 0.000526953 
0.00334635 0.00589245 0.00786179 0.00914374 0.00964479 0.00943989 0.00885255 0.00793164 0.00670708 
0.00543566 0.00392388 0.00231398 0.000431397 -0.00167694 -0.00442413 -0.00753229 -0.0120159 -0.0188955 
-0.0296079 -0.0462422 -0.00451759 -0.0671042 -0.0630794 -0.0575411 -0.0514674 -0.0454687 -0.0391617 
-0.0339523 -0.0291599 -0.0237327 -0.0180319 -0.0116466 -0.00604985 -0.000654308 0.00466857 0.0108567 
0.017615 0.0248025 0.0301227 0.0349803 0.0397461 0.0467981 0.0529877 0.059578 0.0657585 
0.0679519 -0.0125359 0.0444468 0.00233959 -0.0112796 -0.00795964 -0.00684696 -0.00846625 -0.0147881 
-0.0281083 -0.0477904 0.00414737 0.0258411 0.0427083 0.00609461 0.00448852 0.00579535 0.00877872 
0.0110899 0.00659057 -0.0083202 -0.0137829 0.0399917 -0.0155431 -0.0031224 -0.0149078 -0.0114566 
-0.00966557 -0.0107459 -0.0164726 -0.0300193 -0.045454 -0.0306426 0.0269654 0.0424032 0.0107307 
0.0101942 0.0124418 0.0166751 0.0205586 0.0174726 0.00424789 0.0125141 -0.0181927 0.0156337 
0.00689859 0.0107093 -0.00322997 0.00679114 -0.00542581 -0.00659368 -0.00741554 -0.00778083 -0.00765529 
-0.00713424 -0.00615471 -0.00496903 -0.0035585 -0.00184302 5.49583e-05 0.00174129 0.00333101 0.00483611 
0.00602077 0.00681877 0.00716976 0.00723505 0.00709028 0.00661903 0.00598602 0.00501413 0.00380884 
0.00246208 0.00315788 -0.0047023 0.0127491 0.052211 0.0271576 0.036276 0.0263299 0.0184685 
0.0129404 0.00851235 0.00486532 0.00171667 -0.00120713 -0.00392616 -0.0064725 -0.00872716 -0.0104227 
-0.0117428 -0.012554 -0.0130078 -0.0127327 -0.0106957 -0.00770959 -0.00122309 0.00361394 0.00556793 
0.00579792 0.00528918 0.00440147 0.0031733 0.0017287 0.000138715 -0.00177532 -0.00354493 -0.00512703 
-0.00653751 -0.00761042 -0.00812901 -0.00830778 -0.00810658 -0.00756685 -0.00676336 -0.00585514 -0.00462674 
-0.00119421 0.00367254 0.00454472 0.00515006 0.00573034 0.00595403 0.00583435 0.00532096 0.00441444 
0.00336059 0.00212039 0.000677444 -0.000711881 -0.00213993 -0.00343272 -0.00448542 -0.00519032 -0.00536013 
-0.00473668 -0.00313988 -0.0006074 0.00308396 0.00656385 0.00937669 0.0113391 0.0122345 0.0121573 
0.0115665 0.0104321 0.00888945 0.00704841 0.00504368 0.00270547 0.000197254 -0.00285552 -0.00654537 
-0.011027 -0.0169475 -0.0250698 -0.0333309 -0.0495128 -0.0174534 -0.00563735 -0.0524133 -0.049428 
-0.0448449 -0.0396253 -0.0351075 -0.0304811 -0.0254472 -0.0202211 -0.0147646 -0.00935197 -0.00372075 
0.00203767 0.00802111 0.0143905 0.0206471 0.0265871 0.0314557 0.036551 0.0416306 0.0466804 
0.0517449 0.0561225 -0.00378216 0.00158196 -0.00410157 -0.00566652 -0.010641 -0.0206502 -0.0338786 
-0.00801448 -0.0136121 0.00182265 0.00293739 0.00168007 -0.00142313 -0.00817429 0.0255183 -0.0382619 
-0.0325589 -0.00903566 -0.00876174 -0.0135034 -0.0224283 -0.0329819 -0.013056 0.0120646 0.00945424 
0.00968059 0.00977501 0.0082583 0.00888555 -0.00304279 0.0084172 0.00702693 0.0177754 0.00284226 
0.00250109 -0.00885215 0.037023 -0.00620159 0.00810256 -0.00112723 0.0362043 0.00806787 0.0205468 
0.0046246 0.0134717 0.00282447 0.029747 0.0300118 -0.0071631 -0.00262698 -0.00872496 -0.0095764 
-0.00981672 -0.00942189 -0.00846197 -0.00692685 -0.00560397 -0.00352171 -0.000996366 0.00133958 0.00318188 
0.00520415 0.00708977 0.00834012 0.00888668 0.00912106 0.0089907 0.00861599 0.00794592 0.00688331 
0.00551799 -0.00334297 0.0116167 0.0466373 0.0367587 0.0283469 0.0214349 0.0158242 0.0109997 
0.00681051 0.00317491 -0.000358415 -0.00378308 -0.0066527 -0.00888796 -0.0102767 -0.0115338 0.00443157 
0.00256643 0.00308694 0.00219642 0.000956446 -0.000601535 -0.0024345 -0.00465607 -0.00663768 -0.00839289 
-0.00971771 -0.0104113 -0.0106331 -0.0104439 -0.00982628 -0.00891918 -0.00775314 0.00601754 0.00689123 
0.00755295 0.00775839 0.00747498 0.00666449 0.00548437 0.0041996 0.00266814 0.000948476 -0.000624101 
-0.00202314 -0.00331575 -0.00435284 -0.00511283 -0.00522685 -0.00437409 -0.00255146 0.0064202 0.0122759 
0.0135683 0.0136031 0.0129024 0.0117937 0.0100871 0.00792191 0.00561755 0.00280062 -0.000337268 
-0.0040073 -0.00839761 -0.0134022 -0.0195393 -0.0279205 -0.0388453 0.019273 -0.0027925 -0.00693364 
-0.044178 -0.0412952 -0.0378097 -0.034407 -0.0307211 -0.0267174 -0.0222109 -0.0173706 -0.0124055 
-0.00687054 -0.00115653 0.00484201 0.0111856 0.0174037 0.0229275 0.0277665 0.0322838 0.0364071 
0.0402397 0.0435733 -0.0285515 -0.00776629 -0.00118639 -0.0209217 -0.0152743 -0.0245155 -0.0111777 
-0.00173791 0.019187 0.000521509 -0.00483389 -0.0173549 -0.00763419 -0.00574862 -0.024815 0.00181746 
0.00300217 0.00606601 -0.00878873 2.19039e-05 0.00836201 -0.0130055 -0.00334093 0.011472 -0.00435401 
0.0116776 -0.0127046 0.0284399 -0.025467 0.00638158 0.00121743 0.00966778 0.00948559 0.0119404 
0.00555284 0.0209274 0.00169724 -0.0303744 -0.00121617 0.027079 0.00480048 -0.00934277 0.0168191 
0.0138092 -0.000508947 0.0229028 -0.0106156 -0.0113751 -0.0114421 -0.010836 -0.00889988 -0.00583271 
-0.00293717 0.000966105 0.00400296 0.00724716 0.00966942 0.0107835 0.010723 0.0109483 0.0102283 
0.00976952 0.00866095 0.00732073 0.0287321 0.0361471 0.0290683 0.0231835 0.0179429 0.0134013 
0.00930445 0.00541785 0.0014347 -0.00259535 -0.00532911 -0.00643115 -0.0024662 -0.00347302 -0.00593883 
-0.0083615 -0.01042 -0.0118554 -0.0127715 -0.0130842 -0.0128175 -0.0119275 -0.0107694 -0.0092664 
0.0159179 0.00864915 0.00944836 0.0097103 0.00908372 0.0080046 0.00682997 0.0054787 0.00356543 
0.00154463 0.000531993 -0.000658621 -0.0018024 -0.00303802 -0.00433914 0.0136982 0.0129449 0.0118007 
0.0102801 0.00808548 0.00535087 0.00256718 -0.000924018 -0.00513684 -0.00975846 -0.0147199 -0.0204878 
-0.0276058 -0.0357975 0.0172646 -0.03157 -0.0293595 -0.0267682 -0.0234489 -0.0195225 -0.0151859 
-0.0105994 -0.0045815 0.00116969 0.00791208 0.0142057 0.0197046 0.0242631 0.0282736 0.0315161 
0.0342796 -0.0176099 -0.00429625 -1.22272e-05 -0.0105289 -0.0177341 -0.000682243 0.0287365 -0.00900318 
-0.0132492 -0.0234906 0.00229236 -0.0134721 0.00611003 -0.0225418 0.000403862 -0.00413588 0.0094354 
0.00661643 -0.00260553 0.0231678 -0.0166602 -0.00446825 0.0139954 0.0106321 -0.0336904 0.00573027 
-0.0239826 -0.00893963 0.0134137 0.00151119 0.00275376 -0.00551545 0.0064547 0.0184728 0.0110542 
0.0223521 -0.0131719 -0.0129822 -0.0130904 -0.0124714 -0.00717523 -0.00152674 0.00515961 0.0106383 
0.0125135 0.0129749 0.0118615 0.0103249 -0.000509795 0.00415527 0.0241348 0.0198238 0.0159469 
0.012153 0.00276549 -0.0107061 -0.0131844 -0.0145175 -0.015392 -0.0155979 -0.0149667 -0.0137975 
0.0118898 0.0105084 0.00955629 0.00926605 0.00710787 0.0218755 0.0234997 0.0101832 0.00880312 
0.0074563 0.00444784 0.001284 -0.00155041 -0.0108727 -0.0155901 -0.0207549 -0.0268157 -0.000133106 
-0.0259417 -0.0249583 -0.0233905 -0.0211512 -0.0180898 -0.014784 -0.00874213 -0.0025141 0.00430335 
0.0108217 0.0165997 0.0211618 0.0250392 0.0274446 0.0288878 -0.0245887 0.00714226 -0.0122588 
-0.00682957 0.00843277 0.0210548 0.0115347 -0.0114521 0.0154473 -0.0062139 -0.0184717 -0.00591279 
-0.011689 -0.0176556 -0.0182638 0.00450016 -0.0207856 0.0256518 0.0160432 0.0159213 0.0232594 
0.0192252 0.00864285 -0.0193123 -0.0180352 -0.0166474 -0.0148837 0.0186503 0.0142829 -0.0123176 
0.0134472 0.0130895 -0.0176866 0.0242715 -0.0221547 -0.0211496 -0.00505024 0.0218336 -0.0166035 
0.0232693 -0.021451 -0.0216002 -0.0200079 0.0218216 -0.0193323 -0.00053588 -0.00141059 -0.00213772 
-0.0029344 -0.00339413 -0.00352311 -0.00332657 -0.00272162 -0.00200856 -0.00109977 -2.51214e-06 0.00107793 
0.00192614 0.0026031 0.00311275 0.00330543 0.00316576 0.002856 0.00239915 0.00183236 0.00103863 
0.000244468 0.0802092 0.0294127 0.0151243 0.00841285 0.0048681 0.00277673 0.000896191 -0.00083138 
-0.00244325 -0.00391955 -0.00527183 -0.00633988 -0.00733419 -0.00790363 -0.00787665 -0.00661101 -0.00338175 
0.000371184 0.00300843 0.00425346 0.00430398 0.00360813 0.00245692 0.00129388 6.11808e-05 -0.0011459 
-0.00221096 -0.00303503 -0.00362723 -0.00376812 -0.00364852 -0.00332135 -0.00281713 -0.00228133 -0.00149581 
0.000427726 0.0011917 0.00194114 0.00235856 0.0026473 0.00269366 0.00259317 0.00216382 0.00148576 
0.000728657 -0.000251815 -0.00122244 -0.00218599 -0.00294424 -0.00339972 -0.00349096 -0.00268299 -0.000828635 
0.00142316 0.00376721 0.00543807 0.00658899 0.00680871 0.00633432 0.00561007 0.00439188 0.00315742 
0.00175139 0.000110882 -0.00194422 -0.00458613 -0.0087465 -0.0159175 -0.0270732 -0.0472561 -0.0871676 
-0.0769789 -0.067974 -0.0594909 -0.0515935 -0.0426203 -0.0359814 -0.0301034 -0.0225232 -0.0142252 
-0.00711681 -0.000843215 0.00615759 0.01364 0.0227896 0.0295607 0.0359895 0.0423467 0.0514217 
0.0597539 0.0687325 0.0783041 0.00621722 -0.0281037 -0.0313656 -0.0232056 -0.0156705 -0.013952 
-0.0154246 -0.0198269 -0.0270268 -0.0404994 -0.0637257 0.0749706 0.0496262 0.0272306 0.0159083 
0.0123249 0.011788 0.0136009 0.0218479 0.0324134 0.0290654 -0.00915702 -0.00732503 -0.0403563 
-0.03439 -0.0226183 -0.0171815 -0.0158797 -0.0169188 -0.0228942 -0.0419543 -0.0631317 0.0696162 
0.0460846 0.0298001 0.0221943 0.0197918 0.0177342 0.0217842 0.0295317 0.041155 0.0288506 
0.0018759 -0.0140589 0.00599788 -0.00535418 -0.045161 0.031024 -0.00320969 -0.00252882 -0.0058244 
-0.00624703 -0.00610244 -0.00541543 -0.00421988 -0.00276236 -0.000920244 0.000996525 0.00269123 0.00408899 
0.00510143 0.00560419 0.00573656 0.00544604 0.00485619 0.00386608 0.0027214 0.00199084 0.0239795 
0.0372917 0.0621009 0.0150558 0.00937029 0.00529376 0.00208958 -0.00108933 -0.00399391 -0.00655871 
-0.00868044 -0.0103021 -0.0115487 -0.0121007 -0.0113708 -0.00803702 -0.00257117 0.00245043 0.00523472 
0.0058993 0.00519294 0.00389103 0.00211301 0.00027165 -0.00159394 -0.00347157 -0.00495222 -0.00607172 
-0.00668804 -0.00681112 -0.00643137 -0.00568493 -0.00486669 -0.00384145 0.00394213 0.0030121 0.00147567 
0.0046264 0.00491471 0.0048161 0.00437813 0.00357571 0.00237676 0.000982086 -0.000663023 -0.00222722 
-0.00362311 -0.00469747 -0.00512122 -0.00458065 -0.0025705 0.000762472 0.00461877 0.00784441 0.0101965 
0.0109381 0.0106669 0.00952761 0.00771773 0.00544937 0.00294471 -5.92955e-06 -0.00337691 -0.00829833 
-0.0147806 -0.0251389 -0.0409382 -0.064085 0.00507663 -0.0443574 -0.0577392 -0.0618986 -0.051612 
-0.045113 -0.0387863 -0.032127 -0.0250235 -0.0183474 -0.0112477 -0.00413591 0.00352713 0.0110341 
0.0180634 0.0242306 0.0318843 0.0388525 0.046271 0.0521067 0.0593878 0.0649789 0.014047 
-0.0133615 0.0371192 -0.0132397 -0.015199 -0.0113899 -0.00841453 -0.00721595 -0.0080637 -0.0131915 
-0.0268756 -0.0450011 0.02861 0.0144755 0.00697003 0.0050026 0.00610136 0.00918254 0.0126121 
0.0107507 -0.00552917 -0.0447359 -0.0221205 -0.0208728 -0.0148634 -0.0108805 -0.0100485 -0.0140182 
-0.0244274 -0.0403271 -0.00422191 0.0284656 0.0164325 0.0112692 0.0108591 0.0129677 0.0169265 
0.0216968 0.0202203 0.00580911 -0.00473084 0.0463723 -0.00677042 0.0428017 -0.00560111 -0.00571458 
0.00580153 -0.0131959 0.0424772 0.0117045 -0.0122733 -0.00825036 0.00350517 -0.00785854 -0.00251942 
-0.00473804 0.00258552 0.00472564 0.00635066 0.00744575 0.00786023 0.00766866 0.007022 0.00600754 
0.00460401 -0.00321981 0.039588 -0.00492013 0.0281597 0.0522835 0.0125317 0.00750507 0.00323134 
-0.000916222 -0.00456954 -0.00786243 -0.0101417 -0.011786 -0.0129106 -0.0134062 0.00464918 0.0055016 
0.00473298 0.00343837 0.00188184 -6.74141e-06 -0.00226915 -0.00464533 -0.00661896 -0.0083162 -0.00924072 
-0.00956775 -0.00926044 -0.00845193 -0.00713681 -0.0440208 -0.0448403 -0.00660085 0.00667402 0.00678502 
0.0186704 0.00492153 -0.00621144 0.00650422 0.00580491 0.00460801 0.00313274 0.00121246 -0.000781322 
-0.00264118 -0.00416131 -0.00513029 -0.00544308 -0.00434015 -0.000654685 0.00373441 0.00828995 0.0114777 
0.0130796 0.0131151 0.0119099 0.00984008 0.00695402 0.00363168 -0.000121368 -0.004687 -0.010276 
-0.0169744 -0.0270714 -0.0264241 0.0125584 -0.0475041 -0.0138703 0.00331002 -0.0386251 -0.0334125 
-0.0275456 -0.0214074 -0.0147348 -0.00784482 -0.000874997 0.00690146 0.0139428 0.0209026 0.0273671 
0.0337558 0.0396122 0.0447921 0.0503462 0.0177142 0.0330246 -0.00112336 0.0060013 -0.00440532 
-0.00590828 -0.00480644 -0.00420512 -0.00533215 -0.00993609 -0.0188487 0.0200701 6.47078e-05 -0.0271365 
0.00963341 0.00373537 0.00188939 0.00210731 0.00251813 0.00117886 0.0348316 -0.0116637 -0.00892364 
-0.00814895 -0.0107787 -0.0181465 -0.00848436 -0.0073204 0.0138444 0.00997672 0.0093585 0.0106704 
0.0120728 0.010883 0.00507412 0.03687 0.023418 0.0216005 -0.0313441 -0.0124183 0.000699538 
-0.00646064 -0.0061568 -0.00402876 0.00299691 0.0518944 0.00587618 -0.0383427 -0.0367646 -0.00431659 
-0.0293727 0.00847793 0.00176081 0.00712756 0.00473819 0.00965751 0.00965752 0.00902713 0.0079587 
0.00658588 0.00882657 0.00554489 -0.00462742 0.00504233 0.0150039 0.000338825 -0.00381615 -0.00729641 
-0.00919621 -0.00990668 -0.0100633 -0.000405854 -0.00171433 -0.00363224 -0.00605291 -0.00853544 -0.0105965 
-0.0117669 -0.0121414 -0.0118706 -0.0108135 -0.00912013 -0.0327632 0.0401548 0.00814054 0.00853533 
0.0072661 0.0058419 0.0041319 0.00198637 -0.000156 -0.00200132 -0.00327386 -0.00404273 -0.00456097 
-0.00349827 0.0118534 0.0136331 0.0137183 0.0124764 0.0104105 0.00729407 0.0035757 -0.00073029 
-0.00577215 -0.0110964 -0.0176132 -0.0258425 -0.0366542 0.000610068 0.030594 0.00133766 0.0254247 
0.0110196 -0.0283754 -0.0237011 -0.0180985 -0.0117575 -0.00504154 0.00254353 0.009967 0.0169606 
0.0231795 0.0288157 0.0333373 0.037157 -0.00155026 0.00975243 -0.00955764 0.0140073 0.000963675 
-0.000272508 -0.00106717 -0.00303128 -0.00706844 -0.013648 0.0238934 -0.00377272 -0.0286109 -0.0184297 
0.00610838 0.00134567 -0.00142817 -0.00433635 -0.00459918 -0.0217995 -0.0174078 -0.00510974 -0.00531781 
-0.00853256 -0.0138848 0.0148874 0.0124915 0.00892967 0.00715425 0.00548523 0.00559905 0.0110474 
-0.0364495 -0.00175658 0.000621051 0.0303872 -0.0291038 -0.0222758 -0.0104731 -0.00713018 0.0213466 
-0.00899849 -0.00497905 -0.00574573 0.013637 -0.039954 0.0282843 0.00820865 -0.0278273 -0.00260069 
0.0260913 0.0184957 -0.0102386 0.00971057 0.0114963 -0.00247066 0.0243009 0.00309557 -0.0216375 
0.00756388 -0.00592492 -0.00788501 -0.0107529 -0.0133086 -0.0144571 -0.0147841 -0.0143022 -0.0131347 
-0.0114275 -0.0244662 0.0108999 0.0103572 0.0100636 0.00764957 0.00992612 0.0056844 0.00328633 
0.00116708 0.000356499 0.000261188 -0.00378044 0.00766253 0.00887735 0.00642232 0.00257106 -0.00199408 
-0.00701628 -0.0122662 -0.0178912 -0.0246901 0.0254184 0.00875253 -0.0207803 -0.0158509 -0.00921246 
-0.00205917 0.00553342 0.0133235 0.0194408 0.0245238 0.0275027 0.0293362 0.00700596 -0.0296586 
-0.0254966 0.000177236 0.0173264 0.00889478 0.00332046 -0.000330756 -0.0037583 -0.00918787 -0.00537031 
0.0237888 0.0204451 0.0192274 -0.0275159 0.0108436 0.0069793 0.00389213 -0.0299412 -0.0144135 
-0.0226293 -0.0163274 0.00422791 0.0113059 -0.0123936 -0.00726852 0.0170219 0.023077 0.0120263 
0.00991765 0.00753853 -0.00995835 0.00908203 -0.00372185 0.0111046 0.0303575 -0.0323614 0.0169912 
-0.0105335 -0.00152746 0.00440718 0.00257141 0.0197477 0.0100472 -0.0167407 -0.0113116 -0.0219298 
0.00771285 -0.0171671 -0.017052 -0.00221925 0.0116494 -0.0125623 -0.0177177 -0.0164838 -0.014775 
-0.0126735 -0.0193004 0.0119487 -0.00436344 -0.0247316 0.0188629 -0.0229699 -0.0088487 -0.0138381 
-0.01845 -0.0238836 0.0233718 -0.00251789 -0.0219751 -0.00690894 0.00927668 0.0168666 0.0216973 
0.0239069 0.0233312 0.0124906 0.0189419 0.0151384 -0.0231702 0.0225495 0.00450584 -0.0104037 
0.0135451 -0.00707077 0.0141863 0.0183201 0.00314686 0.0153096 0.0126581 -0.0181889 0.0131621 
0.0106581 -0.0136676 -0.0109007 0.0100519 0.000985155 0.0115117 0.00111264 -0.013078 0.0118258 
0.0135025 -0.0212549 0.0191844 -0.0216097 0.0112551 -0.0219117 -0.0120686 -0.019755 0.0162642 
0.0216656 0.00787707 0.00647466 -0.0182485 0.0142619 0.0150862 -0.0162675 0.0136808 -0.0151682 
-0.0197834 -0.0142987 -0.0214461 0.000794672 0.00019286 -0.217759 0.00392174 0.176022 -0.00258748 
-0.00367897 -0.0221534 0.0470985 0.00323127 -0.0136252 -0.0254011 -0.050112 -0.0769815 -0.118017 
-0.0442249 -0.00435614 0.0164738 0.0527283 0.0733711 0.107496 0.206242 0.0103662 -0.0102805 
-0.0159287 -0.00903631 0.00562439 0.016074 0.0204673 -0.00370369 -0.0240001 -0.0391123 -0.0780608 
-0.103551 -0.0330372 0.0138712 0.0578952 0.0325377 0.0687004 0.109364 0.215772 0.0136716 
-0.0256591 -0.00682506 0.00372782 0.0178322 -0.0100396 0.0170271 0.00797678 -0.00226117 -0.0129435 
0.0912998 0.0340717 0.00371563 -0.0161885 -0.0543946 -0.116935 -0.161972 -0.14206 -0.0328953 
-0.0176761 0.0154547 0.0298296 0.0489842 0.103791 0.00199957 0.0133183 0.00654062 0.000780556 
-0.0109921 0.12874 0.0406376 -0.0227467 -0.0322756 -0.0306241 -0.0436029 -0.0722406 -0.227055 
-0.0383561 -0.00626442 0.0146136 0.0278778 0.0509669 0.101652 -0.0245241 0.0344404 0.00474263 
-0.000281246 -0.0347276 -0.0429359 -0.225111 -0.177977 -0.0918376 -0.0676949 -0.046873 -0.0172091 
0.030936 0.105797 -0.0248228 -0.00853778 0.0137013 0.026277 0.0480007 0.083717 -0.0141459 
0.010044 0.0027338 -0.019181 -0.0571042 -0.219447 -0.0833819 -0.083784 -0.040941 -0.0227125 
0.00102959 0.0400226 0.0974688 -0.0457054 -0.00912925 0.0113798 0.027839 0.0445465 0.0846599 
0.0496947 0.000784145 -0.0183552 -0.0300046 -0.0606578 -0.121499 0.235496 0.129498 0.0553443 
0.0602128 0.021201 0.00283473 -0.0342222 -0.109743 0.00904556 -0.0217704 -0.00546546 0.0129115 
0.0330407 0.0164645 -0.00307637 -0.0162372 -0.0322596 -0.0522491 -0.110742 0.284682 0.0851125 
0.0865077 0.0627388 0.0367168 0.00262339 -0.0387374 -0.095677 0.0261767 -0.0336393 -0.0125751 
-0.000656219 0.0212499 0.0306846 -0.222829 0.230271 -0.162537 -0.095085 -0.0790676 -0.0688463 
-0.0596255 -0.0502326 -0.0480855 -0.0394335 -0.0297676 -0.01985 -0.0177429 -0.00956961 5.99995e-05 
0.00804821 0.0127438 0.0237554 0.0301823 0.0385136 0.0468332 0.0524594 0.0591899 0.0686061 
0.0793038 0.0966469 0.164302 -0.169239 -0.0903572 -0.0725858 -0.0654863 -0.0619123 -0.0594808 
-0.0537391 -0.0403497 -0.0338044 -0.0326946 -0.0317765 -0.0261058 -0.0113291 -0.00445762 -0.00237172 
-0.000792781 0.00327778 0.0140703 0.022735 0.0316005 0.033454 0.0346477 0.0394918 0.0518506 
0.0623788 0.0668055 0.0703252 0.0746876 0.0974476 0.173852 5.31715e-05 4.40005e-05 -1.72218e-05 
-3.84223e-05 -4.40361e-05 -5.0463e-05 -8.03682e-05 -9.43815e-05 -9.87352e-05 -8.44907e-05 -3.85217e-05 -2.88739e-05 
-4.04562e-05 -4.71699e-05 3.87395e-06 3.3717e-05 3.86731e-05 3.40187e-05 4.14431e-05 7.90952e-05 8.89033e-05 
8.23143e-05 6.77726e-05 5.75062e-05 4.15063e-05 4.17005e-05 4.47326e-05 2.43839e-05 -4.23218e-05 -5.33459e-05 
0.107853 -0.00282783 -0.00122843 -0.000937914 -0.000351485 -0.000598178 -0.000441645 -0.000234092 -0.000112418 
-7.13291e-05 -0.000107414 -0.000159901 -0.000163321 -0.000149674 -0.000140643 -0.000183651 -0.000260115 -0.000335452 
-0.000368547 -0.000420484 -0.000354627 -9.79504e-05 0.000139355 0.000295291 0.000314031 0.000314428 0.000262037 
0.000148001 0.000152496 0.000144081 9.94754e-05 5.17857e-05 -2.16185e-05 -4.32243e-05 -3.43527e-05 -4.31618e-05 
-6.32922e-05 -6.86648e-05 -6.84463e-05 -7.59901e-05 -8.05028e-05 -7.85343e-05 -5.03348e-05 5.17196e-06 8.33271e-05 
6.30984e-05 -7.25365e-05 -6.22723e-05 -5.98861e-06 8.70394e-06 1.41231e-05 2.28315e-05 4.39403e-05 5.00245e-05 
5.82165e-05 6.56063e-05 5.89806e-05 2.14611e-05 1.03793e-05 -1.35582e-05 -5.90927e-06 -1.66831e-05 -0.000104637 
-0.000154181 -0.000178984 -0.000191607 -0.000219858 -0.000195318 -8.91847e-05 6.70924e-06 6.35314e-05 9.57043e-05 
0.000104428 0.000242001 0.00026721 0.000253338 0.000196759 0.000146814 0.000173354 0.000225874 0.000195238 
0.000143421 0.000168996 0.000247886 0.000414442 0.000442074 0.000413205 0.000597925 0.00136499 0.00296718 
0.00585617 -0.109779 0.0195942 -0.0209066 0.0413237 0.0980908 0.0921845 0.0827825 0.0665454 
0.0291393 0.0126821 -0.0376474 -0.00400845 0.0274013 0.0513781 -0.0177359 -0.0503455 -0.0696406 
-0.084462 -0.0938275 -0.0577412 -0.0420616 0.0191651 0.0100175 -0.025109 -0.0262815 0.0640115 
0.0794222 0.079842 0.0704278 0.0951861 0.0691575 0.0409162 -0.0356828 -0.0531598 0.0458972 
0.0479147 -0.00365403 -0.0488152 -0.0360974 -0.0681598 -0.0504446 -0.0464294 -0.0122864 0.0208319 
0.0164422 6.91993e-05 5.96448e-05 -2.2606e-05 -6.34963e-05 -8.73403e-05 -8.70419e-05 -0.000100947 -8.8265e-05 
-0.000101056 -8.08662e-05 -3.68361e-05 3.07623e-06 3.34732e-05 6.65433e-05 8.71841e-05 7.41838e-05 8.73083e-05 
8.49851e-05 6.84697e-05 6.53949e-05 2.85569e-05 -1.59088e-05 -5.99121e-05 -4.64114e-05 0.09647 0.00515522 
-0.00203884 -0.000718722 -0.000162557 -0.000229701 -0.000248858 -0.000240782 -0.000163436 -0.000219164 -0.000248496 
-0.000311269 -0.000295578 -0.000346926 -0.000386319 -0.000443104 -0.000375104 -0.000172828 6.44765e-05 0.000264352 
0.000334941 0.00029096 0.000276676 0.00016538 9.77637e-05 5.23619e-05 3.3973e-05 -2.88168e-05 -8.31668e-05 
-8.91576e-05 -9.46509e-05 -0.000103376 -8.26925e-05 -5.87112e-05 -4.01966e-05 -1.05926e-05 0.000101661 7.95568e-05 
-4.95979e-05 -9.98138e-05 -9.76509e-06 4.61114e-05 7.20315e-05 5.9419e-05 7.32437e-05 5.91335e-05 4.00803e-05 
3.71645e-05 -1.78272e-05 -5.18564e-05 -0.000120153 -0.000134319 -0.000166711 -0.000198641 -0.000223998 -0.000196737 
-0.000138172 5.60416e-06 0.000143826 0.000272425 0.000262631 0.00026069 0.000232657 0.000190818 0.000195728 
0.00015893 0.000150972 0.000111994 0.000150908 0.000159091 0.000327464 0.00060466 0.000250062 -0.00616703 
-0.093512 -0.000615651 -0.000827581 0.076304 0.0932477 0.0920215 0.0819966 0.0691953 0.0532147 
0.0233212 -0.033568 -0.0404591 0.011627 0.0318448 -0.0556662 -0.0498679 -0.0688486 -0.0840968 
-0.0932851 -0.0956168 -0.0742083 0.00132381 -0.00722716 -0.0349901 -0.013143 0.0470497 0.0809599 
0.0773895 0.0609461 0.0389191 0.012788 -0.0482072 -0.0476082 0.0426487 0.0212367 -0.0134317 
-0.0393869 -0.0572087 -0.0724826 -0.0868271 -0.128133 -0.0357624 0.0335496 0.0124171 -5.89183e-06 
1.031e-05 0.0744899 -0.165128 0.188292 -0.0591728 -0.186902 0.185551 -0.0701246 -0.234761 
0.177432 0.0871733 -0.184403 0.23508 -0.0137498 -0.00693456 -0.007305 0.00993606 0.000528965 
-0.00789534 0.00159565 -0.0178499 -0.0129716 -0.0112496 -0.0368918 -0.0244463 -0.0219745 -0.0472107 
-0.0264758 -0.0289495 -0.0146522 -0.0176542 -0.00864413 -0.0111997 -0.0159741 0.00659327 -0.0153667 
-0.0105948 -0.00805571 -0.0045937 -0.0371009 0.00155888 0.00755393 -0.0425985 -0.0211379 -0.0251825 
-0.0182841 -0.0185609 -0.00345624 -0.0190774 -0.00982537 -0.00953509 -0.0114513 -0.014193 -0.00298306 
-0.013147 -0.0113653 -0.0142434 -0.0145505 -0.0163399 -0.00945577 -0.00605667 -0.0150984 -0.00976649 
-0.0133624 -0.00287569 -0.00618998 -0.0139901 -0.0213415 -0.0279889 -0.0198 -0.0514898 -0.0299368 
-0.0242106 -0.0158685 -0.0145665 -0.011598 -0.00798909 -0.0154734 0.00879189 -0.00847497 -0.0105461 
-0.00680432 -0.0107714 -0.0341228 -0.0422026 -0.0233876 -0.0232718 -0.0206376 -0.0173617 0.00432079 
0.00393592 -0.00284337 -0.00716475 -0.0102935 -0.0192949 -0.00438852 -0.00542436 -0.0140865 -0.014537 
-0.0113271 0.00155023 0.00877974 0.0130156 0.00612696 0.00926707 0.00776077 -0.0056605 0.0507463 
0.0314539 0.0267715 0.0229696 0.0186747 0.02582 0.0135442 0.0101645 0.0460787 0.0434937 
0.0360376 0.0364152 -0.00298932 0.00789802 0.0248821 0.0316697 0.0099337 -0.00388143 -0.00257373 
0.00517265 0.000567109 0.0150559 0.0206209 0.0125571 0.018303 0.0189277 0.0231998 0.0195105 
0.0126906 0.0105832 0.0115372 0.0207602 0.0380645 0.010637 0.0167035 0.0176142 0.0168229 
0.0110112 0.0148987 0.00330144 0.0117413 0.0105638 0.0128708 0.0094185 0.0129773 -0.00960309 
0.0515726 0.0345005 0.0389914 0.0499386 0.0272382 0.0303541 0.0331584 0.0212304 0.0224388 
0.0278182 0.0107439 0.00648484 -0.00252321 -0.00785224 0.006177 0.00703733 0.000311642 0.0195376 
0.0126601 0.0123418 0.0370443 0.00627322 0.0122799 0.0132263 0.0149509 0.011031 0.0163258 
0.0117416 0.0198428 0.0322056 0.0324671 0.0248341 0.0275186 0.0226165 0.0134826 0.0160519 
0.0186739 0.0123667 0.0055868 0.020096 0.0208253 0.0162767 -0.000867975 0.00652977 0.0116477 
0.00348776 0.00864648 0.00710502 -0.0131328 0.00711192 0.00395438 0.0139636 0.0114346 0.0126464 
0.0203289 0.0170865 0.0196401 0.0282985 0.0238696 0.0261907 0.0491941 -0.00296632 0.00475051 
0.0277322 0.02387 0.0345828 -0.0108397 -0.00639228 -0.0015888 -0.00120663 -0.00156629 0.00393074 
0.00496969 0.0475986 0.0359354 0.0171295 0.0189704 0.015756 0.0109342 0.0317567 0.0354931 
0.00909017 3.69598e-05 0.00772598 0.0105204 0.00695003 0.00764742 0.00782514 0.00310028 0.0137411 
0.0116092 0.0133231 -0.00783741 -0.00589574 0.0109392 0.0083498 -0.0148805 0.00290189 0.00775402 
0.0178728 0.0209924 0.0246454 0.0290549 0.0216737 0.0497164 0.00298105 0.0297794 0.0231516 
0.00344738 0.00407734 -0.0121201 -0.0100742 0.00491398 0.000775008 -0.00111799 -0.00343278 0.0419395 
0.0440778 0.0112001 0.0138673 0.0358572 0.0092625 0.00744684 0.01929 0.0154541 0.0102699 
0.0141367 0.0351663 0.0133273 0.00442555 0.0100394 0.00217617 0.0331385 0.0111124 0.0116529 
-0.00264444 -0.00730261 1.53741e-05 -0.0202865 -0.0128497 -0.0128685 -0.0338066 -0.0265258 -0.0217292 
-0.0506308 0.0123814 0.0109682 -0.000169528 0.0101909 -0.003507 -0.00722907 -0.0012932 -0.0134962 
-0.0157582 -0.0116503 -0.0258082 -0.0302591 -0.0101884 -0.00660374 0.00170443 -0.00950299 -0.0361369 
-0.0433039 -0.0112119 -0.0201353 -0.0225347 -0.0175417 -0.018388 -0.00800077 -0.00886836 -0.0172527 
-0.00322463 -0.00906523 -0.0130449 -0.0139907 -0.000647753 -0.000721583 -0.00892172 -0.0142736 -0.0192504 
-0.0129594 -0.0249997 -0.0323655 -0.0243951 -0.0544925 0.0147103 0.00221835 0.0104895 0.00541394 
-0.00947149 -0.0060945 -0.00476523 -0.0153806 -0.0125755 -0.0150082 -0.022931 -0.0195648 -0.0217461 
-0.0320568 -0.0269637 -0.00769964 -0.00952749 -0.00630492 -0.0106813 -0.00932275 -0.000224142 -0.0504938 
-0.0442417 -0.0072829 -0.00642721 -0.0400058 -0.0275143 -0.0365547 -0.00372722 -0.00243456 -0.0102352 
-0.0101545 -0.0196059 -0.0404972 -0.0150289 -0.0162695 -0.0131615 -0.0108272 -0.00807068 -0.0125289 
-0.173849 0.1695 0.118899 -0.114745 -0.0883247 -0.0750372 -0.0713964 -0.0680207 -0.0648273 
-0.0615299 -0.0588334 -0.055857 -0.0540239 -0.0427291 -0.0400921 -0.0372377 -0.0346228 -0.0320819 
-0.0298205 -0.0271019 -0.0250481 -0.01302 -0.010693 -0.00759754 -0.00508132 -0.00215868 0.000232004 
0.00260373 0.00387998 0.00738835 0.0137707 0.0224342 0.0286509 0.0327927 0.0330612 0.0351177 
0.0373232 0.0397735 0.0414371 0.0512984 0.0585152 0.0671399 0.0702838 0.073672 0.07668 
0.081724 0.0971787 0.0626981 0.0640241 -0.0798062 -0.0476732 -0.018475 0.018414 0.0448559 
8.7462e-05 -5.11772e-05 -0.000140338 -0.000398833 -0.000485691 -0.000568373 -0.00080347 -0.000839254 -0.00125815 
-0.0011016 -0.00113256 -0.00191663 -0.00131189 -0.00135206 -0.00241659 -0.00147663 -0.00147634 -0.00274804 
-0.00153559 -0.00153483 -0.00296751 -0.00155855 -0.00154942 -0.00305761 -0.00143082 -0.00142452 -0.00293429 
-0.00128779 -0.00123651 -0.0026305 -0.000998812 -0.000973196 -0.00221831 -0.000706902 -0.000676839 -0.00166273 
-0.000380165 -0.000334174 -0.00104495 -4.66594e-05 1.66957e-05 -0.000371512 0.000303323 0.000357319 0.000322108 
0.00065423 0.000682985 0.000995376 0.000943827 0.000979243 0.0016105 0.00117653 0.00121289 0.00212609 
0.00133678 0.00134608 0.00247976 0.00144002 0.00144244 0.00274211 0.00144994 0.00144737 0.00285459 
0.00142947 0.00142378 0.00283377 0.00131278 0.00130004 0.00267876 0.00118652 0.00114897 0.00241918 
0.000920379 0.00089811 0.00204794 0.00066731 0.000643331 0.00154719 0.000396905 0.00034544 0.00101349 
0.000130615 8.16582e-05 0.000502074 -7.03884e-05 -4.90477e-05 -8.49603e-05 6.04139e-05 0.066027 0.0232512 
0.0188254 0.0148759 0.0136515 0.036349 0.0088066 0.00871182 0.023335 0.00585146 0.00547559 
0.0149631 0.00392471 0.00367818 0.00980753 0.00237857 0.00242378 0.00641279 0.00148398 0.00142117 
0.00400019 0.000712543 0.000667507 0.00221281 0.000109834 2.77421e-05 0.000843945 -0.000432785 -0.000492813 
-0.000244326 -0.000900957 -0.000967882 -0.00129413 -0.00143476 -0.0014721 -0.00228714 -0.00191201 -0.0019699 
-0.003301 -0.00247355 -0.00257285 -0.0043346 -0.00293034 -0.00295952 -0.00524883 -0.00317996 -0.00322768 
-0.00592474 -0.00341173 -0.0034446 -0.00642281 -0.00346498 -0.00348144 -0.00669491 -0.00328667 -0.00327408 
-0.00655291 -0.00266478 -0.00255253 -0.00569939 -0.00168424 -0.00141875 -0.004039 -0.000339018 -7.64064e-05 
-0.00170294 0.000985467 0.00110355 0.000808614 0.00176911 0.00183128 0.00274892 0.00208234 0.00208391 
0.00374919 0.00199579 0.00199031 0.00388479 0.00173668 0.00164595 0.00347322 0.00132464 0.00129114 
0.00287307 0.000914355 0.00087049 0.00210134 0.0004864 0.000430243 0.00126465 7.93136e-05 1.3103e-05 
0.000452554 -0.000329267 -0.000408166 -0.000369919 -0.000777138 -0.000797901 -0.00115666 -0.00109603 -0.00113091 
-0.00188718 -0.00141283 -0.00146565 -0.00252214 -0.0015512 -0.0015821 -0.00294767 -0.00160623 -0.00160053 
-0.00310713 -0.0015911 -0.00157552 -0.00312526 -0.00153848 -0.00152575 -0.00306823 -0.0014119 -0.00140181 
-0.00288879 -0.00118965 -0.00116054 -0.00253532 -0.000876246 -0.000827196 -0.00199778 -0.000527239 -0.000449982 
-0.00133992 -0.000170114 -0.000130185 -0.000658748 9.9371e-05 0.000166678 0.000108266 0.000343304 0.000373877 
0.000520232 0.00060831 0.000635464 0.00097807 0.000820796 0.000838637 0.00144983 0.000970568 0.0010061 
0.00180462 0.00108251 0.00108453 0.00203701 0.00114941 0.00114125 0.00219229 0.00112347 0.00111858 
0.00223276 0.00100455 0.00099841 0.00209127 0.000845918 0.000817496 0.00180602 0.000630835 0.000577317 
0.00141297 0.000336454 0.000290899 0.00090564 3.38701e-05 -1.63531e-05 0.000314932 -0.0003057 -0.000332967 
-0.000300077 -0.000643898 -0.000707376 -0.00097664 -0.000990402 -0.00108077 -0.00167142 -0.00127442 -0.00130946 
-0.00222103 -0.00146377 -0.00148242 -0.00266469 -0.00150214 -0.00151895 -0.00288352 -0.00136209 -0.00137327 
-0.00278278 -0.00104539 -0.000985125 -0.00229382 -0.000491117 -0.000345435 -0.00134801 0.000249513 0.00039458 
-2.09042e-05 0.00120576 0.00132276 0.00157473 0.00195937 0.00204345 0.00324469 0.00250173 0.00261661 
0.00448148 0.00286779 0.00290641 0.00527923 0.00295542 0.00294221 0.00567793 0.00277221 0.00277306 
0.00556554 0.00253667 0.00252467 0.00516371 0.00232162 0.00224791 0.0046576 0.0020315 0.00197925 
0.00411161 0.0016453 0.00163948 0.00350062 0.00126999 0.00119884 0.00274016 0.000822984 0.000801737 
0.00189408 0.000406578 0.000326937 0.00101324 -0.000110227 -0.00016811 -2.76346e-06 -0.000836036 -0.000823314 
-0.00118488 -0.00163711 -0.00172668 -0.00276538 -0.00270106 -0.00291111 -0.00474673 -0.00455752 -0.00484852 
-0.00797209 -0.00796115 -0.00800711 -0.0131382 -0.0135073 -0.0139022 -0.0227806 -0.0262038 -0.0349198 
-0.0421871 -0.070498 -0.102409 -0.0909952 -0.0891746 -0.078949 -0.0906338 -0.0780748 -0.0678806 
-0.0799705 -0.0686064 -0.0592642 -0.0701469 -0.0607926 -0.0518837 -0.0599198 -0.0528029 -0.0436278 
-0.0506214 -0.0513642 -0.0407103 -0.0473607 -0.0439374 -0.0350786 -0.043451 -0.0377237 -0.0291138 
-0.0375441 -0.0312108 -0.0224578 -0.0293039 -0.0245884 -0.0149557 -0.0213424 -0.0227603 -0.0118738 
-0.0185298 -0.0149442 -0.00554465 -0.0145588 -0.00799657 0.00119952 -0.00799944 -0.00117475 0.00772798 
0.00053371 0.00748845 0.0164007 0.00954529 0.0134792 0.0167154 0.0133641 0.0202073 0.0219943 
0.0188701 0.0198627 0.0283962 0.0216457 0.0287971 0.0373143 0.0277154 0.0354105 0.0440901 
0.0371684 0.0436214 0.0514272 0.0455118 0.0498223 0.0536721 0.0496364 0.050535 0.0593334 
0.053458 0.0601597 0.0695939 0.0583973 0.0688564 0.0785038 0.0696763 0.0815832 0.0917727 
0.0824518 0.0913097 0.113114 0.0930623 -0.0107088 0.0130022 -0.0311057 -0.0296099 -0.0118848 
-0.0234157 -0.031757 -0.028885 -0.0135571 -0.0164623 -0.0228565 -0.0109516 -0.0117895 -0.0154648 
-0.0112598 -0.0100372 -0.013695 -0.014246 -0.011468 -0.0132208 -0.0192275 -0.0152939 -0.0138046 
-0.0263357 -0.0214527 -0.0161679 -0.0500092 -0.0373437 -0.0320184 -0.0723593 -0.056624 -0.0560654 
0.0581516 0.0690193 0.0351467 0.0478945 0.0485501 0.0193706 0.0273056 0.0309355 0.0131707 
0.0165964 0.0175697 0.0101809 0.0120346 0.0124722 0.0086578 0.00984098 0.0111929 0.0105868 
0.00947742 0.0121292 0.0166888 0.0124015 0.0142322 0.0315542 0.0227625 0.0209259 0.0244322 
0.0298621 0.0229527 -0.0160835 0.00649053 0.00439744 -0.0209161 -0.00154787 -0.0350837 -0.0343562 
-0.0160862 -0.0267233 -0.0361247 -0.032572 -0.0167169 -0.0198074 -0.0297545 -0.0130255 -0.0135672 
-0.0207139 -0.0128628 -0.0122226 -0.0160289 -0.0153672 -0.013486 -0.0152908 -0.0192063 -0.0159997 
-0.0166663 -0.0291051 -0.0210302 -0.0213449 -0.0476537 -0.0349669 -0.0305145 -0.0742807 -0.0557996 
-0.0467975 0.0543197 0.0689606 0.0363722 0.0481907 0.0473376 0.0217148 0.0267808 0.0286499 
0.0172321 0.019004 0.0173645 0.0133976 0.0156056 0.0135431 0.013883 0.0143439 0.0146699 
0.0154453 0.0139079 0.0158571 0.0225406 0.0188675 0.0193416 0.036013 0.0281075 0.0279647 
0.0340917 0.0396086 0.0338058 0.00393373 0.017963 0.0215297 0.0684106 0.00909939 0.00840994 
0.00238573 -0.101291 0.050152 0.0433408 -0.0526648 -0.0589098 -0.0140021 0.00146594 -0.00133972 
-0.00847711 0.0420377 0.0127762 -0.0305891 -0.0949085 -7.1926e-06 0.0150026 0.0123329 -0.0016913 
-0.00209641 -0.00256753 -0.00290315 -0.0030676 -0.0032781 -0.00353154 -0.00399493 -0.00386642 -0.00403914 
-0.00479051 -0.00421648 -0.00428112 -0.00534962 -0.00431959 -0.00432223 -0.00559907 -0.00422305 -0.00409078 
-0.00552327 -0.00383612 -0.003619 -0.00511431 -0.00327867 -0.00295644 -0.00443487 -0.00253701 -0.00219921 
-0.00355246 -0.00167663 -0.00129377 -0.00251419 -0.0007319 -0.000295894 -0.00129195 0.000262895 0.000692305 
-3.16396e-06 0.00124134 0.0016173 0.00126024 0.00212171 0.00246248 0.00243135 0.0028666 0.00314234 
0.00342995 0.00344723 0.00364545 0.00425922 0.00384382 0.00395227 0.00484419 0.00403178 0.00404291 
0.0051604 0.00402755 0.00399983 0.00523268 0.00388896 0.00375283 0.00508397 0.00357413 0.00339137 
0.00475447 0.00315266 0.0028782 0.00426308 0.00251103 0.00221585 0.00359962 0.00172864 0.00141578 
0.00265295 0.000960249 0.000664618 0.00161516 0.000312725 -0.0174313 -0.0210159 0.0805725 -0.000278062 
0.0390796 0.032592 0.0255407 0.0214333 0.0386332 0.0172088 0.0144441 0.0261781 0.0111704 
0.00949781 0.0177046 0.00746444 0.00625707 0.0118525 0.00456938 0.00359747 0.00775426 0.00240922 
0.00167465 0.00460421 0.000668009 -7.96207e-05 0.00201699 -0.000971257 -0.00160771 -0.000191729 -0.00247548 
-0.00308726 -0.00220776 -0.00392607 -0.00453748 -0.00415169 -0.00528087 -0.00591127 -0.00594392 -0.00659665 
-0.00713516 -0.00762535 -0.0076222 -0.00794296 -0.0089949 -0.00833215 -0.0085539 -0.00998084 -0.00877709 
-0.00882478 -0.0106246 -0.00878752 -0.00854686 -0.0108241 -0.0078654 -0.00717752 -0.0101009 -0.00603721 
-0.00482351 -0.00816702 -0.00320452 -0.00162263 -0.00506706 0.000266055 0.00155799 -0.000998714 0.00299852 
0.00380874 0.00276403 0.00450412 0.00482946 0.00502989 0.00483497 0.0047558 0.00566705 0.00442838 
0.0041339 0.00535704 0.00371582 0.00326912 0.00456549 0.00274732 0.00226651 0.00346904 0.00170359 
0.00123273 0.00224853 0.000602369 0.000109292 0.000911117 -0.00056711 -0.00107607 -0.000532654 -0.00166504 
-0.00211845 -0.00196057 -0.00262669 -0.0029962 -0.00320205 -0.00350254 -0.00385127 -0.00431977 -0.00414201 
-0.0043102 -0.00518565 -0.00443104 -0.00449875 -0.00567287 -0.0045046 -0.00448281 -0.00584749 -0.00444319 
-0.00436186 -0.00580578 -0.00414549 -0.00398097 -0.00549496 -0.00369052 -0.00343044 -0.00492131 -0.0030699 
-0.00271191 -0.00419089 -0.00219021 -0.00177541 -0.00320992 -0.00113527 -0.000763378 -0.000700021 -0.00192483 
-0.0670496 -0.0854876 -0.0499167 0.0611844 0.0483459 0.0566603 0.000794513 0.001027 0.00136475 
0.00166708 0.00166826 0.00201582 0.00225958 0.00244814 0.0025127 0.00269171 0.00311781 0.00288882 
0.00301406 0.00364303 0.00313608 0.00319713 0.00401078 0.0032031 0.00316316 0.00414602 0.00302889 
0.00289053 0.00399125 0.00268605 0.00248474 0.00360531 0.00215971 0.00187752 0.00300989 0.00147907 
0.00113805 0.0021863 0.000684136 0.000310115 0.00122052 -0.000176548 -0.000546858 0.000161199 -0.00104644 
-0.00147002 -0.000952747 -0.00195858 -0.00237748 -0.00207299 -0.0027797 -0.00310445 -0.00312623 -0.0033969 
-0.00358592 -0.00394504 -0.00374618 -0.00378386 -0.00447198 -0.00368386 -0.00353189 -0.00453683 -0.00310935 
-0.00269529 -0.00398229 -0.0019221 -0.00121012 -0.00268561 -0.000169926 0.000710401 -0.000669288 0.0019564 
0.00300165 0.00191014 0.0041333 0.00494194 0.00464877 0.00584999 0.00647349 0.00693927 0.00702121 
0.00744807 0.0085394 0.00765406 0.0077091 0.00943798 0.00762919 0.00744652 0.00956962 0.0071924 
0.0069345 0.00917443 0.00649123 0.00620231 0.00842013 0.00562948 0.00524065 0.00734124 0.00472413 
0.00427666 0.00608515 0.00362851 0.00312226 0.00469891 0.00239937 0.00188018 0.00314297 0.00105477 
0.000454947 0.00137235 -0.000472596 -0.00119614 -0.000594726 -0.00234147 -0.00324387 -0.00299676 -0.00458344 
-0.00569341 -0.00592253 -0.00761876 -0.00921736 -0.00968697 -0.0121279 -0.0148137 -0.0152829 -0.0195734 
-0.0238361 -0.0239289 -0.0310371 -0.0389115 -0.0573355 -0.0374963 -0.0770425 -0.000104046 -0.00578747 
-0.0702966 -0.0722312 -0.0642585 -0.0668428 -0.0653522 -0.0573237 -0.060837 -0.06056 -0.0511174 
-0.054859 -0.0544894 -0.0483889 -0.0438289 -0.0487041 -0.0364494 -0.0414923 -0.0418647 -0.0322055 
-0.0366975 -0.0367883 -0.0274182 -0.0318626 -0.0316917 -0.0220911 -0.0273571 -0.0264155 -0.0203942 
-0.0153698 -0.0210673 -0.00907225 -0.0120133 -0.0147692 -0.00310898 -0.00798443 -0.00888994 0.00173751 
-0.00272136 -0.0033916 0.00700136 0.00200363 0.00223471 0.007977 0.0119922 0.00734607 0.0157251 
0.0198884 0.0138613 0.0233208 0.027817 0.0217137 0.0333623 0.028051 0.0277759 0.0374755 
0.0331607 0.0326387 0.0421989 0.0377777 0.0376672 0.0444423 0.0490399 0.0427504 0.0528642 
0.0572893 0.0497108 0.0629448 0.059298 0.0568263 0.0692357 0.0664602 0.0627493 0.0748388 
0.0721261 0.0674037 -0.0206632 -0.0190134 -0.0140863 0.0554058 0.041315 -0.0101095 0.00408831 
-0.00482396 -0.0117953 -0.014369 -0.013143 -0.00901024 -0.0099679 -0.00957021 -0.00839438 -0.00867481 
-0.00745219 -0.0105675 -0.0092404 -0.00767199 -0.0172163 -0.0136695 -0.011436 -0.0326321 -0.0236841 
-0.0215284 -0.0536363 -0.0425258 -0.0380022 0.00356448 0.00203669 0.0223703 0.0311 0.040532 
0.0504385 0.0452401 0.0346308 0.00748675 0.00888059 0.00646285 0.00651994 0.00526714 0.00820879 
0.00727254 0.00511419 0.0125451 0.00987834 0.00723484 0.0174198 0.0145548 0.0101652 0.0120467 
0.0158535 0.00936536 -0.00913699 0.00282587 -0.000701485 -0.00981955 -0.0148695 0.0531536 0.0293853 
-0.023975 -0.0215213 -0.0140766 -0.00297097 0.00124153 -0.00965395 -0.0155926 -0.0182092 -0.0125307 
-0.0134009 -0.0131281 -0.0114886 -0.0112088 -0.0103143 -0.0127414 -0.0118183 -0.0100038 -0.0190275 
-0.0156908 -0.0132819 -0.0338406 -0.0263438 -0.0228207 -0.0527959 -0.0441971 -0.0385049 -0.0142485 
-0.0504482 0.0233475 0.0308151 0.0406557 0.0511152 0.0414452 0.0348357 0.0112592 0.0119765 
0.0114331 0.011267 0.0104789 0.0144674 0.0126349 0.0112592 0.0198444 0.0168017 0.0145133 
0.0270115 0.0228312 0.0187969 0.0231879 0.0267607 0.0196716 0.00305675 0.0158428 0.0109883 
-0.00124306 -0.00108249 0.0119234 0.0158216 0.018815 0.00902408 -0.0212061 -0.0241894 -0.0172404 
-0.0168069 0.0142539 0.0174155 0.0211857 0.0131069 0.0822926 0.0104784 0.00704768 0.000715893 
-0.0693329 0.0268824 0.0199952 0.00241943 -0.00186659 0.0683161 0.0752392 -0.0129711 0.00845458 
0.000265198 -0.0035283 -0.00774502 -0.0504887 -0.0117896 0.022836 0.00648071 -0.0406976 -0.00998982 
0.00121384 -0.0570357 -0.00448603 -0.00492918 -0.00549366 -0.00589557 -0.00602044 -0.00628169 -0.00648457 
-0.00702193 -0.00666664 -0.0067019 -0.007619 -0.00664327 -0.00652093 -0.0077571 -0.00627433 -0.00597628 
-0.00741038 -0.00551326 -0.00507985 -0.00666498 -0.00453212 -0.00399567 -0.00558271 -0.00334989 -0.00272101 
-0.00427622 -0.00192 -0.00120561 -0.00271395 -0.000331006 0.000374896 -0.000891399 0.00115476 0.00183721 
0.000906772 0.00258701 0.00317671 0.00254768 0.00387454 0.00439305 0.00408897 0.00493948 0.00533752 
0.00545342 0.00570923 0.00595246 0.00644455 0.00611609 0.00621264 0.00701192 0.00624395 0.00622564 
0.00721883 0.00615017 0.00603082 0.0071768 0.00580403 0.00557371 0.00686912 0.00528042 0.00496976 
0.0063141 0.00450718 0.00409118 0.00551824 0.00350075 0.00295262 0.00441898 0.00229952 0.00177717 
0.00186516 0.00312901 -0.00407699 0.00231115 -0.00636709 -0.00771569 0.0136197 0.0103096 0.0501099 
0.0420485 0.0353011 0.020496 0.0342805 0.0288792 0.0439634 0.0242227 0.0200604 0.0311019 
0.0165265 0.0139526 0.0222417 0.0113985 0.00940462 0.0156621 0.0073592 0.00575903 0.0106637 
0.00409561 0.00273512 0.00665825 0.00131239 0.000133429 0.00325799 -0.00118986 -0.0022673 0.000244017 
-0.00354624 -0.00456273 -0.00257396 -0.00575972 -0.00673332 -0.00521802 -0.00777926 -0.00867356 -0.00762496 
-0.00945007 -0.0101141 -0.00960514 -0.0107034 -0.0111291 -0.0111039 -0.0115256 -0.0117378 -0.0121653 
-0.0119945 -0.0118982 -0.0128181 -0.0117547 -0.0111285 -0.0129364 -0.00999255 -0.0087006 -0.011857 
-0.00734505 -0.00534919 -0.00932084 -0.00224183 -3.71905e-05 -0.00444547 0.0022668 0.00386086 0.00140573 
0.00488968 0.00559116 0.00480759 0.00573486 0.00577401 0.00574221 0.00547219 0.00523638 0.00555177 
0.00476451 0.00425764 0.00486343 0.00369187 0.0030338 0.00380617 0.00233521 0.0016949 0.00246302 
0.000908847 0.000187885 0.000946225 -0.000736585 -0.00153187 -0.00081355 -0.00237923 -0.00310209 -0.00266614 
-0.00384668 -0.00445327 -0.00434881 -0.00512821 -0.0056995 -0.00584364 -0.00621623 -0.00657364 -0.00709722 
-0.00681748 -0.00698439 -0.00788928 -0.0070647 -0.00709727 -0.00823712 -0.00699443 -0.00691752 -0.0082277 
-0.00666927 -0.00639885 -0.00785857 -0.00602404 -0.00566919 -0.00718301 -0.00524647 -0.00480039 -0.00632659 
-0.00423022 -0.00362547 -0.00525965 -0.00258381 0.00227074 0.00253433 -0.00221556 0.00285307 0.0032667 
0.00306967 0.00367535 0.00398747 0.00427109 0.00451938 0.0048583 0.00479614 0.00494767 0.00545421 
0.00505008 0.00504741 0.00585821 0.00499229 0.00482916 0.00591014 0.00458922 0.0043302 0.00559555 
0.0038978 0.00350787 0.00488344 0.00300828 0.00251449 0.00389987 0.00193459 0.0013722 0.0027444 
0.000699797 0.000120262 0.00140475 -0.000548377 -0.00113308 -1.37073e-05 -0.00182199 -0.00244176 -0.00142971 
-0.00304226 -0.00356799 -0.00279839 -0.00405355 -0.00444436 -0.00398163 -0.00475923 -0.00493345 -0.00486404 
-0.00501143 -0.00489681 -0.00531162 -0.00459842 -0.00409896 -0.00509642 -0.00333262 -0.00243479 -0.00398514 
-0.00121989 -6.79903e-06 -0.00190169 0.00174493 0.00325439 0.00119181 0.00490782 0.00628557 0.00484334 
0.00763223 0.00865959 0.0080189 0.00960245 0.0103043 0.010405 0.0107284 0.0110082 0.0118456 
0.0109413 0.0108202 0.0122488 0.0105997 0.0102359 0.0118953 0.00970111 0.00922798 0.0110172 
0.008475 0.00783853 0.00968244 0.00695799 0.00624341 0.00800098 0.00535645 0.00447231 0.00606315 
0.00339957 0.00250304 0.00389369 0.00132749 0.000267154 0.00146978 -0.00112342 -0.00232334 -0.00129472 
-0.00397306 -0.00556507 -0.00466305 -0.00760665 -0.00938426 -0.00872617 -0.0121034 -0.0147342 -0.0138646 
-0.0183507 -0.0223612 -0.0208053 -0.025927 -0.0317436 -0.02902 -0.0581479 -0.0571161 0.0577219 
-0.00498541 -0.027575 -0.00851032 -0.0100285 -0.00525849 -0.0578967 -0.0551623 -0.0513832 -0.053565 
-0.0502885 -0.0510559 -0.0480171 -0.0453291 -0.0471081 -0.0421791 -0.0396521 -0.0422373 -0.0376555 
-0.0347022 -0.0373457 -0.0325685 -0.0296678 -0.0327927 -0.0272999 -0.0242183 -0.0280078 -0.0217481 
-0.0191717 -0.0228278 -0.0159784 -0.0133506 -0.0174804 -0.0105776 -0.00794571 -0.0121107 -0.00527254 
-0.00206531 -0.0065739 0.000645225 0.00372361 -0.000825718 0.00643399 0.00925863 0.00503943 0.0127238 
0.0157319 0.0112032 0.0194795 0.0225931 0.0175481 0.0258671 0.0283669 0.023686 0.0306117 
0.0334442 0.0290442 0.0358417 0.0386627 0.0340132 0.0409242 0.0440819 0.0390935 0.0469536 
0.0495764 0.04415 0.0527676 0.0556783 0.0491592 0.0577661 0.0609434 0.0539222 0.0594297 
0.0599669 -0.00928552 -0.00813639 -0.000442631 -0.00500322 0.00346179 0.00290368 -0.00539734 -0.00577937 
-0.00442432 -0.00692163 -0.00593201 -0.00483271 -0.0123683 -0.00932002 -0.00806828 -0.0240183 -0.0177515 
-0.0155519 -0.0395324 -0.0318042 -0.0274693 -0.0088308 -0.0094993 -0.0131925 -0.0119246 0.00506141 
0.003827 0.00170094 0.0034792 0.00429711 0.00221077 0.00603594 0.00531105 0.00197521 0.00251948 
0.00463591 0.000248081 -0.00793331 -0.00176183 -0.00467086 0.0319163 0.0179127 -0.041539 -0.0443884 
-0.037521 -0.0277662 -0.03262 -0.0396576 -0.00978249 -0.00912509 -0.00847741 -0.0100915 -0.011604 
-0.00841476 -0.0148014 -0.0119506 -0.0111173 -0.0257299 -0.0196111 -0.0178982 -0.0385859 -0.0324514 
-0.0279328 -0.0040648 -0.0209827 0.00767427 0.0132532 0.0120633 0.00785603 -0.00356584 -0.00412623 
0.0128082 0.0110548 0.00978593 0.0100954 0.0147759 0.013464 0.00973889 0.0127498 0.0144464 
0.0092661 0.0104484 0.00950487 0.00924777 -0.00505241 -0.00205653 -0.00374799 0.0107208 0.0075591 
0.0168229 0.00857403 0.0150177 0.0213107 0.0047449 0.000789656 0.00569691 0.00412227 -0.0485395 
-0.000345418 -0.00461768 0.0546399 -0.0339926 0.00319615 -9.43172e-05 -0.0230625 -0.00897047 -0.0120096 
-0.0131832 0.040861 0.032539 0.040532 -0.0114108 -0.012082 -0.0106265 -0.00771632 0.0164329 
0.00762566 -0.00372797 -0.00741983 -0.00240984 0.0378194 0.0310666 0.0397699 0.00541661 0.00681459 
0.00993994 0.0182316 0.0233989 0.00173721 0.00410074 0.00209746 -0.00167807 0.0115066 0.0119662 
0.0143703 0.00934855 0.00564718 0.00382207 -0.00571905 -0.0103102 0.0092826 0.0282282 0.0355343 
0.0238678 0.0289959 0.0354773 0.0331046 0.0253311 0.00367039 -0.00632178 -0.00691142 -0.00181219 
-0.00314376 -0.00767601 -0.00808549 -0.00798109 -0.00850898 -0.00868983 -0.0091686 -0.00881 -0.00874461 
-0.00972435 -0.00854963 -0.00826891 -0.00965501 -0.00780953 -0.007301 -0.00897026 -0.00655355 -0.00593948 
-0.00770785 -0.00531824 -0.00456025 -0.00628535 -0.00355772 -0.00264598 -0.00458718 -0.00144922 -0.000434274 
-0.00226818 0.000670054 0.00155974 0.000190867 0.00243773 0.00326533 0.00227393 0.00423915 0.00504586 
0.00418766 0.0059393 0.00658379 0.00615955 0.00716792 0.00759334 0.00775812 0.00784614 0.00803308 
0.00864772 0.00815319 0.00817938 0.00902671 0.00811626 0.00804358 0.00907283 0.00786561 0.00762032 
0.00882121 0.00731013 0.00696297 0.00829788 0.00644635 0.00594707 0.00742476 0.005279 0.00467015 
0.00621616 0.00374511 -0.00447841 -0.00357722 0.0122638 0.0100997 0.0515223 0.0493158 0.0415314 
0.0367428 0.031569 0.0416004 0.0275376 0.023382 0.0323869 0.0201635 0.0172077 0.0247468 
0.0145079 0.0121489 0.0185564 0.00981266 0.0078611 0.0133864 0.00586427 0.00417839 0.00887222 
0.00245608 0.000901956 0.00497461 -0.000790939 -0.00220911 0.00139088 -0.00386847 -0.0051841 -0.00209448 
-0.00657932 -0.00777054 -0.0052426 -0.00885523 -0.00972544 -0.00781764 -0.0104412 -0.0111324 -0.00962295 
-0.0116916 -0.0121346 -0.0109141 -0.012885 -0.0122235 -0.00230497 0.000556429 0.00303363 0.00499475 
0.0050952 0.00431128 0.00411663 0.00354734 0.00421655 0.00379908 0.00277095 0.00335838 0.00273026 
0.00268349 0.00210285 0.00137429 0.00159075 0.000571937 -0.000202889 0.000204376 -0.00113066 -0.00209124 
-0.00149733 -0.00319478 -0.00408784 -0.00354419 -0.00506935 -0.00587492 -0.00566006 -0.00673646 -0.00745126 
-0.00753463 -0.00812536 -0.00865364 -0.00908835 -0.00901454 -0.00926507 -0.0100933 -0.00938718 -0.00947104 
-0.0105409 -0.00938597 -0.00927719 -0.0105613 -0.00899315 -0.00870539 -0.0101561 -0.00826532 -0.00785017 
-0.00938951 -0.00727791 -0.00679839 -0.00835287 0.00527404 0.00558647 -0.0412887 -0.0397639 0.00602028 
0.00631657 0.00646237 0.0066433 0.00675789 0.00723775 0.00686071 0.00679599 0.00767266 0.00665513 
0.00639362 0.00763421 0.0059911 0.00553084 0.00709029 0.00494922 0.00440493 0.00609326 0.00377533 
0.00313026 0.00485636 0.00238723 0.001636 0.00343973 0.000807214 0.00010235 0.00180492 -0.000681278 
-0.00138757 0.000159808 -0.00210082 -0.00277113 -0.00133108 -0.00341631 -0.00395615 -0.00269226 -0.00445941 
-0.00483668 -0.00385809 -0.005157 -0.00527772 -0.0047687 -0.00530408 -0.00501064 -0.00525116 -0.00454035 
-0.003736 -0.00482906 -0.00283553 -0.00156508 -0.00349641 0.00471629 0.00650891 0.0108348 0.0118278 
0.0125041 0.0129382 0.0130176 0.0129783 0.0129417 0.0136465 0.0126144 0.0122547 0.0133273 
0.0117318 0.0111166 0.0123604 0.0103074 0.00951509 0.0109539 0.00848137 0.00751477 0.00904779 
0.00640986 0.00531847 0.00681729 0.00400872 0.00273131 0.00422283 0.00124883 -9.93236e-05 0.00124683 
-0.00183573 -0.00347259 -0.00214188 -0.00554349 -0.00753672 -0.00615271 -0.00990796 -0.0123339 -0.010859 
-0.015262 -0.01837 -0.0164185 -0.0223981 -0.0267127 -0.0235969 -0.0320857 -0.036398 -0.0331105 
-0.00043092 0.0230299 0.0137786 -0.000750743 -0.000500909 -0.00434133 -0.00282135 -0.00471795 -0.04823 
-0.0469997 -0.0453097 -0.043148 -0.0427422 -0.0412405 -0.0388277 -0.0395747 -0.0370036 -0.0348199 
-0.0361018 -0.0328622 -0.0306722 -0.0325679 -0.0285711 -0.0261307 -0.0287518 -0.0237694 -0.0212356 
-0.0244937 -0.0187215 -0.0161191 -0.0198207 -0.0135889 -0.0109098 -0.0149169 -0.00808993 -0.0053161 
-0.00967572 -0.00240577 0.000424504 -0.00403311 0.00345271 0.00644894 0.00184784 0.00966943 0.0127809 
0.00801813 0.0159935 0.0189464 0.0143345 0.021825 0.0246779 0.0202149 0.0271973 0.0295819 
0.0253952 0.0319537 0.0343726 0.0300659 0.0365677 0.0390042 0.0343785 0.0410704 0.043412 
0.0383338 0.0452642 0.0475992 0.0419143 0.0494384 -0.0307436 -0.0311209 -0.00912292 -0.00665143 
-0.0054706 -0.00268653 -0.00280423 -0.00221928 -0.017714 -0.0265922 -0.0177238 -0.0130929 -0.0114588 
-0.0288797 -0.0230508 -0.0199642 -0.0122604 -0.0100764 -0.000105121 -1.30969e-05 -0.00220229 0.0220555 
0.0145361 0.000916704 0.00172391 -0.000581392 0.00135696 -0.0087653 0.0170122 -0.0197413 -0.0155861 
-0.0141907 -0.00835486 -0.00771354 -0.00933222 0.00459091 -0.00697284 -0.0071044 -0.00677152 -0.0285262 
-0.0240989 -0.0210394 -0.00587844 0.012803 0.00484131 0.0056838 0.0060147 0.00622834 0.00241647 
0.00757903 0.00754492 0.004691 -0.010879 -0.00138987 -0.012947 -0.00237175 -0.00258098 -0.000624421 
0.00853556 0.009033 0.00730702 -0.0129694 -0.0132366 -0.0108269 -0.0131303 -0.0437068 -0.00339965 
-0.0031987 -0.000805865 0.00771419 0.0116081 -0.00509515 -0.00657024 -0.00640144 0.00504644 0.00999223 
0.0106629 0.0125094 0.00903345 0.00750311 0.00472535 -0.000177196 -0.0126489 -0.0128103 -0.045917 
0.00417933 0.00499404 0.00577574 -0.00654022 0.0283296 0.0239995 0.032709 -0.025255 -0.0220455 
-0.0314659 -0.0170759 0.012702 0.00658931 0.00216768 0.00378847 0.00204851 0.000283126 0.00807899 
0.00951499 0.0452192 0.0144078 0.00891415 0.0100711 0.0146347 -0.0417312 0.00437255 0.00863063 
0.00113993 -0.0121351 -0.00082221 0.0109928 0.0164566 0.0195855 0.024986 0.00280223 -0.00187062 
-0.00100889 0.00351716 0.000839428 -0.0128871 -0.0327594 -0.0280586 -0.034205 0.0340582 -0.00495065 
-0.00357767 -0.00293533 0.0268955 0.023127 0.0311854 0.00258353 0.00380945 0.00632715 -0.00864329 
-0.0056932 0.0152564 0.0185516 0.0142003 -0.00802413 -0.0271484 0.0130566 0.0133122 0.012707 
0.0126375 0.00357813 0.000738123 0.00125537 -0.000823563 0.0220203 0.0262076 0.0198972 -0.00966459 
-0.0100965 -0.0104849 -0.0106026 -0.0110169 -0.0106251 -0.0104225 -0.011443 -0.0101226 -0.009648 
-0.0112 -0.00871668 -0.0078992 -0.00993956 -0.00720496 -0.00566507 0.028174 -0.00571775 -0.00465117 
-0.00738381 -0.00324271 -0.00192366 -0.00441254 -5.14101e-05 0.00118616 -0.000989753 0.00264227 0.00358628 
0.00254236 0.00461107 0.0491921 0.0521357 0.00620048 0.00718867 0.00562519 0.00836056 0.00899859 
0.00853373 0.00956276 0.00982499 0.0102816 0.00979215 0.00991427 0.0107615 0.0100466 0.00997878 
0.0108717 0.00960729 0.00941561 0.0106032 0.00921579 0.00885739 0.0100195 0.00831523 0.00776946 
0.00923558 0.00711194 0.00641583 0.0066728 0.00800333 0.00808952 0.0404379 0.0296297 0.0320047 
0.0279582 0.0366209 0.0323644 0.0397952 0.0289033 0.0252929 0.0325307 0.0224337 0.0195069 
0.0259989 0.0169603 0.0144859 0.0204756 0.0122325 0.0100826 0.0156564 0.008065 0.00619307 
0.0113442 0.00428936 0.00248075 0.00736005 0.000529907 -0.0012314 0.0034248 -0.00318918 -0.00467281 
-0.000612437 -0.00601643 -0.00714189 -0.00401107 -0.00774393 -0.00836177 -0.00595845 -0.00746195 0.00112984 
0.000694524 -0.000764398 -0.00147857 -0.00206435 -0.00295093 -0.00292133 -0.00417393 -0.00527812 -0.00467415 
-0.00649832 -0.00747339 -0.0071573 -0.00851943 -0.00937654 -0.00940641 -0.0101269 -0.0107621 -0.0111714 
-0.0112609 -0.0115713 -0.0123644 -0.0117651 -0.0118464 -0.012961 -0.0117463 -0.0116434 -0.0129634 
-0.0112057 -0.0108907 -0.0123882 -0.0103168 -0.00985982 -0.0113706 -0.00910598 -0.00853466 -0.00820692 
-0.0100231 0.00710979 0.0174611 0.0115059 -0.000601101 0.00777211 0.00810593 0.00850166 0.00861135 
0.0090647 0.00872459 0.0085963 0.00960003 0.00826241 0.00787064 0.00942223 0.00732166 0.0067434 
0.00856407 0.00614914 0.00550747 0.00744013 0.00481456 0.00404672 0.00617242 0.00309256 0.00221811 
0.00452383 0.0012424 0.000465551 0.00253078 -8.75724e-05 -0.000741724 0.00104195 -0.00138413 -0.00198781 
-9.58899e-05 -0.00261708 -0.00313063 -0.00125485 -0.00373781 -0.00417469 -0.00242529 -0.00467723 -0.00482498 
-0.00373094 0.0082909 0.0136584 0.0136581 0.0132844 0.0129433 0.0133818 0.0123796 0.011819 
0.0124235 0.0110383 0.0101734 0.0110575 0.00908022 0.00797909 0.00919421 0.00666308 0.00548706 
0.00676754 0.00412602 0.00266925 0.0039911 0.000980403 -0.00067408 0.000834255 -0.00268495 -0.00460766 
-0.00300786 -0.00684651 -0.00914147 -0.00741869 -0.0115482 -0.0141554 -0.0122117 -0.0169718 -0.0201633 
-0.0175614 -0.0235956 -0.0279006 -0.0239435 -0.0318575 -0.0374065 -0.0399742 -0.0315598 -0.0387097 
0.018125 0.0140001 0.00191918 0.00446154 0.000685856 -0.0346095 -0.0330561 -0.0318118 -0.0301165 
-0.0304716 -0.0286936 -0.0268354 -0.028098 -0.0250184 -0.022904 -0.0251524 -0.0207953 -0.0184678 
-0.0215624 -0.0162449 -0.0138266 -0.0174061 -0.0114462 -0.00873764 -0.0129537 -0.00569051 -0.00286932 
-0.00763973 3.61008e-05 0.00300535 -0.00173273 0.00639711 0.00951066 0.00455586 0.0127296 0.0157588 
0.0110937 0.0185908 0.0212471 0.0170216 0.0236486 0.0259513 0.0220592 0.0281137 0.0302176 
0.0263482 0.0319908 0.0338865 0.0299534 0.0354248 0.0371771 0.0329546 0.0383021 -0.0209177 
-0.0166595 -0.0059983 -0.0038227 -0.0104583 -0.01123 -0.00167842 -0.000478531 -0.00212114 -0.0127896 
-0.0092249 -0.00738083 -0.0140321 -0.021008 -0.0177212 -0.000892023 0.000743025 0.000126092 -0.00249897 
-0.00147814 -0.0112021 -0.0128154 0.0295393 0.0327282 0.0289975 0.025101 -0.0100349 -0.00826224 
-0.0152576 -0.0122983 -0.0111241 -0.0154724 -0.00464674 -0.00405323 -0.0260653 -0.0242325 -0.0206842 
0.000557014 0.00130447 0.00117063 -0.00950857 -0.0170462 0.00598773 0.00724386 -0.0221573 -0.0255656 
-0.0232984 -0.018137 0.00465964 -0.00200784 0.000908226 -0.00625767 0.000530846 -0.00899114 -0.00941041 
-0.00878517 0.00889414 0.0105341 0.00783908 0.0111297 0.00646229 0.0014812 -0.00201235 0.0260688 
0.0130891 0.0136158 -0.00445363 -0.00223765 -0.00104147 -0.00399573 0.0257244 0.0215941 0.0196486 
0.00799421 -0.0130128 -0.0207012 -0.0102886 0.0106589 0.0119101 -0.00479764 -0.00442535 0.0130817 
0.017251 0.0139969 0.0101219 -0.00674628 -0.035889 -0.0326781 -0.0374062 0.0352918 0.00292498 
0.00391159 0.00394987 -0.0245309 -0.0210259 -0.0270973 -0.0282388 -0.00625522 -0.00464794 -0.0110845 
0.0126587 0.0150737 0.0113657 -0.00155527 -0.00994468 0.00101027 0.00312546 -0.000552006 0.00432805 
0.00447252 0.00277048 -0.00659312 -0.00553835 0.0125614 0.0137665 0.0057004 0.00905233 0.0102026 
0.00583393 0.0158216 0.0178177 0.0205021 -0.00457292 -0.0348054 0.0112428 0.0123136 0.0119835 
0.00842203 -0.00725523 0.0246759 0.0213633 0.0199243 -0.0122785 -0.0123257 -0.0122093 -0.0118723 
-0.0131426 -0.0119442 -0.0109345 -0.0130522 0.0763068 0.0710951 -0.0128677 -0.0106367 -0.00810587 
-0.00649015 -0.00974987 -0.00502001 0.0787714 0.0846012 -0.0022358 -0.000205686 -0.00441427 0.00297998 
0.00456475 0.00187689 0.0942725 0.0969834 0.103597 0.10312 0.0062918 0.100459 0.0864894 
0.00889608 0.0101197 0.00804421 0.0110526 0.0116383 0.0116255 0.011893 0.0118575 0.01281 
0.0119362 0.0427925 0.00454808 0.0114265 0.0110753 0.0125119 0.0107874 -0.0718669 -0.0303377 
0.0100625 0.00948989 0.0111191 0.00865993 -0.00293079 -0.0016292 0.000493953 -0.00154241 0.00342386 
0.0051156 0.0317875 0.0237226 0.021128 0.0189196 0.0166632 0.0219411 0.0146847 0.012652 
0.017872 0.010703 0.00877864 0.0140771 0.00212293 0.000106175 0.00110743 -0.00404885 -0.00448744 
-0.00828087 -0.00947173 -0.0107742 -0.0117504 -0.0119612 -0.0124666 -0.0131269 -0.0139025 -0.0136266 
-0.0140067 -0.0150151 -0.0142243 -0.0143063 -0.015545 -0.0140616 -0.0138936 -0.0152946 -0.0133189 
-0.0128786 -0.0143817 -0.0106858 -0.00249367 -0.0036378 -0.00400727 -0.00346626 -0.0307013 0.0107695 
0.0104865 0.0097822 0.00926673 0.011197 0.00875315 0.00818797 0.0100535 0.0080008 0.00737762 
0.00942973 0.00624784 0.00531182 0.00823021 0.00385826 0.00280286 0.00234238 0.018025 0.0215445 
0.0251791 -0.000745255 -0.00173228 0.0259555 0.025636 0.0228747 0.0233364 0.0115329 0.0109987 
0.0106671 0.0102862 0.00956031 0.00955165 0.0088447 0.00773408 0.00816037 0.00629735 0.00487898 
0.00597984 0.0033226 0.00192219 0.0029353 0.000512869 -0.00126069 -0.000113595 -0.00799787 -0.0103324 
-0.0127 -0.0152068 -0.0132048 -0.0177971 -0.0207074 -0.0181458 -0.0237236 -0.0272753 -0.0301731 
-0.00217037 -3.02454e-05 -0.0286693 -0.0277093 -0.0270667 -0.0259398 -0.0254575 -0.0249808 -0.0235473 
-0.0242013 -0.0222075 -0.0204036 -0.0223603 -0.0187419 -0.0165864 -0.0197043 -0.0148764 -0.0126699 
-0.0165089 -0.00961258 -0.00666847 -0.0118116 -0.00350411 -0.000656836 -0.00570429 0.00273044 0.0060753 
0.000939159 0.00939375 0.012436 0.00761252 0.0154492 0.0180757 0.0138083 0.0204386 0.0225665 
0.0189033 0.0247281 0.0265805 0.0231991 0.0279053 0.0293667 0.0263283 0.0302453 0.0314663 
0.0290306 0.0282234 -0.0248846 -0.0275355 -0.0244783 -0.0293038 0.00102172 0.00107667 -0.00410836 
-0.00328296 0.00453846 0.00639881 0.00912124 0.00646823 -0.0114471 -0.0118142 -0.0127303 -0.0115136 
0.00948929 -0.00616343 -0.00516295 -0.00641158 -0.00789192 0.00988275 -0.0207734 0.0261165 0.0263992 
0.00688152 0.0048979 0.0220402 0.0187789 0.0109318 0.0104887 0.0106399 -0.0130401 -0.0120934 
0.0077626 0.00308478 -0.00797234 -0.0139347 0.0103112 0.0163846 0.0135321 0.01175 0.00561555 
0.00158846 -0.00256606 0.0212434 -0.00367525 0.0131475 0.010667 -0.000625917 -0.0237288 -0.026426 
-0.00566984 -0.00854021 -0.00352553 -0.0211255 -0.018046 -0.0081426 -0.00512051 -0.00304534 -0.0145147 
-0.0111638 -0.00878424 -0.0134045 -0.0160382 0.00386842 -0.0199297 0.000604556 -0.0119327 -0.00989808 
0.00751027 0.011076 -9.83266e-05 -0.0208081 -0.0181209 0.00227134 0.00343611 0.00518998 0.00228119 
-0.0221282 -0.0196624 -0.0218299 0.00186105 -0.00328543 0.0272466 0.0272272 0.0246084 0.0240562 
-0.0151432 0.0122618 0.0150711 0.0188423 0.0140469 0.0157504 0.0114199 -0.00872677 0.0117133 
0.00559635 0.0234355 0.0223524 0.0242891 0.0175534 0.0157591 0.0177 0.0184521 0.00641114 
0.00735853 -0.00686082 -0.013478 -0.0153964 -0.0179474 -0.0218917 0.009064 -0.0157075 -0.0163111 
-0.0167343 -0.0167023 -0.0163011 -0.0158762 -0.0174142 -0.0149179 -0.0143551 -0.0156964 0.0185872 
0.01717 0.0128697 0.0131387 -0.0108346 0.0120783 0.0258363 -0.0153477 -0.0119766 0.0114844 
0.0114178 0.0110498 0.0100506 0.013356 -0.0180331 -0.0161051 -0.0165143 -0.019303 0.0257569 
0.0242887 0.0221985 0.0187209 0.0208396 -0.0139771 -0.0139628 -0.0152917 0.00661513 0.00605249 
0.00446692 0.00215978 0.000556255 -0.0230934 -0.0206016 -0.0231372 -0.0234375 -0.0209859 -0.0234725 
-0.0184482 -0.00922529 -0.0115343 0.0133489 0.0161674 0.0110329 -0.01077 -0.0149947 0.00294652 
-0.0147957 -0.0170915 -0.0141312 0.0133738 0.0156738 -0.0193405 0.016191 0.0150522 0.0160568 
0.010855 -0.00255678 -0.00187269 -0.0032607 -0.0054711 0.00870417 0.00457575 0.00786663 0.0139275 
0.0141294 0.013048 0.0208576 0.0190604 0.0206064 0.0230067 0.0137003 -0.0100411 0.00732646 
-0.0137885 -0.0161169 -0.0188568 -0.00386372 0.0079388 0.0209726 0.0186072 -0.0144568 -0.00565441 
0.0222384 0.0222945 0.0239998 0.0232231 -0.0209822 -0.0231047 -0.00869563 -0.0230881 -0.0224882 
-0.0212886 -0.022352 -0.0215093 -0.0215394 -0.0203782 -0.0189713 -0.0131025 0.00540216 0.0238102 
0.0246672 0.0190568 0.0219017 0.0238105 0.0205581 -0.0169538 -0.0209692 -0.00834413 0.00864594 
-0.00801481 -0.00511223 0.0204564 0.0226594 -0.0178893 0.0159575 -0.0188311 -0.015953 0.0139007 
-0.0208446 -0.0193846 0.0119358 -0.0181742 0.0225617 0.0226863 -0.0174589 -0.0140892 0.0215577 
-0.0196766 -0.0211269 -0.0216305 0.0126771 -0.019137 -0.0205601 -0.0202874 -0.0179426 -0.0148991 
0.000129451 -0.000312845 -0.000141246 -0.000760568 -0.000675486 -0.000970269 -0.00112818 -0.00107334 -0.00180075 
-0.00152224 -0.00148183 -0.00255126 -0.00176435 -0.00173209 -0.00318485 -0.00181505 -0.00181963 -0.00349721 
-0.00169059 -0.00173865 -0.00346024 -0.00137745 -0.00142654 -0.00305036 -0.00101803 -0.00108633 -0.00238301 
-0.000512783 -0.000631578 -0.00157914 7.47338e-05 -6.86869e-05 -0.00054799 0.000601092 0.000512664 0.000534836 
0.00103967 0.00096865 0.00152303 0.00136227 0.00131716 0.00228073 0.00162233 0.00158279 0.00288071 
0.00170974 0.00170106 0.00323704 0.00162271 0.0016373 0.00326324 0.00143922 0.00148783 0.00302974 
0.00121179 0.00125933 0.00264773 0.000893685 0.000965806 0.00213541 0.000479796 0.00055379 0.00144003 
5.00527e-05 0.000144643 0.000642441 -8.62024e-05 0.0742765 0.0387098 0.0582318 0.0134254 0.0141627 
0.0522575 0.00707354 0.00743278 0.0212912 0.00387669 0.00434605 0.0115596 0.00221954 0.00245272 
0.00656949 0.00111835 0.00129417 0.00375313 0.000257829 0.000365728 0.00181324 -0.00062725 -0.00043547 
-8.07611e-06 -0.00143218 -0.00129013 -0.00165033 -0.00216702 -0.00204692 -0.00321212 -0.00287737 -0.00274674 
-0.00459703 -0.00342447 -0.00329197 -0.00585173 -0.00390866 -0.00386142 -0.00687544 -0.00419999 -0.0041652 
-0.00765141 -0.00418104 -0.00423651 -0.00794856 -0.00341692 -0.00363825 -0.00734965 -0.00151006 -0.00201103 
-0.00506732 0.000385179 6.68341e-05 -0.00150214 0.0017493 0.00155178 0.00178922 0.00233453 0.00230629 
0.00378309 0.00228587 0.0023435 0.00433224 0.00189226 0.00200418 0.00401464 0.00127341 0.00139383 
0.00304993 0.000666934 0.000762491 0.00188622 -4.25453e-06 0.000152041 0.000678091 -0.000617886 -0.000513567 
-0.000541159 -0.00115896 -0.00106676 -0.00168528 -0.00159713 -0.00153066 -0.00264392 -0.00190462 -0.00184957 
-0.00335101 -0.00194755 -0.00194219 -0.00371863 -0.00187037 -0.00188565 -0.00373121 -0.00168598 -0.00172197 
-0.0035032 -0.00142037 -0.00146354 -0.00308388 -0.0011374 -0.00120236 -0.00255976 -0.000683982 -0.000812511 
-0.00190835 0.0994243 0.000217998 0.000135841 0.000634389 0.000555114 0.000796492 0.00102972 0.000966779 
0.0015739 0.00123388 0.00119596 0.00216588 0.00137161 0.00135112 0.00252124 0.00138022 0.00138918 
0.00269051 0.00131712 0.00134477 0.00265851 0.00108183 0.00113516 0.00238931 0.000712523 0.000794909 
0.00183367 0.000295825 0.000403145 0.00111047 -0.000211671 -0.000110492 0.000243829 -0.000723959 -0.000629123 
-0.000749248 -0.00122626 -0.00113322 -0.00170806 -0.00160227 -0.00153185 -0.0025915 -0.00181917 -0.00179531 
-0.00320905 -0.00186192 -0.00190054 -0.0034861 -0.00140925 -0.00151788 -0.00313 -0.00031228 -0.000631486 
-0.00181734 0.000843326 0.000635909 0.000270144 0.00206171 0.00180956 0.00261711 0.00290093 0.00279745 
0.0046872 0.00345503 0.00340979 0.00609771 0.00353931 0.00358108 0.00675059 0.00328953 0.00336386 
0.00660549 0.00287939 0.00301483 0.0060189 0.00224857 0.00236697 0.00503648 0.00164918 0.00177077 
0.00378778 0.000910083 0.00104752 0.00246016 3.60477e-05 0.000252985 0.000949983 -0.000989855 -0.000774932 
-0.000864908 -0.00228466 -0.00204745 -0.00323306 -0.0045407 -0.0039836 -0.0065648 -0.00821113 -0.00746363 
-0.0120254 -0.0143746 -0.0125026 -0.0208728 -0.0315093 -0.0213884 -0.0351443 -0.0711756 -0.0809117 
-0.0993518 -0.0715953 -0.0797396 -0.0809116 -0.0623897 -0.0725324 -0.0721824 -0.0543636 -0.0651762 
-0.0637762 -0.0495301 -0.057207 -0.0557504 -0.0383891 -0.0471364 -0.0474277 -0.0314699 -0.0422375 
-0.0385832 -0.0247295 -0.0353993 -0.0328714 -0.0202131 -0.0280258 -0.0265397 -0.00973225 -0.0179966 
-0.0185821 -0.00197841 -0.0119611 -0.0108176 0.0045537 -0.0062268 -0.00396657 0.0063887 0.00120296 
0.00276428 0.0159165 0.00891084 0.0108375 0.0280065 0.0196776 0.0184759 0.0352498 0.0294371 
0.0242819 0.0421038 0.0315381 0.0327871 0.0440705 0.0384519 0.0393366 0.0569872 0.0470121 
0.0471942 0.0655478 0.0592196 0.0551553 0.0745656 0.0631384 0.0644009 0.0810129 0.0719982 
0.0736438 0.01025 -0.0115701 -0.028729 -0.0309579 -0.0123874 -0.0296889 -0.0229725 -0.0296743 
-0.016902 -0.0139135 -0.0277369 -0.0102268 -0.0106758 -0.0176108 -0.00981968 -0.0112878 -0.0137896 
-0.0117897 -0.0138227 -0.0136237 -0.0165781 -0.0188815 -0.017569 -0.0214922 -0.0290811 -0.0234642 
-0.035648 -0.0499374 -0.0315331 -0.0609595 -0.0698943 -0.0505436 0.0718122 0.061213 0.0496633 
0.0404325 0.0606472 0.02936 0.0206036 0.0393405 0.0168563 0.0132295 0.0201883 0.0125536 
0.00998492 0.0131437 0.00984471 0.00852466 0.0112776 0.00924937 0.00908881 0.0116535 0.0127145 
0.0154672 0.0156522 0.0219635 0.0295516 0.0273318 0.0308893 0.0271526 0.0306546 0.00692571 
-0.00877719 0.0113711 -0.00375536 -0.0191338 -0.0368705 -0.0371325 -0.0262673 -0.031838 -0.023478 
-0.0358977 -0.0175715 -0.0152837 -0.0268992 -0.0131147 -0.0136495 -0.0186201 -0.0132724 -0.0149262 
-0.0153591 -0.0153413 -0.0178681 -0.015134 -0.0200691 -0.025158 -0.0182763 -0.033771 -0.0467855 
-0.0310994 -0.0558359 -0.0656841 -0.05607 0.0730833 0.0572601 0.0468502 0.0389682 0.05755 
0.0295028 0.0238352 0.039137 0.0207484 0.0171924 0.0262516 0.0164383 0.0150584 0.020795 
0.0136609 0.0125107 0.018722 0.0139189 0.0142507 0.0181185 0.0182009 0.0206256 0.0252553 
0.0277767 0.0380939 0.0357557 0.036332 0.0356761 0.034308 0.023127 -0.000770838 0.0163319 
-0.000143165 2.53042e-05 -0.000277504 -0.0633466 -0.0746054 -0.0488298 -0.0306923 0.00366704 0.0117537 
0.08165 -0.0103921 -0.00806036 0.0419465 -0.001263 -0.00185146 -0.0571398 -0.0429298 0.0418219 
0.0510922 -0.00281369 -0.00101522 0.0820595 -0.00269055 -0.00228378 -0.0019879 -0.00149534 -0.00204027 
-0.00288845 -0.00462984 -0.00438554 -0.00489787 -0.00482462 -0.00606899 -0.00470586 -0.00483131 -0.00405919 
-0.00439553 -0.00578682 -0.0030885 -0.00353858 -0.00187848 -0.00244112 -0.00351306 -0.00041024 -0.00105315 
-0.00185186 0.00107392 0.000434225 3.79144e-05 0.00236132 0.00183887 0.00185313 0.00340001 0.00298194 
0.00341559 0.00413036 0.00384111 0.00462114 0.00445863 0.00434491 0.00538252 0.00445718 0.00452217 
0.00569518 0.00415369 0.00432044 0.00561771 0.00362349 0.00390217 0.00517434 0.00282554 0.0031624 
0.00439115 0.00184587 0.00230281 0.00330595 0.00434856 -0.0100532 0.0159518 0.0200686 0.025772 
0.0342359 0.0302166 0.0461156 0.0689642 0.0492114 0.00979183 0.0121318 0.0193174 0.00595176 
0.00732794 0.0121107 0.00294167 0.00415568 0.00723565 0.000451348 0.00154125 0.00366947 -0.00187216 
-0.00093054 0.000453925 -0.00409272 -0.00316084 -0.00256512 -0.00605342 -0.00522725 -0.00531057 -0.00765129 
-0.00698226 -0.00765037 -0.00889517 -0.00837613 -0.00953906 -0.00980114 -0.00950321 -0.0109808 -0.010067 
-0.01012 -0.0118953 -0.00898095 -0.00969438 -0.0118708 -0.0056448 -0.00738554 -0.00989346 -0.0010231 
-0.00310914 -0.00534387 0.00277834 0.0012981 4.16616e-05 0.00475412 0.00408819 0.00405256 0.00515516 
0.00509899 0.00566718 0.00446018 0.00483775 0.00561507 0.00319025 0.00385986 0.00457987 0.00171188 
0.00238918 0.00302983 0.000154211 0.000848134 0.001204 -0.00139245 -0.000705643 -0.000660714 -0.00286972 
-0.00223978 -0.00254124 -0.00401598 -0.00354289 -0.00423042 -0.00487344 -0.00453805 -0.00554215 -0.00525535 
-0.00515705 -0.00640303 -0.00524241 -0.0053081 -0.00677622 -0.00488359 -0.00507081 -0.00664719 -0.00424663 
-0.00453872 -0.00607862 -0.00354679 -0.00388791 -0.00529795 -0.00264585 -0.00309584 -0.00437361 -0.00320047 
0.073791 0.00318926 0.00292908 0.000336571 0.00251015 0.00207305 0.00350304 0.00134711 0.000920917 
0.000842268 0.00223097 0.00366853 0.00349222 0.00430325 0.003816 0.00378789 0.00479459 0.00370257 
0.00377399 0.00489117 0.00325188 0.00351034 0.00461959 0.00249671 0.00289086 0.00399487 0.00150646 
0.00195272 0.00298761 0.000313726 0.000876043 0.0016831 -0.00100782 -0.000427651 0.000158556 -0.00228206 
-0.00172068 -0.00145798 -0.0033549 -0.00290501 -0.00294659 -0.00411365 -0.00384992 -0.00419567 -0.0043259 
-0.00431294 -0.00496325 -0.00361983 -0.00408439 -0.00492168 -0.0016307 -0.00268246 -0.0036766 0.00116809 
-0.000116721 -0.00095468 0.00430055 0.00291333 0.00269838 0.00673356 0.00575223 0.00629029 0.00849244 
0.00783384 0.00911313 0.00890452 0.00882443 0.0106563 0.00852985 0.00884108 0.0108709 0.00761486 
0.00805281 0.0101539 0.00605833 0.00680336 0.00867764 0.00427312 0.00508083 0.00662384 0.00231651 
0.00316338 0.0042231 -2.45963e-07 0.00100588 0.00149248 -0.00278109 -0.00147744 -0.00164876 -0.00664453 
-0.00489011 -0.00572331 -0.0121141 -0.00949315 -0.0114276 -0.021024 -0.0166431 -0.0197177 -0.0350552 
-0.028075 -0.032589 -0.0573963 -0.0456839 -0.0514144 0.00153224 0.00332988 -0.0576122 -0.03306 
-0.0623132 -0.0600821 -0.067824 -0.0684743 -0.0597486 -0.0741804 -0.0738639 -0.0543046 -0.0518332 
-0.0548751 -0.0466952 -0.0456865 -0.0485004 -0.0416896 -0.0384775 -0.0417875 -0.0345593 -0.0308721 
-0.0352813 -0.0263711 -0.0235177 -0.0285923 -0.0186911 -0.0175233 -0.0218702 -0.0121092 -0.0112291 
-0.0147003 -0.00612012 -0.00279312 -0.00753181 0.00243948 0.00539495 -0.000318687 0.0113658 0.011123 
0.00705004 0.0199531 0.0162964 0.0142869 0.0246352 0.0243263 0.02137 0.0303807 0.033898 
0.0283629 0.0385951 0.0415757 0.0354304 0.0476382 0.0472776 0.0424362 0.0537791 0.052994 
0.0490465 0.0602474 0.0625276 0.05609 0.0686681 0.0710906 0.06224 0.064001 0.0123221 
0.0136891 0.00895365 -0.0141008 -0.0111034 0.0188673 0.0558709 -0.0190215 -0.0212764 -0.00578181 
-0.0207915 -0.0165349 -0.0140574 -0.0142578 -0.0126647 -0.0134723 -0.0105419 -0.00990135 -0.00985816 
-0.00889958 -0.00977676 -0.00775311 -0.00937684 -0.00983626 -0.00774376 -0.0120581 -0.0162214 -0.0107787 
-0.0241769 -0.0323918 -0.0198123 -0.0427251 -0.0538429 -0.0468515 -0.035972 0.0337099 0.0248215 
0.018202 0.0135998 0.0215988 0.00975386 0.00820929 0.0105044 0.00720715 0.00683318 0.00586258 
0.00774277 0.00829735 0.0055637 0.0106288 0.0126386 0.00762837 0.0149058 0.0185842 0.011106 
0.0185915 0.0160006 0.0120292 0.00655175 -0.00779174 -0.00993517 0.00257855 -0.0542045 -0.0432823 
-0.0271654 -0.0280317 -0.0249545 -0.0213565 -0.0220587 -0.0167147 -0.0149861 -0.0179204 -0.0124107 
-0.0119501 -0.0126898 -0.0110904 -0.0118944 -0.010241 -0.0136305 -0.0165492 -0.011722 -0.0222837 
-0.0300896 -0.0189471 -0.0390586 -0.0476489 -0.0442292 -0.0320859 -0.00417852 -0.00132222 0.033026 
0.0254438 0.0192186 0.0159122 0.0227514 0.0134372 0.0120115 0.0140206 0.0119432 0.0122192 
0.0110812 0.0144825 0.0148219 0.0119354 0.016827 0.0197242 0.0149836 0.0233366 0.0273083 
0.0195933 0.0277927 0.0255893 0.02086 0.0169811 0.00480722 0.0134947 -0.00387916 -0.00342468 
-0.00397752 0.0540932 0.044276 0.0379831 -0.0068105 -0.0183453 -0.0145486 0.0511107 0.0416209 
0.0368152 -0.00623123 -0.00484958 0.00127289 0.00209256 -0.00941969 -0.00550218 -0.000140032 -0.0631503 
-0.000882424 -0.024345 -0.00691329 0.00543371 0.00994888 0.0132884 -0.000522358 -0.00530107 0.0447785 
-0.0265592 0.00613048 -0.0289629 0.00133603 0.039983 0.0539967 0.042134 0.01298 0.00758832 
-0.0125047 -0.00942538 -0.00724699 -0.00704422 0.00409091 -0.000493477 -0.00663055 -0.0069866 -0.00167236 
-0.0026725 -0.00371042 -0.00452133 -0.00364833 0.00266179 0.00173978 0.00444805 0.00367365 0.00367795 
0.00574823 0.0051965 0.00556736 0.00654113 0.00626788 0.00693341 0.00681002 0.00673937 0.00768842 
0.00656571 0.00670977 0.00779573 0.00592932 0.00625792 0.00737566 0.00493128 0.00544946 0.006534 
0.00365385 0.00425083 0.00533047 0.000331429 -0.00371304 0.0317871 0.0387325 -0.00407405 -0.00371103 
-0.00440823 0.0215387 0.0264464 0.0337032 0.044943 0.0565509 0.0586942 0.0457239 0.00880865 
0.0111421 0.0046809 0.0065003 0.00995607 0.000942315 0.00270372 0.00531359 -0.00255245 -0.000978678 
0.00112429 -0.00570266 -0.00428676 -0.00277638 -0.00839164 -0.00722818 -0.00626602 -0.0103399 -0.00946307 
-0.00904841 -0.0117516 -0.0111422 -0.0110151 -0.0125963 -0.0123634 -0.0124013 -0.0125587 -0.0128504 
-0.0132466 -0.0101526 -0.0117685 -0.00399748 -0.00709685 0.0048835 0.00347718 0.00573761 0.00542808 
0.00528568 0.00503363 0.00537316 0.00517469 0.00374006 0.00437982 0.00409378 0.00203268 0.00294885 
0.00269888 0.000143153 0.00108171 0.00096999 -0.00192062 -0.000962564 -0.00112161 -0.00406049 -0.00306686 
-0.00345808 -0.00579019 -0.00501394 -0.00565542 -0.00719704 -0.00661746 -0.00749828 -0.00797324 -0.00764937 
-0.00881103 -0.0082004 -0.00813817 -0.00943733 -0.00785057 -0.0080595 -0.00944587 -0.0070779 -0.00747102 
-0.00887851 -0.00599462 -0.00642935 -0.00780911 -0.0445798 -0.0479066 -0.051744 -0.0529071 -0.00538817 
-0.0060469 -0.00727148 -0.00569564 0.00581542 0.00564614 0.00580231 0.0058539 0.00676282 0.0139185 
0.0170552 0.0232546 0.0154935 0.00444789 0.00395659 0.00289418 -0.00677415 -0.0134901 -0.0011186 
0.00543813 0.00566959 0.00666759 0.00467561 0.00510404 0.006181 0.00346287 0.00409953 0.00522787 
0.00201684 0.0027546 0.00388153 0.000231828 0.00109873 0.00218031 -0.0015448 -0.000725116 0.000208329 
-0.00318721 -0.00245485 -0.00172848 -0.00447524 -0.00392001 -0.00343122 -0.00516674 -0.00494211 -0.00467557 
-0.00502955 -0.00531045 -0.0053495 -0.00346984 -0.00446343 -0.00500541 0.000118713 -0.00164274 -0.00266128 
0.00421642 0.0022304 0.00156347 0.00811692 0.00640582 0.00600803 0.0108733 0.0096618 0.00999996 
0.0120438 0.0116642 0.012376 0.011913 0.0121226 0.0131715 0.0107547 0.0114076 0.0125755 
0.00878843 0.00976134 0.0109288 0.0061764 0.00743788 0.00844191 0.00326647 0.00465746 0.00533014 
-0.000122042 0.00152731 0.00178847 -0.00410417 -0.00225262 -0.00235917 -0.00940686 -0.00666623 -0.00740993 
-0.0160929 -0.0125128 -0.0135008 -0.0264497 -0.0208349 -0.0218707 -0.0343209 -0.0179584 0.00972998 
0.0131954 0.0122647 -0.0499032 -0.0525572 -0.0465506 -0.0458505 -0.017807 -0.0176552 -0.0101035 
0.00223119 -0.00422402 0.00746042 -0.0384942 -0.0419207 -0.0413356 -0.0327248 -0.0359167 -0.0360171 
-0.0263793 -0.0298427 -0.0304819 -0.0198311 -0.0233196 -0.0245049 -0.0129484 -0.016544 -0.0181164 
-0.00593188 -0.00956671 -0.0113162 0.00129064 -0.00245839 -0.00438121 0.0089633 0.00515676 0.00303751 
0.015905 0.0124094 0.0104522 0.0226315 0.019552 0.0174539 0.02964 0.0258731 0.0241575 
0.0362101 0.0328947 0.0305816 0.042927 0.0392251 0.0367298 0.0485529 0.0455207 0.0422018 
0.0548935 0.0512656 0.0475151 0.0068501 0.0258859 0.038764 0.0315222 -0.00254316 0.00191307 
0.00533781 0.00496471 0.00547325 0.00636571 -0.00856625 -0.00951855 -0.000652595 -0.010278 -0.00876016 
-0.00524548 -0.00788242 -0.00664216 -0.00549247 -0.0060871 -0.00570926 -0.00454458 -0.0060962 -0.00664044 
-0.00476128 -0.00879182 -0.0116693 -0.00755073 -0.0163162 -0.0224293 -0.0143336 0.0238216 0.0174209 
0.0267889 0.000567803 -0.000474085 -0.00122754 -0.0354307 -0.021695 0.0117763 0.00813306 0.0149464 
0.00514257 0.00417556 0.00666727 0.00343426 0.00386396 0.00279508 0.0041897 0.00537061 0.00209852 
0.0059424 0.00724223 0.00241438 0.00682259 0.00573505 0.00207152 0.0387775 0.0322224 -0.0159402 
-0.0135862 -0.012879 -0.0117327 -0.00989654 -0.0103513 -0.00926481 -0.00891249 -0.0085583 -0.0101477 
-0.0121478 -0.00928955 -0.016025 -0.0209428 -0.0142819 -0.00728892 -0.00736898 -0.00840835 -0.00821254 
-0.00660046 -0.00602773 -0.00782051 -0.00483539 0.0149106 0.0125058 0.0104948 0.0102627 0.0119094 
0.0100532 0.0110386 0.00966188 0.0119408 0.0135673 0.0100874 0.0146481 0.0165374 0.0115332 
0.0162411 0.0154113 0.0117301 0.0121196 0.00591686 0.000937969 0.0379917 0.0426844 0.0255909 
0.0199693 0.0185254 0.0294375 0.00626636 0.0245217 0.0326834 -0.0519119 -0.0435683 -0.00612195 
0.00133548 -0.0252398 -0.0296846 -0.0375113 -0.00231953 0.0360808 -0.00953283 -0.0128059 -0.0126268 
0.00476731 0.00382464 -0.0130398 0.00157055 -0.00109958 -0.00513676 -0.00569256 -0.00681434 -0.00571521 
-0.0160643 -0.00592588 -0.0352274 -0.0356531 -0.0154069 -0.00791589 0.0397655 -0.000829792 0.00341412 
0.0276782 0.00504328 0.0580156 0.0559856 0.0512721 0.0523513 0.0031604 0.00253133 0.0057378 
-0.0423669 -0.0416586 -0.0325561 -0.0352596 -0.0407237 -0.0327063 0.00368058 0.00425383 0.00243442 
-0.00456072 -0.00180766 -0.023717 -0.0272004 -0.0394739 -0.0342608 0.00753413 0.00782681 0.0091793 
0.00749212 0.00763367 0.00219845 0.000868013 0.00675549 0.00589684 0.00476683 0.00363707 0.00328507 
0.00598461 0.00876387 0.00855716 0.00867642 0.00876617 0.00969281 0.00802279 0.00835824 0.00937804 
0.00698093 0.00751291 0.00852161 0.00559343 0.00631369 0.00728947 0.00576082 -0.0128815 0.00438562 
0.00813376 0.00757327 0.00802712 0.00928707 0.00427994 0.000894843 -0.00352505 -0.00469581 0.0019793 
0.00415298 0.0112016 0.0138685 -0.00219703 -0.000303506 0.00266615 -0.00595961 -0.00421914 -0.00178607 
-0.00877832 -0.00761499 -0.00562641 -0.0105341 -0.00971806 -0.00829972 -0.0114634 -0.0109873 -0.00959964 
-0.0119088 -0.0117196 -0.00993284 -0.0111629 0.000828718 0.00152998 -0.00081116 7.68345e-05 -0.000982638 
-0.00293039 -0.00179782 -0.00261045 -0.00533013 -0.00413565 -0.00483265 -0.00755389 -0.00656076 -0.0073184 
-0.00943049 -0.00860409 -0.00961587 -0.0104856 -0.0100438 -0.0112223 -0.0108452 -0.0107015 -0.0119881 
-0.01057 -0.0107396 -0.012042 -0.00963811 -0.0100585 -0.0113694 -0.00815129 -0.00880964 -0.00999159 
-0.0331634 -0.0356266 0.0345996 0.0402709 0.00696979 0.00731931 0.00833097 0.00767442 0.00760217 
0.00853533 0.00592217 0.00652846 0.00773191 0.00446529 0.0052112 0.00657511 0.00264138 0.00361851 
0.00500011 0.000564524 0.00157758 0.00306478 -0.00142501 -0.00050212 0.000902852 -0.00311066 -0.00236637 
-0.00110496 -0.00423196 -0.0037598 -0.00266475 -0.00475628 -0.00462562 -0.00366633 -0.00451313 -0.0049748 
-0.00438683 -0.00201391 -0.00392281 -0.00422503 0.00473583 0.00236085 0.00723877 0.0116162 0.0101306 
0.0133431 0.0126102 0.0128257 0.0134216 0.0135151 0.0136581 0.0122194 0.0128729 0.0131817 
0.0101532 0.0112468 0.011509 0.00714239 0.00863371 0.0089282 0.00359662 0.00535503 0.00551547 
-0.000446941 0.00154442 0.00146282 -0.00528691 -0.00288183 -0.00320342 -0.0107749 -0.00783776 -0.0083794 
-0.0174218 -0.0138864 -0.014279 -0.026632 -0.0214014 -0.0216246 -0.040458 -0.0319286 -0.0311246 
-0.0423763 0.00539739 0.00287755 -0.0337052 0.0360018 0.0333698 0.00359395 0.00241892 -0.00221663 
0.00322915 0.0224188 0.0309874 0.0111886 0.00738658 0.00820679 -0.0280427 -0.0308244 -0.0305831 
-0.0226533 -0.0255572 -0.0260697 -0.0164629 -0.0196915 -0.0209882 -0.0098063 -0.0131839 -0.0149993 
-0.00297045 -0.00638789 -0.00842909 0.0047024 0.000870604 -0.0012709 0.0119296 0.00845825 0.00626744 
0.0188802 0.0154744 0.0134984 0.0252049 0.0220827 0.0201243 0.0311943 0.0282103 0.0261011 
0.0363721 0.0336702 0.0311347 0.0409242 0.0385307 0.0353327 -0.000744102 -0.000701071 -0.00205725 
-0.00309823 0.0064259 0.00866843 0.012315 0.00737132 -0.00891592 -0.00843017 0.0167936 0.0119715 
-0.00156576 -0.00240746 0.00317601 -0.002938 -0.00253609 0.000237915 -0.00277943 -0.00267899 -0.000715713 
-0.00347872 -0.00425079 -0.00206489 -0.00616288 -0.0084497 -0.00503127 -0.0119587 -0.016056 -0.0103141 
0.0280495 0.0223088 0.0190592 -0.00339858 -0.00279962 -0.0327189 -0.0283433 0.0275591 -0.02212 
-0.0128423 0.00775201 0.00492432 0.0100711 0.00252366 0.00146669 0.00368577 0.000270553 0.000187836 
-5.95304e-05 -0.00108254 -0.00109928 -0.00275125 -0.00110404 -0.00186828 -0.0044043 -0.020192 -0.0252404 
-0.0219808 -0.0116373 -0.0231329 -0.00830758 -0.00717918 -0.00699922 -0.00679518 -0.005162 -0.00824993 
-0.00961163 -0.00687517 -0.0123984 -0.0158393 -0.0178284 -0.0110696 0.00631927 0.0177222 0.013123 
0.0112084 0.0094642 0.00903632 0.0107118 0.00831041 0.00878767 0.00807284 0.00814342 0.00855501 
0.00644347 0.00887696 0.00816164 0.00318857 0.00558667 0.00316331 0.014019 0.0180899 -0.00205502 
-0.0376326 -0.0401639 -0.0346053 0.00132275 -0.00218492 -0.00252976 -0.000677293 0.00214579 0.00268765 
0.000873495 0.000110349 0.0337737 0.0321439 0.027588 -0.0297377 -0.0328061 -0.025561 0.000115251 
-0.0179837 -0.0208364 -0.0263954 -0.00936674 -0.0100391 -0.00948574 0.00629975 -0.00819337 -0.00590197 
-0.00589602 -0.00688754 0.0459035 0.018023 0.0168959 0.0202091 0.00282863 -0.00694857 -0.00825771 
-0.00778314 0.0456834 -0.00778431 -0.00844416 -0.00810089 -0.0292381 0.00205278 0.00915727 -0.0055986 
0.00264234 0.0284075 -0.0113952 -0.00224334 -0.00610072 -0.00973697 -0.00236591 0.0120801 0.0132241 
0.0127952 -0.0421317 -0.0435835 -0.0385039 -0.0382228 0.0123071 -0.00231683 0.0428741 0.0387894 
0.0454025 -0.00382009 0.0233956 0.0283755 0.0342413 0.0246844 0.00840407 0.00746697 0.00710545 
-0.0329708 -0.0275552 -0.0232302 -0.00897451 0.0128371 0.02293 -0.00540845 -0.00325789 0.00555512 
-0.00952789 0.0292295 0.0300784 0.0163548 0.0156143 0.0208319 -0.00904871 -0.00935566 -0.0104089 
-0.00968271 0.0255306 0.00883531 0.00938736 0.0105788 0.0105808 0.00741123 0.00811183 -0.0049229 
-0.00312889 0.0273162 0.0242799 -0.000443231 0.00169137 0.000215708 -0.024917 -0.0200748 -0.00938328 
0.00392473 0.00628241 0.00532959 -0.00477134 -0.00382962 -0.00694941 -0.00576366 -0.00686294 -0.0096143 
-0.00838265 -0.009338 -0.0119212 -0.0109468 -0.0120866 -0.0130755 -0.0125618 -0.0139643 -0.0134291 
-0.0132988 -0.0146732 -0.0130789 -0.0132577 -0.0145772 -0.0119767 -0.0125307 -0.0137334 -0.0102941 
-0.0111357 -0.012309 -0.0105162 -0.0241777 -0.0263196 0.0116991 0.00990058 0.00925917 0.00940621 
0.00927376 0.00929312 0.0102248 0.0058777 0.00670884 0.00859497 0.00900857 0.0101695 0.00381573 
0.00488016 0.006688 0.00156414 0.0026158 0.0044766 -0.000394731 0.000465169 0.00219353 -0.00144333 
-0.00089041 0.000724783 -0.0019501 -0.00166594 0.000263004 -0.00402411 -0.00260794 -0.00421574 0.00163621 
0.00913828 0.0096942 0.0107512 0.00687022 0.00844026 0.00770205 0.00307328 0.00497588 0.00460694 
-0.00135896 0.000834038 0.000326619 -0.00642181 -0.00385097 -0.00448442 -0.0117218 -0.00903145 -0.0096115 
-0.0178211 -0.0145105 -0.0150305 -0.0253726 -0.0211913 -0.021211 0.0257055 0.027981 0.0252645 
0.0112268 0.00752177 -0.0195425 -0.0221362 -0.0226821 -0.0138309 -0.0168899 -0.0184559 -0.00712971 
-0.0104097 -0.0126222 0.00023699 -0.00350019 -0.00567735 0.00772341 0.00406024 0.00175208 0.0150728 
0.0116545 0.00948895 0.0212303 0.0182211 0.016473 0.0265666 0.0239505 0.0220898 0.0302954 
0.0283117 0.0261747 0.0330978 0.031493 0.0285441 0.00630022 0.00408938 -0.0308008 -0.0338073 
-0.0262213 -0.0273817 -0.0272187 -0.0236128 0.00099703 -0.000727622 -0.00181058 -0.0072389 0.0203866 
0.0158257 0.0130684 0.0209741 0.00735849 0.00806002 0.00944388 0.0082901 0.00171045 0.00112121 
-0.000637084 -0.00169968 0.00143597 -0.00338447 -0.00538437 -0.00201967 -0.00823379 -0.0113086 -0.00646221 
-0.00728228 -0.00476795 -0.00344465 -0.0050055 0.0269622 0.0251723 0.0180941 0.0252338 0.0223202 
-0.00545629 -0.00718729 0.0155633 0.0220685 0.0133178 -0.028044 -0.0300395 -0.0260254 0.00993934 
0.0102559 0.0112114 0.0103079 0.00793976 0.00696625 0.00891987 0.0054867 0.00458465 0.00545965 
-0.0314479 -0.033129 -0.0287361 -0.0162511 -0.0100595 0.0223615 -0.022547 -0.0257333 -0.0243584 
-0.00739592 -0.00323675 -0.0151018 -0.0190764 -0.0127994 -0.010957 0.00450948 0.00295832 0.00223386 
0.0114501 0.0104741 0.0100606 0.00898964 -0.0169446 -0.0147818 -0.00591633 -0.00720413 -0.00556339 
-0.0034749 0.0133875 0.0160484 0.0191197 0.0223171 0.0199968 -0.00724954 -0.00631819 -0.00713945 
-0.00691311 0.00979867 0.00852827 0.0109038 0.0136645 0.0125514 0.00935711 0.00849088 0.0106801 
-0.00298138 0.00877243 0.0073328 0.0060947 -0.00852848 -0.00947037 -0.00870155 0.0117409 0.0146517 
0.00356042 -0.00431357 0.00186182 -0.00910619 -0.00229176 -0.00200153 0.0124182 0.0110988 0.00850778 
0.011804 0.010062 0.000514003 0.0349184 0.0338422 0.00282584 0.0137126 0.022413 -0.0345204 
-0.0292003 -0.0284508 -0.0361634 -0.00398358 0.0299526 -0.0290517 0.0147643 0.0139035 0.0177833 
-0.00821187 -0.00949593 -0.0121041 -0.00916679 -0.00158815 -0.00340247 -0.0019771 -0.000121007 0.00273469 
0.0020844 0.00390356 0.00571253 -0.00232925 -0.00801265 0.0042624 0.0019362 0.000484526 0.00564058 
0.0220959 0.0224749 -0.0312207 -0.0274712 0.00931217 0.00911392 0.00989274 0.0100667 -0.0154198 
-0.0191113 -0.0196772 -0.0101497 -0.0107666 -0.0106957 0.0185199 0.0215079 0.0294782 -0.0204492 
-0.018059 -0.0247992 0.00926025 0.00734901 -0.0192963 -0.0151374 -0.0150882 -0.0138864 0.0144897 
-0.000986394 -0.00299596 0.00737585 0.00953847 -0.0116363 -0.010258 -0.0115815 -0.0148012 -1.3301e-05 
0.0259407 -0.0162143 -0.0161709 -0.0153505 -0.0156872 -0.0171284 -0.0139587 -0.0145764 -0.015645 
-0.0121037 -0.0129391 -0.0137236 -0.0115637 -0.0176202 -0.0197886 0.0111851 0.0110229 0.00548257 
0.00667566 -0.00315227 -0.000858468 0.00216012 0.00248333 -0.027186 -0.0265457 -0.0234863 0.0196867 
0.0214637 -0.0227773 -0.0262238 -0.0240576 -0.0196878 0.0265894 -0.00790953 -0.00543047 -0.0066033 
-0.0130403 -0.0104724 -0.0113598 -0.0181798 -0.0154034 -0.0161088 -0.0243408 -0.0209808 -0.0211094 
-0.0268375 0.0245197 0.0238674 -0.00726734 -0.00269177 0.00311505 -0.0214742 -0.0230427 -0.0207131 
-0.00445153 -0.00799419 0.0112723 0.00741535 0.0179229 0.0150607 0.0131526 0.022993 0.0206107 
0.0193663 0.0255016 0.0242615 0.0228063 0.0261983 0.0255865 0.023807 -0.00268261 0.0112252 
0.0113906 0.0122526 0.0262686 0.0211541 0.0193865 0.0190855 0.0166789 0.0172274 0.0144192 
0.0171837 0.00276698 -0.0239186 -0.0252202 -0.02258 -0.0258024 -0.0114576 -0.0204367 -0.0171865 
-0.034587 0.0211871 0.0237714 0.0231271 0.00296192 0.00415932 0.00285166 0.0038891 0.00572609 
-0.0137256 -0.0113499 -0.00674674 0.00591901 0.0124982 0.0124307 -0.00544722 -0.00716169 -0.0046809 
0.00290167 0.0116888 0.0171694 0.0167604 0.0151826 0.0176803 0.00166848 0.000462594 0.0036714 
0.0135266 0.0114793 0.0136308 0.0117426 0.0120778 0.0131072 -0.0235418 0.0143503 0.0102537 
-0.0162034 -0.0157522 -0.0180483 0.0121921 0.0115146 0.0134292 0.0102546 0.00906696 0.0119537 
0.0233314 0.0109789 -0.0115089 -0.0147016 -0.00901659 -0.0104137 -0.00897835 0.0089201 0.00788366 
0.00879252 -0.0104968 -0.00528978 0.00175395 0.00368955 0.00902349 0.00491942 0.00606058 -0.0120281 
0.00959093 0.0101525 0.0108288 -0.000475304 -0.00294122 -0.00133446 0.0033118 0.00528038 -0.0177446 
-0.0104392 -0.0121294 -0.0115143 -0.0121836 -0.00161673 0.00225212 0.01036 0.0108408 0.0121824 
0.0117046 0.0122657 0.0105929 0.011677 0.0151124 -0.0231388 -0.0217702 -0.0193271 0.021639 
0.0183391 0.0155051 0.0214163 0.000298597 -0.00138263 -0.00412526 -0.00669638 -0.0221755 -0.0235918 
0.0126388 0.0178908 0.0106811 0.0104609 0.0110358 0.0116233 0.00415539 -0.0221439 -0.0208342 
-0.0216913 -0.0230385 0.0198703 -0.0214482 -0.00823568 -0.0106527 -0.0141257 -0.0103862 -0.0209364 
0.0168036 0.0203421 -0.0135903 -0.0213678 -0.0190715 -0.0168694 0.0058161 0.0148153 0.0147249 
0.00607826 0.0208325 -0.0166765 -0.0170656 -0.0196958 0.0126396 0.0200091 0.0221674 0.022897 
0.018686 -0.0129273 0.00767729 0.00598667 0.00936751 0.00225786 0.00766275 0.0102958 0.00794074 
0.00669006 -0.0138551 0.00841078 0.0220265 -0.0197339 -0.0179676 0.0134097 0.0130746 0.0132793 
0.0230983 0.0174231 0.0177066 0.0169251 0.0152224 0.0134179 0.015816 -0.0209852 -0.0149603 
-0.0126324 -0.0142804 -0.0180027 -0.0139664 0.0224096 0.0172023 -0.020686 0.00552112 0.0139263 
0.0162356 0.0152256 0.0104253 0.0119693 -0.0194643 -0.0199225 0.0138843 0.0152362 0.0134555 
0.0123081 -0.0150746 -0.0160254 -0.0141026 -0.0173307 -0.0180038 -0.00862861 -0.0106958 -0.0160545 
-0.0130252 0.0224135 -0.00237183 0.00187489 -0.0194194 -0.0145724 0.0204761 -0.0159311 -0.0181536 
-0.0212066 -0.0179812 0.0134253 -0.00615984 0.00732291 0.0107543 -0.0192709 0.0121298 0.014726 
-0.0167456 -0.0130428 0.013487 0.0136788 -0.0224596 -0.0198408 -0.0209434 0.00465697 -3.5725e-05 
-0.0915688 -9.93759e-05 -7.29049e-05 -2.71835e-05 -1.58182e-05 1.15863e-05 1.54416e-05 2.88415e-05 3.65744e-05 
2.89605e-05 2.34172e-05 4.03846e-05 4.93915e-05 5.01692e-05 4.84702e-05 4.36269e-05 3.87739e-05 5.50277e-05 
3.51606e-05 4.44046e-06 1.31239e-05 -2.02477e-05 -2.6222e-05 -5.19086e-05 -0.000112487 -0.000137564 -0.00011876 
-0.000152829 -0.000136911 -0.000154856 -0.00017125 -0.000162504 -0.000196241 -0.000164354 -0.000123208 8.11253e-06 
1.2323e-05 4.14953e-05 3.90383e-05 0.000128537 0.000130534 0.000159581 0.000193264 0.000229755 0.000198497 
0.000190854 0.00020434 0.000167245 0.000100466 9.62239e-05 0.000149932 0.000146225 0.000176421 0.000147276 
0.000109013 6.12876e-05 9.79465e-05 6.95362e-05 0.000181091 0.000179352 0.000286012 0.000263031 0.000317243 
0.000260897 0.000540288 0.000542005 0.00115675 0.000900144 0.00260454 1.92383e-05 -0.00279168 3.7574e-05 
4.09218e-05 -1.39521e-05 -4.1146e-05 -7.3375e-05 -0.000154026 0.000173693 0.000139658 0.000101444 0.000242583 
0.108774 4.22046e-05 0.013888 0.00413269 -0.00172373 -0.00180557 -0.000975936 -0.000458546 -0.000366604 
-0.000300625 -0.000414941 -0.000192412 -0.000230614 -0.000150556 -0.000168272 -0.000140608 -0.000111362 -4.83683e-05 
-0.000140664 -0.000139106 -0.000159559 -0.000173833 -0.000184831 -0.000113604 -0.000212081 -0.000245592 -0.00028856 
-0.000276778 -0.000312132 -0.000327187 -0.000325562 -0.000380801 -0.000300303 -0.000162444 4.86214e-05 9.934e-05 
0.000197681 0.000190436 0.00024771 0.000255102 0.000249151 0.00026845 0.000212113 0.000183399 0.000148482 
0.000133281 0.000103076 0.000107676 8.06277e-05 7.16017e-05 1.1766e-05 1.12399e-06 -2.77515e-05 -1.15675e-05 
-3.66583e-05 -3.55515e-05 -4.8381e-05 -4.57598e-05 -5.2923e-05 -4.57285e-05 -6.1203e-05 -6.99359e-05 -7.12338e-05 
-6.40505e-05 -5.65643e-05 -5.98822e-05 -5.35253e-05 -5.3964e-05 -3.77078e-05 -2.74597e-05 6.32624e-06 5.39508e-05 
0.000104246 -0.000148875 -0.000185553 -0.000255432 -9.00597e-05 -0.000173691 -0.000263373 0.000211907 1.59747e-05 
-6.00487e-05 3.7671e-05 3.31902e-05 -2.49605e-05 7.10997e-05 4.35979e-05 -5.13656e-06 -2.14859e-05 -4.01338e-05 
-3.00405e-05 -4.33855e-05 -4.79497e-05 -5.08861e-05 -6.42852e-05 -8.03363e-05 -7.20251e-05 -7.49758e-05 -8.29081e-05 
-6.0915e-05 -4.95148e-05 -4.87954e-05 -4.85087e-05 -3.70155e-05 -2.03118e-05 3.13645e-05 2.55797e-05 4.27164e-05 
2.72438e-05 4.19259e-05 4.9877e-05 4.79677e-05 5.70756e-05 7.63399e-05 6.38964e-05 6.64237e-05 5.32766e-05 
3.00246e-05 4.09015e-05 3.18959e-05 3.92086e-05 1.71856e-05 2.41048e-05 4.83052e-06 -2.07299e-05 -5.23138e-05 
-5.80225e-05 -2.62467e-05 6.54365e-05 5.78109e-05 -1.92137e-05 -6.53946e-05 -6.76096e-05 5.87883e-05 3.83646e-05 
-1.23498e-05 0.0380335 -0.0757801 0.0191446 -0.00116238 -0.0117736 -0.017587 -0.0266371 -0.0334098 
-0.0419447 -0.0569596 -0.118081 0.221881 0.151644 -0.0614458 -0.0346242 -0.0105627 0.0089281 
0.024547 0.0363897 0.0541178 0.0773223 0.0717547 0.0817877 0.095364 0.122735 0.00202455 
0.0157671 -0.0337775 -0.012844 -0.0189919 0.00106187 -0.00394983 0.0169542 -0.00839059 -0.0102688 
0.0054945 -0.0082091 -0.0129189 0.0303914 0.0139154 0.0132782 0.00843671 -0.000901518 0.00549445 
0.118904 0.0579976 -0.258187 -0.159429 0.00953919 0.0308708 -0.027479 -0.00435695 -0.0526076 
-0.0768005 -0.0532249 -0.093987 -0.0824181 -0.116459 -0.0718823 -0.0472931 0.0815233 0.0616089 
-0.0240173 0.00699397 -0.00751222 0.0140088 0.0215407 0.0292244 0.0461273 0.0348093 -0.01993 
-0.0531768 0.0423568 0.0092645 0.0104516 0.00137753 0.00259318 -0.00546285 -0.0147866 -0.025742 
-0.231862 0.111334 0.0496414 -0.188003 -0.131614 -0.098843 -0.0843648 -0.0930818 -0.0654769 
-0.0660765 -0.039415 -0.0318765 -0.00357753 0.0196274 -0.111428 -0.0380831 0.0759226 0.0605935 
-0.0033151 -0.0241287 0.0118449 0.00549812 0.034404 0.0270183 0.0465373 0.0185962 0.0302946 
-0.115498 -0.0734872 0.0160813 -0.00243335 -0.0100405 -0.0169908 -0.0220157 -0.0298492 -0.039185 
-0.0549386 0.231236 -0.116607 -0.0541649 0.168556 0.19299 0.0829294 0.117797 0.0605406 
0.073233 0.0306628 0.0618342 -0.00389573 0.0143513 -0.0258965 0.108277 0.00933543 0.0270775 
0.0231441 -0.0188695 -0.0248243 -0.00844449 -0.0115116 0.00315404 -0.00245556 0.0145342 -0.0290184 
-0.0507329 -0.0680984 -0.00278572 -0.0102559 -0.00734224 0.0400054 0.082076 0.0936326 0.0927541 
0.091293 0.0828108 0.0792926 0.0658728 0.055192 0.0347611 0.0345258 0.0115673 0.0131285 
-0.0185966 0.00963908 0.140064 0.17957 0.188866 0.250279 0.191521 0.204082 0.188614 
0.179701 0.159964 0.150841 0.126667 0.11024 0.0808681 0.063377 0.0252026 0.00814806 
-0.0795319 -0.129456 -0.0385059 -0.0369205 0.0129871 -0.0842502 -0.0106837 0.170553 0.0800966 
0.0028868 -0.00570696 -0.0358098 -0.061428 -0.10291 -0.111244 -0.131327 -0.139157 -0.160206 
-0.162079 -0.188591 -0.178924 -0.214244 -0.167926 -0.199474 -0.149818 0.00910432 -0.0290278 
-0.0679467 -0.087895 -0.117862 -0.132211 -0.155437 -0.164996 -0.18546 -0.191329 -0.214548 
-0.196299 -0.230678 -0.176202 -0.208218 -0.154568 -0.0321348 -0.0172298 0.0277133 -0.143993 
0.138853 0.209987 0.179963 0.189148 0.169727 0.159875 0.142989 0.136547 0.108518 
0.087225 0.0583258 0.0362407 0.00196415 -0.00342171 -0.0867476 -0.12174 0.0730749 -0.0293225 
0.0727168 0.0143733 0.0111228 0.00660458 -0.00124732 -0.00479 -0.00805136 -0.0345702 -0.00719305 
-0.0166898 -0.0303002 0.00392711 -0.000988704 0.00104225 -0.000229578 0.00387395 -0.00365817 0.0115151 
-0.0106128 0.0425731 -0.00666121 -0.0200928 -0.0626028 0.00604516 0.0425444 -0.0407425 -0.0110866 
0.00782211 -0.00197372 0.00602989 -0.0100092 0.0140262 0.00719517 -0.0141666 -0.00378253 -0.00861553 
0.014735 -0.0019072 0.00215374 -0.00260696 0.00353554 0.00226095 -0.000668723 -0.00937258 -0.00120124 
-0.040897 0.188541 0.0472261 -0.0124959 0.0817887 -0.0064795 0.12441 -0.000722819 0.140791 
0.128988 0.00305755 0.0105804 -0.010919 0.184467 0.180261 0.232813 0.175042 0.206501 
0.202033 0.17947 0.185872 0.146896 0.160148 0.10825 0.122219 0.0575249 0.0750745 
0.014032 0.0184856 -0.138227 -0.060508 0.00313553 -0.0612549 -0.0724036 0.0570471 0.0022745 
0.109182 0.157788 -0.00666565 0.00851743 -0.0632532 -0.057576 -0.106759 -0.0844077 -0.14481 
-0.127475 -0.172702 -0.159198 -0.174191 -0.185793 -0.137746 -0.225351 -0.19979 -0.162249 
0.0249614 -0.0209217 -0.00701405 -0.0142998 -0.0105978 -0.0846313 -0.0633061 -0.130506 -0.114302 
-0.16573 -0.152943 -0.188109 -0.18313 -0.20517 -0.208195 -0.187058 -0.243137 -0.149142 
-0.180222 -0.0236086 -0.0362235 -0.138938 0.0195654 0.217392 0.184344 0.178027 0.182813 
0.151385 0.167643 0.105699 0.13673 0.0570534 0.0719988 -0.0169718 0.0114358 0.0797723 
0.0690199 -0.0603214 0.0421335 0.0112805 -0.00746524 0.00981944 -0.00269744 0.00773852 -0.00133946 
-0.00561718 0.018349 -0.00377528 -0.00368535 0.000333663 0.00136899 0.00901662 -0.00325583 0.00187866 
-0.000713217 0.00259938 -0.00488968 0.00837206 -0.00709504 0.0373402 -0.00536481 0.00576761 -0.0359546 
-0.0108061 0.00346486 -0.0102417 -0.00579772 0.0031621 0.0109708 0.0206928 0.00955642 0.0105765 
0.0211223 -0.00548379 0.00769463 -0.0033292 0.00169214 -0.00429698 0.00155238 -0.00482995 0.00804371 
-0.0354834 0.0164819 -0.0929614 0.174523 0.0730886 -0.0546302 0.115699 0.114004 0.0992669 
0.129631 -0.147304 0.0148785 0.0646317 0.0110214 -0.00769137 0.0177455 -0.0158339 -0.0167674 
-0.0482931 -0.0622957 -0.070149 -0.0808809 -0.0868941 -0.0954032 -0.0992784 -0.105488 -0.10483 
-0.126521 -0.100269 -0.0552613 -0.00527818 -0.000672737 0.0479222 0.0658017 0.02093 0.0229278 
-0.0168955 -0.0386602 -0.0452703 -0.046478 -0.0557173 -0.085635 -0.0743743 -0.0820747 -0.0852359 
-0.115451 -0.09104 -0.0894957 -0.0634573 0.0177936 0.0219554 -0.0162436 -0.0793432 -0.00535443 
0.0108376 -0.0498108 -0.116593 -0.104801 -0.00500857 0.00341529 -0.152211 -0.167644 -0.00109541 
0.00255632 0.237368 -0.175525 -0.186405 -0.27001 -0.13767 -0.136409 -0.0145251 0.138163 
-0.00274529 0.00845056 -0.232175 -0.202608 -0.0550313 0.0298323 0.12094 0.0719741 0.00130798 
-0.0589132 0.00616981 0.169173 -0.00701499 0.0322749 0.0601028 0.0800541 0.196683 0.00480936 
-0.00235964 0.197344 -0.0795971 -0.0180613 0.0234334 -0.00185414 -0.00290473 0.147478 0.165572 
0.00329886 0.0014003 -0.019997 0.0468562 0.0711063 0.193574 -0.153474 -0.138796 -0.0500779 
-0.0104583 0.00262411 -0.00244236 -0.0078118 -0.162833 0.0304307 0.127646 0.0058683 -0.265839 
-0.178677 0.0210535 0.00501199 -0.076997 0.20935 0.219492 -0.0130517 0.0103235 0.137083 
-0.142319 0.171491 -0.0090271 -0.0817474 0.177697 -0.178912 0.190177 0.207041 0.0400802 
0.0386611 -0.0110189 0.00153321 0.0187869 -0.00996128 -0.0457039 0.073584 0.00261273 -0.000394209 
-0.140848 -0.033416 0.0169868 -0.00341873 0.0114757 0.0257181 0.0269762 0.0315554 -0.131905 
-0.0123315 -0.246128 0.0175811 0.0156839 0.0153688 0.0107612 -0.041408 0.0127289 -0.0119982 
0.00911981 -0.00652631 0.0145735 -0.0214208 -0.0107132 0.0557791 -0.0338975 0.00959804 0.0285749 
-0.020383 -0.177179 -0.149374 -0.0497593 -0.0116388 0.170425 0.1686 0.16963 -0.000533723 
-0.00175291 -0.00187706 0.0061884 0.000145434 0.139068 0.0020574 0.00589621 -0.0976293 -0.0346614 
-0.0776917 0.03363 0.0899387 0.117867 -0.218317 0.12511 -0.052092 -0.199442 0.106767 
-0.19315 0.0686999 0.260745 0.292419 0.327825 -0.000499851 -0.00302228 -0.21774 -0.0313193 
-0.19848 -0.0285579 -0.0226703 -0.0280525 -0.12486 -0.128374 0.0298894 -0.00796179 -0.0643986 
-0.00534396 -0.00767537 -0.0336683 -0.0274736 -0.00214911 -0.0171291 -0.0136341 -0.016985 -0.0106407 
0.0143792 0.00983853 -0.0245119 -0.0314435 -0.0247689 -0.0277245 -0.0345388 -0.00950726 -0.0122841 
0.0440498 -0.0190834 -0.0158061 -0.0227515 -0.00107887 -0.0316212 -0.0420783 -0.0713461 -0.0324312 
0.0326064 0.0192966 0.0211801 -0.00461807 -0.0476511 -0.0539457 -0.0120325 -0.0222493 0.0775125 
0.0894305 -0.0110518 -0.0115414 -0.00939929 -0.0123012 -0.0216852 -0.0109587 -0.0121856 -0.0372656 
-0.00443983 0.0904339 0.293015 0.00602841 -0.184184 -0.0136473 -0.010738 -0.0150783 0.157872 
0.0020921 -0.00746793 -0.0391798 -0.0300293 0.250798 0.00456668 0.0413759 0.017953 -0.197865 
-0.0242728 -0.000869769 -0.0221822 -0.0142982 -0.0151574 0.0919637 -0.0210823 -0.00363783 -0.00296909 
-0.00304773 -0.00245636 -0.00729053 -0.00941234 -0.00972237 0.0156862 0.0120384 0.0109837 -0.00495981 
-0.00461535 -0.00444738 -0.00882895 -0.00705384 -0.0101983 -0.000762616 -0.000320589 0.000849383 0.00145459 
-0.0131591 -0.0150223 -0.0102011 -0.0116696 0.0269174 0.0255307 0.0293194 0.0236909 0.0207622 
0.0226213 -0.0185995 -0.0148643 -0.0124794 -0.0125155 0.00996253 0.00619343 0.0288189 0.0221071 
-0.00408449 0.00323279 -0.000491954 0.0154463 0.0164993 0.0190693 0.00902338 0.0105566 0.00583394 
0.00743803 0.0125478 0.0141242 0.0156746 0.0171607 0.0285479 0.0304863 0.0282813 0.0523662 
0.0557112 0.0542601 0.0595342 -0.00140948 -0.00126219 -0.000753019 0.0242779 0.020636 0.0242176 
-0.0259458 -0.0230266 -0.0246161 -0.0230191 -0.00446307 -0.00559302 -0.00351687 -0.00481512 0.0180934 
0.014886 0.0154082 0.0148586 0.00953637 0.00986435 0.00986596 0.0100563 0.0136637 0.0128553 
0.0116608 -0.00788728 -0.00988312 -0.0084139 0.00127911 0.00132451 0.00269132 -0.00336478 -0.00342658 
-0.00473367 -0.00479437 -0.0150367 -0.010873 -0.0167515 0.00880815 0.00813972 0.00901188 0.00831347 
-0.0172873 -0.0173748 -0.0200864 -0.0101598 -0.0115212 -0.013494 -0.0151061 -0.0177473 -0.007775 
-0.00875059 -0.000384711 -0.000880681 -0.000730332 0.0230638 0.0272883 0.0247351 -0.000264244 -0.00353734 
-0.00349074 0.00342925 0.00605896 0.00281992 0.000144127 -0.00154673 2.88485e-05 0.00487264 0.00682111 
0.00271883 -0.00315194 -0.00676585 -0.00429877 0.0128758 0.010727 -0.00744155 -0.00842399 -0.00802247 
-0.00900156 0.00323866 6.64794e-05 0.0044317 0.000209106 -0.011431 -0.0116775 -0.00969359 -0.000913482 
-0.00148392 -0.000892197 -0.00174375 -0.00312862 -0.00145496 0.00130261 0.00195837 0.00138565 0.00636534 
0.00731076 0.00620959 0.00711642 -0.0047788 -0.00428973 -0.00471034 -0.00423593 0.00142455 0.0133251 
0.0141304 0.0158766 0.0167096 -0.0248927 -0.0267932 -0.027869 -0.00680584 -0.00812001 -0.00708865 
0.025031 0.0212819 0.00161582 0.000338328 0.000950617 0.000606858 0.0027425 -0.026054 -0.0197997 
-0.0216321 0.00487823 0.00557332 0.00453899 -0.0187672 -0.0169999 0.00960741 0.00939051 0.0105345 
0.0103112 0.0253271 0.0227966 0.0301124 -0.0101125 -0.0128001 -0.010038 -0.00420144 -0.00247329 
-0.00242136 -0.00059968 -0.00318836 -0.00255143 -0.00495325 0.0194258 0.018351 -0.0339418 -0.0289514 
-0.0298978 -0.00701525 -0.00722356 -0.00920775 0.0100006 0.00918647 0.00973118 -0.00412248 -0.00323202 
-0.0316487 -0.03221 -0.0381374 -0.00146432 -0.000993123 -0.00226313 -0.0063436 -0.00802654 -0.00966724 
-0.000122071 -0.00583423 -0.00311572 -0.0196856 -0.013513 -0.0159124 -0.00256367 -0.00352944 -0.00214946 
-0.00694815 -0.0095384 -0.00961168 0.0168701 0.0122028 0.0138247 0.00953388 -0.0050277 -0.00270039 
-0.00446154 0.00496509 0.00672184 0.00524039 0.00306022 0.00169144 -0.00894692 0.00237243 0.00157721 
0.00201404 0.0493129 0.0544005 0.0513604 0.000977062 0.00190771 0.000975886 0.00664341 0.00697795 
0.00555782 0.00591048 -0.00269606 0.00116213 0.00226507 0.0028614 0.00204772 -0.0220969 -0.0219034 
-0.0196359 0.00681004 0.00602685 0.00706505 0.00625294 5.9438e-05 -5.8504e-05 0.000572818 0.000633745 
0.00531639 0.000245194 0.000331312 0.000670858 0.00428714 0.00382024 0.00333647 0.00392504 0.00283311 
0.00318073 0.00209216 0.0022902 -0.00955768 -0.00889421 -0.0100043 -0.0284072 -0.02619 0.0110035 
0.0102052 0.00993487 0.0058113 0.00782271 0.00603812 0.00806382 0.00249387 0.00556852 0.00754343 
0.00969435 0.0100079 0.0127167 0.0136846 0.0122803 0.0097806 0.00922419 0.00856998 -0.00490484 
-0.00455887 -0.00446062 0.00814437 0.00789088 0.000625403 -3.82365e-05 0.00115159 0.0059372 -0.0075782 
-0.00649008 -0.0066232 -0.00411218 -0.00753838 -0.0035408 -0.00697415 0.00441032 0.0274861 0.0280427 
0.0243756 -0.00747732 -0.0105528 -0.00606277 -0.0134537 -0.015869 -0.0170004 0.00858998 0.00328883 
0.00643274 -0.0021065 -0.00393419 -0.00144644 -0.0373489 -0.0480948 -0.0600591 -0.0671854 -0.00712778 
-0.00728109 -0.00552848 0.00617353 0.00555983 0.00660501 -0.00579765 -0.00621668 -0.00693501 -0.00544428 
-0.00427079 -0.00581953 0.000631191 0.00750154 0.0156519 0.011439 0.0127819 -0.000727254 -0.000686699 
-0.00144708 -0.0546175 0.00545413 0.0064082 0.00646673 0.0220886 0.0186194 0.0262458 0.0222739 
-0.00479292 -0.00356091 -0.00525328 0.0314445 0.0636931 0.0523788 0.0507361 0.00473323 0.0050823 
0.00518369 -0.0104053 -0.00912656 -0.00784237 0.00325941 -0.0298599 0.0111945 -0.064375 -0.00846513 
-0.00735979 -0.00749213 -0.00638162 0.00983164 0.0172767 0.0148104 -0.023246 -0.0221036 -0.0245631 
-0.0232554 -0.0100699 -0.00385347 -0.00212826 -0.000703401 -0.00117336 0.00384211 0.00669251 0.00256611 
-0.0193297 0.00187482 0.00338913 0.00171721 -0.0271861 -0.0275462 -0.0289651 -0.0177301 -0.0193414 
-0.0201384 -0.0218068 -0.00393525 -0.00356161 -0.00476396 0.0405207 0.0405965 0.031811 0.0336684 
-0.0233888 -0.0265076 -0.0248084 0.00856217 0.00956977 0.0103827 0.0113502 0.066084 0.0185922 
0.0326719 0.0081892 -0.00312977 -0.00350996 -0.00375527 -0.00414769 -0.00931439 -0.00287332 -0.00338083 
-0.00238995 -5.05439e-05 -1.19034e-05 -0.00291383 -0.00401995 -0.0027614 -0.00252548 -0.001709 -0.00196756 
-0.00114983 0.00885885 0.0118977 0.0117023 -0.0145883 -0.0160612 -0.00366826 -0.00255153 -0.000516415 
-0.0191714 -0.016306 -0.0193146 0.00747515 0.00780283 -0.0299102 -0.0240688 -0.0314978 0.0572337 
0.0613529 -0.0190429 -0.0161552 -0.0130633 -0.0152022 -0.0123659 -0.00380329 -0.00568027 0.00351947 
0.00442278 0.00939427 0.014671 0.00737972 0.00599173 0.00649343 0.00540859 0.00471187 0.00510573 
0.00486968 0.00548794 -0.00339544 0.000603572 0.00122917 0.00206603 0.0156931 0.0112474 0.0127733 
0.000989216 0.00428656 0.00316745 0.013802 0.0110647 0.0188981 0.0163878 0.00898806 0.0107184 
0.00783593 -0.0122895 -0.0126802 -0.0119812 0.00232004 0.00500692 0.0021129 0.00518699 0.00692844 
0.00116829 -0.00121745 -0.0022582 -0.00471007 0.00661086 0.00465528 0.00585837 0.00204491 0.00132452 
0.00163244 -0.0212278 -0.0243208 -0.0218304 -0.00890218 -0.00619091 -0.013083 -0.0129959 -0.0131339 
-0.00928622 -0.00874581 -0.0109802 -0.0102803 0.0119369 0.0118167 0.0107234 0.0105839 -0.00575938 
-0.00784783 -0.0064382 -0.00697927 -0.00587766 -0.00593088 0.0626871 0.0597296 -0.0216099 -0.0200366 
-0.0209339 -0.0795405 -0.091728 -0.0810507 -0.0195085 -0.0170065 -0.0197909 -0.0013626 -0.00234433 
-0.00217333 -0.0255691 -0.0239741 -0.023905 -0.00233487 -0.00144536 -0.004169 -0.00413637 -0.00515979 
0.00243532 0.00246143 0.00136944 -0.00044944 -0.00179348 -0.000902535 0.0085947 0.00779832 0.00740592 
-0.00631713 -0.0063085 -0.00477803 -0.00449564 -0.00396005 -0.0040302 0.000113211 -0.000683042 -0.000588629 
-0.001447 -0.00314531 -0.00305201 -0.00338902 -0.00369567 -0.00471541 -0.00322585 -0.00423073 -0.00380682 
-0.0534595 -0.054864 -0.0578372 0.0088937 0.0236898 0.016708 -0.00426307 0.0084397 0.0089699 
0.00973104 0.0102116 -0.00190286 0.000831131 -0.000635072 0.00319016 0.00394083 0.00263146 0.00332173 
-0.00482996 6.11883e-05 0.042423 0.0441755 0.0457223 0.0175639 0.0254198 0.0260719 -0.0432764 
-0.0205092 0.00401544 0.00296834 0.00398942 0.00287795 -0.010827 -0.0153757 -0.019134 0.000201066 
0.00193465 0.0007222 0.00240766 -0.0112774 -0.00780047 -0.0089374 0.0101748 0.00935561 -0.0045379 
-0.003927 0.00185702 -0.0108357 -0.0095268 -0.0111395 -0.00983668 -0.0114313 -0.0124302 -0.000779212 
0.000989265 0.00226576 0.00205978 0.00150864 -0.00410958 -0.0644649 -0.00071382 -0.001302 0.000853449 
0.000308141 -0.00199069 -0.00106592 -0.00396274 -0.0031084 -0.00401149 -0.00316264 -0.0113174 -0.0124877 
0.0114956 0.0113591 0.0101371 -0.0210038 -0.0194066 0.0122732 0.01108 0.0116929 0.0130688 
0.0127002 0.0129876 0.0126252 0.00370438 0.00107177 0.00136872 -0.0114307 -0.0114624 -0.00961613 
-0.0129417 -0.0136334 -0.0176567 -0.00117081 0.00220255 0.000871585 0.00425597 0.00287614 0.00264919 
0.00366641 -0.0251764 -0.0182233 -0.0197146 -0.0236547 -0.00130522 -0.000256208 0.00380137 -0.00249359 
-0.00205629 0.00775502 0.00842585 0.00694288 0.0076094 0.00195868 0.00409114 0.0022895 -0.0364629 
-0.0335633 -0.0354296 -0.0125496 -0.00916181 0.000282681 -0.000768069 0.000201782 -0.0368562 -0.0391491 
-0.0367444 -0.038939 -0.0544246 -0.0579529 -0.0529771 0.0385284 0.0358225 0.0255884 0.0276228 
-0.00510897 0.000505262 0.00117605 -0.0385093 -0.0388893 -0.0364824 0.00703659 0.00441849 0.00636265 
0.00341483 -0.00430359 -0.00516415 0.0184204 0.00882227 0.0113795 -0.0177907 -0.020573 -0.017366 
-0.0202901 -0.0240214 -0.0222072 -0.0244751 -0.0224733 0.0174827 0.0204758 -3.9372e-07 0.0040333 
0.000289408 0.00538361 -0.00435296 0.0392002 0.0389888 0.0370989 0.0126694 0.0230315 0.0199309 
0.0213983 0.0183516 0.0351473 0.0351874 0.0329957 0.0178553 0.0161564 0.0193875 -0.00296055 
-0.00176215 -0.0033303 0.0141792 -0.00267957 -0.0132181 -0.0211403 -0.00215461 0.00246227 0.00785515 
0.0022427 0.00174998 0.00828622 0.00719284 0.0103975 0.00925213 -0.00589181 -0.00634444 -0.00702318 
-0.00581219 -0.000568648 0.00691131 0.00702645 -0.0192803 -0.000167843 -0.00239255 -0.00336875 -0.00601957 
0.0548177 0.0540442 0.0635055 -0.00548278 0.0301212 0.0227603 0.0274225 -0.00540292 0.0445349 
0.043562 -0.0417127 -0.0486471 -0.0468944 -0.0581269 -0.0676753 -0.0557598 0.0770005 0.0586382 
-0.0148702 -0.0047447 -0.0049012 0.00241576 0.00180373 0.00156447 -0.00326714 -0.00303905 -0.000456443 
-0.00430359 -0.00479897 -0.00376783 -0.00337202 -0.0025181 -0.0237232 -0.00477474 -0.00350405 0.0136332 
0.0132764 0.0135004 -0.0401342 -0.0378174 -0.032956 -0.00256578 -0.0396153 -0.0111113 -0.0113922 
-0.0139647 -0.010731 0.0077539 0.0111982 0.00433907 0.00817543 0.0126703 0.0117961 0.0172586 
0.0245239 0.0197354 -0.00780144 -0.00595132 0.0350148 0.0375502 -0.0131629 -0.0125632 -0.0144963 
-0.0139174 -0.00111372 -0.00220706 -0.00111417 -0.0112954 -0.00863967 0.00731953 0.0113824 -0.00976991 
-0.0129052 -0.0122814 -0.00806142 -0.00684243 -0.00705136 -0.00585739 -0.00100932 -0.00197474 -0.00101793 
0.0218323 0.0195417 0.0173535 0.0250915 0.0315003 0.0270406 0.0321625 -0.00531309 -0.00627036 
-0.00384714 0.0123677 0.010187 0.0143157 -0.0110346 -0.0139213 -0.011576 0.00551047 0.0064317 
-0.013532 -0.014618 -0.0137053 0.00844094 0.00987425 0.010675 0.012064 0.00269761 0.00349372 
0.00312884 0.00696067 0.0557605 0.0634582 -0.00407747 -0.00510087 -0.00374054 -0.0122515 -0.0124537 
-0.0137776 -0.0138927 -0.00179948 -0.00326507 -0.00327625 0.00410669 0.00350366 0.00389752 0.00329371 
0.025037 -0.00153776 -0.0154519 -0.0160378 -0.0165906 -0.0151653 0.0047331 0.00423151 0.00202885 
0.00277669 0.00248826 0.0220345 0.0403802 0.0360522 0.00372358 0.00446324 0.0028301 0.0035053 
-0.00660824 0.0886837 0.0903506 0.0540067 0.0535366 0.00343708 0.00373273 0.0757992 0.0770888 
0.0746481 0.0821963 -0.00126823 -0.000705809 -0.00284523 0.0598038 0.0650343 0.0499925 0.0539312 
-0.0107834 -0.0110711 -0.00993899 0.00259637 -0.00549552 -0.0071029 -0.00146742 -0.000998931 0.00105627 
0.00894913 0.00884489 0.00178127 0.00278748 -0.00301728 -0.00315228 -0.0120633 -0.0135267 -0.00675748 
-0.0073651 -0.00550925 -0.00849071 -0.00277213 -0.00399761 0.00407143 0.00406132 0.00491302 0.0049186 
0.0330009 0.0390596 -0.00142361 -0.00160654 0.000277871 -0.0770575 -0.0706803 -0.0759018 0.00444173 
0.00484284 -0.014877 -0.0147798 0.00402746 0.00109744 0.0286293 0.0236216 0.0062168 -0.0054791 
-0.0061104 -0.0087119 -0.0238188 0.0106515 0.00912054 0.00748001 0.0237461 0.0243665 0.0218462 
-0.00469569 -0.00623401 -0.00450294 -0.0060629 -0.00467589 -0.0370316 -0.0290754 -0.0351108 -0.0273797 
0.00541377 0.00663259 0.00758954 0.0088203 0.0195455 0.0113084 0.0121117 -0.0394065 0.0238501 
0.0223805 0.0240963 0.0229838 -0.00988346 -0.00749737 -0.00676598 0.0076266 0.00062148 0.0012264 
0.018064 0.00803656 0.00313193 0.00319871 0.00103959 0.0235595 -0.000711765 -0.00125568 -0.00171945 
-0.0258313 -0.0203693 -0.0234344 0.00309675 0.00348996 0.0039882 0.00427865 0.00319773 0.00468757 
0.0034506 0.000840787 0.00138222 0.000736042 0.00121179 -0.000669753 -0.0010836 -0.000509516 5.89885e-06 
0.000684542 0.00109351 -0.0149765 3.93375e-05 0.000833091 0.00111931 0.00189432 0.00173451 -0.0165445 
-0.00779694 -0.0334739 -0.00422277 -0.00278887 0.00132216 -0.00133086 -0.00228927 -0.00399018 -0.00302939 
-0.00304195 -0.00369519 -0.00282798 -0.00193094 0.0150388 0.0192152 0.0278967 0.0274717 0.0262791 
0.0105116 0.00862396 0.00920998 -0.00512046 -0.00516847 -0.00490113 8.88598e-05 -0.00058222 0.000649482 
-0.0107799 -0.00541722 -0.00363727 -0.0105176 -0.00405898 0.00161279 0.000421889 0.0038856 0.00272618 
0.000561207 -0.00117763 -0.000313715 -0.00495667 -0.00389253 -0.00473012 -0.00163728 -0.00241647 0.00218782 
0.00351671 -0.00108575 -0.00343794 -0.00339764 0.00118933 0.00938635 0.0101603 0.00925835 0.00214223 
0.00309126 -0.0218575 -0.0175174 -0.019336 -0.0205495 -0.0567087 -0.0624136 -0.0598611 -0.0479229 
-0.0802379 -0.0716941 -0.0641629 -0.0653839 -0.0702435 -0.0143459 -0.0144998 -0.00831583 0.0188976 
0.0201732 0.0163635 0.0174938 0.00545281 0.00908109 0.0068688 0.0103243 0.0107267 0.00570486 
0.0109644 0.00786178 0.00561745 0.0027139 0.00390938 0.0272524 0.0320577 0.0216953 0.0309767 
0.00313103 0.0056939 0.00898714 0.00762705 -0.0128668 0.00449744 0.000590374 0.0185328 0.0669725 
0.0655433 0.0717044 0.0701113 -0.00763701 0.00496259 0.00617028 0.00496533 -0.00470759 -0.00578487 
-0.00678857 0.000697788 0.00857716 0.00701594 0.0136688 0.0116773 0.00399962 0.00423431 0.00922594 
0.0086356 0.0139826 0.0730199 0.0662317 0.00576926 0.00596395 0.00737644 -0.00511917 0.00227639 
0.0032463 0.00237491 -0.0013364 0.0116167 0.0101413 0.0111654 0.00977644 -0.00434664 -0.00505912 
-0.00429132 -0.0182373 -0.0170239 -0.0200951 -0.0141836 0.00783328 0.00803987 0.000227356 0.000780138 
0.000928606 0.00141457 0.00152136 -0.0154946 0.000970718 0.00411996 0.00464752 0.00652067 -0.0151901 
-0.0186311 -0.0143168 0.00437963 0.0215931 -0.00464969 -0.00452195 0.00722889 0.00517158 0.00574312 
0.00551566 -0.0108126 -0.0100215 -0.00981828 0.0306042 0.0391265 0.0331154 -0.00156901 -0.00269341 
-0.00124723 0.00885056 0.00865168 0.00936517 -0.0235555 -0.0220623 0.0196527 0.0220959 0.0162998 
0.00122877 0.00308824 0.0019754 0.0245621 -0.00995342 -0.0449387 0.0148328 0.0138442 0.013443 
0.0157405 0.0225649 0.0244039 0.0232228 0.0038326 0.00189449 0.0255022 0.024038 0.0193012 
0.0191093 0.0104671 0.0112549 0.0123351 -0.016957 -0.0166672 -0.013223 0.0034516 -0.0363193 
-0.0316917 -0.0104062 -0.0094287 -0.0114797 -0.00406379 -0.00512489 -0.0102992 -0.0697115 -0.0564457 
-0.070293 -0.0602546 -0.00674852 -0.000795783 -0.000950642 -0.00131085 -0.000999951 -0.0229764 0.00181372 
0.00154831 0.000934812 -0.00750716 -0.007826 -0.0087174 0.0115455 0.0126851 0.0125802 0.0279851 
-0.0098497 -0.0120383 0.0101852 0.0102868 0.00937683 0.00476709 0.00300173 0.00630939 0.00722182 
0.0382121 0.00194718 0.00234446 0.00340501 0.00635687 0.00716346 0.00625899 -0.010665 -0.0116807 
-0.0119263 -0.0128722 -0.0260823 -0.0264306 -0.00946497 -0.0154891 -0.00980202 -0.0118709 0.00352724 
0.00767954 0.00777673 -0.012716 -0.0121444 -0.00388329 -0.00253334 -0.0120489 -0.0145069 -0.0107131 
-0.000259395 -0.000582525 -0.00302057 0.00104797 0.005022 0.00248256 0.00325688 -0.0186489 -0.0147071 
-0.00682046 0.0228185 0.0224016 0.0218008 0.0212147 -0.0339703 -0.0109073 -0.0105441 -0.0156432 
0.000313944 0.0227794 0.0214313 0.0248108 0.0232989 0.00139532 0.000284638 -0.0109208 0.0202962 
0.00374695 0.00530529 0.00538304 0.000798586 0.0017385 -0.0546633 -0.051808 -0.0454033 -0.0113322 
-0.0118828 -0.00899168 -0.0252866 -0.02232 -0.0257455 -0.0226638 0.00290615 0.00389791 0.00295566 
-0.0131477 -0.0124787 -0.0129855 -0.0236496 -0.0254892 -0.0230781 -0.0244854 -0.00938402 -0.00900367 
-0.0110661 -0.0107399 -0.00948904 -0.0105149 0.0032301 -0.00358622 0.0026 -0.0028183 0.0065702 
0.00566875 0.00722889 0.0063359 -0.00482417 -0.0046476 0.0401483 0.0367879 -0.00520134 0.0129698 
0.0142624 0.0126097 0.036181 0.0428022 -0.00304839 -0.00213567 -0.00123123 -0.000319646 0.0105027 
0.00915314 0.00644762 0.00599818 -0.0274696 -0.0187956 -0.0200687 -0.000261773 -0.0110534 -0.00615472 
-0.000175288 -0.000460985 -8.49693e-05 0.0262756 -0.00747909 -0.0011282 -0.010686 -0.00841415 -0.0100678 
0.00640099 0.00741805 0.00492711 0.00595777 -0.0465251 -0.0496513 -0.0220683 0.00521466 0.0151 
0.0134674 0.0177289 -0.00355894 -0.00192056 -0.00187524 -0.000205667 -0.00262559 0.0086449 0.00837 
0.00723988 0.00738264 0.00555079 0.000419465 0.0316773 0.033268 0.031276 -0.000293222 -0.0295914 
-0.0375694 -0.034489 0.0211777 0.0184356 0.0182788 -0.000462707 7.24129e-05 0.000969202 0.0014702 
-0.0418685 -0.0423893 0.00332207 0.00366876 0.00499797 0.00531259 -0.00266219 -0.00334569 -0.00545928 
-0.0667572 -0.0615464 -0.00254208 0.0264989 0.0254435 -0.0101599 -0.00932661 -0.00732678 -0.0648176 
-0.0985821 0.029388 0.0275897 0.0110652 -0.0525191 -0.042627 -0.00140752 0.000162826 -0.00140095 
0.0125406 0.00943783 -0.0184246 -0.0155073 -0.0206576 0.00129693 0.00202675 0.00244878 0.025114 
0.0306586 -0.0168555 -0.0147653 -0.0123112 0.0100802 0.013389 0.0116619 -0.0287068 -0.0370828 
-0.00326068 -0.00201652 -0.0073832 0.0238253 0.0280984 -0.010242 -0.0350733 -0.00988321 -0.0120211 
0.042382 0.0382845 -0.0140539 -0.0142807 -0.0105964 -0.0048271 9.54354e-05 0.0010944 0.00147153 
0.000121027 0.000445613 4.42507e-05 0.000469913 -0.0138252 0.00261272 0.0157172 0.0176362 0.0149413 
-0.0085612 0.000837305 -0.0157508 -0.0105627 -0.0130044 -0.00963029 0.0115417 0.0122606 0.011326 
0.011897 -0.00550909 -0.00596925 0.0204495 0.017241 0.0186512 0.0169587 0.0148394 0.00145252 
0.000858108 0.00119604 -0.0436066 -0.036723 0.0100584 0.0125625 0.00791255 0.0107665 0.00509996 
0.00616076 0.00741042 0.00672866 0.00337841 0.0913534 0.0716714 0.00974226 0.00897906 0.00974465 
0.00137788 -0.000332588 0.000378439 -0.00127074 0.011752 0.0130106 0.0110927 -0.0116497 -0.023278 
-0.006992 -0.00479897 -0.00587893 0.00267349 -0.0324623 -0.00519931 -0.00637456 -0.00747004 -0.0775169 
-0.0388118 -0.0368851 -0.0303409 -0.0130222 0.00815469 0.0066974 0.0143892 0.00982824 0.0215959 
0.0224964 -0.00303208 -0.00318581 -0.00262098 -0.00354381 -0.00390998 -0.0152626 -0.0171586 -0.0141878 
-0.0556043 -0.00380488 -0.00447232 -0.00524815 -0.0453388 0.00749906 0.00837036 -0.0382248 -0.00557394 
-0.0072248 0.0028173 0.00296786 0.00388789 0.00406043 -0.00147248 0.00448492 0.00502501 0.00397757 
-0.00337868 -0.0025846 -0.000933849 0.110996 0.00337156 0.000866645 -0.0114003 -0.0110064 -0.00918666 
-0.00663671 -0.0075004 -0.00757652 -0.00847357 0.00256934 0.0032517 0.00909556 -0.00345226 -0.00725365 
-0.00698728 0.00429688 0.00547285 0.00212471 0.00273314 0.00758686 0.00479265 0.00912334 0.00754525 
0.00841267 0.0108924 0.00770551 0.00802902 0.0067723 0.00710985 -0.00261556 -0.00297108 -0.00231318 
0.0484101 0.049449 -0.0113822 -0.0120236 -0.000146413 -0.016251 -0.0516072 -0.0609242 -0.0397315 
-0.0514318 0.0136563 0.0135852 -0.00470762 -0.00319154 0.0164115 0.0106327 0.0119374 -0.0535362 
-0.0786296 0.00418771 -0.00595506 -0.00940979 -0.00829263 0.0133102 0.00197938 0.00107729 0.0074194 
0.0075532 0.00888169 -0.0444805 -0.045854 -0.0404518 0.00570121 0.00106734 -0.00675927 -0.0057582 
-0.0379802 -0.0340492 -0.0362064 -0.0275599 -0.0295305 0.00131123 -0.01016 -0.0137423 -0.0133494 
0.00139514 -0.000627443 0.00166421 -0.0207848 -0.00469882 -0.0185672 -0.0194268 -0.0310065 -0.0322342 
0.00294175 0.0418727 0.0402263 0.0379834 0.0366567 -0.0359492 -0.00909621 -0.0108925 -0.0087606 
-0.00241838 0.0406338 0.0381071 0.0379438 0.0325728 -0.00197694 -0.00117652 -0.00228332 -0.00602869 
-0.00123919 -0.00138651 -0.014911 0.03483 -0.000846462 0.0101125 0.00929729 0.0131778 0.0107751 
0.00680473 0.0140257 0.00954723 0.0164018 0.015711 0.0185957 -0.0129965 -0.00301085 -0.00133482 
0.00366991 0.00611436 0.0031889 0.0053684 0.041899 0.0522365 0.044771 -0.00700844 0.0022154 
-0.000148017 0.00329133 0.00107557 0.00829586 0.00503597 -0.00356637 -0.00261105 -0.00525928 -0.00402429 
0.0151935 0.0141563 0.0115761 -0.00547097 -0.00510136 -0.00182953 -0.00158568 -0.000588752 0.00786736 
0.00936712 0.00861132 0.0115264 -0.00946367 -0.0102294 -0.0101935 0.0019938 -0.00032855 0.00239333 
0.00604518 -0.00107252 -0.00236418 -0.00776411 -0.00816998 -0.00966078 0.0129864 -0.0227358 0.00808806 
0.006619 -0.00557189 -0.00502003 -0.00777799 -0.0220256 -0.025824 -0.0114933 -0.0163855 0.00260683 
0.00202882 0.000574784 -0.0038164 -0.00222116 0.00794131 0.00885228 0.00198092 0.000307003 0.00147929 
-6.08096e-05 0.00437348 0.00341768 0.00420291 -0.0231567 -0.0534758 -0.0548523 0.00615713 0.00438818 
0.00341183 0.00154928 -1.50516e-05 0.00130194 0.00962793 0.0111749 -0.00723009 -0.00344803 0.0138359 
0.0124843 0.00347531 0.00272261 -0.00755974 -0.0127399 -0.018543 -0.0210512 -0.0307077 -0.0191737 
-0.019546 0.0111067 0.0113962 0.00252085 0.0133068 0.00228862 0.00580358 0.0045169 0.00799507 
-0.000581197 -0.000344551 0.0268216 0.0241077 0.0071856 0.0131393 0.0136862 0.020361 0.0283257 
0.028275 0.0234443 0.0166376 0.0176155 0.0138547 0.0413888 0.0351017 -0.0138868 -0.0130078 
-0.0128257 -0.0115392 -0.0118377 -0.0126852 -0.00204256 -0.00218453 -0.00438105 -0.0239081 -0.0269289 
0.0459787 0.00858651 0.0017125 -0.00192498 -0.0030016 -0.00866954 -0.00879718 0.0205586 0.0189787 
0.0204539 0.018792 -0.00911897 -0.010076 0.0111052 0.00993766 0.0122512 0.0103946 0.00964474 
0.00369735 0.00498334 0.00518708 0.0145159 0.0158551 0.0109263 -0.0157328 -0.00457841 0.0104882 
0.0142259 -0.0119059 -0.0110686 -0.0582875 -0.0119426 0.00153362 0.000568178 0.00924554 0.0103087 
0.00891009 -0.0442275 -0.0484106 -0.0230832 -0.0225696 -0.00931061 -0.00928589 -0.0498538 -0.00738208 
0.00683126 0.00478496 0.00529757 0.0044458 0.00513734 0.0177352 -0.0037136 -0.00301166 -0.00377258 
0.0312961 0.0307632 0.00650516 0.0118959 0.00732454 0.00854399 0.0057427 0.0374479 0.0333691 
-0.00894391 0.0504365 -0.00133504 0.0329768 -0.0049348 0.0130357 0.0166659 0.00381036 0.00712254 
-0.00660094 -0.00568059 -0.0015203 -0.00531788 -0.00507754 -0.00448609 -0.00207168 0.00542428 0.00531312 
0.00782156 0.00977337 0.00819642 -0.0109673 -0.0120064 -0.00799671 -0.0084042 0.00525473 0.00289147 
0.0292847 0.029495 -0.0020318 -0.00186964 -0.00113679 -0.00274042 -0.00214306 -0.0169722 -0.0195022 
-0.0181744 -0.00572977 -0.00661217 -0.00146214 -0.032331 -0.0329947 -0.030792 0.0126073 -0.0177445 
-0.0178058 0.00867891 0.00919985 -0.019458 0.0060752 -0.00331525 -0.000823672 0.00197361 0.00157431 
0.00222967 0.001307 0.00246048 -0.0129132 0.0336906 0.0147999 -0.00413556 -0.00455491 -0.00323777 
-0.00103298 -0.0286913 -0.0280128 -0.0139105 0.00546296 0.00613819 0.00717836 -0.00399281 -0.00195266 
-0.00185941 -0.00200775 -0.00416213 -0.0045105 -0.0135183 -0.0111301 0.00120396 -0.00440708 0.026332 
-0.0210879 -0.0220299 -0.0210446 -0.00747835 -0.007758 0.020151 0.0185949 0.00120224 -0.0178968 
-0.0182328 -0.00937605 -0.00652768 -0.0157028 -0.0132392 -0.0156722 -0.0150941 -0.0148016 0.00655531 
0.00649686 -0.0237593 -0.0215187 0.000750568 -0.0199601 -0.0338233 -0.034757 0.0624862 0.0522934 
0.0519943 -0.0109923 -0.0113274 6.09413e-05 0.000275805 -5.97735e-05 7.06678e-05 -0.0148968 0.00215095 
0.00199033 0.00826043 -0.0135795 -0.0160111 -0.0165748 0.00631681 0.00585181 0.00767187 0.00391772 
0.00351204 0.0265455 0.00275475 0.0251078 0.00825952 0.00948967 0.0109104 0.0411583 0.00922536 
-0.0394087 -0.0021909 -0.00332784 0.00104295 0.000325288 3.77706e-06 -0.015469 0.00931338 0.00468774 
0.00343777 -0.00574636 0.00842884 0.00847108 -0.0163626 -0.0193493 -0.000437615 -0.00452144 -0.00664832 
-0.00485372 -0.0102757 -0.00879859 0.00349883 0.00426216 0.00166747 -0.00363794 -0.018811 -0.0223557 
-0.0176161 -0.027321 0.00618511 0.00805963 -0.00619545 0.00162799 0.00218745 0.00286428 -0.0155727 
-0.0173844 -0.0191138 -0.0153511 -0.0201554 0.0165548 0.00404433 0.0156348 0.0191739 0.00295533 
-0.00520351 -0.0045549 -0.00316693 0.0139756 0.0301794 0.0139818 0.0156051 0.0170995 -0.00824747 
-0.0423405 -0.013934 -0.0165694 -0.0173412 -0.0158855 0.007136 0.0184484 0.0214187 0.0169369 
0.00102092 0.0519912 0.055595 0.050887 -0.0166707 -0.0113538 0.00373122 -0.0115984 -0.00994107 
-0.00866967 -0.00980924 -0.0287832 -0.0285205 -0.00315569 -0.00501139 -0.00426897 -0.000353455 -0.00095464 
-0.000613243 -0.0124874 0.00368646 0.00890735 0.00520609 0.0204859 0.0204129 0.00571559 -0.00207513 
-0.00123596 -0.00168384 -0.00528596 -0.00292031 -0.00252742 -0.0147712 -0.00304634 -0.00276728 -0.00107855 
0.000340824 0.000745271 0.00080987 -0.0102963 -0.00912577 -0.00292271 -0.00392422 -0.00721129 -0.00653497 
0.00183389 0.000181801 -0.00490462 -0.00487369 -0.00415195 0.0722398 0.0764831 0.0647147 0.0528586 
0.0084604 -0.0181658 -0.0175338 -0.0186243 0.00981078 -0.0172298 0.0241433 0.0254874 -0.00984927 
-0.00866923 -0.0355605 -0.0298469 -0.0272173 -0.0056528 -0.00207029 0.0139858 0.0171029 0.0165698 
0.0205976 0.0194069 -0.0112879 0.0481356 0.00753105 0.0092963 -0.00124811 2.39021e-05 0.000920081 
-0.00136865 0.0241644 -0.00168706 -0.0176877 0.00380126 0.00175189 0.00252042 0.00193136 0.00423198 
0.00306796 0.00366029 -0.0466316 -0.0443433 -0.0427234 0.011067 0.00799099 0.00671571 0.00709292 
0.00209324 -8.6782e-06 0.00209881 0.00191074 0.0187601 0.020546 0.00542761 0.00488645 0.00841115 
-0.0204005 -0.00759824 0.00783435 0.00254991 0.00504057 0.00564353 0.00451495 -0.0227903 -0.0253331 
-0.0387164 -0.0152958 0.00334374 0.00340139 0.00446312 0.0387814 -0.0207195 -0.0162451 0.00480907 
-0.00349973 -0.00693702 0.010796 0.0432582 0.0399729 -0.00292165 0.00589837 0.00150867 -0.01517 
-0.0182531 -0.018638 0.0146396 0.0469422 -0.0219041 -0.0170366 -0.0435096 -0.0380871 -0.0423026 
0.0268329 -0.0342514 -0.020175 0.00279677 0.00257766 0.00342202 0.00393289 0.0331376 0.00461041 
0.00522196 -0.00982289 7.3655e-05 0.00993623 0.00903215 0.0127512 0.0155606 0.0168949 0.0531552 
-0.000462688 -0.00998851 -0.0108366 -0.0122256 -0.0876542 -0.0732038 0.000952769 0.0117945 -0.000118148 
0.000555159 0.000809384 -0.00140624 -0.104752 -0.0896151 -0.00256561 -0.00384506 0.0124739 0.010686 
0.00121333 0.00233536 0.0173619 0.00035314 1.368e-06 -0.00105184 -0.00207924 -0.00243363 0.0163776 
-0.0225875 -0.0233301 -0.0110255 0.0115051 0.0111395 -0.0109959 0.0121817 -0.00534246 -0.00526915 
0.0241168 0.0235077 0.0122086 0.0128787 -0.00954751 -0.00723439 -0.00844826 -0.0057755 -0.00455591 
-0.00608723 0.00579726 0.00556181 0.00569757 0.0066513 -0.00573066 -0.0235143 -0.0207306 0.00179527 
-0.0156671 -0.0844484 0.00441919 0.00397772 0.00220896 0.00433455 0.0038616 0.00483896 0.00357362 
0.000852289 0.00156723 4.02068e-05 -0.0134571 -0.00554445 -0.0133509 -0.0186752 -0.0138636 -0.0157229 
0.00939392 0.0132543 0.00418124 -0.0103787 0.0334929 0.0329982 -0.0100815 0.0484921 -0.013634 
-0.0156636 -0.012564 0.00398621 0.00229484 -0.0109664 -0.0116031 -0.0117079 -0.013829 -0.0110861 
-0.0365326 -0.0312235 -0.0426966 -0.00900686 -0.008042 -0.0349055 -0.0321471 -0.0128982 -0.0124744 
-0.00972557 -0.0112177 -0.0101466 -0.00949293 -0.0118132 -0.00203565 -0.00169484 -0.0032062 -0.0159145 
-0.00187603 -0.00107635 0.00554192 0.00571446 -0.00564502 -0.00506296 -0.00693516 -0.00635729 0.00363173 
-0.000558236 0.011924 0.0142518 0.0120892 0.0146456 0.00198688 0.00896853 -0.00513268 -0.0413111 
-0.00286085 -0.00355555 0.00712182 0.0121928 0.0125809 -0.00183449 -0.00240951 -0.0021713 -0.00119373 
0.0122446 0.000427821 -0.00106693 0.0019644 8.18492e-05 0.00446079 0.00618466 0.00428889 0.0033441 
0.0104581 0.0121019 0.011808 0.012363 0.00713668 -0.0019112 -0.000647859 -0.00251887 0.00992141 
-0.00659813 -0.0429785 -0.0409087 -0.00812658 -0.00801011 -0.0032035 -0.00815975 0.0110226 0.0103902 
0.0118924 0.00109063 0.00107224 -0.0457644 0.00934139 0.0121365 0.0110164 0.000994491 0.000905849 
-0.00601526 -0.00535437 0.00452862 0.00601146 0.00493323 0.00885617 0.00770107 -0.000319247 -0.00621905 
-0.00586745 -0.00491273 -0.00565122 -0.00409403 0.0100433 -0.0059876 -0.00170054 0.0158293 -0.00742942 
-0.00284818 -0.00216165 0.0226424 -0.00717016 -0.00187047 -0.00135768 0.0195924 0.0169129 -0.00307799 
0.00542342 -0.0248061 -0.0209595 0.0110831 -0.0132223 0.00277098 0.00198147 -0.0112675 -0.00740999 
-0.010258 0.0189282 0.0191033 0.00886787 -0.0121552 -0.0122887 -0.0112106 -0.00449063 -0.00479513 
-0.00594758 -0.0065356 0.00797946 0.00810897 0.00712748 0.0175409 0.0144486 0.00991659 0.0131416 
-0.0129887 0.0122206 0.00207043 0.00437248 0.00411535 -0.0308843 0.00631088 0.00725953 -0.0014405 
-0.00115671 0.00537847 -0.00144616 -0.00504969 0.00394799 -0.0102897 -0.0214245 -0.00347444 -0.0046549 
0.00408586 0.000840892 0.00118289 0.0520719 0.0455587 0.0127171 -0.0123838 -0.0119829 0.00345541 
0.00451354 0.00177353 0.00538848 0.00483721 -0.00744535 -0.0121247 -0.00801099 -0.00524879 0.00580339 
0.00546729 0.00525928 -0.0101356 0.0120255 0.0122988 0.00145524 0.00227164 0.00135053 0.00224918 
0.00131029 -0.00110488 0.00309146 0.00432345 0.00458743 0.00456829 0.0062696 0.00650405 -0.0307354 
-0.0339242 -0.0091263 0.00273066 0.00274394 -0.00682812 -0.00544506 -0.00632687 -0.0146219 0.0211787 
0.0197591 -0.00573283 -0.0205691 -0.0217942 -0.0207586 -0.0217665 0.0227505 0.0211237 -0.0168165 
-0.0462779 0.0355441 -0.00903984 -0.00765388 -0.0188547 -0.0147151 -0.0155556 -0.00187123 -0.00352852 
-0.00173229 0.00732033 0.0136874 0.00452634 -0.00153807 0.00573161 0.00514599 0.00637444 0.00566542 
0.00694441 -1.21145e-05 -0.000380134 0.00248214 0.0110721 -0.00374934 0.00498885 0.00085027 0.00094948 
0.0431711 0.0385177 0.000300532 -0.0215145 0.000255053 0.0231337 0.0117789 0.0323917 0.0324113 
-0.0123093 -0.0241639 0.00750016 0.013572 0.00458532 -0.00709127 -0.00739571 -0.0149261 0.000820025 
0.00189031 0.00111745 -0.00525821 -0.0058017 -0.00275735 0.00531492 0.000289144 0.00497207 0.000547027 
-0.00081403 -0.0143592 -0.00811684 0.00695906 -0.00349599 -0.0158859 -0.014722 -0.00997749 -0.00691265 
0.000625047 0.0265931 0.0283754 0.0290979 -0.00322981 -0.00185531 0.00117127 0.00112838 0.0323928 
0.0339119 0.0305034 0.0317312 -0.0134527 -0.012514 0.0222862 0.0252303 -0.00840652 0.00431751 
0.0230072 0.00619071 0.0142861 0.0089192 -0.00749855 -0.00139348 -0.00317962 -0.0505823 -0.0517834 
-0.0542163 0.00286849 0.0210178 0.00719882 0.0104889 -0.0166177 0.0622117 -0.000406016 -0.000569246 
-0.00156935 -0.0382678 0.0110918 0.0109616 0.0100236 0.0118998 0.00089297 0.00117509 -0.0405456 
-0.00350871 -0.00402504 -0.00358078 -0.00311817 -0.000588504 -0.00813697 -0.00855893 0.000201636 -0.00422473 
-0.00472472 -0.0057294 -0.00813835 0.0201402 0.00243178 -0.0482911 0.0244317 0.00337596 0.00670801 
0.0274487 0.0250815 0.0299475 -0.00937333 -0.0174593 0.0136193 0.0129722 -0.0284049 -0.0317737 
-0.0367345 -0.0330185 -0.0351364 -0.0222732 0.0352615 0.00595083 0.00953679 -0.026116 0.0249812 
0.0229366 0.0127007 0.00663284 0.00999183 0.0109832 0.0104227 -0.00210942 0.0196616 -0.0267298 
-0.0123329 -0.0124868 0.00324961 -0.0317673 0.00111635 -0.005221 0.00172953 -0.000777289 -0.000146875 
0.00451274 0.00340419 -0.0114147 -0.0167343 -0.00771192 -0.0128599 0.000133519 0.0011437 0.0584175 
0.000287999 -0.0175554 -0.0103372 -0.0061504 -0.00648277 -0.00149201 -0.00184706 -0.0294843 -0.0122325 
0.018439 0.0215523 0.0206456 0.0237658 0.0164054 0.0150203 0.0179714 -0.00857303 -0.00424103 
0.0296159 0.0323798 0.00319959 0.00296838 0.00415573 0.00299771 -0.0225043 0.00914567 0.00691945 
-0.00141084 0.00369705 -0.00585893 -0.0660679 0.0124264 -0.000379867 0.00265379 -0.00662132 -0.0130832 
0.00908223 -0.00649527 -0.00859932 -0.00322983 0.0166682 0.00190963 -0.00060936 -0.00484813 0.00463776 
0.00394545 0.00496504 -0.0179887 -0.0162212 -0.0211663 -0.0199152 -0.00258525 -0.00153751 0.00512234 
0.00508599 -0.00177502 -0.00036791 0.0054109 -0.00719808 -0.00691357 0.00444247 -0.0340304 -0.00541438 
0.00147352 0.022649 0.0236563 -0.00107871 0.0311048 0.024349 0.0315162 0.0737124 0.000553438 
0.000248108 0.00325822 0.00695997 0.00794595 -0.0323704 -0.00577023 -0.00636414 -0.00458662 -0.00515935 
0.0114078 0.0107712 -0.00258363 -0.000851646 -0.0306991 -0.0299613 0.0258961 0.0259883 0.0296952 
-0.017669 -0.0210062 -0.0195694 -0.0215269 -0.0042497 0.0498392 0.00131966 0.00262521 -0.00554071 
0.0829327 -0.0265418 -0.0210681 0.000445666 -0.00260855 0.021202 -0.00289732 -0.00254346 -0.000297614 
-0.000849718 -0.000439669 -0.000900998 0.00112878 -0.00398641 0.00181604 0.00861129 0.0057549 0.0091242 
6.03508e-05 -0.00330537 -0.00180319 0.00586387 -0.00411513 0.000243479 0.00397133 0.00365259 0.00232506 
-0.00892068 -0.0088498 -0.0100838 0.00884147 0.0129123 -0.0182902 0.0029151 0.00366657 0.00262441 
-0.000760994 0.000768988 0.000846787 -0.00228352 0.0469036 0.0447826 0.0413617 0.0427711 0.0397088 
-0.0284577 0.00214649 0.0191424 0.0219378 -0.0195285 0.0745895 0.0452541 -0.00864318 -0.00948735 
-0.00891755 -0.00997587 0.0012766 0.0029145 0.00148967 -0.0405153 -0.0536442 -0.0050882 -0.00382587 
0.0111915 -0.00353768 0.000330961 -0.0138044 0.0347156 -0.00888378 -0.00792465 -0.00812722 0.0133383 
0.00425165 0.00463621 -0.00228505 -0.0038918 -0.00101749 0.0485062 -0.00626286 -0.00580555 -0.00860535 
-0.0118055 -1.01702e-05 -0.0062874 -0.000731383 -0.00226848 -0.000894029 0.00746195 0.0077412 -0.00153328 
0.0103242 -0.0118307 -0.00332995 0.010579 0.0133198 0.00927521 -0.0261884 -0.032852 -0.0275273 
0.00159197 0.00385403 -0.0196258 -0.0132737 -0.0138747 0.0137212 0.0257905 0.00821147 0.00202489 
0.00517093 -0.00977456 -0.00180486 0.00749894 0.0153731 0.00618344 -0.0103204 0.00235662 -0.00795707 
0.00379468 -0.0268928 -0.0106039 -0.0120009 -0.027108 -0.0292069 -0.0319572 -0.0320284 -0.025039 
-0.00382102 0.00993966 -0.00362044 0.0110547 0.0122029 -0.00950219 -0.0103358 -0.00928878 -0.0245554 
-0.0480563 -0.0449321 -0.0544637 0.00736484 0.00399108 0.0119951 0.00610175 0.01528 0.0158128 
0.0173746 0.0073519 0.0168696 -0.00490445 -0.00319185 -0.0296767 -0.0188051 -0.0078393 0.00035173 
0.0550991 0.00800013 -0.0303379 -0.0140079 0.0231184 -0.0161436 -0.0186802 0.00141781 -0.00876321 
-0.00988815 -0.010907 0.00161508 0.00646594 0.0191105 0.03068 0.0236912 0.0228256 0.0230572 
-0.011421 -0.00121031 0.00973613 0.00582861 -0.0205223 -0.0170732 0.000413881 -0.0217911 0.0129578 
-0.019557 -0.0129038 -0.0150673 -0.00781553 -0.00848484 -0.0237046 -0.0233625 -0.027169 0.00244405 
-0.0389112 -0.0371107 -0.00309168 -0.00324931 -0.00411878 -0.00724179 -0.00239844 -0.00283523 0.0294011 
-0.027614 0.0102379 0.00817421 0.0577586 0.0539944 0.053135 0.0100474 0.0323422 -0.0265504 
0.00164823 0.00386805 0.0298902 -0.0270236 0.0261358 -0.0351301 -0.0352402 -0.000178529 -0.000450077 
0.0253475 -0.0149951 -0.017829 -0.0125948 0.00066536 0.0272199 0.0364706 0.0339826 -0.00956625 
0.032075 -0.00999781 -0.0200342 -0.0175352 0.00249882 0.00177904 -0.000696884 -0.0112121 -0.0255179 
-0.0301354 -0.0263284 -0.00989143 -0.00922554 0.000713584 -0.00311944 0.00498194 0.0176815 0.0169193 
0.0147058 -0.00202005 -0.00535356 -0.0043021 0.0152395 -0.0112757 0.00154441 0.000681639 -0.0113636 
-0.00187369 -0.000464656 -0.00107236 0.00156777 -0.0104434 0.0033753 0.0148222 0.0129557 -0.00159674 
-0.00160627 -0.0103756 7.55264e-06 0.00501917 -0.0343813 -0.028167 -0.024293 -0.030939 -0.000260588 
0.00132227 -0.00234762 0.00238955 0.0302999 -0.00227248 -0.00646276 -0.00838136 0.0103323 0.00958651 
0.0110876 -0.000180848 0.00692374 0.00201813 0.0133237 0.00953203 -0.0405926 0.0491528 0.0430935 
-0.00118296 -0.00267295 0.0132829 -0.0210845 -0.00137113 0.0018537 -0.00101988 0.0120967 -0.00213523 
-0.0181826 -0.00170827 0.0212179 0.0194843 -0.0029696 -0.00331131 -0.0089588 -0.00689303 0.0081602 
0.0106433 -0.0150696 0.00422554 0.0029662 0.00160317 0.00285911 -0.0151685 0.0124232 0.0135884 
0.00618509 0.00404998 -0.00947406 0.00304564 -0.0154971 -0.00171723 0.0216852 0.0134457 0.0128354 
-0.0291388 -0.0137603 0.0425886 -0.0120543 -0.00766334 -0.00868007 0.0029177 0.00988825 0.0107898 
0.0121953 0.00383867 0.00320316 0.00433315 -0.0192446 -0.016615 0.0022633 -0.0129192 -0.00841938 
-0.00741682 -0.0152991 -0.00320087 -0.00144136 -0.00424366 -0.0198518 -0.0083628 0.000586216 0.000383891 
-0.00799405 0.0438586 0.0463232 -0.0015301 0.0487431 -0.00151509 0.0386519 0.0464667 0.00346804 
0.00385556 0.00340029 0.0117313 0.0119575 0.00396316 0.00266598 -0.0174169 0.00193862 0.0127607 
-0.0243917 0.0217982 0.0109967 0.00159833 0.0203583 -0.0176288 -0.0222087 0.00770404 0.00755426 
-0.013593 -0.0079542 0.00147464 -0.0031012 0.0040964 -0.00371069 -0.00458435 -0.00834495 0.00753653 
0.00744533 -0.000721859 -0.00433428 -0.0121073 0.000680357 -0.0146585 0.00645166 0.0378343 0.0381965 
-0.00442793 0.00559216 0.013957 0.0144113 0.000928716 0.00249112 0.00199958 -0.010346 -0.000402473 
0.0246594 0.0288017 -0.00671637 0.00299707 -0.0550891 -0.0654168 -0.00845231 -0.00301534 -0.0551593 
0.0368641 0.0356599 -0.00478727 0.00510348 0.004065 0.00363709 0.00557994 0.0052099 0.0272099 
0.0108521 -0.00452218 -0.0233634 -0.00177456 0.0084862 0.00274899 0.0125433 0.00187965 0.00140063 
-0.0287254 -0.022626 -0.0335361 -0.0452073 0.0324263 0.0147629 -0.0261079 -0.00689025 0.0132938 
-0.0118777 -0.0106051 0.0207277 0.00898852 0.0189424 0.0157012 -0.00552576 -0.00254596 -0.00594067 
-0.0150532 0.00232823 0.00412418 0.0113183 0.0101344 0.0431105 0.0062254 0.00504909 -0.029563 
-0.0269385 -0.0268786 0.010659 -0.0143347 0.00241982 -0.00901017 0.0142583 -0.00259288 0.0236863 
0.0501299 0.0361404 0.0254212 -0.00706385 0.00907641 0.00893302 0.0121943 0.0112169 0.0123515 
0.00387807 -0.0269188 -0.0322232 -0.021563 0.00735167 -0.0071155 -0.0317535 -0.0312553 -0.0419792 
0.0180609 -0.000105043 0.0212218 0.0199697 0.0148503 0.01882 0.020227 0.00203696 0.0189465 
0.0192428 0.0132375 0.0102006 -0.0213721 0.000894405 0.0277558 0.0228634 0.0190706 0.0190398 
0.0223777 0.0263209 0.0263335 -0.00861662 0.017569 -0.0174563 0.00204325 0.00191601 -0.00431867 
-0.00534279 0.00463655 0.0033014 -0.00326622 0.0407863 -0.00291399 0.000914897 0.000365174 -0.00427378 
-0.00116782 -0.0039652 0.00591349 -0.0258216 -0.0376934 0.017219 0.00446928 0.0307226 -0.0610804 
-0.0263894 -0.00215014 -0.00172485 -0.0113632 0.0130848 0.0169534 0.0128367 -0.00249676 0.00310927 
-0.00600055 -0.00692673 -0.00652483 -0.0107042 -0.00833597 0.000198111 -0.0251684 -0.00774576 0.0143097 
0.0120702 -0.00898372 0.0266054 -0.00693169 0.0328151 -0.000341179 -0.00127676 -0.0013566 -0.00938217 
-0.00754471 0.0239597 0.0207479 -0.00231187 0.0161897 0.00724229 0.00249044 0.00103811 -0.0234694 
0.0153107 0.00818851 -0.000476255 0.00242652 -0.00329174 0.00818529 -0.000188881 0.00689957 0.0105532 
0.000640223 -0.0140771 -0.0131421 -0.0142779 -0.0112684 -0.0223311 0.00143583 0.027567 0.0341977 
0.0231798 0.0368174 0.0284697 0.0291149 -0.00411644 -0.00671349 -0.0297004 0.00252365 -0.000751888 
0.00217421 0.00125007 0.0601994 0.0689862 -0.00158248 -0.00147595 -0.00279958 -0.0312285 -0.0126678 
-0.0216403 -0.0208919 -0.00389427 0.0199141 -0.00123967 0.0626923 -0.0459758 -0.0513231 0.0430284 
0.040128 0.00308869 -0.0119862 -0.00625278 -0.00540388 -0.000721474 -0.00197779 0.000343897 0.0211587 
0.00733785 0.0133949 0.0146444 0.00160757 -0.0231758 -0.0074871 -7.25313e-06 0.0119604 -0.00413519 
-0.060133 -0.0129235 0.00115569 -0.000368966 -0.0188303 0.0130594 -0.0148773 -0.0140334 0.000980788 
0.0137402 0.0247197 0.00417296 0.00480966 0.0279662 0.0055864 0.00738058 0.0553564 0.0533185 
0.040134 0.0353554 0.00503755 0.0120397 -0.00276632 0.0417204 -0.0408347 0.0174458 0.0384961 
-0.00658455 -0.00277381 0.0118934 -0.00376999 0.00286362 0.00575224 0.0191478 0.0160739 0.0160658 
0.0192456 0.00103269 0.0369746 0.0309189 -0.0118863 -0.00896909 0.0127466 0.00451062 0.00221939 
-0.0171782 0.0134368 -0.00895074 -0.0100009 -0.0100857 0.0112563 0.0122523 0.0812178 -0.00383785 
0.000718828 0.00131082 -0.0248246 -0.0023606 -0.00161675 0.0115753 0.0102304 0.0197318 0.00517052 
0.00531511 -0.0466971 0.0325784 0.00200725 0.000632909 -0.0146058 -0.0110654 0.0131581 0.0668013 
0.0631845 0.00169248 0.00297979 0.00620178 -0.0409657 -0.000818934 0.0025443 0.0135368 0.00575156 
0.013555 0.00794783 0.00095578 0.00784373 0.0120476 -0.0132829 -0.0163466 -0.000103591 0.00824965 
-0.000757362 -0.00500989 0.00781341 0.00243851 0.024048 -0.0162718 0.000225744 0.022505 0.0232702 
0.020653 0.0229137 0.0298437 -0.0108358 -0.00161255 0.014567 0.013155 0.0338926 0.0123285 
0.00630553 0.0206983 0.0172738 0.0350498 0.0318028 0.0107064 -0.0290035 0.00343106 0.00959397 
0.000773481 0.00431416 -0.0226456 0.00861682 -0.00810904 0.0225819 -0.0129913 -0.0282884 0.00745171 
0.0126879 0.017191 -0.0203166 0.0444794 0.00691386 0.00199372 0.0313186 -0.00103064 0.00843491 
9.52273e-05 -7.11589e-05 4.75753e-05 0.00265471 -0.0170184 -0.0178002 -0.0174373 -0.00134275 -0.00864494 
-0.00838098 0.00871125 0.00493477 0.00846271 -0.00855908 -0.00869532 -0.010877 -0.0223441 -0.0234334 
-0.020725 -0.0259727 -0.0103731 -0.011506 -0.0160078 -0.00671344 -0.00688709 -0.0196916 -0.0151566 
-0.0175519 -0.0235671 -0.00182747 -0.00853781 -0.0193033 -0.0126755 -0.0109866 -0.0118835 -0.00959645 
-0.00663062 -0.00223318 -0.00239972 -0.0542787 -0.0106001 -0.0107633 -0.0267447 -0.00841664 0.000676751 
-0.0278071 -0.00679757 -0.0136977 -0.0417608 -0.034307 0.00128328 0.00507828 -0.0159598 -0.0434092 
-0.0381804 -0.0320781 -0.0131277 -0.0536566 -0.0321433 0.0373399 0.0312634 0.039528 0.0313333 
-0.0110113 -0.00899368 -0.00572956 -0.000228477 0.0345854 0.0379026 -0.0116183 0.0506431 0.0204326 
0.0162371 0.013512 0.00578401 0.0266116 0.0242894 -0.00632931 0.000977212 0.00509864 0.00458777 
0.0135863 0.016774 0.0142686 0.0118677 0.00603986 0.018571 0.022203 0.00798312 0.00523442 
0.00124195 -0.000495482 0.00984899 0.0189433 0.0231206 0.0176821 0.00666446 0.00769432 0.0083185 
0.00932586 0.00963719 0.0114314 0.0537129 0.0129418 0.00559262 -0.000727996 0.00826765 0.0262053 
-0.0139264 0.00840375 0.0121399 0.00831014 0.0167143 0.00793813 0.0059209 0.0316036 -0.192439 
-0.0211961 0.0229097 
Stress%20xz%20component 1 13529 double
9.83193e-09 -0.0257143 -5.7202e-08 0.0141754 1.33299e-05 -4.76399e-06 -1.18418e-05 2.25611e-05 -0.0181585 
-0.000771199 -0.0370797 0.00346294 0.0270583 0.00513888 -0.0140644 -0.0290146 -0.0105793 0.022968 
0.0076598 0.0246096 0.024732 0.00424388 0.0223942 0.00019602 -0.0225364 -0.0477185 0.00731522 
0.0182165 0.00826876 -0.0355622 -0.0285214 -0.00673489 0.0102584 -0.00474365 0.00502453 -0.00367356 
-0.00278622 0.00339838 -0.00863161 0.00790005 0.00368979 0.00524988 0.00518673 0.00722629 0.00841514 
-0.0270843 -0.0247781 -0.0178885 -0.0123632 -0.0133922 -0.0148383 -0.0176547 0.0152114 0.000176918 
-0.00021435 -0.000440173 -0.00024118 -0.00759885 -0.00394671 -0.00704063 -0.0108576 0.0172435 0.0131494 
0.00909047 0.0173319 0.0144596 0.0141074 0.0108096 0.00431503 -0.00523708 -0.00252452 -0.00435337 
-0.00201211 -0.000714499 -0.0019078 0.000974303 0.0157123 0.02211 0.0128096 0.0123284 0.0125408 
0.0152923 0.0129043 0.00709748 -0.00356164 -0.00370483 -0.00503314 -0.0149959 0.0063741 0.000642271 
0.00138788 -0.00100126 -0.0162121 -0.00619219 -0.0198708 -0.0156803 -0.0110824 -0.0154965 -0.0107709 
0.00971313 0.00841334 0.00809972 0.00921097 0.00390038 -0.0111318 0.00159383 0.00377265 0.00349265 
0.00446387 -0.0167716 -0.0137757 -0.0116212 -0.0149051 -0.0154655 -0.0177582 -0.0169818 0.00460169 
0.00504838 0.00591645 0.00769688 0.00746791 -0.0160746 0.00458462 -0.000605086 0.00249188 0.0107041 
0.0106395 0.0117245 0.0116305 0.0116596 0.0144153 0.0198928 -0.00370531 -0.004892 -0.00384268 
-0.00782262 -0.0120626 -0.00580608 -0.0038141 -0.00563359 -0.00686591 -0.00542633 0.0108342 0.0148791 
0.0129602 0.0114204 0.0137917 0.0112581 0.0152674 -0.00793836 0.00168894 -0.00366126 0.00589244 
0.0054925 0.00590215 0.00639132 0.00969909 0.017534 -0.0149995 -0.00873588 -0.0123675 -0.0151298 
-0.0127138 -0.015456 -0.0147321 0.0015689 0.00206343 0.00171148 -0.00155287 0.000683565 -0.000676296 
0.00264613 0.00155298 0.000616177 -0.00036745 0.000719427 0.00140974 0.000107607 -0.00107233 1.27106e-05 
0.000557965 -0.000128002 -0.000540175 0.000271068 2.8476e-05 -0.000163576 -0.000362195 -0.00131321 -0.00100062 
-0.000521016 -0.000363778 -0.00097899 0.000133685 -0.00348048 0.000484191 -0.00317632 0.00324491 0.00220215 
-2.86919e-06 -0.00106401 -0.000911986 0.00283325 0.00153065 -0.000993527 -0.00298108 -0.000415989 0.00221731 
0.00177113 -0.0010412 -0.00171973 -0.000506778 -0.000359454 0.000903804 0.000455142 -0.00177532 -0.00341482 
-0.000526601 0.000810245 0.000548652 -0.000781108 -0.00263734 0.000203145 -0.000175332 -2.04911e-05 -1.87755e-06 
1.07459e-05 1.56587e-05 1.10044e-05 2.27054e-05 1.21944e-05 1.15587e-05 1.00599e-05 2.23664e-05 1.02183e-05 
1.44131e-05 5.62875e-06 1.59201e-06 -6.01161e-06 -4.41162e-06 -1.14224e-05 -7.11873e-06 -2.18023e-05 -9.04834e-06 
-1.18485e-05 -1.20638e-05 -1.68198e-05 -1.31142e-05 -8.00939e-06 -2.5227e-06 -4.23432e-06 1.05612e-05 2.23878e-05 
-0.00331617 -0.000661223 -0.000289698 -0.000193626 -8.2974e-05 -7.96803e-05 -4.79081e-05 -4.30444e-05 -3.20314e-05 
-3.50373e-05 1.77202e-05 -3.13882e-05 -2.5132e-05 -2.25e-05 -2.69089e-05 8.93369e-06 -1.20539e-05 2.35901e-06 
1.54666e-05 3.77808e-05 5.44894e-05 -2.06983e-05 5.57625e-05 3.73537e-05 1.69151e-05 -2.82327e-06 -1.93071e-05 
-1.30332e-05 -2.31398e-05 -2.70237e-05 8.78508e-06 -2.17862e-05 -1.85888e-05 -1.8178e-05 -1.53201e-05 1.77965e-06 
-4.46478e-06 7.43429e-06 3.68164e-06 9.05076e-06 1.12413e-05 1.69181e-05 -1.00197e-05 1.4968e-05 -9.04097e-06 
-1.59501e-06 -1.27892e-05 -1.41047e-05 -1.12814e-05 -9.2235e-06 -3.21847e-06 4.89856e-06 3.67083e-06 7.20521e-06 
1.07069e-05 1.08683e-05 -1.83938e-06 -6.17822e-06 2.18901e-05 1.82405e-05 9.98444e-06 1.85142e-05 1.5454e-05 
1.89135e-07 -1.13952e-05 -2.05373e-05 -2.87288e-05 8.75945e-06 -4.07185e-05 -3.75308e-05 -2.63451e-05 -2.88536e-05 
-1.13998e-05 9.26056e-06 1.78618e-05 1.32122e-05 -1.08556e-05 2.53095e-05 3.03174e-05 -1.58686e-05 2.00763e-05 
-1.69012e-05 5.21641e-05 5.24788e-05 7.30318e-05 1.08513e-05 0.000246376 0.000524236 0.00182024 0.0128215 
-0.00719901 -0.0128898 -0.0130073 -0.0130687 -0.0123301 -0.012466 -0.0130675 -0.012639 -0.0170405 
-0.0200499 0.0138771 0.0255463 0.0134363 0.012557 0.0119545 0.0114773 0.0117298 0.0163895 
0.00512616 0.00913744 0.00722476 1.6624e-05 0.0151292 0.0137333 0.0116897 0.0108486 0.0124087 
0.0124533 0.0165935 0.0165945 -0.0119215 -0.017992 -0.0201317 -0.0107438 -0.0109015 -0.0106947 
-0.0148284 -0.0150344 -0.0101428 -0.00171648 3.0045e-07 -1.6638e-07 -2.93929e-06 -7.28112e-06 -1.32319e-05 
-1.29311e-05 -9.96076e-06 -1.27326e-05 -7.41756e-06 -7.8149e-06 -1.76596e-07 3.98914e-06 5.90589e-06 6.05883e-06 
1.11419e-05 1.23361e-05 9.94783e-06 5.926e-06 7.5432e-06 5.70242e-06 6.65074e-06 -6.00342e-06 3.75883e-06 
0.00043753 0.000908684 2.83168e-05 -1.29912e-05 2.20397e-05 2.1093e-05 4.5293e-06 1.88638e-06 -1.70608e-05 
2.08032e-06 4.32776e-06 9.78412e-06 -2.39712e-05 6.59171e-06 1.22103e-07 -7.03947e-06 1.39245e-05 6.44469e-06 
-2.28071e-05 -9.05142e-06 3.87367e-06 -1.36397e-05 1.59119e-06 6.4674e-06 -1.22646e-05 2.40285e-06 3.24112e-06 
5.61555e-06 2.33809e-06 2.77174e-06 -5.58372e-06 -3.02389e-07 -3.66637e-06 -6.16223e-06 5.31441e-06 5.8727e-07 
7.47375e-06 -2.4203e-06 4.42739e-06 2.09846e-06 1.9752e-06 1.21636e-06 -4.03191e-06 -3.63708e-07 -1.07001e-06 
1.75824e-06 -2.41818e-06 8.78342e-06 -2.42649e-06 -1.29216e-06 -4.45466e-06 -2.83512e-06 -7.59199e-07 3.05819e-06 
-1.29513e-05 -4.655e-06 9.88387e-06 1.05049e-05 6.32045e-07 2.1011e-06 -2.9863e-06 1.71915e-05 -1.14259e-05 
4.47538e-07 1.86855e-05 5.65297e-06 5.76597e-06 1.16645e-06 3.65221e-05 2.08785e-05 2.07974e-05 3.4452e-05 
-0.00270722 0.0037377 0.0141454 0.0158332 0.0118565 0.0123965 0.0118791 0.0151023 0.0147421 
0.018315 0.0283863 -0.024881 -0.0194688 -0.0129447 -0.0117911 -0.0115369 -0.011476 -0.012618 
-0.011294 -0.0166676 -0.00388685 -0.00622464 -0.0169358 -0.0144411 -0.0141598 -0.0152236 -0.0171854 
-0.018877 -0.0282754 -0.0194978 0.0138041 0.0194663 0.00828236 0.0218919 0.0149513 0.0127008 
0.0147322 0.00820324 0.00650616 0.00234167 -0.00032265 -0.000898744 0.00175981 -6.55071e-05 0.00189199 
0.000825483 0.00138706 0.00578569 -0.000368035 0.000523738 0.000496444 -0.000956595 -0.00292782 -0.000707101 
0.00111221 0.000230026 -0.0014732 -0.000140081 -0.000980273 -7.23465e-06 -0.00547395 -9.03844e-06 -0.00125037 
-0.00139809 -2.96383e-05 0.00170131 -0.000228658 -0.00112538 0.00267132 -0.00145851 0.00145188 0.00101572 
0.00371423 -0.00137724 -0.000547765 0.00452067 0.000595854 -7.15736e-05 -0.00114835 -0.00141613 0.00106661 
0.000746209 0.00292825 0.00110373 0.000644791 0.00069304 -0.000517885 7.96707e-05 0.000596069 -0.00110272 
-0.00117684 -0.00468622 -0.003555 -0.000378656 -0.00594398 0.000636318 -0.00235783 0.000575634 0.00123351 
-0.000361533 -0.000648645 0.00289815 -0.00284291 -0.000926859 -0.00116108 -0.00416911 0.00022111 -0.00259333 
0.0020992 0.00981179 -0.00109178 0.00301313 0.00113038 -0.00107417 -0.00129381 -0.000604039 -0.000206675 
-3.08946e-06 4.23358e-06 -3.96115e-06 -4.79142e-06 -4.88003e-06 2.91483e-06 -4.17239e-07 6.94511e-07 4.12051e-06 
-7.24115e-06 -4.79955e-06 -1.03481e-06 6.71839e-06 -2.878e-06 -3.53337e-06 7.90668e-07 3.08383e-06 6.8358e-06 
-3.76267e-06 -1.17728e-06 -3.04957e-07 6.53436e-07 7.37085e-08 1.69015e-06 -3.31547e-08 -4.10178e-06 -7.5314e-06 
1.53586e-06 -5.78673e-06 -6.8836e-05 0.000379453 4.13447e-05 4.50001e-05 5.05572e-05 2.68268e-05 7.96302e-06 
1.77578e-05 2.09613e-05 3.06256e-07 2.05702e-05 1.72017e-05 6.72853e-06 6.51691e-06 -1.37957e-06 1.95161e-05 
4.61262e-06 2.88524e-06 -2.12256e-05 -2.58399e-05 3.31199e-07 -1.8303e-05 -8.41479e-06 5.40923e-06 8.44036e-06 
7.49899e-06 1.0475e-05 4.42692e-06 1.157e-05 1.56731e-05 -4.87954e-07 9.30453e-06 9.16236e-06 2.3882e-06 
8.84355e-07 -2.97236e-07 -1.87115e-06 2.12649e-06 -1.17802e-06 -4.64815e-06 -3.57783e-06 -5.47438e-06 1.45992e-06 
-3.40416e-07 7.21642e-07 -1.07028e-06 7.19357e-06 3.93696e-06 1.2069e-06 -6.78729e-08 2.10584e-06 -1.52886e-06 
-2.35994e-06 -4.99249e-06 -1.58179e-06 2.61586e-06 -1.04021e-05 -7.52803e-06 -1.54059e-06 -1.88326e-06 -5.26289e-06 
-4.8391e-06 5.43539e-07 5.01253e-06 1.4001e-05 3.4689e-07 1.7432e-05 1.81241e-05 -3.54596e-07 -2.26462e-06 
4.4085e-06 2.21208e-06 -2.15913e-07 -1.56684e-05 2.0345e-06 -6.51259e-06 -1.16018e-05 -2.08439e-05 -4.97119e-06 
3.53149e-06 -2.13219e-05 -2.49974e-05 -4.08357e-05 -5.33669e-06 -7.8558e-05 -0.000104568 1.45713e-05 -0.00154541 
-0.000673208 0.00178386 -0.000635463 -0.000350314 -0.00035735 -0.00225206 0.0025527 5.61637e-05 0.000392134 
0.000258674 -0.00205941 0.00307162 0.000576944 0.000407772 0.000358487 -0.00345041 0.000179025 -2.40845e-05 
0.00328276 -0.000295032 0.000341238 -0.00260845 -0.000462365 0.00340323 0.000608393 0.00112231 -0.00359832 
0.000988388 0.00207882 0.00257393 0.00170736 0.00383764 0.00148849 0.00153476 0.00187028 0.00532881 
0.00623305 0.00174571 0.00353572 -0.0114522 -0.00706701 -0.00233399 -0.0022094 -0.00216096 -0.00153311 
-0.00123288 -0.0039075 -0.00431964 -0.00415417 -0.000955219 -0.00238392 -0.00424983 -0.00139339 -0.00179546 
-0.00232013 -0.0020683 -0.0018103 -0.00179293 -0.0029286 -0.00850409 -0.00934388 0.00593429 0.00878101 
0.00488476 0.00412164 0.00366856 0.00151096 0.00346917 0.00425376 0.00371606 0.00196579 0.000713774 
-0.0014928 -0.00483175 0.00291661 -9.48195e-05 0.00108159 0.000282754 -3.25032e-06 -7.78841e-07 -1.61198e-06 
-2.81829e-06 2.31161e-06 -1.15667e-06 2.53737e-06 -2.18012e-06 -4.19027e-06 1.10731e-06 2.3755e-06 4.70111e-06 
-4.16029e-06 -2.69604e-06 -5.36852e-07 4.38825e-06 1.38298e-06 7.10225e-09 1.56862e-06 2.51922e-07 7.96829e-07 
1.69399e-06 1.70079e-06 -2.82007e-06 -2.85711e-06 -1.38819e-06 0.000265855 0.000167382 7.83635e-05 -1.52463e-07 
2.03519e-05 4.3046e-05 3.72964e-05 1.02202e-05 2.00165e-07 -1.50203e-05 1.23812e-05 2.14146e-05 -1.2267e-06 
-4.45373e-07 -1.06153e-05 4.12918e-06 6.98884e-06 -9.41487e-06 -1.03071e-05 9.3186e-06 8.82513e-07 -1.69766e-05 
5.39245e-06 5.8868e-06 -4.648e-08 -4.13079e-06 6.36522e-06 1.53661e-07 8.18077e-06 -2.89666e-06 -4.61952e-06 
3.59282e-06 6.64289e-06 6.96834e-06 -8.10194e-07 -2.7052e-07 -1.47153e-06 -6.78953e-07 -4.49614e-09 -2.00189e-06 
-8.40048e-06 5.2022e-06 6.07125e-06 -0.000409715 0.000500063 -1.99616e-07 -8.27189e-07 3.97042e-06 1.14939e-06 
1.16833e-07 -2.92585e-07 3.90931e-07 2.07082e-07 -3.74798e-06 1.78077e-06 8.19681e-07 4.56184e-06 -5.21707e-06 
-9.84635e-06 2.45743e-06 -6.32606e-09 2.96396e-06 -2.40793e-06 -1.93951e-06 1.44729e-05 -4.80669e-06 -5.73542e-06 
8.9537e-06 1.64771e-05 2.80902e-06 4.56132e-08 -6.56594e-06 -2.32209e-06 -4.13817e-06 -1.25718e-06 8.27227e-06 
-5.15575e-06 -8.23361e-06 -6.82354e-06 4.50266e-06 5.06779e-06 -1.09636e-05 -3.03101e-05 1.74941e-05 5.31085e-05 
-5.60718e-05 -0.000111419 0.000637589 0.000527521 9.33629e-05 -0.000127426 -0.000403776 4.47705e-05 0.000122139 
0.000251775 -5.76524e-05 -0.00040862 -3.26069e-05 0.000292067 0.00031655 -9.8686e-05 -0.000431421 0.000259927 
9.30081e-05 -0.000234821 0.000391248 -5.44774e-05 -0.000420441 0.000106344 -0.00034631 0.000521147 2.96003e-05 
-0.000349253 -9.93565e-05 -0.000698059 0.000541639 -1.10038e-05 -0.000162791 -0.000114594 5.07632e-05 -1.79217e-05 
0.000484468 0.00176679 0.00013521 -0.000127737 -0.000368365 -2.44366e-05 0.000210524 0.000200548 6.46277e-05 
-0.000104111 -9.84171e-05 6.21736e-05 -0.000166152 6.14806e-05 0.000146912 -7.18283e-05 0.000158153 -3.8184e-05 
3.63643e-05 2.27923e-05 -1.46299e-05 -0.000304337 -0.000610429 0.000439557 0.000111898 -0.000195936 5.84566e-05 
-4.32581e-05 -2.79877e-05 0.000106447 1.73357e-05 -0.000188703 -9.8506e-05 -6.14493e-05 0.000249194 0.000128437 
-1.1033e-05 0.000725672 -0.000114167 -0.000119107 2.44776e-06 -6.13283e-07 -4.00248e-06 4.90273e-06 5.80957e-06 
-1.22115e-06 -5.64557e-06 2.194e-08 -1.77586e-06 4.0882e-06 1.22132e-06 -7.96918e-07 -1.42988e-06 -8.08163e-07 
4.34336e-06 3.28771e-07 -1.37491e-06 -3.36634e-06 -9.78137e-09 2.66028e-06 2.53141e-07 1.45345e-06 -7.70959e-07 
-1.09731e-06 -4.76561e-05 -3.22458e-06 2.12237e-05 -1.67461e-05 0.000210124 -5.3762e-06 4.38412e-06 -1.96581e-05 
1.30002e-05 1.62957e-05 -1.61012e-07 -2.68692e-06 -1.47642e-05 7.14781e-06 5.30187e-07 -1.65674e-06 -2.26785e-06 
-8.59019e-06 -6.34685e-06 1.80106e-05 7.99176e-06 1.27886e-05 -3.82493e-06 -1.3059e-05 -3.21232e-05 1.13866e-06 
1.2096e-06 -7.82598e-06 6.3177e-06 -1.13043e-05 -2.9103e-07 -3.76218e-06 -4.81927e-06 -1.48088e-06 -2.19079e-06 
1.14797e-06 -2.79468e-06 -2.43624e-06 -4.26241e-07 -2.24508e-06 4.76082e-07 8.12511e-07 1.88257e-06 -3.455e-06 
-3.40873e-06 -2.06318e-06 6.77922e-08 -1.80434e-06 9.66486e-07 -6.4928e-07 5.87339e-07 1.26823e-06 -6.31902e-07 
2.84829e-06 2.11503e-06 2.62471e-06 2.87861e-07 -4.32852e-06 4.86143e-06 -5.67456e-07 3.1789e-06 1.84089e-06 
-3.18412e-06 -4.80528e-06 7.12549e-07 -2.47847e-06 -2.53284e-06 1.38316e-05 -1.14675e-05 3.97336e-07 -6.78723e-06 
4.07926e-06 -9.56107e-06 1.06818e-05 1.21687e-05 5.07336e-06 -5.31403e-06 2.96187e-06 2.67655e-05 8.91764e-06 
1.93728e-05 -9.19984e-06 3.68791e-05 4.29317e-05 1.53024e-05 -0.00034036 -5.85117e-06 -2.35177e-05 2.9723e-06 
7.95351e-05 -9.58834e-05 -3.48434e-05 -2.79908e-05 4.33104e-05 6.2336e-05 -2.86934e-05 -3.69081e-05 -3.80289e-05 
-4.32171e-05 3.0869e-05 4.07127e-05 -1.72866e-06 -3.6645e-05 3.92166e-05 1.68925e-05 7.6892e-05 7.01662e-06 
-9.67952e-05 2.81484e-05 -3.03299e-05 7.37676e-06 1.07691e-05 7.18167e-06 -2.74263e-05 1.36609e-05 0.000108525 
2.20291e-05 9.98032e-05 1.60476e-05 8.39643e-06 3.31768e-05 2.30245e-05 -4.40398e-05 -7.2583e-05 1.03977e-05 
9.98663e-05 1.61419e-05 8.65334e-06 -2.19014e-05 -4.05363e-05 -1.34478e-05 8.09526e-05 6.78073e-05 -7.17015e-07 
-6.00186e-06 -3.37097e-05 -4.85163e-05 8.76547e-06 2.70614e-05 3.11522e-05 -4.64553e-05 -4.90935e-05 1.87238e-05 
3.54478e-05 4.01522e-05 -0.000120264 -2.30295e-07 5.94436e-05 -5.94471e-06 -2.47061e-06 -2.54543e-05 2.90657e-05 
-2.92405e-06 2.34088e-05 -1.02635e-05 -2.886e-05 5.09873e-06 -3.36792e-06 1.76896e-06 -7.5121e-06 1.24346e-06 
6.36436e-06 -3.9294e-07 1.57258e-07 -3.69465e-06 -2.67565e-06 -3.65115e-06 2.1155e-06 6.47325e-06 3.65161e-06 
-5.58829e-06 1.6406e-06 4.96999e-06 1.22312e-06 -4.18047e-06 -9.24702e-07 3.34727e-06 2.12308e-06 -9.41528e-07 
2.02026e-06 2.76585e-06 2.74976e-05 7.52614e-06 -5.27304e-06 -1.96572e-05 -1.34929e-05 3.43948e-05 -1.17257e-06 
-7.83425e-06 -7.34287e-06 -4.84718e-06 8.30554e-06 -4.8817e-06 -8.42393e-06 -4.29913e-06 -8.27511e-06 -1.35451e-05 
1.74134e-05 -1.39807e-06 -1.12599e-05 -5.61265e-06 -4.82415e-06 -7.70598e-09 -4.38305e-06 3.18487e-06 -2.11838e-06 
-2.86983e-06 -3.33788e-06 -2.19241e-06 2.75015e-06 6.68298e-07 1.01415e-06 4.16414e-06 -3.07713e-06 3.61462e-07 
2.15884e-06 3.61774e-07 9.96634e-07 1.84634e-06 4.0074e-08 3.34061e-06 7.36882e-07 4.52149e-07 8.22848e-07 
1.47207e-06 4.5095e-06 4.13168e-06 1.16819e-05 -1.31624e-06 6.00214e-06 -1.11266e-05 -9.94968e-06 -9.66485e-06 
-1.07668e-05 6.90495e-08 3.13448e-06 8.44972e-06 5.89854e-06 1.35358e-05 9.17789e-06 6.64523e-06 -9.01128e-06 
4.30672e-06 2.186e-05 8.32064e-06 1.19632e-05 -2.1435e-05 -2.77867e-05 -2.11678e-05 -5.70206e-06 1.59504e-07 
-5.84641e-05 8.9073e-06 -4.62923e-06 -1.61208e-05 -1.96068e-06 -1.48162e-05 1.31495e-06 6.41199e-06 -5.75429e-06 
-1.04426e-05 -1.06486e-05 -8.1455e-06 1.09194e-05 1.90736e-06 -1.48761e-05 4.41016e-06 2.0035e-05 2.76246e-06 
1.75001e-05 9.8301e-06 4.08616e-06 -2.26248e-05 9.96463e-06 4.21663e-05 -9.85547e-06 -9.43892e-06 -6.7341e-06 
3.16663e-05 6.43353e-06 1.21227e-05 3.70163e-05 -3.99643e-06 -1.25647e-05 -1.70404e-05 -7.66844e-06 -3.95011e-05 
2.07936e-05 -1.26234e-05 3.12526e-05 4.84545e-06 -9.70486e-07 -2.25174e-05 2.25066e-05 3.51688e-06 4.36161e-05 
7.42126e-06 3.0519e-06 6.49873e-05 -5.66617e-05 -1.15078e-05 -9.11987e-06 -2.2121e-05 -1.49092e-05 -2.69135e-05 
1.42621e-05 -1.3733e-05 -2.56024e-06 -2.72986e-05 -8.17584e-07 3.32881e-05 -1.7945e-05 2.14987e-05 -2.79451e-05 
-4.09583e-05 -1.41971e-05 -4.26463e-05 -1.28437e-06 7.24466e-06 1.81466e-06 -1.63599e-06 -5.03637e-06 -2.5347e-06 
-1.28902e-05 1.26299e-05 -6.06431e-06 5.42748e-06 1.35307e-06 2.70649e-06 -2.44131e-06 5.97544e-06 2.70332e-06 
1.96396e-06 1.92487e-07 -1.53757e-06 -4.11493e-05 -1.21834e-05 2.07038e-05 -5.85092e-06 4.55238e-06 -5.90386e-06 
-8.18468e-06 -4.78787e-06 -6.69567e-06 -3.58379e-07 -2.34776e-06 -1.08234e-05 -1.42483e-05 1.97263e-05 -4.36049e-07 
1.36695e-05 6.91019e-06 6.62529e-06 -2.86851e-06 -5.12465e-06 1.4206e-06 -2.4335e-06 -1.61325e-06 3.97036e-06 
-2.94562e-05 3.26868e-07 -2.20422e-06 1.7347e-06 1.03239e-06 3.9887e-06 2.00366e-07 3.6419e-06 -2.40025e-06 
-2.6349e-06 -3.53937e-06 1.71937e-05 -7.84691e-06 5.37953e-06 -3.80843e-06 -1.02629e-06 -6.44507e-06 5.42011e-10 
6.83399e-08 -3.5118e-08 -3.37613e-06 -9.54354e-07 -3.99581e-06 5.20458e-06 1.79315e-05 4.85867e-06 6.13336e-06 
-8.79372e-06 4.57808e-06 -3.20317e-05 -8.16202e-06 -1.1032e-05 -2.04442e-06 -2.09872e-05 -4.31242e-06 1.95342e-05 
-3.35871e-06 -4.20728e-06 -5.63434e-06 -3.77806e-07 -2.99008e-06 -9.49714e-06 -1.21093e-05 2.2396e-06 1.78749e-05 
1.42781e-05 -6.83782e-06 1.46123e-05 7.68785e-06 -1.32715e-05 -8.37205e-06 2.89466e-05 -5.23037e-05 -2.4554e-07 
2.13567e-06 1.29313e-06 -1.82725e-05 3.04651e-05 -1.65141e-05 -2.42398e-05 3.37618e-05 -3.75995e-06 -2.95371e-05 
1.07006e-05 6.22832e-07 1.7403e-05 -3.51293e-05 5.60603e-06 -2.61997e-06 -1.09594e-07 -2.31456e-05 1.3291e-06 
-1.70784e-05 2.93018e-05 -5.54198e-06 8.93404e-06 -1.44774e-05 -7.33086e-06 -1.52874e-05 -4.77346e-05 1.85865e-05 
-3.59253e-05 1.93903e-06 1.61035e-06 -5.21226e-07 4.95566e-05 -1.92265e-05 -2.52761e-05 -1.23821e-05 4.72982e-05 
-2.83024e-05 1.82983e-05 -5.2448e-06 2.22233e-06 -3.2357e-06 -1.00508e-05 2.61055e-06 2.98711e-05 -1.85568e-05 
-1.23901e-05 3.60873e-06 8.47746e-06 4.99746e-07 1.03653e-06 1.98705e-05 -1.45743e-05 -4.71066e-07 2.69111e-06 
-3.11626e-06 1.48812e-06 -9.80527e-06 1.97477e-05 -2.18752e-07 -3.184e-05 4.6796e-05 1.42367e-05 -1.02829e-06 
-3.0441e-06 -1.14752e-07 -6.4658e-06 -7.61477e-07 1.24584e-05 -4.22308e-06 -1.66816e-06 -9.84662e-06 -2.11873e-07 
-1.64127e-05 -5.23678e-06 -1.21127e-05 -1.98874e-05 -1.53358e-05 -1.00627e-05 -5.55503e-06 -5.45404e-06 5.40847e-06 
-1.3222e-05 -1.50464e-05 -2.42801e-05 -4.98335e-06 2.87005e-05 2.46347e-06 2.1386e-05 -1.57001e-05 -1.77344e-06 
-7.46867e-06 6.70663e-06 3.39898e-05 -1.62703e-07 -1.37832e-05 3.34959e-05 -5.85347e-06 -1.85484e-05 -4.51141e-06 
8.42546e-06 -1.47833e-05 1.05853e-05 1.66081e-06 2.47367e-05 2.21872e-05 -7.77902e-06 3.75312e-05 3.07144e-05 
-2.45645e-06 -7.39807e-06 -4.33453e-05 5.5181e-07 -1.29431e-05 1.57876e-05 -1.70457e-05 -9.01346e-06 9.55927e-06 
-1.51466e-05 2.09731e-05 -1.37944e-05 -1.64279e-05 2.00995e-05 -4.96745e-06 -6.48379e-06 1.04252e-05 -1.34073e-05 
3.70762e-06 -4.9571e-06 -1.08359e-05 1.85602e-05 2.25203e-05 2.16102e-05 -3.52126e-08 1.21387e-07 2.03423e-06 
4.43957e-06 2.50158e-06 -1.12206e-06 6.52953e-07 7.36045e-06 2.06644e-06 -1.36959e-06 -2.39568e-06 2.22615e-06 
-8.14036e-07 -6.40302e-06 -1.42551e-06 6.1188e-07 -3.37546e-07 -3.87602e-06 -1.52664e-06 1.16934e-06 4.64324e-06 
-1.31129e-06 -0.000852881 0.00013594 -5.74709e-07 -6.37504e-07 -2.72573e-05 -1.19134e-05 8.73319e-07 1.33774e-06 
-6.59596e-06 -1.07939e-05 5.63182e-06 8.24205e-06 -1.34829e-05 -1.06671e-05 5.56979e-06 1.05496e-05 -4.88391e-06 
-2.75418e-06 7.22698e-07 -9.61739e-06 -1.08242e-05 5.92075e-06 -2.11173e-06 -1.868e-06 -2.56878e-06 2.98016e-06 
-3.61535e-06 3.38578e-07 1.45211e-06 2.78407e-06 -3.20086e-06 -1.45446e-06 -5.63882e-07 2.17969e-06 -2.04652e-06 
4.00279e-06 1.92282e-06 -3.30869e-06 3.26245e-06 1.08796e-06 -2.99065e-06 -8.50117e-07 1.09907e-06 -1.04307e-06 
1.08835e-07 1.69267e-06 8.25432e-07 -7.22007e-06 -1.57405e-06 8.34493e-06 4.72241e-06 -6.19481e-06 1.18432e-06 
2.86303e-07 -6.57002e-06 1.51647e-05 3.58619e-06 -8.8282e-06 5.07363e-06 8.76638e-06 -7.41721e-06 8.6133e-06 
3.91506e-06 1.11095e-05 8.9718e-06 2.08564e-05 2.22213e-05 1.90058e-05 9.27429e-06 -0.000479736 0.00472024 
-0.000366792 -0.00114637 -0.000251616 -2.3291e-06 -0.000716683 -0.000401846 0.000486133 0.000836582 -0.000324983 
-0.000926987 0.000392086 -0.000302973 -0.000702402 0.000523614 0.000377519 0.000596653 0.000692494 0.000138598 
0.000635735 0.000628096 0.000243993 -0.00122013 -0.00192416 -0.00136333 -0.00177458 -0.00196071 -0.00202754 
-0.00170951 -0.00310197 -0.00281752 -0.00795083 -0.00872626 0.00792065 0.0037469 0.00210655 0.00235158 
0.00194202 0.00196378 0.00233941 0.00220735 0.00197488 0.00224353 0.000672735 0.000409437 0.00297148 
0.00246911 0.00229771 0.00207949 0.00227737 0.00218071 0.00270452 0.00116902 0.00487673 -0.00472724 
-0.00431756 -0.00306146 -0.00247227 -0.00261735 -0.00213101 -0.00246838 -0.00226834 -0.000349535 -0.00640113 
-0.00415522 0.000630674 -0.000699598 0.000822059 0.00531446 -0.0023884 2.03104e-06 -1.86604e-06 4.70708e-06 
-6.5052e-07 -5.65684e-07 5.81159e-06 3.01842e-06 -2.7864e-06 1.21157e-06 -2.25086e-06 2.18835e-06 -2.69955e-06 
-4.78269e-06 -1.36125e-06 7.92983e-07 -3.59113e-06 2.40084e-07 -4.34665e-07 -1.39901e-08 0.000150761 -2.05411e-05 
8.28006e-05 -0.000297906 2.12892e-05 3.07762e-06 -2.29758e-05 -1.24532e-06 5.62542e-06 -2.82305e-07 -8.22196e-06 
9.09323e-08 7.64389e-06 -7.19832e-06 5.83795e-06 -9.52888e-06 6.6217e-07 -6.34381e-06 5.8612e-06 -4.53978e-06 
-7.48129e-07 -3.62423e-06 2.19735e-06 4.78866e-06 -1.13825e-06 1.59963e-07 1.26472e-07 1.20889e-06 -1.44254e-06 
9.11988e-07 1.89446e-06 1.54918e-07 1.14002e-06 -6.98068e-07 -1.28022e-06 -6.02646e-08 -1.08413e-07 2.35414e-06 
-6.08404e-07 5.36697e-07 -3.75651e-07 -4.68049e-07 -1.27835e-06 -1.37712e-06 -1.72287e-06 -1.18311e-06 2.01224e-06 
-1.62974e-06 -3.33114e-06 3.49087e-06 1.09577e-06 5.80358e-06 8.18415e-07 -3.1882e-06 2.95913e-06 3.67595e-07 
9.5372e-06 3.12931e-06 -3.42804e-06 1.47003e-06 6.75097e-08 -3.7244e-07 4.31724e-06 -3.04406e-06 8.23811e-07 
-2.07923e-05 -3.99989e-05 3.0498e-05 8.33435e-05 -3.47607e-05 -0.000378233 -4.15876e-05 7.45747e-05 9.39877e-05 
6.16361e-05 -0.000119525 -7.71599e-05 0.000105413 0.000148733 -8.72108e-05 -0.00011062 -7.19335e-05 -2.06106e-05 
9.11003e-06 1.3385e-05 6.62697e-05 -8.54779e-05 2.73146e-05 -7.46688e-05 -6.81535e-05 -0.000128397 0.000113418 
-8.30546e-05 -0.000158037 -0.000162225 -0.00034551 -0.000131832 -0.000150187 4.12255e-05 -0.000607128 -0.000114273 
0.000207588 -0.000231877 0.000694002 -0.000315491 3.02931e-05 0.000201048 -1.71354e-05 1.13842e-05 0.000517892 
0.000373814 9.41005e-05 0.000407762 -0.000323258 -0.000172504 3.45926e-05 -2.15133e-06 5.50816e-05 4.6429e-07 
-9.78162e-05 0.000370594 0.000137405 -0.00068821 -0.000446641 -0.000422807 -0.000420382 0.000123055 -0.000442011 
-0.000315746 -0.000310653 -0.000279205 -1.6352e-06 0.0012805 0.00037001 -0.00156146 0.000100022 0.000282759 
-0.000123531 -0.000568079 -0.000392318 -3.15442e-05 -4.97271e-05 4.98501e-06 6.59245e-05 1.00236e-06 1.35237e-06 
3.28597e-06 -3.74772e-06 1.83745e-07 -2.80997e-06 -3.31703e-06 1.64746e-06 -2.24803e-06 -3.5266e-06 7.70223e-07 
2.09408e-07 5.58684e-05 -2.10804e-06 -2.62018e-06 1.54778e-05 1.63453e-05 -8.96267e-06 9.18654e-06 9.17027e-06 
2.3891e-06 2.86313e-06 9.662e-07 4.11525e-06 8.73649e-06 -9.28651e-06 7.83142e-06 1.56238e-05 -2.07846e-05 
1.66276e-06 6.10367e-06 8.58078e-07 3.21649e-06 2.06404e-06 1.82221e-06 2.78672e-06 2.66188e-06 1.75632e-06 
2.34244e-06 -2.06019e-06 1.55058e-07 -3.61184e-06 5.23216e-07 -8.97081e-05 2.93924e-06 2.65782e-07 -1.52993e-06 
1.46978e-05 2.38466e-06 -5.80129e-05 -1.5636e-06 -1.80528e-06 -2.20569e-06 -1.96979e-06 -4.00033e-06 -3.12636e-06 
-1.23698e-06 -1.12555e-06 -2.48888e-06 8.86078e-06 8.55981e-06 1.72089e-05 1.23618e-05 1.24729e-05 4.06874e-06 
1.30864e-06 6.93921e-06 1.97274e-06 -9.28247e-06 -7.69018e-06 -2.58437e-06 -4.85256e-06 -1.32708e-05 -7.84929e-06 
-1.19615e-05 -1.67218e-05 -3.14871e-05 4.5707e-05 6.66726e-06 -9.14357e-05 4.95044e-05 -2.31425e-05 -5.88547e-06 
6.23597e-06 1.42519e-05 -1.27557e-05 -1.30728e-05 -2.73782e-05 3.41822e-07 2.13765e-05 -7.51265e-06 -5.06379e-06 
7.82968e-06 1.97926e-05 -2.41882e-05 3.2869e-06 -3.66442e-05 0.000109276 -1.94264e-05 -2.13061e-06 -4.24413e-05 
-5.96138e-05 -2.27816e-05 9.30201e-06 -5.82489e-05 1.44729e-05 2.35814e-05 5.95107e-05 -1.42011e-06 -0.00016207 
-1.84133e-05 -1.36828e-05 2.13902e-05 -2.26418e-05 1.0542e-05 -2.67748e-05 5.3864e-05 -5.60245e-05 -7.22863e-07 
1.54113e-05 3.75065e-06 -3.93773e-05 -5.7938e-06 1.24484e-06 8.89563e-06 -3.57842e-06 -2.85563e-06 7.29236e-07 
4.08158e-06 4.39422e-06 1.64346e-05 -0.000117237 -7.49017e-05 0.000167309 7.47529e-07 3.49562e-05 8.28562e-05 
9.73202e-07 5.8697e-05 -8.3801e-05 -8.13737e-05 1.82304e-05 -4.74344e-05 -7.14198e-05 9.1522e-05 4.05399e-05 
7.25944e-05 -1.6625e-06 2.96121e-06 -2.50556e-06 3.36817e-06 3.32021e-07 1.05637e-06 -4.47717e-06 -2.79321e-06 
2.55889e-06 -6.25418e-06 -2.49565e-05 5.09381e-07 1.11162e-05 -2.5718e-06 3.41907e-06 -2.97841e-06 3.40767e-06 
4.28631e-06 -8.42239e-07 -9.8851e-06 -9.79326e-06 4.89087e-06 -1.46881e-06 -1.22458e-06 -5.9849e-07 -1.21803e-06 
1.14378e-06 3.8313e-07 1.41399e-06 3.73879e-06 -2.15103e-06 -6.40173e-06 -5.4281e-06 -1.43891e-06 6.96376e-07 
-2.84896e-06 -2.0998e-06 -1.35319e-06 -1.61494e-06 -2.81814e-06 -4.7693e-06 -6.46514e-06 3.95596e-06 -6.0832e-06 
-1.28202e-05 3.79872e-06 6.58341e-07 -1.68387e-07 3.65283e-06 -4.47663e-06 -5.62969e-06 3.74564e-06 -1.71749e-06 
-6.75589e-06 -1.96203e-05 -9.0347e-06 -3.17629e-05 3.9828e-05 4.11993e-05 2.21173e-05 -6.23088e-07 -3.68046e-05 
1.08016e-05 1.42662e-05 -5.18707e-06 -7.42995e-06 -1.74627e-05 -9.159e-06 -1.19035e-05 -1.62079e-06 1.45287e-05 
8.08525e-06 9.59831e-06 -9.90125e-06 2.60165e-05 6.00287e-06 1.08992e-05 -3.60956e-07 2.47199e-05 1.03455e-05 
5.64779e-06 1.17978e-06 -7.02139e-06 1.71395e-05 3.1482e-05 4.08631e-05 5.97569e-05 -7.76477e-05 -2.56621e-05 
1.05719e-05 -7.49931e-06 -1.12073e-05 3.5104e-05 -4.83207e-05 4.38391e-06 -1.41787e-05 -4.58782e-05 2.69679e-06 
2.08489e-05 2.08343e-06 4.99317e-05 5.29516e-06 -2.61153e-06 6.96743e-06 -1.03595e-05 2.52164e-05 1.73518e-05 
4.88986e-06 -3.0975e-05 5.07839e-06 -4.34962e-05 -4.99671e-06 -4.88899e-06 -5.22113e-06 2.46281e-06 -1.97252e-06 
2.01465e-06 4.2122e-05 -3.708e-05 2.40803e-06 6.21661e-06 6.21877e-06 6.82338e-07 -2.16845e-05 1.03967e-05 
2.37649e-05 -6.25806e-05 3.19508e-06 -3.25317e-07 -4.64524e-06 7.3537e-06 -1.31786e-05 1.95059e-06 4.58722e-06 
8.05985e-06 -1.8087e-05 8.31685e-06 -1.55622e-05 -4.7847e-06 5.59049e-06 2.36263e-06 3.95874e-07 -3.29984e-06 
1.66227e-06 1.04555e-05 1.65716e-05 -2.01334e-06 3.64968e-06 -1.96928e-06 1.94943e-06 -7.75212e-07 3.99577e-06 
5.543e-06 -1.07524e-05 -9.63776e-06 -1.78275e-06 2.69694e-05 -4.89196e-06 -1.71917e-06 -2.8175e-06 7.71418e-06 
-4.73348e-06 -1.43579e-05 -7.1506e-06 -1.35442e-05 -2.22711e-05 1.55106e-05 -5.94529e-06 -2.3962e-05 -1.2267e-05 
-2.58699e-06 1.19035e-06 2.10999e-05 1.75016e-05 1.38954e-05 2.41058e-05 -1.68685e-05 -7.86724e-06 -9.52158e-05 
2.46688e-05 1.69153e-05 1.39236e-05 -4.54903e-06 -1.39405e-05 5.47562e-06 -5.74869e-07 4.26443e-06 -2.98412e-05 
-1.3319e-05 2.04564e-05 1.48489e-08 8.49147e-06 -3.79919e-06 7.07516e-06 1.27772e-05 4.29568e-06 -5.91222e-06 
4.06855e-06 1.835e-05 -2.10979e-05 7.4237e-06 7.59524e-06 2.54808e-06 2.68684e-06 1.53507e-05 1.44329e-05 
1.62644e-05 -3.09843e-06 5.87468e-07 7.73556e-05 1.46803e-05 1.30397e-05 -2.20461e-05 1.3138e-05 4.6169e-05 
-1.89452e-06 -4.19107e-06 2.4862e-05 -3.15273e-06 1.30682e-05 1.91385e-06 5.33993e-06 -6.51262e-06 1.98794e-05 
2.91908e-06 -1.66513e-06 1.60735e-05 1.91502e-05 -2.26696e-06 -5.11862e-06 -1.80874e-05 1.11545e-05 -2.29344e-06 
-1.2806e-06 2.42805e-06 4.23339e-06 7.782e-06 1.51401e-05 2.80954e-05 -4.1882e-05 -1.42249e-05 -3.36253e-06 
-2.10121e-05 -7.25029e-06 -5.23238e-05 -8.94949e-06 1.71287e-05 2.51096e-05 -1.79774e-05 7.82811e-07 -3.67357e-05 
4.22548e-05 -8.17007e-06 4.68955e-06 -3.82421e-05 -1.38872e-05 1.71613e-05 -2.22106e-05 1.05059e-05 1.63064e-05 
1.17714e-05 -1.84091e-05 6.83852e-05 -1.95043e-05 1.8844e-05 2.5581e-05 -6.17596e-06 -2.44912e-05 -4.87266e-05 
4.44805e-05 -1.2093e-05 -1.64902e-06 -8.76696e-06 -1.82706e-06 9.62697e-07 -1.07485e-05 -8.8902e-06 6.22026e-06 
2.00252e-05 2.05665e-05 -5.04176e-06 -1.24032e-05 7.65513e-07 -6.9387e-06 -4.66852e-06 -1.91013e-05 -8.82125e-06 
-1.2513e-05 -3.29547e-05 2.39744e-06 6.9438e-06 -9.8333e-06 1.82972e-05 -1.76795e-05 -3.66822e-05 -1.42788e-05 
2.4843e-05 0.00678268 -0.0160552 -0.000150044 0.0177372 0.0103941 0.00389586 -0.000779766 -0.000995554 
-0.00294413 -0.000900271 -0.00219306 0.00617165 0.00653347 0.00687478 0.0128771 0.00845358 -0.0293662 
-0.0248003 -0.0231783 -0.0171954 -0.019442 -0.0198677 -0.0143322 -0.0269158 -0.017489 -0.00375585 
0.0103067 -0.0037093 -0.00162973 0.0170839 -0.00593679 -0.00427105 -0.00471676 -0.0109506 -0.0119896 
0.0239011 0.0161397 0.0123292 0.0128334 0.0153785 0.0190133 0.0211943 0.0237804 0.0107819 
0.00171365 -0.00135866 -0.0045039 -0.022917 0.0111242 0.00204052 0.00105255 -0.00256577 -0.0173967 
0.0199124 0.016069 0.0206224 0.0149317 0.0166456 0.0136478 0.0149596 0.0155696 -0.0105349 
0.00139846 -0.00390953 -0.00396696 -0.00897031 -0.0024804 -0.0151617 0.0033078 -0.000639425 -0.000863302 
0.0160207 -0.0245227 -0.0212569 -0.0117797 -0.0208058 -0.0127548 -0.0141925 -0.0130389 -0.0283627 
-0.00421532 0.00746177 0.00725152 0.00960176 0.00978505 0.00603614 -0.0285594 0.00924751 -0.00784154 
0.00325417 0.000109494 0.0219735 -0.0273175 -0.0136081 -0.0152895 -0.0180631 -0.019691 -0.0206025 
-0.0219955 -0.0266324 0.0164569 0.00367862 0.00526431 0.0070757 0.00856985 0.00805376 0.0235196 
-0.00643841 0.00529509 -0.000513015 -0.0155643 0.0187832 0.0135997 0.0150772 0.012946 0.0131223 
0.0137108 0.0238964 0.0236505 -0.00815234 -0.00654279 -0.00488674 -0.00579827 -0.0106742 -0.00586843 
-0.00827638 -0.00386223 -0.00516334 -0.00689283 -0.0113784 0.00606838 0.0295569 0.0185923 0.0103386 
0.0178295 0.0133577 0.0183758 0.0128856 0.0247853 0.00899272 -0.000928854 0.000727715 -0.0004196 
-0.00935363 0.0139065 0.00556195 0.00579873 0.00823319 0.0110185 -0.00255549 -0.0438768 -0.0103719 
-0.0156378 -0.0168695 -0.0173564 -0.0153792 -0.0215418 -0.0232854 -0.0164479 0.00783509 0.0034574 
-0.00150911 -0.00294445 0.027875 -4.46178e-08 -5.7202e-08 -0.0141102 0.00421781 -2.43241e-08 -7.64065e-09 
1.21874e-09 1.04617e-08 -8.88798e-09 -7.97955e-09 4.3448e-09 1.43247e-08 -8.68019e-09 -6.28027e-09 3.86995e-09 
1.35894e-08 -0.00058411 0.000473558 -1.06295e-08 4.82087e-09 1.65329e-08 -0.00015967 -1.05048e-08 5.69588e-10 
1.20632e-08 -0.00102314 0.00972993 6.42816e-08 2.12243e-10 4.04933e-08 -2.42755e-09 5.51647e-10 -1.37607e-09 
-2.58891e-08 1.88065e-08 -9.43496e-09 2.783e-10 2.92242e-09 -2.9262e-08 2.17479e-08 -7.37742e-09 -2.93049e-09 
1.33855e-09 -2.74287e-08 -4.31893e-10 4.87465e-10 2.77976e-08 1.66148e-09 7.65342e-09 -2.71233e-08 1.63125e-09 
2.28777e-08 -2.1362e-10 3.56902e-09 -3.91954e-08 -7.79554e-09 -5.7202e-08 -1.78686e-05 -2.74273e-05 -4.47536e-06 
1.90564e-05 2.50384e-05 2.90871e-05 2.64801e-05 3.04013e-05 2.76465e-05 2.27916e-05 3.11191e-05 3.10982e-05 
1.93336e-05 -2.3388e-06 -1.7559e-07 2.28175e-06 -1.70387e-05 -2.55528e-05 -2.8873e-05 -2.06425e-05 -2.47773e-05 
-2.72569e-05 -2.17732e-05 -1.78097e-05 -2.04025e-05 -1.48187e-05 -3.58659e-06 7.23451e-06 1.43392e-05 3.07926e-05 
0.0104914 -0.00234537 2.32104e-05 -0.000950319 -0.000370678 -6.54495e-05 -0.000117704 -0.000146701 -0.000125087 
-0.000101218 2.74811e-05 -1.34257e-05 -8.9068e-05 -8.5916e-05 -9.93912e-05 2.58303e-05 2.42131e-05 2.23041e-05 
4.59175e-05 4.35012e-05 1.77418e-05 -1.40668e-05 0.000113209 0.00012058 7.17355e-05 4.24043e-05 3.96302e-05 
-7.30623e-05 -7.93627e-05 -5.75935e-05 -2.40828e-05 1.12634e-05 -3.68097e-05 -5.33318e-05 -4.9426e-05 -3.82466e-05 
-6.39874e-06 8.65547e-06 2.48431e-05 2.45315e-05 2.45563e-05 3.21245e-05 2.26593e-05 -4.85715e-06 -9.96469e-06 
-1.92344e-05 -1.40327e-05 -3.65815e-05 -2.92796e-05 -3.14924e-05 -3.282e-05 -2.32259e-05 8.3487e-06 1.80922e-05 
1.61673e-05 1.8544e-05 7.65552e-06 -2.70904e-06 -4.38507e-06 3.45095e-05 5.9667e-05 6.48757e-05 -4.504e-06 
6.03649e-06 6.37268e-06 -9.69168e-06 -9.1334e-06 1.94005e-06 6.0067e-06 -8.40993e-05 -0.000108515 -0.000119584 
-7.746e-05 2.797e-05 3.01888e-05 5.60423e-06 -3.99735e-05 9.27276e-06 7.66036e-05 6.1474e-05 -7.30389e-06 
-2.56742e-05 3.13272e-06 0.000118582 0.000118265 1.03071e-05 1.08496e-05 0.000438071 0.000888399 0.00121496 
0.0154951 -0.00180327 -0.00359308 -0.00853054 -0.0160611 -0.012874 -0.0155838 -0.0159187 -0.016558 
-0.0144224 -0.0158621 -0.0204313 -0.0151305 0.0187638 0.0201746 0.0238042 0.0176007 0.0158383 
0.0153825 0.0150928 0.0143632 0.0141869 0.0100533 0.00878149 0.00859043 0.00682806 0.0118824 
0.0189305 0.0181004 0.0187377 0.0114622 0.0134469 0.0211214 0.0183597 0.017075 -0.0110725 
-0.0183814 -0.0194292 -0.0117795 -0.0123156 -0.0153051 -0.0147331 -0.014472 -0.00923523 -0.0113092 
-0.00422788 1.25446e-05 1.86914e-05 -6.02389e-07 -1.05812e-05 -2.08316e-05 -2.97276e-05 -2.2639e-05 -2.62735e-05 
-1.8264e-05 -7.2468e-06 -1.19811e-05 -8.09542e-06 8.73427e-06 7.08917e-06 1.74753e-05 2.65414e-05 2.04913e-05 
1.99395e-05 1.80068e-05 1.10713e-05 1.20221e-05 1.18439e-06 -1.33789e-05 -2.50786e-06 -0.000859096 0.00449141 
0.000669964 0.000246422 0.000169352 0.000128142 8.28375e-05 4.30104e-05 2.48641e-05 5.5631e-05 4.16032e-05 
1.8888e-05 2.27234e-05 5.52297e-05 2.91088e-05 -2.86357e-05 -8.89892e-05 -2.90326e-05 -0.000102815 -8.17201e-05 
-1.29432e-05 3.65464e-05 1.44983e-05 4.01503e-05 4.296e-05 1.50338e-05 3.11468e-05 3.33253e-05 1.50642e-05 
9.83028e-07 7.17592e-06 5.7004e-06 -1.27462e-05 -2.58489e-05 -2.60204e-05 -9.7615e-06 -2.46106e-05 1.85183e-05 
-1.68669e-05 5.27558e-06 2.43805e-05 1.88355e-05 2.34982e-06 6.6326e-06 3.50765e-06 -1.16296e-05 -1.80102e-05 
-1.48983e-06 -1.04664e-05 -3.1175e-05 -2.10642e-05 -2.99426e-05 -1.83942e-05 -8.79571e-06 1.97825e-05 5.25889e-05 
1.78425e-05 7.73588e-05 6.87124e-05 7.45345e-06 2.20636e-05 -1.00302e-05 -3.45236e-05 -4.57006e-06 -2.91824e-05 
-4.79715e-05 -1.41915e-05 -2.23826e-05 -7.11522e-05 -9.76685e-05 -1.93308e-05 -0.000295266 -0.00095396 -0.00526042 
-0.00495657 0.00250421 0.0158693 0.00967612 0.0177606 0.0168053 0.0166721 0.0177273 0.0185411 
0.0243667 0.0210626 0.0281181 -0.0252795 -0.02398 -0.0247127 -0.0152116 -0.0157078 -0.0156416 
-0.0161715 -0.0155689 -0.0191497 -0.0145631 -0.00323243 -0.00960118 -0.0144638 -0.02038 -0.0197307 
-0.0193569 -0.0185175 -0.0210439 -0.0267694 -0.0252422 -0.0241054 0.0135887 0.0279648 0.0246071 
0.0254871 0.0184283 0.0174246 0.0167833 0.0126387 0.0144698 0.00405765 0.00365349 1.04805e-05 
1.46466e-05 -0.00801744 0.00701987 0.0174334 -0.0346264 0.00215249 0.00239924 -0.0231377 0.000614574 
-0.000858142 -0.000667326 -0.0163625 0.00543593 0.00524848 -0.00511622 -0.00899803 -0.00110781 0.000726197 
0.00292924 0.00360253 0.00306239 0.00220734 -0.000750748 0.0036123 0.0040525 0.000390861 -0.00669988 
-0.00479887 -0.0071695 -0.00810786 -0.00844584 -0.00749067 -0.00527554 0.00274608 -0.00776368 0.0034492 
-0.00254062 0.000461286 0.00352984 -0.00524769 0.000945471 -0.00974571 -0.00929787 -0.0020629 0.00346304 
0.000760221 -0.00378024 -0.00696886 0.00356621 -0.00148029 0.00214097 0.00163596 0.00203444 0.00334377 
3.21441e-05 0.00336715 0.000526117 0.00148203 0.00155668 0.000829818 0.00220198 -0.000547692 -0.000670691 
-0.00018288 -0.00373159 -0.00265275 -0.00233282 -0.00255645 -0.00455821 0.00132912 0.00358195 0.00394053 
0.00347946 0.0017954 0.00391812 0.00596299 0.0046401 -0.00386683 0.00733276 0.000500926 0.00102969 
-0.00199103 -0.000451259 -0.00208152 0.00148921 -0.000935852 0.00653876 0.00824079 -0.000287183 0.00927249 
-0.00406577 0.00601662 0.000114931 -0.00102018 -0.00204958 -0.00684873 -0.00105731 0.00117978 0.000305297 
0.000860795 0.000232621 0.00180172 0.0011466 -0.00396531 -0.00100826 -0.00286934 0.00600332 0.00255956 
0.0091304 0.00563808 0.00354383 0.00451184 -0.00317395 0.00659916 0.00767165 -0.0104452 0.0135004 
0.0138655 -0.00669844 -0.00235883 -0.00259318 -0.00318116 -0.00348849 0.00111799 0.00977507 -0.00249093 
-0.00478061 0.0088526 0.00778162 -0.00270631 -0.000968954 0.00833649 -0.00273731 0.000638163 -0.00100468 
-0.00175923 -0.000549554 0.00199039 -0.00434794 -0.000546537 -0.00268237 0.000535145 -0.00166568 -0.00177444 
0.000383103 0.000346297 0.00243742 0.00395068 0.000879611 0.00221933 0.00425397 -0.000233159 -0.0075483 
-0.0074091 -0.0129283 -0.0136013 0.00651339 -0.00898012 -0.00761627 0.00238065 -0.0106763 -0.011529 
0.00179727 -0.00300128 -0.00441343 0.00254679 -0.00504663 0.00742306 0.00399598 0.00387617 0.00473133 
0.0046309 -0.000661994 0.00570331 -0.00256541 -0.00192997 0.00593312 -0.00430513 -0.00310296 -0.00340569 
0.000924594 0.00345192 0.00172057 0.00674596 0.0056946 0.00114128 -0.000663176 -0.00036698 0.000571677 
0.00105757 -0.000715314 -0.000256996 0.000453173 -0.000283342 -0.000961165 0.00150761 -0.000126119 0.000971835 
-0.00237041 0.00158021 -0.000802751 -0.00676699 -0.00508145 -0.00712452 -0.00891721 -0.00824396 0.00361351 
-0.0082525 -0.00844375 0.00229276 -0.00985582 -0.00868061 0.00246136 -0.00778225 0.00439249 0.00412969 
0.00305419 0.00260854 0.000719449 -0.0114619 -2.25326e-05 0.0045621 -0.00879811 0.00329898 0.000350488 
0.00369743 0.00825183 -0.0109769 0.0032933 0.000984235 0.00262986 0.00299245 -0.0111893 0.005147 
-0.000147797 0.00238326 1.32883e-07 -0.0011224 0.00161312 -9.61404e-05 0.00061654 0.00150722 0.00281444 
0.00226775 -0.000219509 -0.000433035 -0.00393881 0.00123773 0.000962798 0.00993145 0.00593112 0.00661165 
0.0035567 0.00410882 0.00435983 0.00518639 -0.00379137 0.000603153 -0.00348708 -0.00466225 -0.00386603 
-0.000355413 -0.000513407 -0.0052916 0.00680818 -0.00361538 -0.0032215 -0.00651464 0.00427617 0.0138179 
-0.011459 0.00321649 0.00336068 0.0134722 4.67682e-05 -1.06892e-05 0.000274082 -0.00314901 -0.00353008 
-0.000189131 -0.00712651 -0.00301165 0.00105868 -0.00212823 0.000512731 -0.00313037 -0.00109857 -0.000348884 
-0.00206684 -0.00133199 -0.00131722 -0.00351766 -0.00404183 0.00115319 -0.00635217 -0.00350003 -0.00116739 
0.00832203 0.0105164 0.0121625 0.00722996 -0.00265666 0.00370231 0.00217785 -0.00211835 0.00828199 
0.00752882 -0.00280917 0.00681748 0.00764112 -0.000920934 -0.00119669 -0.00624185 0.00119301 0.00346619 
0.000929205 -0.000228351 0.00167991 -0.00436526 -0.00063418 0.00466571 0.00012654 -0.000373729 -0.00336027 
-0.00192733 6.6325e-05 -0.000297456 -0.000548804 0.00689619 0.00419515 0.0037018 0.00159477 0.00118669 
-0.00167515 0.0029064 0.00471114 -0.00135415 -0.00263889 -0.00873693 -0.00334167 -0.00461344 0.00172864 
-0.00591708 -0.00835868 -0.000106426 -0.00787967 -0.0060065 0.00374436 -0.00507017 -0.00773559 0.00187944 
-0.00957942 -0.00645799 -0.00141792 0.00111516 -0.00245976 0.000634687 0.00107987 0.00186091 0.00995776 
-0.0120249 0.00328803 0.002832 0.00495466 0.00129696 -0.0135912 0.00451962 0.000586502 -0.00150788 
0.000676024 -3.48019e-05 0.00162543 -0.000519849 0.00110307 0.0017009 -0.000620605 6.39732e-05 -0.000103708 
9.83193e-09 -1.15486e-08 -0.00176937 -0.000419315 1.18707e-09 -0.00874798 0.0121287 -0.010108 0.011764 
-0.0101949 0.0103061 -0.00979873 0.00988029 -0.00683461 0.0105638 -0.0090934 0.0105599 -0.0109617 
0.00903204 -0.0108 0.00852636 -0.00888073 0.0104986 -0.00983785 0.0114999 -0.0119836 0.0104089 
-0.0116584 0.01114 -0.00114442 -2.52493e-10 9.27537e-10 0.00153938 -0.0103898 0.0107209 -0.0112592 
0.00920967 -0.0116183 0.00737425 1.3122e-09 0.00127356 -0.0110553 0.00990505 -0.0127567 0.00990202 
-0.000463176 -3.66979e-09 -0.0100743 0.00931687 -0.000596857 -0.00122846 -0.000418224 -5.76904e-05 -0.000938355 
-1.00405e-05 -3.62181e-06 -2.88989e-06 1.62479e-05 8.36399e-06 5.81002e-06 2.24431e-06 7.57507e-07 2.94481e-06 
3.41104e-06 -3.83706e-06 -1.53406e-06 -3.0968e-07 -4.29526e-06 -1.31906e-06 7.24323e-06 1.07286e-05 -1.58042e-06 
4.40839e-06 8.91964e-06 4.66738e-06 7.62705e-06 4.99753e-06 1.0768e-05 1.0207e-05 1.21426e-05 3.54947e-06 
-1.14237e-05 -4.518e-06 -1.9628e-06 -8.62456e-06 1.1806e-06 5.46252e-07 3.87092e-06 -4.11587e-07 5.79268e-06 
1.28812e-05 2.18289e-05 -5.38621e-06 -1.75044e-05 3.47963e-06 -3.26888e-06 -2.69552e-05 -8.22776e-06 -1.34044e-06 
-6.49791e-07 -4.76045e-06 4.9835e-06 -1.25144e-06 6.89839e-06 -5.57854e-06 5.24326e-06 8.91526e-06 -6.76906e-07 
-1.10466e-05 -1.01045e-05 2.05099e-06 -5.00879e-06 -8.87088e-06 -3.27046e-06 -7.07897e-06 -5.7225e-06 -7.43928e-06 
-6.36472e-06 -4.03838e-06 -2.9931e-06 1.55929e-06 -6.6909e-06 5.9093e-06 1.00574e-05 -3.19438e-07 2.55973e-06 
-2.26694e-06 -9.55823e-07 -6.28842e-06 -5.63915e-06 -9.85855e-06 -1.75041e-06 -1.26018e-05 -1.38062e-05 -4.51265e-07 
1.37411e-05 -3.48107e-06 4.00676e-06 1.14703e-05 -4.06415e-06 -9.00098e-06 -9.47938e-06 -5.25215e-05 -0.00256882 
-0.000182855 0.000212284 2.36946e-05 0.000764053 -0.00015152 5.57685e-05 -1.47394e-05 -5.72668e-05 8.89601e-05 
-2.98108e-05 5.34134e-05 -5.11092e-06 6.54115e-06 4.16767e-06 6.39625e-06 0.000144667 2.73629e-05 2.52479e-05 
7.02648e-06 -1.98961e-05 -1.1242e-06 -2.33677e-05 -1.80446e-05 5.0625e-06 5.77606e-06 -4.89772e-06 2.54424e-05 
-4.12531e-06 3.6248e-05 2.49251e-05 3.78397e-05 -4.70808e-06 1.41621e-05 3.80855e-05 -2.33515e-05 -4.40614e-06 
-1.28247e-05 -3.43203e-05 -1.41774e-05 -8.61009e-06 3.20606e-06 1.36472e-05 -2.69005e-05 2.8246e-05 3.9138e-05 
4.62369e-05 8.28466e-06 3.38287e-05 4.60488e-05 6.18506e-06 2.50848e-05 2.71641e-05 -3.21754e-05 -1.67442e-06 
-1.05845e-05 -3.46956e-05 -3.67548e-05 -6.20453e-05 4.16831e-05 -4.0745e-05 -3.8359e-05 -2.57576e-05 -7.86176e-06 
-1.27763e-05 -1.50308e-06 -1.19995e-05 -2.95474e-05 7.79448e-06 1.07092e-06 -2.00587e-05 3.1348e-05 1.12047e-05 
2.71232e-05 3.53491e-05 2.43649e-05 4.47536e-05 -2.89482e-06 -2.00909e-05 3.05353e-05 -9.85499e-06 -2.13191e-05 
-1.9513e-05 1.05756e-05 -4.36862e-06 -2.35331e-06 1.09779e-05 2.14977e-05 2.45496e-05 1.51035e-05 -5.80978e-06 
2.01917e-05 4.94754e-06 -3.18293e-06 -3.68465e-07 -2.62002e-06 -1.24138e-06 1.32936e-05 2.92772e-06 -1.58175e-07 
2.82163e-06 -7.96113e-06 2.37567e-06 -1.78273e-06 2.88172e-06 -1.19704e-05 -4.0931e-06 1.45639e-06 1.93855e-06 
-1.15634e-05 8.33087e-06 1.1272e-05 9.78488e-06 3.90432e-06 9.12682e-06 9.90968e-06 1.06791e-06 4.07864e-06 
5.13128e-07 -2.29293e-06 5.85209e-06 -7.29189e-06 -2.09595e-06 -9.30057e-06 -2.19488e-06 -1.2066e-05 1.16135e-05 
-9.19314e-06 -6.23091e-06 -1.3342e-05 2.34467e-07 -3.08855e-06 -1.2337e-05 2.19708e-06 -3.1729e-06 -5.52569e-06 
5.86869e-06 -1.33512e-06 7.33452e-07 6.94948e-06 -3.57159e-06 -5.02274e-06 3.60743e-06 -9.0339e-06 -2.82687e-06 
-3.20743e-06 1.84918e-06 2.37116e-06 -6.70535e-06 6.5886e-06 9.32609e-06 9.05672e-06 1.75471e-06 4.56509e-06 
7.72482e-06 1.98823e-07 4.03159e-06 -7.04214e-07 -3.66702e-06 -6.08148e-06 -3.65865e-06 8.57196e-06 -8.79901e-06 
-3.26741e-06 1.09769e-05 -1.27285e-05 -1.63748e-07 -1.13981e-05 -5.37636e-06 -1.0884e-05 5.69263e-06 1.71549e-06 
-1.68556e-05 1.49226e-05 1.12027e-05 9.87479e-06 8.87069e-06 1.81221e-05 6.982e-06 -1.75692e-06 -8.93449e-06 
1.07481e-05 -1.77637e-06 -1.62166e-05 -3.45643e-05 5.34543e-07 -1.43054e-05 -1.55563e-05 6.85968e-06 -5.12194e-06 
3.37532e-06 2.11904e-05 1.94142e-05 1.94523e-05 -2.64273e-05 1.92336e-05 2.62117e-05 1.77806e-05 2.30313e-06 
7.97606e-06 -7.29885e-06 2.8184e-06 3.5901e-05 -6.08277e-06 -1.59002e-05 1.03595e-05 -3.70293e-05 -1.84671e-05 
-4.72286e-05 1.2179e-07 1.83866e-05 -2.53643e-05 5.24598e-06 3.00569e-05 4.93175e-05 -7.46878e-06 2.07864e-05 
1.3255e-05 -3.52873e-05 -2.76003e-05 -2.32976e-05 2.37956e-05 -1.1989e-05 -2.74817e-05 2.33982e-06 2.83823e-05 
1.56572e-05 -5.27083e-07 2.21939e-05 8.3268e-07 -2.5956e-05 -2.28757e-05 -8.74514e-06 -2.98857e-05 -1.75741e-05 
-2.29711e-05 3.18635e-05 -1.96589e-05 -1.36648e-05 -2.38547e-05 2.26414e-05 -8.00951e-09 -4.15379e-06 2.17958e-05 
-1.37786e-05 -4.00304e-05 -4.02647e-05 -4.21404e-06 4.59355e-05 -4.60976e-05 -6.15953e-05 -6.65962e-05 5.05127e-05 
-1.03105e-05 2.24452e-05 8.29713e-05 -3.10922e-06 3.68044e-06 -0.000200657 -7.43865e-05 0.00189171 0.0100846 
-0.00166271 -0.00994807 0.00666906 -0.00285411 -0.0049657 -0.00219172 -0.000766128 0.00173972 0.000916928 
-0.00185516 0.00198077 -0.000735674 -0.00062802 0.000346397 -0.00124929 -0.000187887 0.000949397 0.00234653 
-0.000111854 -0.00166352 3.40086e-05 0.000761735 0.00252583 0.00147578 -0.00104609 0.00113734 -0.000211052 
-0.00086941 -0.000204972 -0.00241404 0.000130484 0.000548632 0.00247024 0.000935736 -0.0020539 -8.1552e-05 
-0.000170358 0.00253074 0.00164592 -0.00110502 0.00172639 -0.000451918 -0.000263418 0.000158117 -0.00202332 
0.000368583 0.00119451 0.00208746 0.000308364 0.000239178 -0.000840564 0.000376686 0.000511411 -8.59679e-05 
0.000436976 -0.00227113 -0.00168628 -0.00139719 0.000153315 -0.00120094 0.000717271 -0.0010356 -0.00250444 
0.000601756 0.000772499 0.00188674 0.000338155 0.000231994 -0.000268679 -2.3603e-05 -0.00153982 -0.000749453 
-0.000725952 0.00124238 -0.000572857 0.000163874 0.000519867 -0.00213159 0.000585507 0.00270829 0.00333025 
-6.27007e-05 0.000482056 0.00136058 -0.000210585 -0.00575774 -0.00634907 -0.00527793 -0.00523336 0.00351623 
-0.00626793 -0.00641466 0.002285 -0.00374642 -0.00379647 0.00345767 -0.00540823 -0.00650342 0.00346671 
-0.00510725 -0.00521865 0.00192423 -0.00514537 -0.00499199 0.00204911 -0.00334703 -0.00249456 0.00322531 
-0.003352 -0.00286125 0.00519518 -0.0119567 -0.00644164 0.00545701 -0.0143671 -0.0100199 0.00402852 
0.00445605 -0.000357015 0.00248989 0.00462481 -0.00863772 0.00433152 0.00567119 -0.00401419 0.00432393 
0.00452935 -0.00328406 0.00428993 0.00421512 -0.00255671 0.00440577 0.00429062 -0.00216111 0.00602974 
0.00457455 -0.00174231 0.00391153 0.00324464 -0.00319399 0.00381205 0.00333032 -0.00405356 0.000966702 
0.00295272 -0.00446366 0.00548976 0.00391139 -0.00302488 0.00242299 0.00223424 0.00267693 0.00210763 
-0.00435166 0.00510094 0.00676701 -0.00361553 0.00404967 0.00468058 -0.00185548 0.00401177 0.00409359 
-0.00220553 0.00486028 0.00412157 -0.00253162 0.00587167 0.00512216 -0.00237629 0.00694119 0.00541147 
-0.00272774 0.00730034 0.00641334 -0.00354709 0.00368004 0.000723628 -0.00605222 0.0019909 0.00275315 
-0.0101371 -0.00664723 -9.16146e-05 -0.00318665 -0.00491964 0.00729597 -0.00334321 -0.00367527 0.00627511 
-0.00321095 -0.00292414 0.00437881 -0.00161642 -0.00269431 0.00389579 -0.00500359 -0.00388888 0.00224084 
-0.00336625 -0.00259071 0.00307524 -0.00376927 -0.00259347 0.00373951 -0.00189676 -0.00382332 0.00403878 
-0.00770782 -0.00625654 0.00315736 -0.00705082 -0.00729908 0.0020084 -0.00391806 -0.000895057 -0.00908795 
-0.00115077 -0.000943604 -0.00968215 0.00866353 -0.00544849 0.00549082 -0.00271381 5.76421e-05 0.0063391 
-0.000771465 0.00441812 -0.0040656 -0.00359547 0.0010736 -6.00065e-06 0.00167714 0.00139868 -3.67019e-06 
-4.93724e-06 -5.05188e-06 -1.57563e-05 2.49017e-06 -1.0906e-05 -1.77451e-05 -5.16624e-06 -8.01517e-06 -1.00592e-05 
-6.73355e-06 -7.56074e-06 -1.51698e-06 -6.80066e-06 -5.87172e-06 -4.50147e-06 1.00341e-05 5.86285e-07 -2.31394e-06 
8.68056e-06 -8.74171e-06 -4.24561e-06 -6.34099e-06 -2.03392e-05 -9.72428e-06 -1.00971e-05 -2.1486e-05 -9.27037e-06 
-7.76791e-06 9.68218e-06 1.60328e-05 5.45145e-06 7.49841e-07 9.39391e-06 2.7237e-06 -1.01205e-05 5.38362e-06 
1.21582e-06 -1.35193e-05 -7.20467e-06 -4.7429e-06 7.94237e-06 1.84729e-05 -2.42653e-06 8.90291e-06 1.75018e-05 
7.89903e-06 3.29999e-06 7.71013e-06 8.99447e-06 1.42833e-06 -1.25638e-06 6.04478e-06 3.64299e-06 2.26851e-06 
-1.69952e-06 2.05592e-06 9.07325e-06 -4.81892e-06 9.96933e-06 2.51847e-06 5.77457e-06 1.30002e-05 7.76162e-06 
5.84754e-06 1.33099e-05 4.40301e-06 2.98119e-06 -5.69092e-06 -2.20122e-06 -6.22765e-06 3.64635e-06 2.08143e-07 
-2.36694e-06 2.78006e-06 4.51334e-06 -5.95577e-06 -5.0282e-07 0.000497696 0.00170376 0.000234597 -7.22378e-06 
0.000648034 2.14856e-05 3.27138e-05 0.000172717 0.000110089 7.83984e-06 8.20245e-05 9.39071e-05 7.96755e-05 
6.80519e-05 5.1314e-05 3.47209e-05 9.70334e-06 4.08254e-05 -2.96625e-06 5.358e-05 4.04437e-05 2.47732e-05 
2.35252e-07 8.99341e-06 1.40074e-05 -5.21638e-06 -4.62855e-06 2.27841e-05 9.9136e-06 -1.8012e-05 1.78703e-05 
2.22072e-05 2.07008e-05 -6.59556e-06 3.2822e-05 2.63198e-05 7.17535e-06 -1.43464e-05 5.726e-06 -7.87109e-07 
-3.1694e-05 -1.46574e-05 2.50804e-05 4.81217e-06 -3.16798e-05 2.54547e-05 1.35475e-05 2.60975e-05 1.22014e-06 
1.63613e-05 1.84083e-05 -5.13017e-05 2.3351e-05 -1.72791e-05 -1.82479e-05 -1.35633e-05 -4.38008e-06 -4.84088e-06 
-1.85768e-05 -3.4408e-05 -1.049e-05 -1.38907e-05 3.26547e-05 -1.33978e-05 -1.24199e-05 -3.64496e-06 -1.68999e-06 
1.05588e-05 -5.57966e-05 2.48133e-05 -1.64276e-05 -8.78484e-06 1.78929e-05 1.23141e-05 1.06393e-05 -1.60361e-06 
1.529e-05 1.91129e-05 -2.58854e-05 -2.95533e-06 -1.56621e-05 6.46799e-06 -1.74534e-05 1.5982e-06 1.07778e-05 
1.10809e-05 3.16498e-06 8.11108e-06 1.67171e-05 8.34256e-06 -4.67988e-06 3.3911e-06 2.2941e-06 4.39407e-07 
8.50965e-06 -8.5267e-08 3.81445e-06 -1.72056e-06 7.0838e-06 -1.03646e-06 9.45969e-06 8.05633e-06 -3.04624e-06 
7.10431e-06 4.45156e-06 4.38296e-06 -7.77113e-06 -3.62478e-06 3.8432e-06 6.63146e-07 -8.36704e-06 5.91724e-06 
-7.51187e-07 6.94373e-06 3.42789e-06 -1.80554e-06 4.58668e-06 -1.01198e-06 -2.49301e-06 2.08424e-06 -9.03567e-06 
-4.85374e-06 -9.54503e-06 2.38865e-06 -5.21947e-06 -2.42672e-06 -7.88229e-06 1.12627e-05 1.0672e-05 -1.23407e-06 
-0.00344927 -0.00114044 0.000136856 0.000309893 -0.000229578 -2.22283e-06 -1.83059e-06 -5.32558e-06 -2.07378e-07 
4.85715e-06 1.19653e-06 -2.86522e-06 6.10733e-06 8.10548e-07 8.02965e-08 9.23271e-07 5.60944e-06 -5.30727e-07 
-3.34886e-06 1.07185e-06 4.9906e-06 1.87184e-06 -4.83043e-06 5.57921e-06 1.37299e-06 6.20517e-06 6.35128e-07 
1.16796e-06 1.56014e-06 -7.46333e-06 -2.29257e-06 -4.84518e-06 -2.48864e-06 -2.38966e-06 -4.74032e-08 -7.64192e-06 
-2.38523e-06 9.75326e-07 -7.5406e-06 6.14605e-07 1.08745e-06 -1.74551e-06 -9.09635e-06 -4.67802e-06 3.04612e-06 
-1.51393e-05 -1.22355e-05 -8.9328e-07 3.70714e-07 -5.37653e-06 -2.50659e-06 1.64846e-05 8.01727e-06 -1.54416e-05 
-2.77447e-06 1.53712e-05 -3.78403e-06 -8.99518e-06 -1.3082e-05 8.88272e-06 -2.95428e-06 -3.64135e-06 3.08346e-05 
-8.05493e-07 1.73574e-05 6.37619e-06 2.28678e-05 8.07428e-06 1.29536e-05 4.27764e-07 4.6002e-06 -3.44406e-06 
2.02484e-05 3.33523e-06 3.20005e-06 5.67168e-06 1.917e-05 -2.41031e-05 1.51245e-06 6.4485e-06 -8.15708e-06 
-1.82862e-05 -9.53702e-06 2.78862e-05 -6.32897e-07 -3.04813e-05 1.06656e-05 8.99428e-06 1.4005e-05 -2.6051e-05 
1.51892e-05 -8.59877e-06 -1.27284e-05 -3.50922e-05 8.18975e-07 1.8861e-05 7.58291e-08 -7.96317e-06 1.32499e-05 
9.81146e-07 8.634e-06 -1.55035e-05 9.9684e-06 -8.63784e-06 -1.55457e-05 -1.17672e-05 3.45217e-06 -1.47855e-05 
-4.39108e-05 -4.53796e-06 -1.17401e-05 -2.04057e-06 -1.70112e-05 1.44114e-06 -1.42501e-05 -1.26712e-06 -3.53782e-05 
-1.96321e-05 -2.44884e-05 -1.7093e-05 -4.37888e-05 1.63791e-05 -7.70319e-05 2.32319e-06 -3.05388e-05 -9.34699e-05 
-7.59477e-05 -6.58414e-06 -0.000305234 -0.00018143 -0.000290371 -0.000292252 0.00197674 0.000752354 0.00255715 
0.00126551 0.000499509 0.000861645 -0.00012422 0.000445968 0.000365019 -0.000556274 8.51676e-05 -0.000270995 
-0.000577699 -0.000342616 -0.000263964 0.000485324 -0.000235668 2.45514e-05 -3.88943e-06 0.000214575 -0.000236938 
5.69617e-05 0.000361808 0.000269749 -0.000274902 7.20694e-05 8.8774e-05 -0.000566716 -0.000281437 -0.000519148 
0.000629941 -0.000341705 0.000388592 7.58324e-05 2.06296e-05 0.000847882 8.92127e-05 0.000576604 0.000297506 
-0.000276963 0.000242322 8.95048e-05 -0.00115698 -0.000314248 -0.000855824 0.000584198 -3.43071e-05 -0.000298967 
0.00058963 0.000123349 -0.00113272 0.000933959 -0.000165499 0.00169187 -0.000101359 2.27277e-05 0.000238259 
-2.28285e-05 0.000248853 0.000104087 -0.00116918 -0.000323239 -0.00101635 0.000312924 -0.00011653 -0.00111317 
0.000608638 -5.32276e-05 0.000807102 0.0003171 7.04644e-05 0.000408754 2.01756e-05 0.000319257 0.000413898 
-0.00239808 -0.000189608 0.000986373 0.00195558 -5.21797e-05 -0.00375406 -0.000960062 0.00219829 0.00140077 
0.000371683 0.000573443 0.000472839 3.59503e-05 0.000594824 0.000618756 -0.000208694 0.000828953 0.000244159 
-0.000277632 0.000821201 0.000507103 -1.63864e-05 0.000462545 0.00126662 -6.27618e-05 0.00286247 0.000986598 
-0.000108414 0.00543952 0.00461454 0.000658717 0.00023966 0.000381103 -0.000747101 -0.00117363 -0.00187215 
-0.0021992 4.94575e-05 -0.000585627 -0.00132358 -0.000747354 -0.00027438 -0.000599015 9.6609e-05 -0.000351432 
-0.000374159 0.000223425 -0.000572487 -0.000383083 0.000236385 -0.0010027 -0.000504909 2.727e-05 -0.000874251 
-0.000932984 -0.000131702 -0.000168276 -0.000656062 -0.000282062 -0.00123063 -0.000644693 0.00147355 0.000941805 
-0.00085397 -0.000437952 -0.000779638 -0.000273719 -0.000183476 -0.000174163 -0.0005747 -0.000440976 -0.000820456 
-0.00104264 0.000101026 -0.000915871 -0.00100129 7.0218e-05 -0.00126583 -0.00086666 8.30448e-05 -0.00208157 
-0.000651965 0.000103294 -0.00227383 -0.00131348 0.000159924 -0.00252527 -0.00258912 2.7561e-05 0.000437965 
-0.00172337 0.000798598 0.00166544 0.00198936 0.000563779 0.0001125 1.4391e-05 0.000511489 0.000508486 
0.000508363 0.000374263 3.41392e-05 0.000350485 0.000375642 -0.000102099 0.000993904 0.000261542 -1.03307e-05 
0.000785002 0.000624482 -2.59729e-05 0.00099384 0.000382678 -0.000102943 0.00193788 0.00218547 0.000129985 
0.000388201 9.49977e-06 -0.00131499 -0.00115171 -0.000107323 -1.18009e-05 -0.000480031 -0.000486013 0.000294654 
0.000318805 0.000624709 0.000771946 0.000227945 0.000134795 0.00320956 0.000157849 -2.1469e-05 6.95205e-08 
-0.00028724 9.48641e-05 -0.00147848 0.000350236 -2.43025e-06 0.000504538 -0.00170934 0.00155554 -0.000108729 
0.000151274 -0.0008327 -0.000273191 0.00116488 0.00023979 -0.000128892 0.0010113 0.000323638 -0.000201069 
1.21691e-07 0.000162344 1.0087e-06 -4.99233e-06 -6.83415e-06 -8.13598e-06 -3.43785e-06 -6.40451e-06 -5.97953e-06 
-4.71982e-06 -3.35215e-06 -9.24769e-07 -4.19842e-06 2.18818e-06 -1.49823e-06 1.4657e-05 -9.00635e-06 -5.54232e-06 
-3.35905e-06 -9.98044e-06 -7.14745e-06 -7.30682e-06 -5.19837e-06 7.64079e-06 -9.78485e-06 3.42439e-07 -5.41064e-06 
-5.38326e-06 -5.93204e-06 2.28131e-06 3.76194e-06 -8.90034e-06 -7.78142e-06 2.75059e-06 -9.95172e-06 8.98078e-06 
3.28958e-06 1.13558e-06 -1.29838e-06 -7.53346e-06 -3.47295e-06 6.9418e-06 4.92347e-06 8.80763e-06 1.05822e-05 
6.49682e-06 2.36963e-06 9.07889e-06 6.76124e-06 8.4383e-06 1.16214e-05 4.18556e-06 8.35009e-06 6.9946e-06 
-1.59803e-06 9.18535e-06 6.97127e-06 8.82477e-07 8.81901e-06 6.65508e-06 5.05657e-06 8.58284e-06 1.97916e-06 
3.62951e-06 -1.66111e-07 2.05084e-06 -8.00926e-06 -4.56844e-06 -2.97101e-06 -3.46843e-06 -3.69903e-06 -2.96489e-06 
4.95653e-07 2.08893e-06 4.74851e-05 0.00023084 9.32826e-06 -4.68791e-05 4.27865e-06 -8.27898e-05 0.000111713 
0.000173373 -0.000107394 0.000745225 3.19752e-05 0.000228815 0.000192536 2.73998e-06 7.50261e-05 2.75335e-05 
-1.31091e-07 1.87989e-05 2.88741e-05 1.1861e-05 3.38569e-05 -1.65314e-07 -6.68791e-07 5.73222e-05 -2.41285e-06 
2.06249e-05 1.80963e-05 1.53846e-05 1.39795e-05 -2.15349e-05 -5.18061e-06 1.42909e-05 -1.13166e-06 -1.0099e-05 
3.53752e-06 8.04093e-06 8.47973e-06 -2.68226e-05 3.15744e-05 -1.96545e-06 1.61265e-05 7.47494e-06 6.33684e-06 
8.35741e-06 -4.37386e-05 -1.18276e-05 1.62021e-05 -1.81252e-05 -2.60183e-05 -7.85078e-06 -1.87266e-06 8.07051e-06 
-4.0865e-05 3.97378e-05 -1.48312e-05 -7.67854e-07 -1.49759e-05 4.89954e-05 2.3485e-05 1.69143e-05 -1.21042e-05 
4.27878e-05 -1.24266e-05 5.59631e-05 -5.94435e-06 -3.16116e-06 -6.048e-05 -3.93088e-05 -9.14347e-06 -7.35904e-05 
-4.6212e-07 -2.0547e-05 -6.23074e-05 3.03253e-05 -3.21499e-05 -7.55926e-06 -7.63563e-06 2.14701e-05 1.12174e-05 
-3.05693e-05 6.91473e-06 2.04825e-06 2.15464e-06 -1.82246e-05 -3.47808e-06 9.56564e-06 -1.05618e-05 3.49951e-06 
-4.37536e-06 1.33616e-06 -1.85634e-06 -1.50329e-06 9.76475e-06 -5.29316e-07 -4.74368e-06 2.9887e-06 -1.77516e-06 
5.40054e-08 -1.68726e-06 7.04528e-07 -1.48793e-06 2.97408e-06 1.35099e-06 -6.06466e-06 1.02031e-05 -2.56758e-06 
-8.8566e-07 2.69663e-06 2.10383e-06 6.90315e-07 -6.82374e-06 -3.07908e-06 9.8955e-07 -6.00414e-06 -7.00299e-06 
7.8187e-07 -3.81191e-06 4.78709e-06 -3.74065e-06 -2.46376e-06 2.44237e-06 -4.69463e-06 3.25704e-06 5.96729e-07 
9.46701e-06 -2.23415e-06 1.57025e-06 1.31616e-06 -6.8868e-06 0.000324631 0.000295541 -2.72056e-06 -2.046e-06 
5.66499e-07 -8.96805e-07 4.20399e-06 -2.05693e-06 1.15352e-06 4.96987e-06 2.18996e-06 -4.06046e-06 1.12076e-06 
2.50401e-06 -1.80078e-06 -5.92233e-06 -1.29571e-06 -5.60165e-07 3.02412e-06 -4.29229e-06 3.13596e-06 -6.09257e-08 
1.33093e-06 -1.9994e-06 -3.62824e-06 1.57369e-06 4.87521e-07 1.88756e-06 2.03898e-06 6.93828e-06 5.26021e-07 
-6.56895e-06 1.6645e-06 -6.56992e-08 -3.53482e-06 -9.95632e-07 -1.00031e-06 7.58657e-06 -2.37109e-05 -5.28129e-06 
-3.8965e-06 -1.76523e-06 -6.43187e-06 -3.52969e-06 2.75929e-05 4.31708e-06 -2.94442e-06 8.77109e-06 1.28195e-05 
7.42351e-06 -2.12687e-06 -3.6378e-06 2.13701e-05 -5.04409e-06 8.46451e-06 -4.19227e-06 1.79289e-06 -2.51838e-05 
-8.9765e-06 -4.11829e-06 2.13682e-05 -3.36859e-06 1.59074e-06 -7.08223e-06 -1.13281e-06 1.79656e-06 -1.50946e-06 
-2.94663e-06 2.18064e-05 9.00753e-06 -1.58016e-05 5.1518e-06 1.6059e-05 2.99003e-06 -3.8598e-05 -1.31604e-05 
7.41454e-06 -2.01217e-05 -2.10862e-05 -5.30527e-06 1.27059e-05 3.67656e-06 -2.66309e-05 2.03853e-05 -2.00681e-05 
6.6928e-06 -2.01501e-05 1.43449e-05 1.96176e-05 -1.06965e-05 1.07622e-06 -4.2669e-06 1.49151e-05 7.80339e-06 
-8.4985e-06 1.91337e-05 -5.83241e-06 3.43564e-06 -4.22032e-06 1.46842e-05 3.19654e-06 -2.28158e-05 3.93141e-06 
2.23656e-08 1.61636e-06 1.57019e-05 -1.28659e-05 3.35596e-05 2.93405e-06 1.76896e-05 -3.03831e-05 9.73305e-06 
4.59432e-05 1.61227e-05 4.47133e-05 -0.000129463 2.97142e-05 -4.76318e-05 0.000193056 8.34848e-05 -0.000129635 
-0.000117167 0.000577947 0.000114467 -1.40637e-05 -6.52645e-06 -7.02684e-05 9.02768e-06 4.25727e-05 -0.000171511 
-0.000113636 0.000142142 -9.09141e-05 0.000117303 7.31288e-05 -0.000133426 1.06527e-05 1.23215e-05 3.2992e-05 
0.000172279 -7.43541e-05 -8.08856e-05 5.59611e-05 -3.19117e-05 -5.47386e-05 -5.64375e-05 -1.54604e-05 -6.34074e-05 
5.03932e-05 8.5508e-05 -0.000135006 -0.000120944 1.2003e-05 4.41994e-05 0.000128298 3.53417e-08 5.23554e-05 
2.8584e-05 -5.69077e-05 -0.000146221 -0.000138108 -1.91267e-05 -0.000128434 0.000163679 4.19507e-05 6.73001e-05 
0.000213212 4.15098e-06 -2.78731e-05 -8.2651e-05 -8.11368e-06 -0.000215457 0.000141122 -2.25887e-06 8.72158e-05 
0.000119732 -5.89353e-05 -8.70473e-05 -5.85389e-05 1.21107e-05 -6.77917e-05 0.000114453 7.06123e-05 -2.2311e-05 
1.87809e-05 2.35396e-05 -0.000258432 9.53323e-05 -4.97676e-05 0.000159139 0.00018262 -7.7741e-05 -6.31673e-05 
-0.000263524 0.000128585 -7.93805e-05 -2.11958e-05 -4.10606e-05 5.99327e-05 7.3141e-08 -8.13502e-06 -7.32715e-05 
4.26046e-05 1.49786e-05 -8.51808e-05 7.51291e-06 -0.000109701 5.80923e-06 -5.29424e-05 8.49404e-05 -0.000120169 
-0.000179151 0.000598628 0.000278956 -0.000157157 -3.48766e-05 -5.15656e-05 -1.3892e-06 0.000217545 -1.11451e-05 
-3.99789e-05 3.16096e-05 6.31842e-05 8.33125e-06 -2.31006e-05 -7.38564e-05 -9.03075e-05 8.28936e-05 -7.8421e-05 
-0.000201369 7.31094e-05 -0.0001554 -3.66129e-05 -6.65099e-05 3.95398e-05 -0.000153442 0.000210374 0.000304319 
-3.35337e-05 -0.000250486 0.000543203 -7.75739e-05 -3.62277e-05 6.09449e-06 -1.69754e-05 -3.21286e-05 1.51478e-05 
2.64402e-05 -2.36935e-05 4.92637e-05 -2.53679e-05 -9.71459e-06 0.00011123 4.06561e-05 -6.06385e-05 4.78649e-05 
9.23856e-05 0.000196112 3.32458e-06 0.000263671 0.000147885 -1.32004e-05 0.000114602 -4.16173e-06 -7.63903e-06 
6.93721e-05 5.02595e-05 -3.10923e-05 4.71277e-05 2.76922e-05 0.000120476 -5.65053e-05 -6.03265e-05 0.000145291 
-8.94362e-05 4.07447e-05 1.88841e-05 -3.44772e-05 -6.40282e-06 -0.000113933 0.000225565 9.93777e-05 3.96568e-05 
-0.000144373 0.000152615 -3.10329e-05 -0.000155558 0.000145487 -7.84299e-06 5.87052e-05 -6.4897e-06 -4.77475e-05 
0.000217508 -0.000357704 -0.000228821 0.000370132 0.000231871 8.78643e-05 -6.81613e-05 9.43959e-05 -6.25818e-05 
-1.5489e-05 -0.000132394 0.000192291 -0.00020847 -5.55845e-05 -5.84468e-05 -2.08949e-05 0.000117499 -4.16231e-05 
-2.35703e-05 -4.84408e-05 -7.65558e-05 -7.77026e-05 -0.000155683 0.000293718 -0.000225765 -2.47845e-05 7.20573e-05 
-4.26202e-05 7.4605e-05 7.9302e-05 7.61369e-05 -9.35712e-06 -0.000142403 2.16186e-05 9.44633e-06 -7.15013e-07 
0.000101811 0.000138656 6.53468e-05 -3.01576e-05 -9.44727e-05 -0.000242048 -5.71934e-06 -0.000314394 -0.000271293 
-0.000165456 0.000263229 -1.02584e-05 -0.000142507 0.000139641 -2.39985e-05 -5.89007e-06 -4.57955e-07 7.78244e-05 
-8.43623e-05 -6.64869e-07 -5.95431e-06 -1.03023e-05 -7.52187e-06 -4.46881e-06 -3.1035e-06 -2.97276e-06 -3.7349e-06 
2.71837e-06 -6.19451e-06 -7.03461e-06 2.27234e-06 -2.84207e-06 -6.96487e-06 -6.28229e-06 -1.81229e-06 4.5231e-06 
-2.56282e-06 -7.38597e-06 -2.22069e-06 -7.69823e-06 -1.0608e-05 -1.53391e-06 1.67021e-06 1.95616e-06 -2.46027e-06 
1.46232e-06 2.41058e-06 2.25746e-08 1.96173e-06 -2.45143e-07 1.85054e-05 5.02037e-06 2.13581e-06 -8.57972e-07 
-4.4611e-06 4.99686e-06 5.45596e-06 -1.60706e-07 6.0594e-06 3.91696e-06 9.3622e-06 9.37045e-07 4.07116e-06 
6.19672e-06 1.28507e-06 1.91424e-06 1.73254e-06 4.91584e-06 4.93973e-06 -3.86824e-06 3.58269e-06 5.05981e-06 
7.20421e-06 8.40141e-06 8.34741e-06 5.28051e-06 6.71817e-06 1.53571e-06 2.9079e-06 -1.27563e-06 -8.21318e-07 
-5.90062e-06 -2.08465e-06 -1.40533e-05 -3.97645e-05 3.56712e-05 5.59407e-05 -8.53752e-05 6.72589e-05 7.56864e-05 
3.84415e-05 0.000178904 4.74748e-06 -8.98279e-06 1.84283e-05 2.6785e-05 2.51416e-06 2.51425e-05 -2.41073e-06 
2.88808e-05 1.86432e-05 1.27873e-05 -9.66642e-06 2.64911e-05 2.19819e-05 6.50599e-06 9.81724e-06 -6.18595e-07 
7.99122e-06 -2.2934e-05 -6.37628e-06 3.91594e-06 -1.60944e-06 1.00212e-05 -1.03776e-05 1.69131e-05 -5.50679e-06 
-8.58387e-06 1.28136e-05 1.97551e-05 3.15708e-06 8.25305e-07 1.41293e-06 -5.01288e-06 -4.76297e-05 -1.33152e-05 
1.48641e-05 -2.39642e-05 -2.16963e-05 7.13879e-05 -3.13328e-05 -2.35483e-05 8.45879e-05 -3.17101e-05 5.22042e-05 
-7.52459e-05 4.19074e-06 2.00777e-05 3.3089e-06 -1.29153e-05 3.03707e-05 -1.49487e-07 -1.40028e-05 -1.68448e-05 
-7.75319e-06 2.00064e-05 -1.17827e-05 -1.66539e-06 -4.62503e-06 -4.97044e-06 -7.62716e-07 -4.3133e-06 -2.49793e-07 
5.39375e-07 -3.76882e-06 4.56405e-06 -2.38557e-06 -6.43863e-06 -2.49436e-06 -8.68164e-06 -1.09883e-06 -1.63933e-06 
5.62888e-06 1.31326e-06 -5.34967e-06 -2.49967e-06 -6.58082e-06 2.34731e-06 6.52608e-06 -3.81078e-06 -1.53843e-06 
1.44184e-08 1.0464e-06 -5.8627e-06 -9.30391e-07 9.54004e-06 8.98017e-07 8.87934e-06 1.68196e-06 -1.91461e-07 
1.50126e-06 -7.50787e-06 1.25009e-06 -3.06967e-06 -2.29503e-06 2.74318e-06 3.79444e-05 -0.000116635 -2.74566e-06 
-3.52002e-06 5.04165e-06 4.40777e-06 7.58661e-07 -5.46276e-06 1.45809e-06 -7.80242e-07 4.57138e-06 -2.20584e-06 
2.67506e-06 7.52764e-07 -1.43474e-06 3.83906e-06 -1.5286e-06 3.12065e-06 -4.18883e-06 -4.64187e-06 1.60074e-06 
1.64629e-07 -2.74502e-07 4.45446e-06 1.1373e-05 -1.21033e-06 -5.41472e-06 5.71779e-06 1.36147e-06 -4.07659e-08 
-1.91208e-06 2.33573e-06 7.02829e-06 -1.75652e-05 -1.27068e-06 -6.24989e-08 9.06729e-07 -1.07275e-05 4.35992e-06 
3.35016e-05 2.44473e-06 -1.0681e-05 9.31176e-06 1.29589e-05 -5.57502e-06 -6.66283e-06 2.74278e-05 -1.16951e-06 
-5.05341e-06 1.97836e-05 -2.72301e-05 1.51572e-05 -2.68797e-05 -8.94204e-06 -2.44376e-05 -4.74505e-06 1.38969e-05 
-7.95935e-06 -2.60623e-06 -3.58073e-06 7.27569e-06 -2.6973e-05 -9.96042e-06 1.17289e-05 -1.39909e-05 3.89097e-06 
-9.10653e-06 3.29572e-05 -1.17253e-05 2.57338e-06 1.83293e-05 2.74681e-05 1.68885e-05 -1.08094e-05 3.74532e-05 
1.35925e-05 -2.58272e-06 -2.94069e-06 6.08801e-07 1.95407e-05 -4.00646e-06 -9.62197e-06 9.67997e-06 -6.13576e-06 
1.72454e-05 3.47008e-06 8.42557e-06 1.40518e-05 8.79109e-06 -2.10142e-05 -2.15335e-06 3.64267e-05 1.42778e-05 
-2.66902e-06 4.212e-05 6.47724e-07 7.77942e-05 -4.16239e-06 2.77333e-05 -7.76349e-05 3.92363e-05 -7.3642e-05 
0.000162711 -8.06106e-05 3.60513e-05 -5.07305e-05 -2.25453e-05 3.94603e-05 -7.06844e-05 9.32444e-06 -4.41452e-05 
-4.87237e-05 2.70573e-05 1.59534e-05 -4.87877e-05 1.11525e-05 5.11641e-06 -7.07954e-06 -2.32239e-05 9.41952e-06 
-1.32122e-06 -7.08926e-06 2.09294e-05 -1.19723e-05 -6.85327e-07 1.43352e-05 -1.54792e-05 1.09799e-06 2.31126e-05 
4.80207e-06 4.93227e-06 1.15773e-05 2.09535e-05 -8.49504e-06 -1.70691e-05 7.87254e-06 -1.98684e-05 -1.60298e-05 
-1.45092e-05 -8.88389e-06 -2.76805e-05 -1.93484e-05 2.37752e-06 1.84612e-05 -1.40232e-05 1.50028e-05 4.72986e-05 
-1.34524e-05 -4.45494e-05 8.08767e-06 6.5432e-07 -4.02286e-05 -3.1212e-05 -3.15181e-06 -2.35353e-05 -8.91709e-07 
-9.33443e-06 1.40462e-05 -7.95524e-06 -7.43642e-06 -1.65484e-05 1.65221e-05 2.35397e-05 1.74475e-05 2.23158e-05 
5.35735e-07 -7.90398e-05 -8.81764e-07 2.9672e-05 -0.000123369 0.000260356 1.76865e-05 -7.04494e-05 -4.2048e-05 
-2.59064e-05 1.95546e-06 -1.26001e-05 -8.66728e-06 0.00030298 -3.80834e-05 -5.26167e-05 -4.85026e-05 -0.000105968 
-3.83004e-05 -7.50574e-06 -6.88821e-05 -1.35816e-05 1.5738e-05 8.60894e-05 -1.06608e-05 -3.16517e-06 7.67179e-05 
-1.61712e-05 -3.78349e-05 3.32303e-06 1.82605e-05 -3.91494e-05 5.81966e-06 6.6629e-05 -9.07312e-06 4.79739e-05 
2.97617e-05 -5.19652e-06 -1.94417e-05 -4.83031e-05 -1.09997e-06 8.49703e-06 -0.000103508 -3.94335e-05 7.68125e-05 
-8.38638e-05 1.6369e-06 -1.52525e-06 -0.00010454 -6.42033e-05 -9.82088e-06 -5.87998e-05 6.85895e-05 2.63168e-05 
4.30614e-05 3.31641e-05 -2.92909e-05 0.000171113 0.00012444 2.31176e-05 8.1417e-06 -5.10179e-06 -1.53175e-05 
1.84433e-05 1.36368e-05 -2.99942e-05 3.05643e-06 9.64561e-05 -6.55257e-05 -4.79466e-05 -6.38598e-06 -1.34157e-06 
4.36945e-05 -7.5616e-06 3.34071e-05 3.65492e-05 4.18425e-05 -7.70962e-05 2.03331e-05 6.63252e-07 -3.93344e-06 
-1.48459e-06 1.8541e-05 -2.02194e-05 6.23207e-05 5.15001e-05 -6.47473e-06 -6.48807e-06 5.41755e-05 -0.000173241 
1.19414e-05 -4.85037e-05 8.91065e-06 1.38592e-08 0.000357485 -5.15822e-05 5.98452e-05 -4.55242e-05 -0.000161563 
-3.64783e-05 9.1502e-05 -1.67179e-05 5.90697e-05 -1.0645e-05 1.41833e-06 -1.1226e-05 -1.95885e-05 -1.83783e-05 
-4.98474e-06 4.01124e-05 -3.90793e-05 4.2743e-05 -4.51543e-05 -2.19041e-05 1.36138e-05 -3.33631e-06 2.21631e-05 
7.45581e-05 -3.41071e-05 2.05129e-05 -2.79911e-05 -5.75297e-05 -0.000131773 -4.51148e-05 4.02066e-05 6.99866e-05 
-3.94424e-05 -2.66089e-05 -8.16377e-06 9.47514e-05 7.97678e-05 -0.000121395 0.000189815 0.000139727 1.82356e-05 
-1.88772e-05 -1.79611e-05 -6.53475e-05 -6.01553e-05 0.000281737 -2.72213e-05 2.36892e-05 9.14255e-06 -3.42966e-05 
6.99148e-05 7.52724e-06 -1.26328e-06 -2.15082e-05 3.51627e-05 9.16325e-05 -2.35464e-05 -1.41722e-05 -5.86612e-05 
2.94278e-05 3.19923e-05 -3.28478e-05 -2.63424e-05 -4.56747e-05 0.000103382 -1.73335e-05 6.79691e-05 -1.09942e-05 
7.13823e-07 -5.32992e-07 1.74701e-06 1.17109e-06 -7.11369e-07 3.6412e-06 6.4109e-06 1.18773e-05 4.00825e-06 
-3.50972e-06 -5.83201e-06 -2.26006e-05 5.89978e-06 -1.31906e-06 0.00281226 -0.00273765 -1.31624e-05 -5.08827e-07 
-2.19612e-06 -8.87392e-06 -4.57316e-06 -1.77504e-06 5.99423e-06 -7.57366e-06 3.91689e-06 -1.82627e-06 -1.27843e-05 
2.02745e-06 3.18047e-06 0.00156789 0.00169605 1.72817e-05 1.15028e-05 1.85224e-05 6.85711e-06 1.02293e-05 
-1.07875e-05 3.25739e-06 5.64684e-06 1.38823e-05 1.79651e-06 -2.41356e-06 6.05851e-06 6.50017e-06 8.83194e-06 
-5.71695e-06 -7.70095e-07 3.8728e-06 8.99844e-06 7.61535e-06 8.40795e-06 3.88596e-06 1.04073e-05 7.15669e-06 
4.06621e-06 5.21929e-06 6.9282e-06 -3.62949e-07 -6.84719e-07 -4.07161e-05 -2.37301e-05 -7.10583e-05 -0.000158523 
0.000268371 9.69293e-06 0.00010709 2.2175e-06 1.05907e-05 4.69406e-05 7.45491e-06 -7.76893e-06 1.04143e-05 
-1.18554e-05 6.93938e-06 2.09557e-05 -7.82711e-06 -1.13497e-05 2.06147e-05 6.36157e-06 -5.25595e-06 -1.38203e-06 
-2.30514e-07 3.7804e-06 -1.62384e-05 7.59736e-07 -8.22905e-06 1.83152e-06 -6.26861e-06 -1.33128e-05 1.28076e-05 
-1.05516e-05 -1.4594e-06 9.67231e-06 1.51095e-05 -1.15307e-05 8.90582e-06 -1.05666e-05 3.33875e-06 -6.78587e-05 
-1.34662e-05 -1.55632e-05 1.79529e-05 3.5992e-06 7.19645e-06 1.49055e-05 3.63341e-06 2.5146e-06 -2.71002e-06 
-2.8093e-06 1.08142e-05 -5.41123e-06 2.12031e-06 -4.86735e-06 1.62368e-05 1.07987e-05 -1.70178e-07 1.54049e-05 
9.31477e-06 -5.62505e-07 4.10038e-06 -5.87193e-06 -6.81348e-07 5.01895e-06 -1.09249e-06 -5.64483e-06 1.31813e-06 
7.83153e-06 -1.68449e-06 -4.18028e-07 -1.12362e-06 -4.40102e-06 -1.80982e-06 -1.07571e-05 2.91638e-06 7.63792e-06 
-6.73395e-06 5.18839e-06 -9.59344e-05 -3.06921e-05 8.28252e-05 2.83623e-06 -2.95135e-06 2.58694e-06 -1.71799e-06 
-2.62371e-07 -4.13465e-07 4.64467e-06 -1.84152e-06 -2.30983e-06 3.62406e-06 1.19568e-06 1.48072e-06 2.49384e-06 
-2.74305e-07 2.75424e-06 -5.79263e-06 -5.46526e-06 2.59459e-06 -4.08448e-07 -5.56611e-06 2.46973e-06 1.29232e-05 
-1.00301e-06 -6.37138e-06 5.34972e-07 2.29753e-06 -1.30504e-06 -5.17309e-06 1.14789e-06 1.11685e-05 -3.7753e-06 
5.12583e-06 -1.00898e-05 -1.1889e-05 -1.65047e-05 1.69804e-07 2.59191e-05 1.12209e-07 -8.04458e-06 1.96515e-05 
-4.57489e-05 -4.88101e-05 1.4787e-05 4.4696e-06 2.013e-05 -1.25713e-05 2.64016e-05 1.33576e-05 6.49926e-07 
-2.37045e-05 -1.65085e-05 1.46934e-05 -3.39809e-05 2.02402e-05 1.84361e-05 2.70717e-05 1.16582e-05 -1.38695e-05 
1.16313e-05 8.63238e-06 1.10316e-05 -3.19083e-05 -6.55013e-06 1.47134e-07 -1.84263e-05 1.23498e-05 2.8165e-07 
1.90804e-05 2.53258e-05 2.19444e-05 -7.99962e-06 1.29508e-05 6.1026e-06 -1.42805e-06 -5.89255e-07 3.87992e-05 
6.53711e-06 3.49382e-05 -5.07247e-05 1.53998e-05 2.21141e-05 -4.94973e-05 -1.04571e-05 3.66466e-05 4.43026e-05 
-4.64386e-05 1.5287e-05 -7.3922e-05 6.41347e-07 3.19542e-05 -1.5897e-05 -3.5895e-06 -2.4214e-06 2.07034e-05 
-8.78077e-06 3.51602e-06 -3.9587e-06 -2.2216e-05 -4.1292e-05 -1.37398e-05 -2.76603e-06 -1.48301e-05 1.52207e-05 
1.37774e-06 1.45196e-05 2.50568e-05 1.11903e-05 -1.19619e-05 -1.11194e-06 7.33097e-06 -8.94444e-06 2.65879e-06 
-1.3981e-05 1.32259e-05 1.02513e-06 -3.62143e-06 -3.29782e-06 2.28087e-05 -2.40167e-06 -4.56421e-06 3.55306e-05 
-1.82981e-05 -3.65073e-05 -2.47185e-05 -1.3818e-05 -2.2701e-05 -4.81264e-06 4.80836e-07 1.747e-05 3.13159e-05 
-1.12176e-05 1.96252e-05 9.27437e-06 -8.08131e-07 -1.65452e-05 6.06153e-06 3.36287e-05 -4.57776e-05 -9.50146e-06 
4.56266e-05 -2.85089e-05 -2.34673e-05 4.93802e-05 -1.73032e-05 -1.06998e-05 -1.85992e-07 -9.79607e-06 -4.03956e-05 
-3.27192e-05 -3.9053e-05 3.70783e-06 3.3618e-05 -1.22679e-05 -1.79018e-06 5.38e-05 2.04592e-06 7.76406e-05 
-8.82265e-05 4.20043e-05 -9.72009e-06 -5.77325e-06 -7.8894e-05 0.000117798 4.79923e-05 -5.69425e-06 1.00572e-05 
-3.37001e-05 2.86572e-05 -8.42054e-06 2.12517e-05 6.1602e-06 3.30836e-05 -9.57017e-06 1.47851e-05 2.79526e-05 
7.86863e-06 3.67013e-05 1.23617e-06 -7.3462e-06 2.56707e-05 5.41314e-06 3.22916e-05 -5.8762e-05 -5.567e-05 
-1.19041e-05 0.000100559 -1.74961e-05 5.72808e-05 -1.89199e-05 7.68327e-05 -1.94762e-05 -2.4434e-06 -2.91392e-05 
6.95901e-06 3.51457e-05 1.65454e-05 -2.78121e-05 -7.87714e-05 -5.62759e-06 9.16296e-06 3.80867e-05 2.75296e-05 
-2.85394e-05 1.4536e-05 2.46092e-05 4.85859e-05 -5.37584e-06 1.94491e-08 -2.01049e-05 9.41858e-05 -4.26799e-05 
-4.53157e-06 -8.00454e-05 0.00019014 2.08894e-05 -3.17394e-06 3.22119e-05 -3.14396e-06 9.84138e-07 -6.54181e-05 
-4.24324e-06 -4.38828e-06 -1.04405e-05 -6.7855e-06 5.15874e-06 -1.94194e-05 -9.91055e-06 -2.73534e-06 3.49764e-05 
-5.81975e-05 -2.2024e-05 2.10091e-05 -7.30431e-05 -7.90496e-05 8.15237e-05 -9.4403e-05 -4.39982e-05 -3.79711e-05 
6.04762e-05 3.07286e-05 -3.21626e-05 -4.70537e-05 3.51571e-06 -1.20884e-05 -1.26698e-05 -6.74405e-06 4.8161e-05 
-2.38775e-05 -1.04108e-05 -3.38249e-06 -6.51865e-05 4.74969e-05 4.59871e-05 -3.50039e-05 9.60162e-06 -2.08623e-05 
-2.092e-05 -6.4914e-05 6.04661e-06 -6.75856e-05 7.49419e-06 -3.94491e-05 9.54356e-08 1.78131e-05 3.27683e-05 
1.36924e-05 -2.65824e-05 -7.74579e-05 -1.57707e-06 5.13687e-05 7.07816e-06 6.44972e-06 7.59525e-06 -2.43839e-07 
-2.16432e-06 -1.29132e-05 -2.96957e-05 -1.50394e-05 0.0049424 0.00136773 8.52134e-05 5.67292e-06 -5.46596e-06 
-2.19606e-06 1.09336e-05 -1.10369e-05 -0.000404327 5.35967e-05 6.94529e-06 -2.54133e-05 -2.06784e-05 3.6687e-05 
-5.32792e-06 -3.39794e-05 0.000169275 0.000370145 0.000322511 -0.000568804 -3.19538e-05 0.00501013 0.0058523 
2.82905e-05 1.44062e-05 -3.84563e-05 -5.95894e-06 -7.09648e-06 1.64488e-05 2.79742e-05 1.08923e-05 8.52344e-06 
1.07069e-05 -0.00619933 -0.00127465 -8.47849e-06 -9.72629e-06 -9.83506e-06 1.19573e-06 0.000158847 0.00653602 
-1.61538e-06 -3.10257e-06 4.21619e-06 -4.08684e-06 -2.06807e-08 -6.76783e-06 1.16545e-05 8.17598e-07 -8.85625e-06 
6.3801e-06 9.49204e-05 -6.12012e-06 -2.40219e-05 3.02834e-05 1.57848e-05 -8.26515e-06 -2.25518e-05 1.42731e-05 
1.08963e-05 -1.33287e-05 -5.6347e-06 2.02269e-06 -6.98897e-06 1.7213e-05 1.11723e-05 1.143e-05 2.71553e-05 
-6.8729e-06 1.62338e-05 -6.22796e-06 -1.30503e-05 1.17189e-05 1.97622e-05 3.91416e-06 -5.46484e-06 1.52112e-05 
-5.65932e-06 -7.41498e-06 1.19515e-05 2.90304e-06 6.13632e-06 -3.7592e-06 -3.58081e-07 -1.71557e-06 8.10358e-06 
-1.10281e-05 1.26277e-05 7.72855e-06 2.02992e-06 -7.79658e-05 4.15113e-05 -1.84506e-05 6.70795e-05 -5.53977e-06 
5.08647e-06 6.88198e-07 1.91954e-06 1.3298e-05 -3.72627e-06 -3.9454e-06 -9.30532e-06 1.28872e-05 -2.33449e-07 
-2.97532e-06 -5.83507e-07 3.0429e-06 -1.00139e-05 -9.41636e-06 1.32493e-05 -4.91216e-06 1.85934e-05 -1.00529e-05 
-5.68505e-05 -3.55948e-05 8.01506e-06 5.80224e-06 0.000182977 -2.3064e-05 -1.69309e-05 1.10138e-05 -1.13959e-05 
2.07238e-05 -1.77914e-05 -2.80711e-06 -4.67903e-05 9.77644e-06 8.44595e-06 -1.27573e-05 1.96747e-07 7.54276e-06 
6.81885e-06 -2.97929e-06 -1.01102e-05 -2.29075e-05 -1.81506e-05 -1.03775e-06 -1.51362e-05 2.26811e-05 1.72739e-05 
5.38321e-06 -8.05615e-06 -1.13698e-05 5.66612e-06 -2.99333e-06 7.29291e-06 3.02638e-05 -1.33589e-05 1.62599e-05 
2.60371e-05 1.38165e-05 -1.31184e-05 -1.2487e-05 1.06199e-05 2.47941e-05 -1.0222e-05 2.18511e-05 -1.69175e-05 
-2.78474e-05 -4.90398e-05 -4.44411e-05 -1.6369e-05 -6.58354e-06 2.69764e-05 -1.07255e-06 1.31227e-05 -2.585e-05 
-5.00197e-05 -7.85572e-06 8.18733e-06 2.29247e-07 9.58389e-06 -2.92339e-05 -2.52579e-05 -8.34508e-06 2.15439e-06 
1.38851e-05 -2.79467e-06 -1.20378e-05 -3.49574e-06 7.8461e-06 4.48538e-05 -2.47712e-05 1.80244e-05 -2.69973e-05 
-3.28385e-05 -2.08371e-06 -1.74239e-05 1.12813e-05 6.49719e-05 3.31239e-05 -5.26151e-06 7.71812e-05 4.91929e-05 
2.9274e-05 -4.80509e-05 -5.80069e-05 -7.49707e-05 -2.87132e-05 5.48058e-05 -5.31154e-06 -3.32955e-06 2.96775e-05 
9.14794e-05 -7.27852e-06 1.85192e-05 9.36701e-06 -1.36425e-05 -1.09792e-05 7.44091e-07 9.34093e-06 -5.93806e-06 
-3.9889e-07 -2.17147e-05 -1.82901e-07 -8.52954e-06 -1.15876e-05 5.30474e-06 7.49037e-05 7.39059e-05 1.86651e-05 
2.50334e-06 -1.50894e-05 -2.0747e-05 -6.82663e-06 1.33341e-05 1.57765e-06 2.79633e-06 7.44377e-06 7.98181e-06 
9.67719e-06 -2.21247e-05 -1.8641e-05 7.34067e-05 4.06577e-06 -4.52389e-05 -1.20831e-05 8.69383e-07 -6.17296e-06 
1.00456e-06 6.44487e-06 0.000101795 3.46058e-05 3.24529e-05 -1.40052e-05 9.11866e-05 1.98269e-05 -2.73684e-05 
4.87803e-06 -1.02484e-05 -2.32838e-06 1.99176e-05 -3.09601e-05 -2.14081e-05 -6.73596e-06 -2.02423e-05 9.22847e-06 
-6.33451e-06 2.84052e-06 3.64203e-05 1.92019e-05 1.6766e-05 1.35534e-06 3.60717e-05 -3.3909e-06 4.68641e-06 
-2.43448e-05 2.74522e-06 8.14441e-06 -2.12999e-05 -1.01734e-05 7.35743e-06 3.21711e-05 8.34856e-06 -2.19969e-05 
-8.00416e-06 5.5385e-05 -7.59106e-05 -6.24117e-06 4.76591e-06 4.3416e-05 0.00011493 -1.52826e-05 5.51287e-05 
1.40401e-05 9.03809e-06 3.59182e-06 -2.13692e-05 -9.8922e-06 -1.85515e-05 3.62456e-06 -1.15375e-06 3.49665e-07 
-7.32839e-06 0.000117207 2.81716e-05 1.50869e-05 -2.401e-05 2.76454e-05 4.00949e-06 6.63518e-07 -4.52524e-06 
-7.72257e-06 -1.20355e-05 1.698e-05 3.5851e-05 -8.26555e-05 6.14124e-05 -3.8682e-05 -9.375e-06 2.39692e-06 
5.39562e-05 -7.22121e-06 3.1571e-05 1.01353e-05 2.08899e-05 1.78941e-06 -2.11739e-06 -3.09516e-05 -6.04535e-05 
-6.09536e-06 1.00353e-05 9.65042e-06 -0.00224778 -0.0033946 3.20517e-05 -2.74999e-05 -1.25025e-05 -1.87141e-05 
-3.34644e-05 3.67291e-05 1.51482e-05 -3.39644e-05 -1.42711e-05 -1.3457e-05 1.2886e-05 -4.73715e-05 -1.35533e-06 
6.97101e-07 -2.53402e-05 8.51011e-05 -2.30033e-05 1.32693e-05 3.89285e-05 -1.00231e-05 1.04665e-05 -7.68874e-06 
-5.90007e-06 1.25406e-05 8.55562e-06 -0.000116695 -2.3794e-06 2.41982e-05 4.092e-05 -1.77306e-05 -1.74816e-05 
2.74899e-05 -4.06074e-06 1.27792e-05 -2.86837e-06 -2.72547e-05 9.91632e-08 7.55769e-05 -7.1243e-06 -9.12334e-06 
-1.67766e-05 -7.656e-06 -1.68439e-05 6.83105e-06 -2.42171e-05 3.80498e-05 3.22626e-05 -5.06546e-05 -1.74055e-05 
-5.23433e-06 1.0713e-06 -2.84419e-06 -4.59004e-06 6.8341e-06 -3.02481e-05 -8.29606e-06 -2.34703e-05 2.60007e-05 
5.93091e-06 2.01651e-06 -1.13352e-05 1.64937e-05 3.00457e-05 8.6154e-06 -1.10029e-05 1.66303e-05 -5.05292e-06 
-5.08099e-06 -3.47933e-05 -1.03973e-05 1.61501e-06 -3.05143e-06 7.39843e-05 8.22952e-08 7.03542e-06 8.12161e-06 
2.87685e-05 -5.27368e-05 -2.30229e-05 -2.57189e-05 -3.94562e-05 -2.02961e-05 -1.4754e-05 2.80784e-05 -7.12834e-06 
2.08679e-06 4.72675e-05 -4.15863e-05 -7.56351e-06 -4.91029e-05 -4.07204e-05 2.71709e-05 -2.87413e-05 5.06485e-05 
-6.2425e-05 1.67383e-05 1.36585e-05 4.84802e-05 -6.64984e-06 3.48567e-06 1.67275e-05 7.05736e-06 5.55878e-06 
1.8108e-05 4.03555e-05 -4.94407e-05 -9.25963e-05 -3.26466e-05 8.02884e-05 -8.45724e-06 3.15335e-05 -5.23124e-06 
3.02185e-05 5.33601e-06 -6.35646e-06 4.18278e-06 1.65886e-05 6.3835e-06 -5.56562e-05 3.70086e-05 -4.01563e-05 
-2.52285e-05 -1.82515e-05 -9.3875e-06 -6.20628e-07 -1.10974e-05 -7.42354e-05 -4.28873e-06 -1.97438e-05 -8.49912e-06 
9.38127e-06 -3.80612e-06 2.0065e-05 -1.50477e-06 -8.99011e-06 -6.23258e-06 -9.77379e-06 -9.11481e-06 -1.73876e-08 
-5.67887e-06 -5.12021e-06 -5.54079e-08 -1.36722e-06 -4.73469e-06 -2.70936e-06 -7.82941e-06 -8.30934e-06 4.39293e-06 
-3.57669e-06 -7.78171e-07 3.82356e-06 -7.66322e-06 -6.25113e-06 -6.83476e-07 -1.32645e-05 -1.05565e-05 -1.26442e-06 
2.29022e-07 8.00323e-06 1.62662e-06 8.12399e-06 -4.04743e-06 2.03388e-06 -5.45109e-06 1.54097e-07 -3.664e-06 
7.66901e-06 1.22696e-05 -7.14472e-07 4.3044e-06 5.93624e-06 6.13277e-08 -1.23152e-06 1.39876e-06 1.46205e-06 
5.56717e-06 7.49076e-06 -3.68281e-06 4.65012e-06 4.76897e-06 -2.99638e-06 3.77616e-06 6.01363e-06 2.25304e-06 
8.90957e-06 5.87358e-06 1.29857e-06 -8.2878e-07 -2.10864e-06 -2.53821e-06 -4.16167e-06 -5.07374e-06 2.83524e-06 
-6.15978e-06 1.60551e-06 1.2077e-06 -8.90102e-06 -0.00773814 -0.000346174 0.00198889 0.000173513 9.68751e-05 
-0.000681643 2.30668e-06 -0.000114986 -0.00017167 2.82953e-05 5.62444e-05 3.69481e-05 -8.42745e-06 -5.82182e-06 
-4.79634e-07 2.87294e-06 2.12228e-06 -3.35142e-05 -1.04902e-05 -4.69681e-06 -7.14216e-06 2.50692e-05 3.20693e-05 
-7.91771e-09 -3.64908e-06 -1.3699e-05 3.06402e-06 7.43155e-06 4.15674e-06 -2.31075e-05 -1.11631e-05 -5.47569e-07 
-1.28343e-05 1.22496e-05 2.9627e-05 -5.52761e-06 7.38132e-06 -3.00815e-06 1.25997e-05 4.27393e-07 -3.0159e-06 
-6.86636e-06 1.87404e-06 -1.36526e-05 -1.67605e-05 1.41447e-05 -9.78499e-06 3.42146e-05 -5.09856e-05 -4.4513e-05 
-3.59905e-06 -1.51238e-05 2.43296e-05 9.59325e-06 -1.55035e-06 -2.35314e-06 4.10104e-05 -5.6393e-06 -2.30359e-06 
2.95911e-05 6.11088e-06 5.64287e-06 -5.67528e-06 -3.50079e-06 3.60229e-06 7.77656e-06 5.7837e-06 5.94633e-06 
-1.29421e-05 -9.76797e-06 1.12695e-06 -2.01754e-05 1.81632e-05 1.26819e-05 -3.12212e-06 4.08513e-06 -7.65938e-06 
-4.24404e-06 1.00507e-08 6.23271e-07 -8.5543e-06 -5.62586e-06 1.04101e-06 -1.85192e-05 1.04111e-06 1.31393e-05 
2.43865e-06 3.93044e-06 5.78114e-06 -3.36369e-06 1.73582e-06 1.09176e-06 6.42852e-06 -1.79449e-06 -2.45672e-08 
4.30822e-06 -2.06602e-06 -3.89194e-06 2.38223e-06 5.27629e-06 -9.25945e-06 5.15086e-06 -1.46065e-05 -1.15986e-05 
3.74112e-06 -0.00339706 3.23078e-06 -8.51703e-06 2.42081e-06 4.2326e-06 -3.82336e-06 6.18115e-06 1.37458e-06 
-1.0363e-05 -2.20383e-06 1.57482e-06 -3.41222e-06 4.06658e-06 5.65071e-06 -1.56983e-06 -3.98211e-07 6.28493e-07 
6.40555e-06 -1.212e-06 -2.4532e-06 1.44249e-06 2.37698e-06 -5.93054e-06 4.30004e-07 1.29253e-07 -1.11075e-05 
1.74838e-06 -1.16956e-05 -1.39829e-05 2.83141e-07 7.98167e-07 7.28418e-06 2.48994e-06 -2.71844e-06 -4.37728e-06 
1.48576e-05 -1.13299e-05 2.59689e-06 8.05027e-06 -1.28241e-05 -8.4707e-06 9.86899e-06 3.3426e-06 3.40851e-06 
7.89044e-07 6.39979e-06 8.88032e-06 7.82088e-06 -2.93684e-06 1.97009e-05 1.24471e-05 2.64847e-05 1.69995e-05 
-6.74908e-06 1.22086e-05 -1.20705e-05 -8.49171e-06 -3.71555e-06 6.34346e-06 -2.4999e-05 -9.46311e-06 2.04164e-06 
-3.75856e-05 2.03398e-05 7.67958e-06 -1.10098e-05 -9.27613e-06 -5.84766e-06 8.27904e-06 1.30791e-07 -1.55708e-05 
-1.03452e-05 -3.07489e-06 1.27655e-06 1.30551e-05 -2.54164e-06 1.74344e-06 1.45835e-05 4.23653e-06 -1.73482e-05 
3.3805e-06 -5.32214e-06 2.81629e-06 1.32113e-05 -2.02206e-05 -2.35236e-05 -4.40704e-06 9.40255e-06 1.0348e-05 
8.13413e-06 1.74724e-05 -3.69229e-05 1.21732e-05 -3.98733e-05 -4.6645e-05 1.98827e-06 3.48828e-05 5.26897e-05 
7.31905e-05 4.49193e-07 -1.17972e-05 5.76483e-06 -0.0042206 1.77881e-05 7.53249e-05 0.00637539 0.00703335 
0.00144796 0.00226398 0.00578406 -0.000468828 -0.000213309 0.00156643 -0.000373495 -0.00165873 0.000774571 
-0.000514426 -0.00194949 -0.000978355 0.000763043 0.00155673 0.00129375 -6.54711e-05 0.000533052 0.00215993 
-0.000815323 -0.00156754 0.000658139 -0.00026925 -0.00259079 -0.000961824 0.000786656 0.00114204 0.00146988 
0.000475246 7.4365e-06 0.00159666 -0.000496557 -0.00129658 0.000654831 -0.000231249 -0.00430117 -0.000911006 
0.000177342 -0.00128021 -0.00394028 0.00108967 0.00399075 0.000843844 0.000300536 0.000142014 0.00376678 
-0.000981907 -0.00154386 0.000159542 0.000283114 -0.00459359 -0.00142352 0.000430611 0.00293597 -0.0035148 
0.00151563 0.000937686 0.00361717 -0.000702222 -0.000567178 0.00127736 -0.000202092 -0.0034399 -1.5324e-05 
-0.000242836 0.00540956 0.00663608 0.00553469 0.00728455 -0.00290068 0.00604049 0.0086967 -0.00317678 
0.00921371 0.00757491 -0.00196116 0.00590246 0.00742134 -0.00372654 0.00585538 0.00738533 -0.00356303 
0.00510936 0.00798199 -0.00351602 0.0076596 0.00845753 -0.00296097 0.00842535 0.00792834 -0.0031177 
0.00345296 0.00739714 -0.00560881 0.00775001 0.00276224 -0.00781785 -0.00808001 -0.0103238 -0.0134989 
-0.010498 0.00599401 -0.0106625 -0.00649013 0.00400823 -0.00753501 -0.00549478 0.003332 -0.00716217 
-0.00526344 0.00336019 -0.00689351 -0.00534634 0.00353809 -0.00670036 -0.00506178 0.00322064 -0.0068265 
-0.00836605 0.00348933 -0.00834087 -0.00806173 0.00235409 -0.00797487 -0.00651745 0.0025187 -0.00626614 
-0.0047933 0.00127485 -0.00398941 -0.00600852 -0.00761762 -0.00805106 0.0022897 -0.00646618 -0.00727829 
0.00390916 -0.00527326 -0.00629943 0.00300166 -0.00476344 -0.00590063 0.00309667 -0.00475061 -0.00498882 
0.00267046 -0.00489714 -0.00480528 0.00274599 -0.00427969 -0.00484305 0.00295169 -0.00454076 -0.0105575 
0.00355789 -0.010746 -0.00392335 0.0029997 0.00626947 0.0121362 0.0150184 0.0104871 -0.00522766 
0.0093774 0.00753939 -0.00447653 0.00851096 0.00651913 -0.00291832 0.00588065 0.00633922 -0.00275714 
0.00626766 0.00395269 -0.00264842 0.00601519 0.00758171 -0.00356445 0.00709793 0.00710412 -0.0023692 
0.00712917 0.00510623 -0.00168031 0.00142796 0.00298127 -0.0042674 0.0034185 0.00373696 -0.00572335 
-4.81653e-06 -4.82098e-06 -7.4944e-06 -0.000215951 0.0027565 -0.00706849 0.0037902 0.00643255 -0.000758888 
-0.00490409 0.000495576 -0.0048069 0.00357533 -0.00135595 1.80903e-06 0.00236278 -0.00474689 0.00240751 
-0.00649482 0.00205747 -2.38793e-06 0.00138658 5.41208e-06 -5.84715e-06 5.82417e-06 -1.36033e-05 -3.76949e-06 
8.29082e-06 -2.03475e-08 -1.72294e-06 3.58241e-06 5.84371e-07 -3.05159e-07 -2.22154e-06 3.77224e-06 -1.54331e-06 
-5.4731e-06 1.55309e-06 9.03848e-06 -1.02794e-05 -1.06971e-05 1.21906e-05 -9.79137e-06 2.26556e-06 -1.61493e-05 
6.59363e-06 1.02551e-05 -1.31401e-05 1.42353e-06 -8.15808e-06 9.90917e-06 -1.04762e-05 1.03241e-05 -6.23166e-06 
7.52838e-06 5.29241e-06 1.74828e-06 1.54714e-06 -8.57743e-06 2.51983e-07 -1.24363e-06 7.94754e-09 -3.32312e-06 
8.75992e-07 3.6012e-06 5.70302e-06 -2.5097e-07 6.64481e-07 1.19634e-05 4.88036e-06 8.49779e-06 -3.7595e-06 
-1.7991e-06 -3.95435e-06 9.24346e-06 -4.4603e-06 -0.000650606 -0.00105469 0.000117371 0.000104207 -7.47201e-05 
0.000160127 -2.92907e-05 2.87249e-05 0.000414339 1.69501e-05 7.56889e-05 2.59508e-06 3.85859e-05 -1.60113e-05 
-1.82046e-05 2.24993e-05 4.92187e-06 3.26913e-05 -1.33505e-05 -4.35558e-06 2.31884e-05 -3.57005e-06 2.66837e-05 
1.18041e-05 -1.28811e-05 -2.29031e-05 -3.0993e-07 -1.73201e-06 8.18548e-06 2.82518e-05 2.85967e-06 -4.5229e-06 
2.40847e-05 -3.50166e-06 2.11338e-05 9.81516e-06 -1.73143e-05 -1.24636e-05 -7.73676e-07 1.24412e-05 -6.12137e-06 
-1.2441e-05 -7.51559e-06 1.19447e-05 9.49696e-06 2.36852e-05 2.30958e-06 -3.66576e-05 -1.00448e-05 -4.59772e-05 
6.77474e-06 3.74943e-05 -8.66408e-06 5.19659e-06 -6.9455e-06 -9.97541e-07 -1.14141e-05 2.18062e-05 -6.82018e-06 
-1.84649e-05 -8.59272e-06 -2.9477e-06 8.43756e-06 7.73576e-06 1.81327e-05 1.0016e-07 -1.38639e-05 9.03276e-07 
-5.27256e-06 6.27542e-06 -1.76977e-06 5.75694e-06 -5.51818e-06 9.97188e-06 4.63193e-06 -2.04579e-06 9.07636e-06 
1.72029e-06 -4.72317e-06 -1.00245e-06 2.61005e-07 -1.87518e-06 4.21076e-06 5.82529e-06 -8.62112e-06 2.30888e-07 
2.45965e-06 4.92581e-07 3.08501e-06 4.84061e-07 -5.33484e-06 -4.43636e-06 -8.82604e-07 7.87887e-06 -8.60967e-06 
-9.6728e-07 4.43561e-06 -5.11884e-06 -6.80575e-06 2.54549e-06 3.96397e-06 -7.61449e-06 -7.00983e-06 2.58033e-06 
-1.16788e-05 2.53798e-06 3.23896e-07 -7.01766e-06 6.87367e-07 -1.70454e-06 -3.17876e-06 5.00981e-07 3.64668e-06 
-1.10521e-05 -7.60707e-06 -8.94732e-08 1.85175e-06 2.57746e-06 2.98168e-06 5.05302e-07 -2.17851e-06 -2.1283e-06 
-1.62388e-06 5.07901e-06 -1.77995e-06 -2.30837e-06 6.26054e-07 2.02417e-06 -6.6917e-06 -6.1167e-06 4.93499e-07 
-7.6996e-06 7.20292e-07 -1.03409e-05 -2.625e-06 2.82776e-06 7.81135e-06 -2.08505e-06 1.62577e-06 -4.90916e-06 
-1.4939e-05 -1.319e-06 1.18872e-06 -1.20878e-05 -1.11707e-06 -8.95553e-06 -9.39936e-07 1.09702e-05 6.96451e-06 
1.34671e-06 -8.50817e-06 3.68137e-06 1.43808e-05 8.81175e-06 2.10357e-07 -8.80735e-07 -1.31343e-05 2.23431e-05 
8.46026e-06 6.20085e-07 8.57758e-06 1.78006e-06 -1.48728e-05 1.02974e-05 -1.1336e-06 -1.21656e-05 -3.42346e-06 
1.97612e-05 2.77787e-06 1.13704e-05 3.55729e-07 -1.73e-05 -2.03534e-05 -7.86409e-06 1.59428e-05 2.59491e-06 
1.042e-05 -1.62498e-05 7.06245e-06 -5.26664e-06 5.6276e-07 -9.42225e-06 -4.07147e-06 2.26516e-05 8.03189e-07 
1.11914e-05 -1.43479e-05 2.84446e-06 -6.85251e-06 9.50714e-07 -8.17527e-06 -7.8202e-06 1.11719e-05 6.80337e-06 
-7.42481e-06 7.48627e-06 3.59116e-06 -1.98746e-05 -4.08356e-05 -0.000102882 2.53013e-05 3.37059e-05 -4.44437e-05 
6.18359e-07 -1.50269e-05 -0.000630531 -0.000121002 0.000349113 0.000824715 0.000912357 -0.00261183 -0.00119011 
-0.00101739 0.000299336 -0.000601419 0.000688675 -4.53007e-05 0.00312176 -3.19058e-06 -0.000100649 0.000951415 
-9.75784e-05 -0.000373637 0.000280561 -5.47642e-05 -0.00117145 -0.000225377 0.00013348 -0.000529746 0.000122989 
1.06153e-05 0.000110097 0.00115205 -1.60785e-05 -1.49694e-05 0.000487868 5.76559e-06 -0.00073684 0.000237773 
0.00010849 -0.000860091 0.000178841 -7.45936e-05 -0.000640051 0.00108421 -6.94661e-05 -0.000330171 0.000252307 
-8.90331e-05 0.000520643 -0.000399882 -1.31051e-05 -6.25133e-05 0.000120937 0.000104126 -0.000454241 0.000802623 
1.77824e-05 -0.000289787 0.00115858 -3.76461e-05 -0.000144107 0.000534172 -0.000148716 2.12614e-05 -7.47825e-05 
-4.71011e-05 -0.000856 0.000625813 3.95834e-05 -0.00127849 0.00108092 -5.32946e-08 0.000156715 0.000487474 
-0.000516978 -0.000312593 0.000524397 -0.000437275 0.000750105 0.00263699 -0.00115045 -0.00217566 0.000470658 
-0.00140504 -0.00297328 -0.00021982 -0.00198116 -0.00263077 -0.000417701 -0.0021208 -0.00258167 -0.000129606 
-0.00210883 -0.00206196 -9.60585e-05 -0.00258155 -0.00361315 -0.000381349 -0.00323467 -0.00240507 -0.000516238 
-0.000485834 -0.00158925 2.6393e-06 -0.00225035 -0.00109309 -0.00095759 -0.000267093 0.00405337 0.00267587 
0.00205544 0.000688436 0.000158595 0.00205786 0.000726545 -0.000333979 0.00195705 0.00198088 -9.39094e-05 
0.00197458 0.0019123 0.000118435 0.00218267 0.00193665 -1.25366e-05 0.00278577 0.00218878 0.000196361 
0.00210338 0.00207875 0.000368128 0.00195772 0.0010774 4.71303e-05 0.000123686 0.00247379 0.0025053 
0.00195757 0.00181422 0.00195145 0.00167704 -0.000385342 0.00177321 0.00146908 -2.5065e-05 0.00070052 
0.00132831 -7.90826e-05 0.000808398 0.00118657 -3.9978e-05 0.00102737 0.00101216 2.02066e-05 0.00125445 
0.00152806 1.99696e-05 0.0024642 0.00439475 -0.00020687 0.000141941 -0.000200291 0.000497849 -0.00458883 
-0.00282598 -0.00237232 -0.00221865 -0.000432043 -0.00196507 -0.00223702 -0.000385941 -0.00219967 -0.0021613 
-0.000512267 -0.00168963 -0.00189242 -0.000172677 -0.00260474 -0.00208594 -0.000140093 -0.00206603 -0.0015837 
-0.00053313 -0.00128882 -0.00195416 -0.000674198 -0.00165385 -0.00153913 4.03259e-05 -8.91059e-06 4.31306e-06 
-4.58797e-06 0.00600271 0.00447729 0.000728902 0.00139447 0.00256603 -0.000110287 -0.00513184 -0.00504442 
-0.000563371 8.04498e-06 -9.25606e-07 3.46544e-06 3.45887e-06 0.000134432 0.000256692 5.68233e-05 6.50466e-05 
-2.94177e-05 0.000317697 -0.00160111 2.24794e-05 0.000177144 0.000466759 0.000257795 -2.18178e-06 -6.82391e-05 
0.000922655 -0.00076161 0.00035595 -3.62296e-05 -0.000874914 -0.00308287 -0.000696726 -1.96004e-05 8.35626e-05 
-3.4496e-05 -2.77689e-05 -1.46334e-06 -2.72776e-06 6.49256e-05 0.000375721 -1.58449e-06 -2.64665e-06 5.97639e-06 
-2.23964e-06 -3.12796e-06 -4.99344e-06 1.08777e-05 3.9799e-06 -1.26058e-06 5.83347e-06 3.53246e-06 -1.3189e-05 
5.17393e-06 6.95258e-07 4.17404e-06 4.95172e-06 -6.18813e-07 2.03375e-06 9.11395e-06 7.91982e-06 -8.4064e-07 
2.43954e-06 6.82033e-06 -1.90445e-07 -2.61928e-06 4.71565e-06 2.38496e-06 2.79183e-06 4.97882e-07 2.91545e-06 
4.07743e-06 -2.38497e-06 -2.19598e-06 1.71866e-05 4.21779e-05 6.63669e-05 0.000102819 -2.27029e-06 -6.20545e-06 
-2.76718e-06 7.95668e-05 4.49949e-05 1.73758e-05 0.000167687 -0.000158793 0.000297305 6.76826e-05 1.47945e-05 
-3.14222e-06 4.26348e-06 3.57548e-06 3.54412e-05 -2.0359e-06 1.43077e-05 5.89324e-06 1.08551e-05 1.89689e-06 
-1.47314e-05 -1.11597e-05 7.01618e-07 -1.31343e-06 4.96792e-06 1.3682e-05 1.76566e-05 -1.90125e-06 1.17889e-05 
1.98086e-06 2.20914e-05 3.96423e-06 -1.47132e-05 -1.35359e-05 -5.33257e-07 7.56463e-06 4.30745e-05 2.55715e-05 
-2.82471e-05 -6.20111e-05 -4.37764e-05 -2.32413e-05 -0.000104217 -2.15219e-06 8.29856e-06 -2.03996e-05 -1.03627e-05 
3.96336e-06 5.97535e-06 -4.6309e-07 -1.51034e-05 -2.52807e-06 1.67605e-05 1.51071e-05 1.0861e-05 -3.08437e-06 
-3.32117e-06 1.01389e-06 -1.64819e-06 -9.64335e-06 2.16586e-06 3.18715e-06 -1.71363e-06 1.607e-06 5.4884e-06 
-1.932e-06 7.79633e-06 3.73769e-07 1.24309e-06 5.81572e-06 -7.66416e-07 -5.93218e-06 1.97913e-06 8.15563e-09 
6.39939e-06 -7.9159e-07 2.28555e-06 1.13446e-07 1.38964e-06 -4.21942e-07 -3.85569e-06 1.10286e-06 6.84536e-07 
2.68015e-06 -5.56439e-06 2.25632e-06 2.4665e-06 -7.28448e-06 3.49874e-05 -3.8441e-05 0.000181823 3.36022e-06 
-3.94809e-06 -4.1652e-06 -3.84491e-06 -5.20673e-07 -7.89874e-07 8.50469e-07 7.23469e-08 -4.84729e-06 6.86863e-05 
-7.82086e-06 2.66563e-05 3.14539e-06 -3.90996e-06 6.44334e-06 2.28461e-08 0.000110695 7.18534e-05 4.88261e-05 
-9.32324e-07 -7.71787e-07 7.18165e-07 5.6465e-07 -2.34204e-06 -2.04204e-06 1.16617e-06 -5.34025e-06 -5.62682e-06 
-1.12006e-06 -3.45757e-06 9.23857e-07 -1.03117e-05 -4.02759e-07 2.32962e-06 8.42611e-06 -2.57165e-06 -2.58924e-06 
-4.7881e-06 -7.72218e-06 1.28502e-06 1.29352e-06 -5.14177e-06 -1.24867e-06 -1.11823e-05 -9.03147e-07 1.03464e-05 
9.08502e-06 -3.15991e-06 -6.63452e-06 4.41627e-06 -3.39172e-06 4.75934e-06 1.7254e-05 7.22932e-06 -6.63689e-06 
1.57014e-05 -7.61787e-06 -3.51514e-05 7.16683e-06 1.41467e-06 3.16701e-06 1.11148e-05 5.56172e-06 -1.28489e-05 
-1.30965e-05 4.12261e-07 4.39068e-06 1.81138e-05 -3.12833e-06 -1.38066e-05 -1.23194e-05 -1.55078e-07 1.18938e-05 
-6.28017e-06 1.10006e-05 1.7201e-05 1.08017e-05 -8.07203e-06 -1.07079e-05 -3.47367e-06 -1.43425e-06 5.06468e-06 
7.57551e-07 1.18883e-05 -1.50862e-05 -2.33662e-06 -8.67493e-06 -4.92348e-06 4.36194e-06 1.91064e-05 3.11661e-05 
1.13058e-05 1.95695e-05 -7.08889e-06 -1.05741e-05 -1.2276e-05 -2.84915e-05 -0.000178193 -0.000460091 -9.77647e-05 
0.000140779 -0.000107259 -6.77671e-05 0.000132744 -0.000111801 -1.49958e-05 6.95829e-05 -2.52492e-05 -6.95711e-05 
0.000109783 0.000250402 0.000107401 -4.92594e-06 4.82039e-05 2.894e-06 -3.62737e-05 7.07208e-05 -2.29289e-05 
-0.000117214 9.31112e-05 -1.19554e-05 -2.72338e-05 1.6736e-05 2.68249e-05 -4.52628e-05 3.25593e-05 1.36924e-05 
-6.61279e-05 2.02353e-05 -7.78301e-06 -0.000119071 4.44495e-05 -3.48646e-05 -2.83921e-05 -6.99619e-06 -2.74169e-05 
-3.74943e-06 2.80412e-05 -2.35285e-05 -5.34539e-05 3.39264e-05 1.62879e-05 -2.00066e-05 1.30648e-05 2.4466e-05 
-0.000110555 7.63033e-05 -1.10898e-05 -3.48434e-06 1.732e-05 2.48155e-05 -5.32817e-05 5.72035e-05 -3.06242e-05 
-6.43554e-05 2.0653e-06 -4.54415e-05 0.000222739 -0.000222641 0.000517081 0.000392673 -0.000105855 0.000100058 
-1.63757e-06 -7.76858e-07 5.7137e-06 3.58774e-06 3.31227e-05 -2.94806e-05 -4.53164e-05 -0.000140409 -6.97627e-05 
-7.38373e-05 -7.33225e-05 -5.08531e-05 -1.41663e-05 -9.66694e-05 5.19558e-05 -4.92674e-05 -7.05721e-05 -0.000361568 
-3.57919e-08 -0.000308588 -0.00014929 -8.14631e-05 -5.32119e-05 -0.000211871 -0.000120951 0.000386702 -0.000134097 
-8.18558e-05 5.68159e-06 -6.51955e-06 2.48581e-06 0.000172756 -0.000125926 -0.000140436 2.62025e-06 -7.5836e-05 
-1.7155e-05 0.000119322 -3.57785e-05 7.39807e-05 6.78826e-05 -5.07378e-06 -3.57757e-05 5.91933e-05 3.18066e-05 
2.60239e-06 0.000255634 -2.40343e-06 0.000131756 0.000250468 -3.36054e-05 -0.000485152 -0.000211637 -2.54772e-05 
-5.45636e-05 -6.5809e-05 6.60312e-05 2.37548e-05 -1.97427e-05 -2.94286e-05 5.3439e-05 -2.83037e-06 1.74666e-05 
4.67839e-05 4.11214e-05 -1.29659e-05 4.45286e-05 1.79249e-05 -5.80967e-06 -2.75706e-06 1.1506e-06 3.84994e-06 
9.498e-07 5.70819e-06 4.33369e-06 -5.87576e-06 -0.000213613 -0.000215691 -0.000174602 -0.000199472 2.21276e-05 
-0.000131782 -7.53498e-05 -9.53545e-06 4.34959e-05 -0.000193081 -2.99004e-05 -9.05343e-05 -0.000181917 -2.09506e-05 
-4.04272e-05 -4.9797e-05 -1.28587e-05 0.000123713 0.000187628 0.000105218 4.38275e-05 0.000338239 -0.000394955 
-0.000222442 5.48771e-05 3.43387e-05 6.17939e-05 0.000211489 0.000313501 5.62261e-05 -0.000103301 3.89676e-06 
-3.41394e-06 -9.97977e-05 -8.58852e-05 -0.00042185 2.45915e-05 -0.00011721 0.000226755 0.00015201 9.95523e-05 
-2.85585e-06 -1.95429e-06 5.34755e-05 1.72803e-05 4.9012e-05 -6.72791e-07 1.29097e-06 3.68875e-06 -2.48675e-06 
0.000202283 0.000294219 1.58117e-05 4.86305e-05 0.000261874 -0.000176164 -0.000127244 0.000379642 -0.000135096 
0.000164899 -8.25814e-07 -1.28959e-05 9.0953e-05 4.11586e-05 6.6517e-05 -3.42299e-05 1.74012e-05 -0.000123073 
-0.000442684 -0.0006756 0.000273423 -3.47191e-05 0.000280536 4.74757e-05 -3.18749e-05 0.000119567 0.000283657 
5.17678e-05 -7.48618e-05 4.59402e-05 -0.000116295 -8.83857e-05 0.00028441 -1.67403e-05 0.000118981 4.84789e-05 
-2.01613e-06 1.32853e-07 1.16918e-05 -5.08945e-06 1.10562e-05 1.3072e-05 1.02982e-05 2.3305e-06 1.24886e-05 
-5.19569e-06 4.1895e-06 2.27943e-06 3.46872e-06 7.24857e-06 3.52096e-06 2.60515e-06 6.15996e-06 1.35078e-06 
-5.65171e-07 6.13858e-06 4.28724e-07 -4.73706e-07 -1.8397e-06 5.94473e-06 2.54823e-06 3.50258e-05 -1.14317e-05 
6.71195e-06 2.57055e-06 1.44079e-06 2.25773e-06 -4.60978e-05 1.56073e-05 -1.5363e-06 -2.90576e-06 7.18995e-06 
1.13961e-05 5.51205e-06 -1.41628e-05 -5.80226e-06 3.76115e-06 3.05348e-06 4.78651e-06 5.79821e-06 -8.66772e-06 
1.47287e-06 4.39021e-06 1.12726e-05 -9.0447e-06 1.21937e-05 1.5606e-05 4.11953e-05 1.09563e-05 -2.76409e-05 
1.64704e-05 1.83277e-06 4.10971e-06 -8.93416e-06 8.92845e-06 -7.77857e-06 5.96698e-06 4.80291e-06 -2.81736e-05 
6.16117e-06 1.32789e-06 -9.66378e-07 2.80345e-06 4.35064e-06 -5.03774e-06 1.34597e-06 9.82984e-06 -1.729e-06 
5.51997e-06 2.51977e-06 -3.14565e-06 -3.7075e-07 -1.83053e-06 -9.62894e-06 -2.12933e-06 5.24446e-06 4.56267e-06 
2.29497e-06 2.38327e-06 -2.65812e-06 3.95294e-06 1.35518e-06 7.27723e-06 -3.97945e-07 -5.61913e-06 -1.9561e-06 
3.31078e-06 -1.97262e-05 -1.62124e-05 2.34944e-05 -6.10532e-07 -1.37124e-06 -1.89091e-06 -2.28975e-06 -1.14082e-06 
1.10605e-06 1.77096e-06 -9.27505e-07 -3.88426e-06 -1.49499e-07 -5.40633e-06 -5.2932e-06 -2.379e-06 -2.56901e-06 
3.61713e-06 -1.11291e-05 2.71827e-06 2.54771e-06 5.26105e-06 -4.98388e-06 -5.22811e-06 -1.11587e-06 -7.28531e-06 
6.11616e-06 -1.36519e-06 -8.55278e-06 8.74364e-07 1.00895e-05 2.40049e-06 1.76629e-06 -1.21517e-05 -1.45067e-06 
3.8902e-05 3.07846e-05 -1.31004e-05 2.83055e-05 1.876e-05 4.1545e-06 3.97978e-05 2.31376e-06 3.09684e-05 
-1.3529e-06 7.05276e-06 -6.35214e-05 4.99717e-06 -6.9884e-06 2.60401e-05 3.90561e-06 4.96783e-06 2.62761e-05 
2.02021e-06 1.52699e-05 5.54861e-06 -2.01664e-06 -5.24226e-06 1.41975e-05 1.22703e-05 8.73618e-07 5.09659e-06 
6.45854e-07 6.11716e-06 -1.46775e-07 -7.34474e-06 1.12664e-05 1.2688e-06 -1.51078e-05 2.36707e-05 -5.68671e-06 
-3.86252e-06 2.43438e-05 3.39768e-06 1.78046e-06 1.86597e-05 -1.59109e-05 -0.000106495 4.99818e-05 1.55436e-06 
-2.16681e-05 3.1866e-05 1.11701e-06 -8.63992e-05 0.000148299 -2.16988e-05 -2.06833e-05 -3.2938e-05 3.78382e-05 
-3.22063e-06 6.91398e-05 -8.84622e-05 3.79723e-05 6.68037e-05 2.81203e-05 8.39027e-06 -4.94153e-06 -1.29723e-05 
1.1051e-05 9.76533e-09 2.68788e-05 9.19014e-06 -4.74073e-06 1.31469e-05 -6.14475e-06 -3.48927e-06 1.32154e-06 
-1.38242e-05 -1.73257e-06 -1.85803e-05 -1.02162e-05 -5.64105e-06 -2.25967e-05 1.79047e-05 1.21624e-06 -9.52774e-06 
-3.62035e-06 -3.76714e-06 -7.77533e-06 -1.00813e-05 -1.91172e-05 3.06564e-05 -8.92132e-06 4.71999e-06 6.56945e-06 
-1.20513e-05 1.9577e-07 -2.94536e-05 -1.64487e-05 -5.76649e-06 2.49827e-05 -1.0953e-05 9.68987e-06 -4.05014e-06 
5.92656e-06 1.25298e-06 1.43548e-05 1.54217e-06 -1.49178e-06 -3.58746e-06 -8.96598e-06 6.89882e-05 -9.6129e-06 
2.70737e-06 5.59641e-05 3.63435e-05 -5.28228e-05 -8.2604e-06 2.68264e-06 -7.49878e-05 8.0026e-06 1.66525e-05 
-3.54857e-05 -5.75675e-05 -1.07574e-06 -4.02335e-05 -1.80005e-05 -2.89159e-05 2.22585e-05 -3.6589e-05 -4.28315e-05 
5.3049e-05 3.21208e-05 -3.3611e-05 1.07607e-05 -9.95228e-05 0.00011033 -0.000158251 -0.000172625 0.000155387 
-0.000111151 2.63323e-05 1.13227e-05 -1.96316e-05 -1.61746e-05 -3.58983e-05 -2.33418e-05 -3.99531e-06 3.23601e-05 
-8.57382e-06 1.87149e-05 -2.50841e-05 4.92566e-06 -6.95376e-05 3.613e-05 -1.08741e-05 -7.55384e-05 3.7137e-05 
2.9644e-05 -8.98919e-05 0.000137092 -4.2969e-05 -1.92444e-05 -7.01004e-06 -1.74261e-06 -2.23183e-05 -1.72928e-05 
7.17942e-06 1.15245e-05 -1.92281e-05 -1.52132e-05 3.97151e-05 -6.40312e-06 6.56324e-05 3.50105e-05 -2.32709e-05 
-3.11135e-06 3.53878e-06 -1.10622e-06 1.64731e-05 5.12594e-05 3.02811e-06 8.03231e-07 8.28379e-05 2.60574e-05 
-2.50001e-06 1.03255e-05 -1.49526e-05 7.21416e-05 1.6986e-05 -4.44765e-05 0.000119722 -5.03451e-06 0.000149083 
7.0709e-06 -2.13127e-05 4.20111e-06 -9.02788e-05 -3.19791e-05 1.92247e-05 4.49281e-05 5.12618e-06 2.23984e-05 
-3.60601e-05 -2.81854e-06 -6.49148e-05 0.000102928 -7.13749e-05 -8.34945e-05 5.19794e-05 -7.5719e-05 3.69707e-06 
-7.29867e-05 2.1215e-05 -8.054e-05 -2.88825e-06 -2.14168e-06 -1.10489e-05 5.55263e-06 -7.46427e-06 8.54695e-06 
1.00533e-06 3.68732e-06 8.00543e-05 1.156e-05 2.68383e-05 -2.20427e-05 2.77246e-05 -1.2698e-05 -6.64731e-06 
1.6809e-06 -8.71662e-05 -1.37294e-06 -7.56614e-06 -4.62317e-06 -1.15164e-05 6.15637e-05 5.94391e-06 9.37628e-05 
-2.20073e-05 3.98527e-05 8.11121e-05 -9.8359e-05 -8.0232e-05 -1.54286e-05 1.61897e-05 -1.76565e-05 -0.000110943 
-7.24953e-05 8.95523e-06 4.76377e-05 2.48686e-05 1.17227e-05 5.69113e-05 -2.14563e-05 4.37406e-05 6.2784e-05 
-8.06293e-05 1.62276e-05 6.02094e-05 8.3884e-05 1.63016e-05 4.6699e-05 -4.89521e-06 -1.01624e-06 -1.83275e-06 
-7.23473e-05 0.000128537 4.19841e-06 1.03703e-05 -3.02841e-05 -3.75804e-05 -4.58311e-05 9.5391e-05 0.00011319 
1.47443e-05 3.1222e-05 -5.36179e-05 -5.54748e-05 -4.34213e-05 -0.000186119 -7.85885e-06 -7.68646e-06 -2.45957e-06 
1.28548e-05 -3.32286e-05 8.21771e-06 9.48243e-06 6.85315e-06 -1.16478e-06 3.16554e-06 3.95107e-06 1.71564e-05 
6.12899e-06 -2.88468e-05 4.94979e-05 -4.18339e-06 3.35409e-06 -1.78306e-06 -1.85711e-05 -3.19476e-05 1.31166e-05 
7.04521e-06 6.84322e-06 1.00879e-05 -1.26666e-05 -4.51993e-06 1.7456e-05 3.23246e-07 -8.06225e-06 -6.92428e-06 
1.12477e-05 -8.07432e-06 1.54838e-06 1.48576e-05 -4.23197e-06 1.11973e-05 8.97519e-06 -1.75438e-05 -2.96189e-06 
8.46833e-06 -6.79879e-06 -2.07146e-06 9.84942e-06 2.16402e-06 1.05423e-06 4.28344e-06 -6.02024e-06 -7.61951e-07 
3.6034e-06 5.28861e-06 3.67298e-06 -3.56212e-05 -1.13977e-05 6.60032e-07 1.4733e-05 -1.55981e-06 -4.40669e-06 
-8.75877e-09 6.06892e-06 4.09321e-06 -4.62315e-06 -9.32518e-06 -2.68086e-07 9.41941e-07 -1.90914e-06 -6.82157e-06 
-2.62748e-06 1.80756e-06 -7.32677e-06 1.33697e-06 -1.06114e-05 2.19667e-06 -1.79941e-06 6.5041e-06 -1.40144e-05 
-9.50033e-06 1.76479e-05 -1.48507e-05 3.26425e-06 1.70915e-05 -1.77688e-06 3.08704e-06 -6.66969e-06 -9.74136e-06 
7.94417e-05 -2.49387e-06 7.96757e-06 -2.69322e-06 -1.21381e-05 2.36173e-05 2.83044e-06 2.30596e-06 5.67656e-06 
-3.49171e-06 -5.73271e-06 1.42048e-05 -3.69981e-06 4.03573e-06 4.91582e-06 -2.18554e-05 5.12801e-06 -1.52972e-05 
-2.00475e-05 2.40569e-05 1.16658e-05 -2.31515e-05 2.38889e-05 1.7614e-07 1.48223e-05 -2.66226e-05 -2.43125e-06 
3.07188e-05 6.72209e-07 -2.56126e-06 -2.66263e-05 1.64138e-05 -1.11815e-05 -1.2863e-06 -1.42207e-05 8.65746e-08 
1.41668e-05 -1.56878e-05 -1.02192e-06 1.43081e-05 -1.2195e-05 -1.55371e-05 9.12124e-08 -1.48611e-05 2.37007e-05 
7.1256e-06 2.54032e-05 -2.15316e-05 -1.51805e-05 -1.64298e-06 -3.85879e-06 1.6184e-06 4.72195e-05 -4.06244e-06 
1.96213e-05 8.97838e-06 -1.438e-05 3.08171e-06 -1.17642e-05 1.19917e-05 1.38562e-05 5.20181e-05 -0.000152155 
4.62259e-05 -8.28612e-06 -0.000139284 8.17234e-06 9.13095e-06 2.03796e-06 -5.09437e-06 -1.46175e-05 1.65353e-05 
1.0383e-05 -2.48411e-06 -3.05492e-05 4.49048e-07 -1.609e-06 -3.59904e-06 -4.62435e-07 1.97912e-05 -2.69791e-05 
-3.45134e-05 -1.88049e-05 2.029e-05 -1.40242e-05 -1.07141e-05 -1.4611e-05 1.26304e-05 -1.68448e-05 -2.25894e-05 
-3.17198e-05 -5.98205e-05 -4.01228e-05 2.63661e-05 -1.12907e-05 8.61548e-05 -3.79562e-05 -0.000118912 7.74941e-05 
1.56943e-05 3.19637e-05 -1.76991e-05 -1.25919e-05 -2.0645e-05 -2.53833e-06 -1.37355e-05 -3.87142e-06 -2.25706e-06 
6.97236e-06 -3.35703e-06 -4.33952e-06 1.18492e-05 2.25701e-06 2.52954e-05 2.46486e-05 -1.68239e-05 1.45296e-05 
1.21316e-05 7.22851e-06 1.5754e-05 -4.87581e-05 6.11129e-06 0.000122016 -9.0112e-05 -4.16381e-05 5.60504e-05 
6.25406e-06 -2.27258e-05 4.97262e-05 1.65629e-05 -2.32454e-05 -1.3129e-06 1.26499e-06 -2.52116e-05 -1.57816e-05 
3.11255e-06 6.27757e-06 -3.16209e-06 -5.75221e-06 -3.21828e-05 1.84174e-05 4.43683e-06 -8.26463e-06 4.56924e-06 
2.95123e-05 3.14448e-06 -1.63449e-05 4.75945e-05 1.73926e-05 1.16328e-06 1.9733e-05 -1.97337e-05 -1.38253e-05 
-1.79125e-05 -3.14627e-06 -1.22654e-06 1.52921e-05 1.72718e-05 -2.48247e-05 1.04321e-05 1.22978e-05 1.73352e-05 
3.7382e-05 1.56727e-06 5.79544e-06 8.95359e-06 -1.87321e-05 -1.27609e-05 -4.46759e-06 9.51522e-07 8.91148e-05 
-3.76103e-05 -3.28572e-05 4.22835e-05 -5.62175e-05 3.96417e-05 -2.38606e-05 2.27892e-05 4.1167e-05 1.88976e-05 
-5.66285e-06 5.46779e-07 1.56505e-05 3.16794e-05 2.70379e-05 -7.95593e-05 -1.70156e-05 2.39694e-06 3.46735e-05 
-7.8133e-06 -1.95443e-05 -3.74856e-06 -1.14631e-05 -3.58825e-05 4.90883e-06 -1.0959e-05 -3.88185e-05 4.34795e-05 
-6.8898e-07 -8.7981e-06 1.96257e-06 -3.82271e-06 2.94382e-05 -3.14366e-05 7.43718e-06 -2.99762e-05 -2.37398e-05 
5.09087e-05 -9.58408e-06 -1.95871e-06 -1.15617e-05 1.67171e-05 1.60182e-05 -2.05607e-05 -5.38498e-05 -2.69651e-06 
7.49158e-05 -3.49666e-05 6.01995e-07 4.17361e-05 -6.44899e-06 1.03567e-05 1.24117e-06 9.54306e-06 -3.57071e-05 
4.28774e-05 -3.39008e-06 -6.15631e-06 4.55927e-06 7.20764e-06 7.26635e-05 3.43804e-05 -3.70105e-05 -2.01211e-05 
7.80855e-05 6.80582e-05 9.24079e-06 -2.19104e-05 1.34213e-05 3.41061e-05 2.53409e-05 2.71389e-05 2.46113e-06 
3.64451e-05 -2.17211e-05 9.79329e-06 1.13302e-05 -2.12e-05 1.80721e-05 -2.57968e-05 -2.20352e-05 -3.09149e-05 
7.07489e-05 1.54685e-05 -1.26715e-05 8.8636e-06 2.1319e-05 3.71559e-06 -2.80903e-06 -1.15954e-05 6.18144e-06 
8.61755e-06 1.51954e-06 9.60936e-06 -1.18508e-06 2.26054e-05 -1.22684e-05 2.29935e-06 -6.15854e-06 -1.79555e-05 
6.69456e-07 1.14554e-06 -1.97381e-05 -1.01843e-07 -4.43908e-06 -3.75322e-05 0.000102378 -0.000115119 -1.44375e-05 
6.15259e-05 8.96305e-05 -8.51809e-05 -1.26761e-05 1.55675e-05 -5.01747e-06 -1.38132e-05 -5.99798e-06 -1.73527e-05 
-2.83277e-05 3.29973e-06 -5.36802e-06 -3.84563e-05 2.18045e-05 2.96631e-05 -3.19588e-05 3.81198e-05 1.94202e-06 
5.51668e-06 -2.38747e-05 -1.14083e-05 -7.94318e-05 -7.07098e-05 2.53009e-05 -2.68725e-05 -8.23551e-06 2.92287e-06 
1.70085e-05 -5.44496e-06 -3.63679e-05 -2.92649e-05 4.88779e-05 -4.40906e-05 -8.20269e-06 -4.25777e-05 1.46151e-05 
-4.50705e-05 4.94013e-05 1.04771e-05 2.62799e-05 2.3242e-05 7.93416e-06 3.3094e-05 2.17017e-05 6.14576e-06 
-5.67531e-06 -2.75665e-06 5.36655e-05 -6.56075e-05 0.000134321 3.24744e-05 6.23792e-05 -4.71455e-05 4.06343e-05 
3.17461e-05 1.1966e-05 -5.9735e-06 -1.267e-05 1.80171e-05 5.00293e-06 3.43559e-06 -9.55426e-05 1.04662e-05 
4.62904e-05 -2.74774e-05 -1.39762e-05 1.43638e-05 -5.32465e-05 8.83244e-07 5.84152e-06 -7.2152e-06 -1.72923e-05 
8.92599e-06 -1.09797e-05 -3.32245e-05 8.40298e-06 2.87129e-06 2.13228e-05 2.39466e-06 -3.73813e-05 1.40654e-05 
1.73952e-05 0.000132013 7.41094e-06 -2.54984e-05 -6.66572e-06 -4.51972e-06 7.70453e-06 -8.73325e-07 -5.69313e-06 
-2.88961e-06 -7.01712e-06 1.68853e-05 -5.3146e-06 -7.78114e-06 1.57094e-05 2.29737e-05 1.00758e-05 8.25541e-06 
2.49946e-05 -2.91411e-05 -3.70799e-05 -1.51049e-05 -2.04463e-05 1.00189e-06 2.4487e-05 -1.61634e-06 -9.08188e-06 
-1.31816e-05 9.71566e-07 1.81869e-05 -1.99562e-06 2.06187e-05 2.81132e-05 -2.55849e-05 -7.68709e-06 -1.81333e-05 
-2.03e-05 9.37281e-06 5.57369e-05 -7.18778e-07 4.28185e-06 4.04957e-05 1.84073e-05 -8.3993e-06 3.86296e-06 
7.30956e-06 -5.47293e-07 1.22436e-05 -1.82733e-05 -9.26501e-06 -4.19387e-05 -1.0823e-05 -1.52103e-05 -7.02224e-06 
3.25459e-05 -6.47698e-07 -1.69582e-05 -1.18132e-06 2.5719e-05 -1.63804e-05 -1.24096e-05 3.119e-06 3.76726e-05 
1.13825e-05 -1.69511e-05 -3.04174e-05 -2.44847e-05 2.67921e-05 2.8941e-05 -3.56059e-05 -2.11931e-05 -2.16803e-05 
1.19607e-05 -1.98806e-05 2.3661e-05 -2.43028e-05 -3.29828e-06 -6.77683e-06 7.48983e-06 3.43135e-05 5.15399e-05 
-6.90143e-05 3.58586e-06 -6.08748e-06 -3.973e-06 4.5656e-06 1.40715e-05 -2.88805e-05 8.05324e-05 -9.78402e-05 
-6.14387e-05 1.48253e-05 3.11166e-05 2.20148e-05 -1.1581e-06 8.04901e-06 -3.82525e-05 -1.62358e-05 -1.0357e-05 
1.26794e-05 -5.35564e-06 -1.78132e-06 -1.81251e-05 1.79751e-06 8.80448e-06 2.13181e-05 -4.76802e-06 7.64577e-05 
-5.75624e-06 2.8771e-05 -2.362e-05 -1.65352e-05 6.4553e-07 6.48627e-05 -4.84418e-05 2.78282e-05 -3.01931e-05 
-3.02043e-05 -1.96189e-06 -1.81237e-05 -2.12012e-05 4.72043e-06 2.71894e-05 2.33717e-06 2.16992e-06 -3.72709e-05 
-1.88772e-05 -9.38582e-05 -2.09144e-06 4.29976e-05 3.97363e-06 5.18023e-05 3.39477e-06 2.14097e-06 -1.03833e-05 
-2.22847e-05 5.39808e-06 -8.61688e-06 3.74509e-05 -3.48958e-05 -4.60914e-06 2.14739e-05 -4.2412e-05 -6.45209e-05 
4.22177e-06 1.96516e-05 1.32847e-05 4.86777e-06 -7.25448e-05 2.25543e-06 2.90774e-05 -2.82259e-05 2.80681e-05 
-4.85043e-05 1.42602e-05 6.54036e-05 -1.58589e-05 8.31997e-06 -1.8263e-06 5.52416e-06 -5.2563e-05 6.73721e-06 
4.98449e-06 1.30874e-05 -4.64394e-05 1.13891e-05 2.08486e-05 -2.43826e-05 1.53129e-05 -6.24625e-05 1.64279e-06 
2.64547e-05 -4.17703e-06 1.50652e-05 -8.50374e-05 8.93109e-05 3.35362e-05 -3.81841e-05 4.73238e-05 6.7149e-05 
-3.71701e-05 -8.65789e-06 -5.35668e-05 1.06587e-05 2.18402e-05 -3.68664e-05 -1.0515e-05 -5.23961e-05 9.99246e-07 
-1.3474e-05 -1.06499e-06 -4.52572e-05 -1.30933e-05 0.000126118 -5.78151e-05 -7.77491e-05 -1.84146e-05 1.43685e-06 
-0.00274562 8.1496e-06 -1.32457e-06 -3.41661e-06 -3.62848e-06 -9.86281e-06 -3.7824e-06 -8.15884e-06 -3.55161e-06 
-1.934e-06 1.89947e-07 -5.57811e-06 1.0215e-06 -4.93111e-06 9.37701e-06 -1.91042e-06 4.02492e-06 1.37592e-05 
-8.5406e-06 7.841e-06 -1.00401e-05 1.98086e-05 1.27918e-06 6.02122e-06 4.99642e-06 1.84527e-05 -2.97929e-06 
2.88877e-05 -1.7855e-05 2.19254e-05 -3.16498e-05 1.16316e-05 -4.04643e-05 -8.4178e-06 2.58643e-05 -3.40596e-05 
-2.05789e-05 -3.01338e-05 -9.2093e-06 -2.30805e-05 9.12996e-06 -4.76419e-06 6.51932e-06 -4.1118e-05 3.60479e-05 
-3.0072e-05 5.29498e-05 -3.98106e-06 -1.14058e-05 -8.31404e-06 3.41564e-05 -1.07019e-05 5.69113e-05 5.57899e-06 
3.65338e-05 1.34606e-05 -1.26478e-05 1.13045e-05 6.92651e-05 4.32499e-06 8.78325e-05 3.40504e-05 -4.29977e-05 
0.000105668 0.000112184 0.000146945 0.000257167 0.000315236 0.000339149 -0.00416361 0.0115993 -4.32955e-06 
1.51468e-05 1.24495e-05 1.59627e-05 7.05339e-06 -4.22412e-05 -2.32526e-05 3.21053e-05 2.62477e-05 0.000103792 
0.00745682 9.79996e-06 -0.00491554 0.00190874 -1.2016e-05 -0.000605597 -0.000242047 -0.000133309 -6.27982e-05 
-7.1797e-06 -5.68647e-05 -3.68032e-06 -4.43047e-05 4.556e-06 -3.64316e-05 5.16294e-06 -2.75874e-05 1.34079e-05 
-4.22348e-05 1.57398e-05 -3.50078e-05 2.16122e-05 -2.24769e-05 1.0187e-05 -4.1542e-05 -2.57135e-08 -4.78981e-05 
2.86518e-05 -4.74206e-05 5.06568e-05 -2.7712e-05 6.6286e-05 8.31592e-06 -3.66876e-05 5.10194e-05 3.348e-05 
4.35736e-05 -1.04804e-06 3.94383e-05 -2.39997e-05 3.17877e-05 -3.70314e-05 7.22176e-06 -1.08781e-05 1.6342e-05 
-3.34166e-05 1.01069e-05 -3.37464e-05 -9.79082e-06 -2.86958e-05 1.07366e-05 -7.80324e-06 -1.2746e-05 -8.26438e-06 
-1.02292e-05 -2.51846e-06 -9.28963e-06 5.60476e-07 5.1663e-06 -8.48188e-07 -4.80479e-06 -8.3871e-07 -7.93279e-06 
9.06032e-06 -4.76918e-06 1.33379e-05 -1.21234e-06 1.40784e-05 1.08944e-05 1.48451e-05 -7.66911e-06 9.62924e-06 
8.55554e-06 -7.32285e-06 -4.98036e-05 -0.000161468 -3.52072e-05 -1.34711e-05 7.53853e-05 -3.90241e-05 -2.34021e-05 
-2.85927e-07 2.10438e-05 -1.76117e-06 1.69861e-05 -2.37297e-05 -1.50317e-05 7.37273e-06 4.72916e-06 4.82857e-06 
8.69836e-06 8.00616e-06 6.95357e-06 1.59346e-06 -6.74176e-06 -3.95922e-07 -5.55686e-07 1.29202e-06 -5.99178e-08 
-7.99249e-06 2.91109e-06 9.46857e-06 1.14326e-05 4.51639e-06 1.0692e-05 -8.93506e-06 5.7495e-06 1.15084e-06 
-3.99584e-06 -8.16696e-06 -6.92752e-06 -1.46024e-06 8.25839e-06 2.49966e-06 1.75046e-06 -2.38942e-06 -1.4825e-05 
-2.57876e-06 -4.18439e-06 -3.50498e-06 5.23296e-07 7.17231e-06 5.68154e-06 2.85269e-06 -5.25541e-06 2.76833e-05 
-2.86739e-06 1.0927e-05 -1.65392e-06 -1.07892e-06 -9.84926e-06 9.30034e-06 1.02923e-05 -9.436e-06 -4.33648e-06 
3.24345e-06 0.00564163 0.00634948 -0.00510258 0.00112827 0.00136248 0.00164105 0.000139906 0.00131278 
-0.00319105 -0.0020849 -0.0107716 -0.0145192 -0.00661047 -0.00917 -0.00804165 -0.00973031 -0.00975002 
-0.00747572 -0.00303335 0.00726369 -0.00364821 0.00149697 0.000196377 -0.000479375 -0.00229055 0.0106033 
-0.00484468 0.0245799 -0.0020767 -0.00427412 0.00147485 -0.00524638 -0.00632574 -0.00609086 0.00370613 
0.00417369 -0.00206764 -0.00121532 0.00468982 -0.00249754 0.00190033 -0.00377041 -0.00113046 -0.000358387 
0.00514352 -0.00622387 0.00748621 0.000601773 0.013505 0.000187315 -0.00774704 0.00505538 0.000913617 
0.00487967 -0.00459075 -0.00277354 -7.84892e-05 -0.00271023 0.000174509 -0.00728443 0.00269865 -0.0101951 
0.00913847 0.00425735 0.00357276 0.00317589 0.00376938 0.00487801 -0.00053858 0.00248814 0.0156381 
-0.00895391 -0.0300615 -0.00393915 0.00527193 0.00481824 0.00720315 -0.000745898 0.00595488 0.00579486 
-0.0135858 0.00659146 0.00061187 -0.00541306 -0.000458547 -0.000427847 -6.52216e-05 -0.00488976 -0.00169156 
-0.00522831 -0.00219935 -0.00590946 -0.00353764 -0.00164203 -0.00172137 0.00595328 0.00796017 -0.00580744 
-0.00170684 0.00142609 0.000998802 0.000882185 0.000414425 -0.000499875 -0.000200117 0.00202432 0.00673898 
-0.0102624 0.0135737 0.00365645 -7.42571e-05 0.00170827 0.000899212 0.00118957 0.00176269 0.00506041 
0.00447407 0.0104982 0.0109997 -0.00103826 0.000639007 -0.00790327 0.000777169 0.00193745 -0.00452073 
0.000463482 0.000982243 0.000552194 -0.00530716 -0.000154679 -0.000690311 0.00596882 0.012225 -0.0152394 
0.00525579 -0.00559498 -0.00804736 -0.00266073 0.00534657 -0.00510356 0.0045194 0.00150103 -0.000457868 
-0.00629828 -0.00548993 0.000942694 -0.00564597 -0.0128411 0.000900059 -0.00104657 0.000393148 -0.00076504 
-0.000875573 -0.00181138 -0.00236724 -0.00823512 -0.00296873 -0.00728471 -0.00491798 -0.0106246 -0.0106699 
0.0035924 0.00722925 0.00774732 0.0210916 -0.00574507 0.000834402 -0.000719478 -0.00221523 -0.00067525 
0.000111387 -0.00395659 0.000234018 -0.00244106 0.00146554 -0.00613205 -0.00107352 -0.00500753 -0.00381707 
0.00960997 0.0042719 -0.0089762 0.00212417 0.0124249 0.0182905 -0.000111057 0.0198808 0.00591542 
-0.00544522 -0.0041298 -0.00497669 0.000124094 -0.00230028 -0.0020523 -0.0015133 -0.00321148 -0.00114641 
-0.0051557 0.00112732 -0.00157728 0.000230561 0.00142354 0.0236561 0.0207888 0.0128538 0.00561232 
-8.71587e-05 0.00321402 2.22819e-05 0.00233431 -0.000153193 0.00200307 -0.000381775 0.00435943 0.000548116 
0.00236856 0.000880325 -0.00032888 -0.0241128 -0.0138736 -0.00654965 -0.0102965 -0.00729763 -0.0194256 
0.000707803 0.00659193 0.00085002 0.000526816 0.00115911 0.000110677 -0.000806767 0.00391509 0.000704068 
-0.000137982 -0.0054174 -0.00379538 -0.00610238 0.00365752 -0.0163503 -0.00584716 -0.00725159 0.0143473 
0.0467314 0.000780995 -0.0126987 -0.000712277 -0.00209255 0.00719739 0.00223049 -0.0308091 -0.0193539 
0.0130548 0.00460227 -0.000672104 -0.00983403 0.000177334 -0.000705156 0.000296677 0.000968799 -0.00150758 
-0.00530577 -0.0175407 0.00010686 0.00756663 -0.00520774 -0.0389319 -0.0323738 0.00276682 -0.00638462 
0.00396101 0.000447519 -8.85947e-05 3.80366e-06 -0.00561395 -0.00239032 0.0179671 0.00804612 -0.000742661 
-0.00791141 -0.00254787 -0.00159112 -0.00115524 0.00663137 0.00316112 -0.000687855 0.00476591 0.00543489 
-0.0076946 -0.0229485 -0.00532484 -0.0182091 -0.00845887 -0.000557382 -0.017156 0.000592389 -0.00912254 
-0.00640287 -0.00424055 0.0230172 -0.0102533 -0.0289508 -0.0147155 -0.00400638 0.0064948 0.000999537 
0.000112447 0.00152624 -0.00273683 0.000937399 -0.00347003 0.0010472 -0.00450019 0.0014534 -0.000622959 
0.00744581 7.28639e-05 0.00206616 -0.0118349 -0.000354912 0.016506 -0.00819312 -0.010769 -0.0089879 
-0.0151746 -0.0183733 0.00276638 0.00734526 0.00199521 0.0035434 -0.000259572 0.00338692 -0.00185817 
-5.49431e-05 -0.0023696 0.00227087 -0.00154457 -0.000381088 0.0040771 0.00379425 -0.0229546 -0.0170878 
-0.0106166 0.015078 0.00330109 0.00340949 -0.00698166 0.00390895 -0.00146748 0.00401059 -0.000939579 
0.00394045 -0.000708633 0.00235725 -0.000521498 0.00101341 -0.0029665 -0.000931385 -0.0075997 0.0117487 
0.0217769 0.00601136 0.0110233 0.0154899 0.00782406 -0.00282567 -0.000686296 0.00030432 0.00278773 
0.000269105 0.00193835 -0.000642743 0.000747685 0.00133207 0.0028196 -0.00866772 0.00264219 0.020268 
-0.046118 -0.030347 0.0138404 0.0102087 4.11513e-05 0.000807934 -0.000502039 -0.00154714 -0.00314474 
0.00196603 0.0288848 0.0328456 -0.00464685 0.000780471 -0.00090367 0.000254456 -6.67922e-05 -0.00184056 
-0.000926661 -0.00125086 -0.00221937 0.00122115 -0.0107187 0.0117544 0.0104916 -0.0128757 0.0150482 
-0.00018512 0.00112565 -0.000110535 -0.0018158 0.00222579 -0.00092996 -0.0189405 -0.0418491 -0.00823809 
0.0161576 -0.00490395 -0.000195735 -0.00056776 -0.00117527 -0.00198874 -0.00177167 -0.00317032 -0.000109286 
0.00470763 0.0345371 0.00611169 0.0225408 0.00711795 -0.00218729 -0.00223993 0.0120084 -0.00123618 
0.0204373 0.0188885 -0.0126883 -0.002901 0.00403881 0.00285537 -0.012841 0.00820935 0.0102983 
-0.000663003 0.000635583 9.56664e-06 0.000307573 -0.000220612 0.000233046 -0.000301156 -0.000762868 -0.000411373 
-0.0034317 0.00348289 -0.00156031 -0.0101484 -0.00386477 0.0159589 0.00426902 0.00206036 0.0101398 
-0.00136277 0.00182718 -0.0136657 0.00674669 0.00930792 0.00530666 0.0016813 0.00118489 0.000557416 
0.0055247 -0.00296894 -0.00281464 -0.00132907 -0.00427723 -0.0078385 0.00376195 -0.0059746 -0.00396147 
-0.00651403 0.015715 0.00888235 -0.0104444 -0.00593544 -0.00375881 0.00849021 -0.00843683 -0.000855397 
0.000673628 0.0119188 -0.00722685 0.00358836 0.0082126 0.00694775 -0.00276815 -0.0109875 -0.0054874 
-0.00290999 -0.00373058 0.00641126 -0.00905095 0.0159297 -0.00581782 0.0113167 0.00396158 -0.0164153 
-0.00627495 -0.0133147 0.0118619 0.0166941 0.000933545 0.0155638 0.0133955 0.0120353 0.00146321 
-0.000834313 0.00680343 -0.0114402 -0.00722257 -0.0032695 -0.00134075 -0.00161608 -0.00997371 0.00853978 
0.00135151 -0.00205002 -0.0136861 -0.0207044 0.0134661 -0.00951558 -0.0144955 -0.00279694 -0.00243762 
0.00349117 -0.00227511 0.00404482 0.00427088 0.00948193 0.00868713 0.0067538 -0.0155415 -0.00407015 
-0.0094033 0.00234222 -0.01629 0.0102461 -0.00854078 -0.00777226 0.0108771 -0.0123495 0.00707545 
-0.00715957 0.0085579 0.00638326 0.00760567 -0.0107152 0.00811402 -0.00959711 0.00648245 0.00506627 
0.00577864 0.00104974 0.0022125 0.0143114 0.0082709 0.00109422 -0.00794512 0.00498513 -0.00234707 
-0.0101587 -0.0124996 -0.00459006 -0.00151892 0.0183333 -0.00215188 0.00658855 -0.000489654 -0.015976 
-0.00362769 -0.00516841 -0.00649236 0.00258398 -0.005506 0.00263006 -0.00800037 -0.00398167 -0.00732553 
0.00119039 0.00490424 0.00334031 -0.00193471 -0.00340274 0.0287466 -0.000568807 0.0022917 0.00465095 
-0.00827753 0.0101172 0.0127392 0.0050203 -0.0004905 -0.000497032 0.0243548 -0.011914 -0.01716 
-0.00644621 -0.00456093 0.012625 -0.000165247 0.0121481 0.0202569 -0.000632659 -0.00753336 -0.00334402 
0.00069983 -0.00976223 0.00746057 -0.0109072 -0.00645927 0.0082396 0.00451511 0.00296843 0.0112629 
0.00950692 -0.00811272 -0.000733068 -0.0441887 0.0296737 -0.0030937 -0.00249224 0.00815475 -0.00746798 
0.0133211 0.00258722 -0.00557707 0.00509823 0.00959416 -0.0212878 0.00784832 -0.00558124 0.0243866 
-0.00114221 0.0049461 0.00434977 -0.00107925 -0.00289672 -0.00311271 -0.000278397 0.0021946 0.00215985 
-0.00341777 -0.00296494 3.60999e-05 -0.00244661 -7.89571e-05 0.000449329 -0.00159866 0.00428438 -0.00216184 
0.00319883 0.00412328 0.00613229 -0.00260097 -0.00246773 0.00193963 -0.00491867 0.00926856 -0.00579883 
-0.00351847 -0.00247969 0.00646138 -0.0030174 0.00768566 0.011365 0.00185418 0.00378001 -0.00382871 
-0.0107281 -0.00562063 -0.000332686 0.000173616 -0.00302555 -0.00564458 0.00397767 0.000755836 -0.00318007 
0.00278522 0.0127543 0.00553088 -0.00294044 0.0206509 0.000523916 -0.000372848 -0.000335366 -0.0104117 
0.000443692 -0.00150566 0.00479347 -0.00360376 0.00591763 0.00524834 0.00421729 -0.00424012 0.00686781 
0.0024753 -0.00183837 0.00075528 0.000253025 -0.00261359 0.01817 -0.000560534 1.92735e-06 3.85269e-06 
-1.48006e-06 2.8836e-06 -6.6736e-05 0.000850674 0.00131322 -0.000796317 0.00025659 0.000162415 3.08113e-06 
1.73031e-06 8.26207e-06 5.09352e-06 -1.53532e-05 2.70595e-05 -3.38168e-05 -1.02742e-05 -2.75759e-06 7.37235e-06 
-0.000114683 0.000252139 -5.27945e-05 -1.12375e-05 7.48506e-07 -4.82537e-06 -6.72778e-05 7.82038e-06 4.82719e-07 
-4.33505e-05 0.00149698 -0.00116064 0.00127414 0.000274519 0.00371107 -0.00226992 0.00461024 -0.00228574 
5.42948e-05 -6.7814e-05 2.91612e-06 -1.35263e-05 1.79045e-05 1.28014e-05 -2.10835e-05 1.12021e-05 -2.35409e-06 
3.66796e-06 1.76908e-05 1.50948e-06 5.70105e-06 1.89614e-05 -9.50522e-07 7.35334e-06 2.84395e-05 -0.000144388 
0.000382273 -0.000698204 0.000504057 2.07806e-06 -8.57519e-06 -7.42582e-07 0.000633771 0.000162888 -5.21138e-05 
0.000322897 0.00595042 0.000116587 0.000372834 4.55155e-05 2.90871e-05 9.07428e-06 2.51251e-05 -0.00467312 
0.00224099 -0.00496428 0.00177238 -5.28753e-05 5.69595e-05 -2.59688e-05 3.23793e-05 0.00101131 -8.44766e-05 
-0.000114329 -4.4888e-06 -1.21906e-06 -1.02901e-05 1.06472e-06 3.80055e-06 -9.3654e-06 -8.54785e-06 2.80309e-06 
-2.7095e-06 -1.59864e-06 -0.00185219 -0.00465432 0.00052353 -8.89776e-06 2.9628e-06 -6.18075e-06 3.25786e-06 
1.90494e-05 -6.38584e-05 2.97122e-05 0.00628613 -0.00015142 -5.76643e-05 0.00122949 0.000705205 5.76665e-05 
0.00011884 -1.4783e-06 3.10761e-06 -3.37972e-06 -0.00237447 -0.00261705 0.00664313 -2.31941e-05 -2.42606e-05 
4.86038e-05 -1.06149e-05 -4.34119e-06 -1.578e-06 -5.3235e-06 -1.67767e-05 4.7115e-06 1.24101e-05 -1.85077e-05 
3.5537e-06 1.74247e-05 -8.9696e-05 0.000116664 0.000390088 -0.000188297 2.77979e-06 2.26756e-06 3.08427e-08 
-5.91303e-06 3.76146e-06 -8.86203e-05 5.143e-05 -0.000164604 -1.53306e-05 4.80314e-06 -2.39982e-06 -5.1016e-06 
-2.96654e-06 1.11545e-06 3.72586e-06 8.53545e-06 -2.74825e-06 1.38497e-06 4.23451e-06 1.57901e-06 2.22016e-06 
-9.14077e-06 3.81799e-06 -1.10211e-05 -1.26175e-06 -1.72054e-05 1.66894e-05 -8.02773e-07 1.33889e-06 -1.06485e-05 
8.79092e-06 -3.71724e-05 -1.53065e-05 -3.98197e-05 3.07327e-05 7.31372e-06 3.10855e-06 -4.81296e-07 2.47235e-06 
-0.00655651 -0.00628734 -2.51922e-06 -1.51352e-07 -1.41493e-06 3.7731e-06 -8.29429e-05 5.34791e-05 7.70683e-05 
6.90036e-05 -4.81262e-06 -2.33678e-07 1.44497e-06 -1.726e-05 8.07409e-05 1.42414e-06 -7.96461e-07 -9.43034e-06 
-4.29418e-06 -4.90571e-05 -6.88099e-05 -2.26092e-05 6.73864e-05 -3.0729e-05 -5.66482e-06 -8.26955e-06 -1.02172e-06 
2.19306e-06 9.77871e-06 -2.41969e-06 -2.46911e-06 -5.38256e-09 0.00556872 -0.00247073 -4.09313e-05 2.98864e-05 
-0.000143011 4.12221e-05 -3.12336e-05 -2.17198e-06 1.15251e-08 -2.53224e-06 -3.79878e-06 -3.8117e-06 -7.3045e-07 
0.000180734 5.41365e-05 9.87037e-05 -6.86503e-06 -1.07839e-05 -1.89177e-05 -1.18494e-06 -6.67676e-06 -4.47923e-06 
6.84331e-05 -4.00766e-05 2.34592e-05 8.48782e-06 1.24386e-05 -5.05933e-05 -3.22187e-06 2.35322e-06 -1.37307e-06 
-9.41433e-06 1.38536e-06 -3.16225e-05 -1.53135e-05 2.60093e-05 2.74898e-06 -1.6083e-05 2.62604e-05 2.33172e-05 
-8.00509e-06 6.30612e-06 -4.87934e-06 -1.824e-06 -2.61855e-07 2.55962e-07 -4.27086e-05 -2.12023e-06 -3.95016e-06 
-2.37761e-06 -0.00103481 0.000761151 -0.000142111 6.44777e-06 -3.80096e-06 1.11376e-06 -3.84577e-07 2.48159e-06 
-1.92375e-06 1.87961e-06 -2.78878e-07 2.91845e-06 7.5237e-07 2.08436e-06 -4.02099e-07 5.37371e-06 -3.76898e-05 
2.58291e-05 -8.67326e-06 1.3636e-07 -6.48001e-06 3.28143e-07 6.17519e-06 1.72204e-07 -6.41068e-07 1.57619e-06 
-5.69844e-06 2.09623e-07 3.94026e-06 3.64815e-06 -1.05609e-07 -3.29392e-06 4.98091e-06 -2.30792e-06 3.55472e-06 
-2.60869e-06 -2.24966e-07 1.6232e-05 8.57034e-06 -2.92438e-06 9.65346e-06 -3.55339e-05 2.90437e-05 9.81559e-06 
-1.18221e-05 -2.02303e-05 -1.86363e-05 -7.95833e-06 2.11104e-05 1.64472e-05 8.13871e-06 2.07397e-05 1.09381e-05 
1.08359e-05 -1.91743e-05 3.86187e-05 -3.12858e-05 1.258e-05 -3.81424e-06 -2.95689e-06 -1.21151e-05 -6.91905e-06 
5.17062e-06 1.04874e-06 2.17149e-06 4.56239e-06 -1.32078e-05 1.19563e-05 -9.23153e-06 -1.98387e-07 -1.9882e-06 
-1.41535e-05 7.09859e-06 7.03724e-06 3.94821e-06 2.16827e-07 -2.83838e-05 -2.31763e-06 -4.02515e-05 6.42881e-05 
-6.82095e-05 1.00231e-05 3.14326e-05 6.4841e-06 -1.08656e-05 1.73108e-05 2.41685e-05 -0.00558058 -0.00219419 
0.00550265 -4.75219e-06 -1.1164e-05 -4.06515e-05 0.000105601 -0.000221586 -0.000951147 -0.000351888 4.55367e-05 
-1.62554e-05 -9.25645e-06 -7.86108e-06 6.16731e-07 -4.00886e-06 2.88384e-06 5.61697e-06 -6.22052e-06 -3.64779e-06 
3.93934e-06 4.61367e-07 -1.90117e-06 1.01988e-05 2.84302e-05 -5.79865e-07 -2.19597e-05 3.68696e-06 -4.64293e-06 
-4.8662e-06 0.00010348 -6.39723e-06 3.2466e-06 1.02386e-06 2.33668e-05 4.10319e-06 0.00011273 -7.23325e-05 
3.80093e-06 9.1534e-06 -6.73162e-06 9.56218e-05 0.00474228 -8.78417e-05 -0.000573806 -1.36492e-05 -5.36103e-06 
-3.26468e-07 6.40737e-05 0.000146843 3.75497e-05 0.000376892 0.00258078 -0.00338526 0.0137622 1.87498e-05 
9.52912e-06 -1.82359e-05 -1.32329e-05 -0.00579543 0.00232866 -0.000336964 -2.16214e-05 5.63393e-05 -7.19187e-05 
9.7906e-05 0.000332064 0.000541508 2.82344e-05 8.70564e-06 3.76785e-05 -1.78771e-05 1.00687e-06 -2.45742e-05 
0.00284597 2.04143e-05 1.4528e-05 -3.21216e-06 -3.22443e-05 1.53928e-05 6.45488e-06 -1.46035e-05 -5.44984e-06 
4.37987e-07 1.21412e-05 -9.21573e-08 -1.66334e-06 -3.78485e-06 -0.00845459 0.0045225 -0.00827016 0.00333682 
2.34593e-05 2.04224e-05 9.91026e-06 5.32728e-06 -2.3722e-06 -1.97278e-06 9.91141e-06 -0.0009518 0.00159855 
0.00286216 4.62751e-06 -4.49158e-06 1.68316e-05 -2.30284e-05 8.51924e-06 -7.8955e-06 1.14844e-07 5.32134e-06 
-5.09872e-06 -2.93826e-06 5.02749e-06 7.07937e-06 2.24287e-06 9.12267e-06 9.11598e-07 1.14069e-06 -2.5344e-06 
5.98618e-07 -2.78946e-05 3.3689e-05 5.77367e-06 -8.37922e-06 -3.12482e-06 3.38408e-06 6.69446e-06 -1.45338e-05 
-2.25974e-05 1.72755e-05 -2.68754e-05 4.68807e-07 2.5915e-07 0.00632345 -0.00583389 0.000938507 0.00530646 
-0.0044044 -3.17144e-05 -4.56054e-06 8.96958e-06 -6.04274e-06 2.0656e-05 2.52391e-06 -5.71708e-06 -7.87827e-07 
2.29227e-07 7.71168e-06 -5.10427e-05 8.62295e-06 -4.93763e-06 -8.14556e-06 1.17811e-06 4.94293e-05 -8.9318e-06 
-2.43049e-05 2.27022e-05 -2.81439e-06 1.66018e-05 -8.97726e-06 -9.40617e-06 1.04845e-05 2.11886e-05 -3.85088e-05 
4.42148e-06 -1.35334e-05 6.36704e-06 -2.68755e-06 -3.76001e-05 0.000107355 -1.47181e-05 -1.1455e-05 -1.9322e-05 
1.0873e-05 4.09262e-06 -2.35025e-05 1.1694e-05 -1.06453e-05 -7.03014e-05 2.99734e-07 -1.69561e-05 -1.44737e-07 
-1.01144e-05 2.12662e-07 -1.17884e-05 6.00388e-07 8.71407e-06 -6.30197e-06 1.98676e-06 3.26377e-06 3.35164e-06 
-1.23502e-06 4.05741e-06 4.94515e-05 1.76863e-07 2.21847e-06 0.000143495 -6.65619e-05 3.23168e-05 -9.05148e-06 
4.31377e-06 -1.72317e-05 1.34764e-05 1.2736e-05 -2.75356e-06 6.63663e-07 1.41707e-05 -1.69067e-05 3.10876e-05 
-1.21664e-05 -2.95967e-05 -4.56038e-06 7.4798e-06 -7.92855e-07 3.17659e-06 9.57319e-06 3.01988e-07 4.12964e-05 
1.70405e-05 0.00265625 0.00206572 0.00414588 -4.67639e-05 1.34324e-05 -3.69989e-05 -2.18026e-07 7.84403e-07 
5.11934e-06 -1.50059e-05 -4.81571e-06 2.37889e-05 4.65575e-09 -3.46791e-06 -1.20858e-06 7.25845e-06 -3.7399e-06 
8.16567e-07 -7.54198e-06 -5.91726e-06 -2.15251e-06 -7.54281e-06 2.99862e-06 1.76789e-06 -3.412e-06 2.13262e-06 
3.19435e-07 2.57786e-07 -1.52766e-06 -6.27232e-06 1.46272e-06 7.69295e-05 -4.74028e-06 -7.83886e-06 -8.3738e-06 
-3.18919e-06 -5.50858e-06 5.39412e-06 1.06436e-06 4.46408e-06 -3.10963e-06 5.83576e-06 3.67337e-06 -3.89817e-06 
5.21467e-05 -2.66656e-05 0.000136413 3.32177e-05 0.000157357 8.14137e-06 -4.3631e-06 3.04371e-07 5.10977e-06 
-7.06342e-06 6.62597e-06 2.25386e-06 -2.04238e-05 6.25814e-06 5.95945e-06 2.15039e-05 -4.56971e-06 -4.55801e-06 
-1.16327e-07 1.5521e-06 -2.4856e-05 -6.6144e-05 2.82583e-05 -0.00147051 -0.000656415 -0.000871056 0.00100822 
0.00108959 -6.38453e-06 -9.68191e-06 4.63458e-06 9.36325e-07 6.05859e-05 3.44739e-05 -2.33572e-05 -2.43725e-06 
6.61559e-06 -2.66194e-06 1.13859e-07 2.7592e-05 -5.76116e-06 -2.32945e-05 -2.06227e-06 5.2537e-06 -4.18998e-06 
7.65473e-06 3.14543e-05 3.72037e-06 2.94373e-06 9.88587e-07 -4.95976e-06 -4.58976e-05 -2.0041e-05 3.95099e-06 
1.90772e-06 4.51731e-06 -3.62404e-06 -0.000505973 0.000756424 0.000104915 -4.67e-06 1.48981e-05 -2.63414e-06 
1.3962e-05 1.07902e-06 -1.49489e-06 -8.24658e-06 -1.05709e-05 -1.6876e-06 2.25139e-05 0.000911265 0.00110399 
1.87319e-05 -6.64164e-06 7.45718e-06 6.71297e-05 2.26472e-05 1.16224e-05 2.70405e-05 -1.42556e-05 1.96294e-06 
-3.19237e-05 2.41705e-05 -7.78747e-06 -1.89945e-05 -2.64124e-05 2.21292e-05 4.1808e-05 7.38578e-06 -5.41472e-06 
-3.7899e-05 3.93925e-05 6.49016e-05 -0.000105269 -7.04436e-05 1.60527e-05 -2.982e-05 -1.72046e-06 -1.87658e-06 
1.85094e-06 1.35139e-05 1.10497e-05 2.8883e-05 -0.000134285 -1.11996e-05 9.21461e-06 -1.34789e-06 5.39195e-06 
5.33625e-06 -8.95845e-06 -6.8409e-06 2.45296e-06 4.66065e-06 -7.88796e-06 -2.58614e-05 -1.48975e-05 -1.30777e-05 
-3.61717e-05 -3.19682e-05 -9.82506e-06 7.15692e-06 9.33221e-06 1.69897e-05 1.31428e-05 -4.17077e-05 -5.59107e-05 
7.01336e-05 -5.88665e-05 -0.000338028 -0.00509519 0.00497708 0.00227634 0.00335017 0.000991177 0.000486011 
0.0002861 -1.23749e-05 -5.86663e-05 -0.000615436 -0.00022405 0.000605306 -4.98252e-05 3.27907e-06 -5.49103e-06 
-4.55425e-06 8.44956e-06 6.62917e-06 -0.00106038 0.00029385 5.1064e-05 2.4984e-05 4.37521e-05 -9.73615e-06 
-5.69823e-05 -3.55962e-05 4.07152e-05 -3.99356e-05 1.91553e-05 -6.41109e-06 3.15225e-06 4.04793e-05 -8.86662e-05 
-0.000119499 -8.27304e-05 2.32859e-05 1.51487e-05 0.000346559 -0.000463483 1.44069e-05 1.24292e-05 1.61111e-05 
2.32449e-05 -7.5652e-06 2.2814e-05 -7.18781e-06 -1.36374e-07 -1.25965e-06 -9.40824e-06 7.73326e-05 -4.19518e-05 
1.70302e-05 5.52922e-06 2.58875e-05 7.24648e-05 -0.000346847 -0.000343869 -0.0003374 7.79137e-06 2.52352e-05 
-4.04278e-05 0.000501449 -5.58194e-06 -6.90859e-06 -3.80869e-06 7.98155e-06 0.000173016 6.9585e-06 5.75837e-06 
-2.42013e-06 -0.000208329 -0.000611634 -0.00156334 -0.00663299 2.04327e-05 -1.75697e-05 3.07387e-05 -1.28369e-06 
-0.00477406 -0.00189859 -0.00447528 -1.58358e-05 -0.000185561 -0.000113991 0.000502678 -1.33329e-07 0.000657284 
-0.00133851 -1.79568e-05 -9.67549e-05 -6.57034e-05 -0.000885179 -0.00778971 0.000154355 0.0137903 -0.00187303 
-0.00025171 -2.71905e-05 3.69021e-05 -6.31512e-06 -2.1151e-06 5.04732e-06 -0.000154873 2.68943e-06 -0.00012067 
2.21873e-05 -4.34789e-06 -2.34556e-05 9.92128e-05 -4.13504e-05 0.00594461 0.00428831 -0.00212282 -4.03737e-06 
-1.8564e-05 1.58506e-05 0.00685581 0.00305644 -0.00225645 9.57367e-06 0.00506193 1.22506e-06 -1.75685e-05 
8.62328e-06 2.71438e-07 5.95235e-05 -2.27125e-05 2.42909e-05 -4.70364e-06 -0.000193506 -6.94492e-06 8.03712e-05 
-4.31632e-05 -8.25931e-06 -0.000194382 3.27467e-05 -0.000108106 -8.57994e-05 8.62068e-06 -6.27559e-06 4.59613e-06 
-1.20615e-05 3.11055e-06 6.97416e-07 5.70611e-06 -4.58789e-06 -0.000105199 -8.42783e-06 -5.27415e-05 1.11503e-05 
-2.35654e-05 -1.84e-05 5.64599e-06 -2.99187e-06 -2.50737e-06 5.4986e-07 -8.9465e-06 3.38777e-06 -8.87883e-09 
-0.000101609 2.56292e-05 -1.96971e-05 0.000136655 0.000244477 -6.55977e-05 -1.82137e-05 -2.75638e-05 -1.71168e-05 
2.28843e-05 -0.00017138 0.000100109 7.29273e-05 1.5008e-05 -1.6701e-05 -1.00985e-05 5.05303e-07 -7.24872e-08 
8.03322e-06 -1.35406e-05 7.02452e-06 1.34479e-06 -4.72646e-06 -1.69826e-06 -8.73966e-06 1.55263e-05 1.2053e-05 
-1.44356e-05 1.12839e-06 0.0104192 0.0144363 -5.58432e-06 1.14643e-05 6.53648e-06 -4.55006e-06 -3.96245e-06 
2.20342e-06 1.05795e-06 -1.86521e-06 1.43037e-06 9.06473e-08 7.03526e-06 -1.89363e-05 1.90761e-05 -3.64779e-06 
0.00245266 -4.34098e-07 0.000971304 2.3331e-07 -1.28311e-05 -1.09768e-05 -1.15958e-06 1.15555e-06 -1.34178e-05 
-2.33319e-05 5.97945e-06 0.000100527 -0.000685934 -0.00180306 6.00023e-06 -1.46665e-06 -3.38167e-06 -7.91106e-06 
-1.37905e-08 -0.000915699 -0.00178769 0.000637276 0.00172298 1.68947e-07 1.04441e-05 -0.00154806 0.00612827 
-0.00047544 -0.00568453 -2.52331e-05 7.76601e-06 -7.47619e-06 -0.000120581 -0.000185754 1.95649e-05 -0.000266859 
8.41978e-06 -4.11097e-06 -6.55673e-06 2.54404e-06 7.57841e-06 -9.48766e-06 -1.60939e-05 2.29142e-06 4.22411e-06 
-1.27505e-06 1.03273e-05 -5.52212e-06 8.211e-06 2.77024e-06 -8.80652e-06 -2.2378e-05 -2.03493e-05 4.76472e-06 
-8.97674e-06 1.80248e-06 1.73407e-05 -6.81778e-06 -2.71369e-06 1.3162e-05 -3.71392e-05 9.18759e-06 4.24495e-06 
-0.00579883 -0.00663605 5.24949e-05 2.07203e-05 -1.11663e-05 -0.00788494 0.00414656 0.0010966 6.82097e-07 
3.09156e-06 0.000697718 -0.00197036 9.94761e-05 -1.73014e-05 -8.51414e-05 2.37063e-06 -3.43658e-05 -2.41062e-05 
1.08949e-05 -3.93853e-06 0.00495388 -0.000877517 0.000176206 0.000200128 -2.18175e-06 1.7924e-05 -1.0342e-05 
-1.87047e-06 5.60384e-06 -2.16291e-06 -5.31651e-06 -3.06882e-08 2.84194e-05 -5.74304e-05 8.76039e-05 -4.28558e-05 
-2.05191e-06 1.11914e-05 -9.71195e-06 1.7154e-05 7.58204e-07 1.37273e-05 2.42413e-05 0.00924622 -8.29713e-06 
4.53654e-06 -1.09853e-05 2.1682e-05 1.60956e-05 -3.26305e-06 1.57639e-05 2.1808e-06 9.1394e-07 7.23378e-06 
0.000296671 -0.00105863 4.90039e-06 4.89738e-06 -2.15512e-07 5.30442e-05 1.55811e-07 -4.99049e-06 2.02456e-08 
7.04123e-05 -9.44809e-05 -9.96515e-05 2.33187e-06 2.25073e-06 -3.34187e-07 -1.21189e-06 -2.76137e-05 2.16751e-05 
-3.43834e-06 4.5954e-07 2.42672e-07 4.26824e-06 5.02706e-06 -5.26026e-06 -6.35493e-06 4.96462e-06 2.02757e-06 
-3.01128e-06 3.42944e-06 0.00264866 -2.87619e-06 5.48758e-06 9.56027e-07 4.53011e-06 4.2142e-07 6.41337e-05 
-2.58222e-05 -0.00741794 4.00531e-05 3.73588e-05 1.21851e-05 -7.80801e-05 8.19782e-06 1.34858e-06 -4.81773e-06 
9.77711e-06 4.48156e-06 9.33719e-06 -1.64595e-08 -5.48689e-05 3.39133e-05 1.2874e-05 1.6286e-05 2.10802e-05 
-7.22978e-06 2.73306e-07 -2.09771e-06 -4.40554e-06 2.46619e-05 -1.64297e-05 -6.64126e-06 -4.52928e-06 1.84405e-06 
0.000175155 -8.35225e-05 7.90319e-05 -0.000124527 2.90702e-05 2.06431e-05 -1.75065e-05 1.58655e-05 -2.27385e-05 
-5.28707e-06 -3.72365e-05 5.97868e-06 0.000968971 -1.5463e-05 -4.04914e-06 1.62413e-05 -3.2391e-06 -9.99793e-05 
-3.60074e-06 5.46869e-05 2.09139e-07 1.09903e-06 1.23305e-05 -7.5001e-06 3.9795e-06 -8.50101e-06 7.37979e-06 
9.03077e-07 5.53362e-05 -0.00011893 -7.59751e-05 -6.85175e-05 3.61013e-05 3.86749e-05 -0.000221547 -3.32679e-05 
0.00372697 0.000171566 2.70669e-06 -0.000576573 -0.000574237 0.00139533 -0.00685848 0.00462487 -1.44284e-05 
1.94992e-06 3.83984e-05 5.37268e-05 2.5084e-05 7.45447e-06 -4.1794e-05 -1.45879e-05 0.000914487 -0.000324692 
0.000105191 -0.000273428 3.85428e-05 -0.00014567 -5.48201e-06 -4.06871e-05 -7.98596e-05 1.32332e-06 -0.000324783 
0.000134797 -3.71957e-05 -4.34532e-06 2.23335e-05 -6.13332e-05 8.60484e-06 -4.95277e-05 -0.000793235 0.000150834 
-0.000337815 -0.00396171 0.000234475 9.46382e-06 -2.07239e-06 -9.55202e-06 -1.06171e-05 6.79661e-06 -5.76346e-07 
6.32337e-05 -7.88329e-05 7.49924e-05 2.98919e-05 3.16208e-06 -2.59239e-05 -1.4938e-06 3.0795e-06 2.39301e-05 
-5.1027e-06 -1.84097e-05 -0.000229067 -7.87611e-05 -2.07959e-06 1.0275e-05 -3.10693e-06 2.18683e-06 -1.91035e-06 
-2.90387e-06 -7.28905e-07 -6.95493e-06 1.70553e-05 1.41094e-05 -1.71496e-06 3.04227e-06 2.17997e-09 2.05289e-06 
-2.51218e-06 0.00115011 -0.000450122 0.00262499 0.00175874 -2.11972e-06 6.44218e-06 -1.02237e-05 1.63356e-07 
-2.78503e-06 1.16463e-05 3.03498e-05 1.06728e-05 1.26071e-06 5.89511e-05 9.01613e-07 -4.68607e-05 -0.00316495 
-0.000418822 0.000117929 -1.41419e-06 4.23859e-05 -4.06477e-06 -2.73424e-06 4.33198e-06 2.59303e-05 -7.11494e-06 
-7.0672e-05 -9.53964e-06 1.08576e-05 5.5301e-06 2.26317e-05 -0.000234386 0.000300511 3.23762e-06 3.90326e-06 
-3.45133e-06 2.64535e-05 -3.11452e-05 1.46177e-05 -2.07269e-06 1.27968e-05 0.000123991 -0.000126032 -0.000201001 
-6.72297e-06 -1.5809e-05 9.84259e-06 -3.19906e-05 0.00155138 0.000871222 0.000139152 -0.000137011 0.000879755 
0.000801763 -5.03915e-05 -4.85663e-05 -1.89079e-05 1.34103e-05 1.23735e-05 0.000982195 0.00304625 0.0011055 
0.000533614 8.87763e-05 -0.000169011 8.77832e-05 0.00139074 -0.00123471 -0.0062817 -9.63369e-05 6.97358e-05 
1.32044e-05 5.04981e-06 8.76914e-06 -2.29961e-05 1.00059e-06 6.18609e-06 0.00105092 0.00677455 -0.00359095 
0.00965924 -0.00542476 -6.74119e-09 -9.19537e-06 -1.0345e-05 4.99333e-06 1.32898e-05 -1.26849e-06 -1.51273e-06 
-3.7398e-06 -2.59189e-06 -3.131e-06 1.04534e-05 1.22544e-05 -1.62884e-06 -4.45648e-06 -5.79218e-06 -0.000458529 
1.91189e-05 -2.56787e-06 3.6955e-06 9.32654e-06 -9.77537e-06 -6.20206e-06 1.10443e-06 -8.81428e-05 -0.000143675 
0.000167798 3.37558e-06 1.08968e-06 -8.56621e-06 -7.44121e-08 -1.75888e-06 -1.63618e-06 -3.95633e-06 3.73648e-05 
-1.7018e-05 4.79946e-07 -9.81804e-05 -0.00018237 -3.9692e-05 4.79772e-05 2.75893e-05 1.15787e-05 -1.06082e-05 
2.83122e-05 -4.57212e-05 4.48679e-06 -1.25107e-05 -3.05226e-05 4.89115e-06 4.05722e-05 3.87122e-05 2.17676e-05 
-1.86169e-05 2.06695e-06 -3.11414e-06 -5.92121e-06 -2.97664e-07 4.66607e-06 1.44985e-06 -1.23135e-05 -7.66509e-06 
-7.19111e-06 -2.16241e-05 -3.61749e-06 3.48952e-05 1.55659e-05 1.15044e-05 -9.27005e-06 -6.17065e-06 0.00568405 
-3.46626e-07 2.51331e-05 -3.67605e-05 1.73066e-05 -2.6133e-05 -3.61057e-06 -1.26424e-05 4.85715e-05 3.7325e-06 
2.06768e-05 6.25473e-06 -2.22702e-05 4.31915e-05 1.14487e-06 -0.0016107 0.00223639 -0.000353766 -2.54019e-05 
-1.36038e-05 6.58327e-08 -5.59133e-05 2.40826e-05 -3.86298e-05 -9.05788e-06 -3.71406e-06 1.81743e-06 -9.84077e-07 
5.6749e-05 -3.65328e-05 9.10921e-05 -7.84871e-05 5.958e-06 2.20926e-05 6.51311e-05 2.79674e-07 -2.3796e-06 
6.38739e-07 -3.52535e-07 -8.81437e-06 -4.58822e-06 -2.45568e-05 1.86868e-05 1.44641e-05 1.25788e-05 -6.25012e-06 
3.82704e-06 3.51418e-08 2.00826e-06 1.47063e-05 -4.55822e-06 -0.000201862 -0.000346824 -6.83496e-06 1.19218e-05 
-1.10128e-05 6.91374e-06 -0.000439055 -0.000913453 -2.98811e-06 -1.11031e-05 3.30262e-06 3.53384e-07 -3.59639e-06 
-1.24449e-05 1.59295e-06 -7.68895e-06 -0.00109843 0.000281118 8.06603e-05 4.26773e-06 -2.05383e-05 1.19637e-05 
-8.39763e-07 9.82372e-06 -1.01696e-05 -0.0022317 -1.18898e-06 -5.77419e-06 9.55459e-06 -6.85241e-06 -1.68787e-06 
2.33746e-05 1.72414e-05 -7.84609e-06 -1.40994e-05 -0.000766797 -0.00449534 5.41058e-06 1.44314e-06 -4.31561e-05 
2.58e-05 -3.93081e-05 1.21189e-05 2.36359e-05 -1.16551e-06 2.6453e-05 1.07986e-05 -5.25563e-06 -3.03556e-06 
1.12728e-06 4.73841e-06 -6.48727e-06 1.21806e-05 8.47733e-05 0.000469458 -3.88357e-05 5.60035e-06 -0.000351865 
0.000157177 0.000244765 0.00189017 -0.00525231 0.00208921 1.00216e-05 -1.19484e-05 3.00449e-05 -5.27825e-06 
-1.87467e-05 2.51595e-05 -7.08999e-06 -6.5011e-07 -1.49952e-05 1.61336e-05 -1.47409e-05 -4.26157e-06 4.06648e-06 
-0.0061466 0.00470912 7.13952e-06 9.3311e-06 6.24124e-06 2.7057e-06 -2.37519e-05 -1.21238e-05 0.00679021 
-0.00128322 -5.41875e-06 -3.31088e-06 -4.00106e-06 0.000155133 0.00335239 -4.63461e-07 2.20729e-05 1.24781e-05 
5.9336e-05 -2.23967e-05 0.00122955 -0.000266936 0.000230121 1.34139e-05 -1.4427e-05 1.45242e-05 1.2623e-05 
-1.95505e-06 3.01871e-05 3.29638e-05 4.12117e-05 -2.64686e-05 8.34095e-05 0.000120907 0.000181493 0.000627924 
-6.72315e-06 2.81387e-05 -9.16266e-06 -4.49343e-05 -9.58346e-05 3.5468e-06 0.00221867 1.59247e-06 -7.20752e-06 
0.00544931 -0.00404112 -1.41408e-05 -5.24458e-06 1.02616e-05 9.69276e-06 9.31072e-07 -3.65861e-06 -5.51708e-06 
-3.15575e-06 -5.82814e-06 -8.13007e-06 -1.76954e-06 4.61996e-05 -2.34897e-06 -0.00069406 -0.000509606 -0.000330575 
-9.95386e-05 -4.03227e-05 -0.00107897 -5.22169e-05 -2.14543e-05 5.35999e-05 2.27355e-06 -1.54193e-05 -1.81045e-07 
0.000237804 3.61695e-05 -6.71857e-05 -1.36726e-06 3.78347e-05 -2.09674e-05 -0.000147213 -0.000143585 1.72396e-06 
1.10464e-06 1.78848e-07 -3.05391e-05 -0.000221042 -1.76956e-05 4.47883e-05 -7.83441e-06 6.37169e-05 4.80551e-07 
-3.85839e-06 -7.5959e-06 -4.14948e-06 -1.27539e-06 0.000558784 0.00265221 -1.35774e-06 4.33695e-06 -3.81658e-06 
9.39485e-07 2.77597e-07 4.67715e-06 5.60005e-06 -5.37574e-05 3.77676e-05 3.70962e-05 0.000127628 8.04931e-05 
0.000145013 -1.07687e-05 -0.000428795 -0.000251279 7.36335e-05 2.04604e-05 3.397e-05 2.99348e-05 -0.00065086 
-3.63294e-05 0.000229111 0.000219027 -6.4477e-05 0.00148494 0.000157884 0.00151492 -0.00101366 3.9554e-05 
6.26077e-05 -1.70933e-05 -1.63651e-05 -4.40006e-06 -1.95143e-05 1.84851e-05 -1.51262e-05 1.42969e-05 2.03719e-05 
0.000123529 1.15595e-05 2.79948e-06 4.66384e-06 -0.000166812 -1.03149e-05 5.25401e-06 0.00845813 6.32352e-06 
-2.36973e-05 -5.27532e-06 -5.44833e-06 -4.9652e-06 2.66003e-06 1.33948e-07 -5.50071e-06 -4.09124e-06 -8.23053e-06 
2.16635e-06 1.26492e-05 -1.10435e-05 -0.00194086 5.01801e-07 2.49145e-06 8.62709e-06 8.51311e-06 5.13364e-06 
5.68846e-06 -2.00193e-06 1.05547e-05 -3.94304e-06 6.62426e-06 3.00715e-06 -1.7231e-05 -7.42806e-06 -1.68949e-06 
3.38203e-06 2.57848e-06 -4.96227e-06 -2.32915e-06 -2.02375e-06 3.48068e-05 -1.46975e-05 -2.57728e-05 6.3049e-06 
8.19194e-06 2.67104e-06 -1.6428e-06 3.83205e-06 -5.07667e-06 2.38558e-06 -1.03443e-05 -2.84118e-08 4.41399e-06 
1.61083e-05 -9.00377e-05 -4.54375e-06 1.07289e-05 -1.47043e-06 -4.63982e-05 0.0084108 0.0110428 -0.00589061 
-0.00283176 -3.1235e-05 2.51449e-05 6.39407e-06 1.15626e-05 5.88136e-05 2.11058e-05 -2.14779e-05 0.0025964 
0.0105965 -3.05989e-06 6.86954e-07 7.85276e-07 -1.07062e-06 1.01528e-05 -2.93409e-05 -1.04404e-05 -1.54796e-05 
-2.00981e-06 1.99078e-06 -8.61257e-05 -4.86732e-05 7.71597e-06 -0.000974552 -0.000105462 0.0001681 4.10288e-05 
-2.86088e-05 -7.43341e-06 1.76521e-05 -4.631e-06 -2.12583e-05 -4.01851e-06 -2.84746e-05 0.000792356 -9.01865e-05 
-0.0047092 7.11115e-05 -0.000547087 2.11226e-05 -2.29052e-05 1.41047e-05 -5.59008e-06 9.87487e-06 1.97659e-05 
3.71173e-06 5.25416e-05 6.1219e-05 1.59381e-05 -4.18558e-05 -0.000297416 1.4242e-06 -2.5648e-05 7.42083e-06 
-0.000877314 7.58746e-05 4.50334e-05 -2.29245e-05 5.51042e-05 4.54634e-06 -2.91469e-06 -9.00515e-07 -4.30391e-06 
1.47762e-06 -1.86627e-06 4.66215e-06 3.35496e-05 4.90419e-06 -9.36466e-06 1.04302e-05 6.52399e-05 -1.95647e-05 
1.82665e-05 -0.000216055 -8.99025e-05 -3.21569e-05 6.24325e-05 -6.47182e-05 -8.48931e-05 -2.06977e-05 -8.49485e-06 
2.45533e-05 0.000205309 -1.65248e-05 0.000196842 0.000251734 -3.7485e-05 0.000177386 -0.000311418 6.85196e-06 
8.76626e-06 -8.3326e-06 1.41596e-05 6.47249e-07 3.25685e-05 -1.95426e-06 -4.35942e-06 -4.90434e-05 -5.44628e-05 
-1.3136e-05 -1.25746e-05 1.44491e-05 1.0813e-05 8.69118e-06 3.3163e-05 6.17335e-06 1.42779e-05 -2.75633e-07 
-1.97539e-05 -2.70727e-05 3.93369e-05 -2.10025e-05 2.36604e-05 -5.1092e-06 -5.0352e-05 -2.2993e-05 2.90562e-05 
-2.69654e-06 -5.20592e-06 2.21411e-06 -1.8937e-05 7.50053e-06 2.68451e-05 -1.87795e-05 1.85292e-05 3.17729e-05 
-2.65489e-05 3.01999e-05 -1.70731e-05 5.17927e-05 -0.00032358 -0.000156912 2.87444e-06 7.38911e-06 1.33418e-06 
1.95e-05 1.71664e-05 -1.47723e-05 -7.72557e-06 -1.09033e-05 -2.93631e-06 -5.70271e-06 -3.12708e-06 -2.3361e-06 
-2.90922e-06 1.44407e-06 9.78733e-08 -1.57958e-06 -0.00144525 -0.00599945 0.00928188 9.09654e-06 -5.72607e-05 
-2.42285e-05 2.85712e-06 7.27922e-06 -6.59208e-06 2.04368e-05 5.98664e-07 2.81318e-05 3.77858e-06 -0.0067691 
0.0048506 -7.64017e-06 -6.78489e-06 1.37097e-05 -0.000237242 -0.00124317 0.00117833 -0.00136987 -2.51532e-05 
-1.05895e-05 -1.14519e-05 -6.90295e-06 6.56882e-05 0.000202644 -3.52512e-06 1.01559e-06 -3.28713e-06 3.90783e-06 
8.45453e-06 5.85746e-06 -0.000123858 -2.78772e-05 2.8198e-06 0.00176358 7.36436e-05 0.00200756 -2.96546e-05 
-5.04322e-05 1.05426e-05 2.93681e-05 -2.66889e-05 -3.51312e-06 0.000420663 5.97621e-05 3.24601e-06 1.65606e-06 
-9.72772e-06 7.21863e-06 -1.43625e-05 9.15136e-06 -1.02286e-06 -6.42712e-06 -2.73079e-05 -9.03872e-06 -5.31858e-05 
-0.000176286 -3.5525e-06 -0.00279753 5.22317e-06 -4.72864e-06 -2.82614e-06 -2.19527e-06 0.000126068 2.09555e-05 
-0.000118396 -0.000131447 2.43162e-06 -8.85465e-06 -1.97209e-06 -5.23505e-06 1.79951e-05 7.84127e-06 -2.2545e-06 
-1.24942e-06 -7.02492e-06 -9.63299e-06 0.000182475 -2.40345e-05 -4.22908e-05 0.00707788 -0.000565363 -1.19339e-05 
2.02205e-05 -1.54484e-05 -1.24658e-05 -9.43132e-05 -0.000119586 0.000159539 -3.03391e-05 -1.96327e-07 -3.19143e-06 
-1.97393e-06 -2.04145e-05 -2.32052e-05 -1.91261e-05 2.04392e-05 1.04194e-06 2.61881e-05 0.000117268 -5.17676e-06 
-5.96047e-06 8.21445e-06 6.52893e-06 -0.00143815 -0.000440328 0.000950338 1.64513e-05 -6.38221e-06 2.39284e-06 
0.000133338 9.70307e-05 5.06493e-06 2.6586e-06 2.88937e-05 1.85492e-05 1.15496e-05 -0.000283542 -7.24649e-05 
6.30224e-05 -0.00208473 -9.24056e-06 -0.000280507 9.65392e-06 -1.72197e-05 1.05787e-05 -2.14381e-06 5.2961e-05 
-1.2537e-06 8.06369e-06 -2.13973e-06 -9.15208e-06 6.55265e-06 -1.2988e-07 -2.05091e-05 1.27702e-06 -2.40766e-06 
-1.95573e-05 -4.25427e-06 2.1187e-05 -1.1198e-05 1.08549e-05 -5.83617e-06 7.30191e-07 6.0091e-06 -2.20964e-06 
7.97601e-05 -0.000149162 -1.79385e-06 -6.77792e-06 -1.05998e-05 1.11318e-05 3.20658e-06 -1.30426e-05 4.30322e-05 
2.45104e-05 6.33136e-06 -6.42521e-06 6.04258e-06 5.0143e-05 -0.000315528 0.000329922 4.43054e-05 -3.47067e-06 
-4.77344e-06 1.14856e-05 3.61953e-06 1.51153e-05 -0.000182615 -2.59987e-05 -3.42667e-06 -1.1042e-06 -2.45532e-05 
-7.68837e-06 4.34329e-07 -1.06373e-05 -1.51551e-05 0.00201262 -0.000733839 2.78319e-06 6.79387e-06 4.34818e-06 
-1.08222e-05 0.00149179 0.00571419 -0.00107976 -1.11058e-05 1.12411e-05 -1.65404e-07 4.07797e-06 6.55711e-06 
1.62152e-06 -6.0758e-06 3.02024e-05 0.000447155 -6.80139e-06 -6.81294e-06 -1.6657e-05 1.92549e-05 -2.17608e-05 
-9.45321e-06 4.68947e-05 -2.85259e-05 1.10887e-05 1.08112e-05 -1.6856e-06 -4.19769e-05 1.01858e-05 2.49884e-05 
-6.05228e-06 -1.4361e-06 -4.96975e-06 -1.48557e-05 5.61588e-06 -1.50992e-05 -9.47346e-06 -5.43352e-06 -1.87593e-05 
1.78666e-06 0.00214985 -0.00089665 -7.87202e-05 -0.00250702 0.00147388 -0.00227267 -0.0124548 0.00573814 
-0.010977 -2.69891e-05 1.50283e-05 -5.13361e-06 4.64023e-06 2.71174e-06 1.81932e-06 -1.13989e-05 -3.7724e-06 
7.27608e-06 6.00363e-06 -3.53061e-06 1.34432e-05 2.07612e-05 4.6165e-06 -2.07927e-06 -2.15286e-05 1.16178e-05 
-1.33186e-05 -0.00688234 -3.81264e-05 -2.03796e-05 -1.05327e-05 -1.45801e-06 1.55446e-06 -0.00415458 1.03048e-05 
2.59077e-05 4.42166e-05 5.88367e-05 9.32547e-07 -9.32392e-07 4.08719e-07 -1.60604e-05 -1.22406e-05 -5.9626e-06 
-2.76389e-06 -1.42905e-05 3.94389e-06 3.89577e-06 -2.09972e-05 -2.11105e-05 9.73709e-06 1.84663e-05 -0.00012125 
-0.000167791 -1.50793e-05 0.000191958 9.81598e-06 -1.86397e-05 1.53907e-05 -1.54893e-05 -0.000563055 -0.00105132 
0.000145361 -1.5148e-05 -5.54074e-06 2.91655e-06 -4.73926e-06 -2.45551e-06 1.89408e-05 -4.33672e-06 7.80518e-05 
-4.27553e-05 -1.52067e-05 2.13686e-05 -5.27579e-05 -0.000842844 8.55072e-06 -5.91273e-06 -1.31529e-05 -3.44331e-06 
4.51835e-06 2.543e-06 -1.00846e-05 3.85963e-06 0.000208357 1.45456e-05 9.37004e-06 -3.85917e-05 1.47626e-05 
0.000287205 2.96633e-06 1.57226e-05 4.7603e-05 -6.36561e-05 -7.04422e-06 8.13044e-06 -5.6269e-05 -2.53566e-06 
-3.96151e-05 -1.12449e-05 -8.65274e-05 3.63943e-05 0.00160702 0.00124547 -8.58095e-07 1.02934e-05 -2.00278e-06 
3.68533e-06 -5.13003e-06 3.64394e-05 -0.000124885 8.90621e-06 1.28723e-05 -9.60741e-06 3.27984e-06 2.36344e-06 
4.3934e-06 -4.87421e-06 -1.52828e-05 1.80474e-06 -1.36855e-05 5.27189e-05 -3.09773e-05 1.5268e-06 3.81011e-07 
4.12391e-07 -4.38285e-07 -1.17187e-05 4.35611e-06 8.24462e-07 -1.22633e-05 7.50092e-06 7.85069e-06 5.07524e-06 
1.55382e-05 6.46291e-06 1.82817e-05 -7.76859e-06 -3.64588e-06 5.09115e-06 3.29925e-06 -8.15342e-06 7.70369e-06 
-4.6036e-06 3.95349e-06 4.92342e-06 -1.11057e-06 -2.73382e-05 0.000300847 0.0015644 0.000276967 -0.000751699 
2.24355e-05 7.63412e-05 0.000811815 -0.000376435 -5.75854e-05 -0.000640226 4.90277e-05 -8.37049e-05 4.91664e-06 
5.4264e-06 0.00015824 -9.43724e-05 -0.00049662 -4.78266e-05 -1.21566e-05 6.27173e-05 0.00258013 0.00190929 
-0.00632502 -0.00647189 -2.15385e-05 -2.15842e-05 -1.40026e-05 1.97036e-05 3.75478e-06 -9.03737e-06 1.03374e-05 
6.00592e-06 2.91209e-05 -4.90655e-06 3.4308e-06 2.62445e-05 -1.41391e-06 -1.16292e-07 -9.5746e-06 8.85434e-07 
-9.9856e-08 7.49002e-07 -2.11341e-07 -3.09923e-06 -8.96966e-06 -1.44095e-05 -3.15828e-06 -7.86374e-07 -1.07409e-05 
0.000638372 -1.2876e-05 -2.41178e-06 -8.39461e-06 1.84351e-05 3.8452e-05 -1.50636e-05 8.99477e-06 -1.47773e-06 
2.52133e-05 1.54462e-06 2.34594e-06 -9.68252e-06 -2.39984e-07 -5.88351e-08 -1.13611e-06 0.000124437 1.02285e-05 
0.00146329 0.000220894 -3.22357e-07 4.2155e-07 -4.43849e-06 0.00032232 -0.00522058 -0.00590702 2.16386e-06 
-7.86261e-07 -6.4533e-06 -1.9595e-06 2.7525e-05 -2.73599e-05 -2.77329e-05 -7.16447e-07 -9.42057e-06 -1.22195e-05 
-3.66071e-05 -4.58365e-06 0.00600262 -1.88315e-05 -1.12594e-05 -1.56983e-05 0.0017758 0.00382091 -0.0050413 
1.71415e-05 -2.77221e-05 -1.06143e-05 -4.3398e-06 6.65921e-06 -1.04409e-05 8.84018e-07 -1.97754e-05 2.84537e-06 
1.20277e-05 0.000730132 5.617e-06 0.00480387 -0.0062082 -0.000839503 1.05558e-05 -6.97011e-06 -0.000478423 
-5.85484e-07 6.44189e-05 6.20944e-05 -6.74973e-05 0.00254724 0.00325926 -4.03487e-06 -3.33433e-06 4.46719e-06 
9.55287e-06 -3.60538e-06 -1.27193e-06 -0.00256814 0.00149096 0.000273127 -4.35254e-05 -1.47119e-05 -1.74819e-06 
1.36996e-06 -6.4109e-06 0.00521535 -2.44282e-06 3.0392e-06 4.10687e-06 -1.62219e-05 2.31392e-07 -0.00559122 
-1.16918e-05 -4.75535e-05 0.00103577 1.48005e-05 -2.61837e-06 -1.23162e-05 -1.37437e-05 1.37731e-05 1.92542e-05 
0.00131631 0.00111853 -0.000765651 -0.00175446 1.46697e-05 -2.32873e-06 1.1955e-06 2.11947e-06 -5.59958e-06 
-2.09106e-06 1.96696e-05 1.34957e-05 2.26945e-05 -7.10689e-06 6.74908e-05 3.49306e-05 7.74706e-06 1.95835e-06 
1.14469e-05 0.00101044 1.75e-06 7.37248e-09 -2.10721e-05 1.26342e-06 5.20956e-06 -1.01572e-05 -6.15918e-06 
5.13521e-06 2.32364e-05 -1.30733e-05 -1.40394e-05 -7.37225e-05 0.00543562 -0.00127361 -0.00648453 0.00312516 
0.00478555 0.0021855 -5.91662e-06 -4.62446e-05 0.00731754 0.00677903 -0.00013297 0.000401753 1.46619e-06 
-2.2638e-05 3.29346e-05 -3.07889e-05 -2.20767e-05 4.64126e-06 -9.30415e-06 7.94725e-06 1.61778e-05 -3.35552e-05 
-1.12264e-05 1.51179e-05 -0.000389643 5.30699e-06 1.45627e-05 -0.000178932 7.41671e-05 -2.02416e-06 5.84566e-06 
-0.00042969 -5.68427e-06 -3.92298e-06 3.31047e-06 -5.30297e-06 -4.57109e-06 -1.3381e-06 -5.57856e-06 1.70134e-05 
-1.63173e-06 9.60936e-07 8.34077e-06 -2.27912e-05 -2.52692e-06 -9.57049e-07 1.34985e-05 7.66988e-06 -8.16386e-05 
-4.31508e-07 -7.09376e-06 5.31985e-05 -4.09205e-05 4.95408e-05 -4.75024e-07 -1.91741e-06 5.89316e-06 -0.002433 
-9.28799e-06 -3.67386e-06 -6.4031e-05 -3.61901e-06 2.25256e-05 7.7457e-06 -2.32784e-06 1.67953e-06 -3.18813e-06 
-0.000171262 -2.6974e-05 -8.47235e-06 -4.10388e-05 -3.76722e-05 -1.0909e-05 -2.30544e-06 3.28219e-05 4.73344e-06 
6.89458e-05 7.21618e-06 1.05336e-05 -1.66471e-05 1.06947e-05 -1.30636e-05 -3.76252e-05 9.52725e-06 -0.000112604 
-1.78938e-06 -0.000169192 -0.000381294 6.46501e-06 1.05887e-05 -7.10167e-08 -6.69061e-06 -1.38875e-05 5.36276e-06 
-6.45453e-06 -3.69921e-06 3.34846e-07 -0.00283608 -1.06949e-06 1.86726e-05 -7.58391e-06 1.41318e-06 2.07274e-06 
-1.81686e-05 -1.33801e-06 -2.67222e-06 2.63005e-05 -3.77134e-05 1.06975e-05 -1.42221e-05 3.5684e-05 8.07819e-06 
2.51353e-06 -2.78814e-06 -2.37025e-06 2.97666e-06 1.66003e-05 -0.00578335 0.00578492 -1.56459e-05 6.26349e-06 
4.67458e-06 2.12612e-06 -0.00687165 -2.49077e-05 4.15684e-07 -4.22248e-06 1.13464e-05 1.24518e-05 2.37949e-05 
6.24983e-06 -0.000936833 0.00182871 -4.19526e-06 0.0012609 1.29847e-05 -7.27732e-06 -4.21129e-05 -1.59291e-05 
-1.95455e-07 6.65764e-05 -6.97388e-05 -7.26896e-06 -0.00072772 -0.000346635 -7.99627e-06 3.61703e-05 -5.61458e-06 
9.86397e-06 6.34568e-05 9.08332e-07 -3.86009e-06 -5.97275e-07 0.000665125 0.000425311 1.85678e-05 -4.29409e-05 
7.90029e-06 -4.00199e-05 -6.27615e-06 1.34753e-06 -1.91727e-05 -9.57942e-05 9.03312e-07 1.90418e-06 -5.28645e-07 
1.55493e-06 -4.17739e-07 4.69198e-07 -0.000857185 -4.44588e-07 3.78156e-07 -0.00115852 2.21421e-06 -2.30384e-06 
2.33096e-06 5.39816e-07 6.79163e-06 -7.56442e-05 -1.44658e-05 4.07953e-06 1.68059e-05 -3.70059e-05 -4.66298e-05 
-2.63363e-05 -4.96411e-06 -1.71043e-06 2.73428e-06 9.08051e-07 3.65541e-06 -3.77065e-06 -2.13073e-06 2.23821e-06 
-9.50965e-07 -6.08139e-07 8.32415e-06 -1.40732e-05 -3.40241e-05 -1.38361e-06 -2.55279e-07 7.47265e-07 2.72989e-07 
-3.15864e-06 -7.35237e-06 1.45564e-06 -9.82642e-06 -6.81993e-06 3.88893e-06 7.71588e-06 5.22642e-06 -2.69241e-05 
3.88422e-07 -6.50154e-06 9.79303e-06 3.03461e-05 -1.53467e-06 -5.2995e-06 -1.51923e-06 -1.94946e-05 0.000120186 
0.00075242 3.02118e-06 -6.29236e-05 1.68936e-05 -7.28235e-05 5.27544e-05 4.75228e-06 -3.15512e-05 4.26258e-05 
0.000870744 0.000305695 -6.83185e-06 -0.000113218 -0.00569985 0.00280669 -0.00540219 -6.92741e-06 4.78043e-06 
2.62084e-05 -3.84249e-07 -4.05212e-05 1.35429e-06 -2.16616e-05 -9.62089e-05 -4.36002e-05 -8.80133e-07 -2.007e-07 
-1.42778e-06 -3.31824e-06 -6.15109e-06 -4.88771e-06 -0.000155112 -6.27425e-06 4.92328e-06 -7.71714e-07 -4.22737e-06 
1.85458e-05 -7.97459e-05 -1.34131e-06 0.00753009 -1.0424e-05 -9.23674e-06 -9.20475e-06 -1.61907e-05 3.57874e-05 
-0.00109723 -0.00181816 6.88026e-05 -6.93905e-07 -7.06405e-07 -3.66679e-06 -3.95006e-06 3.74424e-06 3.16372e-06 
4.2977e-06 -1.22928e-06 6.28156e-06 -1.45133e-05 -2.74485e-05 -6.06917e-06 -4.43702e-07 2.5668e-05 -1.32157e-06 
-8.12187e-06 0.000244916 0.000114085 -1.16517e-06 -0.000600476 -0.000129735 5.92799e-05 9.15466e-06 -4.29153e-05 
-1.00144e-05 4.4719e-05 -1.4998e-05 -5.32313e-05 -2.19714e-05 -8.78075e-06 2.02033e-06 1.18405e-06 -1.55587e-05 
-2.55134e-05 5.5272e-06 -9.94782e-06 -1.49408e-05 -6.17695e-06 -1.10164e-05 2.4492e-05 -5.89393e-06 1.2616e-05 
-0.000122947 5.35097e-06 -6.75556e-05 9.60767e-06 -9.83734e-07 1.67768e-07 2.79498e-07 -9.67691e-05 4.56581e-05 
-0.000420526 -6.18645e-06 2.60119e-05 -2.9571e-07 3.61076e-06 -2.07647e-05 0.000388227 1.87297e-06 -3.80939e-06 
-2.17219e-06 2.27255e-05 -2.30287e-06 3.62845e-06 -6.54349e-06 1.04838e-05 5.15556e-06 3.26416e-06 -0.000235135 
1.35297e-05 1.10693e-07 -1.16458e-05 1.13785e-05 1.89568e-06 3.97318e-05 -5.52144e-06 -1.6202e-05 -2.99999e-05 
-4.00554e-06 -9.15071e-06 3.35583e-05 1.36934e-05 2.48153e-05 7.89741e-05 -0.000133842 1.03575e-05 -2.55057e-06 
0.00599004 -0.000762725 0.00039368 -7.28949e-06 6.8247e-07 -1.06856e-05 -1.34225e-05 1.83517e-05 -5.69236e-05 
-8.15758e-06 -1.7653e-05 7.85398e-06 4.8071e-05 -0.0011369 -1.43245e-06 -5.06133e-06 -3.85853e-05 4.2018e-05 
5.89229e-06 1.72052e-05 0.00110571 -0.000804884 0.0044793 0.00348643 -0.00243032 2.45127e-05 -6.98988e-05 
-9.28308e-06 -3.0965e-06 -3.02906e-06 -0.00566977 -7.85031e-07 -2.51793e-07 3.94677e-05 1.34852e-05 -5.29193e-08 
-8.40843e-07 -2.17199e-06 -0.00513101 -2.46352e-06 -6.5847e-05 1.93489e-05 -2.12226e-06 -5.23024e-06 2.77812e-05 
-2.22867e-06 -8.15609e-07 5.64622e-06 -4.27024e-07 -3.05802e-06 -2.04405e-06 1.97416e-06 -1.05414e-05 3.40587e-05 
5.10583e-05 -1.08766e-05 -7.95827e-06 -3.61075e-05 -1.6271e-05 -6.75796e-06 3.42308e-05 4.00809e-06 -6.26474e-06 
-5.17858e-05 2.5677e-05 3.95553e-06 1.2458e-06 -3.40272e-07 -3.17066e-07 -8.05814e-05 -3.08265e-06 4.25471e-06 
-2.1095e-06 7.91432e-06 4.69242e-06 0.00118111 0.000766052 1.10356e-06 -5.90072e-06 -1.69362e-05 -2.23733e-05 
5.34301e-05 -7.08442e-06 1.25542e-05 2.29439e-05 5.79174e-05 7.93002e-06 -1.66211e-05 6.26451e-06 -1.32503e-05 
-3.63167e-06 0.00030668 5.21759e-06 -4.31437e-05 -5.8447e-06 2.91283e-05 4.18062e-06 5.26572e-06 -0.000377669 
-3.48155e-06 8.20538e-06 -5.75763e-06 -3.27936e-06 -3.9842e-05 4.0539e-06 1.07736e-05 0.000263122 8.38581e-06 
1.04849e-05 -3.95067e-05 1.69797e-05 -0.000543255 0.00655588 2.04066e-05 -0.000161306 -0.0069935 -1.6163e-06 
-1.35176e-06 -3.3569e-07 -6.21361e-06 -3.16639e-06 2.49373e-05 2.56447e-06 7.61227e-06 -1.16582e-06 3.0705e-06 
-1.20496e-06 -5.55535e-09 1.78238e-06 -1.13609e-05 1.25157e-05 2.64633e-05 -2.01102e-05 1.47373e-05 -2.2847e-05 
3.30807e-06 3.1102e-05 6.03335e-05 -3.54645e-05 -3.08872e-06 -0.000170339 1.43946e-06 -5.72086e-06 3.64874e-05 
-0.00187933 -0.00225755 -0.0034554 1.23486e-06 1.52832e-05 -8.55318e-05 6.01155e-06 1.05006e-05 -3.98412e-06 
4.50943e-06 -5.44433e-06 5.50171e-06 -3.8242e-06 0.000202222 7.98297e-06 8.94709e-05 -1.54862e-05 2.53348e-05 
8.83961e-06 1.59663e-05 1.51928e-05 1.99886e-06 9.35093e-06 -2.92915e-06 -3.66063e-06 4.67288e-06 1.11574e-06 
7.08318e-06 5.73831e-07 -5.29063e-06 -7.93364e-05 -0.000875954 -0.000917433 -2.19753e-07 3.7702e-06 -3.83424e-06 
-1.42104e-06 4.03116e-07 1.28371e-07 -0.000107031 0.00107577 -0.00371458 2.51082e-05 -0.00126996 -0.0024623 
6.48964e-05 5.44454e-05 2.23762e-05 -9.86188e-06 -0.00129123 -0.00745595 -0.00657324 -1.10226e-05 6.43315e-06 
4.01579e-05 0.000252229 1.22599e-05 -3.35539e-05 2.67055e-05 -0.00532282 -0.00191529 -1.33122e-05 5.31922e-06 
-6.34533e-05 1.76185e-05 -1.98941e-06 0.00439645 0.0053989 5.58444e-05 -6.91382e-06 2.34241e-05 1.2529e-05 
2.00671e-06 -9.93662e-06 -1.68432e-05 -1.39221e-05 -1.99547e-05 -0.000301076 1.49489e-06 -3.95321e-05 -1.39327e-05 
0.00649008 5.57642e-05 -5.13551e-05 2.44859e-05 -4.56216e-06 3.65262e-06 -5.46607e-07 6.12654e-05 6.10256e-06 
-3.65354e-05 -1.96422e-05 5.33592e-06 -0.00647554 -0.000939672 -0.000684352 -2.72427e-06 -8.77556e-07 -5.79929e-05 
9.07491e-06 -2.33828e-06 0.000303732 -9.39524e-05 0.00581435 1.52157e-05 7.25533e-06 1.56352e-05 1.31781e-05 
4.04502e-07 -0.000180538 0.0048151 3.10408e-05 0.0010589 -2.58165e-05 -0.000739616 -0.00112373 1.26533e-06 
-3.72915e-05 -1.13658e-07 -6.83473e-06 -3.41308e-05 5.52562e-06 4.80308e-06 -1.63758e-05 2.44506e-06 1.72126e-05 
-8.27642e-06 4.10741e-06 7.32551e-06 -3.38684e-06 -2.97483e-06 -5.12289e-06 -6.41042e-06 7.37839e-06 3.52855e-07 
-0.000379507 -3.80456e-05 -3.18796e-05 -1.17218e-05 -4.91851e-05 -0.00122964 1.20907e-05 -4.02566e-05 8.49517e-06 
-9.17321e-06 1.16709e-05 -0.000181571 -3.55171e-05 -1.0447e-05 -3.11021e-05 2.60054e-06 6.71354e-06 7.44812e-06 
0.00262465 -0.00087116 -6.8045e-05 2.90592e-05 1.0204e-05 0.00604826 -0.00536421 -4.10446e-07 8.02884e-06 
-2.54985e-05 2.29325e-05 1.88197e-06 5.14416e-06 -0.00252022 0.00313783 0.00121421 5.0915e-05 -6.63552e-05 
-0.00476063 -4.95137e-06 -1.19596e-06 -6.3535e-05 -1.36907e-05 -4.40643e-05 1.49851e-05 9.66685e-05 0.00570485 
7.19524e-05 -1.24381e-05 -2.60635e-05 9.4061e-06 -1.83247e-06 3.39369e-05 -5.85905e-07 4.10547e-05 1.94052e-06 
-2.01196e-05 -2.26396e-05 2.51898e-06 4.53864e-06 -1.07829e-06 -5.63272e-06 1.07974e-05 -2.47703e-06 -1.77532e-05 
1.22698e-05 1.30064e-06 -1.04767e-05 0.000166386 5.19822e-05 1.93434e-05 3.42759e-06 -1.16113e-05 -5.81013e-05 
3.87357e-05 2.23449e-05 1.28916e-05 7.68367e-05 6.54053e-05 -0.0051006 -0.000355411 4.75324e-06 -4.13851e-06 
2.40358e-05 2.40851e-05 -3.66325e-05 -1.13993e-05 2.33964e-06 0.000247271 -4.66066e-05 -0.00153107 8.10073e-05 
-0.000166113 -7.1651e-05 -4.42525e-05 1.86214e-05 4.00408e-05 2.40442e-05 -4.82918e-06 0.000108604 -0.000955441 
0.00219315 -0.000469796 1.83926e-07 8.78217e-06 -3.40723e-06 -2.52519e-05 -1.79955e-05 -0.000141794 5.11584e-05 
-4.42813e-05 2.19088e-05 5.45711e-06 -1.55669e-06 -0.000145483 2.02632e-06 6.04058e-06 -2.8127e-08 4.42196e-06 
-6.32273e-06 7.4424e-06 3.02209e-05 -1.51412e-06 -1.62105e-05 -8.30972e-06 -4.81287e-05 5.13347e-05 -4.50412e-08 
-5.37095e-06 -0.00011606 -7.4675e-06 -3.03313e-07 0.00149073 -0.00438329 -0.000828542 -0.000554494 4.10122e-07 
-2.58906e-06 4.1256e-06 -6.83464e-06 -0.00544334 -7.744e-06 -0.000426406 -0.000186423 1.22235e-05 2.22968e-06 
-6.15617e-06 -7.98335e-06 -1.58265e-05 -3.44055e-06 -1.2714e-05 -2.06195e-05 7.50624e-06 -3.12718e-05 6.87706e-05 
1.52424e-06 -1.17213e-05 0.000110532 -0.00692773 3.02853e-06 -4.07276e-06 -7.63978e-06 -2.75652e-05 -4.79573e-06 
-1.26241e-05 2.99773e-06 -0.0001742 -0.000101701 2.772e-06 2.52445e-07 -4.46346e-06 5.00023e-06 1.96839e-06 
8.84524e-05 3.96356e-05 8.12236e-07 1.40604e-07 -3.80415e-06 -6.42464e-06 -0.00587476 -4.6775e-05 -1.04557e-05 
-3.72677e-06 5.77946e-07 0.00170665 9.68349e-06 0.00078814 1.90239e-05 3.08776e-05 -6.39798e-06 4.49844e-06 
-3.22553e-05 -3.89054e-05 -0.000356292 -2.05477e-05 -1.36028e-06 -1.989e-05 -9.3907e-06 3.44596e-06 -1.15535e-06 
-3.68172e-05 -5.01211e-06 1.06835e-05 -5.53865e-06 -2.72793e-05 0.000117615 -2.02467e-05 -8.67197e-05 -6.38743e-07 
-1.52062e-07 0.000173381 -5.72582e-06 -5.91904e-07 3.19932e-07 1.7723e-05 -1.86997e-06 3.06016e-06 8.79648e-06 
-1.02391e-05 8.98432e-06 8.83166e-05 -1.74769e-06 -2.12232e-05 1.22034e-06 4.17496e-05 0.000122112 -2.20722e-06 
5.57746e-07 2.86733e-05 -8.97235e-06 -8.05913e-06 -4.12417e-06 1.31461e-05 -0.00131123 3.17315e-05 0.00182567 
0.00583375 -0.00279771 5.23478e-06 -1.39197e-07 0.00105832 -0.000777747 -7.24811e-05 -0.000545812 -0.0010119 
-0.000117588 4.14908e-05 9.02358e-06 7.81129e-06 -2.44971e-06 -9.85322e-05 -2.7299e-06 -5.40964e-06 -9.47793e-06 
-8.96927e-06 3.87507e-06 -2.18582e-05 -4.99965e-06 -2.9913e-07 1.28086e-05 3.92133e-06 -9.56759e-05 -3.54827e-05 
-4.46536e-07 -5.23014e-06 -2.10839e-05 2.74738e-05 1.45912e-06 1.04609e-06 4.69022e-06 -1.67592e-06 -3.52606e-07 
1.96365e-05 2.47077e-05 1.8235e-06 -3.54903e-06 6.86129e-05 -2.34573e-05 -1.16106e-05 -1.12584e-06 -0.00153587 
3.64228e-05 -2.03626e-05 -1.40431e-05 1.41802e-07 1.11978e-05 1.99236e-05 -2.32177e-05 9.29839e-06 0.000898646 
-5.93423e-05 -3.82942e-06 5.42255e-06 7.83601e-06 -7.19624e-06 4.86515e-07 -4.13209e-07 3.96352e-06 1.91516e-07 
-3.36299e-05 -5.39376e-05 -7.82024e-05 4.12551e-05 -7.45884e-05 -5.87873e-05 0.00123817 -1.08136e-05 -0.00111457 
-0.00104731 -0.000133026 -0.000205716 -1.70683e-05 -0.000330305 8.13963e-05 3.56947e-06 6.92657e-06 -3.0148e-06 
-6.2802e-06 8.11561e-07 1.22847e-06 3.54874e-05 -2.17144e-05 0.00282058 2.09118e-06 -2.23528e-07 0.000197937 
-0.000368651 -0.00554089 2.7183e-05 -0.00300961 1.35348e-07 -4.97902e-06 3.24551e-06 1.19265e-05 -1.65115e-05 
0.000197203 -0.000484205 1.66637e-05 4.48594e-05 3.43877e-06 1.89011e-06 1.65918e-05 -6.74837e-06 5.10672e-06 
-1.2951e-06 -2.11316e-05 8.0819e-06 -2.88109e-06 6.39056e-07 -3.26439e-05 -2.97996e-05 -6.64614e-06 -5.76645e-05 
-5.16494e-05 1.30318e-06 -7.33533e-05 5.54955e-05 -1.2107e-05 -1.32405e-05 -2.33216e-05 1.4496e-05 -1.89892e-06 
-2.7107e-05 -5.52402e-06 5.38649e-06 1.53278e-05 7.79003e-06 -3.70052e-05 1.95368e-06 2.79067e-05 -2.03852e-05 
4.73368e-05 4.12409e-05 -4.465e-05 -6.5797e-06 -3.03126e-06 4.04697e-05 1.59013e-06 2.2479e-05 -1.63962e-07 
-1.52412e-05 8.00339e-06 1.01931e-05 -2.38377e-06 -0.000113781 6.09834e-06 -5.76373e-06 -2.09946e-05 6.47149e-06 
-5.43255e-06 2.81629e-06 1.26557e-06 1.43268e-05 2.50903e-05 4.79163e-05 -2.52637e-05 -2.28729e-05 -3.58705e-05 
-0.00587511 4.84154e-05 6.88687e-06 -6.94586e-06 -8.32245e-06 -5.47326e-05 -7.53203e-05 -4.14597e-07 -1.08151e-05 
-2.50922e-06 1.42696e-05 -8.7709e-06 -8.21826e-06 -5.86891e-06 3.31143e-06 -2.08558e-06 9.73981e-07 1.09772e-05 
-3.47349e-05 8.43341e-05 -2.52672e-05 -2.48912e-05 2.31706e-05 -2.98589e-06 -1.12758e-05 4.62608e-07 5.8226e-07 
-1.70591e-06 -2.18191e-05 -1.94331e-05 9.28579e-06 2.28613e-05 -4.08386e-06 6.27098e-06 -3.91058e-06 -2.41594e-05 
2.67457e-05 -2.78192e-06 -1.68823e-05 2.94001e-06 8.18383e-06 -3.42069e-06 -2.68272e-06 -7.53859e-05 -5.77501e-05 
-1.40457e-06 3.33311e-05 4.20942e-06 -6.69132e-06 1.73336e-06 2.96188e-05 1.66474e-06 -9.75891e-05 -2.64797e-05 
0.000114715 -1.40825e-05 -4.26833e-05 0.00020969 -2.0524e-05 -2.86497e-05 -0.0073327 -2.63954e-07 1.3966e-06 
2.15486e-05 1.97026e-06 -4.72154e-05 -0.000129029 -7.16579e-06 5.44204e-06 3.80197e-06 0.00542954 -4.45089e-05 
-3.8386e-05 -0.000270864 -1.39589e-05 -0.00725464 -1.98533e-05 0.00141737 0.000625574 6.0214e-05 -0.000246977 
3.78057e-05 7.26572e-06 0.0015549 -1.62926e-06 6.31179e-06 -0.000723541 -3.69821e-06 -1.05971e-05 0.00221859 
-8.92515e-06 3.56436e-06 2.31258e-05 2.83136e-06 -1.73724e-05 -9.25991e-07 1.28106e-06 2.70377e-05 3.04912e-06 
-0.00022552 2.54433e-06 4.5543e-06 1.82106e-05 -0.00191956 1.3156e-05 1.6222e-06 1.33063e-06 5.05907e-06 
-4.76117e-06 -0.00323629 1.89222e-06 1.00941e-05 0.00350512 7.45927e-06 1.03358e-06 0.011106 0.00577137 
-0.00855462 -6.88357e-05 1.98064e-06 2.9586e-05 -1.72183e-06 -0.00243096 -6.14127e-06 0.00329762 0.00334858 
2.02572e-06 1.78205e-05 7.58212e-08 -9.06562e-05 -3.00252e-06 -6.29977e-05 0.00126684 -0.000211471 0.000725552 
-0.00309467 3.43856e-06 0.00190277 -0.00786021 3.41402e-06 -4.59114e-06 -0.00232384 -2.78378e-05 6.76222e-06 
-7.85104e-06 -0.00087247 1.51977e-06 3.53609e-06 -2.94763e-06 -0.00398228 0.00154329 0.00562395 -2.75514e-05 
-5.09346e-06 -3.48947e-06 1.24161e-05 5.11482e-06 2.73079e-06 -1.69573e-05 -5.89698e-05 -0.00578792 1.41032e-06 
2.91324e-06 -0.000470622 -0.00319428 3.22615e-07 5.08569e-06 -4.3931e-05 8.1342e-06 0.00238209 0.00529109 
0.00033223 -1.19315e-06 -0.00401986 0.000485411 -0.000419844 -4.84647e-06 7.05545e-05 4.82364e-05 1.65127e-05 
-0.00506797 2.43677e-05 5.73907e-06 -0.000894759 -0.000816353 -2.08106e-05 8.20734e-06 0.00395347 0.000385784 
0.00542534 -0.00631775 -9.76689e-06 -1.05772e-06 0.00208206 2.43008e-05 5.80915e-06 0.00158795 0.00586923 
0.00653426 0.00132324 0.00102037 0.00601554 1.74163e-06 -0.000122203 -0.00206698 0.00681248 0.000726298 
-1.71934e-06 0.00156126 0.000808718 -0.000983026 -0.00326743 -0.00311004 -2.90675e-05 -0.00577243 2.83477e-05 
7.55697e-06 1.38439e-06 2.28069e-06 0.00128995 8.30299e-06 -0.00338407 5.75049e-07 -1.72649e-05 -0.00223564 
0.000742147 0.00126069 -3.72353e-05 0.00834015 0.00353509 0.0026621 0.000930102 3.42157e-05 0.00313528 
9.03459e-08 -2.74933e-06 9.02387e-06 0.000117941 0.00713333 -0.00229276 0.00194014 -0.001219 0.00147797 
-0.00242504 0.00870378 -0.00491402 -0.00494683 0.0035139 -0.00426105 -0.000183938 0.00665921 0.00699766 
-0.00274715 -0.00465412 -0.000170644 -0.00137146 -0.000604693 0.00283784 -0.00443343 0.00110771 0.000323045 
-0.00188837 0.000288264 -0.00559076 0.000264441 0.00233533 -0.000316685 -0.00028348 -0.00494392 -0.000224782 
-0.000520254 -0.00166919 -0.00102804 -0.0113216 0.00452387 0.00582952 -0.0019695 -0.00135114 0.0113905 
-0.00128327 0.0011359 -0.00111494 -0.00817729 -0.00454216 -0.00469671 -0.00333901 -0.000941272 0.0113744 
0.00759962 0.00823428 0.00231424 -0.00613385 0.00257874 0.00158781 0.00273465 -0.0019443 -0.0043406 
-0.00221818 0.012251 -0.00756607 -0.00160763 0.00758953 -0.00860954 0.00600054 0.00566189 -0.000453605 
-0.00240907 0.000250775 -0.00260801 -0.00356794 0.00125848 0.00542722 0.000977234 -0.000722844 -0.00547823 
0.00569962 -0.00160931 -0.00131434 0.00058575 -0.00233831 0.00715718 0.0065971 -0.00240526 0.00288849 
0.0021719 -0.000704546 0.00265173 -0.00231909 -0.00265364 0.00540919 -7.68e-06 -0.00615292 0.000714709 
-0.000134764 -0.00087475 0.000781769 0.0113342 -0.00303186 0.00379886 0.00636966 0.00236567 0.00718458 
0.00278034 0.000311899 0.0019895 0.000531597 -0.00299034 -0.000615637 -0.00525922 0.00680834 0.0158548 
0.00346751 -0.00942278 
Stress%20yy%20component 1 13529 double
0.663792 0.83442 0.825499 0.789259 0.307714 0.307713 0.307698 0.307718 0.70324 
0.714378 0.757627 0.649847 0.558255 0.839444 0.716567 0.559566 0.875908 0.566116 
0.742047 0.913216 0.677176 0.621984 0.799545 0.683397 0.69181 0.875913 0.751261 
0.648892 0.969394 0.624094 0.837564 0.94041 0.171909 0.137505 0.660669 0.708336 
0.703848 0.778497 0.151706 0.161892 0.692217 0.553541 0.617444 0.490591 0.700952 
0.201759 0.244863 0.267213 0.304658 0.331818 0.36953 0.43644 0.20516 0.194614 
0.237471 0.262268 0.281562 0.784975 0.819875 0.784557 0.868851 0.183049 0.224625 
0.262278 0.297826 0.327988 0.360501 0.447762 0.19705 0.226189 0.208636 0.233595 
0.188783 0.199137 0.215577 0.229876 0.205676 0.233966 0.266923 0.308051 0.368792 
0.400387 0.434829 0.813279 0.77865 0.731593 0.797054 0.805826 0.226815 0.246422 
0.25419 0.275351 0.179802 0.229402 0.289734 0.302233 0.314649 0.349965 0.461546 
0.613984 0.74919 0.73363 0.614603 0.568821 0.0675024 0.234809 0.208963 0.213525 
0.172483 0.492971 0.429748 0.346747 0.334724 0.300924 0.260118 0.180691 0.759423 
0.753607 0.686607 0.670391 0.528398 0.192702 0.210718 0.267631 0.251615 0.477501 
0.355538 0.3386 0.299509 0.27117 0.236172 0.216942 0.937645 0.753999 0.864108 
0.890194 0.862837 0.652251 0.829331 0.823888 0.739248 0.690188 0.514944 0.367797 
0.350526 0.306379 0.286813 0.240542 0.200455 0.197879 0.244514 0.258847 0.25729 
0.954264 0.611768 0.741357 0.822007 0.64367 0.452034 0.384855 0.338084 0.325616 
0.273667 0.243937 0.193775 0.0716229 0.189884 0.205988 0.221514 0.198966 0.376351 
0.307031 0.291114 0.280829 0.278733 0.277279 0.282099 0.285077 0.287293 0.286585 
0.293016 0.29353 0.297273 0.29942 0.298897 0.296827 0.288378 0.286465 0.283758 
0.28395 0.281718 0.288061 0.306696 0.357208 0.327554 0.311269 0.294649 0.292151 
0.287903 0.287937 0.294966 0.28855 0.290029 0.293134 0.29546 0.306297 0.298718 
0.299835 0.300108 0.300002 0.289618 0.301459 0.28425 0.292865 0.290367 0.291064 
0.29264 0.279126 0.286441 0.28997 0.298796 0.296455 0.283032 0.307626 0.307706 
0.307743 0.307729 0.30772 0.307704 0.307708 0.307686 0.307667 0.307665 0.307649 
0.307643 0.307633 0.307622 0.307672 0.30763 0.307642 0.307653 0.307667 0.307665 
0.30768 0.307699 0.307693 0.307713 0.30772 0.307726 0.307737 0.30772 0.307694 
0.423755 0.303469 0.27835 0.262402 0.251493 0.24402 0.240196 0.237861 0.236917 
0.237091 0.238298 0.241072 0.244823 0.250186 0.255906 0.262191 0.270147 0.278747 
0.287219 0.295448 0.301727 0.305687 0.305738 0.302939 0.297998 0.29258 0.287714 
0.283491 0.280161 0.27781 0.276509 0.276325 0.277152 0.278761 0.281227 0.284686 
0.288074 0.291593 0.295479 0.2989 0.301871 0.304721 0.306737 0.307854 0.308017 
0.307871 0.307896 0.307056 0.305551 0.303529 0.300798 0.298036 0.29495 0.292461 
0.290092 0.288014 0.286383 0.285653 0.285736 0.286539 0.288512 0.29082 0.294135 
0.297904 0.302057 0.305819 0.30884 0.310348 0.309537 0.30643 0.301513 0.295617 
0.287972 0.280577 0.272799 0.26623 0.260363 0.255118 0.250879 0.247127 0.245011 
0.243772 0.243819 0.245129 0.248492 0.254298 0.264436 0.280084 0.308609 0.406425 
0.27751 0.348032 0.413423 0.414418 0.400629 0.389536 0.368758 0.368776 0.368482 
0.416656 0.440385 0.362042 0.374461 0.377912 0.385336 0.394367 0.410929 0.404958 
0.358084 0.257316 0.271977 0.367828 0.405044 0.3976 0.381601 0.377975 0.363529 
0.35888 0.306837 0.48316 0.446079 0.347618 0.358594 0.364264 0.362866 0.392614 
0.378951 0.386507 0.378691 0.28394 0.307747 0.307757 0.307755 0.30774 0.307717 
0.307691 0.307672 0.307645 0.307623 0.307605 0.307608 0.307609 0.307612 0.30763 
0.307649 0.307678 0.307692 0.307714 0.307718 0.307739 0.307746 0.307735 0.307661 
0.395052 0.302356 0.269164 0.253745 0.243656 0.239149 0.237132 0.237236 0.238911 
0.242885 0.248293 0.255727 0.26406 0.272619 0.282114 0.29256 0.301234 0.305558 
0.304936 0.300474 0.294345 0.288151 0.282245 0.278699 0.27683 0.276413 0.277644 
0.280153 0.284027 0.288085 0.291972 0.296517 0.300562 0.303679 0.306336 0.307808 
0.307933 0.30801 0.307733 0.306352 0.304176 0.300923 0.297646 0.293952 0.29099 
0.288121 0.286375 0.285682 0.286235 0.288229 0.29149 0.295612 0.300048 0.304807 
0.308762 0.310264 0.308615 0.303053 0.294834 0.285564 0.275991 0.266659 0.259067 
0.252761 0.248044 0.245122 0.244032 0.244935 0.24852 0.256762 0.271673 0.303086 
0.369593 0.229812 0.378206 0.438646 0.415134 0.40549 0.395766 0.40896 0.406589 
0.326375 0.414739 0.422395 0.323521 0.384005 0.383936 0.391041 0.400764 0.41067 
0.445909 0.389672 0.245317 0.238511 0.367474 0.41325 0.398697 0.381686 0.376802 
0.360131 0.345167 0.399781 0.542208 0.300215 0.371544 0.378396 0.397741 0.387908 
0.42893 0.4332 0.335937 0.296181 0.194529 0.185179 0.188004 0.222592 0.233745 
0.196292 0.24072 0.201526 0.216577 0.209235 0.192229 0.18425 0.217609 0.231269 
0.2082 0.207997 0.243019 0.212129 0.235802 0.187193 0.203197 0.177096 0.200163 
0.25291 0.223934 0.186528 0.209282 0.210309 0.225364 0.174598 0.195183 0.211735 
0.217213 0.189684 0.181447 0.217128 0.176684 0.203542 0.197353 0.215586 0.237867 
0.225019 0.208 0.194288 0.189675 0.247532 0.177951 0.188723 0.210162 0.214065 
0.234906 0.206622 0.185838 0.194848 0.239127 0.179271 0.222401 0.187091 0.197002 
0.186606 0.188513 0.250829 0.231274 0.225693 0.215314 0.20809 0.189124 0.18918 
0.188466 0.227651 0.240412 0.225387 0.209877 0.202409 0.219468 0.178937 0.209772 
0.307434 0.307409 0.307445 0.307495 0.307575 0.307604 0.307679 0.307744 0.307817 
0.307848 0.307913 0.307934 0.30798 0.307973 0.307973 0.307932 0.307895 0.307832 
0.3078 0.307731 0.30768 0.307623 0.307592 0.307554 0.307532 0.307501 0.307498 
0.307517 0.30766 0.360831 0.321545 0.297589 0.281094 0.270002 0.262224 0.257101 
0.253339 0.251998 0.251869 0.25171 0.253108 0.255661 0.259437 0.263722 0.268198 
0.273541 0.279238 0.284786 0.289421 0.29231 0.294234 0.294028 0.292166 0.289388 
0.286598 0.284139 0.282069 0.280621 0.279833 0.279798 0.280352 0.281714 0.283627 
0.28625 0.288947 0.291768 0.294669 0.297699 0.300423 0.302728 0.304765 0.306175 
0.307153 0.307188 0.306496 0.305243 0.303601 0.301653 0.299341 0.29695 0.294796 
0.292665 0.290714 0.289193 0.288245 0.287715 0.287839 0.288597 0.289934 0.291815 
0.293936 0.296499 0.299017 0.300981 0.301715 0.301686 0.299747 0.296714 0.292701 
0.287423 0.282168 0.2769 0.271792 0.267234 0.263377 0.26044 0.258204 0.256735 
0.256869 0.257736 0.260268 0.264357 0.271347 0.282806 0.300154 0.327595 0.392644 
0.330159 0.307755 0.294001 0.288887 0.286986 0.286972 0.283931 0.290897 0.292678 
0.294406 0.295577 0.29417 0.29934 0.300516 0.300861 0.304274 0.306226 0.310037 
0.299186 0.294171 0.291033 0.291971 0.292888 0.29076 0.289345 0.29467 0.312109 
0.366987 0.213211 0.241057 0.278239 0.290188 0.292192 0.293146 0.295015 0.298395 
0.306629 0.338476 0.401037 0.389287 0.33735 0.311138 0.29764 0.290894 0.288738 
0.286641 0.281646 0.265077 0.23067 0.219407 0.218771 0.241405 0.273435 0.286655 
0.286334 0.284711 0.285445 0.29012 0.299968 0.325347 0.392615 0.388517 0.324699 
0.29937 0.290423 0.288189 0.288777 0.288477 0.287158 0.274954 0.245941 0.209498 
0.251284 0.469339 0.437305 0.249106 0.456182 0.251857 0.30656 0.306786 0.306991 
0.30722 0.307489 0.307795 0.308076 0.308338 0.308568 0.308762 0.30893 0.308971 
0.30896 0.308862 0.308698 0.308511 0.308267 0.308002 0.307767 0.307544 0.307336 
0.307144 0.306971 0.306832 0.306862 0.30696 0.279022 0.316878 0.30252 0.291443 
0.281505 0.274905 0.269858 0.266284 0.26429 0.263008 0.262349 0.262768 0.264153 
0.266116 0.268213 0.270712 0.273777 0.277177 0.280636 0.282668 0.283963 0.285019 
0.28465 0.283496 0.282728 0.282252 0.281707 0.281298 0.281267 0.28167 0.282601 
0.283897 0.285549 0.28784 0.290141 0.292413 0.294847 0.297352 0.299724 0.30182 
0.303765 0.305376 0.306703 0.338035 0.332971 0.306396 0.305404 0.304001 0.302431 
0.300534 0.298576 0.296643 0.294717 0.292887 0.291309 0.290045 0.28918 0.28869 
0.288642 0.288963 0.289596 0.290521 0.291733 0.293183 0.294581 0.295224 0.295063 
0.294032 0.292255 0.289539 0.28605 0.282428 0.279082 0.275551 0.272508 0.269894 
0.268235 0.267097 0.266926 0.267581 0.269108 0.272095 0.276219 0.28287 0.292357 
0.305181 0.320482 0.254368 0.315969 0.305185 0.298619 0.297102 0.296452 0.298737 
0.300561 0.3027 0.305321 0.306996 0.30922 0.310948 0.311722 0.312836 0.31038 
0.307108 0.306822 0.306269 0.303151 0.301102 0.297206 0.296446 0.299462 0.3045 
0.316353 0.260629 0.399135 0.246218 0.289825 0.294277 0.29751 0.301636 0.309006 
0.327104 0.364565 0.254531 0.321527 0.352421 0.29772 0.292543 0.288542 0.282516 
0.27044 0.253422 0.244775 0.255828 0.382067 0.258998 0.248127 0.28329 0.287249 
0.289549 0.292811 0.299117 0.314132 0.349778 0.395839 0.311755 0.3405 0.293855 
0.291569 0.290025 0.285872 0.27641 0.259354 0.24742 0.305921 0.274179 0.298932 
0.266734 0.419544 0.265106 0.387944 0.30606 0.306371 0.306921 0.307569 0.308251 
0.308879 0.309421 0.30995 0.310438 0.310753 0.310723 0.310407 0.310078 0.309786 
0.309281 0.30869 0.308095 0.3076 0.307136 0.306703 0.306281 0.305937 0.305833 
0.305992 0.261785 0.289109 0.268974 0.309823 0.38108 0.302663 0.296263 0.289679 
0.284528 0.280277 0.277048 0.274342 0.272149 0.270585 0.269904 0.269919 0.270048 
0.27019 0.270666 0.271708 0.272656 0.275128 0.273654 0.27617 0.276154 0.276334 
0.277053 0.278161 0.279393 0.280287 0.281247 0.282275 0.283703 0.285303 0.287086 
0.289177 0.291506 0.293538 0.295634 0.297701 0.299707 0.301507 0.303371 0.305214 
0.2686 0.304791 0.303289 0.301745 0.300076 0.29836 0.296715 0.294888 0.293116 
0.291649 0.290417 0.289377 0.288609 0.288043 0.287708 0.28751 0.287501 0.288109 
0.289204 0.289767 0.289469 0.288714 0.28796 0.286306 0.283824 0.281496 0.279484 
0.277725 0.276133 0.274889 0.274357 0.27448 0.274986 0.276123 0.278268 0.281496 
0.28552 0.291043 0.297814 0.304464 0.311309 0.396981 0.281882 0.304684 0.301063 
0.300484 0.301263 0.303235 0.305617 0.308322 0.310877 0.313495 0.315454 0.317023 
0.317459 0.316554 0.315005 0.313234 0.311116 0.308762 0.305943 0.303106 0.301531 
0.301779 0.303863 0.271332 0.288185 0.294152 0.298561 0.304633 0.316096 0.338795 
0.286172 0.263411 0.282376 0.293146 0.273816 0.264415 0.257983 0.357789 0.37561 
0.352824 0.289417 0.282205 0.294121 0.303677 0.323614 0.366763 0.262193 0.284099 
0.291223 0.277832 0.269401 0.288272 0.262935 0.275733 0.386046 0.310692 0.276952 
0.268263 0.275955 0.357859 0.268019 0.35769 0.261998 0.34197 0.299717 0.302915 
0.26494 0.29534 0.262193 0.32885 0.317564 0.304808 0.276326 0.305709 0.306779 
0.308022 0.309277 0.310499 0.311119 0.312252 0.313052 0.31347 0.313021 0.312046 
0.312036 0.311268 0.310084 0.308912 0.307937 0.307094 0.306284 0.305523 0.304956 
0.304458 0.29475 0.277683 0.305019 0.303179 0.300235 0.296717 0.293095 0.28938 
0.285861 0.282745 0.279669 0.277035 0.27526 0.273658 0.271923 0.269766 0.269951 
0.271623 0.276042 0.278016 0.280095 0.281968 0.283879 0.286079 0.288288 0.290663 
0.293062 0.295131 0.296992 0.298799 0.300522 0.301898 0.303149 0.302936 0.301642 
0.30021 0.298662 0.296959 0.295084 0.293264 0.291665 0.290171 0.288801 0.287566 
0.28628 0.284984 0.28395 0.283408 0.283884 0.285258 0.283996 0.282631 0.280766 
0.279155 0.278543 0.278107 0.278007 0.278088 0.278714 0.279677 0.281216 0.283211 
0.285829 0.289039 0.292445 0.296258 0.300628 0.305147 0.36493 0.277182 0.27121 
0.304098 0.303814 0.304617 0.30641 0.308949 0.311913 0.315135 0.318424 0.321193 
0.323376 0.324435 0.324142 0.322761 0.320818 0.318271 0.315203 0.311854 0.308475 
0.305804 0.304414 0.328115 0.300455 0.289731 0.344592 0.309145 0.323624 0.290669 
0.282665 0.339335 0.288494 0.348184 0.297331 0.286488 0.282785 0.30915 0.276438 
0.280887 0.284751 0.374078 0.283912 0.28848 0.265813 0.271023 0.269536 0.278768 
0.292358 0.2686 0.353877 0.36712 0.365661 0.283403 0.283201 0.338511 0.302896 
0.270945 0.3153 0.277553 0.345428 0.274386 0.33223 0.294559 0.265825 0.29811 
0.274125 0.272305 0.307163 0.305324 0.306974 0.308979 0.311475 0.31398 0.315089 
0.316825 0.317038 0.314977 0.314984 0.312718 0.31036 0.308645 0.307228 0.306168 
0.304981 0.304039 0.303439 0.321144 0.30539 0.304691 0.303064 0.300257 0.297014 
0.293447 0.289858 0.285856 0.281937 0.27921 0.276629 0.28122 0.283667 0.286457 
0.289232 0.292098 0.294779 0.2973 0.299349 0.30099 0.30217 0.303137 0.304057 
0.352614 0.302197 0.300913 0.299353 0.297367 0.295256 0.293308 0.291419 0.28941 
0.287853 0.286036 0.283747 0.281329 0.279087 0.278196 0.275528 0.277077 0.278373 
0.279793 0.281431 0.283585 0.285454 0.288136 0.291601 0.294926 0.297785 0.300415 
0.302698 0.304193 0.323856 0.307517 0.31036 0.313915 0.318101 0.322264 0.326211 
0.329588 0.331996 0.332518 0.331296 0.328835 0.325737 0.321959 0.317165 0.312557 
0.308443 0.313091 0.295941 0.29042 0.303287 0.298777 0.278252 0.333886 0.288086 
0.292784 0.312136 0.285913 0.33533 0.287219 0.326348 0.332499 0.358067 0.290146 
0.350467 0.283238 0.345935 0.357033 0.279489 0.30506 0.325107 0.305218 0.28106 
0.328196 0.326618 0.294705 0.289546 0.284742 0.284282 0.295213 0.302258 0.274296 
0.322087 0.307563 0.310551 0.313899 0.319108 0.319292 0.322826 0.32061 0.317172 
0.31254 0.30855 0.305215 0.303162 0.286112 0.287845 0.309605 0.307463 0.304162 
0.300287 0.289475 0.290521 0.294198 0.29724 0.300408 0.302976 0.304412 0.304828 
0.300544 0.297639 0.295601 0.29398 0.291006 0.318974 0.313577 0.277751 0.280677 
0.282742 0.286049 0.289133 0.291218 0.299814 0.302541 0.304491 0.305396 0.291305 
0.309003 0.313137 0.318533 0.32427 0.328755 0.335647 0.338074 0.343473 0.3401 
0.338502 0.333352 0.33043 0.322171 0.315663 0.309838 0.344754 0.27635 0.304997 
0.286413 0.296426 0.338299 0.302287 0.347084 0.313483 0.295885 0.315206 0.297765 
0.304731 0.321016 0.301978 0.285487 0.31253 0.334354 0.30798 0.34191 0.32858 
0.312929 0.290653 0.341622 0.308238 0.311339 0.308956 0.308191 0.30517 0.304373 
0.29982 0.296303 0.30372 0.317473 0.328708 0.309073 0.296295 0.316895 0.307607 
0.326878 0.314964 0.322931 0.331718 0.320708 0.31558 0.307167 0.30734 0.307432 
0.3075 0.307601 0.307713 0.307825 0.307934 0.308032 0.308101 0.308097 0.30808 
0.308011 0.307917 0.30781 0.307718 0.307637 0.30756 0.30748 0.307418 0.307386 
0.307434 0.343213 0.315972 0.2874 0.271418 0.26275 0.257921 0.255356 0.254112 
0.254471 0.256308 0.259877 0.264136 0.269418 0.27505 0.281075 0.286288 0.290871 
0.292635 0.291659 0.289096 0.286267 0.283548 0.281504 0.280455 0.28037 0.281266 
0.283142 0.285789 0.288825 0.291998 0.295378 0.298543 0.301444 0.303894 0.305843 
0.307065 0.306018 0.304406 0.302145 0.299633 0.296786 0.294289 0.291812 0.289789 
0.288555 0.28809 0.288458 0.289752 0.291632 0.294098 0.296297 0.298612 0.300274 
0.299685 0.297357 0.292704 0.286454 0.280452 0.274405 0.269055 0.264605 0.26183 
0.260053 0.260067 0.262798 0.267488 0.276238 0.291511 0.313755 0.351195 0.328297 
0.314513 0.301662 0.295161 0.29138 0.293059 0.293726 0.297812 0.302022 0.305082 
0.306499 0.30694 0.305786 0.292695 0.289154 0.301346 0.297893 0.294548 0.280468 
0.292604 0.29772 0.313385 0.211334 0.242704 0.278113 0.289838 0.289281 0.28893 
0.291913 0.297669 0.312868 0.340172 0.403825 0.422428 0.346861 0.30779 0.294445 
0.288434 0.284529 0.284204 0.2844 0.272554 0.236465 0.210072 0.21299 0.246749 
0.27868 0.28522 0.284846 0.284687 0.286926 0.295925 0.320885 0.37557 0.38761 
0.328982 0.303138 0.291384 0.287294 0.285211 0.288688 0.291218 0.279466 0.234916 
0.216367 0.496718 0.246648 0.247783 0.440612 0.431104 0.306737 0.30624 0.307068 
0.307556 0.308037 0.308501 0.308927 0.309242 0.309364 0.309317 0.309142 0.308787 
0.308401 0.307967 0.307622 0.307282 0.30697 0.306769 0.30657 0.246425 0.293631 
0.306933 0.319673 0.283383 0.276367 0.271698 0.269016 0.266544 0.265589 0.265602 
0.266983 0.268824 0.271209 0.273792 0.276528 0.279379 0.282147 0.283602 0.282502 
0.281347 0.280839 0.280989 0.281379 0.282124 0.283262 0.285129 0.287414 0.290048 
0.292746 0.295465 0.298091 0.300426 0.302673 0.304601 0.303265 0.305234 0.306605 
0.301266 0.299039 0.296646 0.29452 0.292505 0.290802 0.289554 0.28881 0.288631 
0.28894 0.289393 0.290279 0.291293 0.291914 0.292486 0.291731 0.289346 0.285421 
0.281533 0.278088 0.275032 0.272829 0.271668 0.271246 0.272349 0.274714 0.280007 
0.287227 0.298085 0.31126 0.327914 0.25272 0.408012 0.303895 0.311732 0.299075 
0.297646 0.299655 0.30277 0.306038 0.308456 0.311399 0.312814 0.313157 0.31141 
0.30924 0.307398 0.305115 0.30212 0.299399 0.297668 0.301136 0.308264 0.254056 
0.255298 0.423859 0.263049 0.280082 0.290343 0.295021 0.298276 0.302294 0.309319 
0.324684 0.357978 0.328092 0.30881 0.298607 0.293461 0.289309 0.283882 0.27361 
0.255887 0.242241 0.380938 0.262785 0.27978 0.286042 0.288496 0.290411 0.295615 
0.308709 0.337225 0.255632 0.315288 0.300774 0.294495 0.292247 0.290769 0.287209 
0.277955 0.261174 0.244578 0.306731 0.368615 0.245739 0.343691 0.269012 0.417253 
0.267607 0.403741 0.367772 0.261466 0.26929 0.306861 0.26219 0.308942 0.311215 
0.310754 0.31095 0.310392 0.309595 0.308766 0.307914 0.307149 0.306473 0.305967 
0.305608 0.261123 0.30377 0.305602 0.297836 0.308633 0.286279 0.282232 0.27879 
0.275808 0.273759 0.272132 0.271255 0.270499 0.269662 0.268949 0.274266 0.274035 
0.275999 0.278094 0.280307 0.282158 0.284118 0.286389 0.288793 0.29157 0.294097 
0.296546 0.298811 0.300728 0.302207 0.301351 0.306887 0.309959 0.300958 0.298757 
0.290972 0.304241 0.260911 0.29674 0.294727 0.292752 0.291099 0.289487 0.288254 
0.28725 0.286388 0.285615 0.285054 0.285437 0.285054 0.287081 0.285212 0.283249 
0.280587 0.278792 0.277849 0.277547 0.277972 0.279171 0.28104 0.284115 0.28827 
0.293046 0.299697 0.383327 0.270203 0.302928 0.269585 0.262413 0.302561 0.304982 
0.308484 0.312196 0.315414 0.317636 0.318622 0.318547 0.31735 0.314805 0.31169 
0.308242 0.3052 0.303272 0.30211 0.392943 0.337995 0.273637 0.302778 0.271307 
0.28206 0.289218 0.294299 0.29895 0.304482 0.31413 0.314784 0.311289 0.366307 
0.302053 0.294477 0.288842 0.282414 0.274901 0.264651 0.328368 0.277935 0.283297 
0.28714 0.291405 0.299354 0.307927 0.305758 0.296608 0.292188 0.28923 0.285226 
0.279116 0.269582 0.26159 0.37237 0.307107 0.380985 0.332747 0.259391 0.275672 
0.303984 0.385822 0.371693 0.266975 0.304782 0.279602 0.361139 0.34201 0.256375 
0.314919 0.298817 0.313869 0.31166 0.312942 0.308699 0.307349 0.306137 0.305134 
0.304459 0.310243 0.27153 0.313495 0.287197 0.294537 0.283593 0.279947 0.276288 
0.27345 0.270083 0.264522 0.278414 0.281601 0.284279 0.287016 0.290006 0.29325 
0.296056 0.298392 0.300461 0.302056 0.303518 0.307789 0.304382 0.296981 0.30093 
0.29493 0.292794 0.290801 0.288669 0.286729 0.284675 0.282508 0.279908 0.277567 
0.279471 0.278611 0.278099 0.276466 0.278015 0.279756 0.282149 0.284751 0.287516 
0.290915 0.294204 0.297624 0.301231 0.304181 0.272124 0.34218 0.268388 0.363575 
0.270014 0.311613 0.315967 0.32027 0.323612 0.32586 0.326646 0.32563 0.323442 
0.319882 0.315459 0.310985 0.306987 0.314083 0.290755 0.30566 0.306118 0.277668 
0.284518 0.289639 0.294641 0.299993 0.307506 0.321491 0.272117 0.339394 0.364329 
0.296531 0.289971 0.283172 0.27573 0.269359 0.303548 0.351444 0.277369 0.282407 
0.287633 0.293674 0.355562 0.293631 0.289438 0.285461 0.280532 0.275354 0.371141 
0.305386 0.268736 0.274178 0.343181 0.320145 0.31895 0.307106 0.312308 0.298195 
0.310717 0.365013 0.270668 0.27244 0.304077 0.300591 0.303103 0.353759 0.34985 
0.313399 0.30042 0.308965 0.304576 0.307985 0.283539 0.325896 0.290292 0.33173 
0.294359 0.284939 0.287729 0.29136 0.295345 0.298598 0.301381 0.303343 0.304514 
0.305052 0.317263 0.291671 0.299543 0.300895 0.292937 0.29754 0.290233 0.287631 
0.284832 0.281772 0.278057 0.317516 0.354848 0.27998 0.283972 0.288024 0.292188 
0.296108 0.299585 0.302258 0.304232 0.342118 0.298635 0.323634 0.328991 0.332565 
0.334773 0.334514 0.332661 0.32885 0.322827 0.316719 0.310504 0.277042 0.336957 
0.320926 0.317875 0.310783 0.295168 0.285718 0.290906 0.295562 0.301854 0.278995 
0.319584 0.334973 0.351681 0.311759 0.306103 0.287438 0.283832 0.30787 0.349546 
0.30723 0.311049 0.316838 0.310236 0.337027 0.315868 0.301814 0.304837 0.297968 
0.312678 0.314927 0.313568 0.340426 0.352796 0.275536 0.305416 0.304973 0.298648 
0.289776 0.285188 0.281214 0.29095 0.304814 0.302739 0.296991 0.310839 0.343965 
0.289856 0.324737 0.299031 0.324243 0.301679 0.292459 0.306336 0.307985 0.308516 
0.308118 0.333115 0.30271 0.296063 0.333563 0.319919 0.322828 0.300478 0.304681 
0.307205 0.308592 0.327397 0.335392 0.322364 0.342566 0.342155 0.340326 0.33086 
0.322913 0.312646 0.301088 0.308764 0.299722 0.314161 0.334446 0.28656 0.325615 
0.308985 0.320524 0.329093 0.308004 0.321826 0.305858 0.306081 0.303482 0.313112 
0.316227 0.337763 0.31767 0.293476 0.290005 0.296501 0.344373 0.312616 0.298445 
0.295417 0.316119 0.314363 0.309071 0.304425 0.325895 0.305214 0.314061 0.311094 
0.318688 0.320328 0.328386 0.314556 0.305449 0.302895 0.310739 0.320191 0.316343 
0.317866 0.830802 0.493401 0.7565 0.474269 0.527725 1.04165 0.633108 1.2775 
1.25633 0.318719 0.794646 0.752534 0.740026 0.714209 0.508279 0.669734 0.17177 
0.225578 0.268949 0.275988 0.335079 0.373082 0.421143 0.542202 0.213362 0.195964 
0.267964 0.285137 0.297132 0.318538 0.974168 0.946203 0.91801 0.862114 0.854891 
0.137194 0.202422 0.252777 0.305332 0.291645 0.360439 0.419518 0.600029 0.261526 
0.241785 0.217461 0.229483 0.274636 0.231162 0.202584 0.213477 0.220375 0.275648 
0.173528 0.228 0.272762 0.275118 0.329248 0.379665 0.437848 0.477186 0.796107 
0.946317 0.743007 0.725014 0.869208 0.84311 0.257572 0.270856 0.287108 0.26732 
0.352952 0.148925 0.238741 0.26537 0.292774 0.293424 0.324589 0.37128 0.601511 
0.760532 0.75139 0.744693 0.721718 0.506836 0.813995 0.219848 0.212351 0.257414 
0.213402 0.193708 0.277233 0.543154 0.458044 0.380763 0.342306 0.30871 0.27681 
0.243737 0.138442 0.796252 0.948906 0.750412 0.727541 0.514643 0.717557 0.230428 
0.220587 0.264904 0.282263 0.359916 0.591023 0.367108 0.36757 0.299838 0.27685 
0.251439 0.238925 0.185308 1.00554 0.764398 0.942464 0.91411 0.87556 0.847868 
0.789718 0.55489 0.945649 0.730818 0.700252 0.702245 0.588552 0.424119 0.338232 
0.357325 0.28555 0.288961 0.223003 0.176726 0.296147 0.252018 0.282555 0.276502 
0.345612 0.99593 0.761874 0.559452 0.916761 0.691951 0.689454 0.672174 0.372452 
0.36493 0.337626 0.303195 0.271519 0.227831 0.173228 0.199485 0.162187 0.206231 
0.2172 0.209786 0.348271 0.778553 0.811357 0.588678 0.357607 0.381859 0.36288 
0.356702 0.356707 0.365551 0.363935 0.367352 0.367204 0.380092 0.374229 0.37705 
0.380492 0.305937 0.305719 0.371366 0.366821 0.363632 0.292425 0.358879 0.364 
0.379406 0.344562 0.552233 0.448894 0.323128 0.347387 0.369187 0.366075 0.361938 
0.338126 0.340093 0.364246 0.36847 0.368612 0.349795 0.352813 0.376252 0.378929 
0.37618 0.34799 0.292261 0.290572 0.34071 0.366254 0.365973 0.335167 0.285245 
0.335674 0.362486 0.371553 0.347751 0.32802 0.519986 0.307594 0.307793 0.307802 
0.307808 0.307772 0.307727 0.307708 0.30769 0.307659 0.307653 0.307638 0.307585 
0.307557 0.30757 0.30759 0.307568 0.30756 0.307601 0.307632 0.307656 0.30767 
0.30769 0.307708 0.307722 0.307748 0.307768 0.307768 0.307746 0.307745 0.307709 
0.534673 0.298985 0.286901 0.267098 0.255516 0.247045 0.241443 0.238428 0.236909 
0.23665 0.237453 0.239486 0.242593 0.247151 0.252766 0.258873 0.266126 0.274407 
0.283037 0.291608 0.298952 0.304276 0.306303 0.304966 0.300786 0.295359 0.290146 
0.285388 0.281515 0.278701 0.277007 0.276242 0.276519 0.277716 0.279783 0.282829 
0.286316 0.289808 0.293582 0.29727 0.300484 0.303443 0.305852 0.307438 0.308059 
0.307862 0.307807 0.308004 0.307618 0.306443 0.304662 0.302237 0.299439 0.296464 
0.293655 0.291206 0.288978 0.287079 0.285905 0.285524 0.28589 0.287244 0.28952 
0.292437 0.295923 0.29996 0.304006 0.307478 0.309882 0.310331 0.308527 0.304444 
0.298846 0.291874 0.284283 0.276659 0.269491 0.263197 0.257505 0.252789 0.248911 
0.245885 0.244201 0.243411 0.244035 0.246406 0.250789 0.257996 0.269589 0.288761 
0.309136 0.5361 0.227355 0.315898 0.431163 0.424839 0.424345 0.412684 0.401532 
0.356096 0.359189 0.361126 0.617578 0.5602 0.363873 0.400485 0.396391 0.399852 
0.407229 0.419246 0.380753 0.39782 0.290362 0.225553 0.224227 0.311423 0.444043 
0.426349 0.4099 0.397674 0.399499 0.38495 0.359836 0.344229 0.628167 0.589739 
0.343305 0.345128 0.370329 0.345245 0.397471 0.368011 0.388506 0.387958 0.313771 
0.258427 0.307648 0.30783 0.307822 0.30779 0.307774 0.307733 0.307676 0.307628 
0.307569 0.307542 0.307525 0.307487 0.30752 0.307556 0.307573 0.307633 0.307676 
0.307719 0.307761 0.307768 0.307799 0.307821 0.307817 0.30763 0.526746 0.329449 
0.27809 0.259161 0.247214 0.240709 0.237627 0.236727 0.237565 0.240397 0.245251 
0.251675 0.259617 0.268087 0.277233 0.28751 0.297501 0.30444 0.306288 0.303245 
0.297552 0.291166 0.284906 0.280146 0.277376 0.276261 0.276705 0.278655 0.281884 
0.285959 0.289973 0.294262 0.298642 0.302279 0.305259 0.307363 0.308066 0.307834 
0.307836 0.308001 0.307221 0.305405 0.302659 0.299332 0.295782 0.292392 0.289415 
0.287039 0.28576 0.285673 0.287016 0.289581 0.293339 0.297773 0.302543 0.307085 
0.310128 0.310112 0.306386 0.299251 0.29034 0.280714 0.271125 0.262593 0.255571 
0.250039 0.246195 0.244094 0.243837 0.245946 0.251269 0.261723 0.282563 0.327078 
0.531253 0.226067 0.333484 0.449943 0.435228 0.430237 0.421905 0.408446 0.39299 
0.381812 0.360969 0.582657 0.64965 0.329169 0.389442 0.408976 0.409332 0.417389 
0.427124 0.424418 0.434624 0.289535 0.200861 0.223496 0.295582 0.449685 0.433754 
0.412916 0.399037 0.39341 0.383324 0.337838 0.669631 0.679241 0.353851 0.357762 
0.370669 0.382231 0.398892 0.405436 0.442989 0.411161 0.290174 0.260358 0.30771 
0.307693 0.71601 0.641402 0.671022 0.835436 0.662801 0.578607 0.928019 0.748217 
0.585413 0.918148 0.548693 0.775534 0.141842 0.703852 0.766905 0.14526 0.183818 
0.177195 0.185826 0.174581 0.175011 0.186122 0.175115 0.171978 0.183033 0.162325 
0.201217 0.189801 0.232823 0.226387 0.242408 0.229097 0.230341 0.231755 0.188268 
0.200377 0.213456 0.226342 0.169261 0.246167 0.241253 0.156633 0.20358 0.196929 
0.198857 0.205465 0.243232 0.218009 0.209967 0.228771 0.214587 0.205976 0.228552 
0.212404 0.195278 0.212174 0.213707 0.209602 0.202979 0.238147 0.198624 0.199976 
0.194663 0.18117 0.181345 0.179367 0.175469 0.172246 0.190797 0.173628 0.186382 
0.187199 0.213662 0.216314 0.228854 0.239814 0.226041 0.250105 0.196247 0.198876 
0.219405 0.207188 0.17482 0.170638 0.199202 0.214818 0.220662 0.198023 0.264519 
0.232345 0.242698 0.241934 0.221796 0.212661 0.222598 0.185264 0.195527 0.20663 
0.210733 0.173939 0.205815 0.196087 0.21931 0.210077 0.227199 0.229486 0.157961 
0.192776 0.201975 0.210831 0.209114 0.196039 0.233472 0.240497 0.168066 0.18313 
0.185635 0.168098 0.187012 0.182729 0.17387 0.174537 0.199106 0.272559 0.242972 
0.230008 0.251599 0.230524 0.223272 0.215713 0.226686 0.175051 0.182413 0.197746 
0.175284 0.207595 0.186151 0.216921 0.184248 0.240474 0.198992 0.208724 0.215232 
0.201122 0.208359 0.184694 0.202831 0.205404 0.209964 0.22561 0.223795 0.263654 
0.175895 0.188775 0.182516 0.169789 0.201599 0.198149 0.188767 0.227575 0.216155 
0.204584 0.241193 0.245967 0.229847 0.235787 0.223922 0.178011 0.174673 0.173944 
0.175 0.185402 0.170102 0.180473 0.20179 0.217443 0.224577 0.229132 0.216865 
0.214508 0.216312 0.173268 0.172852 0.172161 0.186506 0.178772 0.203665 0.212107 
0.205571 0.1984 0.222817 0.19748 0.188533 0.192565 0.183276 0.188447 0.204611 
0.212741 0.200276 0.208442 0.240137 0.231236 0.240509 0.226521 0.235041 0.230082 
0.215319 0.218641 0.215553 0.199935 0.204752 0.201573 0.182633 0.182432 0.179949 
0.171915 0.176535 0.185607 0.254664 0.249007 0.2262 0.248224 0.228719 0.217424 
0.2327 0.172336 0.182661 0.177745 0.189728 0.197798 0.177826 0.183949 0.171914 
0.187776 0.187105 0.190018 0.212088 0.200581 0.200863 0.2162 0.242651 0.207335 
0.215084 0.200454 0.182134 0.174724 0.196224 0.204513 0.253078 0.245535 0.231406 
0.216887 0.210383 0.198229 0.193638 0.195233 0.164182 0.176519 0.174104 0.176991 
0.191441 0.209913 0.232385 0.256811 0.214584 0.220137 0.224772 0.243606 0.184134 
0.170281 0.222854 0.220105 0.195375 0.213593 0.218373 0.187695 0.176145 0.175476 
0.197682 0.169928 0.213978 0.185839 0.227968 0.237094 0.177522 0.202922 0.197881 
0.183688 0.182176 0.18511 0.178599 0.179692 0.191857 0.174304 0.177082 0.186524 
0.179322 0.23594 0.2725 0.244922 0.236169 0.232573 0.227891 0.241302 0.234787 
0.228621 0.227384 0.202254 0.196563 0.198452 0.203944 0.225799 0.192608 0.180574 
0.176409 0.204462 0.210694 0.200323 0.2004 0.215986 0.230049 0.209713 0.21829 
0.227772 0.216226 0.204445 0.209523 0.18389 0.183287 0.179462 0.176464 0.176603 
0.188452 0.177496 0.176547 0.187693 0.163116 0.278994 0.245835 0.238603 0.237834 
0.239411 0.251963 0.23425 0.223763 0.232335 0.23204 0.214776 0.219506 0.216646 
0.192927 0.199505 0.198274 0.201187 0.215508 0.205311 0.215542 0.246352 0.169544 
0.191688 0.218661 0.230504 0.172985 0.202647 0.197862 0.222368 0.186851 0.192843 
0.219164 0.202277 0.180597 0.20094 0.206664 0.215392 0.199711 0.201214 0.214747 
0.48822 0.505845 0.32252 0.354911 0.313759 0.309491 0.310102 0.300754 0.300696 
0.294872 0.293339 0.295659 0.296354 0.293924 0.301672 0.292626 0.300347 0.302197 
0.298169 0.305275 0.302665 0.306511 0.312213 0.303237 0.310334 0.309417 0.306735 
0.315471 0.310703 0.295078 0.290048 0.286488 0.292888 0.306008 0.30418 0.300738 
0.296236 0.307546 0.295373 0.277423 0.282206 0.295125 0.29934 0.309525 0.315074 
0.298627 0.327828 0.293957 0.29443 0.304408 0.28753 0.297945 0.298366 0.285571 
0.307711 0.307569 0.307531 0.307539 0.307528 0.307489 0.307565 0.30755 0.307539 
0.30759 0.307589 0.307552 0.307623 0.307623 0.307582 0.307652 0.307645 0.307616 
0.307682 0.307676 0.307665 0.307725 0.30772 0.307699 0.307761 0.30775 0.307731 
0.307774 0.307785 0.307787 0.307809 0.307813 0.307806 0.307841 0.307839 0.307807 
0.307859 0.307833 0.307815 0.307831 0.307841 0.307873 0.307854 0.307847 0.307856 
0.307836 0.307829 0.30782 0.307803 0.307796 0.30781 0.307777 0.307771 0.307788 
0.307743 0.307748 0.307777 0.307717 0.307718 0.307723 0.307675 0.30769 0.307693 
0.307651 0.307659 0.307669 0.307636 0.307644 0.307649 0.307622 0.307617 0.307606 
0.30759 0.307605 0.307612 0.307584 0.307594 0.307599 0.307581 0.307591 0.307575 
0.307607 0.307619 0.307564 0.307649 0.307666 0.307719 0.307644 0.339612 0.349375 
0.333097 0.320084 0.302279 0.333423 0.290721 0.281311 0.304308 0.273241 0.266899 
0.287245 0.261334 0.257479 0.274362 0.253853 0.251654 0.264967 0.249051 0.247714 
0.258986 0.245883 0.245323 0.254643 0.244728 0.244708 0.252263 0.244702 0.245235 
0.251552 0.245224 0.246594 0.25143 0.247302 0.249135 0.252059 0.25041 0.253032 
0.254111 0.254996 0.257776 0.257322 0.260008 0.263048 0.261353 0.265343 0.269254 
0.265765 0.271982 0.276161 0.270752 0.279059 0.283114 0.276336 0.285942 0.289821 
0.282125 0.29219 0.295277 0.287435 0.296733 0.298674 0.29136 0.299449 0.299556 
0.293876 0.29944 0.298278 0.294676 0.29731 0.295055 0.293458 0.293599 0.291071 
0.290897 0.289615 0.287221 0.287986 0.285992 0.283939 0.285319 0.282872 0.28126 
0.282948 0.28051 0.279377 0.281151 0.278981 0.278337 0.28 0.278257 0.278202 
0.279597 0.278439 0.278893 0.279866 0.279579 0.280353 0.280838 0.281307 0.282506 
0.282497 0.283843 0.285539 0.284797 0.286873 0.288522 0.287513 0.289964 0.291686 
0.290296 0.293134 0.295054 0.293211 0.296586 0.298255 0.296229 0.299633 0.301074 
0.299133 0.302245 0.303623 0.301673 0.304644 0.305637 0.303877 0.30638 0.306939 
0.305612 0.307427 0.307575 0.306801 0.307545 0.307504 0.307477 0.307132 0.306713 
0.306891 0.30608 0.305341 0.305967 0.304509 0.303521 0.30452 0.302538 0.301209 
0.302704 0.300036 0.298681 0.300544 0.297476 0.295958 0.298159 0.294874 0.293662 
0.29585 0.292585 0.29144 0.293682 0.290455 0.289425 0.291606 0.288672 0.287857 
0.289861 0.287442 0.287032 0.288549 0.286802 0.286854 0.287814 0.286906 0.287314 
0.287586 0.287686 0.288616 0.288047 0.289355 0.290397 0.289154 0.29148 0.293032 
0.290752 0.294151 0.29596 0.292731 0.297269 0.299245 0.295158 0.30053 0.30229 
0.297786 0.303313 0.304779 0.300159 0.305144 0.305868 0.301617 0.305738 0.305327 
0.302037 0.304368 0.302851 0.301119 0.301325 0.298942 0.298599 0.296911 0.294067 
0.29497 0.291432 0.287672 0.290222 0.28494 0.281354 0.284918 0.278699 0.274918 
0.279562 0.272327 0.269059 0.274294 0.266762 0.263869 0.269403 0.261961 0.259368 
0.265149 0.257866 0.255788 0.261705 0.25461 0.252777 0.259103 0.252069 0.251044 
0.2573 0.251051 0.250469 0.256475 0.250942 0.251052 0.256964 0.252217 0.253055 
0.258521 0.255041 0.256702 0.261757 0.260278 0.263267 0.267072 0.269222 0.274826 
0.275829 0.283181 0.292622 0.289233 0.305775 0.324441 0.309714 0.344083 0.396675 
0.342026 0.368285 0.328756 0.308447 0.290608 0.282003 0.317828 0.279407 0.273106 
0.308487 0.27087 0.268415 0.299693 0.267741 0.268895 0.29472 0.271122 0.266457 
0.293847 0.266803 0.27302 0.294211 0.273144 0.272387 0.297876 0.273822 0.274766 
0.29849 0.273446 0.27704 0.29985 0.278613 0.275229 0.303327 0.276714 0.282285 
0.304214 0.281171 0.280675 0.309967 0.281626 0.280817 0.308479 0.280362 0.280714 
0.307897 0.281565 0.274794 0.309302 0.291718 0.292488 0.309279 0.291526 0.286739 
0.307271 0.269038 0.277406 0.307432 0.272842 0.273813 0.302329 0.271717 0.273727 
0.299193 0.270534 0.268617 0.297021 0.28314 0.281397 0.294807 0.262214 0.272152 
0.296678 0.26941 0.270221 0.294091 0.272785 0.278791 0.297528 0.283238 0.290263 
0.308394 0.316637 0.335905 0.337815 0.224355 0.177303 0.26008 0.238152 0.227058 
0.295408 0.281439 0.263878 0.27928 0.289287 0.283948 0.284668 0.29197 0.294629 
0.28488 0.290022 0.296423 0.293458 0.290735 0.297333 0.296545 0.293062 0.295747 
0.300864 0.300804 0.300727 0.365387 0.33766 0.32738 0.506812 0.409003 0.362767 
0.40721 0.47148 0.331499 0.36188 0.358073 0.30391 0.318153 0.320972 0.290656 
0.291866 0.306931 0.285649 0.282976 0.297105 0.284988 0.279659 0.293001 0.28679 
0.279604 0.291369 0.281959 0.273005 0.288613 0.268573 0.279673 0.27548 0.225918 
0.251886 0.247533 0.180917 0.230618 0.218359 0.226843 0.187391 0.253516 0.237289 
0.226817 0.282415 0.278733 0.262575 0.279606 0.288527 0.286933 0.276166 0.284616 
0.291033 0.274491 0.280626 0.289178 0.277896 0.281021 0.287915 0.287056 0.284486 
0.290904 0.309869 0.295859 0.296433 0.346736 0.317371 0.310333 0.477205 0.38045 
0.341276 0.382307 0.45625 0.322556 0.355197 0.343133 0.29482 0.301667 0.309046 
0.286744 0.287792 0.293146 0.283303 0.28201 0.287576 0.287331 0.286628 0.287788 
0.285393 0.274189 0.292805 0.289655 0.284444 0.288797 0.27661 0.285314 0.284116 
0.234174 0.276967 0.262825 0.176483 0.225378 0.228346 0.423305 0.237395 0.221483 
0.237179 0.3719 0.410404 0.570983 0.520111 0.422962 0.432327 0.232897 0.217743 
0.238501 0.436841 0.567284 0.425821 0.359673 0.307651 0.230705 0.249695 0.306962 
0.306992 0.307082 0.307131 0.306737 0.307215 0.307292 0.306933 0.307363 0.307419 
0.307134 0.307527 0.3076 0.307387 0.307715 0.307795 0.307642 0.307907 0.307971 
0.307911 0.308078 0.308138 0.308151 0.308208 0.308272 0.308403 0.30836 0.308404 
0.30858 0.30847 0.308489 0.308718 0.308511 0.308528 0.308838 0.308509 0.308497 
0.308857 0.308467 0.308427 0.308806 0.308365 0.30831 0.308669 0.308238 0.308167 
0.308529 0.30809 0.308032 0.308342 0.307929 0.307865 0.30808 0.30777 0.307715 
0.307864 0.307618 0.307574 0.307654 0.307478 0.307446 0.30747 0.307366 0.307327 
0.307262 0.307242 0.307225 0.307099 0.307158 0.307147 0.306963 0.307167 0.307174 
0.306895 0.307199 0.307245 0.306952 0.307293 0.288541 0.273806 0.365687 0.307219 
0.323217 0.308992 0.302045 0.29278 0.307787 0.287249 0.281345 0.295372 0.276468 
0.272298 0.285161 0.269115 0.266423 0.277492 0.263935 0.261955 0.271708 0.260064 
0.259451 0.267662 0.25837 0.258267 0.26484 0.257624 0.257542 0.263259 0.257295 
0.257869 0.262367 0.258171 0.259419 0.262314 0.26003 0.261936 0.263252 0.262879 
0.265011 0.264874 0.266027 0.268298 0.266973 0.269558 0.272167 0.269337 0.273747 
0.276466 0.272258 0.278238 0.280805 0.275488 0.282704 0.284743 0.278947 0.28595 
0.287235 0.281915 0.287983 0.288875 0.283661 0.289281 0.289371 0.284808 0.289078 
0.288352 0.285028 0.287669 0.28642 0.284127 0.286004 0.284708 0.283175 0.28444 
0.283255 0.282507 0.282956 0.281917 0.281897 0.281767 0.281067 0.281391 0.281009 
0.280707 0.281169 0.280868 0.280828 0.281362 0.28131 0.281546 0.28198 0.282255 
0.28286 0.283092 0.283731 0.28465 0.284616 0.285816 0.287095 0.286586 0.288251 
0.289571 0.288929 0.290695 0.292087 0.291222 0.293313 0.294742 0.293615 0.296009 
0.297494 0.29613 0.298688 0.30003 0.298607 0.301072 0.302222 0.300863 0.303184 
0.304167 0.302884 0.305015 0.305731 0.304647 0.306349 0.306943 0.307133 0.3061 
0.3542 0.327952 0.331862 0.350425 0.328287 0.321664 0.306773 0.306453 0.305901 
0.305305 0.30595 0.304568 0.303765 0.304764 0.302984 0.302013 0.303265 0.301061 
0.299932 0.301531 0.298943 0.297772 0.299577 0.296792 0.295734 0.297604 0.294767 
0.29372 0.295644 0.292803 0.291872 0.293749 0.291052 0.290337 0.292028 0.289658 
0.28921 0.290576 0.288772 0.288521 0.28949 0.288323 0.288334 0.288814 0.288369 
0.288747 0.288555 0.288861 0.289577 0.288685 0.28985 0.290753 0.289133 0.291235 
0.292249 0.289962 0.29291 0.294111 0.291081 0.294874 0.296031 0.292489 0.296781 
0.297601 0.293946 0.29802 0.298299 0.295058 0.298243 0.29822 0.295391 0.297622 
0.296788 0.294836 0.295796 0.29435 0.293366 0.292957 0.290994 0.291107 0.289286 
0.28673 0.287931 0.284865 0.282299 0.284291 0.280578 0.278003 0.280727 0.276217 
0.273739 0.277256 0.272206 0.269952 0.273968 0.268649 0.266685 0.271097 0.265919 
0.264385 0.268893 0.263874 0.262799 0.267445 0.262707 0.262036 0.266796 0.262326 
0.26239 0.267022 0.263188 0.263613 0.268011 0.26518 0.266427 0.270137 0.268586 
0.270892 0.273593 0.273924 0.277861 0.27879 0.282487 0.288562 0.286617 0.295275 
0.304161 0.297347 0.311564 0.326993 0.325791 0.311731 0.313865 0.251223 0.232684 
0.30997 0.303715 0.298092 0.296063 0.312119 0.291443 0.291224 0.302207 0.288574 
0.293523 0.297565 0.286879 0.282328 0.297694 0.289824 0.292814 0.298296 0.294389 
0.29452 0.298706 0.295897 0.297133 0.300803 0.297419 0.301084 0.303711 0.296198 
0.293197 0.306918 0.299957 0.300759 0.308993 0.304183 0.304098 0.31152 0.304557 
0.304644 0.311053 0.305822 0.309363 0.312038 0.300738 0.293737 0.311648 0.295864 
0.294767 0.309483 0.295474 0.29667 0.306825 0.304976 0.298335 0.30705 0.297627 
0.295467 0.304163 0.295656 0.296837 0.301573 0.286971 0.280434 0.299093 0.279826 
0.287144 0.297764 0.296342 0.290921 0.298368 0.295327 0.296776 0.301465 0.30437 
0.314947 0.311241 0.271557 0.251771 0.269215 0.404959 0.43907 0.240462 0.232889 
0.250324 0.290175 0.287684 0.285406 0.293115 0.290625 0.292427 0.29557 0.294013 
0.296402 0.299801 0.296482 0.299461 0.3083 0.303236 0.30519 0.327708 0.322067 
0.318194 0.371689 0.351179 0.344636 0.23856 0.251177 0.314167 0.328844 0.347703 
0.370538 0.373005 0.335915 0.293383 0.299121 0.289164 0.292892 0.294821 0.285548 
0.289333 0.290743 0.280708 0.284499 0.286022 0.266713 0.277132 0.276944 0.244836 
0.259353 0.261474 0.235011 0.234961 0.246332 0.252146 0.238184 0.388509 0.416905 
0.266229 0.251645 0.243232 0.237707 0.249299 0.251868 0.286572 0.282091 0.287921 
0.284865 0.285631 0.289951 0.286273 0.288161 0.293956 0.289202 0.290367 0.302555 
0.295022 0.294764 0.324633 0.308469 0.304875 0.374604 0.342494 0.330675 0.432021 
0.405374 0.306922 0.316235 0.333822 0.366116 0.358657 0.325123 0.291651 0.292802 
0.288651 0.291279 0.292583 0.289105 0.289157 0.291012 0.285047 0.287702 0.288468 
0.27561 0.283 0.28182 0.252182 0.270056 0.267943 0.234222 0.245506 0.251184 
0.247862 0.307003 0.300503 0.309311 0.312946 0.301105 0.282355 0.270743 0.266823 
0.279736 0.295834 0.29935 0.30464 0.296053 0.331654 0.260303 0.258123 0.307076 
0.326649 0.408083 0.438775 0.261264 0.306668 0.326587 0.31558 0.443345 0.24752 
0.260215 0.255978 0.2609 0.401588 0.247943 0.389721 0.40583 0.371749 0.394436 
0.306652 0.317806 0.306391 0.306541 0.306651 0.306828 0.306242 0.307031 0.307237 
0.306654 0.307481 0.307728 0.307267 0.307987 0.308216 0.307905 0.308455 0.308669 
0.308533 0.308876 0.309043 0.309097 0.309251 0.309414 0.309636 0.309605 0.309749 
0.310128 0.309876 0.3099 0.310497 0.309902 0.309869 0.310638 0.309745 0.309649 
0.310469 0.309526 0.309393 0.310162 0.3093 0.309136 0.30988 0.308948 0.308764 
0.309478 0.308538 0.30832 0.308936 0.3081 0.307906 0.308359 0.307721 0.307538 
0.30783 0.307356 0.307197 0.307393 0.30702 0.306901 0.30695 0.306715 0.306596 
0.306513 0.306446 0.306365 0.306144 0.306306 0.306348 0.305909 0.306403 0.30649 
0.306207 0.305917 0.260301 0.255943 0.291925 0.288701 0.260805 0.26729 0.314477 
0.306549 0.390127 0.403734 0.303546 0.297392 0.305847 0.294674 0.288967 0.298802 
0.286324 0.282612 0.292237 0.280261 0.277428 0.286556 0.275582 0.273586 0.282007 
0.271903 0.270931 0.278283 0.269501 0.268882 0.27534 0.267783 0.267435 0.272974 
0.26667 0.266818 0.271142 0.266494 0.267155 0.270088 0.267073 0.268088 0.269777 
0.268085 0.269186 0.269838 0.269271 0.270557 0.270019 0.27078 0.272343 0.270306 
0.27283 0.274452 0.271142 0.274982 0.27646 0.272145 0.277962 0.278729 0.273715 
0.278161 0.278691 0.274471 0.279894 0.280626 0.274899 0.280441 0.280578 0.276098 
0.280373 0.279989 0.276138 0.2802 0.279961 0.276652 0.280501 0.280259 0.277708 
0.280828 0.280524 0.27888 0.280994 0.280806 0.279833 0.281347 0.281313 0.280744 
0.281857 0.282048 0.281726 0.28276 0.28321 0.282947 0.284034 0.284622 0.284434 
0.285575 0.286341 0.286127 0.287437 0.288505 0.288088 0.289743 0.290824 0.290318 
0.291863 0.292961 0.292509 0.294033 0.295216 0.294582 0.296278 0.297507 0.296685 
0.298527 0.299696 0.298742 0.300596 0.30163 0.300661 0.302579 0.303515 0.302517 
0.30445 0.305289 0.304351 0.305928 0.305651 0.267257 0.261481 0.305062 0.304384 
0.305417 0.303598 0.302852 0.302061 0.301137 0.302559 0.300285 0.299338 0.30093 
0.298449 0.297515 0.299223 0.296671 0.295744 0.297531 0.294806 0.293932 0.295778 
0.293032 0.292284 0.293964 0.291505 0.290927 0.292329 0.29026 0.289879 0.290959 
0.289336 0.289111 0.289823 0.288725 0.288699 0.288925 0.288418 0.288565 0.288282 
0.288354 0.28868 0.287821 0.288575 0.289041 0.28753 0.289072 0.289635 0.287451 
0.289988 0.290636 0.287742 0.291254 0.291782 0.288633 0.292203 0.29232 0.289524 
0.292314 0.292108 0.289705 0.291791 0.291275 0.28923 0.290832 0.290083 0.288493 
0.289109 0.287915 0.287242 0.286585 0.284982 0.285089 0.283749 0.281988 0.282697 
0.280934 0.27926 0.28048 0.278375 0.276648 0.278523 0.275914 0.274412 0.276849 
0.273795 0.272512 0.275418 0.272252 0.271357 0.274499 0.271455 0.270879 0.274236 
0.271208 0.271139 0.274494 0.271703 0.272106 0.275297 0.273073 0.274032 0.276896 
0.275518 0.277129 0.279533 0.279163 0.281347 0.283043 0.284021 0.287799 0.287661 
0.290591 0.296037 0.293742 0.298647 0.305417 0.300137 0.312862 0.308139 0.316352 
0.414697 0.414309 0.286258 0.28031 0.285505 0.304378 0.301371 0.308428 0.299274 
0.29876 0.303109 0.298344 0.297164 0.300984 0.297709 0.299441 0.301008 0.300446 
0.301268 0.302448 0.302597 0.303697 0.304519 0.304984 0.306567 0.307176 0.307653 
0.307958 0.309718 0.309198 0.311264 0.312248 0.311905 0.312924 0.31451 0.313633 
0.313894 0.31638 0.314279 0.314599 0.317378 0.314154 0.312805 0.317089 0.311615 
0.309641 0.31578 0.309106 0.308664 0.31444 0.308241 0.308095 0.312235 0.307021 
0.305548 0.310106 0.304165 0.303076 0.307484 0.301445 0.299578 0.304671 0.298345 
0.297379 0.302462 0.297697 0.300121 0.301843 0.301269 0.303441 0.302989 0.307494 
0.311811 0.276042 0.267232 0.265322 0.276055 0.287903 0.290583 0.295998 0.294045 
0.29168 0.299935 0.297713 0.296366 0.306899 0.303157 0.30157 0.320718 0.313221 
0.310205 0.348258 0.334719 0.326572 0.287891 0.286376 0.259867 0.253327 0.281795 
0.285852 0.285267 0.292637 0.295405 0.290608 0.271999 0.278551 0.27803 0.260146 
0.267445 0.268636 0.253038 0.254299 0.259985 0.364752 0.376168 0.402723 0.373611 
0.35595 0.384411 0.374457 0.355078 0.290867 0.289282 0.287746 0.285028 0.282005 
0.284267 0.295959 0.293341 0.291556 0.308028 0.301637 0.298651 0.335671 0.321352 
0.313246 0.381612 0.379567 0.252069 0.258175 0.265723 0.260464 0.305873 0.306016 
0.284129 0.287313 0.291203 0.292595 0.27639 0.282175 0.280949 0.26513 0.27317 
0.273392 0.288588 0.290091 0.286198 0.305678 0.265915 0.259302 0.272616 0.271244 
0.385604 0.399197 0.308422 0.315028 0.272161 0.273004 0.276146 0.304076 0.316807 
0.253153 0.393706 0.307215 0.337395 0.26197 0.266574 0.359616 0.278929 0.280067 
0.27448 0.378053 0.368404 0.357785 0.259294 0.271161 0.263936 0.271385 0.360042 
0.369507 0.264141 0.259827 0.256881 0.361198 0.351313 0.343407 0.296358 0.298691 
0.302253 0.301253 0.306531 0.256092 0.260771 0.26212 0.363393 0.293227 0.294543 
0.29684 0.259994 0.264839 0.256683 0.26956 0.265871 0.289723 0.326365 0.339166 
0.319214 0.315904 0.327627 0.328934 0.309704 0.266138 0.305463 0.305655 0.272915 
0.26944 0.306005 0.306364 0.305268 0.306783 0.307237 0.306268 0.307717 0.308223 
0.307425 0.308723 0.309176 0.308647 0.309645 0.310027 0.309837 0.310255 0.310599 
0.310777 0.311059 0.31144 0.311679 0.311753 0.311966 0.312593 0.312152 0.312109 
0.313165 0.311944 0.3117 0.313159 0.311306 0.311079 0.312494 0.311121 0.310881 
0.312013 0.310599 0.310224 0.311591 0.309761 0.30935 0.310629 0.308881 0.308469 
0.309467 0.308077 0.307723 0.308408 0.307378 0.307062 0.307533 0.306727 0.306455 
0.306718 0.306141 0.30587 0.305917 0.30563 0.305422 0.305259 0.305203 0.305151 
0.304714 0.305288 0.296683 0.294253 0.273475 0.276591 0.304843 0.307387 0.303487 
0.303384 0.299789 0.304167 0.298717 0.295 0.301382 0.2937 0.290821 0.298044 
0.289273 0.287009 0.294574 0.285126 0.283436 0.291007 0.281686 0.280304 0.287365 
0.278704 0.277652 0.284075 0.276106 0.275288 0.281023 0.273967 0.273608 0.278193 
0.272654 0.272586 0.276056 0.271803 0.271836 0.274423 0.270983 0.271059 0.272801 
0.270047 0.27029 0.270749 0.268373 0.269542 0.270806 0.272485 0.272574 0.273115 
0.273631 0.274195 0.275006 0.270463 0.276944 0.277555 0.274234 0.278612 0.279085 
0.277054 0.280125 0.28065 0.279155 0.281598 0.282147 0.281113 0.283096 0.283816 
0.283009 0.284937 0.285689 0.284999 0.28684 0.287667 0.287181 0.288907 0.289882 
0.289495 0.291155 0.292237 0.291915 0.293343 0.294288 0.294155 0.295268 0.296265 
0.296108 0.297216 0.298205 0.297938 0.299117 0.300093 0.299694 0.300799 0.30167 
0.301248 0.302316 0.303212 0.302539 0.30308 0.302327 0.307964 0.308336 0.301674 
0.300869 0.302288 0.300119 0.299297 0.300935 0.298482 0.297704 0.299451 0.296811 
0.295955 0.297821 0.294971 0.294139 0.29603 0.293192 0.292504 0.294168 0.291659 
0.29109 0.292447 0.290298 0.289818 0.290883 0.289111 0.288746 0.289455 0.288119 
0.28783 0.288186 0.287187 0.286974 0.286981 0.286346 0.286218 0.285664 0.285747 
0.285705 0.28442 0.285549 0.285734 0.283572 0.286105 0.286453 0.283424 0.287333 
0.287457 0.284522 0.286934 0.286603 0.284591 0.285633 0.285303 0.283434 0.282454 
0.281472 0.28047 0.279877 0.279975 0.279099 0.278824 0.278754 0.277927 0.278271 
0.277844 0.277079 0.278005 0.277122 0.276592 0.277978 0.276834 0.276674 0.278289 
0.27712 0.277198 0.279018 0.277968 0.278223 0.280265 0.27928 0.2799 0.281968 
0.281143 0.282388 0.284245 0.283913 0.285592 0.287192 0.287236 0.289435 0.290443 
0.29119 0.294202 0.294057 0.296016 0.299906 0.298105 0.301807 0.305318 0.302367 
0.261175 0.372261 0.376829 0.275624 0.280113 0.268444 0.272414 0.273878 0.304052 
0.302843 0.302417 0.30206 0.304124 0.302532 0.302888 0.304474 0.303867 0.304751 
0.305797 0.306077 0.307233 0.307913 0.308617 0.310097 0.310629 0.311622 0.313092 
0.313716 0.314577 0.316024 0.316952 0.317326 0.318379 0.319947 0.319405 0.320172 
0.322418 0.320691 0.320918 0.324014 0.320768 0.320329 0.324398 0.319607 0.318807 
0.323543 0.317861 0.316864 0.321916 0.3158 0.314553 0.31969 0.313193 0.311906 
0.316951 0.31031 0.308762 0.313742 0.307096 0.305797 0.310374 0.304303 0.303724 
0.3074 0.302826 0.303183 0.30531 0.303352 0.340177 0.327502 0.30254 0.299456 
0.297663 0.292213 0.289229 0.292276 0.357237 0.349307 0.312254 0.307161 0.304749 
0.330445 0.321112 0.316107 0.292245 0.289929 0.282263 0.285589 0.27991 0.346221 
0.349136 0.288137 0.291012 0.285515 0.355074 0.355966 0.299008 0.300205 0.295979 
0.293919 0.288031 0.286114 0.288521 0.3046 0.284662 0.282344 0.284605 0.315437 
0.307364 0.302926 0.304943 0.304889 0.273149 0.27729 0.27907 0.282322 0.278697 
0.284247 0.286685 0.282517 0.268312 0.381826 0.382601 0.286865 0.282916 0.286711 
0.288221 0.289931 0.286472 0.269393 0.265024 0.261315 0.268948 0.306979 0.273103 
0.267555 0.266164 0.264596 0.266486 0.280754 0.280753 0.277389 0.303869 0.290417 
0.291712 0.293709 0.280086 0.279332 0.279889 0.276368 0.269705 0.270269 0.305827 
0.270492 0.271139 0.303718 0.30409 0.368698 0.359615 0.356602 0.336041 0.382757 
0.371868 0.371188 0.366545 0.373748 0.285972 0.283077 0.28032 0.286463 0.28549 
0.284827 0.305011 0.340203 0.346298 0.301475 0.306274 0.30474 0.267382 0.269418 
0.270779 0.268899 0.28366 0.281879 0.308751 0.313704 0.321325 0.343572 0.279895 
0.274957 0.273583 0.280558 0.346761 0.344298 0.333732 0.35895 0.34227 0.27521 
0.271611 0.276092 0.345727 0.336727 0.335785 0.291504 0.293731 0.296908 0.263059 
0.264915 0.296909 0.300103 0.29525 0.268056 0.318011 0.268116 0.271763 0.275658 
0.271603 0.270839 0.274301 0.268028 0.370688 0.305748 0.311705 0.302476 0.305451 
0.306105 0.306783 0.307583 0.306192 0.308403 0.30923 0.307977 0.310292 0.311118 
0.310229 0.312162 0.312539 0.312751 0.313247 0.278748 0.318089 0.31365 0.314195 
0.314521 0.314911 0.315187 0.315969 0.315308 0.314961 0.316801 0.314112 0.313457 
0.316036 0.313565 0.37076 0.366231 0.313551 0.31303 0.314956 0.312129 0.311329 
0.31381 0.310333 0.30956 0.311534 0.308848 0.308243 0.309497 0.307639 0.307086 
0.307906 0.306653 0.306174 0.306712 0.305676 0.305216 0.305577 0.304809 0.304467 
0.304528 0.304209 0.303911 0.303198 0.303744 0.282965 0.303806 0.32027 0.331589 
0.326945 0.304756 0.302761 0.304824 0.30275 0.300681 0.304935 0.300182 0.298129 
0.303652 0.29696 0.294906 0.301535 0.293368 0.291527 0.298585 0.289758 0.288196 
0.29518 0.286432 0.284863 0.291615 0.282876 0.281457 0.287782 0.279569 0.278545 
0.283811 0.277224 0.276247 0.280558 0.275076 0.274112 0.278034 0.304037 0.27492 
0.276182 0.280599 0.281587 0.282707 0.28375 0.282614 0.285143 0.286239 0.285125 
0.28766 0.288675 0.287864 0.290189 0.291285 0.290742 0.292715 0.293822 0.293575 
0.295186 0.296106 0.296231 0.297223 0.298077 0.298475 0.298955 0.299828 0.300255 
0.30046 0.301315 0.301607 0.301839 0.302501 0.302654 0.303003 0.303614 0.304385 
0.303574 0.302554 0.357958 0.359805 0.279821 0.301909 0.301207 0.300517 0.299791 
0.301567 0.298952 0.29816 0.300173 0.297103 0.296249 0.29841 0.295117 0.294282 
0.296364 0.293248 0.29249 0.294336 0.291507 0.290794 0.292405 0.289775 0.289081 
0.29043 0.28831 0.287673 0.288597 0.286781 0.286072 0.287044 0.284987 0.284226 
0.285112 0.28313 0.282583 0.282663 0.281579 0.281241 0.280142 0.281004 0.281012 
0.278378 0.298603 0.277301 0.277113 0.277809 0.277653 0.27639 0.278311 0.278236 
0.277737 0.278864 0.278973 0.279103 0.279806 0.280161 0.280591 0.281235 0.281762 
0.282401 0.28268 0.283471 0.284418 0.284764 0.285846 0.286651 0.287501 0.288939 
0.289734 0.290501 0.292297 0.293148 0.293571 0.295409 0.296247 0.296584 0.298732 
0.298979 0.29956 0.302005 0.301403 0.302355 0.304707 0.304191 0.303366 0.303986 
0.330423 0.331027 0.265598 0.267917 0.267745 0.305989 0.306822 0.30831 0.309553 
0.309209 0.311278 0.312831 0.312418 0.314825 0.316662 0.316259 0.318503 0.320407 
0.320474 0.322147 0.323737 0.324455 0.32524 0.326487 0.328078 0.327572 0.328175 
0.33091 0.328381 0.328278 0.33237 0.327664 0.326939 0.332018 0.325815 0.324657 
0.330175 0.323348 0.321778 0.327468 0.320202 0.318355 0.324055 0.316229 0.31432 
0.319887 0.312101 0.310347 0.315149 0.308338 0.306982 0.310812 0.3054 0.317963 
0.311683 0.298179 0.295329 0.26807 0.267286 0.29256 0.289953 0.293228 0.306099 
0.301982 0.299539 0.307901 0.303451 0.298403 0.276707 0.278017 0.27909 0.27852 
0.269658 0.265111 0.267668 0.332686 0.345211 0.343199 0.323949 0.28935 0.287213 
0.29495 0.291782 0.290363 0.295831 0.276805 0.279481 0.31975 0.311201 0.304906 
0.287969 0.284986 0.288195 0.342835 0.339261 0.286048 0.287836 0.335975 0.327509 
0.318857 0.330891 0.336658 0.339159 0.362477 0.364819 0.272674 0.30491 0.270399 
0.271631 0.28931 0.291132 0.288546 0.352222 0.356973 0.354631 0.270956 0.313771 
0.277443 0.276881 0.279752 0.282926 0.285955 0.28126 0.349755 0.356338 0.349722 
0.302815 0.366444 0.361476 0.357853 0.280627 0.279417 0.281872 0.282378 0.304392 
0.309727 0.325708 0.330698 0.274146 0.304883 0.306601 0.304528 0.307259 0.282439 
0.279543 0.283342 0.327099 0.320176 0.336202 0.355177 0.334219 0.330231 0.330289 
0.29363 0.29606 0.292467 0.279797 0.304686 0.288935 0.29208 0.286348 0.284725 
0.285755 0.283193 0.285457 0.28346 0.272269 0.274788 0.294972 0.298797 0.299935 
0.32882 0.298321 0.300395 0.304093 0.278498 0.304905 0.272441 0.27479 0.275592 
0.272084 0.286109 0.325947 0.330518 0.324003 0.307178 0.308396 0.30962 0.311016 
0.30907 0.312531 0.313994 0.312155 0.381665 0.370027 0.316436 0.316446 0.316657 
0.317067 0.319328 0.318289 0.373959 0.378645 0.319662 0.319789 0.321204 0.319095 
0.317678 0.321618 0.383292 0.389845 0.395907 0.402185 0.317739 0.409235 0.408291 
0.316315 0.314697 0.318798 0.3128 0.311302 0.315009 0.309613 0.308672 0.310401 
0.307762 0.384732 0.354486 0.306294 0.305712 0.306894 0.305018 0.391467 0.503613 
0.30411 0.303569 0.30417 0.303136 0.28255 0.284674 0.287883 0.284047 0.286478 
0.287486 0.306481 0.306476 0.304836 0.303965 0.302165 0.308561 0.300598 0.298769 
0.305906 0.296822 0.295072 0.302427 0.287799 0.285693 0.287774 0.282603 0.283961 
0.288399 0.289714 0.291638 0.293003 0.292443 0.2946 0.295846 0.295984 0.297514 
0.298652 0.299131 0.300087 0.301007 0.302014 0.301793 0.302601 0.303863 0.302873 
0.303475 0.304645 0.304248 0.280289 0.278032 0.275152 0.281787 0.30382 0.299854 
0.298937 0.297404 0.296448 0.299134 0.295342 0.294429 0.2967 0.293552 0.292659 
0.294882 0.291124 0.290174 0.292616 0.288638 0.287771 0.286799 0.311505 0.317842 
0.32605 0.277751 0.275909 0.316774 0.322782 0.318202 0.311123 0.277415 0.278005 
0.276302 0.279449 0.280256 0.279322 0.281238 0.282137 0.281788 0.283753 0.284889 
0.284286 0.286382 0.287378 0.287514 0.288372 0.289759 0.290167 0.295757 0.297485 
0.298776 0.300318 0.301229 0.301142 0.302679 0.30356 0.302874 0.304294 0.3053 
0.29361 0.290918 0.308197 0.309525 0.311656 0.313418 0.31131 0.31599 0.318346 
0.31613 0.320935 0.323397 0.321749 0.325262 0.327483 0.326649 0.330652 0.332686 
0.332282 0.333649 0.335072 0.336941 0.337515 0.337904 0.341057 0.336304 0.335647 
0.34204 0.334864 0.333479 0.339353 0.33116 0.329264 0.33607 0.328262 0.32586 
0.332035 0.322205 0.319479 0.326514 0.316419 0.313949 0.319309 0.311028 0.30901 
0.30749 0.312961 0.355535 0.346148 0.335793 0.306382 0.282235 0.283968 0.281944 
0.280017 0.276998 0.274202 0.275017 0.278637 0.305105 0.306041 0.306307 0.304068 
0.302653 0.285366 0.284951 0.28644 0.287257 0.302037 0.350729 0.306381 0.309649 
0.29315 0.291136 0.3418 0.346022 0.302709 0.30156 0.300782 0.304868 0.303606 
0.323395 0.326079 0.352928 0.351787 0.298567 0.317814 0.319303 0.301488 0.289495 
0.285292 0.275178 0.30802 0.275127 0.316052 0.320536 0.327278 0.304946 0.307372 
0.293835 0.297844 0.292077 0.321467 0.31458 0.300524 0.29692 0.294463 0.308774 
0.304229 0.301077 0.324008 0.328563 0.292278 0.323294 0.280992 0.291524 0.289417 
0.296062 0.300528 0.278737 0.306709 0.300857 0.287882 0.28567 0.283502 0.288357 
0.312515 0.306998 0.319633 0.347356 0.350099 0.3347 0.344415 0.340076 0.32627 
0.309675 0.3019 0.306938 0.313135 0.303883 0.346464 0.346442 0.288416 0.303782 
0.292836 0.337467 0.333505 0.33135 0.308301 0.306417 0.310983 0.340278 0.289081 
0.288998 0.345483 0.306248 0.344314 0.349384 0.343437 0.290428 0.297772 0.299372 
0.304221 0.305282 0.307152 0.307617 0.310194 0.306645 0.306908 0.309978 0.315944 
0.311976 0.303603 0.302842 0.286011 0.248532 0.312453 0.30964 0.304631 0.297583 
0.296784 0.294985 0.293479 0.298311 0.303079 0.300353 0.301789 0.308009 0.316522 
0.313632 0.312269 0.306001 0.310307 0.308131 0.309927 0.296202 0.282921 0.284067 
0.285874 0.288628 0.290241 0.329054 0.321952 0.336511 0.306633 0.306908 0.309024 
0.305662 0.300123 0.30207 0.340456 0.337356 0.292569 0.323214 0.320202 0.290545 
0.315176 0.315653 0.294338 0.2957 0.298824 0.317195 0.306198 0.309354 0.302059 
0.2936 0.293862 0.292629 0.293761 0.297103 0.344171 0.292366 0.290725 0.313099 
0.310566 0.305143 0.312139 0.3103 0.315249 0.317362 0.307093 0.342424 0.280801 
0.303594 0.305164 0.308484 0.293498 0.279286 0.334101 0.336252 0.306174 0.296165 
0.333001 0.328727 0.324307 0.327913 0.334912 0.310935 0.300285 0.314017 0.316656 
0.312143 0.320443 0.323848 0.319185 0.327471 0.330335 0.341263 0.344938 0.32224 
0.319702 0.313876 0.320254 0.327729 0.316447 0.338978 0.327644 0.300506 0.276877 
0.322506 0.325237 0.314289 0.324941 0.30637 0.303601 0.315528 0.309645 0.302673 
0.322036 0.309975 0.298685 0.314422 0.322461 0.321807 0.333668 0.311495 0.320647 
0.336129 0.33076 0.325495 0.300077 0.311102 0.319252 0.315342 0.311642 0.313198 
0.307674 0.307453 0.307532 0.30753 0.307519 0.307335 0.307563 0.307568 0.307461 
0.307596 0.307587 0.307522 0.307656 0.307632 0.307611 0.307715 0.307687 0.307665 
0.307775 0.307742 0.307737 0.307829 0.307809 0.307799 0.307847 0.307861 0.307891 
0.307894 0.307876 0.307938 0.307899 0.307893 0.307948 0.307867 0.307884 0.307953 
0.307844 0.307845 0.307918 0.307799 0.307821 0.307876 0.307742 0.307769 0.307786 
0.307695 0.307713 0.307743 0.307665 0.307667 0.307676 0.307622 0.30763 0.307634 
0.307592 0.307584 0.307573 0.307556 0.307563 0.307526 0.307543 0.307531 0.307473 
0.30759 0.30752 0.307498 0.307695 0.36415 0.338982 0.380227 0.294093 0.314518 
0.330268 0.271503 0.280108 0.298125 0.257998 0.263529 0.277321 0.251134 0.253686 
0.266076 0.247709 0.248849 0.259549 0.246494 0.246553 0.256087 0.246775 0.245992 
0.254253 0.248824 0.246966 0.253864 0.252453 0.249808 0.255001 0.257842 0.254297 
0.257765 0.264208 0.260096 0.261736 0.271056 0.266944 0.266634 0.278529 0.273987 
0.272206 0.28658 0.281673 0.278146 0.293172 0.289306 0.283962 0.297654 0.295582 
0.289029 0.298503 0.298641 0.292369 0.295958 0.297886 0.292685 0.291759 0.294552 
0.290653 0.287391 0.290233 0.287728 0.283136 0.285898 0.284786 0.280299 0.282007 
0.282362 0.278866 0.279753 0.28075 0.278608 0.278831 0.280169 0.279597 0.279027 
0.280568 0.281743 0.280537 0.281984 0.284943 0.283087 0.284276 0.288453 0.286503 
0.287201 0.29198 0.290103 0.290364 0.295893 0.293692 0.293696 0.299477 0.297502 
0.297031 0.302459 0.300951 0.300119 0.304984 0.303706 0.302829 0.306656 0.305925 
0.305026 0.330969 0.307312 0.307519 0.306091 0.306776 0.306648 0.304228 0.30527 
0.305317 0.301515 0.303074 0.303382 0.298644 0.300225 0.300951 0.295412 0.297193 
0.298218 0.292709 0.294137 0.295488 0.290077 0.291437 0.292967 0.288229 0.289045 
0.290664 0.287256 0.287591 0.289046 0.287286 0.287021 0.288136 0.288479 0.287484 
0.288073 0.290665 0.289111 0.288896 0.293646 0.29165 0.290515 0.297043 0.294953 
0.292809 0.300416 0.298234 0.295268 0.303365 0.301658 0.297605 0.304926 0.304281 
0.299744 0.303856 0.304647 0.300407 0.300031 0.302675 0.298988 0.293695 0.29762 
0.295397 0.286043 0.290444 0.289754 0.278334 0.282908 0.283414 0.270784 0.275198 
0.277311 0.264268 0.268011 0.271488 0.258888 0.261879 0.266584 0.255208 0.257401 
0.262924 0.252954 0.254271 0.260598 0.252335 0.252832 0.25971 0.254279 0.253527 
0.26089 0.258776 0.25646 0.264461 0.267686 0.263091 0.270848 0.283704 0.275144 
0.281981 0.312396 0.294562 0.299588 0.363607 0.330011 0.325891 0.358306 0.301367 
0.327512 0.278875 0.301791 0.322677 0.268857 0.274283 0.316158 0.265132 0.26629 
0.305293 0.269016 0.263703 0.299784 0.264748 0.270578 0.297243 0.26652 0.265866 
0.300662 0.27117 0.267612 0.303803 0.278979 0.271797 0.307022 0.275914 0.281644 
0.308193 0.275768 0.276121 0.313761 0.278795 0.277456 0.315161 0.289475 0.279708 
0.314097 0.280271 0.273464 0.301385 0.269781 0.275334 0.289843 0.272913 0.28377 
0.299065 0.269786 0.269982 0.307786 0.279219 0.267902 0.304363 0.261704 0.26213 
0.288658 0.26727 0.275152 0.288668 0.272649 0.269233 0.301005 0.296183 0.276705 
0.311966 0.184436 0.21638 0.237374 0.262646 0.22692 0.280318 0.281455 0.26371 
0.295519 0.292707 0.287345 0.291257 0.284456 0.293228 0.289081 0.284424 0.294076 
0.289562 0.282112 0.293889 0.296312 0.299352 0.29546 0.306145 0.325344 0.303875 
0.328998 0.360053 0.324222 0.390149 0.485789 0.36107 0.506482 0.417206 0.373806 
0.342943 0.367626 0.308584 0.301409 0.324261 0.29092 0.289714 0.30261 0.283316 
0.285209 0.293305 0.279713 0.283796 0.290344 0.279056 0.284969 0.289609 0.286616 
0.290866 0.288869 0.284399 0.274641 0.281416 0.256611 0.229149 0.254856 0.213244 
0.177512 0.219487 0.185407 0.224059 0.240612 0.273025 0.230137 0.285947 0.284396 
0.270802 0.28953 0.279179 0.290597 0.283544 0.275317 0.290567 0.2802 0.273962 
0.288562 0.28051 0.279167 0.288951 0.286682 0.291779 0.294272 0.31582 0.346525 
0.31036 0.388167 0.450951 0.335755 0.495517 0.395707 0.364509 0.332797 0.34701 
0.307824 0.298831 0.31041 0.290744 0.28342 0.293318 0.280023 0.282149 0.286846 
0.271794 0.283075 0.286152 0.285988 0.290861 0.289881 0.288993 0.295315 0.290833 
0.289603 0.281813 0.288771 0.252254 0.237281 0.263221 0.224435 0.189624 0.222707 
0.307475 0.307671 0.30725 0.364139 0.346245 0.464112 0.59692 0.215606 0.232615 
0.302531 0.232513 0.215575 0.44039 0.233862 0.238758 0.384423 0.555885 0.506322 
0.409318 0.426443 0.30663 0.328379 0.307082 0.306976 0.30681 0.306659 0.305996 
0.306498 0.307357 0.307242 0.30768 0.307522 0.307333 0.307993 0.307836 0.308278 
0.308151 0.308231 0.308529 0.308403 0.30872 0.30863 0.308992 0.308765 0.308779 
0.309193 0.308722 0.308745 0.309222 0.308565 0.308657 0.309132 0.308324 0.308448 
0.308884 0.308091 0.308218 0.308534 0.307825 0.307936 0.308154 0.307602 0.3077 
0.307789 0.307381 0.307469 0.30747 0.307207 0.307292 0.307157 0.307058 0.307125 
0.306915 0.306965 0.306986 0.306722 0.233435 0.24319 0.283088 0.29208 0.297835 
0.312041 0.29902 0.317462 0.33269 0.314001 0.273447 0.278548 0.287596 0.267489 
0.270087 0.278987 0.26381 0.265074 0.273439 0.261849 0.262476 0.26993 0.260735 
0.260642 0.267421 0.261078 0.26031 0.265769 0.262862 0.261119 0.265322 0.265657 
0.263538 0.266113 0.269178 0.266589 0.267786 0.273122 0.270416 0.269997 0.277296 
0.274497 0.272482 0.281108 0.278836 0.275128 0.284771 0.282766 0.278031 0.287293 
0.286173 0.280942 0.287591 0.287823 0.283179 0.285875 0.286931 0.283155 0.283936 
0.285221 0.281892 0.282281 0.283561 0.281029 0.281371 0.282305 0.280859 0.281071 
0.281501 0.281072 0.281411 0.281402 0.281642 0.282359 0.281979 0.282584 0.284198 
0.28332 0.284078 0.286651 0.285375 0.286151 0.289454 0.287972 0.28866 0.292365 
0.290837 0.291366 0.295388 0.293758 0.294104 0.298261 0.296732 0.296807 0.300858 
0.29945 0.299306 0.303191 0.302015 0.301642 0.305107 0.304204 0.303746 0.305499 
0.310776 0.302676 0.303777 0.307209 0.304778 0.305596 0.304324 0.306241 0.306842 
0.30706 0.305952 0.300441 0.301655 0.302309 0.297936 0.299295 0.300187 0.295507 
0.296699 0.297842 0.293232 0.294413 0.295546 0.291243 0.292194 0.293448 0.2898 
0.29037 0.291569 0.288909 0.289147 0.290087 0.288707 0.288549 0.289072 0.289233 
0.288621 0.288605 0.290308 0.289398 0.288703 0.29172 0.290586 0.289122 0.293207 
0.292256 0.289815 0.294795 0.293802 0.290809 0.295804 0.295201 0.291716 0.295878 
0.296165 0.292374 0.294418 0.295461 0.292376 0.290973 0.293137 0.2908 0.286008 
0.288957 0.287494 0.281065 0.283902 0.283472 0.276385 0.279227 0.279701 0.272234 
0.274757 0.276403 0.268908 0.271069 0.273725 0.266986 0.268268 0.272002 0.265952 
0.266722 0.271179 0.266604 0.266451 0.271469 0.269217 0.267692 0.273149 0.274391 
0.271777 0.276809 0.283062 0.277918 0.282908 0.296409 0.287931 0.291749 0.314828 
0.302788 0.303413 0.343323 0.322964 0.31662 0.252031 0.234354 0.412635 0.445095 
0.295965 0.299491 0.3031 0.308568 0.307985 0.321872 0.313508 0.292772 0.292927 
0.300525 0.288232 0.288496 0.298277 0.293598 0.293619 0.298593 0.297169 0.296061 
0.300367 0.301335 0.298308 0.303635 0.300631 0.298467 0.307113 0.303553 0.304738 
0.310923 0.306887 0.307065 0.311819 0.306697 0.306742 0.312144 0.303578 0.302135 
0.31167 0.300553 0.299372 0.310758 0.29686 0.302398 0.309065 0.297992 0.30019 
0.305771 0.295751 0.297367 0.302944 0.291198 0.291045 0.300308 0.286974 0.288265 
0.299289 0.295298 0.293206 0.298909 0.307115 0.298255 0.303579 0.314274 0.250022 
0.235558 0.248595 0.238096 0.250809 0.465048 0.426817 0.252255 0.273406 0.252425 
0.276632 0.282855 0.271241 0.286275 0.292096 0.286333 0.291942 0.294409 0.293672 
0.294084 0.298711 0.297214 0.298297 0.298233 0.300528 0.303177 0.308879 0.305451 
0.318468 0.332039 0.315555 0.350022 0.38134 0.381323 0.339072 0.332082 0.320995 
0.313129 0.30293 0.317931 0.299849 0.294227 0.302723 0.293109 0.289359 0.295456 
0.289489 0.286452 0.292033 0.287064 0.280705 0.287907 0.277153 0.268383 0.279978 
0.263098 0.244453 0.26461 0.235437 0.231319 0.248006 0.245861 0.384576 0.415166 
0.25208 0.274951 0.276857 0.285432 0.272821 0.284608 0.287545 0.284682 0.286099 
0.288995 0.287774 0.286787 0.290646 0.289118 0.290743 0.2976 0.292244 0.302807 
0.3168 0.300986 0.331174 0.354627 0.355706 0.320377 0.236803 0.252004 0.318034 
0.308325 0.300884 0.294849 0.3073 0.292272 0.289304 0.296979 0.288355 0.290218 
0.293058 0.292157 0.287668 0.291867 0.28587 0.285516 0.289795 0.283811 0.272545 
0.284158 0.269221 0.253933 0.26929 0.241609 0.232847 0.250635 0.307146 0.307061 
0.306758 0.393464 0.356347 0.34605 0.232232 0.243024 0.251674 0.360489 0.337244 
0.327879 0.307788 0.308643 0.306965 0.306626 0.262327 0.258995 0.247061 0.321373 
0.26238 0.416787 0.437568 0.257445 0.261473 0.425937 0.249031 0.306941 0.391248 
0.417266 0.430753 0.390546 0.262757 0.404297 0.369169 0.354225 0.257743 0.252881 
0.262858 0.268869 0.307275 0.30689 0.258377 0.252192 0.308823 0.308437 0.310335 
0.310253 0.310066 0.309789 0.310885 0.310054 0.310193 0.30953 0.309832 0.310606 
0.308947 0.30928 0.309927 0.308325 0.30867 0.309151 0.30772 0.30802 0.308329 
0.307154 0.307424 0.307534 0.306683 0.306913 0.306832 0.306334 0.306488 0.306251 
0.306064 0.306192 0.305811 0.252687 0.258944 0.299087 0.306059 0.3062 0.305861 
0.305086 0.290887 0.296826 0.300533 0.30778 0.313068 0.307826 0.305771 0.279169 
0.281785 0.27586 0.277294 0.283832 0.27288 0.274157 0.280172 0.270887 0.271391 
0.27704 0.269747 0.269889 0.274569 0.269574 0.269021 0.272737 0.27003 0.269182 
0.271561 0.270829 0.269694 0.270894 0.271706 0.270526 0.270206 0.272608 0.271526 
0.269248 0.27433 0.273083 0.275568 0.274351 0.278559 0.27874 0.27787 0.278318 
0.274006 0.278441 0.278698 0.275044 0.279536 0.279443 0.27713 0.280857 0.280596 
0.279309 0.282205 0.281795 0.281265 0.283757 0.283182 0.283137 0.285804 0.284894 
0.285215 0.288104 0.287042 0.287563 0.290802 0.289558 0.290173 0.293391 0.292112 
0.292844 0.295963 0.294667 0.295346 0.298409 0.297147 0.297712 0.300529 0.299404 
0.299799 0.30238 0.301293 0.30148 0.299129 0.299164 0.304987 0.30776 0.309528 
0.30917 0.309401 0.310296 0.300015 0.30107 0.297726 0.29886 0.2999 0.283859 
0.28788 0.293896 0.288137 0.303751 0.3047 0.305897 0.254571 0.259819 0.260243 
0.295672 0.29667 0.297752 0.293668 0.294617 0.295719 0.291839 0.292641 0.293709 
0.290394 0.290976 0.291887 0.289206 0.289563 0.290247 0.28847 0.288593 0.288826 
0.288093 0.287978 0.28772 0.287873 0.28769 0.286815 0.287901 0.287532 0.286011 
0.288095 0.287758 0.285329 0.288505 0.288455 0.285152 0.288681 0.288491 0.285196 
0.289298 0.289716 0.286129 0.287315 0.288337 0.286255 0.284436 0.286187 0.284295 
0.281206 0.282933 0.281811 0.278575 0.280127 0.279514 0.276588 0.277983 0.278251 
0.275369 0.276372 0.27756 0.27498 0.275468 0.277596 0.275416 0.275556 0.278348 
0.277025 0.276352 0.279845 0.279777 0.278508 0.282285 0.284599 0.281806 0.285795 
0.290695 0.286863 0.290181 0.299737 0.293619 0.295948 0.392984 0.403694 0.268709 
0.263257 0.266328 0.300345 0.301961 0.305208 0.302456 0.265666 0.2753 0.264176 
0.25668 0.261968 0.260984 0.300413 0.299706 0.302175 0.303147 0.301652 0.30394 
0.306387 0.304783 0.306888 0.310005 0.308317 0.310486 0.312824 0.311616 0.313979 
0.314539 0.313918 0.316627 0.315046 0.314992 0.318226 0.314632 0.315 0.318624 
0.313008 0.314028 0.317985 0.310689 0.311922 0.316286 0.3075 0.309216 0.313372 
0.304533 0.305927 0.310105 0.301893 0.302857 0.306917 0.300356 0.300885 0.304467 
0.300319 0.299352 0.30276 0.409112 0.40565 0.350587 0.333948 0.265414 0.270289 
0.302021 0.302972 0.303529 0.301904 0.267055 0.275809 0.265593 0.279867 0.286246 
0.276451 0.28877 0.291897 0.285887 0.293944 0.296374 0.291911 0.298411 0.300184 
0.29654 0.302873 0.306894 0.301498 0.312043 0.318428 0.308979 0.319585 0.31231 
0.325843 0.310325 0.310373 0.311142 0.37355 0.387534 0.304931 0.300217 0.30826 
0.296324 0.293743 0.298111 0.291189 0.288656 0.291611 0.285992 0.282044 0.285717 
0.279416 0.272662 0.278743 0.269172 0.259719 0.269331 0.332523 0.322351 0.277562 
0.282204 0.274212 0.284108 0.285932 0.281137 0.287456 0.288776 0.28544 0.290849 
0.293154 0.289146 0.29782 0.303053 0.294971 0.308073 0.307656 0.307404 0.308428 
0.306484 0.306221 0.306322 0.306174 0.298029 0.295051 0.293292 0.291747 0.294407 
0.290819 0.289457 0.290734 0.287934 0.284919 0.287478 0.283412 0.277065 0.282489 
0.273952 0.265351 0.274026 0.260989 0.255403 0.259978 0.397088 0.371895 0.309417 
0.303565 0.301887 0.317578 0.396551 0.399057 0.378404 0.311574 0.31065 0.305641 
0.311026 0.322595 0.329998 0.343885 0.268044 0.353283 0.249876 0.256909 0.264661 
0.304927 0.305427 0.268705 0.279772 0.278817 0.304225 0.303313 0.303173 0.304854 
0.386658 0.397259 0.303165 0.303279 0.370102 0.383379 0.348103 0.26738 0.260693 
0.382801 0.391267 0.304705 0.302159 0.303685 0.307908 0.264684 0.276757 0.274017 
0.361593 0.382466 0.372171 0.345463 0.359845 0.35306 0.271212 0.268203 0.254371 
0.251129 0.259268 0.306574 0.312996 0.341804 0.324047 0.380042 0.264301 0.275021 
0.297796 0.298737 0.312398 0.31265 0.310548 0.311141 0.311608 0.312039 0.313307 
0.312214 0.308239 0.30884 0.307172 0.307703 0.308031 0.306247 0.306688 0.306756 
0.305521 0.305849 0.305656 0.305008 0.305235 0.304827 0.304343 0.264475 0.268489 
0.309425 0.310044 0.310933 0.309501 0.268154 0.271146 0.312438 0.312092 0.28161 
0.283182 0.28856 0.290696 0.278782 0.279902 0.285311 0.276005 0.276995 0.281658 
0.27368 0.274285 0.278005 0.271825 0.272331 0.274942 0.269649 0.270126 0.271993 
0.266658 0.267189 0.267938 0.261444 0.279199 0.278082 0.281848 0.280787 0.280177 
0.284184 0.283139 0.283127 0.286675 0.285547 0.285713 0.289343 0.288206 0.288566 
0.292324 0.291029 0.291712 0.294985 0.293802 0.294747 0.297386 0.296225 0.297313 
0.299587 0.298487 0.29952 0.301373 0.300441 0.301324 0.302852 0.302165 0.302793 
0.306278 0.305124 0.301719 0.304555 0.295882 0.296822 0.297923 0.299859 0.300898 
0.299904 0.293867 0.294798 0.295983 0.291969 0.292753 0.293875 0.290151 0.290932 
0.291813 0.288453 0.28907 0.289746 0.286943 0.287496 0.287725 0.28545 0.285951 
0.285774 0.28399 0.284401 0.283694 0.282487 0.282754 0.281366 0.281442 0.281419 
0.278698 0.28231 0.282718 0.278213 0.283483 0.28223 0.282547 0.28111 0.281882 
0.279642 0.280691 0.278307 0.277862 0.278582 0.277062 0.278017 0.278386 0.277178 
0.278805 0.278823 0.278789 0.280178 0.27989 0.280854 0.282095 0.281426 0.283276 
0.284477 0.283488 0.285988 0.287791 0.286146 0.289004 0.291534 0.289286 0.29234 
0.29567 0.293083 0.295683 0.300746 0.297201 0.299218 0.305057 0.30159 0.302724 
0.304206 0.270552 0.267566 0.327462 0.351456 0.336724 0.271218 0.265582 0.263775 
0.272259 0.379373 0.368145 0.266482 0.265856 0.27019 0.310072 0.308246 0.309945 
0.314141 0.312093 0.314055 0.317921 0.316051 0.318399 0.320638 0.319337 0.322166 
0.322269 0.321624 0.324865 0.322568 0.322565 0.326354 0.321389 0.322062 0.32623 
0.318947 0.320455 0.324666 0.315572 0.317372 0.321848 0.311659 0.313656 0.317969 
0.307969 0.309629 0.313549 0.305168 0.305959 0.309293 0.279656 0.312712 0.312669 
0.313702 0.284925 0.286731 0.292439 0.288866 0.306338 0.30563 0.309648 0.304407 
0.274792 0.280197 0.273799 0.283016 0.287309 0.280716 0.289011 0.292226 0.287053 
0.294306 0.296774 0.292147 0.299229 0.302192 0.297309 0.306068 0.310526 0.303636 
0.328619 0.318964 0.313553 0.267174 0.272304 0.341196 0.353457 0.361979 0.371628 
0.375905 0.299077 0.295453 0.301295 0.292348 0.289214 0.293271 0.286348 0.282605 
0.286527 0.279173 0.275035 0.279177 0.272608 0.267002 0.27272 0.302096 0.308248 
0.35768 0.3635 0.345469 0.276978 0.280345 0.282541 0.284792 0.280283 0.287268 
0.289459 0.285012 0.292642 0.296019 0.298351 0.290525 0.365841 0.365522 0.29493 
0.292758 0.290889 0.289094 0.291555 0.287573 0.285034 0.287446 0.282973 0.279368 
0.282891 0.277609 0.272547 0.272942 0.278219 0.380402 0.380101 0.368 0.272583 
0.303865 0.303258 0.30686 0.264816 0.265849 0.270526 0.270047 0.275967 0.275055 
0.271586 0.27658 0.357223 0.341892 0.331418 0.319108 0.330397 0.311264 0.313866 
0.312998 0.317109 0.324937 0.306874 0.306408 0.307622 0.303614 0.257993 0.31283 
0.311637 0.311049 0.304656 0.296026 0.292392 0.295018 0.274946 0.304902 0.304726 
0.303676 0.303914 0.310484 0.309757 0.311468 0.328858 0.271192 0.278963 0.373232 
0.369083 0.352903 0.365181 0.269213 0.266822 0.269274 0.271773 0.274821 0.271023 
0.267203 0.302797 0.303151 0.304195 0.304949 0.271071 0.276611 0.303963 0.305829 
0.303695 0.275689 0.295805 0.299648 0.302814 0.298994 0.30207 0.302049 0.3029 
0.357907 0.369181 0.359462 0.27421 0.275593 0.350028 0.274766 0.35838 0.354344 
0.351329 0.326915 0.319335 0.298653 0.297184 0.303148 0.309079 0.308329 0.308053 
0.309858 0.311444 0.304806 0.30541 0.307588 0.308445 0.303771 0.304175 0.27976 
0.281858 0.334235 0.324452 0.285063 0.287027 0.286751 0.334889 0.341931 0.304629 
0.288968 0.290814 0.292439 0.284538 0.283035 0.287277 0.285914 0.286411 0.290545 
0.28914 0.289635 0.294169 0.292652 0.293502 0.297166 0.295883 0.297272 0.299724 
0.298631 0.300253 0.301799 0.300797 0.302531 0.303228 0.302446 0.304022 0.304259 
0.303573 0.304759 0.305327 0.316664 0.314304 0.292535 0.290459 0.298265 0.299116 
0.299849 0.300852 0.300249 0.291822 0.292795 0.296234 0.297188 0.298616 0.289398 
0.290451 0.291665 0.28712 0.288092 0.288979 0.28458 0.28572 0.286339 0.281799 
0.28313 0.283607 0.278716 0.280032 0.28029 0.275154 0.315891 0.315472 0.360839 
0.361578 0.279906 0.278896 0.283134 0.2818 0.282071 0.286458 0.285064 0.286035 
0.289978 0.28849 0.290079 0.29366 0.291855 0.294143 0.29704 0.2953 0.297839 
0.300149 0.298274 0.300867 0.302962 0.300935 0.303209 0.353191 0.343183 0.333734 
0.301964 0.297778 0.322124 0.319513 0.320779 0.326448 0.324323 0.326585 0.329244 
0.327855 0.330957 0.330701 0.33019 0.333775 0.32998 0.330535 0.334702 0.327804 
0.3292 0.333715 0.324073 0.326261 0.330975 0.318798 0.321542 0.326098 0.313538 
0.316241 0.320149 0.308573 0.310763 0.314079 0.274808 0.277325 0.335935 0.348677 
0.327342 0.320934 0.330063 0.326119 0.315854 0.316014 0.317575 0.260858 0.315584 
0.308925 0.304478 0.317789 0.293957 0.294972 0.296435 0.294117 0.28506 0.287724 
0.29028 0.292837 0.28819 0.294943 0.297719 0.293257 0.300979 0.304517 0.298666 
0.266118 0.264208 0.281205 0.277614 0.329235 0.317572 0.346202 0.339053 0.326518 
0.28388 0.286365 0.362226 0.356887 0.353781 0.311555 0.309719 0.314795 0.30604 
0.306797 0.307072 0.305339 0.288503 0.286337 0.289485 0.284812 0.28238 0.285483 
0.307662 0.306642 0.310078 0.355882 0.357737 0.30705 0.306293 0.313223 0.313797 
0.269203 0.272998 0.30954 0.314499 0.306227 0.30616 0.314781 0.315488 0.317263 
0.309153 0.309373 0.310388 0.303853 0.334696 0.342979 0.314822 0.313988 0.316637 
0.281788 0.296299 0.298354 0.299675 0.301948 0.303312 0.275815 0.277677 0.272523 
0.274464 0.296265 0.292603 0.294442 0.274826 0.273366 0.311303 0.312273 0.311453 
0.280057 0.31378 0.313186 0.314081 0.313096 0.311986 0.314687 0.346655 0.338127 
0.346275 0.35813 0.354429 0.351686 0.274426 0.27587 0.275921 0.273262 0.273476 
0.276752 0.277775 0.275419 0.304494 0.306328 0.276107 0.275376 0.34705 0.304612 
0.302932 0.304679 0.304762 0.281277 0.308433 0.344902 0.296198 0.295076 0.299198 
0.287315 0.288714 0.291515 0.28868 0.284048 0.281852 0.284423 0.287687 0.279527 
0.283104 0.283565 0.278904 0.275436 0.344573 0.293614 0.290398 0.288018 0.294733 
0.31186 0.308303 0.306541 0.305986 0.301855 0.302857 0.303705 0.301847 0.29566 
0.299829 0.301809 0.310901 0.309805 0.312295 0.302278 0.305576 0.303346 0.354348 
0.346871 0.348439 0.290553 0.288731 0.327303 0.331386 0.296923 0.295019 0.299915 
0.321026 0.320689 0.295808 0.297849 0.291817 0.290045 0.291212 0.295666 0.287126 
0.301891 0.3036 0.302245 0.305487 0.304546 0.307596 0.306477 0.305816 0.308393 
0.306569 0.30634 0.308317 0.30749 0.331444 0.328002 0.301104 0.301745 0.288607 
0.289933 0.294162 0.291966 0.28243 0.284209 0.335445 0.344219 0.338984 0.327105 
0.320682 0.321572 0.32974 0.328174 0.31661 0.30492 0.298269 0.296276 0.298403 
0.302149 0.300335 0.302772 0.304816 0.30331 0.306114 0.306526 0.305361 0.308055 
0.308328 0.334859 0.327009 0.336631 0.341034 0.338871 0.323147 0.319585 0.328093 
0.338712 0.33733 0.337231 0.338432 0.334161 0.336639 0.341536 0.326419 0.330033 
0.336032 0.319326 0.323173 0.326825 0.311381 0.314894 0.317947 0.277444 0.299315 
0.3002 0.302009 0.30757 0.313652 0.307607 0.314002 0.300045 0.301768 0.297982 
0.304252 0.280894 0.315585 0.312938 0.318499 0.310006 0.308717 0.337897 0.341457 
0.30505 0.34347 0.33789 0.33151 0.278995 0.285301 0.285542 0.287023 0.286986 
0.325715 0.330275 0.330921 0.31582 0.308368 0.309787 0.319216 0.317984 0.322806 
0.290829 0.335501 0.332069 0.324292 0.302826 0.304844 0.320006 0.323335 0.319242 
0.304071 0.299955 0.301841 0.306025 0.307087 0.3076 0.311556 0.305918 0.300413 
0.300673 0.299288 0.305367 0.311465 0.313046 0.31111 0.314331 0.315753 0.314598 
0.308939 0.30266 0.335319 0.333153 0.316998 0.315387 0.319008 0.291842 0.29176 
0.293052 0.346308 0.347633 0.289061 0.286817 0.2761 0.284816 0.282661 0.309508 
0.294649 0.295692 0.295242 0.33945 0.343425 0.348631 0.339325 0.343338 0.301784 
0.340252 0.31528 0.31325 0.311671 0.293008 0.288056 0.296762 0.29786 0.299898 
0.297585 0.293759 0.292491 0.294159 0.296614 0.318047 0.323974 0.320476 0.319833 
0.313054 0.307689 0.320473 0.290501 0.292703 0.295926 0.298796 0.308477 0.31485 
0.348151 0.345512 0.303568 0.304431 0.305286 0.303644 0.34957 0.334852 0.329849 
0.323845 0.329079 0.337735 0.312787 0.300486 0.303741 0.307833 0.302682 0.310474 
0.30712 0.307255 0.293255 0.314278 0.310636 0.30911 0.29428 0.309879 0.312585 
0.28824 0.31054 0.335678 0.298348 0.302766 0.296431 0.313314 0.315271 0.321113 
0.312236 0.310291 0.317439 0.318771 0.318431 0.332568 0.333042 0.329295 0.278753 
0.280463 0.343172 0.347792 0.332855 0.315292 0.319652 0.303223 0.303955 0.297955 
0.328199 0.314968 0.310568 0.305517 0.301821 0.299576 0.306901 0.318009 0.307564 
0.305389 0.308456 0.312777 0.310625 0.326561 0.309895 0.319753 0.320888 0.324084 
0.320779 0.315542 0.324518 0.305203 0.310819 0.309538 0.307215 0.308058 0.305767 
0.304324 0.31221 0.312111 0.314278 0.310921 0.310106 0.323011 0.321106 0.320071 
0.321149 0.322514 0.328945 0.326832 0.303796 0.294577 0.316981 0.311282 0.314969 
0.319807 0.313707 0.316179 0.32533 0.324177 0.320829 0.317954 0.318114 0.304474 
0.316013 0.317308 0.300459 0.301839 0.325782 0.305762 0.322321 0.32504 0.307829 
0.599249 0.307941 0.308026 0.307889 0.307491 0.306783 0.306025 0.30494 0.302317 
0.303906 0.2995 0.29784 0.296282 0.294433 0.293174 0.291686 0.28902 0.290491 
0.287095 0.286382 0.285837 0.285659 0.286285 0.287207 0.289388 0.291179 0.292652 
0.294803 0.296704 0.298949 0.301067 0.303495 0.305405 0.30744 0.309962 0.310332 
0.310362 0.309333 0.307816 0.305015 0.302437 0.298503 0.291486 0.286817 0.283086 
0.278273 0.274331 0.269687 0.263314 0.259715 0.256854 0.253813 0.251698 0.249308 
0.247561 0.245946 0.244149 0.243885 0.243567 0.244081 0.244767 0.246331 0.250496 
0.25541 0.259066 0.26683 0.27402 0.288622 0.303218 0.342787 0.381469 0.30087 
0.288047 0.285542 0.285847 0.288312 0.30885 0.295228 0.266413 0.24502 0.248399 
0.604655 0.307861 0.403125 0.349809 0.305548 0.283955 0.271874 0.264347 0.256521 
0.247589 0.243421 0.24145 0.239345 0.23823 0.237198 0.236827 0.236694 0.237437 
0.238589 0.243696 0.246346 0.249108 0.252653 0.258778 0.263123 0.267013 0.271308 
0.27562 0.280407 0.284713 0.290021 0.29421 0.298725 0.304227 0.305626 0.306413 
0.305682 0.304259 0.301916 0.299348 0.296224 0.293448 0.290357 0.285577 0.282758 
0.28103 0.279277 0.278095 0.27708 0.276654 0.276216 0.276532 0.277279 0.278063 
0.279342 0.280599 0.282477 0.284356 0.286294 0.28983 0.291785 0.293758 0.296021 
0.297759 0.299783 0.30128 0.30286 0.304288 0.305694 0.306539 0.307474 0.308044 
0.307991 0.23967 0.241789 0.252395 0.23711 0.255783 0.301574 0.287871 0.276334 
0.288084 0.307869 0.307664 0.307674 0.307713 0.307756 0.307719 0.307805 0.307788 
0.307771 0.307769 0.307749 0.307768 0.30772 0.307712 0.307683 0.307681 0.30765 
0.307643 0.307582 0.307604 0.307585 0.307582 0.307613 0.307665 0.307544 0.30758 
0.307589 0.307595 0.307617 0.307587 0.307643 0.307656 0.307678 0.307682 0.307693 
0.30771 0.307765 0.30775 0.307761 0.307768 0.307769 0.307804 0.307727 0.307682 
0.307578 0.307619 0.307703 0.307707 0.307541 0.307716 0.307649 0.307652 0.307716 
0.307727 0.762891 0.674214 0.761873 0.641149 0.628529 0.731566 0.611412 0.701358 
0.586817 0.818635 0.139105 0.58225 0.440661 0.183231 0.209299 0.221776 0.244935 
0.25994 0.275518 0.286556 0.316367 0.31466 0.331265 0.351692 0.387547 0.200332 
0.293626 0.198032 0.200688 0.182436 0.232297 0.232184 0.256485 0.211937 0.221483 
0.222983 0.301082 0.248333 0.205092 0.19961 0.21486 0.21737 0.225102 0.22805 
0.13019 0.173862 0.641417 0.457382 0.228327 0.198263 0.260831 0.236702 0.284077 
0.318729 0.29127 0.362041 0.338339 0.390698 0.321173 0.820007 0.5732 0.664667 
0.745551 0.746377 0.642811 0.740755 0.72875 0.718103 0.684988 0.702003 0.245435 
0.296056 0.147646 0.20076 0.206765 0.200404 0.21765 0.228249 0.219645 0.218706 
0.591904 0.144232 0.188079 0.472479 0.393745 0.344133 0.329089 0.327903 0.298466 
0.295332 0.267129 0.256349 0.22921 0.20161 0.366765 0.805273 0.587976 0.667034 
0.64362 0.898186 0.631393 0.750232 0.707049 0.725867 0.693383 0.814582 0.790226 
0.720025 0.653979 0.776064 0.881162 0.755287 0.749028 0.738176 0.725426 0.788103 
0.698396 0.565182 0.139161 0.177257 0.432361 0.500778 0.33061 0.365803 0.297603 
0.31338 0.265989 0.294085 0.223174 0.245743 0.198547 0.373611 0.205209 0.322291 
0.215149 0.189686 0.131046 0.213959 0.210452 0.231281 0.225312 0.220737 0.191898 
0.544567 0.408266 0.244705 0.288153 0.354802 0.38293 0.400962 0.393419 0.38629 
0.376254 0.369513 0.363512 0.361826 0.359069 0.340314 0.352219 0.330559 0.314258 
0.26164 0.387183 0.547802 0.671266 0.541276 0.590838 0.566594 0.557531 0.5132 
0.49865 0.482272 0.466013 0.448289 0.424602 0.404818 0.391939 0.358269 0.354965 
0.385655 0.563374 0.705379 0.880134 0.712206 0.795891 0.717367 0.515605 0.359739 
0.336165 0.362077 0.363688 0.38685 0.396947 0.421735 0.444189 0.465639 0.48422 
0.509035 0.517894 0.538553 0.581856 0.545145 0.666442 0.514887 0.341631 0.355318 
0.395924 0.412148 0.431043 0.450191 0.464259 0.482084 0.493404 0.513707 0.541785 
0.568787 0.612781 0.55075 0.656582 0.504358 0.408797 0.39371 0.430791 0.587129 
0.550624 0.593353 0.523132 0.511584 0.493647 0.468437 0.460886 0.4357 0.420178 
0.399576 0.377974 0.366855 0.338479 0.317708 0.336827 0.632531 0.436009 0.43045 
0.820665 0.288064 0.251657 0.290743 0.270718 0.30033 0.30073 0.703775 0.420675 
1.18925 1.26423 1.33617 1.30362 1.32804 1.31641 1.29256 1.25487 1.20841 
1.10097 1.06052 0.889304 1.1071 1.19131 0.8841 0.339939 0.19017 0.307728 
0.244997 0.231215 0.288671 0.283187 0.316084 0.29158 0.372226 1.3198 1.17917 
1.3051 1.31281 1.29885 1.31113 1.2439 1.26306 1.13573 1.19521 0.925825 
1.00962 0.663815 0.523904 0.773365 0.772545 1.34098 0.565271 0.264313 0.524227 
0.63449 0.26943 0.775898 0.359364 0.679183 0.493103 0.601996 0.560163 0.522376 
0.524345 0.496296 0.507527 0.463349 0.480771 0.429092 0.441354 0.392153 0.407422 
0.360875 0.37417 0.616881 0.391742 1.01119 0.60351 0.748583 0.630592 0.602879 
0.375874 0.573797 0.321865 0.333951 0.379732 0.330531 0.418744 0.41866 0.453666 
0.440394 0.474709 0.468379 0.521594 0.51311 0.483449 0.581915 0.509308 0.687771 
0.6012 0.777218 0.906353 0.397407 0.34926 0.402415 0.390119 0.443856 0.426664 
0.478645 0.460588 0.511157 0.494659 0.523946 0.521039 0.594281 0.579963 0.496445 
0.661568 0.344421 0.414798 0.67028 0.417567 0.554648 0.559722 0.50615 0.522815 
0.473597 0.48674 0.448865 0.444733 0.373247 0.402292 0.326347 0.357308 0.372012 
0.890316 0.348 0.199605 0.277793 0.260597 0.27984 0.272808 0.281339 0.302287 
0.282328 0.329085 0.747301 1.29151 1.27975 1.34274 1.33783 1.31486 1.33199 
1.25789 1.28506 1.14706 1.20627 0.938675 1.0206 1.21561 0.22353 0.427154 
0.261474 0.278547 0.323695 0.274978 0.299238 0.313005 0.395831 0.704556 1.18995 
1.2298 1.30797 1.31556 1.3191 1.30426 1.27769 1.24695 1.19378 1.1237 
1.04761 0.848274 0.405437 0.672416 0.827612 1.15068 0.617225 0.50899 0.410077 
0.50823 0.543901 0.543538 0.405722 0.18563 0.250663 0.293489 0.330839 0.347223 
0.365736 0.364318 0.366593 0.370373 0.374322 0.379686 0.384106 0.390467 0.3975 
0.421898 0.41475 0.381652 0.35972 0.293022 0.594945 0.467169 0.235909 0.286616 
0.299541 0.348108 0.359158 0.357695 0.357023 0.372701 0.364997 0.36788 0.377891 
0.402885 0.393673 0.405297 0.413979 0.3613 0.283295 0.284821 0.406649 0.210038 
0.135176 0.266967 0.392943 0.364443 1.19974 1.1536 0.422046 0.440913 1.34094 
1.34677 0.522067 0.441507 0.518135 0.597655 0.492614 0.502044 0.219616 0.472445 
1.31231 1.31949 0.532039 0.471943 0.33696 0.615913 0.548959 0.74297 0.0780742 
0.323677 0.281745 0.432277 0.8789 1.03656 0.313138 0.327775 0.4649 0.204496 
0.199213 0.476675 0.336907 0.668486 0.512712 0.198458 1.24554 0.410754 0.503313 
0.343436 1.32226 0.29424 0.316649 0.32665 0.47889 0.48153 0.607967 0.359346 
0.45925 1.29649 0.212367 0.224925 0.423151 0.383489 0.579287 0.290618 0.588954 
0.549648 0.655715 0.293809 0.340746 0.50569 0.492813 0.298002 0.299394 0.407559 
0.407955 0.438928 0.741308 0.710359 0.441749 0.455572 0.456895 0.564764 0.271081 
0.249278 0.196609 0.195536 0.289991 1.23959 1.10485 0.77716 0.591877 0.200524 
0.401993 0.591105 0.747899 1.29881 1.30689 0.206476 0.205221 0.198623 0.503266 
0.740272 0.543396 0.237235 0.227407 0.245262 0.24442 0.31702 0.798082 1.20721 
0.222479 0.1977 1.26617 1.27109 1.2956 0.24141 1.28397 1.31471 1.32558 
0.301397 0.50957 0.625584 1.30425 1.31172 0.508434 0.668328 0.499449 0.899176 
0.252783 0.264961 0.277234 0.181312 0.394335 0.277971 0.186335 0.366711 1.09227 
0.986847 1.0704 0.367508 0.383597 0.508429 0.369943 0.32549 0.504112 0.353026 
0.454271 0.342954 0.612234 0.807344 0.849579 1.24394 1.27176 0.493493 1.2678 
0.471713 0.202011 0.209591 0.206004 0.386857 0.483782 0.32266 1.146 0.298923 
0.227884 0.252439 0.202332 0.191593 0.182664 0.221845 0.221201 0.229073 0.233649 
0.179455 1.20516 0.32252 0.334836 0.324261 0.326164 0.337652 0.240854 0.249971 
1.31554 0.228006 0.230608 0.313885 1.30779 0.323543 0.346149 1.06598 1.10193 
0.246801 0.231497 0.233982 0.176293 0.186203 0.18629 0.179548 0.209102 0.393846 
0.49109 0.234798 0.203585 0.200924 0.22308 0.219707 0.216851 0.208504 0.327135 
0.188587 0.502585 0.673921 0.241178 0.648655 0.200538 0.192715 0.190383 0.422144 
0.202048 0.204565 0.18667 0.175739 0.55363 0.281658 1.06948 1.2617 0.489287 
0.17687 1.33657 0.317936 0.217289 0.174165 1.12211 0.189475 0.285265 0.284415 
0.284544 0.283499 0.297754 0.295367 0.29753 0.281797 0.273071 0.278565 0.289649 
0.290236 0.292239 0.282786 0.279829 0.280223 0.276719 0.274211 0.278173 0.276219 
0.286978 0.284723 0.285313 0.282655 0.311342 0.308983 0.307018 0.312847 0.314064 
0.310159 0.295449 0.294593 0.291458 0.294079 0.213525 0.222793 0.237612 0.238037 
0.260833 0.262227 0.265682 0.293819 0.297483 0.298763 0.320687 0.324145 0.321295 
0.324881 0.319952 0.323155 0.319112 0.322094 0.316261 0.313637 0.315293 0.298423 
0.298559 0.293085 0.29251 0.300843 0.297611 0.300958 0.304968 0.302324 0.308211 
0.300303 0.31408 0.305534 0.299834 0.296816 0.298765 0.294355 0.296314 0.292351 
0.29123 0.287003 0.292172 0.290134 0.290495 0.291742 0.29173 0.289472 0.29052 
0.29092 0.26624 0.26853 0.268755 0.307631 0.307669 0.30756 0.295024 0.293311 
0.295095 0.293432 0.296842 0.287051 0.298613 0.306201 0.306765 0.30664 0.307097 
0.298178 0.29902 0.302746 0.290497 0.290444 0.285894 0.292658 0.289402 0.288836 
0.286681 0.307332 0.306957 0.307308 0.284636 0.273003 0.294401 0.275913 0.273189 
0.276351 0.287175 0.286917 0.290988 0.285931 0.282963 0.28259 0.337242 0.341103 
0.342212 0.272477 0.27125 0.267047 0.290034 0.292213 0.30268 0.303317 0.302032 
0.302724 0.261087 0.265585 0.25281 0.259372 0.322426 0.318385 0.319939 0.308544 
0.30858 0.308035 0.307653 0.3076 0.30763 0.306788 0.306309 0.306469 0.308064 
0.308403 0.308285 0.308752 0.286604 0.286982 0.284801 0.285202 0.307723 0.296044 
0.297952 0.298605 0.300744 0.308741 0.310395 0.308439 0.30439 0.304146 0.303568 
0.305863 0.298001 0.307663 0.307042 0.306285 0.306441 0.267498 0.324132 0.315212 
0.318241 0.3015 0.302265 0.302512 0.313846 0.311445 0.306114 0.305598 0.306133 
0.305534 0.2953 0.292517 0.298275 0.26558 0.266407 0.271285 0.272172 0.276587 
0.273104 0.27777 0.276453 0.271987 0.278177 0.296046 0.286465 0.353644 0.349131 
0.340934 0.28299 0.280183 0.279056 0.303878 0.304316 0.304783 0.284088 0.288483 
0.379125 0.364038 0.368158 0.302101 0.304631 0.29983 0.276132 0.277954 0.282799 
0.264838 0.264018 0.267416 0.29212 0.285445 0.289217 0.284304 0.285198 0.283495 
0.267089 0.268259 0.265271 0.286902 0.278481 0.282932 0.275547 0.259649 0.255222 
0.257596 0.268175 0.270787 0.270276 0.307721 0.307699 0.262734 0.304188 0.304847 
0.304945 0.290912 0.297635 0.290786 0.307794 0.307946 0.307857 0.295855 0.296835 
0.294801 0.295822 0.259928 0.307622 0.290583 0.291252 0.290451 0.329374 0.321344 
0.325346 0.306577 0.307016 0.306826 0.307179 0.307789 0.307822 0.287865 0.288694 
0.307995 0.286961 0.287343 0.288411 0.304502 0.304077 0.305015 0.306893 0.307136 
0.307198 0.307542 0.266858 0.306268 0.306784 0.3069 0.310985 0.312381 0.277834 
0.279044 0.27779 0.275629 0.276875 0.278687 0.279799 0.269363 0.273044 0.275025 
0.276806 0.278631 0.267151 0.273371 0.270801 0.310387 0.311398 0.310168 0.288458 
0.288475 0.289968 0.308886 0.309357 0.288567 0.293527 0.293694 0.308603 0.267882 
0.267818 0.264985 0.294041 0.298162 0.294221 0.298422 0.30699 0.317056 0.315993 
0.310257 0.273923 0.28006 0.269638 0.307085 0.310569 0.312319 0.324253 0.282304 
0.319769 0.281408 0.281724 0.279964 0.336344 0.330134 0.348989 0.333339 0.285046 
0.282834 0.282609 0.30945 0.308816 0.309108 0.30208 0.300957 0.301846 0.300057 
0.299112 0.298943 0.30759 0.3175 0.307837 0.301935 0.303419 0.288425 0.287904 
0.288133 0.323029 0.307577 0.307423 0.307606 0.364149 0.377574 0.373053 0.38646 
0.285433 0.283996 0.285252 0.375961 0.393989 0.385429 0.369176 0.280147 0.281552 
0.279494 0.30458 0.303419 0.301369 0.444404 0.467705 0.492261 0.421297 0.287934 
0.287087 0.286496 0.285784 0.2868 0.291106 0.292874 0.331125 0.336256 0.339068 
0.344349 0.252726 0.256882 0.292191 0.290236 0.289666 0.258277 0.266035 0.253458 
0.293672 0.283725 0.283797 0.286112 0.312911 0.312703 0.311045 0.319319 0.315221 
0.317695 0.313621 0.306 0.305699 0.305398 0.337538 0.3348 0.318133 0.319042 
0.310179 0.308348 0.311796 0.287791 0.286523 0.284754 0.283541 0.364848 0.330156 
0.386069 0.27056 0.280916 0.279512 0.283281 0.282049 0.289165 0.306676 0.306765 
0.307071 0.307596 0.30763 0.307583 0.307329 0.307537 0.306417 0.306835 0.306899 
0.30742 0.278415 0.274148 0.278174 0.321071 0.316913 0.307243 0.307522 0.305255 
0.30134 0.299973 0.303287 0.306016 0.306337 0.283575 0.293455 0.285535 0.310271 
0.307184 0.298947 0.297613 0.304642 0.306062 0.302192 0.281293 0.282714 0.306817 
0.306321 0.27218 0.282616 0.269314 0.306134 0.30637 0.306619 0.271745 0.275252 
0.271975 0.275133 0.273167 0.253625 0.25406 0.260975 0.287311 0.280672 0.28548 
0.259856 0.269024 0.262146 0.306432 0.303731 0.312625 0.310679 0.287472 0.284636 
0.289505 0.272109 0.270175 0.270912 0.251766 0.262366 0.255504 0.274352 0.276152 
0.289672 0.29204 0.293655 0.296214 0.291062 0.294899 0.292837 0.290585 0.289508 
0.289914 0.323549 0.330608 0.322969 0.261978 0.257227 0.267552 0.270855 0.270309 
0.277184 0.28015 0.275938 0.278549 0.279705 0.282011 0.280902 0.283279 0.28791 
0.283364 0.2858 0.307541 0.307509 0.307681 0.296338 0.300432 0.32338 0.328412 
0.323942 0.344625 0.337824 0.372327 0.305858 0.304776 0.308138 0.310095 0.309988 
0.31102 0.315522 0.317643 0.31784 0.309076 0.309104 0.311858 0.310621 0.31151 
0.295783 0.296867 0.295892 0.312397 0.312342 0.310973 0.297147 0.296955 0.296061 
0.295154 0.293952 0.292213 0.278414 0.279375 0.27595 0.281082 0.28237 0.281513 
0.282951 0.309878 0.310778 0.30284 0.301597 0.302235 0.304974 0.304891 0.304199 
0.301269 0.303124 0.301657 0.285057 0.304578 0.290774 0.307443 0.29518 0.296437 
0.296476 0.297556 0.323552 0.322393 0.32029 0.281657 0.281412 0.281441 0.281122 
0.303984 0.31104 0.304492 0.303653 0.302452 0.310309 0.32037 0.318389 0.428018 
0.429964 0.310266 0.310469 0.311181 0.311536 0.34954 0.359988 0.347905 0.286365 
0.286835 0.287309 0.287732 0.33796 0.34023 0.335201 0.302964 0.303388 0.361129 
0.355197 0.356999 0.300459 0.299654 0.299614 0.298807 0.272221 0.270928 0.309203 
0.291878 0.293451 0.292204 0.249746 0.248537 0.262113 0.285362 0.284191 0.285425 
0.284357 0.285473 0.286518 0.292921 0.295272 0.293943 0.29643 0.293626 0.291518 
0.28052 0.27882 0.280327 0.314566 0.318612 0.278335 0.277961 0.277851 0.278009 
0.277519 0.278443 0.27815 0.275786 0.277181 0.274253 0.264846 0.266615 0.27866 
0.286782 0.284311 0.291544 0.271139 0.267772 0.275051 0.272446 0.302282 0.30344 
0.302834 0.297895 0.289792 0.366103 0.354333 0.298823 0.299492 0.282685 0.304688 
0.305574 0.30326 0.303575 0.303947 0.304217 0.261303 0.263962 0.26003 0.304409 
0.307039 0.305957 0.34228 0.344866 0.258489 0.26464 0.263965 0.302931 0.301849 
0.300725 0.299526 0.261111 0.309835 0.304889 0.269365 0.28082 0.253128 0.272368 
0.247442 0.25473 0.248719 0.295335 0.298828 0.30081 0.276655 0.277197 0.27448 
0.274119 0.306361 0.305821 0.264705 0.255732 0.263233 0.313108 0.320602 0.312907 
0.320931 0.313601 0.311575 0.310878 0.308857 0.301059 0.302402 0.261077 0.262045 
0.253607 0.2561 0.282507 0.301361 0.298294 0.303168 0.27498 0.319038 0.320845 
0.322724 0.324649 0.307038 0.308455 0.309991 0.309719 0.312511 0.311582 0.277904 
0.27483 0.274137 0.316205 0.270069 0.382692 0.398236 0.397039 0.281345 0.253306 
0.256454 0.246506 0.288316 0.284015 0.28997 0.28587 0.252252 0.312339 0.311712 
0.310988 0.251777 0.257114 0.246609 0.290409 0.271457 0.267931 0.272491 0.269494 
0.377876 0.389399 0.417377 0.280392 0.331625 0.318056 0.325431 0.336535 0.361653 
0.361746 0.305801 0.305786 0.308506 0.443517 0.407343 0.390161 0.540268 0.460179 
0.621966 0.278106 0.280641 0.306701 0.306739 0.307103 0.259952 0.261818 0.249171 
0.285318 0.28456 0.274708 0.27147 0.269786 0.235225 0.187447 0.218092 0.277604 
0.27994 0.278661 0.273201 0.269914 0.248779 0.294855 0.253254 0.272512 0.27373 
0.289309 0.286859 0.265682 0.270037 0.267806 0.26981 0.258603 0.262016 0.347505 
0.341206 0.337321 0.299791 0.298341 0.304647 0.303257 0.296699 0.295069 0.298096 
0.296347 0.281074 0.283285 0.281994 0.305439 0.302463 0.26036 0.26647 0.291692 
0.295943 0.29329 0.308114 0.308165 0.307872 0.307905 0.307803 0.307964 0.307868 
0.304859 0.301838 0.299827 0.309394 0.321535 0.312625 0.322769 0.279205 0.277716 
0.281356 0.249122 0.260318 0.252649 0.297282 0.300985 0.299716 0.305968 0.305457 
0.302144 0.303875 0.301373 0.293944 0.297309 0.295692 0.299154 0.259957 0.264538 
0.261075 0.305708 0.390444 0.436436 0.308046 0.308439 0.308176 0.296669 0.297799 
0.299324 0.300282 0.307706 0.307695 0.307724 0.280228 0.280675 0.278743 0.279263 
0.292562 0.307726 0.277061 0.305431 0.304653 0.302169 0.303761 0.30327 0.279266 
0.278103 0.280326 0.421768 0.409822 0.453888 0.309506 0.309283 0.308895 0.308735 
0.300054 0.303645 0.336907 0.295665 0.279485 0.288572 0.287747 0.287375 0.321982 
0.267965 0.33121 0.288318 0.283715 0.282976 0.311469 0.317886 0.313089 0.318127 
0.302599 0.304095 0.303304 0.306278 0.271817 0.270955 0.284796 0.285683 0.288566 
0.284161 0.285823 0.288253 0.289061 0.29954 0.298132 0.322343 0.318186 0.26309 
0.265246 0.261648 0.266627 0.30096 0.300549 0.287804 0.289272 0.284507 0.285771 
0.303391 0.292686 0.280822 0.284434 0.284211 0.321911 0.315476 0.270907 0.293685 
0.294703 0.298522 0.297538 0.263511 0.261584 0.337436 0.333936 0.281309 0.291265 
0.293926 0.295571 0.315643 0.28537 0.283504 0.286254 0.320932 0.322395 0.325335 
0.290645 0.292585 0.29792 0.297709 0.296363 0.307346 0.300889 0.307936 0.300986 
0.284706 0.282641 0.282334 0.280339 0.327252 0.277844 0.278205 0.346595 0.315139 
0.314595 0.320255 0.320193 0.302596 0.299731 0.298932 0.295069 0.30572 0.30569 
0.294202 1.29051 0.283079 0.280232 0.284446 0.32479 0.288538 0.288506 0.28902 
0.308882 0.301666 0.305995 0.291934 0.292049 0.292822 0.287289 0.292086 0.283615 
0.288013 0.289385 0.289736 0.288884 0.289364 0.288718 0.28867 0.288752 0.289062 
0.307219 0.307146 1.29294 0.28222 0.281691 0.281766 0.281323 0.256522 0.2945 
0.279476 0.282679 0.294144 0.292118 0.277723 0.274802 0.279958 0.292902 0.296529 
0.293353 0.287511 0.290799 0.287455 0.368066 0.358169 0.316869 0.316264 0.319518 
0.295979 0.294335 0.295358 0.286575 0.29694 0.296721 0.290897 0.293977 0.293715 
0.217361 0.255837 0.261448 0.259679 0.295762 0.288064 0.290288 0.285638 0.287748 
0.307896 0.270537 0.258684 0.282202 0.294713 0.291729 0.292931 0.293792 0.325843 
0.330666 0.327855 0.291882 0.290435 0.253273 0.308278 0.308693 0.308832 0.301911 
0.301337 0.354615 0.360295 0.35063 0.342664 0.307137 0.307858 0.304933 0.386918 
0.331964 0.312099 0.313536 0.299886 0.310068 0.274204 0.318122 0.322281 0.339414 
0.344934 0.346026 0.352149 0.295522 0.299792 0.296812 0.300742 0.306611 0.306434 
0.312187 0.311626 0.313761 0.314335 0.312892 0.297035 0.299939 0.317747 0.399243 
0.308291 0.270683 0.277937 0.272718 0.34829 0.317967 0.317988 0.271366 0.297309 
0.306909 0.313895 0.304143 0.350185 0.311205 0.311836 0.312504 0.308524 0.308935 
0.368743 0.366253 0.368034 0.359611 0.361498 0.353959 0.301855 0.300897 0.339117 
0.34771 0.340568 0.310719 0.313326 0.31584 0.31405 0.314955 0.301181 0.300658 
0.300071 0.299488 0.307642 0.314411 0.31435 0.312714 0.312707 0.286465 0.287216 
0.286148 0.309347 0.312963 0.307836 0.308071 0.286257 0.284413 0.281896 0.281001 
0.281648 0.280882 0.271878 0.295018 0.288752 0.321167 0.318721 0.320386 0.186851 
0.313974 0.309509 0.29978 0.328195 0.307632 0.307756 0.289313 0.292746 0.289645 
0.271331 0.308999 0.308417 0.309142 0.362891 0.353408 0.341336 0.292951 0.291732 
0.291691 0.288718 0.289027 0.290425 0.316994 0.320804 0.303505 0.306132 0.300436 
0.303889 0.298639 0.300001 0.313779 0.205868 0.268594 0.297925 0.296473 0.296138 
0.299243 0.323965 0.330972 0.327988 0.297225 0.301605 0.31266 0.305564 0.304182 
0.308985 0.293215 0.294747 0.295382 0.291076 0.291365 0.280824 0.258944 0.34969 
0.339119 0.31254 0.3138 0.313781 0.313324 0.312806 0.294856 0.561236 0.425043 
0.479656 0.395624 0.310513 0.253023 0.258639 0.252619 0.252925 0.315521 0.30751 
0.307462 0.307551 0.3103 0.311337 0.310642 0.281548 0.279956 0.279164 0.314428 
0.31578 0.31583 0.307928 0.307276 0.307667 0.310091 0.309642 0.266843 0.271835 
0.333775 0.289857 0.289448 0.290511 0.298558 0.299498 0.2994 0.290253 0.291517 
0.291295 0.292662 0.349253 0.360113 0.354276 0.352913 0.288967 0.293748 0.280543 
0.288041 0.286977 0.26903 0.269723 0.281059 0.283479 0.305313 0.30841 0.30394 
0.282144 0.285441 0.287003 0.280087 0.282384 0.276624 0.280737 0.315779 0.308982 
0.307294 0.330602 0.328713 0.336317 0.334254 0.305704 0.307036 0.306281 0.283516 
0.298753 0.326496 0.330625 0.322513 0.326371 0.280183 0.279251 0.36157 0.329753 
0.266498 0.279436 0.283045 0.280348 0.284398 0.400432 0.365238 0.364129 0.304577 
0.305016 0.30147 0.307007 0.306422 0.304701 0.304384 0.283816 0.30622 0.306719 
0.266365 0.262732 0.261486 0.308415 0.315574 0.309815 0.316581 0.293387 0.292315 
0.295545 0.294581 0.291086 0.292714 0.337979 0.34051 0.34513 0.259916 0.292189 
0.292132 0.293108 0.293047 0.290996 0.290509 0.38706 0.364299 0.289206 0.300506 
0.301347 0.299139 0.328732 0.342927 0.284075 0.283116 0.283029 0.28205 0.276413 
0.275281 0.302231 0.302853 0.269173 0.261569 0.268444 0.305942 0.281547 0.272092 
0.307392 0.30712 0.307633 0.257729 0.280525 0.307596 0.269874 0.270687 0.271099 
0.29065 0.290453 0.289098 0.288794 0.303762 0.307069 0.295399 0.304364 0.296539 
0.29516 0.300675 0.295199 0.292901 0.292962 0.290637 0.298905 0.313823 0.312347 
0.288774 0.286522 0.289776 0.290642 0.306014 0.304852 0.305534 0.308563 0.358355 
0.365615 0.346771 0.295573 0.297509 0.29195 0.286967 0.28736 0.289213 0.289801 
0.301317 0.299047 0.284319 0.2857 0.285547 0.286907 0.319987 0.317225 0.318499 
0.311504 0.309882 0.302156 0.318639 0.317522 0.319443 0.323568 0.320401 0.401127 
0.403606 0.310234 0.313412 0.316829 0.269004 0.308327 0.270838 0.269999 0.275152 
0.313059 0.313669 0.299511 0.2973 0.303637 0.281006 0.280978 0.281757 0.314916 
0.31164 0.31236 0.309214 0.306373 0.284844 0.285024 0.287874 0.381469 0.387071 
0.263626 0.261323 0.299343 0.36861 0.351155 0.30257 0.420046 0.331003 0.334253 
0.308126 0.312846 0.308017 0.307494 0.302397 0.316287 0.28851 0.289138 0.288743 
0.278282 0.278482 0.280101 0.279953 0.317602 0.280871 0.310187 0.307265 0.303858 
0.369173 0.379809 0.286844 0.330946 0.326016 0.326017 0.30483 0.305639 0.305667 
0.311336 0.325774 0.331514 0.315789 0.30931 0.31037 0.287209 0.289017 0.308531 
0.308026 0.307943 0.31479 0.318113 0.34034 0.34227 0.345962 0.289142 0.295627 
0.296722 0.305041 0.304719 0.299093 0.347623 0.414896 0.301843 0.300899 0.300894 
0.315431 0.315582 0.313639 0.313804 0.293684 0.294529 0.292421 0.252113 0.278006 
0.300625 0.280841 0.236947 0.238399 0.335724 0.297367 0.299389 0.30026 0.325694 
0.348047 0.341645 0.331331 0.259473 0.295567 0.297929 0.298381 0.298857 0.319795 
0.323639 0.263739 0.26627 0.26873 0.263967 0.268118 0.332126 0.334511 0.336723 
0.310835 0.255959 0.259636 0.260363 0.311507 0.308025 0.308347 0.329295 0.274558 
0.27375 0.307607 0.307626 0.307425 0.307518 0.307574 0.30844 0.309092 0.308665 
0.308264 0.307897 0.245533 0.369405 0.30363 0.279817 0.30609 0.305169 0.303792 
0.288534 0.289752 0.289145 0.290343 0.293724 0.306191 0.275679 0.284748 0.297888 
0.298894 0.307656 0.307705 0.30584 0.305607 0.296874 0.292785 0.298632 0.302383 
0.302649 0.306713 0.301255 0.300562 0.301294 0.30059 0.284853 0.286207 0.286773 
0.301817 0.299871 0.309878 0.308627 0.287054 0.309152 0.357408 0.402667 0.331826 
0.357398 0.276075 0.27667 0.269622 0.267564 0.341086 0.276753 0.276303 0.448106 
0.519433 0.26503 0.26394 0.304867 0.304938 0.27676 0.321381 0.337525 0.278294 
0.280514 0.278012 0.305117 0.303582 0.304293 0.237959 0.247187 0.24433 0.297926 
0.304023 0.304621 0.304226 0.311769 0.310214 0.288193 0.246973 0.238676 0.255428 
0.322666 0.305766 0.313404 0.311481 0.343059 0.330888 0.326134 0.309013 0.307661 
0.30466 0.304312 0.305605 0.304766 0.30614 0.285787 0.272748 0.270922 0.270071 
0.231617 0.304091 0.305544 0.306771 0.308422 0.304367 0.304194 0.303364 0.305189 
0.305983 0.306277 0.299579 0.30962 0.305448 0.276778 0.276266 0.270702 0.26015 
0.265101 0.264794 0.269838 0.33379 0.326179 0.3291 0.257518 0.297675 0.301816 
0.288223 0.288932 0.290755 0.290614 0.310677 0.309214 0.308431 0.23482 0.282732 
0.284213 0.283565 0.285126 0.304596 0.281114 0.285607 0.284627 0.276526 0.271328 
0.299329 0.29572 0.293875 0.307128 0.307028 0.25701 0.290778 0.287231 0.294267 
0.292187 0.292255 0.294861 0.272482 0.270715 0.271656 0.282436 0.280039 0.278666 
0.304459 0.283173 0.283988 0.274967 0.272523 0.272733 0.2919 0.320805 0.287042 
0.285233 0.28181 0.277824 0.276429 0.391401 0.374184 0.390552 0.377903 0.316945 
0.319461 0.317429 0.315109 0.315478 0.305324 0.305011 0.271659 0.270542 0.266716 
0.265192 0.305059 0.305533 0.305729 0.218245 0.374663 0.379614 0.281114 0.278238 
0.281363 0.290029 0.278681 0.278009 0.285714 0.283417 0.277132 0.280659 0.293196 
0.284577 0.27313 0.267364 0.378932 0.2615 0.255202 0.271116 0.267478 0.309176 
0.307846 0.308343 0.35701 0.364938 0.367888 0.288152 0.293341 0.290095 0.295426 
0.307903 0.307849 0.358291 0.354282 0.290346 0.303809 0.307151 0.308107 0.299272 
0.300374 0.295562 0.309564 0.311078 0.304739 0.363715 0.347187 0.309634 0.31158 
0.30931 0.303522 0.305013 0.30474 0.283237 0.279997 0.285004 0.323463 0.324802 
0.382535 0.301578 0.216135 0.279064 0.312173 0.298248 0.297267 0.321347 0.313944 
0.314944 0.308515 0.305662 0.305468 0.27703 0.275605 0.296514 0.295242 0.29378 
0.307351 0.307223 0.3073 0.28307 0.27722 0.278693 0.451374 0.426904 0.2831 
0.289846 0.311986 0.311193 0.292925 0.408547 0.399747 0.386833 0.28055 0.279784 
0.281174 0.303141 0.301994 0.300701 0.302219 0.277191 0.274367 0.303558 0.280952 
0.290833 0.294677 0.292151 0.237955 0.246283 0.245576 0.2857 0.287515 0.287038 
0.333324 0.336529 0.292102 0.389735 0.279162 0.277428 0.278623 0.345542 0.350909 
0.30234 0.28228 0.247968 0.267807 0.28847 0.33801 0.336687 0.347463 0.352539 
0.306956 0.30731 0.307674 0.284467 0.28704 0.287381 0.253033 0.298692 0.299558 
0.289098 0.291101 0.290277 0.307959 0.307454 0.300205 0.299244 0.288529 0.286668 
0.348094 0.338173 0.284231 0.25866 0.264818 0.258498 0.264255 0.328936 0.314837 
0.310727 0.308071 0.308406 0.248186 0.298285 0.301833 0.30292 0.269349 0.305235 
0.307388 0.273757 0.27485 0.313723 0.268026 0.254585 0.307558 0.284762 0.283313 
0.30787 0.307831 0.307875 0.307844 0.324894 0.24795 0.275442 0.306852 0.307183 
0.274012 0.250001 0.23818 0.227722 0.267218 0.269468 0.271419 0.273257 0.265865 
0.282635 0.256704 0.26586 0.272907 0.324985 0.32645 0.374179 0.277842 0.319901 
0.329111 0.327224 0.333883 0.30894 0.308551 0.29409 0.290453 0.30775 0.303678 
0.303 0.288491 0.286488 0.298375 0.294907 0.308563 0.312463 0.308763 0.287371 
0.286045 0.292156 0.279253 0.254408 0.232226 0.319785 0.31491 0.419815 0.359382 
0.370807 0.276917 0.275507 0.307655 0.307428 0.307636 0.30758 0.303032 0.310726 
0.311946 0.288815 0.297956 0.300884 0.303256 0.282762 0.284093 0.281775 0.285885 
0.287036 0.306304 0.285764 0.322018 0.27384 0.29742 0.299095 0.348151 0.280422 
0.306059 0.266129 0.267485 0.300753 0.305739 0.301232 0.327532 0.307203 0.307051 
0.307282 0.26408 0.307561 0.307925 0.340033 0.337247 0.280799 0.264054 0.313264 
0.31188 0.312593 0.310909 0.282437 0.280633 0.281326 0.259118 0.285752 0.28426 
0.281525 0.339549 0.279673 0.28106 0.306741 0.297045 0.275799 0.279843 0.330465 
0.322901 0.316499 0.310147 0.316864 0.303343 0.275197 0.307008 0.313879 0.289875 
0.277608 0.279633 0.280976 0.385363 0.381783 0.301028 0.305147 0.305975 0.271073 
0.298507 0.307998 0.309574 0.312881 0.313913 0.298135 0.29533 0.297543 0.29148 
0.271174 0.299552 0.300201 0.301847 0.291572 0.288388 0.292776 0.270178 0.295574 
0.293809 0.294598 0.323922 0.333489 0.291534 0.286619 0.290515 0.278541 0.280789 
0.279372 0.306569 0.325373 0.328398 0.329007 0.31736 0.316818 0.306794 0.308602 
0.30795 0.307919 0.267868 0.308973 0.308444 0.314355 0.307826 0.307836 0.269361 
0.25101 0.25112 0.258115 0.301284 0.300638 0.285989 0.286853 0.317502 0.315511 
0.281319 0.282203 0.287575 0.281704 0.279001 0.345268 0.322921 0.327256 0.339429 
0.293461 0.308326 0.304082 0.308307 0.286814 0.246143 0.335028 0.338 0.301961 
0.301307 0.325081 0.315636 0.311363 0.270244 0.280074 0.300684 0.294754 0.293306 
0.2982 0.29431 0.269045 0.324425 0.317471 0.3187 0.281912 0.281665 0.284704 
0.281342 0.343887 0.298667 0.300725 0.290716 0.296172 0.290997 0.287507 0.30775 
0.307694 0.284926 0.301213 0.300834 0.302573 0.275058 0.310753 0.310391 0.311465 
0.419995 0.259384 0.293422 0.29059 0.286545 0.289745 0.270032 0.26649 0.272773 
0.332337 0.301119 0.272523 0.307573 0.293012 0.293909 0.292914 0.307345 0.306178 
0.267872 0.318559 0.295476 0.296708 0.296649 0.317591 0.301686 0.29545 0.305791 
0.295838 0.275778 0.303795 0.303092 0.30552 0.281762 0.301328 0.288326 0.292502 
0.294572 0.296981 0.290418 0.30331 0.295276 0.292042 0.264366 0.311216 0.305501 
0.348339 0.304045 0.322948 0.273157 0.269121 0.269175 0.272765 0.305203 0.269323 
0.27314 0.298198 0.307727 0.281261 0.28566 0.293546 0.326018 0.329038 0.300048 
0.310073 0.290418 0.291946 0.292791 0.304413 0.284962 0.299126 0.306713 0.309115 
0.310011 0.309179 0.30777 0.368313 0.319453 0.312634 0.314009 0.298117 0.297022 
0.307579 0.307521 0.292971 0.288017 0.286805 0.290761 0.289869 0.290708 0.291236 
0.320312 0.316413 0.231844 0.299399 0.297992 0.27123 0.300773 0.286631 0.284162 
0.289181 0.310803 0.309743 0.293573 0.290267 0.288201 0.289633 0.290095 0.289504 
0.291426 0.279193 0.27961 0.282408 0.303103 0.296071 0.319939 0.315908 0.304038 
0.30616 0.330858 0.292203 0.292234 0.263257 0.287228 0.308005 0.30835 0.308133 
0.25231 0.258382 0.274269 0.298658 0.251548 0.279585 0.292745 0.284989 0.302771 
0.28172 0.292476 0.262432 0.252155 0.266624 0.284302 0.258343 0.298171 0.293267 
0.295616 0.292237 0.286402 0.28941 0.269536 0.270633 0.270353 0.294032 0.291111 
0.33001 0.319481 0.343466 0.273619 0.274972 0.332153 0.334744 0.270601 0.272745 
0.216769 0.294026 0.293149 0.291978 0.295479 0.283908 0.283492 0.284996 0.296698 
0.307483 0.307557 0.279711 0.282015 0.306522 0.306387 0.30606 0.305892 0.265821 
0.306261 0.315262 0.313437 0.318661 0.316717 0.302916 0.299889 0.288846 0.342737 
0.292683 0.291108 0.277674 0.28212 0.281036 0.288586 0.288846 0.288363 0.290359 
0.252513 0.265352 0.270234 0.267858 0.272386 0.284077 0.280898 0.279556 0.284216 
0.272814 0.278171 0.277949 0.277991 0.273286 0.283149 0.281496 0.281896 0.302217 
0.288028 0.370396 0.391591 0.307722 0.307273 0.307652 0.309638 0.310313 0.31149 
0.31123 0.298527 0.300092 0.362872 0.302452 0.309513 0.309422 0.301271 0.307597 
0.262122 0.286521 0.293097 0.297055 0.296032 0.300856 0.299762 0.275946 0.266009 
0.28797 0.286723 0.287376 0.28586 0.299008 0.320391 0.322016 0.308315 0.306579 
0.307086 0.307471 0.300302 0.357196 0.288758 0.288596 0.314697 0.303979 0.294 
0.285051 0.293982 0.292928 0.278876 0.287277 0.264178 0.263533 0.273073 0.273264 
0.277108 0.306195 0.30361 0.309548 0.308704 0.304565 0.310465 0.291698 0.289077 
0.293965 0.292053 0.29791 0.298728 0.297716 0.291087 0.406365 0.267639 0.261676 
0.268776 0.265352 0.281217 0.313952 0.315894 0.322539 0.297752 0.298693 0.301591 
0.303113 0.297518 0.294846 0.226175 0.312538 0.269684 0.29918 0.285123 0.286217 
0.277739 0.303824 0.302769 0.307155 0.306176 0.297502 0.273374 0.274603 0.271376 
0.269531 0.280781 0.281737 0.286273 0.296588 0.270494 0.305707 0.286784 0.305203 
0.303593 0.303027 0.307619 0.333799 0.327204 0.30905 0.308996 0.309907 0.309755 
0.28096 0.289227 0.277074 0.276898 0.279319 0.282338 0.278814 0.270528 0.307617 
0.306393 0.307975 0.276506 0.296911 0.290789 0.288943 0.289579 0.303602 0.308686 
0.306335 0.288324 0.314567 0.318664 0.318407 0.322608 0.340034 0.348713 0.345704 
0.362456 0.296928 0.307431 0.296136 0.302135 0.300297 0.294223 0.282386 0.280877 
0.283926 0.309916 0.295939 0.297857 0.271784 0.27921 0.281788 0.294122 0.29301 
0.294043 0.308084 0.307986 0.285139 0.292779 0.278514 0.306455 0.289465 0.289449 
0.304325 0.303722 0.307288 0.29305 0.278768 0.303936 0.287705 0.301637 0.300332 
0.287678 0.307629 0.27625 0.277571 0.281308 0.291809 0.293137 0.279799 0.289508 
0.291245 0.291014 0.285801 0.28205 0.283027 0.307437 0.289051 0.284401 0.287866 
0.287105 0.271484 0.267926 0.29499 0.238447 0.272214 0.26435 0.268736 0.276611 
0.281134 0.309878 0.313156 0.31016 0.275661 0.295392 0.269477 0.263757 0.31167 
0.309867 0.311523 0.309325 0.304667 0.303342 0.300726 0.301462 0.284961 0.270726 
0.321205 0.300522 0.299926 0.31583 0.289925 0.300434 0.307761 0.298972 0.298017 
0.299802 0.314478 0.310808 0.313238 0.304675 0.323155 0.304092 0.244713 0.245328 
0.288528 0.30358 0.300012 0.300938 0.299433 0.303995 0.30744 0.307487 0.348333 
0.288357 0.288249 0.289307 0.280174 0.2783 0.2866 0.284838 0.250564 0.282973 
0.284242 0.284653 0.274807 0.312338 0.293011 0.298666 0.308236 0.333518 0.332871 
0.318884 0.301474 0.299784 0.287032 0.313147 0.276057 0.279431 0.306506 0.306576 
0.304604 0.305003 0.305232 0.314525 0.275454 0.28646 0.292079 0.303454 0.3299 
0.323443 0.277836 0.215768 0.229085 0.178985 0.212915 0.216733 0.356302 0.301945 
0.300726 0.299746 0.308224 0.262029 0.294398 0.31435 0.279584 0.279705 0.282811 
0.298808 0.297694 0.211922 0.302436 0.335437 0.336242 0.307586 0.297272 0.307862 
0.30858 0.299252 0.304494 0.303671 0.30282 0.298273 0.299149 0.305218 0.306749 
0.304622 0.309988 0.305739 0.311195 0.30296 0.333155 0.330985 0.301345 0.285411 
0.307696 0.306953 0.29451 0.293268 0.307577 0.307662 0.310755 0.288809 0.288674 
0.317284 0.262433 0.277753 0.27587 0.293788 0.287128 0.286387 0.295963 0.313259 
0.377781 0.313652 0.281061 0.294684 0.305352 0.288556 0.287635 0.310353 0.289835 
0.293217 0.293082 0.317875 0.318773 0.310962 0.305359 0.305804 0.286562 0.274902 
0.308166 0.291689 0.290637 0.307843 0.274271 0.271381 0.264166 0.265799 0.276436 
0.280403 0.323056 0.307417 0.283694 0.319347 0.322554 0.324453 0.426575 0.307528 
0.289013 0.291349 0.276221 0.276267 0.30254 0.309963 0.309707 0.309441 0.309224 
0.303412 0.302494 0.287085 0.287805 0.302631 0.303722 0.304598 0.307249 0.304948 
0.325529 0.327171 0.332403 0.32425 0.278205 0.298975 0.307764 0.30782 0.273511 
0.334136 0.279464 0.31823 0.274932 0.253558 0.316921 0.259909 0.257687 0.288415 
0.288484 0.287859 0.288069 0.27927 0.255545 0.261496 0.326541 0.324487 0.322815 
0.244832 0.287226 0.292955 0.310909 0.308769 0.286048 0.259401 0.295804 0.296772 
0.296087 0.295069 0.296757 0.247763 0.23496 0.314304 0.290616 0.291408 0.290787 
0.279816 0.306992 0.306743 0.26233 0.293992 0.311737 0.29497 0.265248 0.27343 
0.318216 0.274476 0.317753 0.316509 0.197529 0.495199 0.41721 0.288248 0.289969 
0.288212 0.289962 0.248126 0.257183 0.248427 0.399633 0.363118 0.284557 0.292234 
0.303243 0.290616 0.307839 0.32009 0.313803 0.288555 0.286763 0.28708 0.279463 
0.282908 0.284197 0.31775 0.321044 0.32148 0.29591 0.296411 0.317312 0.316465 
0.292097 0.265681 0.264964 0.343936 0.338975 0.306589 0.279027 0.276856 0.283604 
0.290941 0.290329 0.288901 0.286992 0.296535 0.287962 0.299239 0.302242 0.300144 
0.256756 0.290115 0.277392 0.280797 0.279393 0.330637 0.316993 0.284553 0.299686 
0.287571 0.292572 0.189266 0.282484 0.292737 0.267176 0.244633 0.235458 0.291514 
0.278445 0.314368 0.291746 0.29287 0.310171 0.308811 0.305248 0.306907 0.330303 
0.309631 0.306822 0.308834 0.293031 0.293286 0.268572 0.269495 0.267387 0.341711 
0.29749 0.298722 0.293652 0.307128 0.28568 0.31102 0.284413 0.307968 0.312378 
0.310091 0.2736 0.305751 0.270311 0.264289 0.309173 0.321265 0.327784 0.307986 
0.417296 0.289369 0.346795 0.310877 0.293218 0.281817 0.283781 0.307647 0.287902 
0.289187 0.290288 0.307913 0.272448 0.293487 0.289919 0.286876 0.320582 0.322256 
0.286237 0.282796 0.298497 0.282714 0.302476 0.297386 0.246407 0.365499 0.287443 
0.300364 0.293459 0.295552 0.306881 0.306332 0.323705 0.321425 0.329879 0.298319 
0.304448 0.304932 0.288869 0.290653 0.289484 0.305299 0.289397 0.289699 0.314518 
0.32796 0.281986 0.281529 0.301376 0.304197 0.302853 0.283724 0.303031 0.332662 
0.268988 0.259994 0.331398 0.312518 0.320765 0.309944 0.294596 0.307586 0.307563 
0.325537 0.294973 0.298389 0.298853 0.307832 0.306495 0.340777 0.338215 0.275644 
0.362818 0.280361 0.310995 0.307516 0.290916 0.288501 0.307835 0.28793 0.256719 
0.291095 0.276302 0.311162 0.309974 0.325532 0.325199 0.276983 0.299256 0.298517 
0.296 0.250768 0.303009 0.303268 0.40823 0.296792 0.31348 0.312192 0.297666 
0.306466 0.306984 0.333925 0.290159 0.294541 0.293829 0.307228 0.304437 0.289975 
0.291824 0.288986 0.275457 0.292257 0.272454 0.314603 0.268603 0.276086 0.251076 
0.293417 0.276205 0.294527 0.315389 0.297025 0.305031 0.294602 0.279133 0.280243 
0.279094 0.297625 0.28336 0.258964 0.278663 0.278939 0.30389 0.304682 0.304394 
0.281779 0.274621 0.316743 0.306201 0.278515 0.329527 0.329404 0.327322 0.293499 
0.311299 0.307757 0.278078 0.28281 0.308333 0.296562 0.308532 0.309368 0.299832 
0.316641 0.296482 0.307841 0.307749 0.307745 0.307808 0.278515 0.272814 0.274151 
0.272934 0.307945 0.276814 0.285105 0.300794 0.296723 0.309171 0.305629 0.30738 
0.402084 0.294957 0.35426 0.315414 0.265384 0.26852 0.269285 0.30015 0.301565 
0.322703 0.275993 0.277027 0.278091 0.309209 0.310426 0.293477 0.311697 0.292819 
0.290401 0.308727 0.287484 0.285181 0.287984 0.304035 0.291118 0.306831 0.307138 
0.313209 0.300839 0.30019 0.297081 0.303534 0.307422 0.306292 0.299538 0.292674 
0.293688 0.287864 0.302503 0.301714 0.292834 0.288039 0.292379 0.28525 0.293843 
0.286281 0.446159 0.27254 0.273487 0.289118 0.206811 0.304274 0.291345 0.292895 
0.370036 0.323206 0.352137 0.347929 0.294623 0.307885 0.307894 0.27299 0.307736 
0.307404 0.307514 0.321938 0.310711 0.288098 0.275328 0.307806 0.30294 0.303507 
0.307516 0.309679 0.307265 0.311026 0.31081 0.307096 0.307147 0.310005 0.280201 
0.298305 0.302918 0.284605 0.282743 0.316042 0.321162 0.287495 0.30379 0.269581 
0.307808 0.307639 0.32885 0.293927 0.272507 0.273808 0.275583 0.276554 0.27888 
0.281693 0.28171 0.306759 0.296026 0.305826 0.292376 0.281048 0.275139 0.273096 
0.308955 0.298524 0.302044 0.297808 0.30084 0.310964 0.305847 0.276603 0.285266 
0.289513 0.291512 0.268985 0.279498 0.260462 0.273393 0.304604 0.313509 0.324568 
0.300991 0.283332 0.284998 0.292051 0.290921 0.343533 0.294892 0.305021 0.297098 
0.304916 0.298906 0.332036 0.197911 0.286967 0.318596 0.305352 0.282746 0.3167 
0.431375 0.410508 0.314094 0.285974 0.299064 0.298195 0.308247 0.307589 0.275225 
0.290262 0.301049 0.302291 0.319069 0.28255 0.319844 0.30843 0.303328 0.303985 
0.321859 0.287864 0.306065 0.302776 0.281705 0.289572 0.315082 0.290266 0.336615 
0.332454 0.308706 0.309437 0.33876 0.308518 0.338876 0.33147 0.307777 0.313069 
0.318304 0.327349 0.330126 0.309171 0.310883 0.333292 0.291873 0.270014 0.307987 
0.283426 0.266153 0.273677 0.283775 0.375809 0.289402 0.28636 0.280612 0.293575 
0.289435 0.292119 0.276265 0.314843 0.304481 0.31536 0.283437 0.314065 0.297677 
0.315893 0.265108 0.280248 0.302109 0.31069 0.316424 0.312844 0.282808 0.279664 
0.286729 0.287058 0.284493 0.290947 0.288874 0.288595 0.313943 0.292767 0.295551 
0.29296 0.343403 0.325135 0.332359 0.311418 0.287158 0.307753 0.30784 0.270533 
0.295541 0.308339 0.303982 0.307885 0.29815 0.280465 0.31293 0.287915 0.3257 
0.322277 0.296184 0.333666 0.291525 0.333338 0.3366 0.252795 0.272583 0.273597 
0.245475 0.315008 0.306038 0.306617 0.298777 0.314312 0.307684 0.297266 0.304287 
0.295733 0.304698 0.303908 0.31897 0.276917 0.268763 0.321785 0.305291 0.282895 
0.288652 0.306194 0.304555 0.275657 0.293348 0.288547 0.288231 0.313315 0.299462 
0.305919 0.306674 0.290626 0.304507 0.260154 0.271382 0.293942 0.291023 0.29954 
0.301639 0.292315 0.305457 0.308744 0.30825 0.230858 0.252135 0.307602 0.29981 
0.283915 0.303165 0.304149 0.305722 0.29759 0.294204 0.278179 0.348371 0.306764 
0.273177 0.285958 0.288664 0.285802 0.297029 0.303835 0.306478 0.304143 0.30489 
0.303009 0.171891 0.291232 0.291133 0.5697 0.290845 0.292023 0.179202 0.178718 
0.181964 0.33579 0.284809 0.335454 0.289211 0.184039 0.302815 0.224086 0.172462 
0.28896 0.277666 0.301106 0.349056 0.308298 0.295485 0.210176 0.206865 0.217503 
0.174412 0.297413 0.189314 0.195397 0.301326 0.312223 0.175687 0.294875 0.291606 
0.308187 0.208712 0.297935 0.297698 0.300269 0.209687 0.222123 1.0667 0.269836 
0.279317 0.282295 0.315278 0.287618 0.287369 0.277268 0.275093 0.231363 0.300674 
0.296675 0.296957 0.329228 0.308556 0.307492 0.321592 0.270322 0.210745 0.312613 
0.263486 0.289936 0.260271 0.240004 0.29377 0.25361 0.354896 0.283835 0.268174 
0.253172 0.246191 0.288429 0.197037 0.202471 0.329471 0.340685 0.186777 0.206682 
0.273611 0.277145 0.332816 0.308395 0.220082 0.300161 0.307426 0.192773 0.215629 
0.220253 0.182836 0.182331 0.292288 0.305396 0.198367 0.219677 0.186799 0.294244 
0.303711 0.201524 0.197144 0.177506 0.17182 0.231362 0.306987 0.262234 0.290045 
0.304277 0.295674 0.298614 0.205559 0.314908 0.210619 0.302815 0.305091 0.180505 
0.18975 0.185343 0.3176 0.349921 0.235947 0.245483 0.278525 0.314283 1.29388 
0.307613 0.307717 0.307636 0.203784 0.232126 0.220564 0.232116 0.180146 0.1956 
0.181072 0.288107 0.264038 0.28218 0.219363 0.229361 0.211441 0.224755 0.217125 
0.211625 0.202094 0.196074 0.223652 0.23587 0.238219 0.247492 0.200127 0.198533 
0.18923 0.188453 0.204732 0.202873 0.176955 0.187379 0.206363 0.230253 0.206436 
0.203991 0.232882 0.234612 0.188542 0.253808 0.243583 0.179693 0.223608 0.255053 
0.205966 0.249075 0.221474 0.172333 0.181803 0.263508 0.238723 0.212156 0.191106 
0.196612 0.20008 0.177912 0.181193 0.198575 0.177093 0.179799 0.18761 0.189058 
0.235536 0.288209 0.262254 0.234339 0.197351 0.186698 0.294102 0.180656 0.190405 
0.17756 0.189786 0.17847 0.193171 0.180678 0.184617 0.191274 0.216236 0.211082 
0.235178 0.201502 0.21039 0.200346 0.221412 0.223948 0.21949 0.253437 0.233107 
0.25411 0.226788 0.176301 0.210672 0.205398 0.233052 0.209277 0.225302 0.205216 
0.208675 0.224521 0.22097 0.185873 0.227367 0.247082 0.256524 0.217108 0.212119 
0.188818 0.187213 0.231337 0.18952 0.21842 0.203032 0.238581 0.206375 0.516115 
1.2689 1.31696 
Stress%20yz%20component 1 13529 double
-0.0943523 0.0595617 -0.0956691 0.0518247 8.7491e-06 -8.22635e-06 8.11954e-06 -2.44225e-06 0.0345328 
-0.0263868 -0.0462085 -0.0180527 0.0230302 -0.0198011 0.0222087 -0.0260342 0.031373 -0.0244661 
0.0203784 0.0510558 -0.0355128 0.0220762 0.0267666 0.0288075 -0.0228424 0.0405975 -0.0350022 
0.0214742 -0.0364718 0.0268188 -0.034359 -0.0380415 -0.00228597 -0.000783516 -0.0401671 0.0396346 
0.0479606 -0.0683563 -0.00702684 -0.00216923 0.0256594 0.00149926 -0.000432696 -0.00325622 -0.00400284 
0.0295486 0.0216106 0.0166766 0.0146546 0.013809 0.0183121 0.0468391 -0.0211146 -0.018231 
-0.0303434 -0.0340998 -0.040204 -0.0105797 -0.000270482 0.00345937 0.00266093 -0.0132292 -0.0131306 
-0.0114569 -0.0125079 -0.0137504 -0.0139976 -0.0162604 0.012094 0.0265491 0.0197237 0.0318326 
-0.0223823 -0.0218807 -0.0224932 -0.0324662 0.0228075 0.0136952 0.012039 0.0162127 0.0188812 
0.0122296 0.0230368 -0.00839889 0.00252896 0.00027816 0.000549242 -0.0198143 0.0209803 0.028095 
0.0302595 0.0333429 -0.0183689 -0.0118391 -0.0160213 -0.0127703 -0.0109389 -0.0180616 -0.0284635 
-0.0177606 -0.000100561 1.73687e-05 0.000770355 0.0115418 0.0104944 0.0246432 0.0226432 0.0249513 
0.0264133 -0.0271456 -0.018308 -0.0128214 -0.0156189 -0.0172171 -0.0200222 -0.0146153 -0.00731238 
-0.00109995 -3.35012e-05 0.000935865 0.00225642 -0.018475 -0.0208977 -0.0304993 -0.0434081 0.0237929 
0.0128179 0.0136095 0.0131074 0.0138704 0.0163002 0.0251268 0.0213127 -1.88754e-05 -7.32196e-05 
0.000849186 -0.00871279 -0.0157819 -8.04547e-05 -0.00180773 0.0020028 -5.28479e-06 -0.0267811 -0.0194081 
-0.0133441 -0.0128282 -0.0124002 -0.0122297 -0.0144843 0.0264956 0.0299113 0.0244369 0.0494363 
0.00761875 0.000573675 -0.000689265 -0.00125845 -0.0145634 0.0325869 0.0112265 0.0126492 0.0158463 
0.0138761 0.0183291 0.0203814 -0.0145868 -0.0201525 -0.021217 -0.027908 -0.0281804 0.0322941 
0.0463465 0.0473551 0.0459456 0.0462226 0.0398312 0.0473493 0.0474509 0.0479065 0.0405441 
0.0477149 0.0486575 0.0484421 0.0400492 0.0375968 0.0404424 0.0476267 0.0469654 0.0387662 
0.0409528 0.0489428 0.0485352 0.0399562 0.039911 -0.0657478 -0.080796 -0.0468049 -0.0457531 
-0.0459486 -0.046818 -0.0682149 -0.0446698 -0.0460433 -0.0468796 -0.0468879 -0.0698637 -0.0460675 
-0.0477061 -0.047871 -0.0469912 -0.0686251 -0.067245 -0.0670834 -0.0462905 -0.0460747 -0.0450401 
-0.0687487 -0.0672634 -0.0480178 -0.0485822 -0.0484417 -0.0824204 -0.0852819 -1.80369e-05 5.90192e-06 
-1.8097e-05 -1.26383e-05 -7.18335e-06 -4.08755e-06 -2.7626e-06 8.15905e-07 6.57094e-06 7.12914e-06 1.19245e-05 
1.7111e-05 2.11021e-05 1.83202e-05 -8.40893e-06 1.92528e-05 1.55423e-05 1.08049e-05 7.75588e-06 5.28849e-06 
1.10294e-06 -1.79043e-06 4.14499e-06 -5.57488e-06 -1.12711e-05 -1.18351e-05 -1.56295e-05 -1.26915e-05 5.44213e-06 
0.0286456 0.000963333 -0.000364297 -8.5801e-05 -0.00010705 -4.97389e-05 7.67159e-06 -2.25329e-05 8.80052e-07 
-8.83051e-06 -1.96935e-05 -6.23994e-06 -1.63977e-05 -6.37102e-06 -2.67859e-05 -3.86818e-05 -2.97672e-05 -3.55822e-05 
-3.79837e-05 -3.32673e-05 -5.26465e-05 1.65015e-05 2.55857e-05 3.64393e-05 4.63887e-05 3.60865e-05 6.14045e-05 
2.38099e-05 2.23522e-05 1.57135e-05 1.98654e-05 -3.25371e-06 -1.7834e-06 1.2253e-06 -4.00742e-06 -1.63021e-05 
-1.17592e-05 -1.74004e-05 -1.11405e-05 -1.34718e-05 -1.22705e-05 -1.37627e-05 -1.11057e-05 1.62799e-05 2.64145e-05 
1.51487e-07 1.1969e-05 4.65509e-06 -1.20571e-06 -4.63221e-06 -1.19735e-05 -1.33833e-05 -7.34535e-06 -7.22425e-06 
-9.07883e-06 -5.73368e-06 -2.49559e-06 1.78889e-06 7.43858e-06 1.40786e-05 -5.89558e-06 -6.14929e-06 2.33876e-05 
2.0441e-05 1.84256e-05 2.49242e-05 3.7442e-05 1.4795e-07 -4.8036e-06 -1.51735e-05 -3.58457e-05 -5.13972e-05 
-4.03872e-05 -3.38522e-05 -3.81005e-05 -5.14759e-05 -4.21654e-05 -2.86971e-05 -4.11711e-05 -5.35135e-05 -5.10957e-05 
-7.84024e-05 -5.00768e-05 -9.32077e-05 -0.000164782 -0.000207702 -0.000193982 -0.000336232 0.00194878 0.0275452 
0.0100472 0.00205558 0.0142544 0.0128215 0.0124853 0.0123135 0.0127813 0.0148172 0.015027 
0.00913796 0.0174362 0.0191577 0.0127947 0.0122795 0.0117339 0.0120711 0.0138586 0.0173774 
0.00209961 0.0143358 -0.0144982 -0.00480056 -0.0133954 -0.013175 -0.0125536 -0.0117989 -0.0120187 
-0.0122102 -0.0130411 -0.00346892 -0.013436 -0.0144923 -0.0118669 -0.0121805 -0.0115801 -0.0131362 
-0.0163895 -0.0159728 -0.0021741 -0.0112211 -5.72082e-06 6.11407e-06 6.20491e-06 2.8113e-06 -3.30855e-06 
1.57226e-06 -1.96433e-06 3.35331e-06 -2.4997e-06 -6.1876e-06 4.25791e-06 6.76068e-06 -6.10319e-06 -2.69341e-06 
3.49961e-06 -1.9881e-06 1.06546e-06 -5.89248e-06 2.31151e-06 4.17697e-06 2.95292e-06 -5.74787e-07 -5.54368e-06 
-0.0251996 0.000245292 0.000136428 4.77169e-06 6.58035e-05 4.39068e-05 2.85649e-05 4.61749e-05 2.89452e-05 
4.91296e-05 3.98933e-05 5.6091e-05 4.93958e-05 8.20275e-05 6.70734e-05 7.02356e-05 2.80929e-05 3.99514e-06 
-2.83195e-05 -3.14065e-05 -4.50697e-05 -4.27499e-05 -2.46958e-05 -2.32224e-05 -1.10387e-05 -1.14242e-05 6.06377e-06 
4.85945e-06 5.92864e-06 8.23512e-06 8.48498e-06 1.28147e-05 7.81225e-06 5.31621e-06 -8.42804e-07 1.51536e-07 
5.12331e-06 -2.27434e-05 3.29702e-07 7.19996e-06 5.4431e-06 1.07518e-05 6.88769e-06 8.62104e-06 6.06147e-06 
6.18187e-07 -4.72999e-06 -3.83968e-06 -1.2143e-05 -7.1688e-06 -3.19407e-05 -3.67396e-05 -3.60563e-05 -3.4803e-05 
-1.65151e-05 1.75585e-06 1.51046e-05 1.74907e-05 3.76908e-05 4.08632e-05 2.79458e-05 1.56184e-05 1.28665e-05 
1.04616e-05 -1.16921e-06 -1.88249e-05 -1.14663e-05 -2.32936e-05 -5.14347e-05 -5.03752e-05 -0.000189991 -0.000294423 
-0.0225925 -0.00926386 -0.00585448 -0.0153935 -0.00967489 -0.0125442 -0.0135578 -0.0190189 -0.0187882 
-0.0121187 -0.020796 -0.0284509 -0.0167176 -0.0160258 -0.0128765 -0.0121687 -0.0123817 -0.0113014 
-0.0118626 -0.0136705 -0.0150045 0.0128077 0.00626402 0.0143644 0.0130418 0.0126797 0.0175602 
0.0197894 0.0222692 0.0117724 0.00906291 0.0147834 0.0152728 0.0224875 0.0159495 0.0110923 
0.0115273 0.0147648 0.0065921 0.00906701 0.000985501 -0.000309489 -0.000627633 -0.000664369 0.00186719 
0.00606287 -0.000357274 -0.00655681 0.00319431 0.000195196 -2.86198e-05 0.00365391 0.00273556 -0.00184023 
-0.00399025 -0.000399086 -0.00216675 0.0042318 0.00279014 -0.00262859 -0.00627457 -0.00108856 0.000607283 
0.00281647 -0.00124355 -0.000465455 -0.000572674 -0.00280038 -0.000560367 0.00184078 0.00249035 -2.28234e-05 
-0.00660546 -0.00260285 -0.000180095 0.00384006 0.00106348 0.000622217 -0.00311719 -0.00442201 -0.00186123 
0.000488905 0.00271115 0.0019575 -0.000579795 -0.00182258 0.00405461 0.00124574 0.000380332 0.00191827 
0.00226329 -0.00457328 -0.00339826 0.00406633 -0.00216625 -0.00155823 -0.00105054 -0.000264637 -0.00322834 
0.000527021 0.00223884 0.000726325 -0.0025778 0.000627174 -0.00388106 0.00473495 -0.000375693 4.43162e-05 
-0.00117579 0.0100971 0.00115883 -0.00206355 -0.00238505 0.00363941 0.00374605 -0.00411167 -0.000722839 
-4.00193e-06 9.51118e-07 -1.49021e-06 1.79645e-06 4.41035e-06 4.78183e-06 2.31697e-06 -2.05752e-06 -6.76256e-06 
-7.50238e-06 -3.15406e-06 -2.34099e-06 -7.41873e-06 2.08337e-07 -8.80739e-06 -2.12827e-06 -3.1356e-06 -7.30141e-06 
-5.29894e-06 -2.51643e-06 3.61162e-07 5.0072e-06 -2.14911e-06 1.52059e-06 1.09256e-06 3.65167e-06 4.79572e-06 
-3.03182e-06 2.06314e-05 0.00406804 0.000614817 5.99172e-05 6.46296e-05 -1.32672e-05 -1.53924e-05 9.64703e-07 
3.59411e-06 7.61182e-06 -5.58718e-06 -6.41293e-06 5.50494e-06 1.64344e-06 3.24702e-06 -1.04027e-05 4.47126e-06 
8.27923e-07 1.52283e-06 -1.21776e-06 -1.67562e-05 2.94993e-06 1.47029e-05 7.10235e-06 -4.60437e-06 -1.89006e-06 
-1.09277e-07 -7.29803e-06 -6.24761e-06 -4.25762e-06 4.85411e-06 5.25887e-06 -6.82638e-06 -4.48299e-06 3.11178e-07 
2.43688e-06 1.12333e-06 -2.82278e-06 4.46653e-06 3.17823e-06 3.77608e-06 -9.5724e-07 -1.76422e-06 1.19342e-07 
7.62351e-07 -2.40527e-06 -6.81341e-06 -3.54972e-06 1.12777e-06 1.4889e-06 -1.25184e-06 2.09976e-06 1.54426e-06 
-2.10969e-06 -2.47959e-06 2.32634e-07 2.00047e-06 7.24211e-06 -8.25075e-06 -8.66791e-06 9.29722e-06 1.91226e-05 
4.99485e-06 3.23914e-06 7.61345e-06 1.54302e-05 -3.49489e-06 -2.32937e-05 -2.27211e-06 4.91042e-06 6.28417e-06 
-1.11939e-05 -1.20247e-06 -9.99903e-07 -1.07195e-05 -1.24085e-06 1.11523e-05 -3.84249e-06 -3.27697e-06 5.16183e-07 
6.63073e-06 2.33304e-05 -2.57952e-05 -2.44743e-05 3.38672e-05 0.000143132 0.000105867 0.000207089 0.00186351 
0.0110533 0.00786662 0.00525647 0.00496578 0.00525021 0.00577298 0.00925135 0.00413871 0.00523239 
0.0048303 0.00572881 0.0093712 0.00506179 0.00505724 0.00531574 0.00701254 0.0099311 0.00557236 
0.00729585 0.00579368 0.00490327 0.0062221 0.00856908 0.00674526 0.0057658 0.00561213 0.00811152 
0.00849854 0.000786121 -0.00146501 -0.00124979 -0.00413053 -0.00215139 -0.00135753 -0.00105955 -0.00473682 
-0.00639769 -0.00337023 -0.00136761 -0.0106871 -0.00557687 -0.00125008 -0.00179393 -0.0017952 -0.00146007 
-0.00204398 -0.0046857 -0.00461351 -0.00319488 0.00180968 0.000843423 0.00383657 0.00229688 0.0018092 
0.00180417 0.00183353 0.00153905 0.00164829 0.000853292 0.00713817 0.0101147 0.00657375 0.00714457 
0.00444419 0.00397812 0.00325561 0.00170321 0.0041444 0.00439931 0.00302056 8.9719e-05 -0.000619324 
0.00121739 -0.00928832 -0.00422712 -0.00114537 0.00429798 -0.000106676 1.74466e-06 3.96083e-06 2.71374e-06 
-3.1641e-06 3.36472e-06 1.09922e-07 -5.71614e-06 3.664e-06 -4.41883e-06 -7.30765e-06 -9.6792e-06 3.52092e-06 
-3.46177e-07 -1.02392e-05 -6.86082e-06 -3.3245e-06 3.36109e-06 -3.01876e-06 -2.44387e-06 3.18218e-06 -2.63575e-06 
-1.42327e-06 8.82101e-07 2.28614e-06 3.40015e-07 -3.94448e-06 -0.000344714 -0.000299416 5.73296e-05 6.95441e-05 
-6.93246e-06 -5.6215e-06 1.95887e-05 -2.25416e-07 8.76839e-06 -6.03074e-06 -4.75013e-06 -6.00827e-07 -2.41454e-07 
5.22082e-06 -8.85825e-06 4.04624e-06 5.64559e-06 -9.66574e-06 7.17207e-07 5.11691e-06 9.27731e-06 1.06115e-05 
-9.77003e-06 -4.93592e-07 -1.11947e-05 -9.49252e-07 -1.24797e-07 5.42418e-06 -8.35728e-07 6.07847e-06 -1.22108e-06 
-1.99521e-06 -3.06299e-06 1.34114e-06 3.89985e-07 9.24454e-07 1.2694e-06 1.92358e-06 1.90363e-06 2.09021e-06 
-1.78792e-06 -2.89595e-06 4.91595e-06 0.00146018 0.00107358 -2.73784e-06 -9.43279e-07 2.31261e-08 -2.26958e-06 
1.22732e-06 2.58234e-06 1.19315e-06 1.01874e-06 -3.16182e-06 3.99805e-07 -2.97966e-07 4.1951e-06 3.52325e-06 
6.36548e-07 1.49565e-06 1.82113e-06 2.76286e-06 -1.58746e-06 2.43384e-06 5.39825e-06 -1.32326e-07 -6.44862e-06 
-1.56652e-06 -6.30089e-06 1.58336e-06 2.70326e-06 7.31855e-07 2.48455e-06 -7.06036e-06 -1.3263e-06 3.84452e-06 
2.76502e-06 -7.8973e-06 3.51984e-06 -4.67455e-06 2.36289e-05 1.11439e-05 -2.73245e-05 7.19547e-06 9.82989e-05 
7.85442e-05 -5.9806e-05 0.00022202 -0.000444673 -0.000757728 -0.000243756 -0.00059521 0.00148638 -0.000542235 
-0.000126597 -0.000274249 -0.000589507 0.00113337 -0.000150989 -0.000710333 -0.000155593 -0.000711934 0.00118138 
0.00189519 0.00128427 -0.000778198 -0.000125632 -0.000770626 0.00130456 0.00202383 -0.000541013 -8.80175e-07 
-0.000729905 -0.000108832 -0.000666262 5.03397e-05 -0.000113738 0.000103056 0.000165296 1.68506e-05 0.000143622 
-7.64196e-05 -0.000812126 -5.7697e-05 9.01352e-05 -0.000598587 6.16287e-05 0.000219184 0.000134634 -0.000106837 
-0.000208107 -3.24934e-05 7.99905e-05 -0.00022286 -0.000207036 -0.000101255 -1.1988e-06 -0.000233181 2.8107e-05 
-2.08527e-06 -3.86682e-05 3.79239e-05 3.18486e-05 0.000330307 -0.000330196 0.000199906 0.000190908 6.48116e-05 
-8.32775e-05 2.54828e-05 0.00017968 -1.75429e-05 -9.53239e-05 0.000198429 1.2283e-06 -0.000204693 0.000119387 
0.000154535 -0.000366013 -2.44286e-05 0.00031465 -7.20956e-06 1.9497e-06 -4.53523e-06 3.331e-07 -3.07198e-06 
1.92654e-06 9.74502e-07 3.51573e-07 -1.26376e-05 -7.89892e-07 4.33946e-06 2.59279e-07 -1.09037e-05 5.08859e-07 
8.0047e-07 1.95366e-06 -2.08823e-06 3.73141e-06 -6.12611e-08 2.92105e-07 -1.41238e-07 1.70506e-06 7.96247e-07 
-5.12544e-07 -4.14812e-05 9.07219e-06 -1.80984e-05 -0.000121277 6.74556e-05 7.09575e-06 2.99232e-05 -8.57843e-06 
5.03785e-06 -1.6297e-05 4.82939e-06 6.91061e-06 -5.51474e-06 7.41233e-06 -1.26367e-05 -2.0165e-07 -6.28153e-07 
-1.34661e-06 -1.08887e-06 -1.12213e-05 -1.47795e-05 2.93369e-06 -1.80036e-05 -1.70439e-05 3.4503e-06 5.01661e-06 
1.86909e-06 6.95433e-06 8.81555e-07 -3.21063e-06 2.98171e-09 6.92484e-07 6.49551e-07 9.42328e-07 7.74213e-07 
-9.30544e-07 -3.28608e-06 -1.85518e-07 4.92556e-07 3.73997e-06 -5.81891e-07 -7.96521e-07 1.5142e-06 -1.18759e-06 
1.47347e-05 -7.8254e-07 -4.4543e-06 -1.07093e-06 1.76553e-06 3.3906e-06 9.57724e-07 -1.72456e-07 -2.44583e-06 
1.23792e-06 1.64553e-06 3.84696e-06 -5.42963e-07 3.35529e-06 3.66531e-06 1.34345e-06 -2.16732e-06 8.62571e-07 
1.05982e-05 -1.50875e-06 -9.90488e-06 -3.73624e-06 1.09236e-07 -1.06902e-05 -1.25258e-06 1.93155e-06 9.66939e-06 
2.79787e-07 2.46326e-06 6.33252e-07 7.98404e-06 -1.90997e-08 1.88411e-07 6.47907e-06 4.21077e-06 1.73267e-05 
5.30219e-08 -2.27929e-05 8.17135e-05 0.000110017 -0.000104927 -0.000143113 -1.20232e-05 -7.97087e-05 -5.38934e-05 
-5.84549e-05 -1.48168e-05 -5.63684e-05 -8.26337e-05 -9.1809e-05 -3.69587e-05 -9.73109e-05 -3.68878e-05 -7.70144e-05 
-8.38284e-05 -8.96741e-05 -2.2212e-05 1.22613e-05 -7.1024e-05 -7.92674e-05 -9.36164e-05 -6.44474e-05 3.0796e-05 
-8.44012e-05 8.08835e-06 -3.64211e-05 2.56973e-05 2.15217e-05 6.85917e-06 -1.17928e-05 -2.4489e-05 1.71054e-05 
2.20151e-05 2.93842e-05 -1.03902e-05 2.29202e-05 3.05167e-05 -2.8025e-05 2.19491e-05 -9.51372e-05 -9.58354e-05 
-0.000124518 5.04987e-06 2.59851e-05 -2.4039e-06 2.88102e-05 6.57782e-06 -5.66303e-05 -4.40566e-05 -1.61174e-05 
-3.69929e-06 -4.00854e-05 -3.3337e-06 1.40623e-05 3.26163e-05 -2.27434e-05 -5.21992e-05 5.83285e-06 -1.63898e-05 
-9.52315e-05 5.24778e-05 -5.49816e-05 -4.30457e-05 9.04678e-05 -3.88684e-05 0.000134619 2.56995e-05 4.53571e-05 
5.22376e-05 -2.72712e-06 -6.73488e-05 -0.000119606 4.57775e-05 5.28653e-07 -3.42556e-06 1.50402e-06 -1.23925e-06 
6.74703e-07 2.25769e-07 3.11409e-06 -1.79157e-06 -1.20491e-05 -7.31664e-07 2.93543e-06 3.6782e-06 3.79084e-07 
6.05427e-07 -2.15322e-06 1.74121e-06 2.76307e-06 -4.4346e-06 6.58444e-07 -3.01776e-06 1.16539e-06 1.00773e-06 
2.65684e-07 -2.07119e-06 1.2645e-06 -3.97102e-05 -1.4901e-06 3.08855e-06 -3.70443e-06 6.65096e-06 -4.67466e-06 
4.58108e-06 9.40393e-06 -4.73209e-06 -3.02755e-06 -9.79942e-07 5.72602e-06 -2.78536e-06 -1.06584e-05 -1.2158e-05 
-3.41704e-05 -5.65426e-06 5.853e-06 8.31449e-06 -2.93383e-06 -4.0426e-06 2.5202e-07 4.68757e-06 4.88305e-07 
-7.16794e-06 -1.13123e-06 6.06134e-07 1.6727e-06 -7.56299e-07 -1.40554e-06 4.65377e-07 -1.66046e-06 -5.90115e-07 
3.63251e-06 9.19758e-07 -3.40076e-07 -7.96674e-07 -1.73499e-06 3.5123e-07 1.29859e-06 2.1411e-06 2.12517e-07 
1.0076e-05 1.80986e-06 8.55977e-06 2.37719e-06 -4.86134e-06 7.96158e-06 6.84779e-06 2.69358e-06 -9.35102e-06 
8.17455e-07 1.38378e-05 1.85706e-06 -1.76546e-06 -3.01178e-06 -6.21107e-07 2.08347e-06 -3.5564e-06 2.3035e-06 
4.98386e-07 2.11079e-05 6.01702e-06 -1.12958e-05 -5.00092e-06 3.73834e-05 8.57866e-06 4.13655e-05 2.07214e-05 
4.2169e-05 -1.13877e-05 1.00745e-05 -5.32676e-06 -1.46341e-05 -1.54518e-05 -1.19407e-05 -2.59324e-08 1.06177e-05 
2.82372e-06 -1.81132e-05 -1.45086e-05 -2.01667e-05 -1.302e-05 -1.87194e-05 -2.26847e-05 -1.74838e-05 -2.31564e-05 
-6.01223e-06 2.96991e-07 -0.000116889 -1.46611e-05 6.51526e-07 -3.46479e-05 -3.23306e-05 -3.09846e-05 2.29859e-05 
2.35584e-06 0.00012049 -1.1217e-05 4.42564e-05 1.6418e-05 3.29279e-06 1.7877e-05 -4.14158e-05 3.23255e-05 
-2.18848e-05 1.55627e-05 1.82849e-05 1.74438e-05 8.99994e-06 -3.4103e-05 3.82924e-05 1.70004e-05 -3.53403e-05 
1.20196e-05 2.68673e-05 2.94816e-05 5.22348e-05 -3.16892e-05 -4.29281e-06 1.4257e-05 -1.60314e-05 5.68886e-06 
-5.34317e-06 -4.97524e-05 2.52058e-05 3.22038e-05 1.0419e-05 -9.42758e-05 7.99276e-06 2.59078e-05 9.14412e-06 
2.13788e-06 8.33883e-07 9.93909e-06 -3.51491e-06 1.10894e-06 -8.16973e-07 1.09891e-05 2.85744e-06 8.80476e-07 
-2.0392e-06 -9.59682e-06 1.05678e-05 -7.07928e-06 2.0722e-06 5.15249e-06 -1.75272e-06 7.72599e-06 -3.51669e-06 
1.39303e-06 7.82339e-07 3.74197e-06 -2.15474e-05 7.82217e-06 -1.31985e-06 1.83975e-05 -4.49311e-06 -2.63234e-06 
5.44214e-06 2.13325e-06 4.95153e-06 5.21646e-07 3.80148e-06 9.61781e-06 -3.3571e-06 -8.52393e-07 8.24648e-07 
5.69759e-06 7.15859e-06 -5.66052e-06 -1.63783e-05 -9.01602e-07 -3.21745e-06 3.8719e-06 5.41882e-06 -6.41326e-07 
-2.60019e-05 -9.93753e-07 9.99141e-08 2.8102e-07 4.98041e-09 -1.7035e-06 -2.4419e-06 1.26739e-06 2.07043e-06 
-4.7356e-07 -8.30986e-06 3.58756e-07 5.06445e-06 -4.24588e-07 -5.3245e-06 -1.35576e-05 -1.22862e-06 -1.21967e-05 
-2.28306e-06 6.78926e-06 -3.39444e-06 1.19157e-06 -6.71598e-06 4.15672e-06 4.39323e-06 1.42546e-05 4.78111e-06 
-1.45307e-05 4.21698e-06 -3.19601e-05 1.0666e-05 -1.93541e-06 -2.57942e-05 -6.72292e-06 5.17796e-06 1.38655e-05 
7.55739e-06 -1.06742e-06 -1.65794e-05 -4.3567e-06 -9.18093e-06 4.74447e-06 -1.16645e-05 5.08958e-06 6.70699e-06 
5.17593e-06 1.57957e-05 -1.80605e-05 -3.27274e-06 -7.67325e-06 -1.20089e-05 1.08885e-05 -2.28011e-05 8.60061e-06 
4.58419e-06 -2.01139e-05 8.29904e-07 3.86656e-06 6.32747e-06 2.24175e-05 -5.25722e-05 9.73461e-06 1.29219e-05 
-2.82811e-05 8.24747e-06 -7.03391e-06 3.95545e-06 4.47658e-06 -2.13112e-05 -3.39815e-05 1.82602e-05 6.95348e-06 
4.63498e-05 8.30851e-05 3.04027e-05 -1.00921e-05 -9.83963e-06 9.53177e-06 -2.84529e-06 3.9621e-06 1.32469e-05 
-8.48574e-06 -3.77251e-06 -7.799e-06 -7.54395e-06 -3.72823e-05 8.81223e-06 3.54665e-05 -4.75524e-05 1.38348e-05 
1.72612e-06 -3.89498e-06 3.75185e-06 -1.04748e-06 -3.9341e-06 -9.43223e-07 -1.43817e-05 -1.21095e-05 1.60735e-05 
4.48322e-06 -7.02507e-06 3.95958e-06 6.06379e-06 1.30199e-05 -2.09319e-05 -3.19856e-05 -1.43356e-05 -2.74078e-06 
1.12523e-05 1.63893e-06 -5.92144e-06 -9.78952e-06 4.05589e-06 -1.39632e-05 -1.0094e-05 1.32459e-05 -4.01602e-07 
1.06887e-06 3.40989e-06 -1.59086e-06 -2.28834e-06 -1.65521e-06 5.72692e-06 6.30998e-06 1.72964e-06 -7.39196e-06 
1.53404e-05 7.93918e-07 -1.4512e-05 -6.67922e-08 3.20128e-05 8.66647e-06 1.9674e-05 -6.89522e-06 1.44811e-05 
2.42591e-05 -2.61421e-05 -1.47128e-05 -6.09624e-07 7.72387e-06 2.70665e-05 -2.95968e-05 -9.0219e-06 2.33166e-06 
-4.07491e-07 -4.02164e-06 -1.36206e-05 -4.62364e-06 -2.78987e-05 -1.48852e-05 -2.07849e-06 9.07849e-06 1.32718e-05 
1.73899e-05 6.99982e-05 -1.19441e-06 3.83403e-06 -2.70321e-05 9.05014e-06 -5.10168e-06 -1.12561e-05 1.58584e-05 
5.35567e-06 2.8557e-06 3.91045e-05 3.45038e-05 -5.00109e-06 2.13531e-05 7.63233e-06 8.8748e-06 -9.04441e-06 
-2.62967e-05 1.21288e-05 -1.81513e-05 -2.85654e-07 -4.23965e-05 1.85362e-05 9.32623e-06 1.27915e-05 1.42315e-05 
-2.326e-05 -1.81743e-06 6.57809e-06 -4.67723e-06 1.31071e-05 -2.05904e-05 5.7773e-07 3.03226e-06 1.37944e-07 
8.4798e-07 -3.64882e-06 -3.2521e-07 4.60968e-06 -1.60181e-06 2.13936e-06 4.78636e-06 -1.65818e-06 3.63507e-06 
1.67917e-06 -1.20756e-06 3.49661e-06 1.54789e-07 -4.5096e-06 2.19791e-06 2.63994e-06 -6.99486e-07 2.15379e-06 
6.86895e-06 -0.0120572 -0.000170339 -3.14559e-05 9.96166e-06 -5.70058e-06 6.96239e-06 -1.37743e-05 -6.00242e-06 
-2.08291e-06 4.60894e-06 -1.41505e-05 -1.17804e-05 -1.23269e-05 -1.38062e-05 6.76804e-06 -1.07194e-05 -2.0032e-06 
4.85907e-07 2.59597e-06 1.49327e-06 7.70352e-06 1.18304e-05 -5.58231e-06 1.12285e-06 1.58648e-06 4.37378e-06 
-1.85422e-06 -4.02146e-07 -3.49681e-06 -3.7701e-06 -3.64855e-06 -2.31895e-06 9.49193e-07 4.4779e-06 -2.14981e-06 
5.46634e-06 3.43255e-06 -4.34938e-07 -1.80375e-06 -4.52392e-06 -2.72652e-06 -5.09621e-07 1.26721e-06 2.06277e-06 
-3.65583e-06 5.32736e-07 7.72054e-07 7.93903e-06 3.02624e-06 6.96513e-06 3.25925e-06 -5.87467e-06 1.32705e-05 
4.18763e-06 1.62789e-07 -7.23643e-06 -8.57481e-06 -2.07011e-06 1.23986e-05 -1.22866e-05 1.68721e-07 1.23795e-05 
3.87234e-06 -1.33663e-05 1.27919e-05 3.54176e-05 -3.6232e-05 -3.20253e-05 0.00014238 -0.00133272 -0.0171248 
-0.00481489 -0.00470219 -0.00677592 -0.00510146 -0.00618524 -0.00699862 -0.00717191 -0.00552793 -0.00620902 
-0.00557604 -0.00680175 -0.00478982 -0.0152807 -0.0121825 -0.0053503 -0.00670625 -0.00465855 -0.0147543 
-0.00528299 -0.00655315 -0.00464729 -0.000449076 0.000959098 0.00290733 0.000730845 0.00189972 0.00179466 
0.00300114 0.00315687 0.00025196 0.00596563 0.00880265 0.0054124 0.00209187 0.00279849 0.00161213 
0.00161348 0.00176954 0.00195691 0.000742194 0.00259032 0.00180603 0.000606483 0.00100965 -0.00137191 
-0.00260361 -0.00229042 -0.00188321 -0.00193481 -0.0020818 -0.00291566 -0.00391744 -0.00191019 -0.000968061 
-0.00365887 -0.00262827 -0.00266216 -0.00227711 -0.00318722 -0.000864104 -0.00207526 -0.00292351 -0.00486189 
-0.00117701 0.00883143 -0.000606425 -0.000103191 -0.00347273 -0.00437413 3.62982e-06 3.76386e-06 1.67267e-06 
-2.38123e-06 1.65151e-06 -2.79754e-07 1.1223e-06 3.55432e-06 9.96457e-07 -7.9908e-08 2.8202e-06 1.04703e-06 
1.74475e-07 2.41181e-06 -1.20082e-06 4.00489e-07 -1.15988e-06 8.88815e-07 -6.19042e-07 -1.18964e-05 -6.4213e-06 
1.32303e-05 0.000147004 9.73764e-06 -1.98716e-06 -5.14304e-06 -1.66068e-06 -8.2234e-06 -3.40758e-06 5.35237e-06 
2.3934e-06 -6.30691e-06 2.79078e-06 2.07468e-05 -1.77281e-05 -1.21892e-05 2.46058e-05 4.42191e-06 -1.42447e-05 
2.40386e-06 8.83949e-06 -8.60904e-07 -7.43404e-06 5.4807e-07 -2.48462e-07 -9.12426e-07 -2.10098e-06 4.24717e-07 
5.09006e-07 -3.4373e-06 1.66085e-06 5.13915e-07 -2.8536e-06 2.36232e-06 9.85053e-07 3.37927e-10 7.01875e-07 
1.07669e-06 -3.43917e-06 -1.11234e-06 -5.62318e-07 6.90911e-07 -2.3064e-07 6.46283e-07 1.46568e-06 -1.8472e-06 
8.92878e-08 8.08095e-06 9.24017e-07 -2.62553e-06 6.99619e-06 2.68156e-07 -3.07379e-06 1.95841e-06 -3.23455e-06 
-1.25618e-05 -3.25887e-06 1.4299e-05 -1.27608e-05 4.28465e-07 8.54623e-06 -3.37411e-06 1.58663e-06 -4.00538e-06 
3.8482e-06 -2.58061e-05 -2.59898e-05 -3.075e-05 0.000153517 0.000560782 7.9005e-05 0.000704939 -1.14586e-05 
0.000411268 5.40176e-05 0.000135847 0.000100187 0.000630134 0.000734626 8.0078e-05 7.40317e-06 0.000223505 
-0.000471516 0.000164526 4.91854e-05 4.6719e-05 0.000331834 -8.89204e-05 -8.5573e-06 5.4898e-06 -5.20342e-06 
1.42337e-06 -0.00022257 0.000117174 0.000398515 0.000499122 0.000343727 0.000211895 0.00038695 0.000155975 
-0.0003582 -0.000106717 0.000547272 1.71745e-06 5.66051e-05 0.000237191 7.30912e-05 0.000266489 0.000663977 
0.000667969 0.00017662 -0.0001178 -0.000291159 -6.01367e-05 -9.65369e-05 9.09279e-05 5.81183e-05 3.48243e-05 
0.000141846 -0.000570055 -0.000112008 -0.000655149 -0.000552733 -0.000530541 -0.000266381 -0.000197457 -0.000581419 
-0.000663575 0.00023998 -0.000424909 -9.17623e-07 0.00127353 -0.000358384 -0.000242685 2.5283e-05 0.000385143 
-7.33716e-05 -0.000363661 -0.000676503 5.97424e-05 -4.66022e-05 -2.82642e-07 3.42704e-05 -1.22905e-07 3.76206e-07 
6.02673e-06 -3.45343e-07 1.53714e-06 4.91967e-07 -5.5964e-07 -1.89549e-06 -4.42636e-07 6.05756e-07 7.54355e-07 
-2.56966e-07 6.94764e-05 1.48089e-05 8.28016e-06 -3.828e-05 -9.64678e-05 1.18694e-05 9.40205e-08 -3.40438e-07 
-1.28709e-05 1.46745e-05 -9.26692e-06 1.52648e-06 -9.08165e-06 1.0806e-05 4.22593e-05 1.66994e-05 -1.10212e-05 
1.36625e-05 2.74802e-06 -5.94238e-06 2.92844e-06 1.38419e-06 5.88303e-07 -2.77285e-06 8.75674e-07 8.54068e-07 
8.70513e-07 -2.17671e-06 8.83205e-07 6.92074e-07 6.08999e-05 7.69631e-05 2.88264e-08 6.13633e-07 -3.26255e-06 
-7.97532e-06 3.54051e-06 2.05503e-05 -1.92803e-07 3.701e-07 7.33312e-07 -1.19365e-06 2.1123e-06 1.53271e-06 
-2.45019e-06 -1.00671e-06 4.89448e-06 -1.15344e-05 -7.62155e-07 -2.11862e-06 8.00088e-06 -1.31479e-06 2.39697e-06 
6.18942e-06 -1.31101e-05 1.23944e-05 5.54319e-07 -7.53498e-06 2.95612e-06 9.92227e-06 -1.3533e-05 1.82208e-06 
1.61392e-05 1.34075e-05 -0.000111657 -2.94392e-05 1.42739e-05 1.06102e-05 3.03199e-06 3.64309e-05 3.81512e-05 
-3.02816e-06 5.01694e-05 4.79687e-05 4.26504e-05 3.25734e-05 1.05621e-05 2.4085e-05 2.01587e-05 3.00573e-05 
4.37323e-05 4.64206e-05 3.55603e-05 -2.88066e-06 1.66436e-05 5.55573e-05 5.04592e-06 2.8519e-06 4.7704e-05 
7.11047e-05 4.59238e-05 -1.79306e-05 -5.89654e-06 -1.17249e-05 2.24422e-06 -1.65555e-05 -1.55978e-06 -8.10004e-05 
1.62639e-05 1.51855e-06 -2.71911e-05 -1.33927e-05 9.8964e-06 -1.11673e-05 4.9593e-05 4.16844e-05 2.68781e-05 
1.78484e-05 -1.46257e-05 -2.04893e-05 6.23786e-07 -1.2023e-06 -9.57097e-06 1.22983e-05 3.45047e-05 -2.97838e-05 
-2.16979e-05 3.32051e-05 -1.86345e-05 -3.22982e-05 -4.36034e-05 8.2274e-05 6.54197e-06 2.35808e-05 -3.59592e-06 
-4.30308e-06 -8.1279e-05 -9.4685e-06 -2.23936e-05 0.000105155 6.90557e-06 0.000132341 6.95319e-05 -0.000136128 
-2.23876e-06 3.06358e-07 -3.94807e-06 -9.5938e-07 -9.05041e-06 -2.70178e-08 9.24097e-07 1.72889e-06 1.20066e-06 
-8.71123e-07 -2.52338e-06 -1.71722e-05 2.72658e-06 -7.6309e-06 -1.31461e-05 -2.30513e-06 3.33081e-06 -9.2281e-06 
6.35073e-06 -4.11793e-05 1.16983e-05 -1.73065e-05 5.99088e-06 5.63723e-06 -6.99348e-07 -1.00035e-06 -7.68216e-07 
1.43522e-06 1.35579e-06 -2.74628e-06 2.63958e-07 4.85266e-06 7.78989e-06 -4.63094e-08 -3.68142e-07 -8.36049e-07 
4.01051e-08 1.68366e-06 -2.70325e-06 4.06622e-06 3.62845e-06 -6.28762e-06 -1.63057e-06 6.96193e-06 1.00444e-05 
-4.67603e-06 -3.52998e-06 -5.1987e-07 -6.11207e-06 -2.63905e-06 -1.56092e-06 -6.88711e-06 -2.99306e-06 9.92601e-06 
-1.30786e-06 3.41189e-06 3.73048e-07 1.38104e-05 1.0286e-05 3.37899e-06 -1.44041e-05 -3.40034e-06 -7.58006e-06 
8.02725e-06 1.08212e-05 4.47717e-06 7.44885e-06 -7.65181e-06 2.41973e-06 1.71347e-06 -1.46869e-05 7.03892e-07 
-6.11609e-06 6.11888e-06 -9.81528e-06 7.58946e-06 2.62256e-06 2.46293e-07 2.52736e-06 7.80135e-06 -1.00573e-05 
-1.38445e-05 2.58501e-06 8.81602e-06 -1.10415e-05 -3.25473e-06 1.41469e-06 -3.36465e-05 2.68859e-05 -5.5635e-06 
7.7862e-06 -4.89473e-06 1.65322e-05 -1.84361e-05 7.18015e-06 -1.47472e-05 3.30584e-05 -1.97057e-05 8.80323e-06 
-1.89921e-05 -6.69819e-06 -9.88411e-05 1.19921e-06 1.63147e-06 -1.85961e-05 1.72573e-05 1.50666e-05 -1.63446e-05 
-3.90527e-06 6.928e-05 1.63456e-05 -3.99541e-05 6.19843e-05 1.07116e-05 -1.67695e-06 -1.52387e-06 6.88651e-06 
8.54155e-07 9.12695e-05 1.55668e-05 -9.33203e-06 -2.11159e-05 1.47701e-05 -2.97115e-07 -5.8903e-05 8.37763e-05 
-2.42207e-05 -3.98855e-05 -1.75058e-06 -2.91403e-06 -3.88712e-06 -2.46582e-06 -3.36017e-05 2.60578e-06 4.80588e-05 
-1.10202e-05 3.24753e-06 -6.489e-06 2.34708e-06 5.05272e-06 7.81289e-06 1.12024e-05 3.39146e-06 4.88741e-06 
-2.54705e-07 1.1651e-05 -1.39571e-05 -3.9737e-07 -5.00193e-07 -1.07809e-07 -2.86491e-06 -5.54804e-06 5.48372e-06 
1.44703e-05 7.71548e-06 -1.35685e-05 -5.29614e-06 2.47129e-05 3.13893e-06 -1.29569e-05 7.51446e-06 -2.34915e-06 
-4.19354e-07 -5.65468e-06 -2.68359e-06 1.01314e-05 4.15283e-06 4.73137e-06 3.14349e-06 -1.60977e-05 -4.41389e-06 
-7.35268e-07 -1.1909e-05 -6.65422e-06 -5.43337e-06 -5.92493e-06 1.36955e-05 -5.3764e-06 -9.43703e-06 2.04426e-05 
-6.12589e-06 1.20113e-05 8.68983e-06 4.18858e-06 -1.71329e-05 4.96638e-06 3.33176e-06 6.76542e-06 -2.23876e-05 
1.91958e-05 -8.79869e-05 -4.11312e-06 -8.1024e-07 -3.15596e-06 -3.57898e-06 -9.75191e-09 -8.99644e-06 1.58587e-05 
4.11115e-05 5.66891e-06 -4.55099e-06 -2.90047e-06 -3.33525e-05 -5.36307e-06 -1.00344e-05 -1.62652e-05 -1.27897e-06 
2.85436e-06 -3.87238e-06 -6.24408e-06 -4.91455e-05 -1.91316e-05 3.68895e-06 -2.78477e-05 3.26103e-06 -6.99942e-06 
-5.35776e-06 1.51071e-05 9.54947e-06 1.36506e-05 5.8241e-06 7.71034e-07 -6.50494e-06 -1.56644e-06 1.42697e-05 
-4.1281e-06 -2.74205e-05 -8.16694e-06 -4.74829e-05 -5.58133e-06 -9.65562e-06 1.79654e-05 1.99268e-05 1.46398e-05 
2.46066e-06 -3.392e-05 2.47476e-06 -1.7878e-05 -2.26966e-05 -6.49921e-06 -1.86437e-05 -5.28132e-06 -5.90223e-06 
6.00567e-06 -9.10156e-06 -1.87436e-05 2.13372e-06 2.01051e-05 -1.50387e-05 -1.42559e-05 4.13052e-06 -1.53758e-05 
-8.00734e-06 -1.81698e-05 -1.51831e-06 -5.29513e-05 -3.73931e-05 -8.35131e-06 -2.90627e-05 8.23053e-06 2.29858e-06 
1.24608e-05 1.4999e-05 7.75688e-05 -8.63312e-06 1.45874e-05 3.84153e-06 1.30351e-06 8.08041e-06 -2.69424e-05 
1.37333e-05 3.189e-05 -2.77325e-05 -1.85537e-05 1.81995e-06 2.88695e-05 7.08274e-06 -1.85309e-05 7.5677e-06 
4.52913e-06 3.07535e-05 -3.39435e-06 3.79706e-05 -6.58837e-07 1.94927e-05 6.21969e-06 -3.19245e-05 -9.96183e-06 
-1.94148e-05 2.2028e-05 1.10547e-05 -4.33163e-05 1.69984e-05 -1.55479e-05 3.24006e-06 1.3017e-05 3.69099e-05 
-9.15954e-06 -0.0456388 0.00925083 0.0282854 0.00436229 -0.00757422 -0.00359185 0.0122431 0.000966339 
0.00136031 0.000943305 -0.00848179 0.00698054 0.00109742 -0.00464503 -0.00230543 0.0240433 0.0215164 
0.0263576 0.0200564 0.0143481 0.0181997 0.017289 0.026716 0.01897 -0.0248823 -0.0170353 
-0.0391477 -0.0355718 -0.0411711 -0.0362772 0.0166311 -0.0029574 0.00101552 0.000947727 -0.030768 
-0.000922601 -0.0157686 -0.0124481 -0.0160688 -0.0140429 -0.0190758 -0.0259911 -0.000810551 -0.000405962 
0.0278868 0.0210432 0.028342 0.0229318 -0.00634291 -0.0243226 -0.0226956 -0.0296493 -0.0220343 
0.0108917 0.0169353 0.0209514 0.0150924 0.0193299 0.0129093 0.0210735 0.0105475 -0.033178 
0.0147598 0.000698207 0.000188537 -0.00224872 0.0079123 0.0251207 0.0268246 0.0329844 0.0317043 
0.0414737 -0.00904909 -0.0184792 -0.0155434 -0.0206912 -0.0149132 -0.0148506 -0.0247732 -0.00124953 
0.0108132 -0.00455994 -0.000267117 0.000342712 0.0036475 -0.0084493 0.0188611 0.0245764 0.0328978 
0.0215006 0.0290215 0.0267781 -0.0156717 -0.0211104 -0.0154545 -0.017788 -0.0190016 -0.0204511 
-0.0243579 -0.00322264 0.0220303 -0.00378667 0.000971388 0.000301233 0.00225956 -0.0275419 -0.0232777 
-0.0232695 -0.0312312 -0.0443539 -0.0395616 0.00490513 0.0221557 0.0189303 0.0149564 0.0161073 
0.0179903 0.0218487 0.0106124 -0.00530486 0.00497887 0.000960032 0.00165518 0.000469336 0.0181201 
0.00502388 -0.00609388 0.00136405 -0.00138653 0.00421158 -0.0192737 -0.00607043 -0.0218793 -0.0149689 
-0.0168069 -0.0134217 -0.0172155 -0.0147495 -0.0123947 0.0132778 0.0366515 0.0327614 0.0419044 
0.0283863 -0.0257787 0.000126483 -0.000237934 -0.00177908 -0.00261556 0.0132337 0.00554675 0.0268507 
0.018469 0.0193337 0.020854 0.0217344 0.0310427 0.0101248 -0.0146656 -0.0215007 -0.0216323 
-0.0290611 -0.0303716 -0.042604 -0.02418 -0.0258585 0.0436605 0.0449924 0.067386 0.0624177 
0.0621113 0.0633461 0.0617465 0.0648213 0.0647211 0.0645782 0.062032 0.0655096 0.0663026 
0.0649893 0.0374538 0.0374355 0.0652005 0.065008 0.0628097 0.0364987 0.0666072 0.0659765 
0.0652707 0.0370118 0.0496113 -0.0843715 -0.0838592 -0.0702802 -0.0633691 -0.0639848 -0.0645483 
-0.0665005 -0.0641071 -0.062507 -0.0640007 -0.0663471 -0.0665154 -0.06613 -0.0655935 -0.0659352 
-0.0659834 -0.0671487 -0.0679234 -0.066384 -0.0668841 -0.0639925 -0.0623497 -0.0658131 -0.067058 
-0.0671546 -0.0672049 -0.0661158 -0.075275 -0.0844217 -0.0902764 -1.21079e-05 -9.48668e-06 -3.64334e-05 
-4.39748e-05 -3.62189e-05 -2.758e-05 1.19103e-05 1.29832e-05 8.68237e-06 -8.65354e-06 3.30598e-05 4.7191e-05 
5.91746e-05 2.86349e-05 -8.34511e-06 3.22996e-05 5.35076e-05 4.16644e-05 3.32205e-05 -7.57907e-06 -2.23384e-06 
1.70789e-06 1.14393e-05 9.0905e-06 -2.95826e-05 -3.41998e-05 -2.87708e-05 -2.46105e-05 8.93812e-06 9.18657e-06 
-0.0170805 0.0197826 -0.000397337 -0.000484238 -0.000226726 -5.73957e-05 -3.91451e-05 -3.86598e-05 -4.72013e-05 
-4.19141e-05 -1.775e-05 -1.19668e-05 -2.9159e-05 -4.3789e-05 -5.43782e-05 -5.11172e-05 -5.88215e-05 -8.15704e-05 
-0.000104463 -0.000109085 -6.61034e-05 -3.32786e-05 -5.72753e-06 7.13428e-05 0.000107499 9.86376e-05 8.2315e-05 
8.38486e-05 5.83069e-05 3.0162e-05 1.32299e-05 1.1985e-05 6.91453e-06 -1.0876e-06 -1.56181e-05 -2.76697e-05 
-1.759e-05 -1.93182e-05 -2.63748e-05 -2.82246e-05 -2.31923e-05 -2.0234e-05 -6.20433e-06 1.94706e-06 2.55841e-05 
2.73654e-05 1.01237e-05 3.17182e-05 1.28029e-05 -5.36282e-06 -1.96891e-05 -1.93435e-05 -1.61857e-05 -1.84489e-05 
-2.05278e-05 -1.7623e-05 -8.55089e-06 -5.54689e-06 5.54619e-07 -3.74855e-07 2.42059e-05 3.7121e-05 1.33008e-05 
4.11696e-05 5.02762e-05 5.92364e-05 6.99528e-05 4.86866e-05 2.93928e-05 9.68322e-06 -3.32402e-05 -7.87294e-05 
-9.1368e-05 -7.61017e-05 -8.58228e-05 -8.13172e-05 -6.8964e-05 -6.07687e-05 -6.30785e-05 -6.16283e-05 -5.35638e-05 
-5.92658e-05 -7.00629e-05 -0.000110115 -0.00011179 -0.000142052 -0.000197525 -0.000400022 -0.00049753 -0.00034741 
0.0147166 -0.0247343 0.00566476 0.00562492 0.0180168 0.012933 0.0173841 0.0182048 0.0186541 
0.0169791 0.0170173 0.0157077 0.0584606 0.0504358 0.0126695 0.0264399 0.0195566 0.0178831 
0.0173597 0.0183415 0.0140725 0.0180811 0.00374489 0.0199835 -0.0140785 -0.00540757 -0.0117836 
-0.0188563 -0.0185713 -0.0173284 -0.0138148 -0.0136763 -0.0156935 -0.00744475 -0.0487515 -0.0512682 
-0.0148521 -0.0173528 -0.0139353 -0.012617 -0.0183668 -0.014079 -0.015993 -0.013547 -0.0103083 
-0.0119118 -3.06878e-05 1.25386e-05 2.89369e-05 2.15753e-05 8.21111e-06 1.65155e-05 -1.43747e-06 -1.59721e-05 
-9.72415e-06 -2.71394e-05 -3.22386e-05 -1.18263e-05 -3.23185e-05 -2.62725e-05 -1.32882e-05 -1.79144e-05 -7.8197e-06 
1.00977e-05 8.50878e-06 1.33323e-05 2.4426e-05 1.91417e-05 1.20296e-05 3.0491e-06 -0.00543965 -0.00288159 
7.50213e-05 0.000129533 0.000130746 0.000112363 4.81847e-05 4.33217e-05 5.32109e-05 5.33167e-05 5.16878e-05 
5.85185e-05 9.19916e-05 0.000103323 0.000105649 9.50231e-05 0.000112863 7.31667e-05 -4.74709e-05 -6.70723e-05 
-7.05034e-05 -8.23224e-05 -4.6435e-05 -3.31068e-05 -2.85856e-05 -4.03218e-06 6.72122e-06 1.03967e-05 7.59287e-06 
2.53333e-05 2.6358e-05 2.03686e-05 1.77345e-05 1.69077e-05 9.14808e-06 -1.73692e-05 -1.59121e-06 -1.86427e-06 
-3.03291e-05 -1.24117e-05 4.8708e-06 6.55581e-06 9.47357e-06 2.02166e-05 1.46748e-05 1.39796e-05 1.60196e-05 
2.22882e-06 8.36272e-06 5.38707e-07 -6.10825e-06 -4.35871e-05 -4.43042e-05 -5.24212e-05 -5.19231e-05 -6.87538e-05 
-3.5664e-05 -3.79102e-06 2.44467e-05 5.38239e-05 6.76738e-05 5.37841e-05 5.1722e-05 5.04208e-05 2.92995e-05 
2.2946e-05 -4.10394e-06 3.7623e-05 1.60917e-05 2.76589e-05 3.87775e-05 -2.32179e-06 8.41722e-05 -0.00220746 
0.00323387 -0.00909278 -0.00280185 -0.0154182 -0.0165449 -0.0146067 -0.0162633 -0.0186017 -0.0208521 
-0.0173438 -0.0130298 -0.0477864 -0.0640991 -0.019761 -0.0150118 -0.0175572 -0.0164003 -0.0159066 
-0.0154106 -0.0160231 -0.0177024 -0.0137735 -0.0162124 0.0151378 0.00949162 0.0170074 0.0176614 
0.0165958 0.018399 0.0235219 0.0258023 0.0108754 0.0714764 0.0684757 0.0127329 0.0192134 
0.0178965 0.0200734 0.0158335 0.0146648 0.0157986 0.0215531 0.00652668 0.00829516 -9.63905e-06 
1.29979e-05 -0.020962 -0.00629406 -0.00244623 0.0178301 0.00508493 0.00691909 -0.0181007 -0.0120458 
-0.0153455 0.0233943 -0.00990335 -0.0110104 0.000167406 0.01444 -0.0298595 -0.00461954 -0.0119582 
0.0018748 0.000114162 -1.14345e-05 -0.00011667 0.000129568 -0.000179633 -0.00143509 -0.00161658 0.00854348 
0.0061839 0.00582538 0.00479203 0.00699296 0.0097304 0.00793615 0.00166044 -0.00607555 -0.0143885 
-0.0145422 -0.0122064 -0.0163213 0.00436858 -0.0239947 0.0193855 0.00519954 0.00290638 -0.00526859 
-0.00159656 0.00222729 0.0158597 -0.00360137 -0.012469 0.0028385 0.000225075 -0.0144589 -0.022535 
0.00569275 -0.011143 0.00190448 -0.00116212 -0.001117 0.00423179 0.00390903 9.26235e-05 0.0012658 
0.00426706 0.00326724 -0.000736356 0.000166861 0.000928317 0.00431336 0.000155603 -0.00159577 -0.00374548 
-0.00200205 -0.00314617 -0.00152228 -0.00620319 -0.00729566 0.00089843 0.0125351 0.011446 0.0084709 
0.0126198 0.0116473 -0.00221889 -0.00155894 0.0025842 -0.00866289 -0.00861181 0.000200974 -0.0160139 
0.0252361 -0.0135365 -0.00244044 -0.00586951 0.00190209 0.0200839 -0.00658335 -0.00290214 0.000308482 
-0.00225927 -0.0107349 -0.0132106 -0.00973563 -0.0175266 -0.0121446 0.00507696 -0.0181758 0.00900014 
0.00730037 0.00761196 0.00645851 0.00336475 -0.00559992 0.00742322 0.00952659 -0.0035555 0.0134174 
0.0106457 -0.00228246 0.00156414 0.00142976 -0.00124645 -0.000905156 -0.00852909 0.00848267 -0.0270261 
-0.0215776 0.0136469 0.00693212 0.00024281 0.00247556 0.00771869 -0.000222919 -0.00234039 -0.0022686 
-0.000151496 0.00478072 0.00122736 -0.00423791 -0.00275467 0.00424796 -0.000318556 -0.00180615 -0.00137689 
0.00102871 0.00365824 0.00313815 0.00728637 0.0104439 0.0128554 0.0142369 -0.00333146 0.0130389 
-0.0131605 -0.00670386 -0.00986462 0.00145435 -0.0112443 -0.00808619 0.00209102 -0.00891016 -0.0118662 
0.00168289 -0.00635573 -0.0103109 0.0143692 -0.0176724 0.0121034 -0.0007771 -0.0042618 0.000337582 
8.81575e-05 -0.000537848 0.00248204 0.00245586 -0.00327747 0.00176087 -0.00213178 -0.00449897 -0.00432946 
-0.00087871 0.00246653 0.00231937 0.00061765 0.000477895 0.00195349 6.9391e-05 -0.00108319 0.00120248 
0.000877814 0.000145033 -0.00255318 0.000924652 0.000994773 -8.66433e-05 0.0079495 0.0113371 0.0147428 
0.0130033 0.00976471 -0.00288833 0.00537971 -0.00848529 -0.00956194 -0.00750915 -0.00500042 -0.00226102 
-0.00875333 -0.00711603 0.00195131 -0.00938438 -0.00710714 0.00266298 -0.0122211 -0.00065231 -0.000778531 
0.00239738 0.00206386 0.00104599 -0.0183394 0.023932 0.0242149 -0.0148564 0.0179459 0.0131631 
-0.00416366 0.0028356 -0.00864599 0.000431629 0.00269627 0.00310109 0.000264029 -0.00885432 0.00275456 
0.000575091 -0.00755013 -0.00395153 -0.00133392 -0.00217952 -0.000386595 0.0011998 -0.00484752 0.00268008 
0.00142232 0.000607363 -0.00536838 0.00216336 -0.0092872 -0.0077843 -0.0136315 0.0102174 0.00784513 
0.0040536 0.00395067 0.00311266 0.00587802 -0.00428479 0.0103348 0.00257112 -0.00154231 -0.00119395 
-0.0114929 0.00471317 -0.0258005 0.0149247 -0.00867867 -0.0128965 -0.0198702 0.0132638 0.012744 
-0.00424888 0.00164326 0.00314978 0.00957195 -0.00324719 0.00321546 -0.000412123 -0.00026143 -8.61067e-05 
-0.00121518 -0.00208303 -0.00456168 0.0015382 0.00112486 0.000827474 -0.00382192 0.00058399 0.000778411 
0.0111145 -0.000109421 -0.0027022 0.000214167 0.000199205 0.000204277 0.00310779 0.00224903 0.00229723 
-0.00994447 0.018253 -0.0104274 -0.012858 0.0309903 -0.00594164 -0.00735337 -0.00209656 -0.00721971 
-0.00712768 -0.000110068 -0.00630962 -0.00512847 0.0100752 0.00984979 0.0193092 0.00433699 -0.000707821 
-0.00256036 -0.00431819 -0.00267874 0.00458772 0.00103905 -0.00210543 -0.0069545 0.0112313 0.00285134 
0.0109827 -0.00232725 0.000972775 -0.000700247 -0.00673912 0.000189299 -3.03882e-06 -4.49668e-05 0.000311645 
7.13044e-05 -0.00073692 -0.00102422 -0.00101822 0.0102016 -0.0139802 0.0104414 0.0174456 -0.0189689 
0.00924157 0.0107037 0.000391515 0.00861318 0.00522064 -0.00201222 0.00855262 0.00881727 -0.00238942 
0.00901129 0.00515017 -0.0143726 -0.0134637 -0.0117747 -0.0123227 0.00440802 -0.020284 -0.00461763 
0.0134933 -0.00987744 0.00133335 -0.00262904 -0.00278134 0.0113319 -0.0135711 0.00611829 0.00134975 
-0.000705424 -0.00068505 -0.00183283 0.000285744 -0.00166991 -0.00248505 7.94968e-05 0.000905639 0.00250574 
-0.0308078 -0.020466 -0.0266044 -0.015391 -0.0224736 0.00292 -0.000259628 0.00149295 -0.000111717 
0.000202254 -3.60721e-05 -0.000390945 -0.000365934 -0.000255579 0.000391922 0.000784569 9.84351e-05 -1.29274e-05 
0.00047218 -0.000457786 0.000613168 -0.000492293 -0.000188407 0.000502956 -7.38902e-05 0.000437836 0.000488886 
0.00019344 0.0008695 -0.0201763 -0.0174181 -0.0168496 -0.0192875 -3.99606e-05 0.000924811 6.20492e-05 
0.00112852 2.62008e-05 0.00131075 -0.0176693 -0.0193837 0.00022697 0.000547005 -8.06837e-05 -7.30337e-06 
-0.0278398 -0.0282298 0.000340117 0.000134365 -0.0235752 -0.0205949 -0.0209445 -0.0172139 -0.020036 
2.0418e-06 -2.38126e-05 1.39155e-05 1.62072e-06 5.26644e-07 -6.5579e-06 -6.45899e-06 -8.09375e-07 4.84083e-06 
-8.10808e-06 -5.6936e-06 -2.41757e-06 -6.89623e-06 1.59055e-06 -5.67171e-06 1.1317e-05 1.00848e-05 1.20973e-05 
6.74052e-06 7.19766e-06 2.13268e-05 -4.92149e-06 -7.27339e-07 4.55954e-06 -1.13125e-05 -1.35764e-05 -1.72811e-05 
-4.11908e-06 7.96705e-06 -1.54489e-05 5.13453e-06 9.60211e-06 8.7235e-07 -4.02591e-06 1.04613e-07 1.03496e-05 
-1.14187e-06 -9.91841e-06 -3.01154e-06 1.0307e-05 -1.36928e-05 -5.70092e-06 -1.1347e-05 -3.85107e-06 -1.07336e-05 
-7.63934e-07 -2.65309e-06 -3.83966e-06 7.65499e-06 2.91391e-06 8.0072e-06 7.30886e-06 -3.11303e-06 1.02279e-06 
-1.14127e-05 -8.96729e-06 -1.3469e-05 -3.5765e-06 -8.47338e-06 -1.72944e-05 1.87655e-06 1.16649e-06 -4.40747e-06 
1.08388e-05 8.28669e-06 1.34884e-05 3.43526e-06 3.813e-07 1.36431e-05 -8.41171e-07 -8.32355e-06 -9.67112e-06 
3.46706e-07 1.1719e-07 -6.65269e-06 3.68785e-07 -3.34786e-06 1.9172e-06 -5.24179e-06 1.07213e-06 1.13171e-05 
-1.55517e-06 7.03296e-06 1.72462e-06 7.67334e-06 1.79851e-05 2.44553e-06 1.76131e-05 -0.0237337 0.0211649 
0.00277533 -0.00112815 0.000148725 0.00204538 -8.54856e-05 0.000157275 0.000580408 8.21066e-05 0.00020034 
1.27438e-05 -0.00015499 -0.000116503 0.0001102 -7.33115e-05 -4.17484e-05 5.67181e-05 -2.76445e-06 -2.22346e-05 
1.33546e-05 -3.76222e-06 2.45462e-05 -1.18418e-05 1.34009e-05 5.36928e-05 -1.24899e-05 -2.48586e-05 1.28411e-05 
-4.36236e-06 -3.52748e-05 -2.11405e-05 1.30327e-05 -5.99194e-06 -7.87665e-06 2.1804e-06 -8.21194e-06 1.32596e-05 
-7.4026e-06 3.66276e-06 4.20027e-05 -1.56991e-05 -1.3337e-05 1.18538e-05 -7.4079e-07 -5.07764e-06 -2.51092e-05 
1.40545e-05 -9.64382e-06 -2.59915e-05 -2.04387e-06 -7.76877e-06 -1.32536e-05 -9.03863e-06 -1.83495e-05 -1.40878e-05 
-2.19025e-05 -3.21963e-05 -5.07868e-05 -1.08556e-05 4.66273e-05 -4.21632e-06 2.4387e-05 0.000103157 3.30258e-05 
4.63441e-06 2.20289e-05 2.72872e-05 -1.37877e-05 1.7252e-05 1.41865e-05 2.92704e-05 2.27945e-05 6.21479e-06 
1.85147e-05 2.30568e-05 6.40066e-06 4.50192e-06 -1.06668e-05 -1.15442e-06 -4.90144e-06 -6.70376e-06 8.95132e-06 
2.13536e-06 9.8346e-06 1.21937e-05 5.93892e-06 1.71721e-05 2.74163e-05 7.48725e-07 -2.34291e-06 1.72177e-05 
-3.21491e-06 -3.22775e-05 -1.11596e-05 5.62192e-06 -1.11548e-05 -4.25825e-06 5.65313e-06 2.05398e-06 -1.26168e-06 
-5.29168e-07 4.13856e-06 1.67582e-05 -8.69466e-06 1.8216e-07 1.00495e-05 7.33077e-06 -1.60308e-06 1.52556e-07 
6.3387e-06 8.06994e-06 -2.20477e-06 7.2887e-06 4.70394e-07 -5.11348e-06 -2.24915e-06 -1.5571e-06 -4.27733e-06 
1.04454e-06 -2.72376e-06 -6.99727e-06 1.09817e-06 -8.62861e-06 -1.90352e-05 -6.07125e-07 3.85996e-06 -6.59918e-06 
3.14796e-06 1.74578e-05 6.21229e-07 -6.04669e-06 -2.02338e-06 5.09436e-06 1.04079e-05 -9.16432e-06 -5.23993e-06 
-2.05116e-06 -2.43246e-06 -2.5651e-06 -2.0048e-06 1.60607e-06 3.20429e-06 -5.12472e-07 2.01704e-06 8.33753e-06 
-3.27381e-06 -6.0857e-06 -4.54586e-07 1.21511e-06 2.25605e-06 -1.46859e-06 4.72197e-06 3.46102e-07 -1.96912e-06 
-1.03663e-06 -1.53447e-06 -4.44215e-06 -1.70197e-06 -6.61482e-06 -1.03338e-05 -2.71754e-06 1.45775e-05 -2.6213e-09 
2.64347e-06 1.49393e-05 -4.55421e-06 2.24593e-06 2.41626e-05 1.1886e-05 6.26293e-06 4.96644e-06 -2.98751e-06 
-2.32508e-06 3.51251e-06 -1.57525e-05 -2.81217e-06 -1.10518e-05 4.06024e-08 2.71821e-06 3.63852e-05 2.99085e-05 
1.16666e-05 1.12706e-05 1.70758e-05 -2.91594e-06 6.36575e-06 7.13062e-06 6.91947e-06 5.74645e-06 9.90907e-06 
1.4215e-05 1.88513e-05 2.88477e-05 1.96216e-05 -2.96886e-05 -1.68691e-06 -9.10195e-06 -7.1796e-05 -2.56988e-05 
-1.47238e-05 -1.4883e-05 -8.96024e-06 6.19931e-06 -4.5284e-06 1.3129e-06 -7.21506e-06 -5.86225e-06 3.09938e-05 
-2.11274e-05 -3.58914e-05 -3.54446e-05 2.29801e-06 -1.37765e-05 -2.09737e-05 4.03645e-06 -1.38712e-05 -1.26612e-05 
-1.13274e-05 -2.18786e-05 -7.90703e-06 -2.14191e-05 8.51806e-06 -3.75319e-06 4.73762e-06 4.06519e-05 -1.68827e-06 
9.76177e-06 -6.95753e-06 -1.48315e-05 -1.82517e-05 -2.23319e-05 -2.42897e-05 -1.68163e-05 1.33158e-05 -6.59289e-06 
4.20455e-06 1.66125e-05 -1.80933e-05 1.06525e-05 4.95989e-05 4.27267e-06 3.09947e-05 -1.60831e-05 -4.69412e-05 
-2.25898e-05 -5.63612e-05 -9.5917e-05 -2.68168e-05 6.74131e-05 -4.89583e-05 3.72219e-05 0.000228105 9.1584e-05 
0.000105354 0.000113898 -1.62764e-05 3.05449e-05 0.000134279 7.74609e-06 0.000141394 0.00624549 0.0130312 
0.00266093 -0.00427026 -0.0274661 -0.0297715 -0.0309554 -0.0211384 0.0120318 -0.0223046 -0.0208735 
0.00778097 -0.0214782 -0.0210048 0.00566907 -0.0200819 -0.0220083 0.00622762 -0.0209976 -0.0292165 
0.00626635 -0.0291187 -0.01858 0.00601852 -0.0222174 -0.019805 0.0079298 -0.0208935 -0.0202801 
0.00643064 -0.0206699 -0.02248 0.00658167 -0.0214529 -0.0309955 0.00628302 -0.0294805 -0.0191372 
0.00623448 -0.0224789 -0.0206686 0.00875609 -0.0223741 -0.0215602 0.00629597 -0.021315 -0.0225017 
0.00670359 -0.0198532 -0.0268421 0.00706137 -0.0269914 -0.024602 0.00819345 -0.0248677 -0.0272448 
0.00955078 -0.0258061 -0.0194966 0.00598265 -0.0204991 -0.02017 0.00715143 -0.0203735 -0.0216845 
0.00658315 -0.0198182 -0.0277257 0.00620935 -0.0256817 -0.0272691 0.00891157 -0.0266856 -0.0202659 
0.00703088 -0.0226101 -0.021235 0.00707822 -0.0227658 -0.0227157 0.0068862 -0.0211371 -0.0297357 
0.00658176 -0.0307106 -0.0307933 0.00976892 0.00682974 0.007349 0.0062651 0.008062 -0.00287281 
0.0081705 0.008622 -0.00325151 0.0022462 0.00623575 -0.00466993 0.00563749 0.00621823 -0.00316199 
0.00625627 0.00808859 -0.00262444 0.00758631 0.00834542 -0.00223008 0.0046575 0.00567398 -0.00346418 
0.00340196 0.00380734 -0.00622943 0.0153904 0.0105179 -0.00510867 0.0101112 0.0183405 -0.001737 
0.00888686 0.00321515 0.00833109 0.009105 -0.00800997 0.00925919 0.0100101 -0.0044447 0.00753092 
0.00603451 -0.0029466 0.00697039 0.00552216 -0.00286304 0.0069054 0.00553202 -0.00228501 0.00564722 
0.00517783 -0.00241716 0.00270092 0.00111408 -0.00301212 0.00412586 0.00265635 -0.0047446 0.00498966 
0.00369515 -0.00449932 0.00786278 0.00732164 -0.00160023 -0.00689258 -0.00528629 -0.000923125 -0.00442076 
0.00282955 -0.00547797 -0.00504095 0.00320226 -0.00464231 -0.00573398 0.00247958 -0.00444741 -0.0058354 
0.0024282 -0.00425918 -0.00567924 0.00281797 -0.00517974 -0.00578411 0.00261792 -0.00515621 -0.00504306 
0.00227184 -0.0088535 -0.00534143 0.00171857 -0.00743081 -0.00381893 0.00544952 -0.00494441 -0.00533099 
0.00857997 -0.00801145 -0.00753404 -0.00543592 -0.00880835 0.0059386 -0.00436182 -0.00533124 0.0053975 
-0.00352838 -0.00338134 0.00410332 -0.00493418 -0.00289219 0.00378777 -0.00527998 -0.00579697 0.00334042 
-0.00251802 -0.000881427 0.00251708 -0.00197221 -0.00227663 0.00425177 -0.00379639 -0.00256972 0.00374059 
-0.00743098 -0.00626623 0.00289626 -0.00834463 -0.010563 -8.01645e-05 0.0148854 0.000594827 0.000543165 
-0.00078893 -0.0240243 -0.0131759 0.00515536 0.00504974 -0.00998726 -0.0111139 0.000620263 -0.0015927 
0.00226518 0.00919524 -0.00465935 0.00924405 0.00481421 -1.86955e-05 -0.00167897 -3.28666e-05 1.62849e-06 
-2.72983e-06 -5.5935e-06 3.21994e-06 7.25118e-06 3.51455e-06 -6.38937e-06 1.86795e-07 2.62826e-06 3.3199e-06 
-8.5266e-06 7.269e-06 1.07747e-05 1.05398e-05 2.53638e-06 1.05933e-06 1.35319e-05 -9.96512e-06 -7.46688e-06 
-7.90772e-06 -4.08509e-06 -3.09542e-06 -1.17104e-05 1.46816e-06 -6.55823e-06 8.09362e-06 -8.30674e-06 5.05899e-06 
-6.51976e-06 -3.99047e-06 -1.05428e-05 3.69499e-06 -4.7441e-06 -7.10156e-06 -1.11902e-05 -9.35492e-06 -7.08459e-06 
2.61184e-06 -9.59579e-06 -3.1741e-06 -8.83416e-06 3.53891e-06 -1.00623e-05 1.28393e-06 -5.97676e-06 2.49303e-06 
-4.34593e-06 -2.35484e-06 -3.79152e-06 8.15194e-06 -7.53338e-06 -9.01003e-06 -1.06122e-05 -1.6687e-06 -3.88079e-06 
-8.64305e-06 8.56175e-06 3.08842e-06 2.8861e-06 3.59273e-06 4.40758e-06 9.47278e-06 -6.38622e-06 5.71828e-07 
-1.09527e-05 7.21777e-06 -1.64307e-06 -4.98404e-06 1.69409e-06 4.0008e-06 -2.8865e-07 4.75882e-06 2.91042e-06 
4.73733e-06 -4.79663e-08 -9.47321e-07 -1.98694e-06 -8.91258e-06 -0.001516 -0.00231595 0.00369498 -6.00475e-06 
0.000214595 -0.00014855 0.00017166 0.000189199 9.26039e-05 1.99312e-05 0.000166687 0.00012943 -6.64483e-05 
4.92747e-05 1.27034e-05 -6.05582e-05 -2.37481e-05 1.94876e-05 2.3711e-05 4.81503e-05 1.5839e-06 -6.08623e-07 
3.97892e-05 1.95838e-05 1.57557e-05 4.5107e-05 2.93749e-05 -3.04721e-06 1.82016e-05 1.32693e-05 1.62295e-05 
5.16336e-05 2.78062e-06 2.49815e-05 2.85315e-05 -1.86224e-05 2.96094e-05 5.2934e-05 1.27696e-06 3.24083e-05 
5.34641e-05 2.74111e-05 1.01559e-05 3.63448e-05 1.68659e-05 5.6613e-05 5.58843e-05 2.27719e-05 6.4003e-05 
5.21881e-05 2.38082e-05 3.55051e-05 3.07579e-05 -3.54631e-06 4.83716e-05 1.34097e-05 -6.53005e-06 2.1434e-05 
1.49813e-05 2.27816e-05 1.70591e-05 9.72819e-08 1.43596e-05 2.67851e-05 3.03893e-05 -7.1586e-06 -9.94627e-06 
4.2282e-06 9.88183e-06 -1.11002e-05 -3.46925e-05 3.00555e-05 -5.2404e-05 -5.33251e-05 -2.30489e-05 -2.84484e-05 
-2.02935e-05 -2.76553e-05 -4.85215e-05 -3.14056e-05 -1.45133e-05 -2.6499e-05 -2.12167e-05 5.02042e-06 -3.44806e-05 
-2.18349e-05 1.22782e-05 -1.09535e-05 -2.29647e-06 1.83664e-06 -1.34684e-05 -1.0928e-05 1.97731e-06 -2.1963e-05 
-4.24101e-07 -5.56795e-06 -1.07995e-05 -6.23468e-06 9.80219e-07 7.68332e-06 1.10877e-05 -1.9724e-06 4.53427e-06 
8.07472e-06 5.42269e-06 7.43936e-06 8.90032e-06 7.39036e-06 5.38145e-06 9.50349e-06 6.71707e-06 1.56679e-05 
1.46817e-05 8.26121e-06 1.56643e-05 1.02525e-05 9.17226e-06 1.15431e-05 1.93577e-06 1.14623e-05 2.33673e-06 
2.09006e-06 7.22745e-06 4.96755e-06 4.00335e-06 -5.96612e-06 1.16093e-05 2.26147e-05 4.50995e-06 -4.89531e-06 
0.00403854 0.0086372 0.000606333 0.00337905 0.00114281 0.000361705 -4.20889e-06 -7.28412e-07 -2.93825e-06 
2.07155e-07 -3.29424e-06 -1.625e-07 -1.53513e-06 -1.23681e-06 2.50679e-07 5.36424e-06 4.53832e-07 5.08456e-06 
6.82385e-06 3.48021e-06 3.28002e-06 6.58326e-06 4.50753e-06 8.72779e-06 8.29733e-06 6.19586e-06 5.49534e-06 
1.31019e-06 5.38749e-06 1.52498e-06 1.3811e-06 4.73029e-06 7.03499e-06 -6.52124e-06 -1.9093e-06 -1.91969e-06 
-8.88453e-06 1.20578e-06 6.59134e-06 -1.94301e-06 1.06621e-06 -9.03297e-06 -2.06255e-05 2.72802e-06 -1.40602e-05 
-1.31101e-05 1.26557e-05 -1.87276e-05 -2.82188e-05 -5.35088e-07 -1.9968e-05 -2.84258e-05 -9.18934e-06 -1.34408e-05 
-1.93447e-05 -4.96112e-06 -2.69634e-05 -2.43755e-05 -1.37647e-05 -1.7472e-05 -5.96613e-06 -9.92758e-06 -6.53326e-06 
2.40628e-06 -3.91538e-06 -1.28266e-05 -3.84238e-07 1.90642e-06 -1.73018e-05 -1.09132e-05 -1.00681e-05 -2.21623e-05 
1.43931e-05 -8.62893e-06 -6.89934e-06 7.8164e-07 -1.56864e-07 2.45907e-05 4.96064e-05 -1.71517e-05 3.13051e-05 
4.61814e-05 1.33248e-05 2.88507e-05 2.76555e-05 1.22212e-05 4.16739e-05 2.93611e-05 2.17192e-05 2.59673e-05 
1.08104e-05 -4.30732e-06 2.03507e-05 2.27471e-05 -1.08861e-05 1.55525e-05 2.27566e-05 1.21341e-05 4.63106e-05 
1.2152e-05 1.72681e-05 1.51366e-05 9.09689e-06 -6.09754e-06 3.45565e-05 4.01324e-07 -1.14998e-05 1.08381e-05 
-7.79418e-07 6.98547e-06 2.83884e-05 1.54815e-05 2.22869e-05 2.67346e-05 -2.63013e-05 3.96988e-05 -4.5097e-07 
-4.10568e-05 4.47864e-05 3.81721e-05 -8.09612e-05 2.01289e-05 0.000162302 0.000100452 4.5963e-05 0.000126743 
2.43373e-06 0.000118717 0.000214072 0.000323464 0.000546055 0.000162557 0.00753723 0.000159842 0.00150447 
0.00554883 0.0049727 0.00432908 0.00216815 -0.000163072 0.00277648 0.00358785 -0.000423898 0.00177198 
0.00427638 -0.000493398 0.00706359 0.00876474 0.000642497 0.0082903 0.00144418 0.000162093 0.00418899 
0.00232112 -0.0006019 0.00307095 0.0031065 -0.000489857 0.00164605 0.00545316 -0.000504725 0.00759697 
0.008163 0.000452501 0.0076748 0.00453916 -0.000172566 0.00484128 0.00224344 -0.000143185 0.0033787 
0.00353561 -0.000417404 0.00224986 0.00430575 -0.000525499 0.00608987 0.00887305 0.000372358 0.00921978 
0.00667005 0.00106111 0.00531314 0.00545909 0.00153284 0.00319785 0.00265402 0.000359858 0.00305718 
0.00368216 -0.000533471 0.00217197 0.00410797 -0.00044775 0.00643207 0.00923092 0.000444639 0.00965776 
0.00651639 0.00125574 0.00428424 0.00211613 0.000754056 0.00408706 0.00305709 -0.000392896 0.00338535 
0.00306153 -0.000254974 -0.00086587 -0.00250857 -0.000228948 -0.00333114 -0.00360282 -0.00204901 -0.00132878 
-0.000485866 -0.00107109 -0.00105369 -0.000126167 -0.000817449 -0.00111871 4.06828e-05 -0.000537599 -0.000884025 
0.000135844 -0.000564883 -0.000867739 6.8095e-05 -0.00146806 -0.000935623 0.000126065 -0.00400112 -0.00119004 
0.000233333 -0.00375507 -0.00536792 -0.000663342 -0.00068839 -8.93452e-05 -0.00104178 -7.7112e-05 -0.00129353 
-0.00135522 -0.00130014 -0.00015644 -0.00159889 -0.00034936 -0.000652972 -0.000334095 0.000228143 -0.000962576 
-0.000457476 0.000241163 -0.000886133 -0.000919824 7.89433e-05 -0.000828516 -0.00110413 -0.000191377 -0.000290344 
-0.000990877 -0.000178991 -0.000132092 -0.000277582 4.75248e-05 -0.000651955 -0.000717403 0.000717625 0.00153107 
0.00102719 0.000311012 0.000576844 -0.000144641 -0.000346955 9.06734e-06 0.000408028 0.000748439 0.000629206 
0.0013405 -0.000239718 0.000717883 0.00123855 -0.000182361 0.000739972 0.00095719 -0.00013732 0.000890939 
0.000681566 -0.000110592 0.00245761 0.000562104 -6.30075e-05 0.00304259 0.00141394 0.000310683 0.00206421 
0.00263218 0.000744607 0.000789018 0.00163756 0.000805414 -0.000354332 0.000230528 0.000467838 0.000399553 
0.000806589 0.000208679 -2.85499e-05 0.000630019 0.000584032 -0.000139902 0.000811937 0.000929355 0.00012208 
2.7226e-05 0.000970907 0.000134915 0.000602222 0.000152417 -5.03892e-05 0.000999448 0.000577377 0.000235735 
0.000381045 -1.08929e-05 -0.00191643 -0.000269677 0.000233099 0.000230145 0.000449087 0.000929945 -0.000229174 
-0.000262162 0.000509924 0.000344555 0.000148093 5.84836e-05 0.00166011 -5.94189e-05 0.000680191 -1.2354e-05 
0.000670871 -0.000533104 -0.00331723 -0.000223931 2.22851e-07 0.000719891 0.00389091 0.000928188 -0.000129504 
0.000257348 -0.000249552 -0.00010169 -0.00161698 0.000198214 -0.000323176 0.00267802 9.72333e-05 -0.000603992 
-6.40044e-06 -0.000300465 -3.60248e-06 1.79148e-06 7.19347e-06 -9.64227e-06 -2.58268e-06 6.08079e-07 2.68929e-06 
-1.3265e-05 1.35663e-07 4.51295e-06 2.8677e-06 -2.312e-06 -7.15257e-07 1.76231e-06 -4.15649e-06 -3.44747e-06 
-4.08286e-06 2.84505e-06 -6.85089e-06 -6.71589e-06 -6.71885e-06 7.57521e-07 2.87598e-06 -1.23747e-05 -6.31466e-06 
-8.42753e-06 -6.6717e-06 -4.40144e-06 -1.08738e-05 1.11265e-06 -7.26233e-06 8.54885e-07 -4.04378e-06 -2.854e-06 
-1.6238e-06 -2.59138e-06 -8.44656e-06 -7.37531e-06 -6.32665e-07 -6.58856e-06 -4.53721e-06 -7.49247e-06 1.11603e-07 
7.20978e-06 -4.29762e-06 -2.22752e-06 -9.10627e-06 -1.87123e-06 -4.60937e-06 -4.63436e-06 8.33754e-06 -3.24342e-06 
5.10144e-06 3.63009e-06 1.37307e-06 3.54192e-06 -6.31948e-06 3.77597e-06 7.65735e-06 5.51228e-06 -6.24407e-06 
-4.05946e-06 -8.48514e-07 3.87635e-07 -7.03364e-06 1.05907e-06 3.46163e-06 3.43124e-06 -3.22485e-07 3.3278e-06 
3.37059e-06 1.17398e-06 9.53332e-05 0.000162722 2.41578e-05 -4.68116e-05 -8.41944e-05 -0.000119653 2.01362e-05 
-5.76362e-06 0.000248975 -1.57955e-05 -7.94159e-05 4.02002e-05 0.000116889 -2.78603e-05 -1.30285e-05 4.85371e-05 
-8.24744e-05 2.02552e-05 -1.75129e-05 1.29727e-05 4.64989e-05 -2.1305e-05 1.64045e-05 1.42459e-05 -1.55557e-05 
-2.78569e-06 1.16315e-05 1.57926e-05 1.86792e-05 2.90975e-05 1.59487e-05 -2.98222e-06 7.27968e-07 6.08179e-06 
1.42513e-05 4.00641e-05 9.86667e-06 1.62003e-05 -9.76149e-07 -1.42114e-05 2.55703e-05 2.75678e-05 -4.27363e-06 
3.31059e-05 4.0561e-05 1.17611e-05 1.17269e-05 1.39456e-05 1.43413e-05 2.00058e-05 1.83551e-05 2.19528e-05 
-7.25062e-06 1.06077e-05 -2.63954e-05 1.39127e-05 4.31987e-06 -2.22633e-05 -1.72902e-05 5.65465e-06 -1.45806e-05 
-1.54771e-05 4.16033e-05 -2.08413e-05 -8.44744e-07 9.12756e-06 -8.84033e-06 -1.40454e-05 3.00739e-06 -5.72522e-05 
1.40583e-06 -1.65877e-05 5.99846e-05 -3.99198e-05 -4.35946e-05 -4.1807e-06 -1.90213e-05 -3.15962e-05 9.37527e-06 
7.82369e-06 -2.86471e-06 -5.22997e-06 4.47046e-07 -8.75591e-06 -1.55176e-05 -4.11058e-07 2.45637e-06 1.94905e-06 
-3.87003e-06 -5.20069e-06 7.28403e-06 3.9895e-06 -7.90948e-06 -7.85996e-07 4.42451e-07 -7.79016e-06 -2.97211e-06 
-4.43618e-06 3.04724e-06 -5.59299e-07 4.61789e-06 4.43453e-06 -6.65557e-07 2.99435e-06 1.59964e-06 -4.03484e-06 
3.77511e-06 7.62526e-07 1.29345e-06 4.38969e-06 4.89638e-06 1.92326e-06 4.63381e-06 5.61515e-06 6.42962e-06 
5.3312e-06 5.95563e-06 4.40149e-06 3.88484e-06 2.37883e-06 -2.35076e-07 1.33874e-06 -2.22058e-07 4.62515e-06 
-2.79407e-07 6.26032e-06 9.81602e-07 -1.04468e-05 -3.6399e-06 5.26079e-05 0.000153664 3.94347e-07 -2.53572e-06 
-8.19772e-07 9.41019e-07 -6.59621e-06 -3.11293e-06 -5.00883e-06 -1.55411e-06 1.50139e-06 1.77012e-06 -8.52878e-07 
3.00469e-06 1.72549e-06 3.03992e-06 -7.9388e-07 2.06246e-06 3.47913e-06 -3.24315e-06 -2.3363e-06 2.52672e-06 
-4.94297e-06 1.53273e-06 3.28275e-06 -1.5577e-07 -1.83202e-06 -1.45175e-07 -4.85785e-06 -5.7257e-06 2.67581e-06 
5.27758e-06 5.46533e-06 1.48027e-06 -4.51966e-06 -1.3184e-05 -4.50597e-06 -9.89651e-06 3.24791e-06 8.17128e-06 
-9.16086e-06 -6.03207e-06 4.62617e-06 -9.62271e-06 -9.77823e-06 -1.51822e-06 -3.25474e-06 -6.45203e-07 -4.51055e-06 
1.98625e-06 -3.39118e-06 -7.60573e-06 1.85941e-05 6.74856e-06 1.10501e-05 5.2984e-06 1.19835e-05 1.20573e-06 
1.01615e-05 -9.43118e-06 6.67421e-06 6.99427e-06 -1.53427e-05 -2.33461e-05 9.61067e-06 1.59339e-05 1.89061e-06 
1.06045e-05 6.09227e-06 -5.14712e-06 1.0832e-05 3.23508e-06 -8.36874e-07 9.74489e-06 1.95515e-05 6.06394e-06 
2.05888e-06 2.21718e-06 1.52761e-05 -2.09591e-06 -1.39423e-07 1.33952e-05 -4.4927e-06 -1.62141e-05 -4.52987e-06 
-8.87855e-06 2.95985e-06 -9.46539e-06 -6.49579e-06 3.70938e-06 1.19128e-05 -1.26569e-05 -9.0482e-06 7.71694e-06 
-2.40796e-06 -3.15189e-06 -3.59446e-06 1.08339e-05 -2.07357e-05 1.46608e-06 -2.64922e-05 -9.12437e-06 1.66124e-05 
1.58877e-05 8.84811e-06 6.42849e-06 -6.5383e-05 -5.96966e-05 -1.40384e-05 -9.22058e-05 -3.62252e-06 2.72006e-05 
-4.41105e-06 1.26128e-06 2.72255e-05 0.000146929 0.000138776 -3.92253e-05 3.50341e-05 -2.6713e-05 -8.1347e-05 
0.000786177 -0.00012269 -5.34514e-05 -9.53156e-05 -4.58428e-05 -0.000122427 0.000194871 -0.000172218 0.000106262 
2.62226e-05 -3.1044e-05 -4.90415e-05 0.000436384 -1.41746e-05 0.000467208 -0.000199492 -3.82626e-05 -0.000186353 
7.45175e-05 -5.91474e-05 1.22599e-05 1.74448e-05 -8.04954e-05 4.15684e-05 -9.73708e-05 -2.38608e-05 -7.42811e-05 
0.000304093 -8.2561e-05 0.000289846 -0.000184958 -5.64263e-05 8.03707e-05 -9.06682e-05 -5.99462e-05 -4.874e-05 
8.72812e-05 -7.68851e-05 8.44799e-05 -8.97652e-05 -6.7182e-05 -0.000194875 0.000406073 -7.50461e-05 0.000451464 
0.000853414 -5.88921e-05 0.000725593 0.000597418 -4.96136e-05 0.000467535 -0.000176033 2.43116e-05 -2.6874e-05 
8.58934e-05 -6.6073e-05 0.000109569 -0.00012271 -8.83901e-05 -0.000201717 0.000473945 -8.30804e-05 0.000526259 
0.000781547 -3.40378e-05 0.000738594 -7.43103e-05 -3.227e-05 6.88814e-05 0.000239167 -6.82373e-06 9.78279e-05 
-5.10528e-05 -0.000145092 -5.2835e-05 -0.000198557 -4.52939e-05 1.3158e-05 7.8716e-05 -6.30783e-05 -4.37192e-05 
-2.80198e-05 2.72218e-05 -1.33217e-06 -4.48753e-06 -8.08652e-05 -5.81891e-05 1.5228e-05 -4.91822e-06 0.000153374 
3.91735e-05 -0.00072369 0.000124447 0.000130659 -6.05319e-05 3.85571e-05 -0.000344093 0.000344222 -5.26891e-05 
7.423e-06 1.08386e-05 3.34013e-05 0.000156905 5.01512e-05 -5.4174e-05 -2.50595e-05 -3.12469e-05 0.000105638 
-7.37999e-05 -1.88357e-05 4.71418e-05 -2.42395e-05 -5.07022e-05 -0.000269815 -0.000720843 -0.00137628 -0.000704045 
-2.72109e-05 0.000140852 -5.59288e-05 -0.000263524 -6.52429e-05 2.32615e-05 -2.72549e-05 -7.07442e-06 2.69163e-05 
1.54225e-05 -5.83099e-05 2.77574e-05 1.41531e-05 5.91804e-05 3.26038e-05 5.66564e-06 0.000198216 1.15353e-06 
9.2194e-05 -0.000173778 -0.000301733 -0.000377503 -0.000217579 4.98578e-05 -0.000208407 1.67963e-06 -3.97091e-06 
7.65437e-05 2.58799e-05 2.49813e-05 -6.4945e-05 1.5717e-05 6.61886e-05 -1.4913e-05 -2.91549e-05 -4.32314e-05 
-3.15029e-05 5.30885e-05 -1.57687e-05 5.07852e-06 2.5681e-06 3.73735e-05 0.000127852 -0.000129391 9.80321e-05 
0.000355166 -0.000255554 3.51436e-05 0.000274428 7.33291e-05 3.06802e-05 -4.15284e-05 -5.15728e-06 -8.30092e-05 
-9.9111e-05 0.000235288 -0.00021012 9.41752e-05 -6.80377e-05 -4.28049e-07 6.59013e-05 2.97593e-05 -2.67041e-05 
9.41813e-05 -0.000333721 -0.000395856 -0.00046006 -0.000161189 -2.59419e-05 -6.6992e-05 4.63818e-05 -0.00034168 
0.000310916 -7.93013e-06 0.000110634 -0.000107398 -8.17494e-05 0.000453797 -1.49364e-05 3.51325e-05 6.38538e-05 
0.000266088 0.000112914 5.04467e-05 -0.000207256 0.0001174 0.000105908 -0.000157341 -1.77908e-05 4.39464e-05 
-7.1634e-05 1.96574e-05 -2.45501e-06 -0.000152715 -8.03668e-05 3.71896e-05 -3.66843e-06 -0.000158534 -7.88199e-05 
7.75265e-06 0.000166152 5.18745e-05 0.000236435 0.000188048 -0.000118693 5.48323e-06 -8.41009e-06 8.01663e-05 
-2.15608e-05 6.31983e-06 -7.07809e-06 -5.40324e-06 -3.5598e-06 4.34165e-06 2.88057e-07 -4.88394e-06 4.40953e-06 
-6.39596e-06 -9.10553e-06 3.23977e-06 2.17849e-06 2.79132e-06 -3.24377e-06 -3.40745e-06 -6.63159e-06 -3.12897e-06 
-2.47335e-06 -1.62864e-05 -6.00079e-08 -1.33834e-05 -7.09474e-06 3.04852e-06 -6.15085e-06 -1.09466e-05 -2.26008e-06 
-4.35858e-08 4.6353e-06 -4.73529e-06 9.95962e-06 -7.49308e-07 -4.38549e-06 -8.48971e-06 -1.56226e-06 -8.91163e-06 
-3.17594e-06 -9.0946e-06 -4.7855e-06 2.71382e-06 1.88892e-06 -8.43183e-07 1.13571e-05 2.97338e-06 3.65624e-07 
-8.22336e-06 5.75275e-06 -4.47555e-06 3.81711e-06 5.33049e-06 -3.05007e-06 -5.92464e-06 -2.04732e-06 1.58377e-06 
5.66115e-06 -5.30718e-07 -1.19054e-07 -8.47357e-06 1.24728e-06 -2.11715e-06 2.19219e-08 -1.59881e-06 -1.52256e-08 
-2.73838e-06 2.4195e-06 3.12601e-05 5.01508e-05 -7.02667e-05 -4.49687e-05 -4.83426e-05 -8.3063e-06 -1.72974e-05 
3.19732e-06 2.82423e-05 -4.49593e-05 -5.3582e-06 -1.37239e-05 2.70403e-05 -1.86718e-05 6.77472e-06 -4.08036e-05 
7.39655e-06 -1.40585e-05 -1.20059e-06 -3.09393e-05 -1.40957e-05 1.67356e-05 4.36595e-06 1.40899e-05 1.14242e-05 
2.2175e-05 1.76354e-05 1.37816e-05 5.50928e-06 5.76618e-06 8.47562e-06 -1.37083e-05 -7.84276e-06 -1.36399e-05 
2.0132e-06 -5.01361e-06 4.69011e-06 2.27819e-05 8.68116e-06 1.49935e-05 2.90471e-05 3.33725e-05 1.33932e-05 
1.04126e-05 -2.21829e-05 3.19977e-06 6.11851e-05 6.99867e-05 -2.18217e-05 -8.6284e-05 -2.58315e-05 -8.40287e-05 
-3.29779e-05 -6.79932e-05 -7.17511e-05 9.59731e-06 3.12728e-05 -3.48231e-06 -6.80365e-05 5.43606e-06 -3.09469e-07 
7.54196e-06 1.8346e-05 -1.53442e-07 1.31525e-05 -2.1584e-07 -1.47173e-06 1.46418e-05 5.15952e-06 -2.22959e-06 
-2.20743e-06 8.77968e-06 -1.07078e-05 4.84284e-07 1.03054e-05 -1.61904e-07 1.11626e-06 1.32145e-06 -4.12889e-06 
-1.23118e-06 8.98009e-07 -4.53702e-06 1.00158e-07 2.86431e-06 -2.20865e-06 -4.4799e-06 2.60164e-06 -3.32984e-06 
-2.55519e-06 -2.86477e-06 4.94557e-07 2.91037e-06 3.88454e-06 4.77332e-07 3.94622e-07 7.85257e-07 3.20863e-06 
-4.57984e-06 -2.54571e-08 -4.37713e-06 -1.05231e-06 -1.05888e-05 -1.26797e-05 -8.71656e-05 -4.5676e-06 -4.25016e-06 
-4.92678e-06 -2.00219e-06 1.03925e-06 3.65381e-06 -3.2229e-06 1.23438e-06 1.97668e-06 3.15459e-06 -3.71759e-07 
1.52815e-06 1.34496e-06 -3.35756e-06 -1.75268e-06 -5.57057e-07 -5.43407e-06 3.38569e-06 1.72092e-06 -2.21191e-06 
1.8844e-06 1.65162e-07 -2.526e-06 -1.20449e-06 8.72754e-07 2.06377e-06 6.1378e-06 -5.15324e-07 -3.02573e-06 
-4.72781e-06 -4.60881e-06 -8.22198e-06 5.87184e-06 7.80074e-06 -1.13112e-05 -4.34381e-06 9.24722e-06 -3.23326e-06 
-2.68893e-06 7.17724e-06 -3.74303e-06 1.87949e-05 9.26265e-06 3.62536e-05 2.47617e-05 -7.44269e-06 3.1161e-05 
1.5814e-05 4.44645e-06 2.21823e-05 1.25956e-05 6.16961e-06 5.08548e-06 -2.19902e-05 6.69593e-06 -1.75271e-06 
1.40631e-05 -2.72349e-06 -1.34662e-05 -1.06819e-05 -4.92229e-06 -1.49603e-06 -2.31713e-05 -1.51148e-05 3.40044e-05 
-3.39641e-05 -1.57867e-05 -1.42965e-05 -1.97824e-05 -3.30016e-05 -1.4258e-05 -3.64211e-05 -1.81092e-05 2.81708e-06 
-1.88702e-05 -9.01683e-06 1.73456e-05 -3.61293e-05 -1.93588e-05 -4.12639e-06 -2.49015e-05 -1.23128e-05 -4.32272e-06 
-1.36806e-05 -1.08065e-05 7.21231e-06 1.3557e-05 2.96831e-05 1.34019e-05 -1.15246e-05 3.79399e-06 -7.85617e-06 
-5.38882e-05 -2.81937e-05 -2.90159e-05 -0.000106589 0.000135024 -3.04168e-05 0.000164826 0.000124552 2.13661e-05 
-6.64941e-05 0.000145643 0.000146768 4.82208e-05 -9.28832e-06 -6.43132e-05 6.75279e-05 -5.40202e-05 -2.13639e-05 
-0.000119522 -6.33125e-05 -9.10286e-06 2.38588e-05 -5.94995e-05 -1.83833e-05 -3.748e-06 -2.57879e-05 -4.52383e-05 
-6.87162e-06 -2.90099e-05 -5.58285e-05 -1.43334e-05 -2.53932e-05 -3.20133e-05 -1.68721e-06 -3.86156e-05 -2.32754e-05 
-1.94625e-05 -1.88208e-05 -3.76296e-05 -1.77301e-06 -1.91173e-05 -3.70353e-05 3.78302e-06 -2.1534e-05 -1.68952e-05 
-8.44718e-07 -2.05751e-05 -5.63386e-05 -6.01647e-06 -6.42017e-05 -3.6135e-05 3.50876e-06 -4.28882e-05 -5.59596e-06 
-7.79159e-06 -3.3441e-06 1.69895e-05 -4.0093e-05 1.88244e-05 -5.14062e-05 -1.09195e-05 -2.50615e-05 -8.19891e-05 
5.23896e-06 -6.13914e-05 -9.24718e-06 -2.34634e-05 -5.32369e-05 -5.06483e-06 -1.13243e-05 -2.84186e-05 7.09011e-06 
-1.42071e-05 5.04856e-05 -8.76725e-05 1.3137e-05 -2.06692e-06 -4.26714e-05 -0.000169271 -5.87904e-05 3.07015e-05 
1.16097e-05 -9.40114e-06 -5.58801e-06 -7.22005e-06 -2.76898e-06 -0.000258326 -9.04187e-05 5.01752e-05 1.7082e-05 
-2.43668e-05 3.65973e-05 -1.87375e-05 -5.61636e-06 1.75e-05 6.38407e-06 5.6612e-05 3.45645e-07 0.000155261 
-0.000146176 5.14436e-06 5.33569e-05 -1.17159e-06 0.000184918 -0.000124826 -1.03873e-05 2.60862e-05 1.95922e-05 
2.49246e-05 -3.59201e-05 5.98988e-05 -2.72609e-05 6.70792e-06 -9.08133e-06 3.77308e-05 9.87857e-06 -0.000132251 
3.06573e-05 4.12094e-05 5.0492e-06 2.08548e-05 4.47985e-05 -4.79252e-05 3.53159e-05 -3.44017e-05 2.78402e-05 
-2.02224e-05 -3.89228e-05 -7.24955e-06 0.000148336 0.000350245 -7.85883e-05 -4.90183e-06 3.95154e-05 4.81569e-07 
-8.66843e-06 -4.93096e-05 4.59858e-06 1.37264e-05 7.72558e-06 -5.42746e-05 -1.01273e-05 -4.04419e-05 3.93739e-05 
4.32856e-05 -3.07045e-07 -0.00015477 3.20937e-05 4.72049e-05 -7.30763e-05 -3.89328e-05 -7.38659e-06 1.16493e-05 
-4.18092e-07 -6.14959e-05 5.23037e-06 2.39039e-05 -5.97299e-05 1.50465e-05 -1.91755e-05 -2.84295e-05 -0.000144668 
-5.19813e-05 -7.41742e-05 2.40922e-06 4.75118e-06 -1.44728e-05 -1.1951e-05 0.000128652 5.74864e-05 0.000115374 
-6.35203e-05 -0.0001632 0.000201757 -5.91702e-05 -4.00586e-07 -9.48714e-06 -5.76648e-06 2.89801e-05 -1.71674e-06 
-1.41593e-05 3.28032e-05 0.000196602 -0.000164017 -2.66779e-06 0.000128128 -6.80157e-05 2.44567e-05 -5.4602e-05 
1.28492e-06 2.69099e-05 -1.23217e-05 2.28798e-05 2.96433e-05 -5.60076e-05 7.59228e-06 5.53775e-05 1.7754e-05 
6.19743e-05 -1.61854e-05 9.46565e-06 -9.54711e-05 0.000106219 -3.96751e-05 -0.000228086 -0.000273524 -1.98888e-05 
-6.68638e-06 -6.84858e-06 0.000200787 -2.97911e-06 -0.0003157 -4.71964e-06 2.78446e-05 0.000136685 6.86937e-05 
-2.13569e-05 2.95527e-05 -1.57167e-05 -2.26112e-06 6.41775e-05 -0.000120197 5.94177e-05 -0.000102924 3.11476e-05 
1.81268e-05 -1.95329e-05 6.34135e-06 -0.000110226 -0.000133354 5.64769e-06 -4.97406e-05 0.000105164 -1.0088e-05 
2.02561e-06 -1.01743e-05 2.44511e-07 -1.04916e-06 3.55731e-06 -3.42411e-06 8.22561e-06 6.38509e-06 4.11879e-06 
-1.83438e-05 -1.47302e-05 -1.255e-05 -1.97584e-05 8.48881e-06 0.00221072 -0.00119434 -5.51822e-06 9.3582e-06 
1.75868e-05 -1.04243e-05 1.42587e-05 -1.27213e-05 -1.50016e-05 -1.0009e-05 9.33103e-06 7.35667e-06 6.76472e-06 
1.97198e-06 1.35675e-05 -0.00174184 -0.00588162 -7.98834e-06 -2.5661e-06 1.40938e-05 -7.82395e-06 -5.3527e-06 
-1.97847e-06 5.28754e-06 8.21497e-06 -1.1555e-05 2.32583e-06 -5.76391e-06 -2.72407e-06 3.06559e-06 -2.63561e-06 
1.90201e-05 -1.92216e-07 -3.15856e-06 -2.49982e-06 -4.37624e-06 4.92908e-06 -8.52579e-06 2.34184e-06 -9.13833e-07 
-7.28121e-06 5.77362e-06 -5.36085e-06 4.41903e-06 9.75957e-06 -1.76307e-06 2.7331e-05 -6.25649e-05 0.000181684 
4.63807e-05 6.77213e-06 -1.83249e-05 1.06451e-05 -1.09928e-06 -4.05223e-05 3.02927e-05 3.0462e-05 8.09453e-06 
1.95968e-05 -3.45677e-06 -3.73565e-06 -8.13409e-06 -8.89115e-06 -1.27846e-05 6.53634e-06 8.58804e-06 7.12137e-07 
4.11908e-06 1.9269e-06 -1.85824e-05 8.79517e-06 -2.66879e-06 -5.15207e-06 -6.62161e-07 -1.50458e-05 -3.77562e-05 
-3.98254e-06 -1.83438e-06 -1.79405e-05 -2.46016e-06 2.48442e-05 9.99128e-06 2.05395e-05 7.35341e-06 6.92152e-05 
1.98171e-05 1.55337e-05 3.03244e-05 2.29867e-05 1.96979e-05 -2.47073e-06 9.72757e-06 -5.26775e-06 -2.88835e-07 
8.57071e-06 -1.93675e-06 7.17583e-06 1.21115e-07 1.87328e-06 7.47205e-07 -4.16577e-06 -8.8949e-06 -5.18175e-06 
-9.98362e-06 -1.65766e-06 -1.4283e-05 4.24079e-06 -4.78352e-07 -1.46546e-05 -2.59786e-06 3.37334e-06 -9.47918e-06 
-2.75705e-06 -2.07912e-06 -2.96374e-06 -9.3378e-06 -4.13729e-06 1.40475e-05 -8.90433e-06 -4.16948e-06 -9.1681e-06 
-2.75285e-06 3.98504e-07 -4.16322e-05 0.000114221 -3.01558e-05 -5.28753e-06 -4.34537e-07 9.45105e-07 8.23057e-08 
-9.98811e-07 2.79526e-06 2.28988e-06 3.175e-08 1.73948e-06 3.83826e-06 -4.18026e-07 -6.81432e-07 1.09464e-06 
-2.33383e-06 -4.06779e-06 4.38731e-06 -3.90066e-06 -3.6469e-06 3.41326e-06 -1.93229e-06 2.4728e-07 7.35609e-06 
1.37993e-06 5.22516e-06 1.62925e-05 4.51094e-06 6.10863e-06 8.46982e-06 -1.37068e-05 -4.30183e-06 -3.01465e-06 
-1.54216e-05 -2.09852e-05 1.04144e-06 8.93123e-06 2.84778e-06 2.34788e-05 8.91409e-06 1.62906e-05 1.16555e-05 
-7.0588e-05 3.4658e-05 -1.81105e-05 -2.45251e-05 -1.24716e-05 -6.61132e-06 5.83778e-06 -4.71585e-05 -3.9148e-05 
5.19107e-06 -2.80317e-05 -3.4728e-05 -7.58165e-06 1.17695e-05 -6.01245e-06 2.60722e-06 1.40265e-06 -5.0121e-06 
1.93135e-06 -3.86262e-05 -1.97094e-05 7.69087e-06 -4.28479e-05 -9.47423e-06 6.46382e-06 -1.43332e-05 -9.92478e-06 
2.37136e-06 -1.93479e-05 2.88931e-06 2.18281e-06 1.65363e-06 2.2664e-05 7.08284e-06 -2.27238e-06 5.36413e-06 
-7.45077e-06 2.22737e-07 3.76185e-05 -1.24212e-05 1.25855e-06 3.30357e-05 4.83938e-05 -1.085e-05 -5.48888e-06 
-7.19041e-05 -9.91535e-06 8.92693e-05 2.93114e-05 -1.73428e-05 -3.66819e-06 -1.22246e-05 -7.49928e-06 -2.65796e-05 
-7.97435e-06 -5.47906e-06 -1.68418e-05 -1.27072e-05 -5.31263e-06 -1.18924e-06 -1.77795e-05 -1.43025e-05 -6.34486e-06 
-1.04437e-05 -1.23039e-05 -1.86174e-05 1.65213e-05 1.64723e-06 -8.66917e-06 -8.52933e-06 -1.21165e-05 -6.45451e-06 
3.53233e-06 -2.72295e-05 -1.97298e-05 1.2354e-05 -1.34617e-05 -1.38137e-05 7.09413e-07 -9.20899e-06 -7.65915e-06 
-1.16774e-05 -2.15504e-05 -2.32243e-05 -4.16352e-05 -8.88776e-06 -3.59161e-05 2.09506e-05 -6.43366e-06 -1.53383e-05 
1.04933e-05 4.42825e-06 1.00984e-05 -2.94859e-07 -1.67466e-05 1.11505e-05 1.58185e-05 2.78639e-05 3.63896e-05 
-4.17963e-05 -3.38828e-05 3.78536e-06 -4.06104e-05 -0.000117716 -1.61303e-06 1.41767e-06 4.33892e-06 -4.57522e-05 
2.09776e-05 1.55356e-05 1.455e-05 -1.98653e-05 2.02442e-05 1.20803e-05 4.79891e-05 8.66417e-06 3.92562e-05 
-4.48595e-05 -2.5862e-05 -3.12458e-05 -7.89101e-05 -9.5803e-05 -0.000214172 -0.000125172 4.86876e-06 1.75424e-05 
2.02612e-05 1.95769e-05 -1.85674e-06 3.71929e-05 -1.5294e-05 3.51823e-06 2.69028e-05 -2.22914e-06 -5.95158e-05 
-1.13899e-05 4.59523e-06 3.33339e-06 0.000109315 -0.000133188 -1.79319e-06 -2.87118e-05 0.000144176 -9.7947e-05 
-3.01276e-06 2.64054e-05 0.000106417 -0.000124811 -4.46442e-05 4.3862e-05 6.33217e-05 -2.38209e-06 3.73644e-05 
6.73184e-05 -2.01673e-05 -5.56882e-05 5.2153e-05 5.12086e-07 4.40664e-05 -4.80302e-05 4.06845e-05 1.72914e-05 
-2.26547e-06 2.90748e-05 2.06415e-05 9.68357e-06 1.24001e-05 -1.11741e-06 8.2748e-05 5.02576e-05 -4.33042e-06 
-2.8943e-06 1.96773e-05 5.1922e-05 -4.48351e-05 -3.79133e-05 -6.42784e-05 -4.17711e-06 -2.78547e-05 -3.40034e-05 
2.32488e-05 -3.37411e-06 -3.23905e-05 3.73859e-06 8.64398e-06 2.22255e-05 -3.42013e-05 5.12702e-06 5.58893e-05 
-8.57408e-06 -5.73083e-06 6.23268e-05 3.58768e-05 -2.04393e-05 0.000129368 0.000121613 -0.000101493 4.67226e-05 
4.01873e-05 1.53765e-05 4.12141e-05 2.93163e-05 -1.40885e-05 -1.85716e-05 1.33717e-05 -8.39995e-06 5.75694e-06 
1.10617e-05 -4.11063e-05 3.42523e-05 2.65126e-05 -4.89568e-05 -3.31386e-05 -1.05784e-05 7.12812e-05 2.54827e-05 
-4.86117e-05 1.86796e-05 -2.15041e-05 -7.37584e-05 3.30747e-05 8.36664e-05 2.07614e-05 3.76571e-06 -1.64025e-05 
-5.74647e-05 2.47915e-05 -5.26997e-05 -0.000207119 6.33112e-05 -2.95054e-08 -5.63344e-06 -2.99851e-06 5.75535e-06 
2.31628e-05 3.01946e-06 3.71976e-05 -1.64498e-05 0.000307392 -0.0061441 2.54898e-05 -2.35323e-05 2.663e-05 
1.04465e-05 -6.39551e-06 1.70447e-05 3.18474e-05 -0.000660052 -4.42133e-06 6.09479e-05 1.60314e-05 -6.42243e-05 
-2.67279e-05 6.41563e-05 -0.000176369 0.000125858 0.00128172 0.00202304 -1.45581e-05 -0.00751142 -0.000136059 
-6.26786e-06 3.98795e-05 3.77478e-05 -4.47867e-06 -2.40405e-06 -4.52054e-05 -1.43625e-06 2.53326e-06 3.7045e-05 
1.53141e-05 0.00171813 0.00369861 -7.66025e-06 -2.03617e-06 -4.42067e-06 9.92989e-06 -0.00225689 0.0135326 
-5.01276e-06 -6.03513e-07 -6.21692e-07 1.47467e-06 -2.74136e-05 -2.21378e-06 -3.39626e-05 -1.36136e-05 -6.46496e-06 
2.63197e-06 1.65129e-05 -2.72752e-05 -1.90549e-05 2.04478e-06 -7.70109e-06 1.34384e-06 -1.88003e-06 -1.5978e-05 
1.30514e-05 2.92075e-07 -1.21717e-05 1.42273e-05 -3.18813e-05 -2.20256e-05 -3.45691e-06 -8.81946e-06 1.5934e-05 
5.94064e-06 -8.44505e-06 8.46348e-07 8.77958e-06 8.50803e-06 1.24395e-06 -7.47251e-06 -4.63615e-06 -2.71267e-05 
-2.10241e-05 2.6963e-05 -2.0045e-05 5.65446e-06 -2.97461e-05 6.42725e-06 7.22628e-06 -3.9596e-05 -1.42052e-05 
-5.07199e-06 -2.26525e-05 -1.13979e-05 -1.04671e-05 -1.14371e-06 3.79582e-05 -1.05413e-05 -1.5295e-05 1.03e-05 
5.22455e-06 -6.65216e-06 1.02012e-07 1.60555e-05 8.26028e-06 1.70767e-05 -5.56603e-06 7.19104e-06 -7.96295e-06 
-1.51137e-05 -1.2171e-06 7.38774e-06 -1.82043e-05 -5.76837e-07 2.50098e-05 1.10918e-05 -6.2103e-05 -2.87339e-05 
-5.19988e-05 4.51951e-05 -1.11968e-05 -0.00010213 0.000143346 -4.41108e-05 5.04039e-05 6.70027e-06 4.81373e-07 
4.85265e-06 -2.63327e-07 3.54328e-05 -9.08643e-06 1.76107e-05 2.24781e-05 1.04244e-05 4.29838e-05 1.9354e-06 
1.49636e-05 1.13131e-06 1.26157e-05 -1.20707e-05 1.38056e-05 -5.37365e-06 6.77781e-06 -6.00457e-06 3.79573e-06 
-1.24097e-06 2.18674e-05 6.58146e-06 8.33539e-07 2.23642e-05 1.05072e-05 1.87228e-06 1.46077e-05 -8.22498e-06 
-1.96935e-06 -5.17414e-06 -6.3716e-06 -2.65795e-06 7.45427e-07 -2.86968e-05 2.71209e-06 4.23643e-06 -1.84782e-05 
9.3474e-06 3.21722e-06 3.00097e-05 -3.02346e-05 1.44171e-05 -2.07271e-05 1.92254e-05 9.69483e-06 6.24462e-06 
-1.3261e-05 -7.90318e-06 -3.81631e-06 4.92147e-06 -2.48827e-05 -2.59059e-05 4.56981e-05 7.53206e-06 -1.68442e-05 
3.98335e-05 1.76949e-06 4.21199e-06 4.08359e-06 -7.85177e-06 1.85638e-06 1.59833e-05 -1.07845e-05 -1.76748e-05 
-5.45563e-05 -6.52226e-06 6.83917e-07 1.91348e-05 -1.43369e-05 -7.03617e-07 -9.44374e-06 -5.04176e-06 9.0079e-06 
1.11372e-05 2.53663e-06 2.67443e-05 2.09895e-05 -4.59067e-05 2.96592e-05 1.39842e-06 2.77923e-05 3.24513e-05 
4.38632e-05 2.20366e-05 1.82189e-05 7.48893e-06 -2.571e-05 -2.18721e-06 1.19844e-05 -9.54444e-06 -2.57173e-06 
-4.61732e-06 4.67463e-06 5.20108e-06 2.36048e-06 -8.20621e-06 -5.77353e-06 -1.6718e-05 4.59534e-05 3.43195e-06 
1.09299e-05 -1.56327e-05 -5.27433e-07 -2.96633e-06 -6.37469e-06 5.73026e-06 1.22047e-06 1.11096e-05 -6.77947e-06 
-8.99518e-05 9.50092e-05 -1.35789e-05 -5.43521e-06 6.56447e-06 -1.94053e-05 1.35281e-05 -1.05409e-07 4.0927e-06 
2.46929e-05 -4.43481e-05 4.48831e-06 -1.5052e-05 -0.00013198 0.000113599 3.8144e-05 -3.07706e-06 1.9274e-05 
3.94209e-06 -9.71931e-06 -3.13195e-05 3.98487e-05 -1.84777e-05 -4.2596e-05 -1.48589e-05 3.12548e-06 2.89325e-05 
-2.0339e-06 2.95331e-05 7.34222e-05 -3.21541e-05 -2.04298e-05 -2.09302e-06 -1.43338e-05 -1.34553e-06 1.7729e-05 
-2.14333e-05 2.14407e-05 -6.9476e-06 5.66874e-05 2.04496e-06 -5.08863e-06 -2.72275e-06 1.36009e-05 -1.7276e-05 
-5.7093e-05 2.28396e-05 8.2056e-05 -8.52929e-05 2.72353e-05 5.53997e-05 -3.22091e-05 -8.43833e-05 -0.000106588 
6.90605e-06 -4.84781e-05 -2.81916e-06 -2.47323e-05 -2.11238e-06 -0.000102679 6.70808e-05 -1.54544e-05 5.21192e-06 
6.2625e-07 3.1977e-05 2.0812e-05 8.03173e-05 -4.43372e-06 -3.68899e-05 -1.11406e-05 -3.64396e-05 1.24231e-05 
4.74387e-07 -3.8514e-05 -1.17624e-05 2.74542e-05 2.79602e-05 3.13021e-05 3.17853e-05 2.18661e-05 2.2936e-06 
-5.52872e-05 -2.71878e-05 -1.92455e-06 4.64368e-05 -1.63419e-05 -1.8506e-05 -2.60449e-05 7.6115e-05 5.69649e-07 
-4.39709e-05 6.99126e-06 -4.7163e-07 -0.0105222 -0.000103866 -1.1011e-05 -3.8075e-05 -1.93682e-05 -9.94153e-06 
3.05228e-05 1.38401e-05 -1.29944e-05 -2.6857e-05 -1.72349e-05 1.81204e-06 -4.02464e-05 1.52963e-05 1.86796e-05 
3.85943e-06 4.84229e-06 9.0705e-05 -6.51987e-05 3.27388e-05 -2.24714e-05 1.80199e-05 1.79057e-05 4.02339e-06 
8.06998e-06 3.40013e-06 1.76771e-05 0.000104616 -3.8318e-05 -2.69471e-05 3.22966e-05 8.60263e-06 -6.35831e-06 
1.72364e-05 1.19958e-05 5.8803e-06 4.51361e-06 -3.72721e-05 2.9735e-05 -1.97258e-05 -2.22942e-05 -6.65653e-06 
1.46003e-05 3.65147e-05 3.96145e-06 -5.82795e-06 -6.87603e-05 9.09988e-05 -8.7306e-06 -2.51906e-05 5.36737e-05 
3.19116e-05 1.84792e-07 2.68702e-05 1.77666e-05 5.30581e-06 -1.13964e-05 1.91603e-05 -6.80883e-06 5.91058e-07 
-5.94479e-06 -1.00955e-05 -3.66699e-05 -9.01752e-06 -1.54041e-05 1.90644e-05 -3.68023e-06 -3.10907e-05 2.69119e-05 
-6.81916e-07 2.44973e-06 6.32507e-06 -3.41351e-06 2.0138e-05 -7.1837e-06 9.50915e-06 2.68371e-05 1.1188e-05 
4.64368e-05 -6.08917e-06 2.80024e-05 1.08134e-05 -3.17139e-05 1.75715e-05 8.82136e-06 -3.24783e-06 -2.24441e-05 
1.40776e-05 1.75072e-05 2.62905e-05 5.98532e-05 -1.28691e-05 5.00661e-05 -1.3512e-05 -4.56824e-05 -6.26967e-05 
-3.36169e-05 -2.82048e-05 1.82385e-05 -4.94317e-05 7.23542e-05 5.26089e-06 -9.83327e-05 -1.15337e-05 1.59472e-06 
-2.3615e-05 4.78713e-05 -8.27142e-05 -6.89401e-05 7.73124e-05 6.44408e-05 4.35941e-05 -2.86839e-05 -7.61146e-06 
9.8964e-06 -5.15726e-05 -3.64622e-06 -3.15242e-05 -4.6316e-05 -3.49738e-05 -1.12087e-05 -0.000103854 -1.40705e-07 
5.74441e-05 6.02416e-05 -3.49496e-05 -2.8216e-05 2.44135e-05 3.39099e-05 -1.20425e-05 -3.69169e-05 -9.04184e-05 
-2.09742e-05 2.04773e-05 1.04158e-05 3.33062e-06 -6.79363e-06 -8.56144e-06 1.9809e-06 1.09846e-06 -1.00636e-05 
2.24513e-06 -2.97071e-06 -6.1626e-06 4.95294e-06 2.91199e-06 3.97117e-06 -1.3286e-06 1.50905e-06 3.47034e-06 
-1.11348e-06 3.08364e-07 2.43099e-06 4.57138e-06 -5.17482e-06 -2.32774e-06 -1.71882e-06 -3.38558e-06 6.38352e-06 
8.49161e-06 -1.31329e-06 1.67149e-05 -1.33224e-05 -1.5242e-05 -6.2516e-08 -1.47979e-06 7.67888e-06 3.64205e-07 
-1.46662e-06 -1.21589e-06 1.51593e-05 -4.92999e-06 2.03631e-06 7.256e-06 -2.77254e-06 -1.88685e-06 -3.84413e-06 
2.61526e-07 -3.14765e-06 -2.48712e-06 -2.09488e-06 8.02185e-07 7.24398e-07 9.12518e-06 4.06869e-06 1.36753e-06 
1.17605e-06 -2.27611e-06 4.83326e-07 1.23787e-06 1.84158e-06 -9.70241e-06 8.99e-06 3.90788e-06 -5.34118e-06 
9.88501e-06 4.15215e-06 1.69893e-06 -2.00461e-05 0.00179868 -0.000891132 -0.019107 8.66962e-05 0.000275351 
-0.000998866 0.000103048 0.000162036 -3.24367e-05 -5.64127e-05 -6.93932e-06 5.10577e-05 -3.15554e-05 -3.27341e-06 
-4.80121e-06 1.2183e-05 4.09826e-05 4.74079e-06 2.30652e-05 1.50972e-05 2.76863e-05 1.27223e-05 1.06578e-05 
-2.10882e-07 -5.02354e-06 1.80729e-06 5.61583e-06 1.04021e-05 1.53111e-05 -2.47579e-06 2.17955e-05 1.67764e-05 
1.90406e-05 2.25802e-05 2.64585e-05 -3.73284e-06 3.60872e-08 1.02738e-05 2.12262e-06 4.76965e-06 9.62105e-06 
-1.54499e-06 1.58481e-05 5.01251e-06 1.69021e-05 -1.80719e-06 -2.17282e-05 1.31241e-05 -1.08561e-05 2.39441e-05 
4.62389e-06 2.99255e-05 2.00312e-05 -1.69192e-06 -5.09317e-06 -1.73946e-05 -9.03315e-07 -1.55547e-05 -2.42195e-05 
9.72052e-06 -1.2211e-05 2.16678e-06 -4.80516e-06 -1.21802e-05 -1.04479e-05 -1.09744e-06 -6.24907e-06 -9.98779e-06 
-1.0712e-06 -5.90439e-07 2.11578e-06 -3.54671e-06 -3.21901e-06 -1.46035e-05 4.44418e-07 -1.12178e-05 -1.24562e-05 
9.43242e-06 -6.24114e-06 -2.28585e-06 -6.43222e-07 2.52973e-06 9.71628e-06 -4.9623e-06 1.12479e-05 1.40712e-06 
4.37503e-06 4.08992e-06 1.04615e-05 -2.9488e-07 2.14362e-06 4.0065e-06 -1.17333e-06 3.81302e-06 5.449e-06 
-7.13446e-07 1.1491e-06 2.29714e-06 4.30953e-06 7.74704e-06 2.79643e-07 1.11481e-05 4.25508e-06 1.15819e-05 
-1.12336e-06 0.00868375 -9.45471e-06 -1.24648e-05 -5.15106e-06 -5.21671e-06 8.04276e-06 8.53836e-08 1.40134e-07 
3.24453e-06 4.26094e-06 4.54069e-06 1.66357e-06 2.35768e-06 4.56258e-06 -2.37766e-06 1.12558e-06 2.32541e-06 
-1.06745e-06 8.5837e-07 2.24265e-06 -1.262e-06 4.76543e-06 -2.75144e-06 4.02855e-06 -4.79289e-06 3.97249e-06 
-3.41359e-06 -6.50097e-06 4.27656e-06 -1.11252e-06 -1.19557e-07 4.96592e-07 -4.46195e-06 -3.39118e-06 -9.38374e-06 
1.92411e-06 -3.38735e-06 -3.82818e-06 -6.60262e-06 1.17002e-06 -1.02298e-05 7.1505e-06 -1.26303e-06 -4.37315e-06 
-1.39897e-06 -1.88703e-06 3.21804e-07 5.04668e-07 -1.15311e-05 1.00108e-05 -1.26856e-05 3.74955e-06 -1.74463e-05 
1.99286e-06 -1.17201e-05 -1.54131e-05 1.25672e-05 4.06394e-06 5.20318e-06 -4.80787e-06 2.65468e-05 2.79114e-05 
-2.24158e-05 -2.38903e-06 1.24053e-05 -3.12032e-06 1.84583e-06 8.95613e-06 2.8671e-06 1.35026e-05 -3.37572e-06 
1.78405e-05 -5.9542e-06 1.16991e-05 4.74612e-06 3.05069e-06 7.25643e-06 -1.12467e-05 5.84814e-06 -7.79279e-06 
2.01795e-05 -9.53276e-06 7.64401e-06 1.61726e-06 -1.29763e-05 7.06246e-06 -5.03951e-06 -8.73894e-06 -5.35765e-06 
4.01332e-06 1.11184e-05 -3.02397e-05 5.05969e-05 -1.04735e-05 3.4156e-05 -1.76113e-06 -3.15994e-05 5.03963e-05 
-7.76301e-05 -2.88632e-05 -1.59565e-06 6.35517e-05 -0.00607912 -0.00119341 0.00018353 -0.00475696 0.0128367 
0.0104962 0.0192859 0.0208451 -0.0118292 0.0177726 0.0171637 -0.00676881 0.0161142 0.0168087 
-0.00874807 0.0180197 0.0195263 -0.00864175 0.0211911 0.0168885 -0.00916646 0.0190821 0.0170385 
-0.00850752 0.0172932 0.0176024 -0.00891708 0.0177824 0.0196389 -0.00869064 0.0201015 0.0167789 
-0.00927435 0.0194208 0.0171968 -0.0068161 0.017924 0.0183174 -0.00904787 0.018917 0.0204046 
-0.0085124 0.00761588 0.00871366 -0.0102292 0.00991195 0.00761787 -0.0138181 0.0186211 0.018683 
-0.00985404 0.0170906 0.0182298 -0.00855812 0.0183587 0.0198249 -0.00854725 0.00970116 0.00901117 
-0.0101712 0.0207691 0.0194623 -0.0111441 0.0189935 0.0179661 -0.00911582 0.018837 0.0187709 
-0.00955456 -0.00527794 -0.00797344 -0.00645847 -0.00730913 0.000650897 -0.00663221 -0.00931228 0.00220214 
-0.00800011 -0.00438585 0.00167662 -0.00415652 -0.0054456 0.00215038 -0.00475562 -0.00584916 0.00232508 
-0.00588887 -0.0085336 0.0024934 -0.00880569 -0.00780303 0.00259875 -0.00792409 -0.00915897 0.00183489 
-0.00510191 -0.0130529 0.00465039 -0.0087379 -0.0123545 0.00744999 -0.0107484 -0.0166727 -0.0141454 
-0.0132033 0.00290232 -0.0125379 -0.00648866 0.00197626 -0.00610045 -0.00472777 0.00208233 -0.00520903 
-0.00458078 0.00197298 -0.00504652 -0.00473449 0.00217816 -0.00479714 -0.00406536 0.00231671 -0.00389915 
-0.00707572 0.0022153 -0.00671888 -0.00812235 0.001962 -0.00853836 -0.00818181 0.0020342 -0.00931096 
-0.00449861 0.000520642 0.00836527 0.010098 0.00698526 0.00516426 -0.00088467 0.00550438 0.00523984 
-0.00237798 0.00524768 0.00467588 -0.00268138 0.00482134 0.00459333 -0.00235107 0.00501973 0.00517694 
-0.00243426 0.00564276 0.00576994 -0.00252647 0.00646016 0.00662137 -0.0028077 0.00842743 0.0110838 
-0.0038092 0.0133717 0.00139867 -0.00232256 0.00625597 0.0145346 0.013583 0.0130564 -0.00309129 
0.00902283 0.0096005 -0.00359706 0.00772241 0.0072735 -0.00259841 0.00635337 0.00738882 -0.00272892 
0.00717544 0.00457038 -0.00214689 0.003384 0.00604101 -0.00228556 0.00599905 0.00772898 -0.00194468 
0.00886957 0.0054757 -0.00190456 0.00237256 0.00501925 -0.00460826 0.00786921 0.0053374 -0.00380576 
-2.55191e-05 7.48735e-06 4.23011e-06 -0.0141565 -0.00509026 0.0134767 -0.00799201 0.00196698 -0.00150385 
0.00781005 0.000783281 -0.000303093 0.00886593 -0.00108536 0.00127905 -0.00474109 -0.00295081 0.00101445 
-0.00940113 -0.00830759 -7.31259e-06 -0.00945187 -5.29932e-06 4.02776e-06 5.89334e-06 3.55586e-07 -1.11758e-06 
-1.60318e-05 6.43466e-06 2.05504e-06 1.54976e-06 1.41289e-06 9.99869e-07 2.0992e-07 -1.1209e-06 -4.67897e-06 
-4.456e-06 5.82799e-08 -8.22726e-06 -6.26753e-06 -2.22299e-06 -3.27244e-06 -1.15158e-06 -8.93085e-06 -7.92676e-06 
5.85303e-06 -9.27019e-06 -1.77489e-07 1.03395e-06 -4.77551e-06 -1.8686e-06 3.05589e-06 -3.89185e-06 -8.80734e-06 
3.41504e-07 -6.35029e-06 -4.67026e-06 7.40651e-06 -2.14164e-07 1.48389e-07 -4.36188e-06 -8.93323e-07 2.37198e-06 
5.95731e-06 6.35804e-07 7.95992e-07 -1.05606e-07 8.81915e-06 1.14242e-06 -5.07249e-06 -9.6984e-08 -2.10344e-06 
-2.66939e-06 -1.47959e-07 4.40025e-06 -2.69943e-06 0.000189669 0.000341656 6.42906e-05 -0.000134086 -3.14292e-05 
0.000135308 3.54212e-05 -0.00029134 -0.000603614 0.000176762 3.38251e-05 -4.3346e-05 2.27204e-05 -5.08935e-05 
2.56821e-05 -2.5392e-05 -8.26508e-06 -2.41328e-05 -1.89191e-05 3.11803e-05 -7.919e-06 1.42987e-05 2.51066e-05 
4.41202e-06 -7.99091e-06 3.28065e-05 5.64361e-06 -7.18751e-06 1.02309e-05 2.91326e-05 -5.55114e-06 2.8788e-05 
1.1384e-05 2.40245e-05 2.17684e-05 2.03004e-05 -1.00197e-06 2.01446e-05 1.71136e-05 4.87708e-06 4.25001e-05 
1.41488e-05 1.58439e-05 7.73911e-06 2.13575e-05 1.33941e-05 -1.57246e-05 3.22359e-05 -9.66068e-06 -1.18254e-05 
4.52645e-05 4.76038e-06 1.87404e-05 -2.76837e-05 1.06647e-05 6.0859e-07 -4.96933e-06 -4.60278e-06 -1.84227e-05 
-8.37789e-06 -7.25472e-06 -4.50971e-06 -1.52716e-05 3.20223e-06 -2.49119e-05 -1.37704e-05 4.39526e-06 -4.51969e-06 
-1.87236e-05 -2.74753e-06 1.04661e-05 -9.21823e-06 -4.86872e-06 8.82955e-06 -1.17083e-05 3.89145e-07 5.57806e-06 
-6.01195e-06 3.6933e-06 -1.03966e-05 8.37661e-06 -5.24759e-06 5.76239e-06 -1.71319e-06 -2.53811e-06 7.7066e-06 
8.48914e-07 6.21415e-07 3.58229e-06 4.3525e-06 -8.3613e-07 3.31315e-06 1.02398e-05 1.47361e-07 4.69469e-06 
8.35025e-06 2.83533e-06 5.0704e-06 4.24366e-06 6.22999e-07 1.09353e-06 7.62422e-06 2.61232e-06 6.0674e-06 
-0.00235061 -1.13185e-06 1.49739e-06 6.35848e-06 5.96922e-07 -3.72666e-06 -9.56939e-07 2.6515e-06 -3.69924e-06 
-1.05494e-06 -2.97334e-06 3.45089e-06 6.24955e-07 9.7663e-08 2.30315e-06 1.33307e-06 -1.3125e-06 1.5881e-06 
5.17081e-06 -1.11757e-06 3.79031e-06 3.76602e-06 -9.79006e-07 3.77451e-06 7.9958e-06 7.05083e-08 -9.11742e-06 
4.14237e-06 -2.36729e-06 -6.06361e-06 1.26516e-06 2.73199e-06 -9.84851e-06 2.34742e-06 -8.0803e-07 -5.06683e-06 
-7.30833e-06 5.47018e-07 -1.82114e-05 -1.49801e-06 -8.47038e-06 -8.67433e-06 -4.18754e-06 4.64412e-06 -6.488e-06 
-9.85238e-06 2.52011e-06 -2.30241e-05 -7.82886e-06 2.5027e-06 1.19397e-05 -1.02188e-05 1.08938e-05 1.68195e-05 
-1.07814e-05 -3.71319e-06 1.27015e-05 -5.66898e-06 4.27174e-06 -1.50542e-05 1.41933e-05 -1.20306e-05 1.77188e-05 
-9.27666e-06 -6.9423e-08 8.89741e-06 1.09113e-05 -5.04927e-06 2.60603e-05 7.09964e-06 -5.61587e-06 2.99593e-06 
2.12825e-05 6.43256e-06 -6.50205e-06 4.25315e-06 1.11199e-06 2.04102e-05 5.64915e-06 -1.87832e-05 1.66764e-05 
1.67669e-05 5.7026e-06 -1.54428e-05 1.12713e-05 -6.74427e-07 -4.09565e-06 2.21687e-06 1.98029e-06 2.62865e-05 
7.79196e-06 -1.04992e-05 9.26862e-06 3.46156e-05 -1.20713e-05 7.63784e-06 6.71001e-05 2.32512e-05 -0.00015985 
0.00015408 -1.80461e-05 -0.000662543 -0.000535868 -4.95618e-05 0.000431385 -0.000514926 0.000885073 0.00340325 
-0.00275192 -0.00201542 -0.000733316 -0.00125643 0.000475843 -0.00293569 -0.00193616 -0.00160363 -0.00342406 
0.000276215 -0.00252913 -0.00210145 0.000373885 -0.00411864 -0.00162017 0.000624674 -0.00297573 -0.00227447 
0.000344242 -0.00167887 -0.00325639 0.000452316 -0.00195431 -0.00208394 0.000510365 -0.001376 -0.00107811 
0.000813262 -0.00306721 -0.0021002 0.000620093 -0.00198275 -0.0031833 0.000352415 -0.00160864 -0.00224825 
0.000363491 -0.00170415 -0.00264145 -2.76435e-05 -0.00199187 -0.000818273 -0.000237133 -0.00264206 -0.00215799 
0.000321643 -0.00177756 -0.00323149 0.000361471 -0.00149025 -0.00205825 0.000419951 -0.00269192 -0.002324 
0.000123436 -0.00376637 -0.00184773 0.000310435 -0.00247058 -0.00265417 0.000264905 0.000625572 -6.42848e-05 
-0.000872909 -0.000155319 -3.65168e-05 2.09228e-05 0.00266182 0.00332436 0.000565606 0.00127818 -0.000486292 
0.00183855 0.0022758 3.37037e-05 0.00213676 0.00184658 0.000560944 0.00173239 0.00180736 0.000367217 
0.0016758 0.00159488 0.000156578 0.00225347 0.00332115 0.00011819 0.00332042 0.00166885 0.00027698 
0.000579618 3.90942e-05 -7.10746e-06 0.000814156 0.000953602 0.000614982 8.93842e-05 0.00303525 0.00280214 
0.00200043 0.000735262 0.00046488 0.00158529 0.000598023 -5.79576e-05 0.00123751 0.00154147 -3.48325e-05 
0.00144524 0.00161417 7.7906e-05 0.00161299 0.00177286 0.000126474 0.00204786 0.00278548 0.000481207 
0.00192608 0.00233359 0.00044802 0.00208191 0.00100765 -0.000275194 0.000525879 -0.0028013 -0.00282527 
-0.0017312 -0.0017848 -0.00203877 -0.00134986 7.37592e-05 -0.00168197 -0.00096484 9.28124e-05 -0.000751424 
-0.000785433 0.000139736 -0.000883042 -0.000719646 0.00013035 -0.00117146 -0.000785442 9.97243e-05 -0.00187754 
-0.000525352 0.00012014 -0.0039264 -0.00137609 -0.000398957 -3.39024e-05 0.000292768 -0.000650862 -0.00491557 
-0.00322778 -0.00244863 -0.0025556 -0.00060869 -0.00222991 -0.00242853 -0.000521958 -0.00180441 -0.00202573 
-0.000412733 -0.00154216 -0.00154075 -0.000134669 -0.00216894 -0.00224725 -0.000371126 -0.00152334 -0.0028289 
-0.000506987 -0.0020304 -0.00111643 -0.000308157 -0.00201484 -0.00015802 0.000164898 1.60129e-07 6.59853e-06 
3.0185e-06 0.00441413 0.00379541 0.00104953 -0.00130002 -0.00221135 -0.000439087 -0.00253454 -0.00463702 
-0.000315468 4.55126e-06 4.90717e-06 6.42323e-06 -2.35837e-06 0.000219065 0.000247716 -0.000345351 0.000605864 
0.000296949 0.000362607 0.00194007 -0.000232164 -0.000265315 -0.000332886 -0.000122499 -6.16256e-06 5.01649e-05 
-0.00384608 -0.000816154 -0.000335439 -0.000430387 -0.00237929 -0.00382091 -0.00117171 1.40386e-05 -0.000103299 
3.90852e-05 -0.000103035 2.44587e-06 -2.8006e-06 -6.85311e-05 -0.000605505 3.02417e-06 -6.4657e-07 4.10441e-07 
-1.87719e-06 -1.73408e-06 -4.93577e-06 7.0893e-07 -3.53326e-06 -5.8673e-07 -5.92694e-06 -2.73082e-06 -3.96219e-06 
-5.79506e-06 1.57175e-06 6.04672e-06 -4.35208e-06 1.46719e-06 -5.35108e-06 -1.84674e-06 7.22648e-06 1.20252e-06 
-1.95608e-06 -3.60495e-06 -4.96765e-06 -1.13624e-06 5.13633e-06 6.14417e-06 3.4032e-06 -8.10483e-07 -2.18946e-06 
1.94278e-07 3.36788e-06 -6.7362e-06 -0.000434186 6.3407e-06 7.31637e-05 -0.000113785 1.267e-05 -3.42496e-06 
7.6409e-06 5.0195e-05 -8.07632e-05 5.01044e-05 -5.01682e-05 -0.000141217 0.000190617 8.94712e-06 3.04958e-05 
4.0248e-05 1.39259e-05 1.05259e-05 1.16436e-05 3.28309e-05 -6.34802e-07 5.11257e-06 1.53507e-05 1.4224e-07 
-1.20585e-05 2.27396e-05 4.20774e-06 -3.01226e-07 1.036e-05 2.04847e-05 1.22184e-05 2.41447e-05 1.52357e-05 
-4.18812e-07 3.03381e-06 1.30294e-05 -9.32556e-06 4.89624e-06 -4.89146e-06 -5.11904e-06 1.74925e-06 9.48526e-06 
1.03441e-05 -5.36622e-05 -3.51931e-05 2.55197e-05 5.32983e-05 9.08859e-06 -4.08856e-06 3.76048e-06 -2.05923e-05 
1.66518e-06 -1.4619e-06 -1.67877e-05 7.25558e-07 7.6968e-06 3.20677e-06 4.21453e-06 -2.44851e-06 -6.93806e-06 
6.88568e-06 4.38025e-06 -7.08948e-06 -1.58009e-06 4.28663e-06 -3.08098e-06 3.26869e-06 1.01303e-05 -4.32306e-06 
1.67421e-06 5.55686e-07 -3.64489e-06 2.43974e-06 7.26939e-06 5.81815e-06 -2.24639e-06 4.51399e-06 3.65858e-07 
-3.12719e-06 7.78171e-07 4.80365e-07 -7.15994e-07 -1.86997e-06 -2.53511e-06 -6.62616e-07 -6.33302e-07 3.63759e-06 
-1.43706e-06 4.40467e-06 5.18419e-06 6.80615e-07 -2.60434e-05 -7.56329e-05 6.5403e-05 9.23997e-05 7.28734e-08 
-5.67622e-06 -4.12009e-06 -1.23991e-06 -3.31061e-07 -1.09712e-06 4.23748e-07 3.34988e-07 -2.47065e-06 1.60433e-05 
-1.1923e-05 -1.04865e-05 -2.2994e-05 -1.84891e-07 1.58034e-06 5.98027e-06 -0.00022132 -0.000417497 -0.000170588 
-2.72e-07 3.54626e-06 -7.21749e-07 -2.34751e-06 5.02189e-06 -1.11148e-06 3.07892e-06 4.86887e-06 -2.33082e-06 
-4.52623e-06 1.62981e-06 -2.73671e-06 -8.53839e-07 3.15098e-06 5.43608e-06 -1.05196e-05 2.9538e-06 7.47081e-07 
-3.51449e-06 -4.94254e-06 -6.60496e-07 -2.99461e-06 -1.75868e-06 -4.95106e-06 4.2771e-06 7.32805e-06 6.30005e-06 
6.21033e-06 4.28549e-06 1.53913e-06 6.61446e-06 4.32931e-07 2.1621e-06 1.12079e-05 -9.67231e-06 -5.50323e-06 
1.04232e-05 1.71375e-05 -1.81205e-05 9.03992e-06 -4.3981e-06 1.15337e-05 1.35551e-05 1.75481e-05 -1.21507e-05 
-1.45552e-06 2.07341e-06 4.3182e-07 -2.22758e-05 -1.44761e-05 1.83321e-07 3.37614e-06 1.33649e-07 -1.07766e-05 
-1.10211e-05 -4.49342e-06 -9.36602e-06 -1.60452e-05 -1.23291e-05 -4.16944e-06 1.10797e-05 -6.87528e-08 -2.03029e-05 
8.45708e-06 -7.48758e-07 -2.63719e-06 1.18588e-05 4.39072e-06 6.73487e-06 1.72588e-06 1.83034e-05 -3.00558e-05 
-2.54288e-05 -1.11718e-05 -9.80374e-06 -2.56429e-05 2.83476e-06 -2.87313e-05 -0.000172916 0.000167339 -0.000206832 
-0.000116213 -9.61938e-06 -1.70765e-07 -7.05753e-05 5.10475e-05 6.00291e-05 -7.06206e-05 0.000120618 -1.14234e-05 
-5.11194e-05 8.86491e-05 -0.000114748 4.47078e-06 -2.14198e-05 4.51075e-05 1.6136e-06 -4.47145e-06 2.66525e-05 
-4.95593e-05 -1.92251e-05 2.47714e-05 3.58713e-05 1.51195e-06 6.48728e-06 2.25313e-05 5.37247e-05 4.93936e-05 
2.48239e-05 6.50858e-05 5.00328e-05 5.02853e-06 -5.36e-07 1.6695e-05 -4.03253e-05 -6.56655e-05 1.79301e-05 
-0.000194014 -9.88444e-05 3.04043e-05 -8.34198e-05 -0.000158843 5.69364e-05 -4.57521e-05 -1.28459e-05 4.12079e-05 
-1.84446e-05 2.24532e-05 1.92706e-05 -1.38106e-06 2.87646e-05 3.7711e-06 -0.00011782 -4.70131e-05 5.52378e-05 
-0.000168728 -0.000130588 6.31883e-05 0.000268329 0.00020999 0.000441712 0.000282035 -7.7548e-05 -1.35617e-05 
-6.24173e-07 -1.74507e-06 1.81877e-07 9.53196e-07 9.42041e-05 0.000118875 -1.09188e-05 0.000264301 0.000104076 
1.89715e-05 0.000179562 5.26222e-05 1.60301e-05 3.36211e-05 -2.86258e-05 -3.53506e-05 -6.23396e-05 0.000204738 
-6.8346e-05 0.000193676 -0.000144905 1.02767e-05 2.02134e-05 -7.94729e-05 2.57136e-05 0.000418181 6.91855e-05 
0.000122554 -8.1552e-06 -5.01291e-06 3.00893e-06 -0.000269782 -0.000330783 0.000119561 0.000137616 4.57024e-05 
2.59157e-05 7.14976e-05 3.88985e-05 1.4605e-05 -4.14866e-05 8.91084e-06 -4.0423e-05 7.76235e-05 -1.06027e-05 
3.96207e-05 0.000387069 -9.22289e-07 0.000137307 0.000378627 -4.12618e-05 -0.000107223 -0.000331076 2.05641e-05 
0.000204347 1.01403e-05 2.05164e-05 4.83113e-05 1.25834e-05 -2.63517e-05 5.18682e-05 2.03807e-05 -4.36668e-05 
4.6224e-05 2.81903e-07 -7.08862e-05 6.63141e-05 -2.55869e-05 1.51064e-06 1.73311e-06 -3.05732e-07 7.14964e-06 
5.54436e-06 -3.87775e-06 -1.28478e-05 4.21018e-06 -0.000257948 -0.000331859 -0.000256802 -0.000168321 -2.71923e-05 
-9.79638e-05 -2.09129e-05 8.82095e-06 -7.24879e-05 -0.000297304 1.31855e-05 -0.00010998 -0.000320584 1.70262e-05 
-0.000113398 0.000128519 4.97105e-05 -0.000104271 -0.000202741 7.81094e-06 0.000153136 0.000477955 -0.000254342 
-0.0003604 -0.00012244 1.54523e-05 -0.000410762 -0.000376412 5.85601e-05 -7.60901e-05 -5.02412e-05 -5.70391e-06 
-4.20755e-06 0.000141349 0.000187293 0.000145416 9.64586e-05 -8.49515e-05 0.000198498 6.2502e-05 -5.39107e-05 
1.10204e-06 -1.59288e-06 1.01828e-05 2.60739e-05 3.77656e-05 -4.361e-06 4.09922e-06 -2.55814e-06 7.44041e-06 
-0.00021978 0.000205511 4.76968e-05 -7.58835e-05 -1.40306e-05 -0.000166954 -0.00034824 -0.000111868 5.4311e-05 
-5.89959e-05 -0.000133944 -5.11174e-05 6.51641e-05 9.70937e-05 0.000107203 7.26914e-05 1.71348e-05 -3.63925e-06 
9.74363e-05 0.000736316 -5.7133e-05 0.00026752 -9.75745e-06 -8.54686e-05 -8.80249e-05 -0.000113275 0.000595577 
5.81048e-05 -7.88008e-05 -0.000142596 -2.46924e-05 -0.000267855 -4.56621e-05 -5.50715e-05 3.69513e-05 -5.68682e-06 
-4.72273e-08 8.06755e-07 -8.1057e-06 -2.24229e-06 -9.30673e-06 1.86093e-06 -1.18058e-05 2.80944e-06 -1.80393e-05 
7.62038e-06 -3.04244e-06 6.34578e-06 -5.49657e-06 3.15696e-06 8.52528e-06 -1.45632e-06 5.5829e-06 4.82451e-06 
2.91463e-06 5.00287e-06 -2.80342e-06 3.13782e-06 6.45808e-08 2.6805e-06 -3.08125e-06 -1.37226e-05 1.62257e-05 
-9.35877e-06 2.66021e-06 1.02718e-05 -4.2756e-06 -1.25388e-05 9.99456e-05 3.60277e-06 -4.62988e-06 4.36879e-06 
-9.21675e-06 -2.27318e-06 -2.39654e-06 3.46645e-06 -1.09112e-05 -6.53515e-07 5.18434e-06 1.98334e-06 -8.18005e-06 
2.43418e-05 7.34292e-06 -5.64284e-06 1.24895e-05 1.37742e-05 -6.24562e-06 -3.5217e-05 1.86729e-05 -3.0303e-05 
-4.60819e-05 -4.43208e-05 -4.81064e-05 1.58141e-05 4.12903e-06 7.59697e-06 1.86612e-05 1.72837e-06 -6.08221e-06 
7.05922e-06 -8.58566e-07 1.93156e-05 1.8602e-06 -1.97471e-06 1.04245e-05 7.51727e-06 -2.23652e-06 1.70504e-06 
1.32756e-06 -4.57894e-06 2.32789e-07 7.08413e-06 -8.896e-07 -1.43051e-06 -2.08446e-06 -4.2368e-06 -4.85873e-06 
-1.00121e-05 -6.62591e-06 6.81644e-07 -4.76809e-06 -2.10266e-06 -4.27561e-06 3.85683e-06 -1.21359e-06 1.84198e-06 
3.86844e-06 6.21479e-06 0.000121964 4.40697e-05 -1.39095e-06 3.95423e-06 2.28591e-07 -3.45268e-06 4.15538e-07 
3.65227e-07 -4.72949e-06 6.04674e-06 -4.38333e-06 9.57882e-07 5.76565e-06 -4.38154e-06 -4.43575e-06 1.07801e-06 
-1.73918e-06 2.68785e-06 6.65913e-06 5.45107e-06 -1.03798e-05 3.30522e-06 6.35644e-06 -4.91734e-06 -4.03912e-06 
2.40532e-07 5.47354e-06 1.67782e-06 -5.52884e-06 9.13561e-06 1.70448e-05 2.64419e-05 -6.52002e-06 5.99625e-06 
-1.41562e-05 -1.51061e-05 -3.68278e-05 5.52277e-05 -2.3545e-05 -3.08109e-05 9.06819e-06 -4.41044e-06 -2.90799e-05 
3.08982e-05 1.88288e-05 -8.88259e-06 -1.04156e-05 9.05875e-06 -2.81349e-05 -3.10005e-07 1.11613e-05 3.75098e-06 
8.64191e-07 2.0941e-06 -2.70175e-05 1.1161e-05 2.39282e-05 9.3766e-06 -8.51111e-07 1.33789e-05 -4.37451e-06 
6.16389e-07 -1.29179e-05 -7.36262e-06 -1.31795e-05 -1.50423e-05 -9.64237e-07 1.37834e-05 -6.86296e-06 8.78602e-06 
1.42813e-05 4.34536e-06 -8.87759e-06 1.0952e-05 5.05473e-06 -1.89286e-05 -1.08738e-05 2.11652e-05 5.48276e-06 
9.47077e-05 -4.36126e-05 -5.9553e-05 -0.00010021 -0.000206346 -2.4916e-05 7.91374e-06 6.04939e-05 -7.7497e-05 
1.22459e-05 9.02591e-05 8.47598e-05 7.79242e-05 -0.000150944 -7.90041e-05 -7.58243e-06 4.55797e-06 6.98432e-06 
-4.75373e-06 1.24328e-05 -3.17435e-05 1.02068e-05 1.53196e-05 -1.39996e-05 -2.91071e-06 4.28249e-06 5.2552e-06 
-7.23923e-06 9.24994e-06 -3.6144e-07 -5.7918e-06 -1.80669e-06 -7.38247e-06 -7.07883e-06 -2.53167e-05 -1.86716e-06 
-1.61619e-05 -6.68077e-06 -5.69286e-06 -1.29648e-05 -6.03292e-06 1.77187e-05 1.66393e-05 -1.2642e-05 -4.34928e-06 
5.26393e-06 -5.61879e-06 -4.59776e-05 3.03719e-05 -1.48811e-05 -6.76918e-06 2.35929e-05 -3.20296e-06 -6.91723e-06 
7.3391e-06 1.04708e-05 -4.02483e-06 -1.0385e-05 -9.77227e-06 -1.06986e-06 2.78416e-06 0.000124465 4.25141e-05 
1.17781e-05 9.87054e-06 -2.40889e-06 4.18122e-05 3.95487e-05 -3.1403e-05 3.52619e-05 -2.72244e-05 2.07455e-05 
-2.84426e-06 3.57911e-05 8.82648e-06 3.88145e-05 -5.65117e-05 8.87176e-06 5.26424e-05 -3.88457e-05 -1.16849e-06 
7.41587e-05 -1.17832e-05 5.29764e-05 4.38624e-05 -3.1287e-05 3.56401e-05 -0.000128062 -0.000326692 0.000224713 
3.02687e-05 6.33017e-05 5.23273e-05 3.33478e-05 3.00431e-05 1.67979e-06 1.70129e-05 3.37553e-06 7.56894e-06 
1.51812e-05 -2.42136e-05 -1.25869e-05 1.26157e-05 -5.36767e-05 2.86762e-05 2.26074e-05 -6.31646e-06 -0.000146757 
-6.82497e-05 0.000130257 -9.3365e-05 -5.37588e-05 3.38135e-05 2.61493e-05 1.13806e-05 -5.48058e-06 -9.31472e-06 
-9.09033e-06 6.67186e-06 -1.32844e-05 4.0985e-06 -3.81144e-05 -2.95378e-06 -0.000413271 7.16192e-05 -9.30505e-06 
-3.18214e-05 -2.58462e-06 -1.99151e-05 -1.65128e-05 1.15038e-05 -4.64881e-05 -1.68312e-05 -4.03646e-06 -0.000107753 
1.98267e-05 6.24992e-05 1.81139e-05 -2.23481e-05 -2.50876e-06 -0.000217242 1.14233e-05 -3.3928e-05 3.54189e-05 
-8.20286e-06 2.75033e-06 -3.37961e-06 -0.000236765 5.29177e-05 3.20249e-05 -1.32037e-05 3.91403e-06 5.13253e-06 
-4.65002e-05 1.74044e-05 4.91472e-05 1.21075e-05 -3.39051e-05 0.000112099 -0.000105298 0.00013027 3.67715e-06 
6.93114e-05 8.62081e-05 -8.30911e-06 -4.81653e-06 2.80861e-06 7.41469e-06 -4.76283e-06 7.54857e-05 -1.87181e-07 
6.89233e-06 2.00598e-06 2.71864e-05 -2.46073e-05 4.63527e-06 -3.36578e-05 -4.5831e-05 1.29049e-06 -4.39569e-06 
8.92063e-07 -1.52799e-05 4.96242e-06 -6.3333e-06 1.25258e-05 -1.25317e-05 -9.90566e-05 7.11114e-06 4.70018e-05 
5.51191e-05 -4.41566e-05 -1.4153e-05 2.02727e-05 -5.0411e-05 -2.61193e-05 0.000128333 -4.10146e-05 7.09375e-06 
9.71043e-05 1.13192e-05 -3.78699e-05 5.99662e-05 -1.37013e-05 -6.84302e-06 3.57922e-05 -7.12907e-05 -4.15078e-06 
-5.16454e-05 5.25575e-05 2.07005e-05 -6.64144e-05 8.25723e-05 3.69285e-05 -4.07e-06 -3.34458e-06 -1.64759e-06 
-8.9623e-05 -2.24929e-06 -0.000200869 9.88314e-05 -5.7636e-05 6.10907e-06 -1.76542e-05 -5.25759e-05 0.000232744 
0.000123164 -4.52522e-05 6.6339e-05 -2.5777e-05 -4.47192e-05 -0.000173127 6.35378e-06 -7.66082e-06 8.68221e-06 
-8.42481e-06 0.000101934 -3.09337e-06 6.78661e-07 -4.84613e-06 -1.85646e-07 -9.0229e-07 7.86288e-06 2.27373e-05 
7.93181e-06 -7.99569e-07 -1.58e-05 -8.32866e-06 -2.14383e-05 -1.53811e-05 6.78096e-05 0.000161016 -4.41138e-06 
-5.80553e-07 -7.96205e-06 -9.53067e-06 -7.34992e-07 -1.97533e-05 -1.21435e-06 -3.30234e-06 7.83929e-07 1.44267e-05 
8.00376e-06 -6.80455e-06 5.5239e-06 -4.42475e-06 -7.23801e-07 3.09236e-06 -1.30281e-05 5.64629e-06 4.87662e-06 
-6.13635e-06 1.34368e-05 -9.6172e-06 -4.44147e-06 4.01033e-06 4.70289e-07 -5.46494e-06 6.39866e-06 -2.01862e-06 
3.42172e-06 5.47462e-06 -7.58546e-06 -1.38404e-06 1.25579e-05 -6.24889e-06 -3.25185e-05 -2.20902e-06 1.26601e-06 
2.64717e-06 -1.50877e-06 7.20843e-06 -4.22944e-06 3.66425e-06 -2.17598e-06 6.32385e-06 -2.21855e-07 5.50595e-07 
1.40206e-06 -5.2327e-06 3.31626e-06 1.03092e-05 -7.48065e-07 -1.1818e-05 1.42316e-05 1.85424e-05 -2.46238e-05 
-7.14115e-06 2.43054e-05 -3.65055e-05 -1.87986e-05 -1.66885e-05 -3.7043e-05 1.08984e-05 -1.4048e-05 3.72437e-05 
-4.60672e-05 1.87668e-05 2.68469e-06 3.20284e-06 -5.22282e-06 1.69382e-05 -2.39443e-06 8.89072e-06 -9.55871e-06 
-5.34557e-06 1.04309e-05 6.56141e-06 -3.13619e-06 -3.8986e-06 -3.04121e-06 4.5014e-06 7.81594e-06 -2.41598e-06 
1.2781e-05 1.00526e-05 -4.58829e-06 3.1912e-06 7.3355e-06 -1.52079e-06 5.86362e-05 1.07022e-05 1.67713e-05 
6.75377e-05 3.57318e-05 8.32781e-06 2.25841e-05 -2.97108e-05 -1.25828e-05 -1.04455e-05 -5.9489e-06 -1.96981e-05 
-7.5671e-07 8.80254e-06 -9.50217e-06 6.32661e-06 1.89903e-06 -4.30058e-06 -1.82386e-05 -4.6877e-06 1.5103e-05 
-1.83086e-05 6.15702e-06 -2.16129e-05 7.16035e-06 -1.29511e-05 1.06808e-06 -1.64189e-05 2.54618e-05 1.47508e-05 
-2.72024e-06 -2.55066e-05 -7.84726e-06 8.85298e-06 -4.77407e-05 -3.53316e-05 5.12459e-05 8.19652e-05 7.89518e-05 
0.000132414 5.70429e-05 4.63715e-05 -6.17314e-05 -2.4468e-06 6.95733e-06 2.64972e-05 7.20726e-05 3.86052e-05 
-1.21478e-05 3.58498e-05 -1.05736e-05 -3.30002e-06 1.05127e-05 -6.4246e-06 7.73274e-07 1.70742e-05 -3.63522e-06 
1.27524e-05 3.18591e-05 1.82532e-05 4.49004e-05 -1.79638e-05 1.92084e-05 4.48116e-05 -1.47031e-05 -2.78814e-05 
5.03289e-05 8.58588e-05 4.39296e-05 -6.22568e-05 -0.000123405 3.1258e-05 -0.000130695 0.000149847 -0.000112348 
6.60213e-05 2.89541e-05 7.83609e-05 -1.85302e-05 -4.0384e-05 1.46165e-05 -5.97943e-07 -8.40422e-07 -3.0194e-06 
-2.65953e-06 3.04297e-06 -8.59067e-06 1.64043e-05 -2.07061e-05 -2.77843e-06 -7.2736e-06 3.99444e-05 1.6887e-06 
-2.41248e-05 -1.68275e-05 -1.47932e-06 -2.48121e-05 4.7922e-05 8.22506e-05 5.69502e-05 3.45212e-05 -0.000126617 
-2.86716e-05 4.28959e-06 2.7048e-05 9.05285e-05 3.62459e-05 3.64148e-07 2.58309e-06 -1.92573e-06 1.29438e-06 
-1.7387e-05 -5.1329e-06 1.68359e-05 -4.75618e-06 6.2585e-05 1.50205e-05 1.95522e-05 -1.4315e-05 -2.09557e-05 
1.80664e-05 9.97912e-06 5.02444e-06 3.18868e-06 7.5763e-06 -1.07478e-05 9.00747e-05 2.28744e-05 -1.60358e-05 
4.02474e-05 -6.36951e-06 1.04974e-05 3.51498e-06 5.42763e-05 -1.5448e-05 -9.06588e-06 1.49605e-05 -9.0436e-06 
2.87324e-05 -2.30562e-05 -9.63596e-06 1.29618e-05 1.47717e-05 -2.04478e-05 -1.22669e-05 -0.000158755 -4.92799e-05 
0.00028602 1.99639e-05 -3.17235e-06 2.63306e-05 9.83203e-06 -4.93548e-05 5.15238e-06 3.95394e-05 -8.94885e-05 
-5.51639e-06 -4.55314e-06 -5.76133e-06 -2.00155e-05 4.55441e-05 4.36168e-05 3.88345e-05 -9.81555e-06 -9.84608e-06 
2.26658e-05 6.00113e-06 -2.48502e-05 -1.43884e-06 -2.03621e-05 0.000140134 -3.33838e-05 -3.39551e-05 1.31616e-05 
1.24313e-05 3.61782e-06 9.39176e-07 -7.86606e-06 5.20752e-05 1.6529e-05 2.30195e-05 4.35805e-06 4.78309e-05 
-5.55352e-06 2.00141e-06 -1.58916e-05 -3.23007e-05 0.000229423 3.90857e-05 1.29392e-05 6.41775e-07 1.1407e-05 
3.78047e-05 -4.81042e-05 1.04881e-05 -9.9751e-07 -4.11153e-06 4.19802e-06 -4.9157e-06 -1.79293e-06 8.27099e-06 
-7.84904e-05 4.56133e-05 -4.69148e-06 5.80384e-07 -1.12691e-05 6.22008e-05 7.18768e-05 -0.000114842 1.09443e-07 
5.01194e-05 -1.27779e-05 4.65732e-05 -8.04713e-06 3.60864e-05 8.29676e-05 -3.58261e-06 4.70002e-06 -2.27601e-05 
-3.44922e-05 -3.28094e-05 2.13136e-05 1.22539e-06 4.13935e-06 1.28299e-05 1.85132e-05 -3.01425e-06 -2.16334e-05 
3.62303e-05 -9.77749e-06 -1.43891e-05 -1.24148e-05 -1.81961e-05 1.96983e-05 -7.59023e-06 -5.05173e-06 1.31527e-05 
-7.9396e-06 -9.53512e-06 1.12197e-05 -9.27904e-06 -1.36964e-06 -1.54174e-05 -1.14036e-06 2.88323e-06 -1.05796e-06 
1.10962e-05 -1.51603e-05 -5.44464e-06 -1.63259e-05 9.55862e-06 -6.09253e-06 4.09217e-05 -2.65245e-05 -6.69198e-05 
0.000176281 -3.11474e-05 7.56648e-05 9.89013e-05 1.05423e-05 1.15993e-05 -8.08586e-06 1.20186e-05 -1.12718e-05 
-1.25052e-06 3.31758e-06 -1.25526e-05 1.73082e-05 1.98557e-06 5.99079e-06 1.83285e-05 -9.83654e-08 1.94231e-05 
-6.85748e-06 7.46843e-05 -4.49423e-05 3.7789e-05 -0.000165762 6.31297e-05 7.77591e-06 3.6327e-05 1.56398e-06 
-3.44036e-05 9.78964e-06 -4.01886e-05 -1.75281e-05 -3.34604e-05 5.78769e-05 5.21071e-06 -3.11015e-05 1.16203e-05 
-6.0474e-05 4.1937e-05 2.44724e-05 8.32616e-05 -5.37067e-06 -4.00878e-05 4.21308e-07 -4.72355e-06 1.01255e-05 
-7.86836e-06 -4.00476e-06 -1.53472e-05 -0.000147225 6.77397e-05 -9.34814e-05 6.28242e-05 -9.25273e-05 -5.07605e-06 
3.37905e-05 -4.12135e-05 1.63329e-05 -3.9452e-06 2.08511e-05 -2.74003e-05 6.4111e-06 -2.93889e-05 -6.84236e-05 
4.48241e-06 4.43734e-06 -1.36961e-05 9.18868e-05 5.19933e-05 1.68878e-05 1.32555e-06 2.63749e-05 2.0857e-05 
-0.00015518 0.000108512 -6.83299e-05 -1.79472e-05 3.65763e-06 1.38299e-05 1.36959e-06 8.32207e-06 2.34495e-05 
1.65931e-05 6.43522e-05 -3.47463e-05 -3.58583e-05 1.42715e-05 -3.0548e-05 -2.20611e-05 1.96756e-05 1.2253e-06 
7.14548e-07 2.33162e-06 6.66969e-06 7.19041e-06 -1.68363e-06 -9.65642e-06 -2.47134e-06 2.16588e-05 -1.12907e-05 
-1.38392e-05 -2.17315e-06 3.28077e-05 -3.26373e-05 -6.92146e-06 8.45667e-05 1.98214e-05 -3.2347e-06 -3.37305e-05 
2.23561e-05 -6.30247e-06 -2.42916e-05 6.20392e-06 -3.69148e-05 -8.41132e-06 -3.92272e-05 -1.6661e-05 -1.93468e-05 
-4.20235e-06 1.73733e-05 1.21966e-05 3.78674e-06 1.94692e-06 -2.07664e-05 -1.15577e-05 -2.15043e-05 5.44363e-06 
-9.0368e-06 1.38677e-05 -8.17174e-07 -1.56798e-05 1.09329e-05 3.35519e-05 -6.89775e-06 -3.08318e-05 -1.28252e-05 
-5.49518e-05 -1.47132e-05 3.17765e-06 -6.62414e-06 -2.53122e-05 -1.25646e-05 -8.50055e-06 -4.04506e-06 1.59075e-05 
3.21967e-05 -7.36949e-06 -8.60527e-06 1.18048e-05 1.10453e-05 6.96428e-06 4.92906e-05 6.23256e-05 4.7593e-06 
-1.58305e-06 -2.7082e-06 1.09706e-05 3.14876e-05 3.47812e-05 8.52128e-06 -3.6243e-05 8.37332e-05 -0.00010279 
2.43257e-05 -1.00503e-05 -1.64903e-05 -2.05474e-06 -6.70624e-06 1.07416e-05 2.33175e-05 1.07858e-05 3.60502e-05 
1.61537e-05 -8.3628e-05 -7.09526e-05 -3.6054e-05 3.06879e-05 2.58433e-05 2.55958e-06 1.91228e-05 -1.83996e-05 
-1.28528e-05 1.30368e-05 -4.4418e-06 -1.59534e-05 7.10286e-07 -1.47974e-05 3.13951e-05 -3.77454e-05 5.09846e-05 
-8.12729e-06 -1.90145e-05 -5.2846e-05 1.09809e-05 4.95774e-05 -4.10278e-05 -2.09008e-06 2.16835e-05 -9.11442e-06 
1.09649e-05 -9.92737e-06 2.76186e-05 8.00857e-06 1.38838e-05 1.8156e-05 -6.58353e-05 1.04845e-05 -3.50248e-06 
-2.78707e-05 9.07278e-05 2.76256e-05 -5.31506e-05 1.72105e-05 8.48016e-05 2.25683e-05 3.55271e-06 3.36535e-06 
-1.97121e-05 4.45383e-05 6.2781e-05 -6.47937e-05 -4.03338e-05 1.15551e-05 -1.8072e-05 1.24843e-05 2.00748e-05 
2.40433e-05 -7.50459e-06 5.43023e-06 -1.41798e-05 -4.48659e-05 1.53449e-05 6.57807e-05 4.59478e-05 0.000110524 
-0.000107803 -7.6739e-05 3.07054e-05 -5.18398e-06 -9.14636e-05 0.000104257 -2.47188e-05 -2.54889e-05 7.34575e-06 
1.95425e-05 -2.22035e-05 -4.03866e-05 2.48629e-05 9.87275e-06 -4.5051e-05 3.12216e-05 -5.1743e-05 8.48766e-05 
-1.19716e-05 -9.38247e-05 -7.01729e-05 8.96488e-05 -5.39773e-05 -4.08624e-05 -6.66333e-05 -1.49974e-05 -2.37428e-05 
-6.29369e-05 -2.18719e-05 -2.8755e-05 5.29472e-05 -6.99208e-05 4.07587e-05 -6.32208e-06 2.20027e-05 1.2599e-05 
-6.15081e-05 6.75623e-05 -2.11243e-05 -1.20435e-05 -0.000128706 2.18411e-05 5.44473e-05 1.59763e-05 -3.50404e-06 
0.0376056 -1.00367e-05 -1.85767e-06 1.29505e-05 9.35064e-06 6.41176e-06 5.41908e-06 -1.09367e-06 -8.27322e-07 
-4.60756e-06 -3.04785e-06 -9.92006e-06 -7.81838e-07 -2.12189e-06 -9.05684e-07 -2.16525e-07 2.68838e-06 -1.0711e-06 
-1.21245e-05 -1.05904e-05 -2.93178e-06 5.20886e-06 4.74857e-06 1.22592e-05 -1.21237e-06 -2.75032e-05 -1.45121e-05 
-6.89639e-06 -1.24474e-05 -4.19226e-06 -5.96341e-06 -7.93718e-06 -3.33706e-06 -1.87645e-05 3.31809e-05 -3.69374e-06 
1.60225e-05 1.23739e-05 -2.06154e-06 -7.67229e-06 -2.40111e-05 -1.4662e-05 1.22228e-05 -2.80328e-06 3.95092e-06 
-4.08449e-06 -8.68254e-06 -6.73446e-07 -4.93263e-05 -3.18634e-05 -1.4667e-05 -1.37298e-05 -1.77784e-05 -1.58239e-05 
-5.60437e-05 -3.84197e-05 -7.83852e-05 -5.9726e-05 -4.18546e-05 -3.6273e-05 -5.46983e-05 -2.89003e-05 -0.000217908 
-0.000165328 -0.000211783 -0.000260194 -0.000311511 -0.000362736 0.00068605 -0.00444758 -0.0100333 -3.6398e-06 
-1.08486e-05 -2.35146e-06 -6.72388e-07 8.76281e-06 3.69827e-05 -1.06929e-05 -4.42051e-05 -6.22113e-05 -0.000189134 
0.0415241 1.98767e-05 -0.00639022 -0.00318822 -0.00116878 -0.000240422 -8.94288e-05 -9.58493e-05 -0.00012365 
8.24378e-05 5.13865e-05 8.51455e-05 3.12046e-05 1.79411e-05 -1.73666e-06 3.48542e-06 4.74934e-06 2.11439e-05 
-1.73978e-05 1.60151e-05 8.11709e-06 4.12191e-06 1.54085e-05 -3.18495e-06 -2.78052e-05 2.09062e-05 2.50681e-05 
2.89103e-05 9.37072e-06 1.1944e-05 1.40269e-05 2.15644e-05 3.85881e-05 -3.18804e-05 2.72842e-05 -1.34793e-05 
-1.34824e-05 -1.83643e-06 6.50549e-06 1.47665e-05 1.47256e-06 2.18296e-06 -1.67982e-05 -2.1508e-06 1.30025e-05 
3.04511e-06 8.89351e-08 -8.29926e-06 -8.37784e-06 2.08691e-05 -5.1925e-06 8.60898e-06 9.73424e-06 8.0109e-06 
1.68845e-06 -3.51219e-06 -1.91123e-06 -1.20453e-05 -1.35949e-05 -1.31342e-05 -1.41895e-05 -3.01754e-06 -2.7266e-06 
-2.19007e-06 -4.17594e-06 -3.8136e-06 -2.52999e-06 -2.85957e-06 -3.02968e-06 -1.73959e-05 -2.70247e-06 -1.95678e-08 
3.84453e-05 2.27213e-05 2.93128e-05 -3.71555e-05 2.2267e-05 4.47372e-06 -5.27662e-05 2.29283e-05 -1.35718e-05 
-1.3315e-05 8.8409e-06 3.79747e-08 -6.71071e-06 -5.88234e-06 7.45691e-06 -6.59349e-06 -1.02184e-05 -8.74572e-06 
-2.86603e-07 -6.65976e-06 4.28052e-06 -2.62031e-06 -3.97559e-07 -1.49882e-05 9.52207e-06 -1.31207e-05 1.74554e-05 
-1.72183e-06 3.10529e-06 -4.18737e-08 8.40249e-06 1.81072e-06 -1.13579e-05 1.85294e-05 1.19514e-05 1.40284e-05 
2.44506e-06 9.0202e-06 -1.57798e-06 5.13686e-06 4.76758e-07 1.51429e-05 -6.87918e-06 1.20546e-05 -1.06112e-05 
3.82842e-06 -8.41219e-06 5.65512e-07 -1.05133e-05 -2.44233e-06 -1.05879e-05 -3.05985e-06 -4.60861e-06 -6.5609e-06 
1.59022e-05 2.40877e-05 -1.19213e-05 4.208e-07 8.83831e-06 -1.2918e-05 1.9091e-05 1.7058e-05 -5.81364e-06 
-1.77643e-05 0.0347562 -0.0182457 -0.00239508 -0.00240878 -0.000186998 0.00067198 -7.07533e-05 0.000360987 
-0.000304183 0.000519915 0.00392501 -0.00622743 0.0274625 0.0133769 0.0116563 0.00935763 0.00699266 
0.00491754 0.00166077 0.00388758 -0.00077973 0.000639588 -0.000210282 0.00238983 -0.0016478 -0.0173784 
-0.00546498 -0.00128271 0.00655843 0.00266907 -0.00355018 -0.00906188 -0.00445382 -0.00768416 -0.00782627 
0.0106023 0.00967993 -0.00599817 0.00157781 0.00486885 0.0087352 0.00725594 -0.00113187 0.00372458 
-0.0135558 0.00666278 -0.0189301 -0.00525027 0.00275973 -0.00556288 -0.00236408 -0.000922115 -0.00547001 
-0.000359813 0.00441982 -0.0044202 -0.00331583 -0.000356077 0.00627252 0.0135457 0.019816 -0.00707372 
-0.0180971 0.000435867 -0.00410503 7.7001e-05 0.000187169 0.000727855 -0.000262811 0.000651458 -0.00157926 
-0.0123354 -0.00172561 0.00647791 0.00642583 -0.00260043 -0.00995521 -0.00636675 -0.00893574 -0.00841592 
0.00848784 -0.0060977 0.0107218 -0.00741338 -0.00142138 0.00101056 -0.000407434 0.000738441 -0.00453345 
0.000563976 -0.00486578 -8.99924e-05 -0.00541725 0.00180941 -0.00609147 0.0106887 0.0125154 -0.00365728 
-0.000943359 -0.00356977 0.000658452 -0.00171146 0.000291409 0.000154024 0.00480507 -0.000641711 -0.013885 
0.0155106 -0.0154155 0.00284358 0.00273695 0.000588665 -0.00036083 -0.00179674 -0.00055794 -0.00119485 
-0.00293138 0.0173407 0.00861107 0.00104281 -0.00705983 0.00745046 -0.000923199 0.0028485 0.000953757 
0.000249846 5.96102e-05 0.0050183 0.00245914 0.000568571 0.00643374 -0.00859797 0.00328441 -0.00377419 
0.0189057 0.0075481 0.00442727 0.00761459 0.00956489 -0.00233756 0.00399718 0.0152212 0.00259869 
-0.00917843 0.0128136 0.00194993 0.00640757 -0.00353988 0.00478831 0.000209298 -5.37853e-05 -0.000809933 
0.000270928 -0.00122757 0.000195958 0.00457642 0.00793841 0.00300065 0.00995805 0.00363466 0.00827022 
0.000539172 0.00843695 0.0050435 0.00477884 -0.0276265 -0.00709746 -0.00131951 0.000184101 0.000608022 
-0.00403184 0.00192817 -0.00392058 5.04554e-07 -0.00183777 0.00134465 0.00154853 0.00106254 -0.00226778 
0.0132104 -0.0141206 -0.0283914 0.0438142 -0.0122951 -0.0406603 0.00915245 -0.00349875 -0.0124739 
0.00125631 -0.00114819 -0.00184298 -0.000933438 -0.00106368 -0.00342438 0.00269295 0.000143359 0.00108302 
-0.00147635 -0.00379025 -0.0023494 0.00512766 0.0247246 -0.0151362 -0.0146635 -0.00465738 -0.00241085 
-0.0051539 -0.00154442 -0.0032156 -0.00102698 -0.00302856 0.000640615 -0.00377465 0.00112629 0.00229668 
0.00107906 -0.00237729 -0.0195643 0.0083157 0.0149255 0.0146325 -2.53084e-05 -0.0141686 0.0181332 
0.0310562 0.00342536 -0.00270405 0.00328821 -0.00221889 0.00500445 -0.00225493 0.00233722 -0.00135489 
0.00165894 6.91388e-05 0.0041127 0.00517671 0.00881074 -0.00724337 0.0368253 0.0134506 0.0219858 
0.0033514 -0.00386233 -0.0021372 -0.00590168 -0.00208827 0.0027999 -0.00710498 0.00251758 0.0154537 
0.0573229 -0.000303753 -0.0122703 -0.0291937 0.000558893 -0.00271214 -0.000107039 -0.000459098 0.00991664 
0.00909519 -0.0127851 -0.0428374 -0.0177881 -0.0681256 0.00322419 -0.00764667 -0.00473209 0.00295988 
0.00301666 0.00183519 0.00319815 0.00231416 -0.00154147 -0.013692 -0.0125173 0.0193789 0.00907096 
0.0185416 0.00424599 0.000150069 -0.000699106 -0.00252696 -0.00774959 -0.0220025 -0.00794471 0.0496915 
0.00869526 -0.00688152 0.0038298 0.0309737 -0.0297601 -0.00106322 -0.00398435 0.0027183 -0.0171969 
-0.0161137 -0.00055134 -0.000386488 0.0115061 -0.0153347 -0.00840189 0.0181331 0.0284986 -0.000958057 
0.000240234 -0.0031784 0.00288402 -0.00152184 0.00100629 -0.00306357 0.000227298 -0.00217283 -0.00182228 
0.00289222 0.000582305 0.0259294 0.00192472 -0.0470168 0.0123802 0.0354499 0.00752534 -0.00872681 
0.00645475 -0.00707278 0.00209346 -0.00514892 0.00425971 0.0015697 0.00197771 0.00306426 0.000272356 
0.00291069 0.000786606 0.000449814 -0.000841121 -0.000242027 -0.0194262 -0.0108073 0.00939743 0.0197109 
-0.0125253 -0.0236874 -0.0506488 -0.00110757 -0.000501701 0.00389906 0.000975396 0.00149737 0.00053714 
0.000596661 0.000857748 0.00229132 -0.000651476 -0.00152834 -0.00263787 0.0283528 0.0111124 -0.0162135 
-0.0075098 0.00450571 -0.010865 -0.0193894 0.00242285 -0.00105297 -0.0278119 0.00399646 -0.0009764 
0.00130752 -0.00165645 -0.00210765 0.00161555 -0.0035801 -0.00333773 -0.00469051 -0.00709898 -0.00964477 
-0.00435161 0.0152927 0.015177 -0.0032236 -0.00207665 -0.000699256 -0.00046278 0.00413891 -0.000490561 
0.00249748 0.00325608 -0.0139478 0.0275412 -0.00596959 0.00043948 0.00329976 0.000353846 0.00111518 
-0.00106666 0.00112458 -0.0150608 -0.000256511 0.0479049 0.00768003 -0.0493981 -0.00236047 0.0204474 
0.000161743 0.00641888 0.00380328 0.000337191 -0.00102656 0.00587858 -0.00920007 -0.0235416 0.0511234 
0.00645665 -0.0212639 -0.00197663 -0.00106667 -0.000939668 -0.000310191 0.00177652 0.000427557 0.0221353 
-0.00498102 0.0076607 0.0172208 0.0105944 0.0442504 -0.0250594 0.0195162 0.0146532 -0.00121174 
0.0135497 -0.0154087 0.0129604 -0.0126191 -0.00172123 0.00140526 -0.000967805 0.00102032 0.00214356 
-0.00275755 -0.000551467 -0.000679992 -0.000449915 -0.000266984 -0.000651006 -9.01574e-05 0.000365954 0.00101487 
0.0012409 0.00506969 -0.0035451 -0.00638172 -0.00861255 -0.0248686 0.0106231 -0.00711093 0.000131453 
0.006232 0.00273015 0.00213 0.00877248 0.0089596 0.000169785 0.00439675 -0.00080983 -0.00121725 
-0.00176369 -0.00499607 -0.00301563 0.0121276 0.00603136 -0.00393921 -0.00347552 -0.00579502 -0.00361684 
-0.0171356 -0.00222637 0.00974537 -0.00820723 0.00133275 -0.00281908 0.0114009 -0.00828547 -0.000480489 
0.00379317 -0.0143756 -0.0111446 0.00711542 0.0161097 -0.0108292 -0.0123655 -0.00662872 -0.00399476 
0.000542606 -0.0030893 0.0119188 -0.0104036 -0.00241501 -0.0352305 0.00508944 -0.00846913 -0.00703561 
-0.00519554 -0.00776686 -0.00864364 -0.0127624 0.0247152 -0.0118525 -0.0143776 -0.00937816 -0.0106404 
-0.0125595 -0.00900325 -0.010195 0.0216021 0.00927278 0.0179781 1.0185e-05 0.0112682 0.001331 
0.00722296 -0.00127245 -0.0131965 -0.00349197 0.00269656 0.0147611 -0.00159606 0.0159305 0.00373851 
0.0112243 0.000213374 -0.014754 -0.0155026 0.00809033 -0.00537062 -0.0116873 -0.0133478 -0.0103456 
-0.00519313 0.0237904 0.0197023 0.00906021 0.00803738 0.00729675 0.0105698 0.004942 -0.0114712 
-0.0115861 -0.0109505 -0.0195334 0.00218981 0.0128768 0.0111516 0.00715479 -0.0123325 0.00651575 
0.00685343 0.0120878 0.0144356 -0.0178323 0.0101275 -0.0332194 -0.0131919 0.0125026 0.00542686 
-0.00892613 0.00634405 0.0434671 -0.00744155 0.0156207 -0.00312367 0.0082293 0.00132387 -0.00311665 
0.00155217 -0.0122331 -0.00496073 -0.0012007 -0.00386634 0.00167854 -0.0125524 0.0179808 -0.00455493 
0.0168103 0.018097 0.000988778 0.00106027 -0.00159464 0.00630185 0.0187544 0.00286408 -0.0339703 
0.000193901 -0.0128694 -0.0106806 0.0339739 -0.00639243 -0.00887203 0.0107535 -0.00479146 0.0070809 
0.00352711 -0.00228476 -0.00663794 -0.00565625 -0.0103143 -0.0179816 -0.0170848 -0.0136121 -0.00538755 
0.035099 -0.0246106 -0.0125385 0.0096901 -0.00664268 -0.00916468 0.00647629 -0.00943383 -0.00940243 
0.00728659 0.00775821 0.0225435 -0.01255 0.0249525 0.00435214 0.00119521 0.00776033 -0.0298303 
0.00909481 0.00126896 0.00589547 -0.00635644 0.0083004 0.00401537 -0.0128456 -0.0108316 -0.000508806 
-0.014187 0.000689057 -0.00666323 0.0037265 -0.00273438 0.00246534 0.00240244 6.432e-05 0.00119097 
-0.0180783 -0.00271452 3.98297e-05 0.0023938 0.000664728 -0.000206006 0.00170756 -0.00464866 -0.000840214 
0.0419168 -0.00536406 -0.00546871 0.0015733 -0.00157205 -0.00222952 0.00411123 -0.0386608 0.000889252 
-0.00333404 -0.00187032 0.00558521 -0.0147745 -0.00244987 -0.00263063 0.000359273 -0.00429892 0.00211345 
0.000630889 0.00307711 0.0126571 -0.012831 0.00053811 0.00453203 0.00284396 -0.00250084 -0.00338694 
-0.0136768 0.00741901 -0.0185864 0.0174373 -0.00789527 1.01321e-05 0.000271362 0.00024067 0.00632533 
0.00643481 0.00716268 -0.00537149 0.00289878 -0.0135303 -0.0199842 0.0161923 0.000688252 0.00867733 
0.00117729 -0.000177955 -0.0012526 0.000628623 -0.000188172 0.032911 -0.00012368 5.38494e-08 4.7357e-07 
2.35226e-06 5.68763e-06 0.000242316 -0.00105379 -0.000842026 -0.00125279 0.000172248 0.000267746 -1.479e-05 
-1.38904e-05 2.15314e-05 5.01658e-05 2.56916e-06 -2.77139e-05 -7.66869e-06 -5.52549e-06 1.08666e-05 1.9491e-05 
-0.000124296 -0.000174743 -1.69836e-05 3.96768e-06 1.2424e-05 -0.000130897 -6.68042e-05 5.68254e-06 6.31886e-05 
-8.33072e-05 0.00106507 0.000898207 -0.00115 0.000148805 0.00422014 -0.00284335 0.00598523 -0.00188744 
0.0001399 2.82686e-05 3.532e-06 8.43568e-06 -8.03854e-06 -6.31162e-06 -4.10631e-06 4.03657e-06 -2.14268e-05 
-1.82636e-05 -2.39411e-05 -1.10227e-05 -1.67276e-05 5.31601e-06 8.52867e-06 3.40651e-06 8.18814e-08 0.000747504 
6.0846e-05 -0.0021638 -0.00370438 7.05594e-06 -2.39112e-06 1.74127e-05 -0.00726361 -0.00816149 -0.00192048 
0.00371381 0.000466273 -1.20675e-05 -0.00359514 -5.88287e-05 -1.73274e-05 -8.14957e-06 2.21183e-05 -0.00575307 
0.00193768 -0.00616474 0.00168377 4.9342e-06 3.04566e-05 5.31901e-05 8.71094e-05 0.000988855 -6.18453e-05 
-0.00011051 -9.66972e-06 -4.62214e-05 6.51243e-06 1.22271e-07 -3.71416e-06 -1.96562e-06 -1.03021e-05 -7.91411e-06 
-1.04583e-07 -3.38393e-07 -0.00159735 0.00645589 0.00124592 -9.89099e-07 1.77352e-06 3.40793e-06 2.99254e-06 
3.33956e-05 -6.89088e-06 8.03293e-06 -0.00465922 0.000149586 0.00022259 -0.000863528 -0.00120459 -4.92426e-05 
-4.956e-05 7.08462e-06 -9.21515e-07 -4.49263e-06 -0.00237708 -0.00246743 0.00696082 5.55664e-05 4.42009e-05 
3.50679e-05 -6.94678e-06 -1.63645e-05 -8.21665e-07 -7.72172e-06 6.85493e-06 -3.60606e-05 -3.2365e-05 -1.80073e-05 
3.78e-05 3.56731e-05 -5.56689e-05 -7.58676e-05 0.00116212 -0.000107027 1.59762e-06 2.07154e-06 2.43344e-06 
-6.6908e-06 0.00010539 -3.3859e-06 -2.15634e-05 7.33413e-06 -5.73977e-05 -3.52788e-05 -1.07823e-05 1.89994e-06 
-5.19198e-06 8.26752e-06 -9.29663e-06 -1.15554e-05 -3.78896e-06 2.95093e-06 5.44507e-07 -1.64989e-06 -4.62431e-06 
-3.83463e-06 1.68026e-07 8.2262e-06 1.71942e-05 2.33449e-05 -2.18203e-05 -5.78923e-06 1.80963e-06 3.41133e-05 
-4.48668e-05 -1.34221e-05 -3.45244e-06 -2.70142e-06 -3.75626e-06 -6.18752e-06 6.2069e-06 3.40323e-06 -4.12981e-06 
-0.00565828 -0.00656539 -6.46353e-06 -5.45092e-06 3.72396e-06 -1.56133e-06 -6.9567e-05 -4.3651e-05 -3.23583e-05 
-6.32223e-05 3.98238e-06 1.51444e-06 4.60529e-06 -1.04055e-05 -2.2628e-06 2.62423e-06 2.8599e-07 -5.11402e-06 
-1.59955e-06 -2.12682e-05 2.27449e-05 -2.96873e-05 3.6129e-05 0.000121764 -6.56751e-05 -3.25882e-05 2.70864e-05 
-1.97192e-05 2.24782e-05 1.67487e-05 -6.4442e-06 1.91793e-05 0.00568683 -0.00307635 4.17971e-06 0.000135814 
-7.75474e-05 -2.63944e-05 -3.57196e-05 1.46886e-05 3.82414e-06 -7.07368e-06 5.43087e-06 -1.78334e-05 2.7968e-05 
0.000193271 -0.000262195 3.57147e-05 1.27772e-05 -2.68644e-06 1.3086e-05 -9.8314e-06 3.30868e-05 1.14816e-05 
2.52809e-05 1.33614e-05 -1.61086e-05 2.95556e-05 5.75031e-06 5.97339e-07 -2.71933e-06 1.2449e-06 8.12827e-06 
3.44108e-05 2.97588e-05 1.94433e-05 -1.45622e-05 3.56658e-06 2.5604e-05 2.33302e-05 -4.51263e-05 3.62997e-06 
-1.44711e-05 -2.88825e-05 1.89509e-05 -2.01171e-05 1.14669e-05 2.21339e-06 -1.16809e-05 2.72673e-06 -5.4523e-06 
1.62199e-06 0.0202123 0.0186887 -0.00768326 7.7542e-07 -7.80736e-07 -6.42343e-06 2.04845e-06 2.48049e-06 
-1.52121e-06 -2.94797e-06 -0.000136952 1.39428e-06 4.11224e-06 8.136e-07 -2.04822e-07 -2.85208e-05 7.84685e-05 
-9.1984e-05 1.09424e-08 -1.24249e-07 1.80826e-06 7.54918e-07 -6.10397e-07 4.08547e-06 -5.17741e-06 1.18665e-06 
8.64629e-06 -3.76077e-06 1.82252e-06 -7.43145e-07 -1.86715e-07 5.71873e-08 8.21018e-07 5.30159e-06 -2.85053e-06 
4.81113e-06 -3.75636e-06 7.17487e-07 5.24258e-06 6.53303e-06 -7.39685e-06 1.97961e-05 -1.17457e-05 1.89255e-05 
3.3136e-06 1.29824e-05 -1.46057e-05 2.42683e-05 -1.46395e-05 1.76549e-05 6.74299e-06 -2.33467e-05 1.42922e-05 
-2.23943e-05 -3.68396e-05 -1.16345e-05 -3.79806e-05 -1.58982e-05 4.80981e-07 -5.48738e-06 -1.93947e-06 -1.15764e-05 
-1.31756e-05 2.30978e-05 -1.0828e-06 -3.88408e-06 -1.24197e-05 -5.88595e-06 -3.13714e-07 2.02638e-06 2.17326e-05 
1.51754e-05 -4.49427e-05 -4.2639e-06 4.11159e-06 1.34638e-05 -1.65046e-06 -5.53191e-06 -6.06719e-05 -3.44454e-05 
-5.24911e-05 -4.92664e-05 -1.06008e-05 5.54803e-07 -2.61892e-05 -2.49236e-05 -4.68403e-05 0.00192623 -0.0188155 
0.00126147 -3.71942e-05 1.81522e-05 -3.5265e-05 -0.000416197 -0.000242576 0.000263956 0.000978259 -2.05551e-05 
9.63779e-07 8.39833e-06 2.95543e-06 1.52087e-06 -1.63239e-06 -3.90327e-06 2.36842e-06 -7.21514e-06 -9.47655e-06 
-8.98791e-07 -3.53502e-06 -2.03395e-06 1.47962e-06 -1.76066e-05 -3.58638e-05 4.79599e-06 1.59848e-05 -1.65966e-05 
1.28324e-05 -0.000402543 -6.84786e-06 -3.53186e-07 -8.34835e-08 -0.000204605 1.15977e-05 -4.89408e-05 9.99225e-05 
4.49237e-06 -1.3633e-05 2.5158e-06 -0.000354042 0.00625819 0.00117548 0.00106547 -1.53623e-05 2.94971e-05 
-2.96112e-05 -6.62447e-07 -0.000125497 1.19958e-05 0.00145403 -0.000736753 -0.00319101 -0.0136183 -5.31729e-06 
-1.08171e-05 7.32414e-06 8.55849e-06 -0.00443183 -0.00199389 0.00137764 -1.20209e-06 -9.3436e-05 -1.07715e-05 
3.36121e-06 -0.00032286 4.45902e-05 1.62955e-05 -1.73323e-05 3.49081e-06 -1.14219e-05 2.67358e-05 -1.30905e-05 
-0.00294164 -1.58829e-06 2.98455e-05 -2.01262e-05 -2.81312e-06 3.14387e-06 -5.01675e-06 1.81099e-05 2.09149e-05 
5.98704e-06 1.15507e-05 -6.27822e-07 4.32226e-06 -3.51162e-06 -0.00971487 0.00407968 -0.00942053 0.00440371 
2.01052e-06 -3.9226e-05 -3.47408e-06 9.75792e-06 1.53223e-05 -1.83787e-05 -2.26503e-05 -0.00149176 0.00192549 
-0.00476876 4.10168e-05 -1.74453e-05 -1.49135e-05 3.65238e-05 2.89328e-05 -9.70957e-07 4.95745e-07 9.2012e-06 
-1.31484e-06 2.48274e-06 -2.22057e-06 1.06719e-08 -1.85876e-06 4.09159e-06 8.51939e-07 3.04481e-06 7.38096e-06 
3.82033e-06 2.22235e-05 2.44115e-05 2.09431e-05 3.37818e-06 1.92353e-05 -4.67421e-07 -2.07514e-06 -3.31456e-06 
6.50823e-06 3.13115e-06 -1.09045e-05 -2.48267e-06 -1.42425e-06 -0.00493647 0.00748365 0.00180414 0.00145203 
0.000926837 -3.62259e-06 -7.27874e-07 1.59458e-06 2.47365e-06 -4.97302e-06 -9.79782e-06 -7.62207e-06 -3.04034e-06 
6.26046e-06 6.36452e-05 1.44053e-06 -6.14025e-06 4.40699e-06 -4.74246e-06 -3.70696e-07 -3.91983e-05 7.57104e-05 
-8.55614e-05 9.97816e-06 2.9803e-05 -3.53947e-05 -7.31034e-06 -3.88985e-06 -2.41342e-05 6.6577e-06 8.47777e-06 
-2.55201e-05 -2.98149e-05 -3.66726e-06 -6.22643e-05 3.13833e-05 -2.02983e-05 -0.000145041 -1.89914e-05 1.35565e-05 
-1.5305e-05 3.61709e-05 -4.51016e-05 4.68372e-05 -1.85969e-05 -1.67322e-05 -5.4636e-06 8.16457e-06 5.40749e-06 
1.28197e-05 1.04817e-05 -2.18039e-05 -3.05834e-05 8.51691e-08 -5.44844e-06 1.14871e-05 1.79058e-06 6.33902e-08 
9.48808e-06 1.08661e-05 3.96065e-05 -1.86168e-05 0.000131811 -0.00012408 6.52738e-05 -2.68249e-05 -1.87051e-05 
1.7933e-05 -2.04098e-05 2.73812e-05 -4.80734e-05 1.0597e-05 2.10984e-05 1.64145e-05 1.02683e-05 -2.18972e-05 
2.76286e-05 -1.71301e-05 -9.40292e-07 -1.10197e-05 6.40539e-06 0.00410433 -6.67503e-05 1.50681e-05 -2.84433e-05 
-1.05386e-05 -0.00511552 -0.00955432 -0.0079438 1.19504e-05 -4.97187e-06 4.08823e-06 3.65296e-06 -6.69536e-07 
5.71867e-06 1.86975e-05 5.86509e-06 3.6772e-06 6.80793e-06 3.04725e-06 -2.90212e-06 8.3915e-06 2.39093e-06 
-3.49321e-06 -6.51871e-06 -1.90114e-06 2.81434e-06 -7.37907e-06 8.16587e-06 5.11647e-06 -3.03821e-06 -4.72628e-06 
-1.11718e-05 -7.32611e-06 2.35716e-06 3.95092e-05 -2.67566e-05 -3.52096e-06 -6.00007e-06 9.28741e-06 -4.74109e-06 
6.73079e-06 -3.25867e-06 -1.71956e-06 3.01479e-06 2.09538e-06 -1.08978e-05 -2.68909e-06 1.55115e-06 -6.66721e-06 
-1.81205e-05 0.000144435 3.93993e-05 0.000166801 -7.85987e-05 5.21632e-05 -3.47267e-06 2.37178e-06 -8.57505e-06 
-3.49355e-06 -7.3878e-06 -5.94595e-05 2.80815e-05 2.16879e-05 -1.16977e-05 3.07127e-05 -7.01329e-06 1.74982e-05 
2.79892e-07 4.1428e-06 -2.28129e-05 -1.30775e-06 6.52885e-05 -0.00119677 -0.00141266 0.00156071 -0.000537196 
8.27417e-05 4.36443e-06 -5.89948e-06 3.09167e-06 3.97863e-06 -3.07817e-05 4.11027e-05 -2.5923e-05 -2.21951e-05 
-5.81473e-06 -6.66708e-06 2.77572e-06 -1.41268e-05 4.46707e-05 -1.10432e-05 9.78596e-06 7.98149e-06 0.000117714 
-4.49915e-05 -1.9904e-05 -8.82374e-06 1.32963e-05 -8.68734e-06 9.13954e-06 -4.27917e-05 -7.1037e-05 6.47708e-06 
2.18938e-06 -1.25202e-06 -3.1189e-06 -0.000248536 -0.00108003 0.0201634 -2.30472e-05 -3.67837e-05 1.97131e-05 
2.98981e-06 2.48692e-05 1.27191e-05 -1.22659e-05 1.24457e-05 -4.50985e-06 2.29371e-05 -0.00134196 -0.00121626 
1.70042e-05 2.05088e-05 -2.05112e-05 -4.9522e-05 8.19685e-05 -2.18776e-05 2.81262e-05 -1.60138e-05 -9.89282e-06 
6.62004e-06 1.51464e-05 1.04501e-06 1.38823e-05 -2.11636e-05 6.0695e-05 -7.5289e-05 -4.28302e-05 -6.11326e-05 
-7.2232e-05 2.91646e-05 -0.00013207 -9.52337e-06 1.75984e-05 2.62359e-05 8.15648e-06 2.80247e-07 2.86512e-06 
-3.84637e-06 -4.60852e-05 3.06285e-05 0.000291305 -8.50298e-05 -1.57621e-05 1.19947e-05 -7.15237e-06 1.24609e-06 
-1.12657e-06 -2.39293e-06 6.47524e-06 -1.33836e-06 3.7065e-06 1.25529e-05 -2.40549e-05 -6.56955e-06 1.21947e-05 
2.02772e-05 1.37378e-05 1.89865e-06 -4.40412e-05 -2.93274e-05 1.826e-05 1.06439e-05 1.05684e-05 3.21509e-05 
-2.04512e-05 1.06699e-05 0.0202596 0.000310077 0.000702894 -0.00343465 0.00204735 0.00086203 0.000611702 
7.30885e-06 -1.952e-05 0.000188114 0.00378482 -0.00010079 -0.000122792 -2.19845e-05 1.87276e-05 -1.39328e-05 
9.622e-06 2.53312e-06 3.27741e-06 -0.00120003 0.000296652 0.000194168 -2.19456e-05 2.85562e-05 -2.75502e-05 
5.1793e-05 1.18033e-05 -2.31576e-06 6.18958e-06 -8.55248e-06 2.31329e-05 -1.21527e-05 6.79424e-05 2.8401e-05 
0.000109692 0.000180768 -2.00018e-05 -0.000146396 0.00395142 9.52255e-06 3.0551e-05 5.13805e-06 -5.19226e-06 
-1.10575e-06 -9.11369e-06 -1.83213e-06 -2.06924e-06 3.05568e-05 0.00045033 -0.000377241 -0.000344526 -4.00414e-05 
-3.93514e-05 4.73203e-06 3.88366e-05 -1.35181e-05 -0.000133317 -0.00033205 0.000243606 2.07627e-05 1.64927e-05 
0.000180701 0.000256576 -1.48014e-05 -4.64839e-06 5.47809e-06 7.28289e-06 -0.00012953 -1.47301e-06 -8.27418e-07 
4.17942e-06 -0.000334916 -0.000159977 0.000580832 0.00519866 -1.65314e-05 -2.35495e-05 7.63245e-06 -5.61163e-05 
-0.00669947 -0.00191715 -0.00616667 2.21284e-05 -0.00023441 -0.00013299 0.000206132 2.33602e-05 0.00014713 
-0.00108591 -3.50412e-06 1.19129e-06 7.47822e-05 0.000239338 0.00819933 0.00172297 0.0124834 -0.00357148 
0.0137164 -1.9958e-05 -5.2605e-05 -3.9833e-06 -1.60493e-06 -6.66134e-07 6.14064e-05 6.23873e-05 0.000214356 
2.18939e-05 -2.8217e-06 -2.44336e-05 -6.22234e-05 0.000134249 -0.00493766 -0.00425728 0.00136522 -1.47974e-05 
2.98069e-05 -1.81078e-05 -0.00659962 0.00240329 0.00214156 3.4379e-06 -0.00740742 -2.12989e-05 -4.67477e-05 
3.076e-05 1.96293e-05 -5.50097e-05 6.70638e-05 2.20009e-05 -5.91556e-05 0.000218619 0.000106502 -3.82239e-05 
0.000238356 7.57955e-05 0.000199061 -6.40865e-05 -2.41006e-05 2.12898e-05 1.47397e-06 1.68964e-05 1.11469e-05 
8.82589e-06 -2.92966e-06 -3.31016e-06 2.74942e-06 -6.42794e-05 0.000166377 -0.000119603 9.1976e-05 4.30309e-06 
2.66039e-06 3.1351e-06 6.00936e-06 -1.88301e-06 -1.07386e-06 -7.87578e-06 -6.83234e-07 -7.29265e-07 -7.06196e-06 
2.59319e-05 -4.78376e-05 -5.63491e-06 0.000157701 0.000266043 5.44114e-05 4.23121e-05 -1.85195e-05 2.29452e-05 
-1.86401e-05 -0.000101897 0.000207832 7.12083e-05 -3.53185e-06 -5.79067e-06 -3.81494e-06 -2.96576e-06 1.17376e-07 
-1.06824e-05 2.3344e-05 -1.06794e-05 -8.86683e-06 3.71779e-06 -1.1375e-05 5.7736e-06 -1.38278e-05 1.53503e-05 
-7.80376e-06 1.57484e-06 0.0125951 0.0135095 3.18734e-06 3.13499e-06 2.67088e-06 1.04664e-05 5.91842e-06 
-9.72189e-06 -7.8019e-06 -2.29594e-06 -1.38554e-05 1.28504e-05 -2.00199e-05 -2.47741e-05 1.81427e-05 1.3762e-05 
0.00260208 -7.65844e-07 0.0179082 -3.25129e-05 -6.23304e-06 2.70631e-05 -2.05434e-06 3.23644e-06 -1.98106e-05 
-3.05511e-05 2.41187e-05 -0.000889872 -0.000338112 -0.00301004 5.16874e-07 4.47925e-06 -4.37983e-07 4.59083e-06 
-3.07269e-08 0.0225371 0.0225935 -0.00887209 0.0202096 7.18739e-06 -1.13983e-05 -0.0192573 0.00202545 
0.0211566 0.00260067 -2.20484e-05 1.50762e-05 1.48653e-05 -0.000143552 -5.94422e-05 -0.000256225 -0.000182211 
1.13429e-05 -1.07933e-06 1.00598e-05 -1.13388e-06 -3.15356e-05 -3.17429e-05 1.34412e-05 1.23044e-05 -4.74433e-07 
9.39461e-06 -1.33578e-05 -1.4783e-05 -8.44822e-06 -1.27503e-06 -8.74242e-06 1.70311e-05 2.48982e-05 -1.50935e-05 
7.49744e-06 -3.64448e-05 -4.38026e-05 -5.60062e-06 -5.8114e-06 9.98954e-06 2.64781e-05 -1.17845e-05 -6.44454e-06 
-0.00545793 -0.00647077 -8.61064e-06 -3.80261e-06 4.24476e-06 0.0017814 0.00112935 0.0199458 8.97921e-07 
2.09505e-06 0.00152111 -0.00148673 0.000157953 -3.37975e-05 -8.49707e-05 -0.000109246 -2.49715e-05 1.19236e-05 
3.88277e-06 -2.47142e-06 -0.00568796 -0.00121015 8.59956e-05 0.000200221 -1.68571e-05 -7.79031e-06 2.24043e-07 
-2.15816e-06 -1.046e-05 -4.06062e-06 -1.05893e-05 1.39187e-06 2.14756e-07 -2.48025e-05 5.22254e-05 4.31422e-05 
1.48468e-05 1.22374e-05 -2.46358e-05 -1.2838e-05 8.91873e-06 -1.17887e-05 3.47059e-06 -0.0097005 -1.81942e-05 
-3.00485e-05 -6.40651e-06 1.72674e-05 1.11985e-05 -6.08372e-06 2.93467e-06 4.93182e-07 8.80133e-07 -1.62524e-07 
-0.00194639 0.00152024 1.33105e-06 2.54397e-05 -2.70021e-06 -7.36871e-05 -4.67343e-06 1.12685e-05 5.72787e-06 
-2.61608e-05 -3.01437e-05 4.79595e-05 -9.75141e-07 5.58798e-07 7.47317e-07 -2.09353e-05 2.91977e-06 -1.34517e-05 
-6.30359e-06 4.69869e-06 3.62765e-06 -1.35464e-07 -2.40278e-06 -1.01792e-05 1.11478e-05 1.45855e-05 -6.40033e-06 
-1.41217e-06 -1.07757e-06 5.30784e-05 2.34086e-05 1.61747e-05 -1.44556e-05 -1.93924e-05 -1.56689e-05 3.7065e-05 
-8.87689e-06 0.00520897 1.55581e-05 8.77293e-06 -5.90717e-07 -6.08597e-06 -1.80011e-05 5.80102e-06 -1.36355e-05 
2.39618e-05 -2.05239e-06 -6.99131e-06 5.68754e-07 7.49823e-05 -7.81117e-05 2.35375e-06 9.63752e-06 -4.91455e-06 
-5.6281e-06 2.79718e-06 6.73261e-06 2.0734e-05 1.90198e-05 1.81687e-05 -1.4943e-05 -5.29899e-07 3.99016e-07 
0.0017863 0.000123491 2.66685e-05 0.000114129 -1.77282e-05 -1.83649e-05 6.94273e-06 -3.28913e-05 6.7534e-06 
-3.71264e-07 1.79406e-05 -2.83627e-05 -0.0202289 -1.56576e-05 8.5166e-06 -1.703e-05 7.77118e-06 3.89488e-05 
4.20796e-05 -8.44423e-05 -1.36733e-05 -7.71866e-06 -1.46939e-06 -3.98622e-06 -7.88874e-06 7.7842e-06 -7.88272e-06 
-1.14573e-07 -5.92547e-05 6.84915e-05 8.88573e-05 4.93665e-05 -6.32047e-06 0.000338188 -3.60265e-05 4.89347e-05 
0.0023687 -0.00306307 0.00075841 -0.00298673 -0.00141226 0.0200287 -7.09825e-05 0.000853161 9.49895e-06 
4.7888e-05 -2.1059e-05 -7.7141e-05 -1.60355e-05 -3.17078e-05 -2.61774e-05 -3.73198e-06 -0.00203845 -0.00360958 
0.000693531 0.000135793 -5.96706e-05 -3.9993e-05 -0.000166305 -1.54115e-05 9.85658e-07 7.36801e-05 -2.28413e-05 
0.00400292 -1.43387e-05 1.88364e-05 -2.34815e-05 2.90943e-05 -4.26338e-05 9.3511e-07 -0.000712162 -0.00358319 
8.0045e-05 0.000589021 0.00426591 -4.14821e-05 2.01486e-06 1.1697e-05 -6.04044e-06 1.23039e-06 2.70562e-06 
-1.18238e-05 7.26827e-06 -1.61185e-05 -8.30591e-05 7.7569e-05 2.14798e-05 -2.68151e-07 -3.4947e-06 -0.00021092 
-1.75545e-05 -4.62527e-05 -0.00354262 -0.000206361 1.00817e-05 -6.38008e-06 9.09892e-06 2.91697e-07 -8.52928e-06 
7.39477e-07 -8.88762e-06 4.16916e-07 1.83596e-06 6.87664e-06 -7.96564e-06 9.61125e-06 -3.82835e-07 2.84886e-07 
-1.68626e-06 -0.00141948 0.00029121 -0.00284368 -0.00132925 7.25333e-06 -5.20593e-07 1.76287e-05 -9.57567e-06 
1.32026e-05 -1.16911e-05 -3.29746e-05 1.30935e-05 4.16019e-07 -2.46356e-05 -2.17276e-05 -6.63034e-06 -0.00163485 
0.000472434 -2.92379e-06 -4.80471e-06 -6.04146e-05 -7.72772e-06 -1.82296e-06 1.78788e-06 -2.53116e-05 -2.91441e-05 
7.05293e-06 -1.41987e-06 -7.0757e-06 4.57219e-06 -5.1305e-06 -0.000172574 -1.25177e-05 5.79548e-06 1.08542e-05 
2.72922e-06 2.79782e-05 4.9038e-05 -2.0943e-05 4.49906e-06 9.79039e-06 0.000144691 -4.89933e-05 -2.86075e-05 
-3.26977e-06 -1.29589e-05 2.11485e-06 -2.51577e-05 -0.00314014 0.0181496 7.42718e-05 -0.000128963 0.000816091 
0.000690261 -1.86398e-05 -3.18819e-05 -2.38783e-05 -7.21809e-06 4.78908e-07 0.00100752 0.00304297 0.0010138 
0.0210113 4.54547e-05 -7.31838e-05 0.00011726 0.00134966 -0.00125125 0.0055066 0.000140959 7.79562e-05 
-0.000105318 -2.4362e-06 -1.15499e-06 2.83404e-06 5.99714e-06 -2.78391e-06 -0.00101606 -0.00568052 0.0054485 
-0.0100449 0.00671122 4.71522e-06 -2.42802e-05 -8.39698e-06 -2.88605e-06 -1.6192e-05 4.56543e-06 3.87994e-06 
-6.41871e-06 2.04019e-06 3.25864e-06 2.87772e-06 8.74387e-06 1.88756e-05 -1.98037e-05 -1.81793e-05 3.79693e-05 
-3.71684e-06 2.80871e-05 4.81384e-07 1.33223e-06 3.6916e-06 1.97154e-08 -9.00455e-07 0.000155825 -5.56495e-05 
0.000206565 -7.3541e-06 7.56258e-06 4.81253e-06 -4.57882e-06 3.14955e-06 -3.04119e-06 8.62938e-07 1.08431e-05 
-2.00792e-05 -1.59665e-05 6.68201e-06 -5.68476e-05 1.21362e-05 -6.78593e-05 3.38457e-06 7.28676e-06 -1.23043e-05 
-9.08283e-06 -7.23161e-06 0.000104503 3.56692e-05 -5.71198e-06 6.7563e-06 -1.0597e-05 -8.106e-06 -1.08136e-05 
2.57521e-05 8.50462e-06 -1.5095e-05 7.09289e-06 1.02564e-05 -1.6623e-05 -1.15113e-07 2.66449e-05 -1.4459e-05 
-2.15152e-06 3.36831e-05 3.59398e-05 -6.87457e-05 -4.24299e-05 -8.13659e-06 -7.98938e-06 3.86421e-07 -0.00593615 
3.14827e-05 -3.03505e-06 -1.95535e-05 -1.47025e-05 1.00452e-05 -1.9903e-05 -1.42706e-06 -1.56868e-05 -1.75928e-06 
9.2014e-05 -2.57803e-05 2.41776e-05 1.00452e-05 -9.15804e-07 0.00361221 -0.00107466 0.000307132 -5.07901e-06 
1.08438e-05 1.55755e-06 1.78851e-06 -2.19698e-06 -5.85934e-06 8.87668e-06 1.37641e-05 -2.17963e-06 2.52643e-08 
0.000123419 -7.08828e-05 -0.000113946 4.40722e-05 -2.63997e-05 2.13609e-05 -4.19369e-05 2.99754e-06 4.64281e-06 
-7.16428e-06 -5.65604e-06 -3.25562e-06 3.54653e-07 5.02283e-05 5.69533e-05 0.000193303 -1.36142e-05 8.92126e-06 
-5.00952e-07 -2.2805e-07 -2.66558e-06 2.73078e-05 1.65589e-05 9.08836e-05 4.35711e-06 -2.40467e-05 -3.07784e-05 
-3.39114e-05 -2.1793e-06 0.000105847 0.000170516 1.33163e-05 -3.57932e-06 -6.8402e-06 -2.81096e-05 2.66414e-05 
-2.23431e-05 4.70994e-06 1.39684e-06 0.00145476 -0.000436568 -0.000291441 9.13289e-06 -2.72145e-05 2.57506e-05 
-2.94075e-07 2.63901e-06 -3.65109e-06 -0.00281187 3.50209e-06 -8.91264e-07 -6.26747e-05 3.87279e-05 -4.79608e-05 
3.06597e-06 2.32853e-05 -1.36122e-05 1.05034e-06 -0.00498198 0.00113173 -4.79572e-06 6.46752e-06 1.33692e-05 
-5.53787e-05 1.63288e-05 -1.0591e-05 -3.39649e-05 2.99248e-06 -1.13102e-05 1.33355e-05 -7.33e-06 -1.19013e-06 
5.13218e-06 -9.79917e-06 9.46666e-06 -2.14055e-05 6.94456e-06 2.99071e-05 -0.000238657 4.10213e-06 -9.9681e-05 
-6.40549e-05 0.000173967 0.002477 -0.00556169 0.00263792 -1.02901e-05 2.05131e-06 -2.79081e-05 -7.57665e-06 
7.62352e-05 -5.71178e-05 2.20053e-06 -2.32014e-05 2.64692e-06 -7.59392e-06 -4.51941e-06 4.32947e-06 8.87855e-07 
0.00103086 0.000327466 1.14933e-06 -7.99366e-06 -3.80208e-06 2.04667e-05 -1.74597e-06 1.43942e-05 0.0259805 
0.0120218 -1.90743e-05 -4.57018e-07 -7.39273e-06 0.0166051 0.00260921 -8.09661e-06 -2.68024e-05 2.72459e-05 
-0.000140418 -0.000163485 -0.00160798 -0.000214125 0.000230724 7.04827e-06 1.30658e-05 1.36631e-05 -1.15167e-06 
7.05935e-06 -9.895e-05 -1.64021e-06 -1.62521e-05 8.17109e-06 8.66139e-05 2.69221e-05 -0.000138602 6.84167e-05 
-8.21164e-07 5.3116e-07 -2.15248e-06 -0.000210562 7.17367e-05 -1.61788e-05 -0.00293693 2.32947e-05 1.23708e-05 
0.00120147 -0.000206589 2.4445e-05 8.12017e-07 -8.41818e-06 -1.50117e-05 -6.7521e-06 -8.64958e-06 7.21115e-06 
-6.02305e-06 -2.30967e-06 9.98451e-06 -1.85942e-06 6.84865e-05 -1.91263e-05 -0.00397756 -0.0088684 -0.00727449 
1.86094e-06 0.000452169 0.000933783 2.40184e-05 8.13287e-06 0.000119978 1.32887e-05 -1.35436e-05 2.75906e-07 
-0.00333056 -6.11535e-06 2.90875e-06 2.12479e-05 -2.1805e-05 -6.46912e-06 -0.000113506 -0.000203286 -4.94191e-06 
5.99946e-06 -1.72511e-06 8.27305e-05 4.76521e-05 4.68455e-05 1.2196e-05 -3.77201e-05 9.54986e-05 1.80893e-06 
-3.65321e-06 -4.25854e-06 4.18182e-06 -1.38963e-07 -0.00861968 -0.011588 -1.87707e-06 3.68081e-06 -4.36625e-06 
-5.73969e-06 -1.39031e-05 1.6141e-05 5.72519e-06 -5.7934e-06 -2.68748e-05 2.54621e-05 -7.96443e-05 0.0172996 
-0.000144615 1.74767e-05 0.000110422 0.000492314 -0.000113811 -2.7696e-06 -3.06393e-05 -1.09532e-05 -0.00124986 
0.000105458 -0.000106533 -8.74921e-05 1.94369e-05 0.000952202 -0.000130193 -0.00136565 -0.00126707 -1.86981e-05 
-4.82535e-05 1.63333e-05 1.44523e-05 1.70337e-05 -4.03055e-05 2.66773e-05 -2.07923e-05 -8.64993e-06 4.46116e-05 
0.000147497 -2.55527e-05 6.67265e-06 7.57366e-06 -0.000118503 5.22408e-06 -5.82972e-08 -0.00928102 3.7085e-05 
2.82564e-05 3.0508e-06 -9.99716e-06 -8.37811e-07 -1.8733e-06 6.11963e-06 2.4492e-06 2.92074e-06 -1.92413e-06 
6.87643e-08 -3.6243e-06 2.27934e-06 0.0249873 1.75566e-06 -8.01866e-06 3.16267e-06 1.95135e-06 1.18894e-05 
-2.27918e-06 -8.66756e-07 1.19961e-06 3.38071e-06 1.43795e-05 2.28866e-07 -2.14654e-05 1.23633e-05 5.3835e-06 
7.24108e-06 -1.66372e-06 5.07809e-06 -4.5895e-06 1.10557e-06 -1.48699e-05 1.25033e-05 -1.93294e-05 -2.37607e-06 
-1.55799e-06 4.23158e-07 -1.12217e-06 -1.56252e-06 5.58431e-06 4.00806e-06 3.38306e-05 -1.23561e-05 -1.2849e-05 
0.000112878 -0.000246264 -3.93323e-06 1.19338e-05 6.97815e-06 4.02056e-05 -0.010498 -0.00891294 0.00384405 
0.00546143 2.83871e-05 -1.32473e-05 4.50418e-05 2.68432e-05 -1.94234e-05 -3.26908e-06 1.64757e-05 0.00763322 
-0.0170634 2.30577e-05 -4.31548e-05 1.59238e-06 2.19264e-06 -4.77895e-06 6.84332e-06 2.96555e-05 1.42558e-05 
-1.78256e-06 7.74209e-06 4.12628e-05 3.3096e-05 3.63313e-05 -0.000828429 -6.59006e-05 -0.000151235 -4.90705e-06 
3.37859e-06 5.82087e-06 -2.27689e-05 3.46674e-06 1.60518e-05 1.7441e-06 0.000310113 0.00051769 -2.45494e-05 
0.000395155 -0.00369682 -6.43929e-05 3.1606e-05 -1.61658e-06 3.49613e-05 5.81885e-06 -8.25662e-07 -5.54876e-06 
-1.27976e-06 -5.21843e-05 1.8408e-05 -2.90912e-05 -4.7423e-06 -0.00235299 2.75323e-06 -5.16491e-05 1.84844e-05 
-0.00140366 3.62877e-05 -2.43984e-05 4.53728e-06 1.73075e-06 2.71128e-06 -4.15583e-06 -2.1183e-06 9.37257e-06 
-8.25506e-07 -2.86518e-06 2.63949e-05 -2.32048e-06 -2.19953e-07 -1.93527e-05 -1.83257e-05 -3.54543e-05 4.30286e-05 
8.86096e-05 2.10955e-05 -2.18496e-05 0.000152254 -3.85143e-05 -8.62764e-05 -9.78755e-05 8.54196e-06 -1.45703e-05 
-5.57908e-05 0.000139067 1.24884e-05 0.000175228 2.21556e-05 -0.00013306 2.8468e-05 -4.63229e-05 2.26331e-05 
-2.92949e-05 -9.12132e-08 4.99435e-06 -5.00371e-06 -2.58145e-06 -2.51152e-07 8.02449e-07 3.22156e-06 1.66114e-05 
-5.4083e-06 -8.73236e-06 7.58455e-06 -2.25845e-06 -1.18871e-06 -2.395e-05 -1.23579e-05 7.88385e-07 -1.71619e-06 
-2.98517e-05 -7.67751e-06 1.97893e-05 3.79981e-05 -5.42484e-05 1.59533e-05 -2.54926e-05 6.03198e-06 5.04406e-05 
-4.99859e-06 9.64572e-06 -1.8349e-05 4.821e-05 4.38496e-05 -7.71154e-05 -1.54613e-05 -3.24217e-05 -1.61662e-05 
2.01386e-05 -8.87482e-06 6.92717e-06 2.3973e-05 -0.000294327 0.000296874 -0.000131599 1.60303e-07 -1.13691e-05 
-3.11287e-05 9.74139e-06 -1.25237e-05 8.86326e-06 5.54507e-06 5.11025e-07 -1.23007e-05 1.2229e-05 -2.2022e-05 
-1.98058e-05 2.72327e-07 3.10473e-06 -4.82511e-06 -0.00217423 0.00518419 -0.0119445 1.1802e-06 -3.55418e-05 
-6.45962e-06 -2.53421e-06 -8.78722e-06 -1.24994e-05 -2.80384e-05 1.32421e-05 -1.55773e-05 3.11838e-05 -0.00491634 
0.0064439 1.25041e-05 7.15652e-06 0.000153919 -6.31695e-05 0.00116745 -0.00124187 -0.00133809 -7.23415e-06 
2.85462e-05 5.67376e-06 2.62928e-05 8.85822e-05 0.000315241 -1.59243e-05 1.24042e-05 -2.31975e-05 2.40044e-05 
-8.12285e-07 1.56338e-06 6.4697e-05 3.88954e-05 9.22357e-06 0.00118543 -0.000148542 -0.00101862 -4.4212e-05 
2.23467e-05 1.25341e-05 1.89682e-05 -5.11196e-06 -1.37943e-08 0.000565332 1.26181e-05 1.39661e-05 -2.77963e-05 
1.36702e-05 2.6756e-07 3.05268e-06 5.11755e-06 2.26694e-05 -6.28509e-06 1.04722e-05 5.08511e-05 7.23356e-05 
0.000188515 4.96099e-06 -0.001324 2.8685e-07 2.36494e-06 -8.58065e-06 -7.28391e-06 0.000106471 -2.4911e-05 
-0.000142284 7.88658e-06 -1.89985e-06 4.85123e-06 -1.51844e-06 2.90852e-05 3.6428e-05 -7.12017e-06 -8.3513e-06 
-1.49616e-06 -9.55519e-07 -2.60933e-06 8.25948e-05 1.21838e-05 -2.57074e-05 0.000312534 0.00227163 -2.01426e-05 
6.96472e-06 1.81395e-05 1.18237e-05 -0.00356271 0.000277807 0.000116429 -3.87137e-05 -6.04359e-06 1.28221e-06 
-5.73708e-06 -1.5927e-05 -3.68188e-05 1.1949e-06 2.12686e-05 2.13893e-05 2.13338e-05 4.21371e-06 -2.99807e-05 
-1.17356e-05 5.45775e-06 -6.62527e-06 -0.000319913 -3.76246e-05 0.000266248 -1.88787e-05 2.46874e-05 9.58429e-06 
-3.85605e-06 0.00012822 -2.06513e-05 -0.000289316 1.47028e-05 5.33117e-06 -1.41739e-05 -0.000245536 5.5993e-05 
1.11583e-06 0.019415 -1.38734e-05 0.0211032 -5.46257e-06 -5.51189e-06 2.00015e-05 -4.72924e-05 6.47209e-05 
1.1178e-06 5.5214e-06 -2.53209e-06 -2.79827e-05 2.17012e-06 1.02268e-05 -8.82859e-06 1.91954e-06 2.90204e-06 
-2.09057e-05 1.00517e-05 -1.08539e-05 5.27412e-06 -4.97613e-06 -8.75314e-06 -6.92726e-06 1.62313e-05 2.10859e-05 
-0.000142338 1.73212e-05 -3.64861e-06 2.57233e-05 -2.68972e-05 1.46558e-05 -2.35998e-05 -1.96062e-05 -6.35192e-05 
-2.46802e-05 9.36267e-06 3.27102e-07 1.77869e-05 0.00384506 8.58033e-05 -8.57548e-05 3.35961e-05 6.21093e-06 
0.000102332 -2.41401e-05 2.86578e-05 -9.01818e-05 -0.000179592 -1.91594e-05 5.08996e-07 -1.58043e-05 1.0464e-05 
3.55236e-06 -5.08239e-06 -4.20633e-06 -8.46143e-06 0.00204506 -0.000466564 3.4517e-05 5.25456e-06 3.15868e-06 
-3.21378e-05 0.00110646 -0.00491491 -0.00208797 5.66612e-06 1.26201e-05 -2.26102e-05 -4.38722e-06 4.6348e-06 
3.04627e-06 -3.09944e-05 -3.87522e-06 0.0209647 -2.55933e-06 -5.64476e-06 -4.97393e-05 2.34554e-05 1.33299e-05 
-2.17755e-05 -5.75973e-05 1.45316e-05 8.3059e-06 -6.72226e-06 -2.00151e-05 2.07904e-05 -1.86832e-06 -2.66859e-05 
-5.07621e-05 4.00172e-06 9.88865e-06 -3.42038e-06 -1.01551e-05 5.72055e-05 1.19907e-07 4.58375e-05 1.43994e-05 
1.93609e-05 -0.00178344 0.000779714 -0.000132338 0.00328112 -0.00212166 -0.00280137 -0.0104174 0.00586554 
-0.0119989 -4.91333e-05 -2.41397e-05 2.65911e-06 -9.92794e-06 -3.63038e-06 1.86082e-05 1.53679e-05 3.42533e-06 
-2.75383e-06 -7.06745e-06 1.22178e-05 -1.63507e-05 -2.02315e-05 -9.02316e-06 -5.42547e-06 -1.25991e-05 3.23713e-06 
1.72153e-06 -0.00731348 1.26389e-05 -0.000134696 2.85459e-05 -2.3279e-06 1.17736e-05 -0.00426186 1.08132e-05 
0.000103866 0.000133527 1.53665e-05 5.27874e-06 -9.98884e-06 2.49007e-05 1.40928e-05 -4.66254e-06 2.10057e-06 
2.18315e-06 -3.37939e-05 2.98051e-07 -4.38323e-06 6.74033e-05 -5.40499e-05 1.67851e-05 -3.21068e-05 2.05097e-05 
-0.000108951 5.46683e-05 0.000391656 -3.33825e-05 3.88171e-05 -4.69013e-05 1.80677e-05 0.000949197 0.00102608 
-0.000268652 -2.89577e-05 -1.42134e-05 -8.2261e-07 -4.33237e-07 5.6973e-06 -3.35574e-05 -4.14712e-07 -1.56596e-05 
-4.29115e-05 4.28576e-05 -3.75409e-05 3.12585e-05 0.000794593 5.43783e-05 2.12368e-05 -1.31575e-05 5.29615e-06 
-3.4805e-05 2.898e-05 3.04504e-05 0.000318407 0.000139902 2.07982e-06 6.20223e-06 2.30838e-05 -5.67757e-05 
0.000369941 -1.47356e-08 4.85083e-05 -8.33849e-05 -5.34451e-05 4.67625e-06 -8.29324e-06 1.85758e-05 7.83653e-06 
3.38183e-05 -0.000271779 -9.81946e-05 -5.23526e-05 0.00126957 -0.00101666 2.66307e-06 3.73406e-05 8.11818e-06 
-8.79792e-06 1.02729e-05 9.4591e-06 -2.80951e-05 -9.13931e-06 7.29543e-06 5.63609e-06 -1.01008e-05 1.11293e-05 
-9.57111e-06 -4.12379e-06 1.32201e-05 -2.46145e-05 1.01606e-05 1.43741e-05 1.04169e-05 -1.75755e-06 -9.38648e-07 
-1.8239e-06 7.14421e-06 2.25937e-05 4.90155e-07 -2.31497e-06 1.42959e-05 1.20322e-05 -1.13522e-06 2.71197e-06 
-4.58315e-06 -4.2361e-06 -1.64153e-05 -1.05183e-05 3.62417e-06 -8.35167e-06 1.70471e-06 1.48007e-05 1.30595e-05 
2.11365e-05 -1.63617e-05 -6.31693e-06 -2.69106e-06 5.22969e-06 -0.00201983 -0.00132588 0.00117869 -0.000681836 
-5.16802e-06 0.000934206 -0.0021708 -0.00348045 -1.24982e-05 0.00105898 5.49385e-05 4.49482e-05 -5.87998e-06 
1.06897e-05 -3.70609e-05 6.0239e-05 -3.19974e-05 -3.51953e-05 2.11491e-07 -0.000191614 0.00233303 0.00221824 
-0.00680966 -0.00642337 -2.46455e-05 0.000365135 8.24258e-06 6.98857e-05 1.26372e-05 -3.1672e-05 3.91853e-05 
4.23838e-06 -0.000123563 -2.77681e-06 6.11901e-06 -7.19694e-06 -1.22941e-05 -4.45151e-06 -1.70088e-05 -1.17351e-06 
-9.89482e-06 2.59861e-05 2.19258e-05 6.43959e-06 2.9727e-05 3.37613e-05 9.05976e-06 7.70077e-08 -8.18252e-06 
3.99302e-05 1.12928e-05 -1.0425e-06 -2.27535e-06 5.57683e-05 6.36818e-05 -2.63081e-05 2.31657e-05 -3.0411e-05 
-1.34327e-05 -2.87272e-06 -2.11802e-05 -2.56836e-06 2.95547e-07 -1.2615e-06 -1.19821e-06 -1.90864e-06 -2.60966e-05 
-0.0182506 7.74623e-05 2.93023e-08 1.22002e-06 -6.4221e-06 -0.000329712 0.00636414 0.00637009 4.38178e-06 
-1.59517e-05 -2.39447e-05 -3.52499e-06 2.91094e-05 5.95127e-06 6.80733e-06 -5.42437e-07 8.06457e-06 1.27062e-05 
1.06671e-05 7.00927e-06 0.00621597 3.95476e-06 9.39926e-06 5.77484e-05 0.0193851 -0.000673891 -0.000488476 
-1.57847e-05 1.82317e-05 1.75079e-05 2.26377e-05 -2.31671e-05 -2.13035e-05 2.26022e-05 -4.28199e-06 -9.05962e-06 
2.95706e-05 -0.00104219 2.94949e-07 0.00616291 -0.004612 0.00156196 -1.52965e-05 -1.56721e-05 -0.00355427 
3.69915e-06 2.62147e-05 -6.64882e-05 -3.44534e-05 0.0231901 -0.0188111 -3.66342e-06 4.24199e-06 2.79406e-06 
-5.4423e-07 5.33811e-06 2.71512e-06 0.0216094 0.0269192 5.28393e-05 8.47966e-06 2.98287e-05 -1.3207e-05 
5.04645e-06 6.01916e-06 0.00710472 -4.94548e-06 3.90111e-06 7.62969e-06 2.32324e-05 1.1681e-05 -0.00583817 
3.21147e-05 7.44244e-06 0.000629772 1.39258e-05 3.71384e-07 3.59864e-05 -2.93093e-07 1.42999e-05 -1.87778e-05 
0.0210905 0.0183209 -0.00824196 0.0200493 7.33116e-06 2.15244e-06 -1.06318e-05 -9.84512e-06 1.53998e-06 
-4.1424e-06 -2.20318e-05 -5.97328e-06 2.00125e-05 3.06029e-06 4.73975e-05 -4.89546e-05 -0.000115591 -1.9343e-06 
-3.35655e-05 -0.00894046 -1.35916e-06 2.98865e-06 3.19804e-07 8.24163e-06 2.24485e-06 3.54431e-06 2.8886e-06 
4.21543e-06 -2.66058e-05 2.42008e-05 5.90374e-06 -0.000218097 -0.00566879 -0.00132249 0.00501923 -0.002512 
0.00620034 -0.00168147 -5.40584e-05 0.000146044 0.00679686 0.00747591 0.000110499 -0.0034081 -7.10685e-06 
-2.2992e-05 1.71867e-05 2.85215e-05 1.32603e-05 1.47631e-05 2.10439e-05 -5.2004e-05 -1.58422e-05 4.30682e-06 
-0.000112381 9.26126e-05 6.05114e-05 -3.47858e-05 -4.99966e-05 5.51906e-05 -0.000107664 -2.5181e-05 3.97234e-05 
-0.0104997 5.84496e-06 7.53462e-07 4.20554e-08 6.58706e-06 1.41556e-05 -1.23829e-05 6.43073e-06 -1.0095e-05 
-4.14842e-06 6.64178e-06 -8.9376e-06 4.13746e-05 4.49089e-06 -1.05976e-05 1.14198e-05 -7.75537e-06 2.19498e-05 
7.85956e-07 -0.000103411 8.64799e-06 2.80375e-05 -3.37922e-05 -2.5347e-06 3.87796e-06 -1.29368e-05 0.00160359 
9.86175e-06 -2.91797e-07 3.3851e-05 -1.60579e-05 -2.94982e-05 1.11125e-05 2.04677e-05 -5.709e-06 -1.66091e-05 
-0.000169628 -1.72363e-05 8.2403e-05 -1.43172e-05 4.50906e-05 -2.73413e-06 1.15615e-06 -1.19672e-06 -1.74983e-05 
-9.77994e-06 -3.70387e-06 3.35059e-05 2.99988e-05 2.31955e-05 -2.24374e-05 5.3856e-05 -2.58471e-05 0.000139941 
3.00773e-06 -3.05039e-05 0.000399462 -6.30886e-06 7.19014e-06 3.98166e-06 -2.91686e-06 1.61827e-05 -1.03096e-05 
1.53344e-06 4.15244e-06 2.95273e-06 0.00235477 1.30911e-06 2.76648e-06 -1.2206e-05 5.62658e-06 3.13454e-06 
-5.89524e-07 7.75898e-06 5.40377e-07 -8.91421e-06 5.43077e-05 -3.18346e-05 -2.30861e-05 7.827e-06 -1.97704e-05 
1.01421e-07 6.16247e-06 3.42441e-08 5.84352e-06 -2.06043e-05 0.000481758 0.000144512 -2.29612e-05 -4.85794e-06 
-1.8006e-07 5.15989e-06 -0.00747822 -0.000268909 -5.56279e-07 1.62312e-06 6.60869e-08 7.38007e-05 2.47664e-05 
-1.84566e-05 -0.00191484 0.00160171 4.08521e-06 -0.000979797 1.76828e-05 1.73543e-05 -1.04648e-05 1.27833e-05 
4.95635e-05 8.13964e-05 -1.20735e-05 -6.9402e-06 -0.00232775 -0.00330212 0.000776077 -3.58156e-06 6.20596e-05 
-2.50553e-05 -1.54443e-05 -4.42025e-06 -4.31688e-06 3.24089e-06 0.00107586 -0.000414049 0.000162158 0.000170847 
8.08739e-05 9.52071e-05 -1.01919e-05 -2.32018e-06 1.04568e-05 2.10455e-05 -3.80715e-06 2.47202e-06 -2.99392e-06 
1.28842e-06 2.79914e-06 -1.07239e-05 0.0113876 -1.28208e-06 -3.44766e-05 -0.00196042 -1.9375e-06 -1.33449e-05 
1.93249e-06 4.03369e-06 1.27742e-06 -7.10463e-05 -3.31066e-05 -3.62101e-06 3.52428e-05 1.99766e-05 1.80897e-05 
-1.60275e-05 1.29424e-05 2.43668e-05 -3.05842e-06 5.40645e-06 -4.15922e-05 9.07223e-06 1.90226e-05 3.81561e-06 
3.72884e-06 2.01101e-06 6.55525e-06 1.48591e-05 -1.22573e-05 -8.41593e-07 4.47467e-06 3.30861e-06 1.86457e-06 
2.2716e-05 -2.95177e-06 7.68899e-06 -1.41643e-05 1.6129e-05 -3.17266e-06 1.32243e-05 -2.27996e-05 1.61516e-06 
-3.77098e-06 -6.48535e-07 1.04024e-05 1.84166e-06 4.96751e-06 -5.58823e-06 4.41217e-06 -1.26616e-07 0.00026281 
-0.00145749 3.09925e-06 -2.17736e-05 5.43516e-06 2.94411e-05 6.19364e-06 -5.82494e-05 4.32999e-05 1.00223e-05 
-0.000750033 -0.00360533 1.23469e-07 0.000163094 0.00720655 -0.00280114 0.00714054 -4.619e-06 -2.15466e-05 
-5.55287e-06 1.81321e-06 4.22838e-05 -4.60488e-06 1.66286e-05 -6.42564e-05 -0.000107825 -1.33473e-06 1.99421e-06 
-5.44252e-06 4.47761e-06 -1.03268e-07 4.25435e-06 -8.67261e-05 -1.86465e-05 2.74063e-06 -3.1036e-06 7.35097e-06 
-5.40499e-06 2.64082e-05 -2.17829e-07 -0.00590327 -1.56575e-05 -2.90992e-06 2.34078e-06 1.54182e-05 -4.26921e-05 
0.00119477 0.000868769 4.3158e-05 -7.97431e-06 2.16282e-05 3.61625e-06 6.66669e-06 -2.20333e-05 -1.18401e-06 
-5.35504e-07 -3.81681e-06 -2.33205e-05 6.47721e-05 -8.5444e-06 4.26645e-06 5.42954e-06 -5.08683e-06 1.54128e-06 
1.04641e-05 8.13282e-05 0.000115579 4.20212e-07 -0.000177685 5.00748e-05 2.15495e-05 -7.3306e-05 -6.3051e-06 
-2.71702e-05 2.39564e-05 -9.73271e-06 1.75523e-05 -1.21476e-05 -2.79277e-06 -1.98885e-05 2.91223e-05 5.00748e-06 
-1.66285e-05 -1.03815e-05 4.75984e-06 2.18434e-05 -4.67068e-06 -1.30021e-05 -2.30213e-06 6.03795e-06 1.9814e-05 
0.000167354 -2.59092e-06 -5.53335e-05 3.78218e-07 2.67908e-07 4.72638e-06 -6.72839e-06 -2.13857e-06 -8.61685e-05 
-8.64925e-05 -2.36612e-06 -2.43244e-05 -8.49662e-06 8.09466e-06 1.5691e-05 8.18615e-05 9.30322e-06 2.08305e-05 
2.34889e-06 -2.27252e-06 1.17511e-05 2.65295e-06 -6.35685e-06 2.05121e-05 1.34143e-06 1.79284e-06 0.000226775 
-8.0083e-06 -2.48835e-06 2.05407e-05 -1.96658e-05 -3.84789e-05 4.54549e-05 3.89206e-06 -5.23712e-06 -3.08378e-05 
-1.39424e-05 -9.06329e-06 7.77083e-05 -1.13415e-05 -5.37881e-06 -6.51495e-05 0.000690576 -1.72381e-05 1.62069e-05 
0.00201393 -0.00176313 -0.00358478 4.56505e-05 4.2089e-05 3.62053e-05 -2.52989e-05 -6.07888e-07 1.26423e-06 
4.17398e-06 8.20708e-06 6.31071e-06 -2.55609e-05 -0.0200577 -1.15753e-05 1.54864e-06 1.09066e-05 -6.58811e-05 
1.08589e-05 1.0129e-05 0.000891285 0.000999734 -0.00240561 0.000411665 0.000936098 -2.50767e-05 -1.89096e-06 
1.65398e-05 1.08585e-05 4.88101e-07 0.00631153 4.71424e-06 7.32625e-06 -4.16392e-05 1.48424e-05 5.4203e-05 
-5.7954e-06 1.60852e-06 0.0039393 1.11466e-06 0.00018547 -0.000177419 -5.05816e-06 2.94276e-06 -0.00015316 
5.44798e-06 -6.92928e-05 -4.49282e-06 -8.94902e-06 4.51318e-07 -1.61542e-05 1.03458e-05 1.31863e-06 -7.02971e-05 
-1.33387e-05 -2.52694e-06 -4.48401e-06 1.88092e-05 -1.17544e-05 -1.97765e-05 -3.02605e-05 -1.48636e-05 -1.16329e-06 
-1.46194e-05 3.57647e-06 2.57482e-06 4.01515e-06 -7.63207e-07 5.21148e-06 5.82891e-05 6.3998e-05 -2.02397e-05 
1.89043e-05 -1.18115e-05 -3.5708e-05 -0.0194138 0.000760283 1.60815e-05 6.17706e-07 6.15022e-06 -2.15947e-06 
-0.000151213 -1.01747e-05 3.93534e-05 -9.56655e-06 4.43878e-06 -1.42129e-05 2.90272e-06 2.4949e-06 2.7371e-06 
-4.44315e-05 0.00019246 5.58071e-05 5.66701e-05 2.62379e-05 1.90298e-05 1.99034e-07 1.57455e-06 0.0210049 
-2.45594e-06 -1.48551e-05 -9.77e-06 -3.89533e-06 -4.16519e-05 -1.48112e-05 1.00456e-05 0.0207168 -6.72905e-05 
3.75754e-06 -5.15605e-05 -4.14985e-05 -0.020586 0.00896429 -1.00024e-05 2.17584e-07 0.0281288 7.93664e-07 
6.34043e-06 -2.66953e-06 -1.22871e-05 -1.43452e-05 6.824e-05 3.49861e-06 3.78848e-07 7.34849e-06 3.01147e-06 
-6.93075e-06 1.22274e-06 -4.48965e-06 2.03274e-05 -5.92896e-05 7.29194e-06 2.55565e-05 5.75777e-06 -3.25852e-05 
-8.28287e-06 -7.06768e-05 1.04556e-05 3.0593e-05 -1.04304e-05 0.000377041 3.26209e-06 -4.55831e-07 -4.26708e-05 
-0.00761178 -0.0193619 0.00127947 -2.832e-05 -1.30746e-05 -7.38405e-05 9.78808e-06 2.56055e-05 -5.14232e-06 
-1.19532e-06 4.49979e-06 6.79259e-06 1.21967e-05 -5.48276e-05 4.29491e-05 -5.79687e-05 -6.76175e-05 -2.16582e-05 
2.7301e-05 2.80835e-06 -3.405e-05 -1.15928e-06 -2.22775e-06 -6.65808e-06 -6.89849e-06 8.46686e-06 1.17949e-05 
-1.02172e-05 -4.59476e-06 1.3475e-05 6.8257e-05 0.000488249 -0.00466705 -9.09129e-07 -3.66463e-06 3.58926e-06 
-3.52942e-06 2.42616e-06 3.39966e-06 -0.000131764 -0.00176899 0.00139666 -0.00349209 0.0199186 -0.0181414 
0.000571959 -2.44156e-05 -9.28832e-06 -1.78317e-05 0.00102405 -0.0108145 0.00190161 -2.27341e-06 1.58902e-05 
-4.94923e-06 0.000206888 1.24763e-06 2.24968e-05 1.36503e-05 -0.00812373 0.00221301 -2.6389e-05 -5.98531e-06 
-5.80351e-05 -3.34036e-05 4.46296e-06 0.00264841 0.000563117 -1.00739e-05 1.67905e-05 -1.84539e-05 2.68224e-05 
-1.27979e-06 -9.40331e-06 9.03906e-06 1.6756e-05 -4.1413e-06 -0.00815519 -8.59285e-06 -3.38073e-06 2.98997e-05 
-0.00468728 -0.000135221 4.35081e-05 2.65598e-06 -4.12406e-05 -2.68349e-06 -3.40145e-05 -2.62356e-05 2.66154e-06 
9.2023e-06 4.47963e-06 -1.39432e-05 -0.00478991 0.000978967 -0.00120842 6.11254e-05 2.10792e-05 1.53436e-05 
5.75772e-06 -5.49019e-06 -0.000317119 -3.52728e-05 -0.00571682 1.91154e-05 4.40554e-05 4.83893e-06 7.06163e-06 
-7.1803e-06 0.000254385 0.00443305 -2.98122e-05 0.000773671 -1.14293e-05 0.00062689 0.00119705 -6.96095e-06 
5.59272e-05 -2.59693e-05 1.4178e-05 -1.25201e-05 5.91276e-06 -1.09043e-05 4.57263e-06 2.23905e-06 -0.00015382 
2.22612e-06 1.87789e-06 4.11454e-06 1.80425e-05 5.64704e-06 1.99572e-06 2.47261e-05 -2.99724e-05 0.000125935 
0.00019557 -9.23333e-05 0.00377678 -5.97098e-06 -1.56595e-05 0.0196136 -1.70176e-05 -4.91697e-05 5.36344e-05 
-2.03892e-05 1.85953e-05 0.0226762 7.64117e-05 -3.47953e-05 9.13773e-06 -3.04549e-06 1.36626e-05 3.43623e-06 
0.00385396 -0.000994838 1.24745e-05 -3.52449e-05 1.41671e-05 -0.00556921 0.00691582 -5.05063e-06 -2.8477e-06 
-9.30622e-06 1.2735e-05 5.98777e-06 -0.000114186 0.00199761 0.0022306 0.00103057 3.92483e-05 3.72106e-06 
0.00650283 3.22545e-05 -7.79031e-06 4.04211e-05 -4.13301e-05 -1.74994e-05 1.00708e-05 3.88767e-05 0.00382178 
-6.86759e-07 9.22045e-06 -2.72211e-05 6.37644e-07 -9.04225e-07 -6.03087e-05 -8.00452e-05 -2.79074e-05 -5.24467e-06 
2.39006e-05 1.35221e-05 4.97624e-06 -5.52472e-06 1.70354e-05 -9.36017e-06 2.56747e-06 1.26706e-05 1.43629e-05 
-9.04806e-05 -2.96278e-05 8.51988e-06 6.62632e-06 7.43525e-05 -3.13927e-05 -2.41006e-05 -6.89076e-06 1.63103e-05 
1.85087e-05 -6.41478e-05 4.33275e-05 -7.13137e-05 -4.89691e-05 -0.000277453 -0.00394743 1.26004e-05 -1.2938e-06 
1.84055e-05 1.91763e-05 -3.64199e-06 1.61651e-05 -6.12611e-06 5.46879e-05 -0.000208097 -0.00143012 -2.5627e-05 
8.21282e-05 3.98049e-05 9.86959e-06 9.32737e-06 5.88731e-06 -3.75547e-05 -7.47158e-06 0.000237393 0.000431794 
0.0016172 0.000999203 8.29367e-06 1.1373e-06 1.21541e-06 -7.08397e-06 4.4837e-05 1.1775e-05 -8.18722e-05 
1.13984e-06 -7.09609e-06 3.89874e-06 -3.36198e-06 0.000119096 -9.31202e-06 3.30269e-06 1.07892e-06 -9.94385e-06 
3.16568e-06 -4.33035e-06 -0.000109845 -5.02524e-07 4.1443e-06 -3.35917e-05 -3.53616e-05 -9.36485e-06 -2.67895e-06 
2.70951e-06 -0.000159544 2.62856e-06 7.5939e-06 -0.0200892 -0.000174242 0.020964 -0.0205322 1.17962e-05 
-2.12334e-06 1.67633e-05 -5.12939e-06 0.000791071 -2.13115e-05 -0.00362264 0.000230586 4.89715e-06 -3.71297e-06 
3.15025e-06 3.0478e-07 -2.85135e-05 -9.55198e-06 2.54861e-05 8.08366e-06 -3.18254e-05 -2.74474e-05 -3.85247e-05 
2.79041e-05 -6.56317e-06 -0.000124133 0.00794477 1.66687e-05 -2.89739e-05 4.27104e-06 -2.62843e-06 1.5466e-05 
-4.91545e-05 6.16875e-06 -0.000305694 -0.000241958 -1.75719e-06 -5.32649e-06 -3.04588e-06 -3.9091e-07 -3.42276e-06 
2.1349e-05 -9.70172e-07 5.88711e-06 -3.5131e-06 7.02547e-06 1.04097e-05 0.00599134 1.7763e-05 -2.05305e-06 
1.75493e-05 2.39862e-06 -0.0188362 -6.55298e-06 0.00189125 7.34125e-06 3.51007e-05 1.14672e-05 -9.80452e-06 
-0.000183131 -7.31585e-07 -0.00027324 1.67607e-05 -1.13838e-05 2.29766e-05 6.82519e-05 -6.61291e-06 7.62179e-07 
3.83246e-05 -1.11815e-05 -4.38088e-05 2.55658e-05 3.1642e-07 1.27447e-05 5.95579e-06 -2.62064e-05 -5.08128e-06 
-2.22926e-06 0.000472055 -8.61414e-06 3.93164e-06 1.35053e-06 8.30127e-06 2.26887e-06 2.59395e-06 8.27719e-06 
-1.72664e-06 -0.000114828 -9.59817e-05 6.22428e-06 -2.80479e-05 5.09254e-06 -1.17534e-05 0.00084096 -4.67644e-06 
-1.91192e-06 1.02794e-05 -1.2659e-05 -6.65729e-06 -5.94503e-06 6.53533e-06 -0.00162991 1.25717e-05 -0.00184066 
-0.00589387 -0.00247162 3.52124e-05 2.28029e-05 0.00067262 0.000885441 -2.06663e-05 -0.000985399 -0.00102689 
1.63103e-05 4.54309e-05 -5.01037e-05 5.00507e-05 -4.9394e-06 0.00393441 4.33859e-06 1.71408e-05 -4.13758e-06 
4.29929e-06 1.1837e-06 1.21051e-05 -1.72383e-05 5.40089e-06 9.94308e-05 2.78527e-07 4.031e-05 -1.71132e-06 
-3.35535e-06 9.78356e-06 -1.94006e-05 3.0467e-05 7.20718e-07 4.20254e-06 1.16228e-06 3.62018e-06 1.91101e-05 
3.65223e-05 1.31957e-05 3.41001e-05 1.9262e-05 5.70569e-05 0.000139389 4.28688e-05 2.64778e-06 -0.0194164 
-9.85227e-06 -1.35157e-05 -9.32733e-06 -6.35569e-07 -3.24364e-05 -5.21309e-05 5.98913e-05 3.41779e-05 -0.000131952 
-4.72874e-05 3.2733e-05 3.62045e-05 1.21943e-05 -3.54176e-06 1.64357e-06 1.3275e-05 1.04783e-05 -1.44444e-05 
-9.32463e-06 -2.28971e-05 -1.08886e-05 0.000921179 0.0040325 0.000245169 -0.000317804 1.82744e-05 -0.000855439 
0.00108988 -0.000228588 -0.000104164 7.213e-06 -0.000105602 1.6775e-06 -1.16708e-05 7.52332e-06 1.96334e-05 
2.97168e-05 -2.11865e-05 -1.9145e-05 -3.09689e-05 2.31479e-06 0.0026862 1.70062e-06 9.9332e-07 -0.00396311 
-9.40941e-05 0.00743204 -1.5938e-05 0.0105754 -4.86817e-06 -1.28853e-05 3.38738e-05 3.14692e-06 2.23064e-05 
0.00051847 -0.000877697 -1.93777e-05 5.06242e-06 3.8855e-06 3.60991e-06 -8.31877e-06 -1.32629e-07 -1.60194e-05 
5.32578e-06 3.63333e-05 -2.00584e-06 -8.89688e-06 3.5588e-07 -9.15216e-06 1.31761e-05 -2.25662e-05 2.81308e-05 
3.0914e-05 1.57256e-06 -4.4512e-05 2.35678e-05 6.13438e-05 -7.29207e-05 0.000113483 1.46071e-05 7.05195e-06 
-5.28506e-06 -1.35587e-05 3.94117e-06 0.000102716 -9.20341e-07 5.4425e-05 5.2007e-05 -7.22019e-07 -7.30382e-06 
-1.74275e-05 -7.46375e-06 1.17813e-05 -4.4e-06 -7.00209e-05 -6.25838e-06 -1.77732e-05 4.60414e-05 6.38082e-07 
1.2458e-05 -3.73329e-05 -1.21405e-05 1.77574e-05 -5.83645e-05 1.95909e-05 1.6383e-05 -3.3887e-06 -2.61938e-06 
3.30362e-06 -7.64791e-06 -1.6036e-05 -6.2781e-06 -2.58893e-05 5.70693e-05 -4.64086e-06 -2.23275e-05 0.0036049 
0.00707961 9.58354e-06 -2.70688e-05 7.8053e-06 3.95743e-05 -4.5259e-06 -3.16679e-05 -4.31473e-06 2.30785e-05 
-1.80175e-05 6.31267e-06 2.41768e-07 -2.0047e-05 7.88089e-06 -8.41525e-06 5.72882e-06 1.59754e-05 -1.3305e-05 
5.13991e-05 -3.216e-05 -4.76501e-05 -1.28314e-05 -9.9283e-06 -7.31175e-06 -1.01407e-06 -4.82568e-06 -2.04059e-05 
7.40358e-06 -3.30327e-05 3.61687e-05 1.93842e-06 3.09551e-05 -4.87618e-07 -6.29282e-06 4.17991e-06 -3.80126e-05 
1.7381e-05 2.98614e-06 1.49582e-05 3.74386e-06 2.25814e-05 4.59134e-06 -3.23425e-05 -2.86194e-05 -2.87601e-05 
2.31901e-05 2.73333e-05 -3.27093e-06 -5.75235e-06 -6.76724e-06 -6.45627e-05 -5.46381e-07 -2.29832e-05 -7.30074e-07 
-1.47174e-05 -9.82152e-05 1.11104e-05 0.000539651 -2.00908e-05 -2.93242e-05 0.00848892 -1.78481e-06 -8.60325e-06 
4.12813e-06 2.56557e-06 -6.25649e-05 -0.0206055 4.6946e-06 -7.9677e-06 -7.20725e-06 1.63307e-05 -2.7624e-05 
0.000112564 0.000339492 -1.3952e-05 -0.00484537 -2.02355e-05 -0.0195221 -0.00186177 -0.00346019 0.000168783 
-5.99471e-06 -8.02025e-06 -0.00158525 7.21396e-07 -3.81775e-06 -0.000658455 2.04534e-05 1.88718e-06 0.00244608 
1.85273e-05 -6.61346e-06 8.3581e-05 4.61233e-06 7.00796e-06 4.64175e-06 1.23512e-06 7.15524e-05 -2.30712e-06 
-0.0198517 1.62011e-05 -8.03381e-06 -5.91391e-06 -0.00192864 3.02286e-06 -1.69963e-05 1.72633e-05 -2.23208e-06 
-1.59686e-07 3.60974e-05 -7.24258e-07 -4.70231e-06 0.00133732 3.38993e-06 3.07099e-06 0.00940939 -0.00396652 
-0.00848115 0.000130045 1.78497e-06 -3.72905e-07 6.37333e-06 0.00206609 3.45822e-05 0.00298757 -0.00182055 
-5.08663e-06 4.11832e-05 -1.08385e-06 -4.84324e-05 -1.45083e-06 0.00016882 0.000669106 0.000547357 0.000888647 
-0.000115886 1.98355e-05 -0.00275772 -0.00611842 1.4936e-05 -1.48077e-05 -0.000218531 -3.4193e-05 2.5408e-06 
8.10492e-05 -0.00222531 6.81893e-06 1.05379e-05 -3.44858e-06 0.000597936 0.00104086 -0.0328717 -2.13561e-05 
1.28865e-05 -1.42531e-05 1.1052e-06 1.59539e-05 -1.37173e-05 -1.66498e-05 -1.10824e-05 -0.00580719 4.78112e-06 
2.35322e-06 -0.00369461 -0.00360932 -1.06702e-06 -4.31507e-06 -9.67771e-05 -3.94957e-05 -0.0108005 0.000619291 
0.0214325 6.49883e-06 0.0188007 0.0143471 -0.00409036 -8.54098e-06 0.000114428 -4.45553e-05 4.22045e-05 
-0.0054959 -0.000475589 3.65785e-06 -0.00222611 -0.000761021 3.12973e-06 -0.000239311 -0.00380473 0.0047573 
0.0189391 -0.010276 2.85006e-05 -3.17284e-06 -0.00232644 -4.71159e-06 1.45965e-06 0.0010419 0.00768692 
0.00607597 -0.000197983 -0.000589962 -0.00460577 3.19517e-06 -0.00873934 -0.00209514 0.0090652 0.000549896 
-2.31962e-06 0.000997127 4.53497e-06 0.000182801 7.26474e-06 0.0015989 -2.46728e-05 -0.00503198 9.79168e-06 
-1.6178e-05 -1.96102e-06 3.38492e-05 0.011581 6.16159e-07 -0.00385957 -8.24407e-06 1.93039e-05 -0.000910157 
-0.000622974 -0.000294859 1.08141e-05 0.00843405 0.0125444 -0.00403826 -0.0191293 -1.02641e-05 0.000161962 
-6.73839e-06 -1.29721e-06 5.49216e-06 -0.00864757 -0.0059964 0.00268818 -0.000596837 -0.000358307 -0.000512908 
-2.48481e-05 -0.0218772 -0.0185758 0.0101532 0.00126465 0.000440324 -0.00251372 -0.00547395 -0.0066597 
0.00249526 0.00690128 0.0120477 0.00324751 -0.000306749 -0.000486115 0.000231322 -0.000859784 7.19494e-05 
0.000356966 0.000188992 0.00362041 -0.00237192 0.000376399 -0.000515667 -0.000734293 0.00559269 -0.0119443 
0.0125813 0.0086201 0.0133216 0.00910121 -0.00409294 -0.00472653 -0.00109072 -0.00995792 0.00682527 
-0.00234352 -0.00202363 0.000135781 0.00130817 0.00151154 0.00339835 -0.0171462 0.000700897 -0.00783842 
-0.00594162 -0.00576841 0.000255593 -0.00710143 0.00141801 -0.000820343 -0.000451697 0.00296889 -0.00231356 
-0.0185641 0.00743048 -0.0020604 0.0149962 0.00885326 -0.00914817 0.019146 -0.0031982 0.000677189 
1.55032e-05 0.00022764 -0.000165438 -0.00282172 -0.000597445 -0.00143042 0.00114672 0.0123531 -0.000367587 
0.00612448 -0.000940395 -0.0010676 -7.48277e-05 0.0113475 0.00698771 0.00699766 0.00106568 -0.00324247 
-0.00304513 -0.0116912 -0.000330885 -0.00222654 -0.00272618 0.00591448 -0.0106964 -0.00326444 0.00951563 
0.0013611 0.000948755 -0.000428686 0.0107819 -0.00264404 0.00636935 0.004143 -0.000880931 0.00735661 
0.00594594 -0.0125357 0.00104926 -3.55311e-05 -0.00266716 -0.000407273 -0.00247399 0.00758316 0.00963485 
-0.000742744 -0.0239096 
Stress%20zz%20component 1 13529 double
0.44253 0.377248 0.550334 0.404531 -1.82431e-05 -2.82923e-05 -2.61039e-05 -2.37209e-05 0.0487296 
0.0655055 -0.00969261 0.0805515 0.0546588 0.0277152 0.0648161 0.0255949 0.055869 0.0059733 
0.078992 0.0205322 0.0543437 0.0770003 0.0174746 0.0962001 0.0494409 0.00991281 0.0594298 
0.0330696 -0.0171568 0.0524749 0.0936068 0.071377 -0.017433 -0.0250516 0.0306557 0.0360881 
-0.0176273 -0.00040977 -0.0205957 -0.00939998 -0.0500561 -0.00151589 -0.000917414 -0.0287435 -0.0353674 
-0.00655569 -0.0099315 0.00196047 0.00944654 0.0054463 0.0167245 -0.00524947 0.0161829 0.036438 
0.0044363 0.0126186 0.0106666 -0.000700257 0.00446706 0.000989786 9.89135e-05 0.0142507 0.00536057 
0.00877004 0.0117173 0.011068 0.0105277 -0.00402386 0.015174 0.0150457 0.0181214 0.0351743 
0.024715 0.0305649 0.0251362 0.0293194 0.014275 0.00300495 0.0112126 0.0147277 0.009442 
0.0173339 -0.00524783 -0.0420384 0.0080376 0.0101618 0.0138447 -0.0127045 0.00376117 0.00426965 
0.0122156 0.0128136 0.0176789 0.00919024 0.0178632 0.0134278 0.0094956 0.0040328 -0.0120641 
-0.00269494 0.00076248 0.00229386 0.00289504 -0.0450718 0.0329705 -0.00390688 0.0376484 0.0392848 
0.0361827 0.00927292 0.0161472 0.00877738 0.0102149 0.0112474 0.0139949 0.0265962 -0.00377922 
0.00545887 -0.00279035 -0.00244279 -0.0169349 0.0433383 0.00759288 0.00428383 0.013993 -0.0209142 
0.0134418 0.0122646 0.0155365 0.0177427 0.0229029 0.00481891 -0.0377876 0.00507854 0.00349851 
-0.000550055 0.00511024 -0.0404613 0.00549528 0.00187291 0.00119627 -0.0312776 0.0109755 0.00612832 
0.0134048 0.0138866 0.0129164 0.0114277 0.0167039 0.00619492 0.00121259 0.00512134 0.00771125 
-2.06379e-05 0.00204401 -0.0022023 -0.00508309 -0.00755865 -0.0472234 0.0150371 0.0123108 0.00953607 
0.00841839 0.0103838 0.0234821 0.0350441 0.0387288 0.0347006 0.0451169 0.0466043 0.138932 
0.147182 0.156841 0.150224 0.147587 0.135057 0.149335 0.149971 0.152495 0.139638 
0.155265 0.155912 0.158658 0.131023 0.13229 0.130525 0.151725 0.153058 0.131504 
0.123686 0.14951 0.155782 0.142639 0.144973 0.213348 0.206977 0.150631 0.147478 
0.143053 0.146071 0.195118 0.149902 0.148214 0.147469 0.149388 0.202553 0.152712 
0.151547 0.151269 0.152072 0.192216 0.200358 0.188412 0.145798 0.146796 0.149506 
0.194139 0.185189 0.144956 0.145864 0.149005 0.197911 0.188552 4.45501e-05 -3.15457e-07 
5.36619e-06 2.81433e-06 1.40202e-05 2.98083e-06 -1.35799e-05 -3.21923e-06 1.18664e-05 -4.28884e-06 -1.00395e-05 
-3.02093e-06 2.18796e-06 -1.1041e-05 1.80068e-05 3.22368e-07 -3.78176e-06 -8.77502e-06 -5.01809e-06 1.3721e-05 
3.21413e-06 -4.95535e-06 -8.41864e-06 4.25221e-06 3.4118e-06 6.6965e-07 -3.90304e-07 9.31623e-06 -1.94975e-06 
-0.152008 -0.00287201 0.000393047 -3.54117e-05 -3.04155e-05 0.000131485 2.74008e-05 -7.27859e-07 8.08554e-06 
-2.50178e-05 3.58512e-05 1.7359e-05 -2.07455e-07 -5.09608e-06 -2.12484e-05 1.93937e-05 2.40894e-05 2.0335e-05 
-1.17576e-05 -5.00238e-05 3.15261e-05 -4.56671e-05 -2.91206e-05 -2.35803e-06 1.46922e-05 2.795e-05 -1.08112e-05 
-3.82329e-05 -1.20254e-06 8.98914e-06 1.89028e-05 -1.59314e-05 9.08242e-06 2.00253e-06 -3.40004e-06 5.97416e-06 
-2.63186e-06 4.67076e-06 1.02365e-05 4.21707e-06 -4.12384e-06 -5.53789e-06 -1.09105e-05 5.8948e-06 2.79217e-06 
1.59681e-05 6.18363e-06 6.45142e-06 3.27219e-06 4.93347e-06 3.30824e-06 -5.01485e-06 -8.84397e-06 -1.52432e-06 
7.10959e-06 -7.61778e-06 1.07687e-05 7.29756e-06 -1.33767e-06 5.09717e-06 -4.51878e-05 -1.52475e-06 2.70558e-05 
6.84243e-06 -4.83584e-06 -2.75881e-05 1.98611e-05 -2.94513e-05 9.99083e-06 -2.5565e-06 9.656e-06 1.94478e-05 
-4.81368e-05 -1.23934e-05 1.6301e-05 -8.43222e-06 1.02932e-05 -6.68585e-06 8.11491e-06 3.07465e-06 -1.25254e-05 
1.73277e-05 -9.54251e-08 6.65614e-05 -4.16319e-05 4.81112e-05 -7.05251e-05 0.000128393 0.000924909 -0.180907 
0.0221742 -0.0432794 0.0072346 0.0100668 0.00818354 0.00732905 0.0127985 0.0147708 0.0119674 
-0.0340595 0.000481881 0.00505695 0.00433718 0.00369474 0.0047011 0.00581193 0.0101558 -0.0148198 
-0.0233432 0.000869996 -0.00166114 -0.0410068 0.000704111 0.00607515 0.00498453 0.00907416 0.0101848 
0.0122902 0.0204671 0.00337085 -0.00553379 0.0167802 0.00659068 0.0156856 0.0060481 0.00776543 
0.00382186 0.00349351 -0.0137665 -0.0164283 -4.00106e-07 2.58094e-05 -3.19193e-06 -3.83165e-06 1.5784e-06 
3.60784e-06 3.1852e-07 -1.55334e-06 8.15479e-06 2.76732e-06 -3.80332e-06 -6.21165e-06 2.66558e-06 8.59935e-06 
-5.38634e-06 -1.58156e-06 2.06013e-06 -4.21219e-06 5.09568e-06 -1.39938e-06 6.73045e-07 8.27516e-06 -1.85932e-06 
-0.0138942 -0.000321561 0.00024955 -6.1629e-05 1.31603e-05 6.63227e-06 3.66726e-05 -2.61025e-05 -4.09796e-07 
2.09626e-05 2.31912e-05 -1.77592e-05 6.3858e-06 -2.10067e-05 -1.42629e-05 -8.45993e-06 5.7078e-06 4.02833e-05 
-1.21836e-05 -1.05802e-05 -2.20318e-05 3.63063e-06 1.13255e-05 1.42762e-05 -1.27411e-05 -1.44805e-05 8.9295e-06 
6.55485e-06 -3.97377e-06 -2.49847e-06 2.70865e-06 -7.44702e-06 -5.51408e-06 -9.95636e-06 1.07442e-05 3.25388e-07 
2.96077e-06 9.43727e-06 -8.41365e-07 -5.16616e-07 -4.31605e-06 4.07565e-06 1.23562e-06 3.68177e-06 6.46125e-06 
6.72529e-08 -1.99398e-06 -1.21394e-05 1.44873e-05 2.43419e-05 -5.68323e-06 -1.33389e-05 -1.04151e-05 -9.33055e-06 
-2.62181e-06 2.69164e-05 -5.31885e-06 -8.25585e-06 2.8873e-05 2.05502e-05 6.16653e-06 5.2962e-06 -2.34434e-05 
1.82156e-05 9.06502e-06 1.00244e-05 -2.61562e-05 4.41721e-05 -5.4705e-07 -0.000101094 0.000198241 0.000690174 
-0.0104717 -0.0360654 -0.0327175 0.00892338 0.00621123 0.00804184 0.00673815 0.00862328 0.00400171 
0.0229295 0.0137474 -0.0281959 0.0180841 0.00683013 0.00265186 0.00447246 0.00443014 0.00612285 
0.00156024 -0.0337452 -0.0282631 -0.0314033 -0.0186077 0.00318339 0.00555008 0.00537678 -0.00685496 
-0.00588954 -0.00316345 0.0182201 0.0372665 0.0102514 0.00975976 -0.00630754 0.00291066 0.0024331 
0.0104187 0.00188385 -0.0410968 0.0153528 -0.0167629 -0.00246747 -0.0243927 -0.0165187 -0.0334679 
-0.0233068 -0.0366998 -0.00500296 -0.0180069 0.000704249 -0.00328279 -0.00695079 -0.00277074 -0.0295972 
-0.0171721 -0.0135566 -0.0302281 -0.0222097 -0.0388651 -0.0168969 -0.0055974 -0.0177733 -0.0160616 
-0.0422321 -0.0151483 -0.0013728 0.000415971 -0.0194275 -0.0243572 -0.0153968 -0.0128569 -0.012505 
-0.0109666 -0.00305284 -0.00626166 -0.00264231 -0.00417025 0.000952743 -0.0176499 -0.0163146 -0.032883 
-0.0154369 -0.0229609 -0.0222702 -0.00387533 -0.0358595 -0.017084 -0.00480131 -0.000792553 -0.0194104 
-0.029684 -0.00407441 -0.0105901 -0.0280954 -0.0228121 -0.0206166 -0.0045786 -0.00313657 -0.00325607 
-0.00402696 -0.0172882 -0.0366352 -0.0232692 -0.0103169 -0.01981 -0.00365673 -0.00429157 -0.00110594 
-0.0202033 -0.031949 -0.0269358 -0.0140432 -0.0173575 -0.0206111 -0.0180431 -0.0231658 0.000397372 
-1.17497e-05 -1.11258e-05 -1.15408e-06 -1.18162e-05 -1.78393e-05 1.13045e-05 -2.33799e-06 3.45947e-06 -9.72165e-06 
1.74576e-05 1.23627e-05 4.57311e-06 1.14779e-05 -9.90283e-06 8.20682e-06 2.85456e-06 8.92338e-06 1.70387e-05 
-8.48416e-06 1.52582e-06 -1.14634e-06 9.11039e-06 2.74546e-06 -1.33787e-05 -1.73704e-06 -1.06871e-06 -3.93512e-06 
-2.53386e-06 -2.63633e-06 0.00204654 -0.0011495 -1.81187e-05 0.000125236 -0.000111779 8.45268e-06 1.55618e-05 
5.65899e-06 4.20765e-05 -1.21053e-05 -7.38468e-06 -2.0434e-05 2.06059e-05 4.19138e-05 5.77065e-07 -2.81209e-05 
-3.67762e-05 -2.28018e-05 3.46816e-05 -5.01815e-06 2.75783e-05 -2.87078e-05 -1.73449e-05 2.37756e-06 -3.16125e-05 
-3.53983e-05 5.88943e-05 2.45268e-05 -1.30807e-05 -3.26956e-07 -7.72189e-06 1.80794e-05 2.66444e-06 2.99193e-06 
1.21207e-05 -4.10724e-06 3.81308e-06 -1.18856e-05 -7.81125e-06 -2.69787e-06 4.39773e-06 -4.25448e-07 7.29646e-06 
-1.88691e-05 -1.3417e-05 -6.61282e-06 -1.38071e-06 -4.30867e-06 -8.59719e-06 -3.36182e-07 7.44324e-06 4.05401e-06 
-2.98322e-06 1.02823e-06 9.13829e-08 -5.40418e-06 9.34208e-06 -2.41076e-06 2.36362e-05 -6.00119e-06 -3.40359e-05 
-5.88861e-06 -5.31466e-06 1.27454e-05 1.30821e-06 1.894e-05 -3.79263e-05 1.62524e-06 -1.89438e-05 -4.56099e-05 
5.93072e-05 1.31187e-05 -3.4328e-06 -2.10998e-05 -7.23271e-06 3.01378e-05 -4.52131e-06 -2.77814e-05 1.498e-05 
-1.2124e-05 2.76868e-05 -3.20601e-05 2.44339e-06 -3.74918e-05 0.000134781 -5.12724e-05 0.000745235 -0.0319387 
-0.0680616 -0.0402564 -0.0351909 -0.0297244 -0.0305161 -0.0330996 -0.0470798 -0.0321599 -0.032246 
-0.0314818 -0.0351712 -0.0465636 -0.0369077 -0.032032 -0.0319596 -0.0365773 -0.0649052 -0.0546279 
-0.0380915 -0.0318275 -0.0317364 -0.0354359 -0.0611064 -0.0349654 -0.029779 -0.0293432 -0.0404315 
-0.0544337 -0.00735422 -0.0155901 -0.0144833 -0.0038663 -0.0122149 -0.0120182 -0.0124957 -0.00387986 
-0.00154942 -0.0328609 -0.0411545 -0.00987811 -0.00606599 -0.0154085 -0.0148279 -0.0138394 -0.0121978 
-0.0126648 -0.0037961 -0.00403349 -0.00344408 -0.00385974 -0.00269913 -0.00411175 -0.0155947 -0.013755 
-0.014168 -0.0136494 -0.013975 -0.0151837 -0.0190648 -0.00554145 -0.00589043 -0.00361257 -0.00647281 
-0.00406795 -0.00371542 -0.00308014 -0.0130434 -0.003357 -0.00337007 -0.00309353 -0.0175245 -0.0120877 
0.00154199 -0.00977384 -0.00561676 -0.00110182 -0.0235121 0.000216527 1.15102e-06 -4.70571e-06 8.51642e-06 
2.01376e-06 4.94328e-06 -6.6745e-07 -3.3548e-06 -5.39253e-06 -8.58499e-06 1.74345e-06 -3.37602e-07 -9.97499e-06 
-4.58064e-07 1.4205e-06 2.45716e-06 -8.62329e-06 -6.21106e-06 -3.30391e-06 -3.32648e-06 5.64474e-06 -2.65034e-06 
5.9742e-06 -2.2604e-06 -3.06859e-06 2.62814e-06 3.59492e-06 0.00024562 3.28109e-05 3.08671e-05 -0.000143388 
-2.33757e-05 1.86514e-05 5.57407e-06 -2.86217e-05 -1.26409e-05 -5.7014e-06 9.82796e-06 8.59719e-06 -1.83478e-05 
-1.9668e-05 -4.19235e-07 1.59752e-05 2.01493e-05 -4.82236e-06 -1.24808e-05 -9.17506e-06 2.05451e-05 -1.63264e-05 
-9.39646e-06 -2.07583e-05 2.19855e-05 8.83051e-07 -2.68852e-05 1.01343e-05 6.30116e-06 4.89814e-06 -5.39561e-06 
-8.78869e-06 4.26043e-06 1.05207e-06 -5.81079e-06 -4.54002e-06 2.63255e-06 5.9582e-06 7.92819e-06 5.76007e-06 
-6.18699e-06 1.54822e-06 -3.43845e-06 -0.00137084 0.00118815 3.78044e-06 3.69801e-06 -5.2026e-06 8.24138e-07 
4.11365e-06 -6.27252e-07 -3.28886e-06 -4.34914e-06 2.62189e-06 -7.17613e-07 -2.90347e-07 -2.21941e-06 5.09251e-06 
5.4255e-06 -1.15676e-05 -1.11935e-05 5.81172e-06 1.25926e-05 5.41684e-06 -1.19886e-05 -3.44111e-06 9.24e-06 
1.20925e-05 -4.26233e-06 -1.09954e-05 2.38111e-05 -1.26431e-05 -1.88652e-05 8.44362e-06 2.43002e-05 6.57896e-07 
-1.62365e-05 6.87916e-06 1.6245e-05 1.43894e-05 -2.69709e-06 -4.96054e-06 1.09801e-05 -6.47952e-07 -1.33889e-05 
-9.91133e-05 0.000301259 -0.000496594 0.00271144 0.00162444 0.00141162 0.00181608 0.00107453 0.00232216 
0.00208924 0.00135079 0.00207192 0.00122615 0.00305886 0.00200804 0.00171414 0.00182793 -0.000213184 
-0.000719628 0.000494279 0.00165032 0.00185249 0.00200601 -5.63216e-05 -0.00028794 0.00175526 0.00148027 
0.00118915 0.000860028 0.000386938 0.00102815 0.000192706 0.000335776 0.00037118 0.000234919 -6.27071e-05 
-0.000139829 -0.000571768 -8.27362e-05 0.000301814 0.000427877 0.000739733 0.000340154 0.000282203 0.000164364 
5.52991e-05 7.31833e-05 0.000133272 0.000137569 -0.000211508 0.000271749 0.000211629 0.000440708 0.000783962 
0.000782505 0.000810099 0.00102148 0.000810917 0.000270541 0.000679985 6.77099e-05 0.000249735 8.82674e-05 
0.000230807 0.000162349 3.39712e-05 -2.00184e-05 0.000275988 -2.24948e-05 0.000691423 0.000467424 9.63114e-05 
-0.000240216 -1.92067e-05 -0.000332622 0.000246858 6.37559e-07 1.91123e-06 -4.32873e-06 9.0033e-07 4.34895e-07 
2.66536e-06 -3.91412e-06 7.32416e-07 5.1768e-06 -5.79269e-07 -2.93501e-06 1.44528e-07 5.47974e-06 -1.66045e-06 
-2.65083e-06 2.27718e-06 3.35535e-06 7.80467e-07 -3.61993e-06 1.99827e-06 -5.63214e-06 9.96064e-07 -5.09592e-06 
1.35416e-06 -7.89649e-05 2.25337e-05 2.31682e-05 -2.7652e-05 0.000187731 8.37061e-05 -3.33786e-05 -9.55891e-06 
7.521e-06 1.86311e-05 -5.48797e-06 1.67398e-06 1.16489e-05 1.99317e-05 1.54402e-05 -5.14169e-06 -1.19489e-05 
-2.47197e-07 7.72575e-06 2.33524e-05 -4.19607e-05 -9.81479e-06 5.14042e-05 -2.35864e-05 5.81677e-05 -1.95302e-05 
1.98148e-05 8.92885e-06 2.54497e-06 -1.19927e-05 2.18883e-06 4.58926e-06 5.95084e-06 3.59716e-06 -1.94581e-06 
-6.59135e-07 2.72814e-06 -1.08887e-06 -3.22035e-06 -1.55605e-06 1.81091e-06 2.68215e-07 -3.704e-06 3.19002e-06 
7.35999e-05 1.90661e-06 1.28507e-06 1.38567e-06 -4.24184e-07 -1.50584e-06 9.48837e-08 1.22747e-06 9.12869e-07 
-3.0639e-07 -1.14735e-06 3.31539e-06 9.47611e-06 2.13435e-06 -2.61426e-06 -5.32233e-06 1.59549e-06 7.69305e-07 
9.12615e-06 -1.07349e-05 -1.51439e-05 -2.96029e-06 -9.59679e-06 -1.35221e-07 7.57361e-06 1.4851e-05 1.96783e-06 
-1.44775e-05 3.35448e-06 1.37097e-05 1.24168e-05 -8.91176e-06 -4.04329e-06 1.84483e-05 1.38461e-05 1.31857e-05 
2.99693e-05 -5.24856e-05 3.36865e-05 8.53311e-06 -0.000143091 -0.000419042 -7.60883e-06 0.000117852 0.00013029 
0.000265843 0.000234924 8.86642e-05 7.77661e-05 6.31882e-05 0.000265692 0.000237299 0.000175132 -8.93693e-06 
0.00010305 0.000310652 0.000318988 0.000237357 0.000313584 0.000121026 -2.04667e-05 0.000298097 0.000258548 
0.000278539 0.000122849 2.59578e-05 3.38328e-05 2.85556e-05 1.73075e-05 2.97884e-05 7.27708e-05 0.000323678 
3.95256e-05 -7.00919e-05 3.49177e-05 -1.1886e-05 4.08125e-05 -1.26191e-05 3.86223e-05 -0.000154333 0.000360666 
9.30461e-05 1.11773e-07 1.76595e-05 4.79248e-06 3.90478e-06 -3.14245e-05 3.7147e-06 -6.42166e-05 1.02449e-05 
9.19341e-06 1.36143e-06 -4.04101e-05 1.29523e-05 -1.39797e-05 -0.000121795 2.38675e-05 -8.96508e-06 -0.000116775 
1.92243e-05 2.1563e-05 1.20284e-05 -2.89647e-05 -4.63863e-05 -1.67668e-05 6.08431e-05 -1.15558e-06 3.54162e-05 
4.45419e-05 4.24488e-05 2.72836e-06 8.40959e-05 4.06057e-05 1.03005e-05 1.5705e-05 1.64448e-06 -5.75108e-07 
-7.63738e-07 1.03406e-05 3.35769e-06 1.22341e-07 9.04503e-06 1.13965e-06 -5.80184e-06 8.67797e-07 7.56225e-06 
5.21155e-06 2.85928e-06 -1.63179e-07 3.49165e-06 6.39931e-07 1.59798e-06 -1.11759e-06 1.15337e-06 -3.60276e-06 
3.42803e-06 -2.20882e-06 -2.62228e-05 2.90449e-05 4.75231e-05 -2.05545e-05 -1.11955e-06 2.67471e-05 1.02114e-05 
-1.14885e-06 -3.69963e-06 1.40589e-05 1.14398e-05 -7.46276e-06 5.36543e-06 -6.82853e-06 -3.00418e-05 -2.97876e-05 
7.36875e-05 2.08514e-05 -4.28191e-05 4.43455e-06 5.31095e-07 3.08571e-06 2.94668e-06 6.09243e-07 -3.31904e-06 
-1.10464e-06 6.7544e-07 -1.69073e-06 -2.5832e-06 7.95688e-06 4.46652e-06 -2.07611e-06 -5.24889e-06 6.32801e-07 
-3.67624e-06 -2.11078e-07 5.14203e-07 1.48804e-06 -8.82276e-08 -1.76361e-06 -4.48286e-06 2.93614e-06 5.73452e-06 
4.7955e-06 -4.22033e-06 -1.34131e-05 3.90008e-07 -8.40481e-06 -1.53157e-06 -6.62229e-06 4.08367e-05 -1.76737e-05 
1.05647e-05 -6.18938e-06 1.6636e-05 -2.06092e-05 -1.59415e-05 -1.78006e-05 1.56456e-05 -3.81109e-06 -8.61971e-06 
3.56347e-06 1.2587e-05 8.37841e-06 6.65223e-05 -1.69233e-06 -5.11082e-05 2.43757e-06 7.66196e-05 -1.80558e-05 
-0.000108769 1.42628e-05 1.15767e-05 9.34045e-07 -9.10441e-06 -1.19031e-06 -6.72957e-06 -1.58232e-05 2.90971e-06 
-1.13071e-06 -2.83715e-05 8.32597e-06 7.53392e-06 4.82281e-06 1.60552e-05 2.04264e-05 -4.69934e-05 -1.32885e-05 
-2.89863e-06 2.92944e-05 4.35009e-05 -1.88506e-05 2.45508e-07 -2.10956e-05 -1.56821e-05 3.17444e-05 -3.54044e-06 
-4.05853e-05 -3.12258e-05 3.05083e-05 -3.43418e-05 4.17093e-07 1.15041e-05 4.7849e-05 -2.72703e-05 7.60899e-05 
-4.93294e-06 -2.1745e-05 2.70131e-05 2.60977e-05 -5.29607e-06 7.0825e-06 9.44363e-06 -5.97486e-05 -1.44951e-05 
1.36136e-05 7.97982e-05 5.59159e-05 -5.47243e-05 -9.50946e-05 1.6053e-05 -1.07037e-05 6.24795e-05 -5.58873e-06 
-3.09306e-05 2.45605e-05 2.63915e-06 0.000150601 9.02203e-08 -6.73964e-05 -1.18856e-05 -1.33869e-05 2.69739e-05 
-1.90662e-05 -2.00214e-05 2.52493e-06 -4.06475e-06 -1.07959e-06 -3.29381e-06 -9.26383e-07 -1.27005e-06 8.25418e-06 
3.26671e-06 4.96047e-06 -1.69733e-06 1.56207e-05 5.50371e-06 -5.10645e-06 5.52411e-06 -5.93781e-06 -3.5847e-06 
3.72089e-06 4.54261e-06 1.04636e-06 -5.60322e-06 9.80692e-06 1.38672e-05 -1.20171e-05 1.88444e-05 1.81873e-05 
-3.45467e-06 -3.59421e-06 4.9764e-06 2.38611e-06 8.31904e-06 7.76188e-06 -2.68486e-05 -2.29631e-05 1.03938e-05 
-1.1566e-05 3.34795e-06 1.54113e-05 1.00566e-05 2.83138e-06 -5.71252e-06 1.00934e-06 -2.20026e-06 1.30995e-06 
-1.80487e-05 -1.29385e-06 1.22468e-06 3.99012e-06 8.6165e-08 -2.35162e-06 4.29549e-06 2.91106e-07 -7.29102e-06 
2.73362e-06 1.89758e-05 2.06299e-05 2.79685e-06 -8.15345e-06 5.90232e-06 7.87639e-06 2.48493e-06 1.78905e-05 
-1.85636e-06 2.55512e-05 1.59247e-06 7.84718e-06 1.87937e-05 -6.45254e-07 1.0341e-06 4.11642e-06 8.53373e-06 
-2.36772e-05 -3.07647e-05 0.000106089 -5.62014e-06 -8.44509e-06 -1.49301e-05 2.38965e-06 -1.63397e-05 1.03036e-05 
-2.82758e-06 -9.13027e-06 -4.73485e-06 -1.01614e-06 -2.25305e-05 -2.28183e-05 1.46128e-05 6.45556e-06 1.75526e-05 
1.87628e-05 -1.61265e-05 4.41326e-05 2.59262e-08 1.0155e-05 2.83078e-05 9.2569e-05 -5.15172e-05 1.35059e-06 
2.00972e-05 -1.16944e-06 1.74831e-05 -5.30398e-05 -1.03132e-05 -7.28141e-05 5.35503e-06 4.05852e-05 5.30294e-05 
-3.02314e-05 1.05427e-05 -2.13911e-06 4.53997e-05 1.47258e-05 1.32136e-07 -2.65139e-05 -2.28676e-06 -3.72598e-05 
-3.51325e-05 -5.26772e-05 2.57735e-05 -4.05903e-06 -8.00516e-06 4.58018e-06 -9.23851e-06 -3.0675e-05 -2.05342e-05 
-7.04585e-05 1.20801e-05 -1.05377e-05 -3.39161e-05 1.23517e-05 2.32341e-05 -4.44535e-05 2.54309e-05 -1.62209e-05 
-8.68903e-06 6.63304e-06 1.32121e-06 -5.47233e-06 2.28219e-05 1.43886e-06 2.83898e-06 -1.49262e-05 6.4159e-06 
-1.27318e-05 -5.55228e-06 -1.19541e-05 -4.75726e-06 -1.11733e-06 -4.08095e-05 1.2738e-05 2.70711e-06 1.4601e-05 
8.67627e-06 -1.94792e-06 1.38595e-05 4.06311e-06 5.00778e-07 -1.05126e-05 6.40477e-05 3.11019e-06 -5.1294e-06 
-1.71906e-05 -3.23354e-06 -7.16086e-06 1.48074e-05 -1.29747e-05 3.19774e-06 1.06949e-05 8.09839e-06 -8.58351e-06 
-2.08734e-05 -1.11429e-05 -1.40655e-05 4.7486e-05 2.93396e-05 7.14526e-06 3.06604e-06 2.9777e-05 3.54668e-06 
6.43769e-06 -2.61609e-05 1.51217e-05 -4.00765e-05 7.58959e-06 -3.78627e-05 -5.65208e-05 8.36424e-06 -2.25866e-07 
1.44546e-05 -1.32102e-05 -7.81922e-06 -1.26545e-07 -1.61647e-05 -2.00824e-05 5.39178e-06 1.3965e-05 -2.06396e-05 
-2.57182e-06 -3.40443e-06 6.49272e-06 2.38325e-05 -1.98159e-05 1.36801e-05 5.26876e-07 -5.52922e-05 -3.29601e-05 
2.10141e-05 -6.19122e-06 -4.27196e-05 1.35252e-05 4.17785e-05 -5.06979e-06 -0.000105075 -2.58806e-05 -2.21317e-05 
-2.55573e-06 -9.61222e-06 -1.14214e-05 -1.39267e-06 5.7297e-06 -2.09191e-05 2.75952e-05 4.924e-05 3.98402e-05 
-3.20907e-05 -1.18415e-05 -6.66353e-06 -7.63086e-05 -7.90084e-06 1.08657e-05 -3.52594e-06 -8.56073e-06 -3.0708e-07 
3.88473e-06 -4.38925e-06 -5.48627e-07 3.16309e-06 -4.99618e-06 -4.69798e-07 2.02923e-06 -6.45538e-06 5.28863e-06 
7.85934e-07 -2.14124e-06 3.63258e-06 1.79263e-07 -4.24644e-06 3.38445e-06 2.24805e-06 -2.65678e-06 -2.6351e-06 
6.74919e-06 -0.00817991 -0.000195657 3.35063e-05 2.67675e-05 2.58144e-05 4.27342e-07 9.98278e-06 -1.27182e-05 
2.14966e-05 -7.60667e-06 -6.19381e-06 -5.60361e-06 2.83763e-05 1.03341e-05 2.43442e-06 -2.0417e-05 2.51029e-05 
-6.52552e-06 -7.96427e-06 8.76431e-06 1.6265e-05 -1.16184e-05 -2.40858e-06 1.4668e-05 -1.30599e-05 2.60008e-06 
2.82067e-06 -2.93873e-06 3.22105e-06 7.19317e-07 4.98606e-06 1.47592e-07 -4.99405e-06 -4.54291e-07 6.25089e-06 
-3.41986e-06 -5.08518e-06 2.51405e-06 6.53394e-07 -5.7429e-07 -2.45154e-06 3.14139e-06 5.94336e-07 2.50945e-06 
-3.98305e-06 9.09129e-06 -1.06763e-05 -8.61423e-07 1.17731e-05 6.33286e-06 -7.48217e-06 -2.58476e-08 2.21949e-05 
-2.02391e-05 -4.52306e-06 1.51461e-05 -1.44797e-05 -4.02112e-07 5.8584e-06 -1.32807e-05 6.11998e-06 2.17165e-06 
7.32287e-06 -1.18475e-05 2.02969e-05 6.32178e-06 -6.81595e-05 6.06503e-05 0.000196088 -0.000705757 -0.00934084 
-0.0332992 -0.0304121 -0.032752 -0.028224 -0.0272465 -0.0314365 -0.0326868 -0.0300382 -0.0283682 
-0.0303329 -0.033938 -0.0315369 -0.00973439 -0.00791624 -0.029641 -0.0322972 -0.0311917 -0.00961333 
-0.028159 -0.0329417 -0.031997 -0.00738472 -0.0134305 -0.0140028 -0.0214307 -0.015238 -0.0151896 
-0.0150415 -0.0276232 -0.0225655 -0.00596991 -0.00913556 -0.0446524 -0.0351882 -0.0207874 -0.0145523 
-0.0134669 -0.0147472 -0.0147217 -0.0221562 -0.022969 -0.0215641 -0.00953629 -0.0117539 -0.0234984 
-0.0157684 -0.0149496 -0.013061 -0.0131242 -0.0133229 -0.0145949 -0.0320637 -0.0421658 -0.0424644 
-0.0410043 -0.0277648 -0.0240086 -0.022899 -0.0152022 -0.0223766 -0.0233454 -0.0227539 -0.00287938 
-0.00280759 -0.0261845 0.000445454 9.39612e-05 -0.0235286 -0.00388305 1.88684e-06 4.46755e-06 5.20998e-06 
1.6193e-06 -4.81516e-07 -3.53368e-06 3.03565e-06 -6.75495e-08 -6.6056e-06 -2.54475e-06 -7.68503e-07 -5.84411e-08 
-2.05176e-06 2.45481e-06 2.66712e-07 2.49445e-07 1.09659e-06 2.6663e-07 3.56166e-06 0.000353114 -4.24541e-05 
8.47116e-05 0.000517931 -5.73988e-05 2.59893e-05 -1.72322e-05 7.54186e-06 -2.06928e-05 -1.30773e-05 -1.47461e-05 
1.14094e-06 -3.90276e-06 8.60024e-06 -1.35641e-05 1.22968e-05 4.52656e-06 2.91085e-05 3.63263e-05 -3.93359e-06 
-1.71493e-05 -6.67907e-06 -5.57307e-06 -8.54725e-06 -9.49011e-07 -8.93628e-06 -5.86093e-06 -1.01887e-06 -1.15823e-06 
1.63406e-06 3.77836e-07 -4.13721e-07 1.29972e-06 1.20455e-08 5.37037e-06 3.37177e-06 7.31315e-06 -2.18507e-06 
3.39832e-07 2.00764e-06 1.50055e-06 -2.12995e-06 -3.3508e-06 3.68729e-08 -7.88409e-06 -5.61121e-06 -6.57388e-06 
1.53285e-06 -2.43293e-06 -1.75981e-06 -3.58961e-06 1.04668e-05 1.55401e-05 6.48227e-06 3.0808e-06 -6.81374e-06 
-1.04283e-07 -4.61278e-06 -6.73952e-06 -1.52262e-05 -1.17389e-05 -1.53472e-05 -1.21209e-05 -3.05055e-05 -1.33397e-05 
-2.89315e-05 1.21143e-05 0.000133947 0.000839106 0.000698088 -0.000206513 0.00108706 0.000936073 0.00113722 
0.000873749 0.00156307 0.00128514 0.00129962 0.00100256 0.000714328 0.00123174 0.00144987 0.000526915 
0.000283258 0.00043955 0.00129284 0.00130799 0.000579103 0.000626956 0.0010546 0.000911436 -8.19831e-05 
-9.43936e-06 0.00088697 0.000920859 0.000175581 0.00065678 0.00146287 0.00104342 -5.82275e-05 0.000204148 
0.000882781 0.000167302 0.000225185 0.00111132 0.000980786 0.00115981 0.00118831 0.000816625 -0.000298259 
-0.000577947 5.00342e-05 0.000574392 0.000472405 0.00111484 0.00122856 0.000644141 0.00064215 0.000687106 
0.00109488 0.000474826 1.44755e-05 -0.000943211 -0.000376392 -0.000295864 0.00019307 0.000765167 -0.000232876 
-9.12173e-05 0.000594203 -0.000120615 -1.33206e-06 -0.000721195 -0.00024558 -0.000689241 6.34735e-05 9.25652e-05 
0.000101519 3.79536e-05 0.000862405 8.37511e-05 -1.11959e-05 3.60754e-06 1.79854e-05 7.8262e-07 -3.1397e-06 
-6.1381e-06 -4.66874e-06 -9.65724e-06 -5.37306e-06 -5.58966e-07 -9.95124e-07 -4.69053e-07 2.80597e-06 1.51557e-06 
-1.10334e-06 0.000289889 2.12715e-05 4.24051e-06 -5.67279e-05 3.2254e-05 -2.51526e-05 2.35362e-06 8.5543e-07 
-1.20371e-05 -1.96617e-05 -4.71948e-06 -7.68782e-07 5.35941e-06 1.60227e-05 -3.56822e-05 3.60977e-05 -2.4415e-05 
4.98575e-06 6.33232e-06 9.86116e-06 -1.40015e-06 2.26609e-07 -5.87947e-06 -3.21847e-06 1.73346e-06 3.16129e-06 
3.4842e-06 2.08756e-06 -2.10373e-06 -6.37848e-07 3.87131e-05 0.000102941 -1.93415e-06 -8.30815e-07 7.80189e-07 
-3.07908e-05 -4.90421e-07 9.63061e-06 8.45527e-07 -3.04023e-07 -7.03634e-07 -2.48922e-07 -4.16125e-06 -1.03973e-06 
-2.79599e-06 3.15156e-06 3.40816e-06 1.55607e-06 1.22379e-05 -1.43859e-05 4.13026e-06 -1.19145e-06 5.21502e-06 
-7.04824e-06 4.82223e-06 -8.03323e-07 1.40739e-05 6.33033e-06 -4.61933e-06 -1.10186e-05 -1.89475e-05 -7.83673e-06 
-1.40343e-05 3.46333e-06 1.62946e-05 0.000107864 -2.07369e-05 1.02965e-05 7.13832e-05 -7.51857e-06 8.20061e-06 
8.80347e-05 2.16469e-05 2.53817e-05 1.98533e-05 1.55926e-05 1.65774e-06 7.05957e-05 2.31647e-05 9.00604e-06 
3.07417e-05 1.43432e-05 3.06052e-05 9.3318e-05 7.04624e-05 0.000156454 5.45601e-05 5.88797e-07 -2.13769e-05 
6.8001e-05 9.59333e-05 4.28299e-05 6.99195e-05 9.09993e-05 2.48074e-05 0.000148143 -6.60003e-06 0.000153606 
-1.86333e-05 9.82822e-06 4.62386e-05 5.95148e-05 6.51343e-05 8.59901e-05 0.000298285 8.28183e-05 2.96907e-05 
3.89456e-05 1.81367e-05 7.16271e-07 -6.23642e-07 -1.02403e-05 0.000152662 0.000123523 8.6673e-05 9.18692e-05 
0.000166654 6.14314e-05 -4.05793e-05 2.22945e-05 0.000248848 0.00014252 -2.22359e-05 0.00017041 -6.74125e-05 
1.27924e-06 6.10712e-05 -6.82247e-05 0.000145399 9.33345e-05 -8.03685e-06 7.88705e-05 7.63898e-05 0.00013219 
-1.07669e-05 1.51635e-06 -7.94929e-06 -3.46747e-06 -1.43068e-05 1.4652e-06 3.01154e-06 1.69502e-06 2.18181e-07 
1.02303e-06 4.71542e-06 -1.19594e-05 9.88622e-07 -6.68891e-06 -2.70575e-05 -3.46339e-07 -1.01503e-05 -1.43628e-05 
2.33546e-06 -2.58324e-05 -5.54112e-06 3.54778e-05 1.61042e-06 -9.76899e-06 3.71545e-06 2.93394e-06 1.95945e-06 
1.11436e-05 3.41923e-06 5.71018e-06 -5.78091e-06 -7.23423e-06 -4.23516e-06 -5.97464e-05 2.18367e-07 1.60436e-06 
1.09999e-06 1.33845e-06 -2.6686e-07 -5.49103e-07 9.31147e-08 -6.43041e-06 1.08827e-06 -5.8389e-07 2.12138e-05 
4.07574e-05 -7.32456e-06 3.38832e-05 -2.70177e-06 2.94942e-06 -2.8837e-06 8.49473e-06 4.10511e-07 -4.12897e-06 
-3.50441e-06 -1.64136e-05 -7.10159e-07 -9.35569e-06 -2.60819e-05 -4.61086e-05 -8.62481e-05 -4.06588e-06 -1.85563e-05 
-1.66064e-05 2.79282e-05 8.54958e-06 9.9522e-07 -2.84888e-06 -5.01377e-06 -2.0178e-06 -7.98969e-06 2.48845e-05 
-4.19307e-06 -1.35117e-06 4.98096e-05 1.70539e-05 -7.32902e-06 6.61714e-06 -1.20388e-06 2.81495e-05 -3.11269e-05 
-2.99729e-06 -2.36031e-05 7.1177e-06 1.15326e-07 -1.38513e-05 4.12634e-05 -6.18035e-05 -0.000127699 -9.24288e-05 
-9.73601e-06 8.99311e-06 -2.51556e-05 2.29827e-05 1.87081e-05 -1.00614e-05 -8.88506e-05 -3.7453e-05 -2.5467e-06 
-1.91213e-07 -1.02472e-06 -2.43293e-05 4.49688e-06 -9.05856e-07 3.18971e-06 3.7452e-05 7.00152e-06 7.80706e-05 
2.35445e-05 2.80967e-06 -2.80827e-05 2.07238e-05 -7.08498e-06 -2.28601e-05 1.15421e-06 -5.00376e-06 -4.76377e-05 
6.53914e-06 -7.41918e-07 -1.34007e-05 2.39373e-05 5.21112e-05 1.38354e-05 -3.04854e-06 0.000109237 4.40926e-05 
3.42941e-05 -3.50078e-05 -7.29804e-06 -6.27286e-06 1.06773e-08 1.94209e-06 8.60934e-06 1.73295e-05 -8.79979e-05 
1.09654e-05 -1.57341e-05 2.6842e-06 6.75714e-06 -1.52156e-05 -2.11474e-05 1.44592e-05 1.27205e-06 -1.02903e-05 
3.12401e-06 3.25433e-05 6.32276e-06 -1.2422e-06 4.85023e-06 -5.1546e-06 1.35457e-06 1.66714e-06 -2.69984e-06 
-9.43684e-06 9.74661e-06 -6.32986e-06 -1.61539e-06 -8.60304e-06 1.33988e-05 -1.35921e-05 5.62117e-06 -1.95922e-05 
-2.09221e-06 -5.01626e-06 -3.46084e-07 2.13167e-06 2.73384e-05 1.01963e-05 1.98225e-05 -2.62519e-06 -1.77975e-06 
5.3115e-06 7.14256e-06 3.79588e-05 1.62689e-05 -1.34931e-06 -3.86994e-05 -3.12162e-05 -2.79963e-05 -1.17259e-05 
6.9386e-06 1.50511e-05 1.575e-05 8.01037e-06 2.50682e-06 7.44512e-06 -3.30962e-05 -3.95637e-06 -3.98182e-06 
1.70515e-05 5.83413e-05 -9.89627e-06 1.06078e-05 7.57154e-06 -5.56431e-06 -3.76193e-06 1.80192e-05 7.846e-06 
3.73928e-05 1.18121e-05 -7.7541e-06 -3.78853e-06 4.65798e-06 -1.08682e-05 -5.16919e-06 6.01428e-06 -2.33551e-06 
-2.21434e-05 4.995e-06 -3.69701e-06 0.000160664 -4.14681e-05 9.16119e-06 1.6302e-05 1.30179e-06 -3.56268e-05 
6.79902e-06 -1.18247e-05 -1.85584e-05 -2.89586e-06 2.55444e-06 2.71848e-06 -7.62814e-06 3.05437e-06 -6.89164e-05 
1.83231e-05 -1.56222e-05 2.18414e-05 7.10291e-05 1.41979e-05 -1.32376e-05 4.05975e-05 -1.50263e-05 -6.37297e-06 
8.35555e-06 -1.12791e-05 1.57472e-05 -1.65559e-06 4.97841e-06 7.50238e-05 -4.1324e-07 2.90628e-06 6.44508e-06 
-8.67957e-06 8.17042e-06 -4.04885e-06 6.90041e-05 1.18433e-05 1.71022e-05 -6.48873e-06 -6.54628e-06 3.29155e-05 
-1.28578e-05 -4.20275e-06 1.32325e-05 9.46266e-06 4.51936e-05 9.00789e-06 -9.514e-06 -5.48065e-06 -4.27921e-05 
2.0817e-05 3.4115e-05 -1.05592e-05 -2.55295e-06 -2.10254e-05 -1.50028e-05 -2.06516e-06 -1.80591e-05 2.05686e-05 
-9.94756e-06 -2.92001e-05 1.08631e-05 -1.08124e-05 -8.79082e-07 1.36529e-05 2.71644e-05 -3.97516e-06 2.12179e-06 
-4.46388e-05 -3.80973e-05 -2.13027e-05 -2.11998e-06 -2.02441e-06 -1.49231e-05 1.69847e-05 -2.11521e-05 -1.45171e-05 
-1.96428e-05 -4.74255e-06 3.60855e-05 -2.79707e-05 -4.58631e-06 9.12335e-06 4.24265e-06 -8.93771e-05 2.80672e-05 
-5.21154e-05 0.0511035 0.0411481 0.109392 0.0129445 -0.0406061 -0.0273296 -0.00500821 0.00600503 
-0.0246678 -0.00155395 0.0418636 -0.00701088 -0.00190536 -0.00556425 -0.0185292 0.0497782 -0.0148261 
-0.0132615 -0.0021988 0.0153587 0.0068769 0.00865678 0.0101761 0.0489677 -0.0739698 0.0265652 
0.0173439 0.0043963 0.0151746 0.000915733 0.0351077 0.00847274 0.00914398 0.0061206 0.0631847 
-0.0311925 -0.0056915 0.0181163 0.0185494 0.0121138 0.00260995 0.0166965 0.110427 -0.00867285 
0.00141859 0.0187692 0.0302961 -0.0152015 -0.0213053 0.0277937 0.0322743 0.0259551 -0.0101313 
0.00912771 0.00622075 0.00249167 0.0172445 -0.000305761 0.00606597 0.0235734 0.0472039 0.0331387 
-0.000477071 0.0101663 0.0156892 0.0179762 0.0302903 -0.0155112 0.00115378 0.00505765 0.0196874 
-0.0043155 -0.0409627 0.0170479 0.0115532 0.00880385 0.010189 -0.0050708 0.0135526 0.0770493 
0.0185836 0.00194357 0.00190777 0.00298446 -0.00120972 0.0162042 -0.0102853 0.0107161 0.000985719 
0.0350085 0.02259 -0.0180116 0.0451199 0.0135357 0.00272526 0.00582037 0.00451232 0.00508535 
0.00771271 -0.0427452 0.0427887 0.0035013 -0.000613075 -0.00494202 0.000225083 0.0692443 -0.0380852 
0.0241841 0.0038472 0.00936979 -0.0105002 0.0760505 0.00288587 0.00565211 0.0127188 0.0143732 
0.0154187 0.0111721 0.00240414 0.0244707 -0.000137427 0.00894183 -0.00129506 0.0154525 0.0561482 
0.00369389 -0.00855898 0.00801553 0.00214728 0.00570391 0.0507936 0.082075 0.00350554 0.0069298 
0.0119853 0.0155474 0.00501525 0.0163496 0.00228639 -0.0236633 -0.00699199 -0.0039982 0.00819286 
-0.00451692 0.0512777 2.30306e-05 0.00318136 -0.0058441 0.00355456 0.0343853 0.0558561 0.00852213 
0.00820125 0.00650346 0.00798791 0.00660362 0.0178473 -0.00757167 -0.0247302 0.0379279 0.0403275 
0.0387115 0.0358263 -0.010192 0.519037 0.540907 0.248896 0.167963 0.254574 0.241921 
0.237802 0.237805 0.243701 0.242624 0.244902 0.244804 0.253396 0.249487 0.251368 
0.253662 0.130674 0.130709 0.247579 0.244548 0.242423 0.125585 0.239253 0.242667 
0.252939 0.15803 0.227011 0.299264 0.21542 0.231592 0.246126 0.244051 0.241293 
0.225418 0.22673 0.242831 0.245647 0.245743 0.233198 0.235209 0.250835 0.25262 
0.250787 0.231995 0.194842 0.193716 0.227141 0.24417 0.243983 0.223445 0.190164 
0.223784 0.241658 0.247703 0.231835 0.218681 0.346659 -9.00534e-06 0.000109299 8.90772e-05 
6.53597e-05 5.26205e-05 3.74089e-05 -8.39044e-06 -1.31988e-05 -1.32014e-05 -4.22211e-06 -4.46238e-05 -6.32912e-05 
-7.68589e-05 -7.76229e-05 -5.23831e-05 -7.55933e-05 -6.94267e-05 -5.44046e-05 -4.73444e-05 -4.54698e-06 -1.65227e-06 
-1.42433e-06 -8.02134e-08 9.59376e-07 4.81083e-05 4.73525e-05 4.44558e-05 3.98139e-05 3.27058e-05 -9.05182e-06 
0.0147754 -0.0337172 -0.00480128 -0.00107136 -0.000706353 -0.000158743 -0.000172804 -0.000172273 -0.000126671 
-0.000179808 -5.74392e-05 -8.49557e-05 -0.00010644 -0.000106154 -0.000144361 -1.7712e-05 -2.25641e-05 1.08182e-05 
2.65954e-05 6.99569e-05 0.000133448 0.000200322 0.000244132 0.000177632 9.33249e-05 3.60509e-05 3.26606e-05 
-0.000108808 -0.000112165 -7.89001e-05 -7.23129e-05 -4.47555e-05 -8.98059e-05 -7.08551e-05 -6.22998e-05 -4.63318e-05 
-3.56977e-05 3.98601e-06 2.02034e-05 3.21659e-05 3.05621e-05 3.89421e-05 6.29458e-05 4.25047e-05 2.97984e-05 
-1.26908e-05 2.11012e-05 3.78535e-05 5.35936e-05 4.65638e-05 4.15714e-05 3.21182e-05 -4.46923e-06 -1.62926e-05 
-2.08555e-05 -2.27798e-05 -3.12113e-05 -3.60711e-05 -4.66528e-05 -8.37488e-05 -8.13641e-05 -0.000101655 -8.27916e-05 
-1.52037e-06 -1.06899e-05 8.07685e-06 1.39363e-05 6.62232e-05 0.00010415 0.000183366 0.000158621 0.000176927 
0.000144093 -1.02102e-05 -3.68045e-05 -1.76362e-05 1.6109e-06 -6.72305e-05 -0.00012629 -7.78536e-05 -6.69348e-05 
-6.84381e-05 -0.000106549 -0.000204784 -0.000130506 -0.000205476 -0.000268783 -0.000699202 -0.000909223 -0.00290909 
-0.0226841 0.0336973 -0.0165495 -0.0100885 -0.00605222 0.0156224 0.00669334 0.00751993 0.00613661 
0.011597 0.0123508 -0.0180388 -0.0336414 0.0058449 -0.0144325 -0.00111597 0.0024098 0.00340155 
0.00413503 0.00651118 0.00753122 -0.0198775 -0.00356306 -0.0229319 -0.00687177 0.00407289 0.00526604 
0.00168549 0.00223 0.00318164 0.0178459 0.0183183 0.0176507 -0.0122543 -0.0348166 0.0159751 
-0.00933711 0.0066362 0.0129314 0.00606463 -5.43615e-06 0.00569621 0.00329864 -0.00045199 -0.00573886 
-0.00350605 -3.26438e-05 0.000116695 5.65365e-05 4.00704e-05 2.30323e-05 3.25304e-05 -7.38166e-07 -3.16614e-05 
-3.19608e-05 -4.66862e-05 -5.7948e-05 -0.000136308 -6.09921e-05 -4.34731e-05 -3.6083e-05 -3.69371e-05 -9.91692e-06 
1.83308e-05 4.68898e-05 2.64547e-05 4.23965e-05 6.11631e-05 0.000105607 -1.34865e-05 0.0201019 -0.0115059 
-0.00154502 -0.00045502 -0.000434005 -0.000175136 -0.000102913 -0.000100547 -0.000264153 -0.000106118 -7.30873e-05 
-5.472e-05 -0.000147165 -0.000110037 -5.22145e-05 4.08959e-05 0.000182756 0.00044864 0.000238037 0.000127993 
1.91347e-05 -6.07255e-05 -2.95909e-05 -7.02798e-05 -9.41254e-05 -0.000172321 -7.56468e-05 -5.25063e-05 -3.08771e-05 
-5.40902e-05 -3.81603e-05 -6.66277e-06 2.03338e-05 4.26123e-05 5.8226e-05 0.000126198 0.000113466 -2.02902e-05 
-3.33683e-05 2.95272e-05 4.88956e-05 3.66533e-05 1.70757e-05 3.15034e-05 3.87124e-06 -1.97847e-05 -3.64758e-05 
-0.000114309 -0.000119482 -6.05985e-05 -4.7821e-05 -0.000114217 -7.83763e-05 -1.81914e-05 3.26993e-05 0.00011258 
0.000238508 0.000175908 0.000128694 4.97811e-05 8.98324e-05 -1.82705e-05 -7.66711e-05 -0.000107791 -6.3156e-05 
-0.000105928 -0.000238941 -0.000233124 -0.000130686 -0.000250974 -0.000602803 -0.000587234 -0.00125346 -0.00661056 
0.0362937 -0.00970191 -0.0285957 0.00709406 0.00371872 0.00582444 0.00651083 0.00366417 0.00092577 
0.00940719 0.00398921 -0.0205464 -0.0457666 -0.0301032 0.018898 0.00317952 0.00354707 0.00472374 
0.00424222 0.00211257 -0.0263153 -0.0132566 -0.0264313 -0.0145189 -0.0196783 0.00744699 0.00481028 
0.00179242 -0.00272274 -0.00646536 -0.00784547 -0.0359839 -0.031036 -0.0367786 0.000539109 0.00125483 
0.00634796 -0.00469349 -0.000756451 0.000369031 0.0148244 0.00143193 -0.0135754 0.0111736 -1.23899e-05 
-2.64495e-05 -0.0112582 0.0230531 0.0367089 -0.0148311 0.0553287 0.0427277 0.0441761 0.055379 
0.00473156 0.060014 -0.00914643 0.0603152 -0.0307546 0.0463421 -0.04047 -0.0175413 0.0237233 
0.00012983 -0.0227703 0.00343247 0.00134141 -0.00167819 -0.0216894 -0.00471253 -0.00600715 0.015476 
0.00545975 0.00472395 0.0114065 0.0119537 0.00653686 -0.000893136 -0.00152522 0.00215024 0.0104167 
0.016404 0.00182369 0.00965979 -0.00764595 0.00607261 -0.00300427 -0.00984181 0.00386828 -0.00385414 
0.00205387 0.00242335 0.00784471 -0.00114382 0.0115937 -0.0051635 -0.00500622 0.0120225 0.0157689 
-0.00261744 0.01563 -0.00181924 -0.00363481 0.00280268 0.00155233 -0.0168311 0.000363366 -0.00232762 
-0.0266174 0.00700991 0.00255835 0.00226114 0.000920568 0.000984634 -0.0019479 0.0157812 -0.00112687 
-0.00223708 -0.00159468 0.00198151 0.00329355 0.00256295 -0.00469097 0.0277289 0.00436019 0.00460118 
0.00513624 0.00278775 0.00290124 0.00173914 -0.00216057 0.0154367 0.0150826 -0.00185029 0.00522879 
0.015672 0.00726969 -0.00838416 -0.00643572 -0.0015907 0.0136559 0.00479404 -0.00347039 0.00107602 
-0.00261626 0.00503479 0.013882 0.00773943 0.00346198 0.00285934 -0.00797778 0.00161033 0.00555528 
0.00673488 0.00610398 0.0107377 0.00642576 -0.00481997 0.00411202 0.00232175 0.00430789 0.00919898 
0.0116897 0.00404163 -0.0221291 0.00012428 -8.5331e-05 0.00197602 0.0199012 -0.00581895 0.0281031 
0.02149 0.0146007 0.00918258 -0.0266058 -0.00342132 0.01165 0.00410987 -0.00630886 -2.80581e-05 
0.00191992 -0.00637962 -0.00609502 -0.0042266 -0.00694635 -0.046736 -7.17239e-05 0.000548509 -0.00313814 
-0.00420884 -0.00206785 0.00195941 0.00437744 0.00896228 0.00605695 0.00857296 -0.00644114 0.0479277 
0.0340872 0.0142501 0.0150887 -0.0029943 0.00657053 0.00911914 -0.00165289 0.0195544 0.0156486 
-0.0157252 0.0102861 0.00991562 0.00557016 -0.00406491 0.0112611 0.00241547 -0.00101181 0.00318693 
0.00350878 -0.00568645 0.000539848 -0.00487785 -0.0015415 -0.00514214 0.00196997 0.00137742 -0.000469581 
-0.000670073 -6.42499e-05 -0.00571512 0.00957462 0.00655365 -0.00290828 -0.00537825 -0.00155127 0.000122382 
-0.000824052 0.000406524 -0.00799827 -0.0011631 -0.00147662 -0.000593217 -0.00189605 0.00118108 0.0163234 
0.0195923 0.00761742 0.000334936 0.00787661 0.000955665 0.00213681 0.00998948 0.0123588 -0.00462939 
0.011946 0.0086648 -0.0200382 0.0107121 0.0084769 -0.0212737 0.0412421 0.00386267 0.00434931 
0.000713802 -0.00151839 -0.0226225 0.0107741 0.0083473 0.0138364 0.0132632 0.0109435 0.00479719 
-0.00588325 -0.00435453 0.0131924 0.00286413 -0.00588645 -0.0025011 0.00128731 0.00593386 -0.00064789 
-0.00308207 0.00148163 -0.00248023 -0.00337373 -3.21777e-05 -0.000422974 -0.0054062 -0.0282797 -0.00232957 
-0.00375147 -0.000419617 -0.0141509 -0.014992 0.00448654 0.00386666 0.0283827 0.00358681 0.00337001 
0.00564454 0.00612827 0.00166459 0.00365432 -0.00550247 0.00784596 0.000161469 -0.000164934 0.00211117 
0.0114481 -0.00953131 0.0176293 -0.00121997 0.00677237 0.00395415 0.0143213 0.00797244 0.00546798 
0.00156154 0.00395042 0.00195176 0.0113412 0.0101377 -0.00610799 -0.00144851 0.00308332 0.00286279 
-0.000561768 0.00205925 -0.00212892 -0.00309317 -0.00914898 -0.0114321 -0.0133825 -0.00278235 -0.00156199 
0.0129679 0.00222416 -0.00563105 0.00536 0.00545291 -0.00111426 -0.00559886 -0.0022592 -0.00472549 
0.025988 0.00607247 -0.00711274 0.00861733 0.0140732 -0.00301513 -0.00331849 -0.00172204 0.0121085 
0.00732501 -0.00364313 0.00647575 0.00588973 0.00346442 0.0051042 0.005268 0.0107949 0.0100316 
0.0109756 -0.00644598 0.00322224 -0.00564488 0.000299104 0.00577827 -0.00604198 0.00297447 -0.00265229 
0.00859712 -0.0064337 -6.34492e-05 -0.00118893 0.00742753 0.00574703 0.0035867 0.000850606 0.00190833 
-0.000830448 0.000904013 0.00118603 -0.00206199 0.00931848 0.0580294 0.00310764 -0.00539245 0.00751258 
0.00850201 0.0106406 -0.0280121 0.00551367 0.0097456 -0.00644795 0.0116226 0.0108129 -0.0207611 
0.00261772 0.0019357 0.0145709 0.0130926 0.018597 0.00850707 -0.00273308 0.0380712 0.00364564 
0.0187982 0.00660258 -0.0101943 0.00426661 -0.00452804 0.0274812 0.0129447 -0.00205901 -0.00914004 
-0.00194062 0.000223993 -0.0290444 0.001239 -0.00378824 -0.00263203 0.000603032 -0.00518894 -0.000998311 
0.325481 0.337232 0.213517 0.228669 0.209173 0.170456 0.196403 0.173292 0.183665 
0.174463 0.170712 0.181896 0.165164 0.161591 0.193479 0.165547 0.182898 0.180133 
0.17248 0.189864 0.165275 0.169281 0.197607 0.171629 0.189145 0.184287 0.178091 
0.19684 0.173252 0.194796 0.193366 0.190993 0.192917 0.172994 0.18307 0.179802 
0.170421 0.195903 0.162967 0.184949 0.186142 0.172742 0.178063 0.190909 0.178326 
0.198637 0.218553 0.164175 0.180029 0.202322 0.188931 0.19593 0.19833 0.188821 
7.01566e-06 2.12254e-05 -5.68167e-05 -5.75327e-05 -5.86512e-05 7.21164e-05 -3.67354e-05 -2.58668e-05 5.50011e-05 
-3.11611e-05 -1.26394e-05 4.55876e-05 -2.24211e-05 -3.07208e-05 3.05257e-05 1.17765e-05 -1.04915e-05 1.61315e-05 
-2.37936e-05 6.81799e-06 8.97915e-06 -6.32031e-06 2.99361e-05 -7.86174e-06 1.82759e-05 -3.96022e-06 -2.74831e-05 
3.25143e-05 3.33205e-05 -3.69898e-05 2.61889e-05 3.75843e-05 -4.84821e-05 3.71503e-05 6.24041e-05 -7.18008e-05 
5.93435e-05 4.66743e-05 -8.70191e-05 1.42781e-05 6.12304e-05 -0.000116108 5.05883e-05 4.86823e-05 -0.000106837 
5.59598e-05 3.13336e-05 -8.2515e-05 3.16587e-05 1.76608e-05 -6.46345e-05 3.19701e-05 3.44041e-05 -4.77667e-05 
-5.02484e-06 1.84541e-05 -3.28706e-05 2.92991e-05 1.12246e-06 -2.23917e-05 8.35818e-06 -1.2922e-05 -5.67321e-06 
2.1368e-06 8.8629e-06 1.04955e-05 -2.57138e-05 7.74318e-06 2.48176e-05 -2.92084e-05 -3.64737e-05 4.89397e-05 
-2.50416e-05 -2.93948e-05 4.25852e-05 -2.11924e-05 -3.2875e-05 4.93006e-05 -3.4374e-05 -2.27728e-05 4.67591e-05 
-8.99112e-06 -2.23578e-05 6.04227e-05 -1.8459e-05 -2.1031e-05 1.44593e-06 3.0651e-05 -0.0782599 -0.0205805 
0.00118661 0.00209788 0.000952574 -0.00617963 0.00166414 0.000377101 -0.00262366 0.000644892 0.000308964 
-0.000855502 0.00012379 0.000252292 -0.000710864 0.000381037 0.000107604 -0.000463091 0.000205682 8.87561e-05 
-0.000278932 8.60917e-05 6.51972e-05 -0.000222901 0.000131371 0.000116203 -0.00019097 -1.10321e-06 0.000120652 
-0.000227752 4.28516e-05 8.13193e-05 -0.000179379 8.96011e-05 2.57507e-05 -0.000151572 6.43924e-05 3.95107e-05 
-0.0001455 9.35348e-05 9.91802e-05 -9.78575e-05 -2.63189e-05 0.000102126 -0.000148725 -3.88522e-05 3.28034e-05 
-7.95998e-05 4.73167e-05 -9.85839e-06 -4.98439e-05 4.94275e-05 -7.2481e-05 -4.74203e-05 1.122e-05 -0.000145495 
5.05495e-05 -0.000127663 -8.87919e-05 0.000151714 -6.74473e-05 -0.000193935 0.000300376 -0.00019172 -0.000191817 
0.000353293 -0.000209787 -5.11202e-05 0.000216905 -0.000112088 2.51667e-05 9.55012e-05 -5.12067e-05 4.25517e-05 
3.29592e-05 9.90663e-06 -4.95844e-05 -1.54817e-05 8.86941e-05 4.64837e-05 -1.06594e-05 2.25878e-05 5.73591e-05 
-5.16492e-05 2.07886e-05 6.02795e-05 -9.4553e-05 6.68812e-05 4.59115e-05 -0.000102359 7.96715e-05 7.08724e-06 
-0.00011021 5.32836e-05 6.73322e-05 -0.000129099 5.99536e-05 2.83566e-05 -8.51464e-05 5.0079e-05 2.34765e-05 
-6.84243e-05 4.96293e-05 4.60238e-05 -4.85064e-05 2.69468e-05 1.41458e-05 -6.38992e-05 -2.5481e-06 1.49433e-05 
-3.83009e-05 -2.79694e-05 -9.33154e-06 4.66283e-06 1.98684e-06 -1.62196e-05 1.74701e-05 -4.54928e-06 -2.42733e-05 
2.59984e-05 -1.46726e-05 -3.23848e-05 3.81126e-05 -4.45202e-05 -3.93284e-05 6.84496e-05 -4.88143e-05 -9.02677e-07 
7.45911e-05 -3.05474e-05 -2.0542e-05 8.34519e-05 -3.42878e-06 -1.84547e-05 2.39433e-06 -2.60682e-05 -1.66098e-05 
4.96413e-06 -2.70894e-05 -9.45164e-06 3.92181e-05 -2.4128e-05 -8.50529e-06 5.32429e-05 -2.75527e-05 -1.77365e-05 
2.88382e-05 6.00793e-06 -1.10288e-05 3.15927e-05 1.62368e-05 4.12573e-06 9.99298e-07 -4.02826e-06 1.22556e-05 
-9.54307e-06 2.48245e-06 2.27531e-05 -2.02212e-05 2.87776e-05 2.50817e-05 -4.75775e-05 9.9756e-06 4.33614e-05 
-6.49573e-05 3.22601e-05 4.93231e-05 -9.8337e-05 4.74816e-05 4.37714e-05 -7.76131e-05 5.29057e-05 2.79225e-05 
-8.42329e-05 6.27512e-05 1.06859e-05 -8.26915e-05 9.79445e-06 1.71472e-05 -4.56475e-05 1.36989e-06 2.7188e-05 
-8.56965e-05 5.95716e-05 5.18117e-07 -4.3087e-05 3.62448e-05 -2.59207e-05 -2.32323e-05 1.36061e-05 -6.44259e-05 
1.01304e-05 -4.93165e-05 -4.08139e-05 9.96362e-05 -4.47757e-05 -9.31865e-05 0.000148219 -0.000135044 -0.000113536 
0.000188835 -9.98151e-05 -4.37626e-05 0.00016951 -0.000118979 -5.80293e-05 0.000158135 -0.000111914 -9.20632e-05 
9.44774e-05 4.97755e-05 -1.38066e-05 0.000109455 -7.08685e-05 4.70556e-06 3.48735e-05 -3.61159e-05 3.7647e-05 
1.61259e-06 5.61686e-06 -5.65368e-06 -4.65352e-05 4.93191e-05 2.2979e-05 -4.05492e-05 0.000110494 5.29257e-05 
-9.8677e-05 3.08712e-05 4.2711e-05 -0.000115262 2.34558e-05 7.34375e-06 -0.000145108 9.71427e-05 2.3936e-05 
-9.56127e-05 6.00374e-05 6.84335e-05 -0.000188324 0.000149815 0.000109486 -0.000184191 6.00278e-05 0.000141562 
-0.000245259 0.000158537 0.000106308 -0.000393505 0.000136003 0.000243159 -0.000409815 0.000507674 0.000498487 
-0.000636673 0.000228605 0.000730107 -0.000979995 0.000556209 0.00248816 -0.0018052 -0.00513294 -0.0740675 
-0.00374791 -0.0303906 0.0438429 0.0246793 0.0152921 0.0125502 -0.0603028 0.0191101 0.0141786 
-0.00656756 0.0137087 0.0123946 -0.00423342 0.0112084 0.0141126 -0.00660153 0.0182788 0.015009 
-0.00590171 0.00869148 0.0164675 -0.0452539 0.0179029 0.0156715 -0.00691456 0.0150868 0.0139783 
-0.0097787 0.0124253 0.0155971 -0.00822837 0.0168674 0.0132679 -0.00594345 0.0117528 0.0170174 
-0.0467184 0.01679 0.0154964 -0.00486292 0.0158293 0.0147079 -0.00619265 0.0143039 0.014721 
-0.00790994 0.0158767 0.012237 -0.00614045 0.0176693 0.0165656 -0.0511726 0.020824 0.0186163 
-0.0562912 0.00862888 0.0150529 -0.052724 0.0113731 0.0134846 -0.0064569 0.0147691 0.0166406 
-0.00875655 0.0140717 0.0128252 -0.00644914 0.0183851 0.0186155 -0.0504065 0.0103348 0.0183519 
-0.0476617 0.0148074 0.0132646 -0.00735034 0.0149521 0.0167489 -0.0073717 0.0124938 0.0188418 
-0.00474214 0.0299435 0.0417405 -0.0567743 0.0221587 -0.00704826 0.00772697 0.0114268 -0.00408987 
0.00901173 0.00741495 -0.00480604 -0.00231851 0.00145342 -0.00510271 0.0039363 0.00737719 -0.00196374 
0.00517934 0.00810664 -0.00296881 0.00694993 0.0071698 -0.00346032 0.00509749 0.00445984 -0.005171 
0.00379817 0.00338121 -0.00157522 0.0226538 0.0148302 -0.00139924 0.0429469 0.0177974 -0.0481831 
0.0152152 0.0098947 0.0079606 0.00314833 -0.0111381 0.00595584 0.00981769 -0.00735053 0.00520005 
0.00676459 -0.00609056 0.00595463 0.00506498 -0.00496463 0.00663414 0.00376974 -0.00365812 0.00716555 
0.00355336 -0.00328692 0.000257258 -0.00176428 -0.0017293 0.00255619 0.00140949 -0.00261919 0.00539043 
0.00199503 -0.00427603 -0.00722489 0.0223383 -0.00480522 0.00399158 -0.00634215 -0.000736341 0.00162041 
-0.00373154 0.00402422 0.00571704 -0.00288457 0.00111025 0.00477072 -0.00328677 0.00195265 0.005104 
-0.00334679 0.00295364 0.00412371 -0.00422667 0.00618683 0.0061537 -0.00404086 0.00881363 0.00524743 
-0.00445832 0.0157093 0.00530918 -0.00656956 0.00648097 0.00197347 -0.00669253 0.0163299 0.000497788 
-0.0110893 -0.00139037 0.00999514 0.00823327 0.00954905 -0.00775332 0.00458192 0.00253313 -0.00657531 
0.00390054 0.00144417 -0.00497222 0.00314108 0.000873245 -0.00423035 0.00594827 0.00395186 -0.00443859 
0.000615045 -0.00193707 -0.00187534 4.35196e-05 -0.00039593 -0.00232543 -0.00192028 0.000132933 -0.00135818 
0.000219853 0.0116601 -0.00252092 -0.010314 0.0132847 -0.0169645 -0.0586599 -0.000267948 0.0077979 
-0.00106182 0.0359702 -0.0254979 0.0315449 0.00663121 -0.0153938 -0.022663 -0.000728953 0.004665 
-0.00356481 -0.00499996 0.0397442 -0.0130393 -0.054782 -1.3657e-05 -0.00327564 0.00140599 -3.98578e-06 
-1.50476e-05 -3.6117e-05 -3.15044e-05 2.87478e-05 -3.60462e-05 -1.65485e-05 6.46098e-05 -9.3958e-06 -9.66109e-06 
5.28577e-05 7.57615e-06 8.65075e-06 3.18421e-06 -3.01325e-05 3.07052e-05 -7.85062e-06 -6.9418e-07 4.09987e-06 
-1.13247e-05 2.32837e-05 1.62469e-05 -2.4917e-05 2.25614e-05 5.13718e-05 -8.45075e-05 5.34527e-05 6.03195e-05 
-9.62926e-05 4.00923e-05 4.1669e-05 -0.000103126 6.26912e-05 2.64522e-05 -9.6526e-05 3.62045e-05 7.29365e-05 
-0.000127769 4.78981e-05 3.36973e-05 -9.10629e-05 5.30838e-05 4.39916e-05 -9.0936e-05 4.8557e-05 2.01166e-05 
-8.50892e-05 1.53817e-05 2.03088e-05 -7.97537e-05 5.00237e-06 3.91652e-06 -2.92193e-05 2.3692e-05 -1.13814e-05 
-1.57974e-05 1.04431e-05 8.70036e-06 -8.58875e-07 -2.11974e-05 2.59348e-06 1.96978e-06 -1.88038e-05 -2.622e-05 
3.8732e-05 -3.51452e-05 -3.51113e-05 5.90583e-05 -2.44366e-05 -2.26333e-05 2.99403e-05 -3.98855e-05 -1.4345e-05 
3.80899e-05 -2.35976e-05 -1.39096e-05 5.73099e-05 -2.98483e-05 0.00114058 -0.00430625 -0.00767909 -6.65982e-05 
0.00171662 4.66749e-05 0.000968985 0.000179263 -0.000858095 0.000676952 6.49526e-06 -0.00104892 0.000262904 
0.000257168 -0.000865391 0.000224086 0.000123544 -0.000431442 0.000239977 0.000162072 -0.000291418 0.00015551 
9.83576e-05 -0.000321613 0.000139742 0.0001005 -0.000315603 2.4617e-05 0.000149684 -0.000260498 3.80148e-05 
0.000128966 -0.000166397 9.86042e-05 0.000134627 -8.68495e-05 4.92845e-05 7.0489e-05 -0.000163833 4.07516e-05 
8.42904e-05 -0.000186444 -4.55306e-05 9.64645e-05 -0.000143863 -2.0571e-05 5.437e-05 -3.64804e-05 1.24199e-05 
1.20373e-05 5.17156e-05 4.67786e-06 -8.59159e-05 6.41451e-05 -2.02007e-05 -9.17131e-05 -5.12528e-05 -7.88178e-05 
-8.46785e-05 8.33049e-05 -6.86829e-05 -0.000177541 0.000267317 -0.000154032 -8.86963e-06 0.00019354 -0.000199855 
8.23563e-05 3.24876e-05 -0.000123634 -2.10815e-05 5.50802e-06 -1.08929e-05 -6.87798e-06 8.78386e-05 2.11315e-05 
-1.06004e-05 4.50726e-05 4.66649e-05 1.25224e-05 -8.72789e-05 6.66987e-05 4.92647e-05 -9.17534e-05 7.51008e-05 
3.54982e-05 -3.44063e-05 9.5531e-05 3.30915e-05 -7.4919e-05 6.39838e-05 4.87324e-05 -9.67823e-05 4.69633e-05 
3.91292e-05 -9.92721e-05 5.04686e-05 1.40244e-05 -6.68211e-05 4.87999e-05 2.43727e-05 -4.3304e-05 3.38419e-05 
3.80415e-06 -5.26285e-05 1.02049e-05 6.03376e-06 -4.72032e-05 -3.94896e-06 -5.69773e-06 -1.8957e-05 -1.0094e-05 
-2.12061e-05 3.16009e-05 -1.34768e-05 -2.73448e-05 5.69793e-05 -1.95316e-05 -3.30734e-05 7.40234e-05 -3.72267e-05 
-5.1928e-05 5.65148e-05 -4.39209e-05 -2.63212e-05 3.923e-05 -4.67205e-05 1.02715e-05 1.08599e-05 4.70437e-05 
-0.0106133 -0.00552303 -0.00285009 0.00480337 -0.000903025 -0.00283219 -9.09106e-06 1.56729e-06 -7.75343e-06 
-1.3643e-05 3.56492e-05 -3.28303e-05 -1.99144e-05 2.03188e-05 -2.83245e-05 -7.62057e-06 3.21522e-05 -1.97956e-05 
-3.45629e-06 4.15846e-05 -1.91293e-06 3.95482e-06 2.30209e-05 2.53081e-06 1.35519e-05 -1.423e-05 2.50838e-06 
1.86129e-05 -3.50065e-05 1.66119e-05 3.57424e-05 -3.41052e-05 2.92539e-05 2.67361e-05 -3.95501e-05 3.54161e-05 
3.4724e-05 -6.7084e-05 1.12726e-05 6.16085e-05 -8.18079e-05 2.55139e-05 6.15587e-05 -7.04808e-05 6.33009e-05 
7.72719e-05 -4.30844e-05 4.75699e-05 3.52704e-05 -8.42207e-05 2.85368e-05 3.21262e-05 -0.000108263 -8.8019e-06 
3.79618e-05 -7.55527e-05 9.16895e-06 6.18295e-06 1.49542e-05 1.50992e-05 -3.14757e-05 6.24251e-05 -1.7143e-05 
-8.412e-05 5.77383e-05 -6.52925e-05 -7.07004e-05 6.11451e-05 -3.87205e-05 -0.000121859 0.000163255 -6.46997e-05 
-9.44623e-05 0.000186464 -9.67783e-05 -2.85823e-05 0.000111954 -0.000116383 -7.54034e-05 9.73646e-05 -5.18284e-05 
-8.37749e-06 0.000122933 1.30816e-05 -2.64528e-05 5.3713e-05 4.50536e-08 -1.8963e-05 -6.53993e-05 2.34185e-05 
1.58434e-05 -7.23592e-05 8.06686e-05 1.92716e-05 -3.69327e-06 7.52201e-05 2.16462e-05 -3.42717e-05 5.54887e-05 
2.39142e-05 -0.000140559 8.10029e-05 4.75939e-05 -0.000142028 0.000117923 5.20073e-05 -0.000104721 0.000158902 
4.16403e-05 -0.000144948 7.18936e-05 0.000120711 -0.000188962 6.26096e-05 0.0001805 -0.000301424 0.000192065 
0.000270572 -0.000313238 0.000245047 0.000368204 -0.000465977 8.25166e-05 0.000715902 -0.000663857 0.000107319 
0.00117013 -0.000979531 6.53875e-05 0.00246995 -0.00227571 -0.00105336 -0.0059822 -0.000753598 -0.00193369 
0.001153 -0.000718263 1.24486e-05 -0.00112242 0.00350871 -0.00156583 -0.00125295 0.00114887 -0.0030144 
0.00278043 0.000813819 -0.00205106 -0.00496124 0.00161715 -0.00138404 -0.00197272 0.00304347 -0.00166145 
-0.00222658 0.000581448 -0.00187253 -0.000954847 0.000334893 -0.00219419 0.00285049 0.000615602 -0.00201496 
-0.00376538 0.00186446 -0.00121573 -0.00221563 0.00314849 -0.000329819 -0.00183233 0.00385338 -0.00160554 
-0.00149669 0.000700978 -0.00154282 0.00245053 0.000524499 -0.00515662 -0.00890466 0.0012537 -0.00528936 
-0.0118824 0.000337888 -0.00737296 -0.0044294 -0.000212967 0.00269592 -0.00185372 0.00125048 -0.00155035 
-0.00152252 0.000500048 -0.0012912 0.00293447 0.000515847 -0.00538742 -0.00789766 0.00136161 -0.00850272 
-0.00511078 0.000753563 0.00214182 -0.00278335 0.000954786 -0.00113614 -0.00226282 0.000859172 -0.00122144 
0.00135321 0.00133456 -0.00045979 -0.000168635 -0.000344903 0.00460957 -0.000184656 -0.00357295 8.26958e-05 
0.000119687 -0.00107916 -0.00251288 0.000319865 -0.00107695 -0.00182976 0.000458789 -0.00088088 -0.000596919 
0.000712448 -0.00141991 -0.000925875 0.000143565 -0.0013258 -0.000980524 0.000465253 -0.00815329 0.00132645 
-8.38567e-05 -0.0123482 -0.00721677 -0.000414498 -0.000604602 0.000166228 -0.0014432 -0.00136388 -0.000253826 
-0.00248022 -0.0008666 -0.000581166 -0.00127796 -0.000706941 -0.00109433 -0.00051863 0.000190669 -0.00151007 
-0.000386944 0.000417214 -0.00176195 -0.00070436 0.000487551 -0.00129678 -0.000363975 0.000258366 0.00106523 
-0.000178566 -0.000452005 0.000944252 -0.000960797 -0.00140387 -0.00158624 0.000188267 -0.00377686 -0.00365981 
-0.000354749 0.000356033 -0.000536958 0.00141014 -0.000964104 -0.000863409 -0.000505466 -0.00212755 -0.000726565 
-0.00181525 0.000631144 -0.000689422 -0.000916858 0.000160111 -0.00129424 -0.000594272 -5.16755e-05 -0.00245234 
-0.000344253 -7.28147e-05 -0.000200602 -0.000609269 2.13047e-05 -0.00103043 0.00279647 0.000913339 0.00226123 
0.00234403 3.29928e-05 -0.00164638 -0.000622785 -0.000286309 -0.000475476 -0.000366995 -0.000403438 -0.000488298 
-0.000923968 -0.000163945 5.05065e-05 -0.000972921 -0.000680898 0.000397292 -0.00195266 -0.000673167 0.000384507 
-0.00146916 -0.000511878 0.000292818 -0.00073577 0.000524804 -0.000107648 0.000595698 -0.00341817 -0.00111794 
-0.000850271 -4.97533e-05 -0.00177327 -0.00127451 -2.80057e-05 -6.84044e-05 -7.32069e-05 -0.00209276 0.000504102 
0.00109911 -8.4593e-05 -0.000659677 -0.000307122 -0.000111691 -0.011664 -0.00019154 0.000879093 1.84973e-05 
0.0015135 -0.00192269 -0.0058089 -0.00107473 1.72601e-05 0.00242972 -0.00503876 0.00982872 -4.29662e-05 
-0.000338907 4.30555e-05 -0.00102722 -0.0018114 -0.000435814 0.00301996 -0.0082699 -0.000285595 0.00025942 
-9.12387e-06 -0.000390844 -3.13795e-05 -2.09911e-06 -1.89654e-05 -3.01734e-06 4.10112e-05 -9.73629e-06 -1.38222e-07 
2.15174e-05 -3.02329e-06 3.33448e-05 -1.86672e-05 -2.87782e-05 1.27059e-05 -7.13275e-06 1.384e-05 2.82465e-05 
-2.24717e-06 1.36875e-05 4.0058e-05 -4.04098e-05 1.45237e-05 5.74502e-05 -7.47444e-05 4.0496e-05 6.47869e-05 
-7.23302e-05 6.84238e-05 3.80754e-05 -6.87276e-05 4.46572e-05 5.5108e-05 -0.000112952 3.72016e-05 4.78183e-05 
-8.6641e-05 5.66509e-05 3.31961e-05 -5.92806e-05 5.08126e-05 1.0929e-05 -6.051e-05 4.17919e-05 9.41615e-06 
-7.17872e-05 2.37532e-05 1.00147e-05 -4.50017e-05 1.87359e-05 -1.15691e-06 -8.04233e-06 1.69095e-05 -1.4016e-05 
6.82484e-06 -6.6737e-06 -1.39401e-05 -6.26924e-06 -1.66476e-05 -1.2122e-05 1.92944e-05 -1.76772e-05 -2.26431e-05 
3.66072e-05 -1.08563e-06 -1.52866e-05 2.53936e-05 -2.24871e-05 -6.23435e-06 1.09481e-05 -2.07385e-05 7.516e-06 
1.55625e-05 -3.99305e-07 -0.000548961 0.000648549 0.000206998 -0.000264302 -0.000121668 -0.000440488 0.000984063 
-0.000426657 -0.000200094 0.00330505 0.000923869 -5.56106e-05 -0.000573038 0.000457747 3.00275e-05 -0.000570167 
0.000265848 0.000180093 -0.000401717 0.00017427 0.00014756 -0.000333287 0.000216122 0.000145973 -0.000194332 
0.000164672 6.49471e-05 -0.000200359 0.00013703 0.000117276 -0.000251922 4.97315e-05 0.000162981 -0.000180281 
4.00416e-05 0.00013358 -9.04456e-05 4.06534e-05 7.66479e-05 -5.2041e-05 6.83435e-06 3.39033e-05 -8.6995e-05 
-1.80421e-05 7.38938e-05 -0.000113655 -2.49538e-05 0.000106984 -9.18224e-05 3.78258e-06 7.55723e-05 -6.33067e-06 
5.43884e-05 4.46395e-05 3.62024e-05 1.42382e-05 -9.12151e-05 -6.96742e-05 6.07951e-05 -0.000139345 -0.000214997 
4.03085e-05 -8.3022e-05 0.000143503 -8.74107e-05 6.09048e-05 -6.98411e-05 -0.000173608 0.000193781 -1.84974e-05 
-0.000204584 6.55988e-05 -9.26613e-05 -9.10367e-06 4.19455e-05 4.3217e-05 3.45706e-05 7.51478e-06 0.000116865 
4.91672e-05 -4.489e-05 7.2997e-05 6.38691e-06 -1.01007e-05 -3.49605e-05 4.70598e-05 1.91243e-05 -1.79255e-05 
7.0973e-05 1.21068e-05 3.00488e-06 7.1063e-05 2.02091e-05 -2.33134e-05 4.80995e-05 1.46238e-05 -4.43013e-05 
3.28292e-05 1.25596e-05 -3.61013e-05 3.44376e-05 -4.23747e-06 -2.15205e-05 3.36794e-05 -3.41598e-06 5.13019e-06 
1.98696e-05 -9.88181e-06 -1.41214e-05 7.28297e-06 -9.25779e-06 -1.46251e-05 4.05024e-06 -1.32421e-05 -4.06071e-06 
-3.88474e-08 -1.67099e-05 3.45909e-05 -5.29587e-06 -2.99115e-05 4.50974e-05 -2.22549e-06 -3.95086e-05 5.18797e-05 
-4.74949e-06 6.62887e-06 5.01882e-05 -5.85317e-06 -2.73239e-05 -0.000452121 -0.000352151 -1.47046e-05 -1.21884e-05 
1.49546e-05 -1.42154e-05 -1.90597e-06 -2.23316e-05 4.31948e-06 2.79134e-05 -1.69918e-05 7.65609e-06 2.29548e-05 
-1.25817e-05 9.27843e-06 1.13492e-05 -6.52199e-06 2.28125e-05 -1.51706e-05 -4.96702e-06 3.25677e-05 -2.54147e-05 
4.86208e-06 3.74906e-05 -2.36045e-05 1.74615e-05 2.75336e-05 -2.67428e-05 1.99486e-05 4.58606e-05 -4.63511e-05 
8.73983e-06 6.38912e-05 -5.19846e-05 1.0297e-05 6.04509e-05 -2.92197e-05 1.80644e-05 3.77233e-05 -5.41425e-06 
2.27277e-06 8.0081e-06 -3.52984e-05 1.3091e-06 2.52573e-05 -6.05779e-05 1.43993e-05 1.78184e-05 -5.02736e-05 
2.27372e-05 -2.9303e-05 1.60155e-05 3.46272e-05 -3.8922e-05 1.50578e-05 1.8199e-05 -8.32714e-05 1.23798e-07 
-1.04248e-05 -9.19403e-05 2.40264e-05 -3.72402e-05 -7.34876e-05 5.48722e-05 -5.62189e-05 -2.15377e-05 6.24886e-05 
-0.000101772 1.50342e-05 2.60464e-05 -4.63214e-05 3.12895e-05 3.87908e-05 -8.44068e-06 -4.45292e-06 5.29771e-05 
-7.40238e-06 -2.48188e-05 3.92629e-05 2.16566e-06 -1.4899e-05 -9.63223e-05 6.69693e-05 4.19909e-05 -7.08666e-05 
0.000104916 5.21001e-05 -2.71212e-05 7.14985e-05 3.1674e-05 -4.25091e-05 3.7141e-05 5.26369e-05 -0.000136188 
8.25965e-05 7.02709e-05 -0.000140976 0.00016188 7.27502e-05 -0.000146947 0.000142189 0.000148526 -0.000122814 
8.9232e-05 0.000279301 -0.000253139 7.66718e-05 0.000381935 -0.000336542 4.5776e-05 0.000354041 -0.000354988 
0.000170791 0.000686644 -0.00048083 -9.64643e-05 0.000733946 -0.00077509 -0.000767275 -0.000263758 -0.000311176 
0.00140355 -0.00228666 0.000297479 -0.000183897 -0.000166891 0.000214532 0.00040982 0.000648509 0.00011379 
0.000521704 0.000618634 0.000342418 -0.00110944 0.000334154 -0.00105844 8.67665e-05 0.000523617 9.69218e-05 
0.000117155 0.000239597 0.000224201 0.000143568 0.000211988 5.72779e-05 0.000429719 0.000176486 0.000330356 
-0.000832796 0.000228577 -0.00104089 0.000370767 0.000448483 -5.67445e-05 0.000405063 0.000183918 0.000274737 
0.000102861 0.000159431 0.000260522 0.000159005 0.00018684 0.000256037 -0.000677981 0.000193989 -0.00115337 
-0.00162207 0.000343424 -0.00135642 -0.00121455 0.000629964 -0.000714588 0.000265961 0.000399379 0.000323136 
0.000191042 0.000283298 0.000233252 5.87926e-05 0.000235487 0.000282581 -0.000624504 0.000141605 -0.00115039 
-0.00163301 0.000441406 -0.0015237 0.000334474 0.000586938 0.000442993 -8.1073e-05 0.000309328 0.000376311 
-0.000183925 0.000630145 0.000695387 -0.000515863 -0.000446277 -0.000208851 0.000170545 0.000325232 -1.42633e-05 
2.94985e-05 -2.66595e-05 -0.000150235 -5.50274e-05 -8.48715e-05 0.000107356 0.000132127 -0.00119065 0.000451329 
0.000181387 -0.00199657 0.00149108 8.12244e-05 0.000187466 -0.000289272 0.000402622 -0.000799652 -0.000281234 
0.000227314 -9.37269e-06 -5.8442e-05 0.000103179 -8.84712e-06 3.48033e-05 0.00026203 -7.13662e-05 0.000728463 
0.000221086 -0.000455716 0.00117895 -0.00025101 -0.000661311 -0.00311626 0.00125441 -0.00135229 0.000693098 
-0.000163283 -0.00105293 0.000887892 0.00182926 -5.33269e-05 -0.000150578 -2.61052e-05 0.000142549 -0.00025502 
8.96692e-05 -0.00039774 0.000108078 -1.86522e-05 -0.00088254 0.00070482 0.000133232 -0.00122994 0.00182009 
0.000470205 0.00293207 -0.00154911 -0.00129002 0.00111412 2.59223e-05 -0.000595131 -2.61111e-05 -7.87396e-06 
-0.000426795 0.000134556 -2.82295e-05 5.43547e-05 -0.000257889 0.000258859 -7.17837e-05 0.000559945 0.000373103 
-0.0001635 -0.000226189 0.000127853 -2.74347e-05 4.42941e-05 0.000261984 0.000156391 -3.96364e-05 0.000172742 
0.000229074 -0.00243037 0.000306768 -0.000354237 2.83729e-05 -0.000244295 -0.000264196 1.5976e-05 0.000489764 
-0.00128109 0.00109387 0.000750677 -0.000225325 8.00483e-05 -0.000138912 -0.000676745 -0.000215188 0.000282025 
-7.24726e-05 -0.00024278 -0.000896911 0.0019603 -0.000379207 0.000267582 0.000369889 -0.000378145 0.00111421 
-0.00206332 -0.000691591 -8.70801e-05 0.00121615 -0.000174223 0.000133969 0.00170445 -5.21758e-05 0.000108202 
-7.12155e-05 0.00027005 -0.000378992 -0.000320911 0.000589542 -0.000357141 0.000469461 -2.06729e-05 7.28009e-05 
-5.6314e-05 -2.81464e-06 -0.000672022 0.00114925 -0.000126101 0.00041539 -2.34235e-05 0.000546304 -0.000533206 
-0.000342135 0.000481608 -0.000641083 -0.000145228 0.000168284 -0.000205623 3.1926e-05 3.96877e-05 0.000419494 
-0.000300644 -2.06327e-05 7.04029e-06 1.34518e-05 -2.54248e-05 1.5387e-05 -5.36404e-07 -3.52334e-05 4.32519e-05 
-6.76732e-06 -2.35117e-06 2.62016e-05 1.77122e-05 5.51963e-06 3.24154e-05 -7.26886e-06 4.17397e-07 5.54438e-05 
-2.19805e-05 2.20692e-05 6.54351e-05 -2.82824e-05 4.66367e-05 3.41228e-05 -3.36646e-05 7.29353e-05 2.47455e-05 
-8.90534e-05 4.67584e-05 2.85516e-05 -0.00010342 4.16994e-05 4.45412e-05 -3.97594e-05 6.12607e-05 2.47111e-05 
-1.57136e-05 6.76022e-05 2.16461e-06 -5.35512e-05 3.39292e-05 3.89056e-06 -6.24085e-05 2.37285e-05 -2.15372e-06 
-1.07908e-05 2.31959e-05 -1.34903e-05 1.49267e-05 5.30836e-06 -1.49123e-05 -5.28969e-06 -7.10219e-06 -7.53157e-06 
4.8708e-06 -1.86548e-06 -2.38686e-05 3.02268e-05 -1.09439e-05 -2.44863e-05 3.27655e-05 5.21626e-06 -2.13143e-06 
1.05709e-05 -1.00009e-05 -4.32232e-06 -0.000170002 0.00016414 -0.000217444 0.000179905 0.000159826 -0.00014869 
0.000550094 -8.29769e-05 5.91411e-05 0.000271251 8.76637e-06 -0.000319947 0.000183515 9.80044e-05 -0.000271284 
0.000226297 7.87584e-05 -0.00014148 0.000213055 3.67471e-05 -0.000131964 0.000170056 4.99307e-05 -0.000185671 
0.000107107 0.00010255 -0.000154013 9.11533e-05 0.000131212 -0.000101088 6.24006e-05 8.87258e-05 -5.06345e-05 
3.04945e-05 6.7564e-06 -7.12566e-05 -5.26493e-06 5.79101e-06 -5.75963e-05 -3.35457e-05 5.01369e-05 -1.12544e-05 
-1.57136e-05 7.92206e-05 -0.000108023 0.000134972 3.15276e-05 9.01053e-05 -7.64826e-05 0.000338786 5.99701e-06 
6.81396e-05 -2.26709e-05 3.24746e-05 -1.16606e-05 -4.89594e-05 -5.64021e-05 0.000219007 -4.67789e-05 -7.9843e-05 
-3.88738e-05 -1.78244e-05 -3.36192e-05 5.47275e-05 -7.35475e-06 -1.02649e-06 8.54407e-05 1.41413e-05 9.92776e-07 
6.6343e-05 3.76796e-05 -9.60602e-06 1.56232e-05 4.15921e-05 -2.28696e-05 -2.36936e-06 2.1523e-05 -4.32794e-05 
1.82249e-05 1.78385e-05 -3.89127e-05 4.59549e-05 1.6109e-05 -2.22699e-05 3.49307e-05 4.58026e-06 -2.04962e-05 
2.12749e-05 -7.46293e-07 -1.89639e-05 2.16425e-06 4.84334e-06 -1.29658e-05 3.18442e-05 3.49659e-06 -1.54983e-05 
4.19553e-05 1.22714e-06 -4.04105e-05 1.01991e-05 -2.13134e-05 -4.81593e-06 8.21474e-05 -0.000213348 -1.65261e-05 
9.76633e-06 1.39429e-06 -1.96377e-05 1.0234e-05 1.47702e-05 -1.89884e-05 1.64317e-05 -1.93688e-06 -1.32161e-05 
2.6952e-05 -3.55153e-06 -1.17368e-05 3.07776e-05 -6.94845e-06 -1.1272e-05 2.75876e-05 -8.55677e-06 -7.2342e-06 
2.03105e-05 -3.65708e-06 -6.14999e-06 3.16379e-05 -1.90736e-05 2.23744e-06 3.51778e-05 -2.7369e-05 1.72124e-06 
2.03433e-05 1.5934e-05 -1.95746e-06 6.11301e-07 5.04898e-05 -1.95116e-05 -3.43828e-06 1.93801e-05 -4.31833e-06 
-3.54285e-06 -3.75635e-05 3.25982e-05 -3.02356e-05 -0.000103001 7.06171e-05 -7.76535e-05 -5.77257e-05 6.9422e-05 
-4.77326e-05 -1.18328e-05 5.77273e-05 -0.000154239 -8.59434e-06 -1.74028e-05 5.28732e-05 -7.05226e-05 8.32473e-05 
-6.30326e-06 5.89338e-05 -2.18389e-05 3.79393e-06 5.31432e-05 4.40271e-05 -2.77785e-05 -4.79368e-06 -3.50172e-05 
7.75431e-06 -5.53642e-05 -7.32906e-05 2.58712e-05 1.57064e-05 -3.62981e-05 4.31614e-05 7.52085e-05 -4.82049e-05 
4.10031e-05 6.15866e-05 -0.0001084 4.38193e-05 8.27131e-05 -0.000139235 8.24639e-05 8.72372e-05 -0.000153235 
0.000136319 0.000184533 -0.000128406 8.0049e-05 0.000245898 -0.000139773 3.11496e-05 0.000377089 -0.000197203 
2.87139e-05 0.000476214 -0.000232585 -0.000151918 0.000317971 -0.000196973 -9.13869e-05 0.000169871 -0.000216591 
-0.000708487 -0.000668144 0.00121822 0.00015761 0.000365087 4.30488e-05 0.00016204 -0.000171722 -0.000532812 
5.79333e-06 -5.80609e-05 -0.000112553 0.000163171 -2.16241e-05 -0.000137176 0.000281819 -7.02719e-06 -0.000134778 
0.000234807 -1.92947e-05 -0.000114895 0.000200131 -0.000138451 -7.73377e-05 0.000170331 -0.000112823 2.53883e-06 
0.000177882 -0.000101242 4.11265e-06 0.000182979 -5.19712e-06 -1.19131e-05 0.000133496 4.06239e-06 -4.67409e-05 
0.000103947 -5.32505e-05 -3.77581e-05 7.12799e-05 1.62727e-06 5.83679e-06 6.20354e-05 -2.67856e-05 -0.00010965 
8.81426e-05 -0.000130491 -0.000154558 0.000128862 -4.18192e-05 -9.43245e-05 0.000160722 -6.38892e-06 -5.10626e-05 
0.000225083 -8.78065e-05 -0.00014843 0.000183352 -0.000135132 1.129e-06 0.000174858 -0.000130345 3.67058e-05 
0.000168883 -0.000265494 1.80046e-05 0.000200682 -0.000115652 8.66244e-08 0.00104504 -8.95769e-05 -3.76186e-05 
8.35336e-05 0.000218576 -0.000128517 -3.25576e-05 0.00115968 0.000177982 -0.000382909 0.000290468 0.000122456 
-0.000790871 0.000970848 0.000204134 -0.000211733 -3.26086e-05 -0.00016377 6.71982e-05 -0.000103633 -0.00117965 
0.00040074 -0.000128403 0.000136064 -6.41651e-05 0.000858442 -0.000580986 -0.00010534 -0.000481481 0.000308359 
7.7201e-05 6.07789e-05 -0.000162066 6.27841e-06 -1.21786e-05 0.000236862 -0.000108003 -1.27391e-05 -0.000417991 
0.000286026 0.000252358 -3.69389e-05 -0.000128322 0.000201707 0.000241332 -2.96767e-05 0.000113572 4.73113e-05 
-2.20418e-06 0.000129591 -0.000221219 -0.000111373 0.000489279 -0.00108239 0.000237829 9.68328e-05 -6.50905e-05 
-4.67053e-05 5.93095e-05 -0.000154365 2.58713e-05 0.000167776 -0.000525118 3.93616e-05 -0.000401625 -0.000164989 
0.000489503 -0.000144238 -0.000567215 0.000268181 -1.74488e-05 0.000215007 5.64932e-05 4.07611e-06 -3.29843e-05 
-1.7501e-05 -2.16244e-05 -6.37269e-05 0.000113934 6.48235e-05 -9.70418e-05 1.60593e-05 9.63872e-05 7.82843e-05 
-0.000129112 0.00035439 7.67809e-06 6.32351e-06 0.00127624 -0.00026935 0.000328178 -0.000246988 0.000384237 
0.000375713 -0.000217958 0.000129411 -0.000892932 -2.67861e-05 1.23525e-05 0.000113739 0.000107092 -7.88895e-05 
6.99904e-05 0.00038156 0.000650023 -0.000546849 0.000121771 -0.000196778 5.55482e-05 0.000312407 -0.000366045 
-0.000187307 -3.96322e-05 -8.65227e-06 -8.71374e-05 -0.000234661 0.000304846 -0.000273015 -0.000253557 0.000216402 
0.000374393 -0.000285694 -0.000232621 3.34741e-05 0.0012292 -3.73374e-05 -0.00053062 -0.000267829 0.000253507 
0.00018159 -0.00019484 0.000801627 0.000578674 -0.000772024 5.18884e-05 -7.08605e-05 -0.00012579 0.000296035 
0.000177342 0.000156292 -0.000226329 -2.64819e-06 -0.000267951 -0.000389744 -0.00010049 0.000107925 -8.48293e-05 
-6.55346e-05 7.67871e-05 -2.86648e-05 0.000425599 -0.000154339 0.00021801 -0.000452521 0.000213657 -1.07415e-05 
2.259e-05 -3.59407e-05 2.60267e-05 -1.48513e-05 -2.45922e-05 6.50469e-05 3.48783e-05 -3.87888e-05 3.46857e-05 
1.11473e-06 6.49189e-06 1.02059e-05 4.26891e-06 3.4113e-05 -0.0583887 -0.00787165 1.51137e-05 3.86314e-05 
-1.74342e-05 3.30116e-05 2.42984e-05 -2.04284e-05 7.77302e-05 -4.14394e-06 -7.92217e-05 4.33656e-05 -3.21702e-05 
-3.08005e-05 3.93701e-06 -0.0177959 -0.00444693 5.30639e-05 -1.44255e-05 -1.80617e-05 7.52838e-05 -1.84131e-05 
-4.38732e-05 3.5853e-05 -2.80316e-05 -1.29696e-05 1.98178e-05 -1.35332e-05 1.45154e-05 1.54484e-05 -3.29286e-05 
2.22849e-05 7.88202e-06 -1.7218e-05 -3.19807e-05 2.0965e-06 -2.44779e-05 2.46775e-05 3.67466e-06 -1.473e-05 
3.19461e-05 3.80384e-06 -1.9318e-05 -3.92121e-06 1.43363e-05 5.78375e-05 0.000150664 0.000566298 0.000202227 
7.07603e-05 0.000449248 -0.000111222 -4.48059e-05 0.000134011 -4.71912e-05 -0.000222313 0.000149467 3.21079e-05 
-0.000154944 0.000126621 1.07028e-05 -5.85901e-05 0.000155874 8.52691e-06 -1.98651e-05 8.557e-05 4.80942e-05 
-4.14698e-05 4.37741e-05 7.60636e-05 -5.25023e-05 2.57297e-05 2.63037e-05 -9.17678e-06 1.27324e-05 4.8173e-06 
-3.51539e-05 1.50935e-05 -3.87935e-05 -4.31216e-05 -5.47566e-05 -4.25837e-05 8.86656e-06 4.18426e-05 -7.62549e-05 
-4.3623e-05 -6.46678e-05 7.02029e-06 -9.12576e-05 8.29913e-06 0.00011202 -3.04458e-05 -1.00856e-05 2.47548e-05 
-6.77341e-07 -6.03161e-05 1.71313e-05 1.5975e-05 -9.36419e-05 5.7044e-05 1.62886e-05 -8.68988e-05 0.0001169 
8.50228e-06 -6.53952e-05 0.000147026 -1.11625e-05 -3.36129e-05 0.000104559 -2.23239e-05 -3.30807e-05 4.45957e-05 
-1.44684e-05 -7.67767e-06 -9.61929e-06 1.309e-05 5.02902e-06 1.04336e-05 2.0158e-05 1.22576e-05 -2.55588e-05 
7.00174e-06 9.44693e-06 -0.00070882 0.000469124 -0.000185679 -1.03554e-05 6.67745e-06 -2.56602e-05 3.71612e-06 
1.10469e-05 -1.91058e-05 8.13133e-06 1.48983e-05 -2.27581e-05 1.9517e-05 1.69171e-05 -2.43666e-05 1.66345e-05 
1.44551e-05 -3.08083e-05 1.09804e-05 1.78363e-05 -3.90161e-05 6.83076e-06 4.80094e-05 -2.67427e-05 -7.15077e-06 
9.47076e-06 3.49549e-06 -1.84743e-05 -2.67484e-05 2.10037e-07 -5.43749e-05 7.839e-05 -2.34631e-05 -6.29139e-05 
0.000133915 -3.68352e-05 -6.27936e-06 0.000100291 8.08182e-06 6.06565e-06 -5.12472e-05 0.000164863 -0.000109385 
-6.90061e-05 -5.46367e-05 2.97957e-05 4.72559e-05 -3.3205e-05 6.74813e-05 4.99731e-05 4.90833e-05 -4.9244e-06 
-2.56953e-06 1.63954e-05 -2.55526e-05 5.61375e-06 2.14743e-07 7.78747e-05 -7.00946e-06 -1.36037e-05 8.91719e-05 
-2.24778e-05 4.56478e-05 7.31352e-05 -5.16157e-05 6.25555e-05 3.06123e-05 -5.0204e-05 6.56612e-05 5.90588e-05 
-5.92111e-05 7.144e-05 0.000155849 -3.93352e-05 4.89147e-05 0.000248783 -0.000111906 -1.74467e-05 0.000373568 
-0.000126785 -5.82548e-05 0.000223011 -0.000151931 -5.30286e-05 6.68626e-06 -5.47132e-05 -4.9709e-05 -8.79013e-05 
-0.000664391 3.89007e-05 -0.000406351 0.000296161 0.000282597 -5.42341e-06 -0.000208167 -4.55819e-05 -0.000203357 
0.00021779 -0.000166576 -0.000143507 0.000180668 -0.000184474 -4.80195e-05 0.000274281 -0.000224478 -3.05151e-05 
0.000305412 -0.000177508 6.90101e-06 0.000226367 -8.27176e-05 -7.38925e-05 0.000152438 -5.08216e-05 -9.15294e-05 
0.000117373 -8.23466e-05 -5.49571e-05 6.99001e-05 -8.47526e-05 -4.20783e-05 6.49988e-05 -6.59833e-05 -0.000135105 
9.3779e-05 -2.06333e-05 -0.000205576 0.000147765 -2.13277e-05 -0.000234224 0.000196009 -3.30493e-05 -0.000195072 
0.000344903 -0.000143659 -0.000169379 0.000315341 -0.000197451 -0.000148447 0.000279702 -0.000179177 -8.75429e-05 
0.000152092 -7.07471e-05 2.42164e-05 -4.12913e-06 3.42817e-05 -1.485e-05 -3.20418e-05 8.28443e-05 -0.000237782 
0.000124339 3.20571e-05 -6.55126e-05 -0.000115385 7.75124e-05 0.000210978 -2.38455e-05 -3.63025e-05 6.18974e-05 
3.37765e-05 -7.22536e-05 0.000398513 0.000836077 -0.00052558 -0.000352404 -0.000191219 -6.78963e-05 -3.00715e-05 
-0.00026151 0.000135236 3.18368e-05 0.000166875 -1.85202e-05 -4.13271e-05 2.76636e-05 0.000174927 -0.000258262 
0.000162888 4.35165e-05 5.57872e-05 0.000572561 -0.000242503 0.000147473 3.27893e-05 0.000178804 8.84183e-05 
-0.000223409 4.84865e-06 0.000530486 -0.000320381 0.000213646 -0.000213263 -0.000134495 8.39236e-06 -7.35697e-07 
2.02388e-05 5.47173e-05 -9.26098e-05 -8.46468e-05 5.07201e-05 -0.00028909 -7.44902e-05 -0.00030793 -2.70895e-05 
-4.93104e-05 8.12099e-05 -6.99899e-05 -2.51867e-05 6.47399e-05 6.27492e-05 -0.000221603 0.000880169 -3.92793e-05 
1.39442e-06 0.000589653 -0.00027758 -0.000214236 6.07571e-05 0.000129783 0.000201601 2.08221e-06 0.000182348 
-0.000193376 0.000684677 -0.000640256 6.2947e-05 -0.000154596 0.000232571 1.25012e-05 0.00036396 8.13179e-05 
4.57156e-05 -8.48297e-05 0.000608019 -0.000178916 -0.000352249 -0.00036447 -0.000248153 0.000322313 -0.000483781 
0.000104831 -0.000157895 0.000104369 7.94272e-05 7.40545e-06 -4.98795e-05 -6.81771e-05 -2.1681e-05 4.74746e-05 
-0.000185889 0.000241511 0.000141031 -1.87424e-05 -0.000208321 8.95562e-06 7.77202e-05 -9.89151e-05 -0.000157124 
3.12608e-05 0.000173219 -7.57948e-06 -0.000438445 -5.77854e-05 0.000243566 0.000163403 -3.07187e-05 1.06816e-05 
-0.000232134 -1.54171e-05 -0.000860346 -7.68789e-05 0.000670744 -2.9875e-05 2.27637e-05 -9.15675e-05 1.15119e-05 
3.67193e-05 -5.57787e-05 -3.44484e-06 -2.54362e-05 -0.00948032 -0.00443357 -4.8119e-05 -6.41612e-05 4.45806e-05 
-5.50812e-05 -6.39036e-05 4.52743e-05 -0.00792596 -0.00726969 1.80149e-05 -0.000101412 -2.2895e-05 0.000146759 
-2.38036e-06 -9.58477e-05 -0.00769464 -0.00583288 -0.0058963 -0.00574407 -3.88737e-05 -0.00723109 -0.00727405 
0.000184522 -6.43936e-05 -1.27636e-05 7.72005e-05 -6.1509e-05 -5.88765e-05 2.91044e-05 -1.30156e-05 -3.58199e-05 
-8.46315e-05 -0.00483945 -0.0340195 4.22331e-05 5.33404e-07 5.54763e-06 -4.15722e-05 -0.0297424 -0.0779973 
2.15634e-05 -1.70877e-05 4.94436e-07 1.76968e-05 -3.34939e-05 -3.34637e-05 7.49174e-05 6.80884e-05 0.00011027 
8.671e-06 -9.47864e-05 0.000107828 -5.65696e-05 5.26055e-05 -5.8585e-05 -8.15112e-06 4.261e-05 -2.37334e-05 
4.12194e-05 -4.26573e-05 8.68252e-06 0.000133514 4.7429e-05 -5.02744e-06 1.70975e-05 -0.000143416 3.91795e-05 
-5.42113e-05 -8.12344e-05 -1.45428e-05 -0.000161584 8.22959e-05 4.08096e-05 -0.000130587 8.77225e-05 8.43435e-06 
-0.000142351 0.000103164 -1.84972e-05 -8.75682e-05 0.00020283 -5.40885e-05 -3.10515e-05 0.000125421 -2.31344e-05 
5.09237e-06 -4.60692e-07 -4.46896e-06 7.20514e-05 0.000117426 -0.00024463 -2.94696e-06 -0.000180051 -2.14098e-05 
8.27459e-07 -3.40445e-05 4.33211e-06 1.14208e-05 -3.57022e-05 -6.17909e-07 4.76459e-05 -6.91155e-05 -1.02944e-05 
7.65759e-05 -7.70299e-05 -1.21862e-05 0.000103623 -3.93332e-06 -3.13539e-05 -9.64963e-05 -0.000144679 0.000471915 
-0.000346783 4.89216e-05 -5.76217e-06 -0.000420208 0.000109151 0.00029026 0.000421528 -2.36391e-05 2.97196e-05 
7.34803e-05 -5.76251e-05 1.92912e-06 8.67627e-05 1.2826e-05 3.6642e-05 4.621e-05 1.84103e-05 9.25519e-05 
-9.96896e-05 -2.85437e-05 2.98539e-05 -4.82183e-06 3.34541e-05 3.71042e-05 1.21859e-05 1.52974e-05 5.81718e-05 
-7.33717e-07 0.000133813 -1.46292e-05 -4.31998e-05 0.000218916 -5.76967e-06 -7.61051e-05 0.000251003 -7.2705e-05 
3.46024e-05 7.94068e-05 -4.22702e-05 -0.00024622 -4.89035e-05 -0.000220544 0.000195154 -0.000175963 -0.000166517 
0.000189526 -0.000264734 -3.68835e-05 0.000371916 -0.000258993 -4.74612e-05 0.000237409 -0.000176234 -5.90816e-05 
0.000166094 -7.64716e-05 -8.26179e-05 8.97736e-05 -8.2989e-05 -2.02182e-05 0.000134172 -8.29124e-05 -2.17038e-05 
9.29984e-05 -8.73306e-05 -8.35064e-05 6.83959e-05 -0.00010472 -0.000258383 0.000125711 -7.9551e-06 -0.000289219 
6.63676e-05 -2.96544e-05 -0.00029155 0.000240194 -8.76277e-06 -0.000107558 0.00024385 -8.40583e-05 -0.000166259 
0.000254985 0.000178996 0.000113651 0.000460074 -0.000145891 -0.000163834 -1.39554e-05 -0.000169365 3.91975e-05 
5.79555e-07 9.9111e-05 0.000199695 -0.000161001 -4.5414e-05 -1.4791e-05 1.76173e-05 -1.59625e-05 -1.45361e-05 
-1.28452e-05 2.90495e-05 -7.45989e-05 7.05272e-05 1.63497e-05 6.92619e-06 -0.000257466 -0.000133257 -9.13926e-05 
-7.82737e-06 -3.32247e-05 -0.000313436 0.00057494 -1.59451e-05 -9.72946e-06 -1.39374e-05 1.01689e-05 1.45619e-05 
0.000279397 -0.00026209 9.76549e-05 -3.45144e-05 8.06595e-05 -0.000532359 2.24062e-05 2.24453e-05 4.20567e-05 
-1.85214e-05 2.74004e-05 0.000189366 0.000164511 0.000389359 -0.000422047 -0.000113722 -5.64505e-05 0.000204833 
1.58855e-05 -1.32325e-06 5.91051e-05 -4.81028e-05 0.000244041 -0.000101627 8.52922e-05 -3.41568e-05 -5.87704e-05 
0.000106135 -0.000114196 -7.50186e-05 0.000103484 3.23326e-05 -0.000127456 -8.83056e-05 -0.000112451 8.70837e-05 
0.000120686 -8.92485e-05 2.39808e-05 -8.06245e-05 0.000181776 -9.60508e-05 4.36933e-05 0.000138551 2.83258e-05 
5.55626e-05 -8.51911e-05 8.06604e-05 0.000106993 -5.81855e-05 0.000302016 0.00039637 -0.000182957 -0.000156974 
-0.000170401 -0.000105689 0.000267551 -0.000269207 -0.000192638 -0.000563244 0.000215441 -1.23267e-05 1.03343e-05 
-2.58781e-05 0.000443937 1.6883e-06 -5.74813e-05 -0.000143475 -4.23969e-05 0.000310935 -0.000159567 -5.36633e-05 
-3.25025e-05 -1.32262e-05 3.8894e-05 -0.00012432 0.000143441 -7.60477e-05 4.96152e-05 -2.60796e-05 -7.85704e-05 
-4.62229e-05 -0.000161433 2.23036e-05 -0.000143914 0.000323661 -2.20901e-05 -4.68655e-06 -2.12214e-05 -7.09598e-05 
0.000398948 -1.31002e-05 -1.99625e-05 -0.0347502 -0.00780269 -0.00013916 -6.64584e-05 1.68581e-05 -4.2904e-05 
1.187e-05 -0.000131852 -1.56258e-05 0.000175361 2.22967e-05 2.99958e-05 -0.000179465 2.04105e-05 -1.2714e-05 
9.79759e-05 -7.50001e-05 0.000260373 -0.000122003 -2.50454e-05 1.3485e-05 -0.00016026 -6.3945e-05 1.97377e-06 
9.36469e-05 -0.000100773 6.8971e-06 0.00028776 -8.24712e-05 -4.24202e-05 -0.000168584 0.000155186 -3.0774e-05 
-0.000152548 1.5942e-06 -3.46991e-05 -4.70067e-05 -0.000206486 -0.000104864 0.000272352 1.4256e-05 -0.000113789 
2.80593e-05 -0.000286883 -1.70815e-05 3.77175e-05 -0.000239893 0.000268579 -0.000185549 5.99752e-05 -2.90076e-06 
0.000105191 5.32402e-05 -1.69593e-05 2.57231e-05 3.61486e-05 -9.22882e-05 -2.52135e-05 -0.000111978 8.39567e-05 
-4.02418e-05 -1.234e-05 7.25656e-05 -4.61167e-05 0.000260006 5.4902e-05 3.73494e-05 -4.73502e-05 -5.38275e-05 
-5.63049e-05 0.000123446 1.90264e-05 -2.57046e-06 -5.38663e-05 -0.000174035 3.99441e-05 5.28283e-05 4.87295e-05 
0.000411683 -7.64018e-05 -0.000223455 -4.42811e-05 -1.13375e-05 -0.000238293 1.14888e-05 -1.5398e-05 -0.000213396 
0.000134613 -0.00016715 -7.09737e-05 0.000134371 -0.000307775 2.9009e-05 -2.71269e-05 -0.000154085 3.84213e-05 
-0.00012573 -9.9812e-05 0.000298134 0.000184252 -0.000197446 0.000100431 0.000272687 1.90556e-05 -4.1417e-05 
-5.45189e-05 6.25184e-05 -0.000525939 5.30518e-05 0.000153024 -0.00022298 8.70435e-06 -0.000140639 6.07449e-05 
-4.77317e-05 -0.000250357 1.10422e-05 -7.63733e-05 -0.000214119 -8.7896e-05 4.70035e-05 6.85105e-06 -8.96418e-05 
-0.00038961 -2.50826e-05 3.17027e-05 -5.28241e-05 -0.000189758 -0.000124371 7.75581e-05 0.00015553 0.000246929 
-8.30213e-05 -4.74025e-05 -6.45059e-06 -1.00814e-05 -2.09295e-05 4.34378e-05 -1.5752e-05 -2.74229e-05 3.83233e-05 
-1.75435e-05 -2.12235e-05 5.19546e-05 1.21613e-05 -1.45597e-05 2.54014e-05 1.94316e-05 -1.70118e-05 3.96547e-06 
1.91159e-05 -1.36227e-05 -1.47959e-05 3.02775e-05 2.38114e-05 -4.48409e-05 2.23009e-05 1.99257e-05 -9.00465e-05 
1.88043e-05 6.80734e-06 -5.51588e-05 6.61057e-05 7.07479e-05 -0.000108989 8.36469e-06 1.64375e-05 -0.00011639 
1.55201e-05 2.33498e-05 -5.34281e-05 2.02945e-05 2.97283e-05 -8.3091e-05 -6.31836e-06 1.96098e-05 -4.35359e-05 
-1.11984e-05 1.38335e-05 -1.04452e-05 -9.22853e-06 8.29545e-06 8.9826e-07 -1.70268e-05 -1.92186e-05 1.6708e-05 
-1.62094e-05 -3.47457e-06 5.2427e-05 -2.11439e-05 -6.26735e-06 3.48909e-05 -3.9631e-05 -2.51853e-05 5.4249e-05 
7.24012e-06 -3.14701e-05 5.86324e-05 -2.73469e-05 0.00154625 0.00435784 -0.00802816 -0.000172662 0.000553783 
-0.0022207 0.000124732 0.000797008 -0.000786101 8.62556e-05 0.000464722 -0.00090405 2.73922e-05 0.000140335 
-0.000515513 4.51778e-05 5.87249e-05 -0.000175734 3.87849e-05 5.26111e-05 -0.000252368 0.00015083 0.000106929 
-0.000256887 4.38845e-05 4.14714e-05 -0.00018545 3.28263e-05 3.29656e-05 -0.000137894 1.93216e-05 2.00627e-05 
-0.000168644 0.000103741 2.03591e-05 -0.000151477 4.69747e-05 3.12076e-05 -5.44511e-05 3.95039e-06 3.19794e-05 
-6.17723e-07 -6.07599e-05 1.62585e-05 7.633e-05 -9.29055e-05 -2.04412e-05 5.04888e-05 -0.000208666 -0.000216334 
0.000199815 -1.64114e-06 -9.2192e-05 0.000318352 2.19214e-05 -0.000110735 0.000148163 1.60891e-05 -8.18025e-05 
6.16345e-05 3.37457e-05 -5.07745e-06 3.50228e-05 2.27135e-05 2.30378e-05 -1.57146e-05 3.16804e-05 1.83972e-05 
-7.82358e-05 3.73719e-05 4.23682e-05 -7.53309e-05 8.09168e-05 0.000111282 -0.000121299 2.11859e-05 3.95943e-05 
-0.000109855 8.10649e-06 2.96249e-05 -8.57242e-05 5.49095e-06 2.19963e-05 -4.78298e-05 1.25253e-05 2.56796e-05 
-5.51948e-05 1.0784e-05 2.55584e-05 -3.23829e-05 -8.0471e-06 -2.04751e-06 1.08524e-05 -1.44003e-05 -5.76362e-06 
3.73399e-05 -2.80125e-05 -9.60738e-06 5.83914e-05 -2.44687e-05 -8.10294e-06 7.5803e-05 -7.87053e-05 -6.64391e-05 
6.86381e-05 0.00498298 -2.63223e-05 -1.8785e-05 -2.03628e-05 -2.07737e-05 4.58988e-05 -1.11751e-05 -1.61066e-05 
3.5606e-05 -5.66182e-06 -1.42214e-05 4.6972e-05 -5.27346e-06 -1.63481e-05 3.82661e-05 8.21265e-06 4.92215e-08 
-7.67317e-07 1.57162e-05 5.17481e-07 -2.38651e-05 1.70154e-05 1.26517e-06 -3.77289e-05 2.5032e-05 5.07415e-05 
-5.88003e-05 6.01387e-05 5.91349e-05 -7.27626e-05 3.11129e-05 1.19438e-05 -7.35706e-05 3.67749e-05 1.82505e-05 
-7.39105e-05 -1.01194e-05 4.91414e-05 -9.99042e-05 1.26306e-05 4.49729e-05 -9.01349e-05 -2.06838e-06 2.65056e-05 
-1.03876e-05 -3.03883e-05 1.31396e-05 3.49177e-05 -5.56176e-05 -4.78084e-06 8.63704e-05 -0.000128617 -0.000116452 
0.000138277 -5.68696e-05 -6.14253e-05 0.000202668 -1.20269e-05 -5.77702e-05 0.000171157 -2.12864e-05 -7.20736e-05 
0.000101291 2.65109e-06 -7.72009e-05 0.000103747 1.27234e-05 -2.71033e-05 -3.93686e-05 3.7743e-05 -6.26528e-06 
-7.69899e-05 4.21811e-05 0.000100653 -9.14651e-05 2.4594e-05 6.42723e-06 -0.000105195 3.77165e-05 1.15981e-05 
-0.000134718 4.68559e-05 0.000159833 -0.000163883 9.71156e-05 0.000146689 -0.000208553 8.09381e-05 -6.62779e-06 
-0.000225294 0.000117713 2.13357e-05 -0.000317589 0.000475242 0.000357921 -0.000502481 0.000614999 0.00022169 
-0.000806988 0.00149329 0.000231552 -0.0014144 -0.00344496 0.000649252 -0.00225298 -0.0154061 0.0102284 
-0.00231031 0.00614571 0.0162146 -0.011498 0.00717724 0.00862762 -0.00783786 0.00566222 0.00627587 
-0.0101105 0.00843118 0.00837542 -0.00976325 0.00804195 0.0143857 -0.0064344 0.00714925 0.00781935 
-0.00833211 0.00779364 0.00413616 -0.00741416 0.00866918 0.00631591 -0.00940446 0.0092567 0.0158083 
-0.00821355 0.00655885 0.00648803 -0.00654228 0.00818321 0.00692283 -0.00886843 0.0110915 0.00901882 
-0.0102208 0.00556536 0.00392711 -0.00811416 0.00417775 0.00189509 -0.00801917 0.00504874 0.00685974 
-0.00615636 0.00722419 0.00632162 -0.00859799 0.0121409 0.00648877 -0.00913842 0.00400849 0.00503069 
-0.00933072 0.00966886 0.00931442 -0.00702117 0.0103836 0.00821782 -0.0104191 0.010934 0.00378188 
-0.0119804 -0.00193699 0.0115983 0.00629598 0.00872172 -0.00352708 0.00769128 0.00302939 -0.00489669 
0.00910525 0.00938034 -0.019991 0.00750501 0.00675135 -0.00381584 0.00716372 0.0072523 -0.00328008 
0.00736422 0.00470862 -0.00343395 0.00831831 0.00982956 -0.0224923 0.00580352 0.0182143 -0.0265328 
0.000921062 0.00963148 -0.00567309 8.77609e-06 0.0194972 -0.0107705 0.0105545 0.0130981 0.0178246 
0.01757 -0.0551571 0.0125545 0.00607788 -0.033986 0.00850245 0.00396418 -0.00504112 0.00697362 
0.00471203 -0.00481445 0.00638704 0.0053793 -0.00391785 0.00500785 0.00510955 -0.0022394 0.00748347 
0.0100351 -0.00246753 0.00916884 0.00672474 -0.0217214 0.0066473 0.0063243 -0.0236199 0.011535 
-0.00472055 -0.018311 -0.00245138 0.0108817 0.00475294 0.00769524 -0.019589 0.00480874 0.00491398 
-0.00147865 0.00475686 0.00275596 -0.000523111 0.00341128 0.00232948 -0.00210099 0.00276637 0.00115904 
-0.00278955 0.00227432 0.00308891 -0.00342498 0.000687175 0.00477214 -0.0034632 0.00567163 0.0196778 
-0.00547266 0.0179109 -0.0067412 -0.0508546 0.016343 0.0168507 0.021171 0.0167241 -0.0502796 
0.0138472 0.00910916 -0.0367301 0.0117347 0.00367231 -0.0292861 0.00290294 0.00578365 -0.0256874 
0.0016028 0.00537283 -0.0223759 0.00577864 0.00845001 -0.00261348 0.00558365 0.00905903 -0.0232098 
0.00605178 0.00615247 -0.0219898 0.000280748 0.00287546 -0.00127165 0.00488614 -0.00435368 -0.00141685 
-4.17048e-06 5.95268e-06 -2.99175e-05 0.0142399 0.00227498 -0.010453 0.0430319 -0.00133575 0.000545174 
0.0096099 -0.00149551 0.000485362 -0.0699089 -0.000784916 0.0028817 -0.0580245 0.0360879 0.00235737 
-0.0172252 -0.0140828 5.98803e-05 -0.00820015 -1.27067e-06 -4.53398e-05 1.03629e-05 -2.28706e-05 -2.41157e-05 
2.14032e-05 -1.26101e-05 -3.4727e-05 3.60972e-05 -2.93332e-05 1.90004e-06 3.11741e-05 -3.25381e-05 6.20037e-05 
2.80863e-05 -2.32331e-05 5.39156e-05 1.18005e-05 3.13628e-05 -6.6144e-07 -8.7548e-05 7.13595e-05 6.71101e-05 
-9.64217e-05 6.31282e-05 2.91435e-05 -9.47296e-05 -3.63194e-06 2.92781e-05 -8.32489e-05 1.03714e-05 4.75236e-05 
-7.91629e-05 2.22882e-05 6.04197e-05 -6.17069e-05 -9.7115e-06 2.90112e-05 -1.78019e-05 -1.91116e-05 1.86527e-05 
8.68284e-06 -3.47574e-05 -1.67239e-05 2.55802e-06 -1.96595e-05 -6.1377e-06 3.21013e-05 -2.18769e-05 4.17136e-06 
2.29585e-05 -1.0897e-05 -2.89872e-05 3.10993e-05 0.000837269 -0.00193013 0.000255516 0.000915364 -0.000357557 
0.000827985 -0.00075627 0.000159415 -7.30708e-05 -9.00975e-06 0.000213944 0.000285657 -0.000437236 1.56107e-05 
0.000143408 -0.000386669 7.02271e-05 0.000158814 -0.000235652 7.5379e-05 0.000222979 -0.000271905 0.000164867 
0.00015349 -0.000224637 0.000120442 4.13215e-05 -0.000153847 5.58921e-05 3.8491e-05 -0.000105155 5.87195e-05 
6.64826e-05 -0.000125991 6.11311e-05 3.35857e-05 -7.51858e-05 2.55312e-05 -1.24214e-05 -4.04983e-07 -1.61048e-05 
-9.24927e-06 2.13462e-05 -7.4776e-05 6.59378e-06 -9.01995e-05 -0.000165476 -3.84323e-05 2.63321e-06 -1.49899e-05 
-7.42713e-05 0.000115099 0.000121241 -0.000184494 0.000135575 9.71777e-05 -0.000180679 2.60229e-05 1.02294e-05 
2.05249e-05 1.64368e-05 3.77569e-05 1.61954e-05 -2.5113e-06 3.47362e-05 3.19254e-05 -5.58621e-05 1.56026e-05 
6.25546e-05 -5.70075e-05 1.09036e-05 0.000105323 -6.75539e-05 5.49144e-05 9.77202e-05 -7.65033e-05 3.84576e-05 
3.71463e-05 -6.18566e-05 -5.26525e-06 3.12721e-05 -4.4666e-05 8.1105e-07 3.26457e-05 -1.58064e-05 1.88073e-06 
3.45794e-05 -3.08922e-05 -2.04497e-05 1.4395e-05 -1.19907e-05 -3.6083e-05 -6.21035e-06 2.57749e-05 -5.04239e-05 
-1.27448e-05 3.6669e-05 -4.6869e-05 -9.33909e-06 5.56578e-05 -1.91374e-05 -2.28258e-05 6.06546e-05 6.43832e-05 
-0.00213198 -5.87419e-06 -2.91041e-05 -3.26343e-05 -2.02618e-05 -1.22072e-05 1.67264e-05 -2.1295e-05 1.33274e-05 
-3.45432e-06 9.47566e-06 -2.37146e-06 -3.9743e-05 4.14443e-05 1.48077e-05 -2.12107e-05 3.42435e-05 3.09865e-05 
-2.83389e-06 -1.06195e-05 3.31069e-05 2.02444e-07 -3.1815e-05 2.08479e-05 2.07599e-05 -3.78779e-05 2.68175e-05 
4.58771e-05 -4.00905e-05 6.87559e-05 3.99499e-05 -5.31863e-05 5.78252e-05 1.63744e-05 -6.12536e-05 2.84149e-05 
2.13368e-05 -4.77121e-05 2.41608e-05 4.37756e-05 -5.76637e-05 -2.47922e-06 3.17591e-05 -4.02014e-05 -4.67822e-05 
6.62258e-06 8.59378e-06 -6.2071e-05 8.17293e-06 4.73976e-05 -4.80121e-05 -4.11543e-05 -5.47778e-07 -0.000138674 
-9.54192e-05 9.86577e-05 -9.89418e-05 -6.45242e-05 0.000141935 2.48496e-05 -6.79776e-05 9.29045e-05 7.35524e-07 
-5.00412e-05 7.86805e-05 3.79011e-05 -4.78135e-05 3.53932e-05 3.11672e-05 1.01124e-05 -7.46713e-05 1.74598e-06 
6.88206e-05 -9.30379e-05 8.63079e-05 9.03115e-05 -9.54575e-05 0.000102922 4.94863e-05 -0.00014426 2.48302e-05 
0.000133251 -0.000152238 5.15015e-05 0.000190224 -0.000185015 0.000284585 0.000151935 -0.000178893 0.000310892 
6.28477e-05 -0.000379582 0.000227588 0.00031721 -0.000371775 0.00123121 0.000354958 -0.000371608 0.00193197 
9.48103e-06 -0.000942189 0.0027615 -0.000609824 -0.00113642 0.000852094 -0.00149938 -0.00219928 -0.00499334 
-0.00262215 -0.00220437 -0.00171572 -0.00125285 0.00131315 -0.00322485 -0.00453621 -0.00144363 -0.00334569 
0.000685331 -0.00334517 -0.00282565 0.000765624 -0.00255068 -0.00167671 0.00105788 -0.00216136 -0.00114077 
0.000386238 -0.00148091 -0.00259412 0.000622661 -0.00285344 -0.00285148 0.000859141 -0.00251331 -0.00115625 
0.00160265 -0.00247753 -0.00168683 0.000737962 -0.00236596 -0.00259884 0.000397632 -0.000944915 -0.00283676 
0.000643756 -0.00213559 -0.00291594 0.00079302 -0.0026069 -0.000738517 0.000753747 -0.00197112 -0.00201794 
0.00059649 -0.00209814 -0.00205022 0.000404341 -0.00097127 -0.00266906 0.00077574 -0.00338151 -0.00291858 
0.000987609 -0.00389937 -0.00235775 0.00072077 -0.00399917 -0.00356349 0.000646592 0.0013517 -0.000439832 
-0.000819511 -2.93084e-05 -0.000479406 -0.000670115 0.00323193 -0.00326336 -0.00191664 -0.000404431 -0.000608929 
-0.00387542 -0.00441489 -0.000198139 -0.00450206 -0.00176972 0.00095411 -0.0021909 -0.00169533 0.00194593 
-0.00190436 -0.000196226 0.00161567 -0.00257625 -0.00426179 0.000500847 -0.00308126 -0.00312777 -0.000275319 
0.000220168 -0.00137541 0.000388386 -0.000702585 -0.000612937 -0.00128079 0.000411356 -0.00646351 -0.00222867 
0.000108488 -0.000276025 -5.03027e-05 -0.00128833 -0.000519509 0.000247001 -0.00173511 -0.00133804 0.000153017 
-0.00111455 -0.00171426 0.00164204 -0.000598438 -0.00407521 0.00222194 -0.00358947 -0.00643722 0.00145908 
-0.00209659 -0.0052349 -0.000511454 -0.00382355 0.000520937 0.00029 -0.00223033 -0.000784513 -0.00327944 
-0.00480911 0.000828904 -0.0026175 -0.000655992 0.00217357 -0.00139499 -0.000880476 0.00246299 -0.000806244 
-0.000648156 0.000333769 -0.000861924 -0.000805593 8.26049e-05 -0.000462736 -0.000932075 8.54992e-05 0.000769341 
-0.00249776 0.000173882 -0.00299565 -0.0079474 -0.000538889 -0.000209444 -0.00187279 -0.000127042 -0.00569281 
-0.00517687 -0.00287875 -0.00472077 -0.00127773 -0.00235904 -0.00480468 -0.000929669 -0.00343039 -0.00202289 
-0.000467709 0.000707185 -0.00322817 0.000770933 -0.00376855 -0.0057855 0.00121514 -0.00242965 -0.00790843 
0.000695373 -0.00412641 0.00363333 -0.000143081 0.00122659 0.0010478 -0.00126721 -9.52023e-06 -2.48497e-05 
2.71921e-05 -0.00856444 -0.00796561 -0.00178771 -0.00170715 -0.00351765 -0.000825884 -0.0121307 -0.00394377 
-0.00113539 -5.01511e-06 -6.99751e-05 -4.92519e-05 3.12161e-05 -0.000226243 0.00118655 -0.000912748 0.0024819 
0.000323677 0.00233833 -0.00818231 0.000574259 -5.70083e-05 0.000439975 0.000163805 3.85042e-05 -0.00125614 
-0.00689103 0.00831759 -0.00164791 9.00934e-05 0.0024086 -0.0117357 -0.000334254 1.16868e-05 -0.000496746 
0.000160289 0.000133498 1.01756e-05 -3.11951e-05 0.00107814 -0.00118266 2.7843e-05 -2.21178e-07 2.43627e-05 
4.55827e-05 5.36404e-05 1.95961e-06 -7.62003e-05 3.78911e-05 2.81508e-05 -4.04854e-06 4.51032e-05 -5.12299e-05 
-2.28748e-06 6.67713e-05 -8.0361e-05 -5.20571e-06 2.33099e-05 -1.58418e-05 -5.89499e-06 1.80332e-05 6.41169e-06 
-1.33516e-05 6.2278e-06 -1.41773e-05 -1.3698e-05 6.2133e-06 4.607e-06 -2.22489e-05 9.99047e-06 3.51201e-05 
-1.70438e-05 4.75551e-06 1.14667e-05 -0.000225355 0.000824575 -0.000220549 0.000875631 1.53009e-05 -2.08731e-05 
1.38925e-06 8.08738e-05 0.000718312 -0.000415684 -0.000381502 -0.000584552 -0.000111148 -0.000101582 0.000107156 
0.000147414 5.74083e-05 0.00016584 -0.000217258 5.68922e-05 0.000186601 -0.000214279 0.000128714 0.000107346 
-0.000143086 8.10362e-05 2.46961e-05 -0.000128088 3.53498e-05 4.08793e-05 -0.000134807 3.38827e-05 3.26927e-05 
-8.63185e-05 1.59451e-05 -4.33818e-06 1.00916e-07 1.82503e-05 -9.25443e-06 6.26896e-05 -3.32282e-05 6.16887e-05 
2.62586e-05 -0.000107185 0.000117437 0.000108095 9.95328e-05 0.000190726 -0.000269012 1.62274e-05 2.18189e-06 
6.73699e-05 -1.14233e-05 9.96072e-06 7.81936e-05 -1.50632e-05 4.33132e-06 5.8844e-05 -9.45172e-06 1.27899e-05 
5.41074e-05 -2.05349e-06 2.42259e-05 4.43246e-05 -1.32096e-06 4.94161e-05 -3.23137e-07 1.37406e-05 4.63982e-05 
-2.69934e-05 3.21481e-06 2.44115e-05 -1.62569e-05 -1.26521e-05 2.65876e-05 1.91351e-05 -7.73135e-06 2.13089e-05 
-5.63649e-06 -9.56974e-06 1.48056e-05 -1.00811e-06 -2.15066e-05 5.69012e-06 1.44481e-06 -2.90822e-05 -3.92775e-06 
3.36515e-05 -4.41613e-05 -5.50431e-06 2.01735e-05 -0.000103091 -0.000217835 6.65758e-06 -0.000703124 7.13583e-05 
1.26783e-06 -2.29158e-05 -7.33118e-05 5.97826e-06 -2.97861e-05 1.87908e-05 -2.14907e-05 3.21266e-05 0.000167978 
0.000211644 -0.000238859 -0.000268548 1.43334e-06 -2.24946e-05 -9.9952e-06 0.00031363 -0.000463707 -0.000463211 
3.09226e-05 -1.01651e-05 -1.16566e-05 3.44129e-05 -9.10112e-06 -2.2123e-05 2.22633e-05 8.11236e-07 -2.15103e-05 
2.05834e-05 1.45493e-05 -1.42404e-05 3.88824e-05 1.2318e-05 -1.8407e-05 2.92801e-05 5.07657e-06 -2.47332e-05 
1.24982e-05 -3.72241e-06 -2.35466e-06 9.74775e-06 1.17225e-05 -1.19958e-05 -1.79285e-05 7.376e-06 -7.44631e-06 
-3.02623e-05 2.41194e-05 3.10248e-05 -5.26625e-05 7.80237e-05 1.13682e-05 -3.34108e-05 -1.03246e-06 -5.06733e-05 
-4.96007e-05 -3.1739e-05 -6.5281e-05 9.07172e-06 -3.73376e-05 6.31983e-05 4.13288e-05 -5.89945e-05 -7.60801e-06 
3.12142e-05 -4.31342e-05 6.42984e-06 5.63432e-05 -8.67929e-06 -1.03104e-05 5.33297e-05 1.1658e-05 -5.6766e-05 
1.14659e-05 6.9055e-05 -2.517e-05 7.20826e-05 6.86501e-05 -4.54121e-05 0.000103085 4.19459e-05 -0.000125036 
4.47803e-05 0.000129763 -0.00013727 0.000201704 0.000142208 -0.000167656 0.000343565 2.18485e-05 -0.00025367 
0.000371633 1.75854e-05 -0.000360426 0.000293422 8.01877e-06 -0.000248591 -0.00155035 0.00124708 -0.000193366 
0.000704153 0.00046115 -3.66023e-05 -0.000659499 0.000640731 0.000384894 -0.000257323 0.000348396 -0.000481618 
0.00121974 1.14687e-05 -0.000158937 -4.50882e-05 -8.53073e-06 0.000223545 -2.54403e-05 2.74318e-05 0.000168388 
-3.29566e-05 -7.69578e-05 0.000161295 1.74798e-05 -4.56868e-06 0.000171003 -3.2e-05 -1.71975e-05 0.000174798 
4.52783e-05 -1.62578e-05 0.000104994 -2.77259e-05 9.00239e-05 8.09004e-05 -5.34152e-05 1.42918e-05 3.32142e-05 
-0.000217158 -9.8481e-05 7.48689e-05 -0.00019275 -8.36891e-05 0.000181453 -5.79513e-05 -2.2985e-05 0.000167769 
8.97636e-05 -3.98027e-05 0.00016674 -3.99572e-05 -3.3282e-05 0.000163877 -4.08233e-05 -0.000200642 0.000203773 
-0.000322761 -0.00027085 0.000161895 0.00314145 -0.0026244 -0.00222472 -6.97397e-05 0.000113863 -0.000261709 
1.69113e-06 -3.14062e-05 1.5359e-05 3.42399e-05 -6.20087e-05 0.000324335 -0.000465603 -0.000756985 -5.02211e-05 
-0.000307089 -0.000667089 -0.000150284 9.52725e-05 -0.000462658 0.000271329 5.6612e-05 -0.000189645 -0.00054731 
2.61219e-05 -0.000710114 4.23977e-05 1.93124e-06 0.000180244 -0.000414321 0.000122439 -0.00120718 0.000566508 
1.67196e-05 4.73743e-05 6.83814e-05 -9.97319e-05 -0.000304728 0.00283142 0.000110053 0.000219074 -0.000203361 
8.90147e-05 2.01715e-06 -0.000160488 -1.90638e-05 -0.000112516 -4.68271e-05 8.60661e-05 -0.000600736 3.99555e-05 
9.617e-05 -0.00122598 4.94893e-05 -7.72452e-05 -0.000747811 -0.00016018 -0.00117375 -9.903e-05 -0.000567821 
0.000113494 0.000294964 -0.000310039 0.00017735 0.000292063 -0.000125003 9.08362e-05 5.89929e-05 1.63966e-05 
-0.000175698 1.68181e-05 0.000370595 -0.000626337 3.78716e-05 4.95044e-05 -4.64482e-05 -1.75669e-05 6.20171e-06 
6.46432e-06 -2.18268e-05 3.07626e-05 3.58954e-06 -0.000477883 -0.000522453 -0.000256904 -0.000395066 6.43585e-05 
-0.000154577 -0.000261918 7.90458e-05 -2.89131e-06 -0.00103885 0.000184408 -0.000119753 -0.00115412 0.000335983 
-3.65188e-05 -1.15752e-05 -5.66049e-05 0.000280503 0.000838958 -0.000641253 0.000640527 0.00154043 -0.00109941 
-0.000344531 0.000219969 0.000552708 0.000638206 -0.00438345 0.000466738 -0.00032259 0.000897436 -3.13226e-05 
-8.05132e-05 1.20053e-05 0.00105562 -0.00117064 0.000406562 -0.000218657 -0.000874546 0.000206366 0.000100964 
2.80603e-06 1.65744e-05 -0.000326614 0.000127688 -0.000175944 -5.07056e-05 7.89504e-07 4.09106e-05 5.2839e-05 
0.00054551 -0.00217444 -0.000339606 -0.000132267 4.04993e-05 -0.00281767 0.000854655 -0.000694135 0.000776432 
-0.000611482 0.00042066 -0.000637819 -7.40837e-05 0.00042951 0.000546761 5.20507e-05 -9.81664e-05 0.000299354 
0.000732347 -3.23939e-05 -0.000868034 -0.000194831 -0.000639759 -0.00050709 0.000517096 -0.000170137 -0.000892338 
0.000772043 -0.000661796 -8.14868e-05 0.00106127 0.00193422 -0.00130096 0.0025263 -0.00081443 -3.10025e-05 
1.81891e-05 -1.82992e-05 4.12238e-05 7.16237e-05 -1.9032e-05 6.1531e-05 -4.63517e-06 3.21561e-05 -8.05719e-05 
-8.71464e-05 -2.10223e-05 2.27011e-05 -1.61593e-05 1.6879e-05 2.68034e-05 -2.94151e-05 1.15335e-05 -5.42921e-06 
-1.08408e-05 7.43273e-06 3.77642e-05 -1.93598e-05 1.26597e-05 3.1255e-05 -5.74072e-06 0.00016808 2.51801e-05 
-2.21602e-05 7.78641e-05 -3.39413e-05 2.61134e-05 0.000664198 3.00086e-05 3.18723e-05 1.72068e-05 7.50651e-05 
0.000103828 2.24106e-05 0.000175482 7.35878e-05 1.84443e-05 -4.24499e-05 7.01292e-06 5.91165e-05 -2.54484e-05 
-4.22743e-06 4.14712e-05 -9.60698e-05 -1.75408e-06 -2.7863e-05 2.47643e-05 -6.33693e-05 -7.60606e-05 7.23442e-05 
-5.37095e-05 -1.28729e-05 0.000198132 -0.000112429 -8.5621e-05 4.97572e-06 -7.6282e-06 -7.46124e-05 0.000135421 
-9.06283e-06 -5.10406e-05 9.45301e-05 -1.27452e-05 2.08029e-08 4.34094e-05 -3.71427e-05 1.46031e-05 1.62505e-05 
-6.05694e-05 1.42188e-05 7.74574e-05 -2.15037e-05 1.64579e-08 7.57115e-05 -1.83248e-05 -8.92486e-06 3.8318e-05 
-1.79041e-05 -7.28519e-06 3.45766e-05 -1.84707e-05 -2.47211e-06 4.19289e-05 3.61548e-06 1.42652e-06 1.95752e-06 
-0.000191094 -4.15083e-05 -8.66964e-06 0.000372423 2.18028e-05 -1.60052e-05 3.90722e-06 1.49649e-05 -2.33625e-05 
-2.87653e-06 2.40854e-05 -1.5331e-05 -1.14101e-06 1.68848e-05 -2.0708e-05 2.06414e-06 1.36179e-05 -1.6491e-05 
2.31095e-05 6.42754e-06 -1.43402e-05 1.10689e-05 -1.43335e-05 -5.16076e-06 1.57131e-05 2.19846e-06 -3.44355e-05 
5.30456e-05 2.52442e-07 -3.60904e-05 5.13699e-05 -7.68319e-06 -2.65948e-05 5.29715e-05 -0.000141378 5.32877e-05 
8.48798e-05 -6.74083e-05 0.000228242 -4.69456e-05 0.000180602 -4.39943e-05 2.52322e-05 0.000114602 -2.90971e-05 
0.000101436 2.01968e-05 -5.50594e-05 8.25286e-05 2.62246e-05 1.69251e-05 2.19861e-06 -4.3986e-05 4.37023e-06 
5.87302e-05 2.58161e-05 -6.74132e-05 5.16551e-05 7.61083e-06 -3.52763e-05 5.49952e-05 -2.9457e-05 -2.62458e-05 
0.000105456 3.59891e-05 -9.14055e-05 5.87268e-05 9.8505e-05 -8.36314e-05 0.000187913 7.09047e-05 -9.80823e-05 
0.000279707 -1.76374e-05 -0.00020513 0.000278585 -6.92932e-05 -0.000242909 -0.000112379 -0.00028138 -3.28447e-06 
0.000137374 9.93165e-05 0.000365963 0.000143174 -0.000895418 0.000699279 -4.04947e-05 0.000203047 -0.000478305 
-3.61686e-05 0.00112686 -0.000554356 9.48321e-05 -0.0001776 -0.000176676 -0.000118926 -3.24967e-05 0.000245073 
-1.57194e-05 -0.000164888 0.000245533 -1.05884e-05 -0.000183702 0.000273889 -6.01881e-05 -0.000147729 0.000183143 
-2.76862e-05 -5.30482e-05 0.000108823 -3.50027e-05 -5.65155e-05 7.6344e-05 -4.48288e-05 -8.51672e-05 8.20028e-05 
-0.000148164 -3.77852e-05 9.36141e-05 -0.000222212 -3.39648e-05 0.000173984 -0.000168977 -3.11164e-05 0.0003058 
-4.89463e-05 -0.000134238 0.000304125 -8.35432e-06 -0.000234559 0.000262157 0.000147243 1.91118e-05 5.4646e-05 
-7.84369e-05 3.41629e-05 0.000179021 -0.000151196 -8.65469e-05 1.92355e-05 -4.48988e-05 -0.000340278 0.000194116 
6.87241e-05 0.00026685 -0.000516472 -0.000196448 0.000383685 -0.000322862 -0.00027544 0.000202354 -0.000130646 
-0.000103738 8.91959e-05 9.57306e-06 -0.000180742 1.39687e-05 2.1209e-05 0.00011523 -0.00026794 9.14304e-05 
-0.000773198 0.000390036 -2.67782e-05 0.000246161 -0.000356216 0.00024499 0.000741175 0.00018515 -0.000530161 
0.000211578 -7.24577e-05 -1.75509e-05 -5.60863e-05 9.87952e-05 -0.000171547 -2.25925e-05 0.00022268 -0.000149234 
-4.40926e-05 0.000115363 -5.93509e-05 -0.00013553 0.000309198 1.88948e-05 5.07501e-05 0.000557641 -0.000468984 
-0.00112287 0.00109716 -0.000238618 -0.00034187 7.72842e-05 -7.57937e-05 1.94217e-05 0.000102002 -6.21129e-05 
-0.000100593 -5.12241e-05 0.000143247 -0.000431758 -5.00665e-05 3.58832e-05 0.000528883 -0.000822831 -3.75988e-05 
-2.54423e-05 8.24068e-05 -8.40685e-05 -1.41042e-05 0.000157928 -0.000158491 -2.49991e-05 0.000171124 -0.000146164 
-8.31949e-05 0.000253364 -3.78935e-06 -0.000432481 0.000190694 0.000954156 -0.0012669 -9.66816e-05 4.78544e-05 
-0.000176298 -3.7119e-05 0.000227382 -0.000244816 0.000673743 3.16105e-05 -0.000234562 -0.000109001 -7.71951e-06 
2.44147e-05 0.000179977 -7.14152e-05 0.00113825 -8.26142e-05 0.00105404 -0.000476976 4.23081e-05 -0.000113208 
1.35177e-05 0.000438829 -0.000761403 -1.85985e-05 -1.55028e-05 2.39674e-05 -1.94964e-06 0.000154308 -4.95073e-05 
5.44111e-05 -1.6818e-05 -7.04227e-05 -0.000147268 5.84138e-05 0.000158133 -7.59543e-05 4.31556e-06 4.15994e-05 
-4.07337e-05 -0.000114308 3.81862e-05 -3.30059e-05 -1.74067e-05 -0.000331457 -0.000249994 1.55002e-05 -0.000403309 
0.00010283 -0.000326432 -0.000160694 1.05741e-05 0.000243068 -0.000431547 -0.000221354 0.000129413 -8.61934e-05 
-4.5805e-05 -0.000121935 -0.000236616 9.94194e-05 0.000200313 1.34398e-05 4.91009e-05 -4.98123e-05 0.000200671 
-2.09044e-05 -0.000112798 -9.45162e-06 0.000334681 -0.000125203 -0.000330422 2.70791e-05 4.68682e-06 -3.10622e-05 
3.9177e-06 0.00100471 -0.000187698 5.21315e-05 6.57249e-05 0.000141323 0.000505059 -0.00148781 0.000861804 
0.000385835 0.000102669 -0.000916311 7.33851e-05 1.3975e-05 -0.000361551 4.65699e-05 -2.71781e-05 3.62466e-05 
-3.3871e-06 0.000511464 -3.19949e-05 1.03551e-05 -4.28985e-05 1.86255e-05 -1.12206e-06 1.51966e-05 -5.0638e-05 
7.04996e-05 -0.00015705 0.000658723 -1.47651e-05 1.10971e-05 -8.36877e-05 -0.00064609 0.00030061 2.14269e-05 
3.30587e-06 1.84826e-05 6.09104e-05 3.96913e-05 -0.000142724 -2.39541e-05 -3.24488e-05 1.43741e-05 -7.94872e-05 
-5.10712e-06 6.79972e-05 -0.000110687 1.27357e-05 0.000112548 -0.000125396 -1.27448e-06 0.000131738 -3.26153e-05 
-4.43329e-05 0.00012609 -1.72783e-05 -4.62932e-05 8.2276e-05 -2.39865e-05 -3.18165e-05 2.90982e-05 -1.18617e-06 
1.11981e-05 -6.38326e-06 1.48644e-05 -6.09034e-05 -0.000187325 -5.38576e-06 -1.79061e-05 -5.93744e-07 -2.52366e-05 
8.25573e-06 -1.58635e-05 4.69285e-06 3.54074e-06 -5.70984e-05 7.05817e-07 -2.28783e-05 3.55597e-05 3.10314e-06 
-4.55923e-05 6.82561e-05 -3.02467e-05 -3.36681e-05 1.97812e-05 -0.000105152 -1.84513e-05 6.25772e-05 -3.33245e-05 
-8.78207e-05 0.000141317 -6.55629e-05 -0.000150036 0.000291867 0.000167909 4.82809e-05 3.09798e-05 0.000257741 
-0.00062361 4.04702e-05 -5.39809e-05 5.50738e-05 -2.52563e-05 9.54543e-05 4.61182e-05 -6.46505e-05 1.07859e-05 
2.01754e-05 8.15836e-06 3.0793e-05 3.69326e-05 9.60609e-06 1.36005e-06 0.000113801 2.57405e-05 -6.721e-06 
0.000171068 -3.44759e-05 -7.70879e-05 0.000204596 -5.87574e-05 -0.000121031 0.000473612 6.30236e-05 -0.000130047 
-0.000166339 9.03698e-05 -1.93338e-05 -0.000313669 0.000333475 -5.45548e-05 -0.000254394 0.000242079 -6.29254e-05 
-8.77097e-05 0.000124929 -6.2233e-05 -6.71537e-05 7.09206e-05 -5.00841e-05 -6.56352e-05 4.82742e-05 -7.83037e-05 
-5.71902e-05 7.60983e-05 -0.000243907 -5.6862e-05 0.000130763 -0.000364128 -3.44205e-05 0.000296235 -0.000296436 
-4.67002e-05 0.000421525 -5.30164e-05 -0.000234982 0.000274454 0.000220872 9.2743e-05 0.00068858 -0.000203533 
-5.88119e-05 0.000227721 -7.52392e-05 -0.000145696 -2.07278e-05 4.68549e-05 -7.5265e-05 0.000256464 -0.000403849 
0.000214364 -6.4136e-05 -5.6925e-05 2.8164e-06 -2.64471e-05 2.76968e-05 2.57575e-05 2.9557e-05 0.000110761 
-2.61868e-05 9.96781e-05 -6.12883e-05 -0.000134972 -7.33445e-05 9.02528e-05 3.26883e-05 -0.000145449 -2.76425e-05 
-0.000337336 7.97144e-06 0.000146473 -3.02729e-05 -0.000713406 0.000672353 0.000159991 0.000117287 -0.000155761 
0.000182449 6.54609e-05 0.000838334 -0.000738237 -4.40602e-05 -0.000191629 -4.32785e-05 0.00025015 -4.03124e-05 
3.19832e-05 1.46114e-05 1.14656e-05 7.80694e-05 6.76159e-06 -6.46674e-05 0.000111775 0.000161092 -0.000135698 
-0.000222917 -5.34716e-05 0.000231331 -0.000139933 0.000217188 0.000452049 0.000457393 -0.000196843 -0.000160967 
-0.000193126 -0.000102193 0.000204251 -0.000302595 -3.51531e-05 1.71655e-05 -6.69327e-05 0.000101743 -6.52439e-05 
1.33415e-05 -2.93074e-05 4.0877e-05 1.1456e-05 6.9133e-05 -0.000858803 4.13272e-05 -4.94877e-05 -6.09406e-05 
1.2396e-05 -1.21366e-05 0.000101469 -2.95335e-05 0.000317447 5.48941e-06 -0.000145935 -6.34944e-06 -5.58437e-05 
-6.95167e-05 5.36096e-05 -1.69424e-06 5.6947e-05 6.31559e-05 2.01859e-05 -6.28939e-05 3.116e-05 1.19079e-05 
-0.000195991 -1.23445e-05 -3.85992e-05 5.30019e-05 7.70498e-05 -3.69931e-05 -9.38578e-06 -0.000681922 0.000143268 
0.000513601 -0.000202541 8.07857e-05 3.71312e-05 -8.97383e-05 -4.73515e-05 -2.60969e-05 0.000117124 8.4689e-06 
3.4902e-05 7.4084e-06 4.36774e-05 -3.70567e-05 -0.00023222 -0.000120076 8.50456e-05 -0.00013693 4.82269e-05 
-0.000120802 -3.11889e-05 0.000129178 -4.32042e-05 0.000384836 -0.000308941 3.16438e-05 -2.65656e-05 -0.000232538 
9.86765e-06 3.73392e-05 -0.000208212 -7.87914e-05 -0.000114722 -0.000201907 3.19394e-05 6.07163e-05 -5.90689e-06 
0.000186222 2.25345e-05 -0.000142431 -0.000113033 0.000347899 -6.90895e-05 -2.47764e-05 -3.24839e-05 -7.11931e-05 
2.81874e-05 -0.000557931 0.000135915 -8.72955e-05 2.9551e-05 -4.169e-05 2.86374e-05 1.4967e-05 0.000319615 
-0.000417138 7.07168e-05 7.60489e-05 -5.19841e-05 1.8228e-06 0.000350385 5.28611e-05 0.000350919 0.000132601 
-0.000188482 -6.23639e-05 -8.65605e-05 4.91804e-05 -0.000615356 0.000365605 -0.000108553 -1.35013e-05 -1.19314e-05 
6.52025e-05 -6.48128e-05 -6.81689e-05 -8.47003e-05 -9.9695e-05 1.97521e-05 0.000109345 6.15841e-05 -5.75418e-05 
-0.000117611 -0.000122116 4.49513e-06 -2.9512e-05 -8.78556e-05 0.000200625 7.20953e-06 -6.12798e-05 6.2122e-05 
-6.21458e-06 1.78546e-05 -4.47188e-06 -3.45327e-05 5.93441e-05 -0.0002412 -1.01698e-06 -2.22576e-05 -3.65988e-05 
-5.57278e-05 5.64e-06 -3.26163e-05 -0.000276401 1.65471e-05 3.38128e-05 0.00057642 -0.000106837 -0.000143966 
0.000169567 0.000409629 -0.000158878 -1.44124e-05 3.91545e-05 -0.000168613 5.3194e-06 -6.71053e-05 4.33701e-05 
5.27205e-05 -2.62824e-05 9.28367e-05 7.87425e-05 -5.73097e-05 4.11411e-05 0.000126447 -7.15216e-05 -2.38978e-05 
-5.91194e-05 0.000184029 0.000200784 0.000311496 -0.000516488 0.000485612 -5.4277e-05 -0.000279753 0.000287423 
2.48521e-05 -4.30333e-05 -0.000170238 -4.00434e-05 -0.000131614 9.31343e-07 0.000131075 -0.000317641 -0.000147881 
0.000343055 -0.000330593 -5.33984e-05 0.00013638 -8.45285e-05 9.45091e-05 0.000134437 -0.000246472 -2.92832e-05 
-4.69608e-05 0.000131459 -8.61048e-05 -0.000290255 0.000377703 0.000104032 7.45477e-06 -0.000241514 0.000319002 
-3.58526e-05 2.95313e-05 -0.000212243 -3.56579e-05 0.000252431 -0.000229156 1.61387e-05 -0.000121231 0.000240726 
-0.000118154 0.000415048 -0.000369309 0.000146481 -0.00022175 8.88095e-05 -0.000123586 -1.4685e-05 -7.46804e-06 
0.000130433 -0.000344318 0.000118884 -4.77539e-05 -5.27841e-05 5.07667e-05 0.000158068 -4.4964e-05 0.000260632 
0.000174847 0.000528149 2.73637e-06 -9.66318e-06 -4.71168e-05 -4.30821e-06 7.75448e-05 1.85082e-05 -1.01075e-05 
0.000204774 -2.8403e-05 -7.40507e-05 -4.46955e-05 3.61621e-05 2.82869e-05 0.0002055 -0.000234672 0.000127135 
-0.000132143 7.05879e-05 0.000284679 -5.52419e-05 2.02165e-05 2.56173e-05 -6.90893e-05 6.85901e-05 7.07452e-05 
8.91607e-05 -7.18364e-06 -6.82399e-05 -0.000124343 0.000121596 -0.000147526 -6.03167e-05 0.000127556 -1.07873e-05 
-0.000120042 -5.6371e-05 -9.89024e-05 8.58797e-05 -0.000151407 -7.27368e-05 5.47173e-06 -9.96474e-05 2.4854e-05 
-3.17839e-05 -3.18902e-05 0.000168394 -3.83188e-05 4.07983e-05 -6.95551e-05 -4.02383e-05 6.33571e-05 0.000118107 
7.66985e-05 1.63838e-05 7.61833e-05 -3.4882e-05 7.49175e-05 0.000135888 -1.90757e-05 -2.86488e-05 4.06716e-05 
8.78197e-05 0.00015391 -1.8694e-05 -0.000225859 -0.000307631 -0.00021741 9.95959e-05 7.98387e-05 -0.000231113 
0.000383265 -5.25089e-05 -7.07524e-05 2.73197e-05 -9.06969e-05 6.08836e-05 -3.34113e-05 0.00014937 -6.19414e-05 
0.000466042 -0.00046337 5.73816e-06 -3.90106e-05 2.03365e-05 1.79897e-06 -4.80855e-05 1.23516e-05 3.08854e-05 
-0.000293255 -0.000114454 -4.62099e-05 8.17776e-05 -4.72165e-05 0.000128108 -0.000190691 -8.24462e-05 -0.000206166 
7.8927e-05 -1.32346e-05 -5.42336e-06 -3.29439e-06 7.14935e-05 -0.000123636 -6.2592e-05 3.58204e-06 0.000263707 
4.21422e-05 6.33759e-05 9.50115e-05 0.000128505 -0.000154254 -3.35594e-06 4.15264e-05 -6.38318e-05 -0.00011514 
-1.22716e-05 3.69889e-06 -3.56775e-05 0.000133229 -3.82102e-06 0.000175795 -0.000351305 0.000366086 3.01683e-05 
6.67349e-05 -0.000211652 -0.000294533 -2.72686e-05 -0.000197253 -5.73178e-06 7.71499e-05 -3.12607e-05 -0.000152939 
-2.05055e-05 -0.000328741 7.0214e-05 -7.75674e-05 0.000331321 6.42195e-05 -4.49479e-05 -0.000175602 -7.1481e-05 
-8.84253e-05 0.00023281 0.000159757 1.43198e-05 9.66495e-05 -0.00017994 0.00011123 -6.39266e-05 -0.000420575 
0.000369259 7.15705e-05 3.57175e-05 -1.04078e-05 -0.00010501 -3.04414e-05 -1.62988e-05 -3.86756e-05 -2.2721e-05 
-1.28167e-05 -1.22619e-05 -3.97804e-06 -2.28831e-05 -0.000210009 -8.39293e-05 -4.65565e-05 -0.000192561 -0.000222189 
5.39869e-05 -0.000354705 -0.000406169 0.000253625 -6.96406e-05 -0.000246297 0.000105799 -4.81575e-05 0.00011211 
-0.000343338 -0.000128758 -0.000300432 0.000190711 -0.000138973 0.0002737 -0.000148712 -0.000100893 4.63376e-05 
0.00026459 0.000126393 -7.38355e-05 -0.000167814 0.000219152 -0.000322453 -7.38556e-05 -7.02468e-05 -6.90318e-06 
0.0414758 1.77326e-05 2.4679e-05 2.94354e-05 4.07583e-05 2.19071e-05 2.72817e-05 2.35886e-05 3.80134e-05 
1.64665e-05 3.28125e-06 -3.21836e-06 -6.14699e-06 -6.0516e-06 -1.19916e-05 -8.6153e-06 -4.60163e-05 -7.96661e-06 
-4.8394e-05 8.67086e-06 -5.63945e-05 1.16224e-06 -2.62847e-05 -5.82455e-05 -4.87598e-05 5.41217e-06 -6.23555e-05 
-1.20693e-05 -2.41776e-05 -6.35068e-06 -9.7836e-07 1.53497e-05 6.99889e-06 9.49945e-05 0.000114248 -6.98226e-06 
0.000239402 4.85805e-05 8.97932e-05 8.9648e-05 4.27054e-05 0.000153784 3.81084e-05 3.36504e-06 4.54809e-06 
7.30989e-07 -9.052e-06 -3.70831e-05 -5.78385e-05 5.08183e-06 -0.000107754 -1.77621e-05 -2.60347e-05 -6.69257e-05 
-3.85812e-06 -6.36962e-05 -8.87416e-05 7.51162e-06 -0.000166668 -4.5741e-05 -2.13635e-05 -0.000275861 -0.000307961 
-3.46986e-05 -0.000822892 -0.000168799 -0.000589696 -0.000480905 -0.00118816 0.00167159 -0.0320025 7.92151e-06 
-1.41106e-05 -8.33948e-05 -2.97312e-05 -1.49776e-05 2.89827e-05 2.7048e-05 -1.18714e-05 3.07698e-07 -5.13681e-05 
0.0674311 -1.79761e-05 -0.0238783 0.00154873 6.16087e-05 -0.002243 -0.000142154 -0.00031528 -0.000818446 
-0.000520638 -3.63635e-05 -0.000170565 -6.89306e-05 -6.95116e-05 -7.69887e-05 -2.20014e-05 -0.000192985 -0.000112481 
1.79096e-05 -3.77875e-05 -5.92643e-05 -2.15838e-05 -0.000128274 -6.59461e-05 1.00652e-05 -6.17972e-05 -9.73134e-06 
-2.95473e-05 -4.43181e-07 7.55967e-06 3.38706e-05 1.95201e-05 0.00022631 0.000235489 -6.17682e-06 0.000346117 
5.99128e-05 9.43883e-05 5.31713e-05 2.66582e-05 1.34055e-05 4.26857e-07 -1.85939e-05 -9.34049e-05 -2.96837e-05 
-5.8911e-05 -3.60601e-05 -2.95993e-05 -0.000119901 -3.22048e-06 -8.14787e-05 -0.000123906 -1.74642e-05 -4.29626e-05 
-2.90936e-05 -1.90345e-05 -5.93852e-05 -2.19892e-06 -3.97243e-05 -1.64195e-06 5.56877e-06 1.24667e-05 6.78309e-06 
1.86787e-05 1.0447e-05 1.96351e-05 2.02471e-05 1.42862e-05 7.64549e-05 2.3151e-06 5.53299e-05 4.04287e-05 
6.26583e-06 -0.000153311 -2.77249e-05 -8.47782e-05 -3.62536e-05 -3.25757e-05 3.904e-05 -1.62064e-05 -1.93973e-05 
-2.40565e-06 7.29166e-06 -7.99566e-08 -2.11195e-05 2.74674e-05 5.43832e-05 1.30811e-05 8.07161e-05 2.82538e-05 
2.19518e-05 3.82956e-05 1.34549e-05 4.95679e-05 1.9187e-05 2.38818e-06 -1.71129e-06 -2.17425e-07 -7.73675e-06 
-3.04701e-05 -6.49316e-05 -1.79384e-05 -4.60379e-05 -2.74797e-05 -6.31804e-05 6.38712e-06 -8.69716e-05 -2.52933e-05 
-2.6512e-05 -3.86351e-05 -1.42934e-05 -5.96613e-05 -3.44015e-05 -2.14253e-06 -2.78116e-06 -9.95876e-07 -4.19405e-06 
1.94e-05 4.89417e-05 1.59803e-05 2.20076e-05 3.36504e-05 1.89444e-05 6.98769e-05 3.58984e-05 4.16839e-06 
-2.76908e-05 -1.44197e-05 4.51271e-06 5.56352e-06 -9.47198e-05 7.71705e-06 -1.0179e-05 -1.11931e-05 7.18698e-06 
1.41078e-05 0.0382252 0.0423737 -9.92583e-05 0.00317553 0.000113536 -0.00335231 0.00213606 -0.0102589 
0.00963612 -0.0156591 -0.0369934 0.0823585 -0.00143176 -0.00928944 -0.00892389 -0.0122206 -0.00511936 
-0.00427289 -0.0082983 -0.00661777 -0.0108297 -0.00763658 -0.00890591 -0.00322502 0.00340726 -0.0720639 
-0.0332731 0.00516081 -0.00473277 0.0054168 0.013259 1.42526e-05 0.012241 0.000703594 0.00424654 
-0.0533274 -0.00622558 0.00197076 -0.00192858 -0.00409414 -0.00624154 0.00500796 -7.12215e-05 0.00564344 
-0.0413376 0.001112 0.0863442 0.00417726 -0.00423971 0.0030298 -0.00127911 0.004647 -0.00483204 
-0.00547599 -0.00121142 -0.00225993 -0.00321797 -0.00988175 -0.00567845 0.036529 0.0366687 0.000265578 
-0.00218792 -0.000147559 0.00990755 0.00238208 0.00111024 0.00307239 0.00329225 0.00187557 -0.0382051 
-0.0398082 0.0251844 -0.00528173 -0.00563393 -0.00201374 -0.00852474 0.0054003 0.0109387 0.0100762 
0.0705461 -0.0274414 0.00167602 -0.0149859 -0.00195333 -0.00413481 -0.00362075 -0.0081738 -0.00117893 
-0.00735701 -0.000329629 -0.00628546 0.00158572 0.00742982 -0.000955962 0.046404 0.0504235 -0.00365311 
0.0050564 0.00589786 0.00245692 -0.000843689 -0.00640996 -0.0014813 -0.00181643 -0.00516692 0.0214236 
0.060874 -0.0020495 0.00162469 0.00302666 -0.000450451 -0.00090423 -0.00481405 -0.00437845 -0.00211363 
0.00661298 0.0603781 -0.0415352 0.00121842 0.00429379 0.00372768 -0.00202814 -0.00186918 -0.00386341 
-0.00421635 -0.00445043 -0.00887778 -0.00674773 -0.00857732 -0.0123393 -0.00242071 -0.0584081 0.0124577 
0.010553 0.00627036 -0.00896868 0.010334 -0.00732393 0.00380453 0.00272939 0.00255004 -0.0386607 
-0.0369828 -0.0183954 -0.0235974 -0.0443538 -0.0342869 -0.0042779 -0.0106739 -0.00747317 -0.00892063 
-0.00730858 -0.0109403 -0.00159661 -0.0116542 -0.011802 -0.00116641 -0.0146462 -0.00708169 -0.00999696 
-0.0556289 -0.00747307 0.0523364 0.0289303 -0.0481902 -0.0139938 -0.0122132 -0.00370518 -0.00465935 
-0.00269041 -0.00449905 -0.00171439 0.000170435 -0.0027348 -0.00413009 -0.00187396 -0.00244816 0.00164067 
0.00247432 0.00199899 0.0139782 -0.0274895 0.0303742 -0.0118969 0.0221353 -0.00553507 0.00438274 
-0.00939216 0.00338649 -0.0323943 0.00264133 -0.0149955 -0.00500286 -0.00538322 -0.00380481 -0.00977417 
-0.0110476 -0.017379 -0.0126146 -0.00871572 -0.0379915 0.0159396 0.000601224 -0.0124132 -0.000612706 
-0.00212686 6.13157e-06 -0.00573808 0.000618685 -0.0051353 0.0014073 -0.00781422 -0.00516732 -0.00461733 
-0.00627599 -0.00489543 -0.00706941 0.0463525 0.00405562 -0.00562732 0.0155999 0.00971545 0.0226107 
-0.037692 -0.00244408 -0.00982676 -0.00253991 -0.00730298 -0.00691864 -0.00527533 -0.00475914 -0.0148507 
-0.0126811 -0.0240767 -0.0110495 -0.0175098 0.00100907 -0.0131157 -0.00896152 0.0143567 0.0106658 
-0.037543 -0.000369229 -0.00167685 -0.00376108 -0.010373 -0.000630399 -0.00362964 0.000730917 0.0107455 
0.0355613 -0.0174164 -0.0113655 -0.0543808 -0.00183272 -0.00551184 -0.000594006 -0.00174444 -0.0147855 
-0.102857 0.0207766 0.0156792 0.0399803 0.00647041 -0.000725318 0.0162427 0.0113345 0.0043707 
-0.00522595 0.0227246 -0.00435109 -0.00800052 0.0122667 0.0446296 -0.00224332 -0.0665434 -0.134157 
-0.0142441 -0.00952196 -0.00167862 -0.00268403 -0.0166293 -0.0123824 -0.0402583 -0.00684789 0.0205733 
0.00775343 0.0312856 -0.0328159 0.0256731 0.00501072 -0.00154382 0.00526045 -0.0101768 0.0249952 
0.0174513 -0.0294509 0.00531144 -0.0123872 0.0645555 -0.0338135 0.00487538 -0.091308 -0.0033598 
-0.0076475 -0.000722146 -0.00521887 0.00097421 -0.00186755 -0.00354151 -0.00553315 -0.00360293 0.002809 
0.0599179 0.00732409 0.0408062 0.00971097 -0.0235475 0.0403844 0.0506825 0.0626609 0.0775183 
-0.0136913 -0.0445244 -0.00649112 0.0493488 -0.0213055 -0.0207918 -0.0076838 -0.00353362 -0.00622959 
-0.0021319 -0.0107206 -0.00593719 -0.0233775 -0.00738901 -0.154052 -0.0128528 0.0619255 0.0713918 
-0.00925889 0.0146475 0.0380821 -0.00870412 -0.00233334 -0.000208309 -0.00391533 0.000198946 -0.00320354 
-0.000798685 -0.00247306 -0.00157278 -0.0011986 -0.000614957 -0.00515581 -0.0378822 -0.00447242 -0.018572 
0.0138468 0.0127895 0.00321839 0.00713151 -0.00130275 -0.00795091 -0.0491221 -0.00288509 -0.00638688 
0.00197899 -0.00632768 -0.0061824 -0.0111888 -0.027525 -0.00563293 -0.0185231 -0.00849499 -0.00331292 
-0.00947333 0.013708 0.0274305 0.013353 -0.00386866 -0.00447128 -0.015872 -0.00288542 0.000490658 
0.0120512 -0.0144743 -0.00338133 -0.0495286 0.00764707 -0.00246631 -0.0077166 -0.00477635 -0.000812416 
-0.00849465 0.000808919 -0.0119669 -0.0046889 0.0302694 -0.0273736 0.0539778 -0.0122879 -0.0256434 
-0.0337923 0.0116326 0.00100882 -0.0204612 -3.61253e-05 0.00642273 0.00917912 0.0311219 0.0313787 
-0.0178332 -0.0127972 -0.00937527 -0.00537532 -0.00334435 -0.00364195 -0.00710321 -0.00868096 -0.0349909 
-0.00840174 -0.0800246 0.00466394 0.0144134 0.0598168 -0.0134934 0.00946066 0.0104955 -0.0260233 
-0.0137331 -0.000470249 -0.0907082 -0.0357968 -0.022329 -0.0166432 -0.0597888 -0.0106341 -0.014852 
-0.0125537 -0.0125444 -0.0112636 -0.0109649 -0.00936179 -0.00977304 -0.0086391 -0.00799212 -0.0048207 
-0.00651507 -0.0211333 -0.0245957 -0.0271215 -0.0247209 -0.0625027 -0.0132121 -0.000600501 -0.058709 
-0.009449 -0.00872364 0.000101808 -0.011703 -0.00559302 -0.00795657 -0.00836295 -0.0112512 -0.00831156 
-0.00694569 -0.00586121 -0.00442055 -0.0110742 -0.0228977 -0.0235013 -0.00664286 -0.0120064 -0.0043847 
-0.00825556 -0.0151545 -0.0250533 -0.0240197 -0.00473206 -0.00443538 -0.0281593 -0.0249008 -0.00487257 
3.97207e-06 -0.0453155 -0.027221 -0.092794 -0.0379172 -0.0441114 -0.0736123 0.00757624 -0.00888897 
-0.00431201 -0.00780618 -0.026997 -0.0278528 -0.0280418 -0.0453415 -0.0179314 0.0154709 -0.0325297 
-0.0471107 -0.0169816 -0.0259545 0.0424062 -0.0223378 -0.0359781 -0.0323488 -0.028461 -0.0179204 
-0.0212103 -0.0269985 -0.0227976 -0.0288588 -0.0189131 -0.014708 -0.00754804 -0.0316011 0.000136912 
-0.0163697 -0.00309048 0.0164644 -0.0439267 -0.0222319 -0.0330068 0.00152416 0.0138791 -0.0306665 
-0.00187003 -0.00515434 -0.00611069 0.000188966 -0.0258938 -0.0255794 -0.00117827 -0.0398591 -0.00565714 
-0.0455196 -0.011942 -0.0130666 -0.0295823 -0.0270729 -0.0204241 -0.0257018 -0.0261453 -0.027233 
-0.0268431 -0.0266207 0.00882244 -0.00666262 -0.0332773 -0.0285165 -0.0256106 -0.0261887 0.00947842 
0.0114094 -0.0222757 -0.0159245 -0.0306776 0.0326307 -0.00213893 -0.043998 -0.0542115 0.0213358 
-0.0290241 -0.0247685 -0.0989979 -0.0475644 0.000714703 -0.00127453 0.00950323 -0.00120376 -0.0272258 
0.0348652 -0.0135218 0.011777 -0.00433018 0.00773179 -0.00666034 -0.0204213 -0.0460727 0.136406 
-0.0043664 -0.00959099 -0.0106193 0.00500845 -0.00351413 -0.0430687 -0.0484208 -0.0186961 0.088933 
-0.0112703 0.0298111 0.0228193 0.0545125 -0.02678 -0.100241 0.035253 -0.0530628 0.0717128 
0.0126746 -0.00213742 0.00384973 -0.00201714 -0.0261601 0.00558051 -0.0177872 -0.0289751 -0.0606134 
0.0181922 -0.0456156 -0.0283645 -0.0270811 -0.0260583 -0.0321024 -0.0373068 -0.0410512 -0.030976 
-0.0257249 -0.0291884 -0.103648 0.132575 0.141241 -0.00776616 -0.00427726 -0.0198715 -0.0177781 
-0.0200211 -0.013689 0.00845375 0.0104063 -0.0268222 -0.0359948 -0.0310546 -0.0219368 -0.0379702 
0.0161864 -0.0189596 0.00913127 -0.0036745 0.00276022 -0.0044393 0.00140261 -0.012445 -0.00930434 
-0.00556856 -0.0118603 0.00104321 0.00142631 6.10266e-05 8.32792e-05 0.00112565 0.00521881 -0.00621388 
0.0783278 0.00973557 0.00988714 -0.00575404 -0.00373676 -0.0101009 -0.00616071 0.0611895 -0.0267964 
-0.0016577 -0.00259954 0.0228963 -0.0136451 0.0172917 0.0408092 0.000923786 -0.00396946 -0.0666669 
-0.0936991 0.0034969 0.011156 0.00910837 -0.00817693 0.0127712 -0.000638413 -0.00261787 -0.0221366 
-0.0259814 -0.0801848 -2.96717e-05 0.0216545 0.0199264 -0.000416811 -0.00276389 -0.000600642 -0.0283607 
0.0225129 0.0118527 0.00856746 -0.0019471 -0.0259813 0.0522294 -0.0864601 -0.00426346 -0.0239932 
0.00281352 -0.00484197 0.00157356 0.00280099 0.00204959 0.0915709 -0.000211777 -2.75661e-05 4.29014e-05 
7.23853e-06 5.52429e-06 8.54357e-05 -0.000807951 -0.00108416 0.00195646 9.29661e-05 -0.00010029 -1.95204e-05 
7.22336e-07 1.92854e-06 2.14662e-05 6.88013e-05 7.97178e-05 0.000158291 -3.46671e-05 -4.9203e-06 4.4687e-06 
0.000991923 0.000374669 9.6997e-05 -0.000227439 4.77607e-06 0.000240214 -0.000294172 5.34194e-05 6.69962e-06 
0.000123048 -0.00429586 -0.000866074 -0.00011163 0.00053049 0.00964625 -0.00110822 0.0119171 -0.00243333 
-0.000206454 2.54569e-05 -0.000653317 3.37261e-05 2.31113e-05 -3.57637e-05 -9.39922e-06 -7.97174e-06 -1.36983e-05 
3.29201e-05 -1.6014e-05 5.2483e-05 3.54411e-05 -2.9966e-06 -4.09531e-05 2.11307e-05 -5.28382e-06 8.83085e-05 
0.00100122 -0.00449416 -0.00343621 9.97082e-05 -5.37222e-05 1.16274e-05 -0.0023359 -0.00959735 0.00528389 
0.00057244 -0.0164495 0.000551058 -0.00391834 0.0001325 -5.0305e-06 -5.66853e-05 -0.000165724 0.0117372 
-0.0026644 0.00968803 -0.0010438 -5.99552e-05 0.00018191 1.71566e-05 3.04767e-05 -0.00191188 8.6836e-05 
-8.61757e-05 -1.37218e-05 1.60338e-06 5.73963e-05 -1.409e-05 -4.59137e-06 -2.3416e-07 -4.40811e-06 -1.29846e-05 
1.63762e-06 -1.04693e-06 -0.0105103 0.00899408 -0.0026371 -2.66837e-06 6.97583e-06 9.63969e-06 -4.33557e-06 
0.000116874 4.03682e-05 -5.73258e-05 0.00755401 0.000102503 0.000445962 0.00136238 0.00166336 -0.000204567 
0.00064249 6.32038e-06 -2.89128e-07 5.39263e-06 -0.000853472 -0.003132 0.0116907 -8.97112e-05 -0.000172766 
1.84333e-06 -4.44355e-05 -3.18331e-06 8.77373e-06 0.00020028 -2.55271e-05 -0.000104185 -6.30918e-06 -2.22259e-06 
1.72923e-05 9.21495e-05 3.13663e-05 -8.63513e-05 -0.0019092 8.14341e-05 -3.69722e-06 -8.02563e-06 -1.04156e-05 
-1.48755e-06 9.13987e-05 -0.000316731 -0.000104939 -0.000289037 0.000121139 3.16693e-05 -3.31475e-07 1.91923e-05 
4.50734e-05 -3.98069e-06 -1.24977e-05 4.88205e-06 -1.39135e-05 2.35511e-06 4.41156e-06 -1.50726e-05 9.59015e-06 
-8.33826e-06 -4.5299e-06 1.7742e-06 1.19281e-05 1.78866e-05 1.56384e-05 -1.88059e-06 7.88545e-06 2.5336e-05 
1.4874e-05 -4.23286e-05 -0.000155878 -1.31978e-05 -3.4301e-05 2.20611e-05 5.26323e-06 -9.67152e-06 -3.12235e-06 
0.0122415 0.0084758 -1.10689e-05 -3.18037e-05 1.51671e-06 -2.2771e-05 6.72143e-05 3.73835e-05 4.40561e-05 
0.000255682 -3.61799e-06 3.08256e-06 6.91792e-06 -3.29148e-05 -0.000265724 -1.02966e-05 1.08075e-05 -2.17879e-06 
1.61748e-05 0.000313897 -9.2044e-05 -0.000138001 -0.000330461 -2.67952e-05 -2.2048e-05 -2.60044e-05 -4.5913e-05 
-3.17385e-05 -5.69278e-06 -2.04845e-05 1.68766e-06 2.70215e-05 0.0108985 -0.00400144 0.000281664 -0.000261229 
-7.46234e-05 6.01367e-05 -2.82042e-05 -3.62867e-05 -8.08164e-06 1.36754e-05 -4.67767e-06 -1.88453e-05 -4.0532e-05 
-0.000322747 -0.000347071 5.46308e-06 -5.52668e-05 -9.35968e-05 2.19566e-05 2.57594e-05 -2.84617e-05 3.70168e-05 
4.97291e-05 -6.18478e-05 0.000256301 -0.000160434 0.000125009 1.09741e-05 1.73484e-05 -9.0724e-06 -4.30503e-05 
-0.000114664 3.61465e-05 -3.65858e-05 0.000199465 -0.000242872 5.66257e-05 2.58971e-05 2.16888e-05 3.21231e-05 
-8.04753e-05 -7.86148e-06 -1.99942e-05 -6.67641e-05 -2.1665e-06 3.47618e-06 -0.000271558 -1.26772e-05 9.47538e-06 
1.23875e-05 0.021112 0.0257522 -0.00902712 2.91165e-05 -5.86242e-07 1.85735e-05 4.9712e-06 -5.50938e-06 
-2.9649e-06 4.92248e-06 -0.000349306 -2.4534e-05 -1.07037e-05 1.32459e-05 8.56912e-06 2.00612e-06 7.81569e-05 
-2.05066e-05 1.1473e-06 -1.08491e-06 1.41673e-05 -8.36045e-06 1.63935e-05 3.18933e-05 3.95106e-05 2.83341e-05 
-5.26327e-07 1.18746e-05 2.58926e-05 1.40029e-06 -7.47026e-06 1.66297e-05 9.39834e-06 7.78577e-06 -7.82063e-06 
-2.74654e-05 2.72466e-05 9.39147e-06 8.90659e-06 -4.44636e-06 -1.04477e-05 -4.54822e-06 -1.71948e-05 -5.48224e-05 
3.96712e-05 -1.07494e-05 1.21887e-05 2.8878e-05 -9.97118e-06 3.40363e-05 3.16469e-05 -4.39695e-05 3.03379e-05 
-1.92142e-05 2.92939e-05 -0.000245551 4.60213e-05 6.4491e-06 3.58595e-05 -2.26815e-05 1.2058e-07 -1.52588e-05 
1.7149e-05 5.13215e-06 1.52579e-05 -1.13994e-05 -0.000168956 6.36172e-06 0.000156057 2.49103e-05 3.46021e-05 
2.17424e-05 4.57874e-05 4.203e-06 -3.57743e-05 -1.55781e-05 2.0704e-05 1.69501e-05 -3.18151e-05 1.54974e-05 
2.62759e-05 -3.26917e-06 0.000211043 -0.000296499 1.39254e-05 0.000195531 4.28201e-05 -0.00397613 0.00869953 
-0.0169179 -1.81355e-06 -3.11487e-05 7.16006e-05 -5.31706e-05 0.000663568 0.00052814 0.000270479 7.90004e-05 
-0.000144655 3.05438e-05 -2.63465e-06 2.46401e-06 -2.72035e-05 -1.69789e-05 -9.65564e-06 -5.24495e-06 -5.29733e-06 
-2.11919e-05 2.00894e-05 -2.20232e-05 8.15085e-06 -6.2529e-06 2.44663e-05 -1.03984e-05 -5.17658e-06 -6.67682e-06 
2.87074e-06 -0.000108985 5.17361e-06 9.73133e-06 -3.63363e-06 -0.000196904 -0.000410937 0.000868999 -0.000354756 
1.23705e-05 -1.77498e-05 -3.55064e-05 -0.000770714 -0.00504446 0.00354245 0.00157065 2.78866e-05 5.13534e-06 
-2.89914e-05 3.25572e-06 0.00027807 -4.54991e-05 -0.00674604 -0.00847473 -0.0055389 0.0246295 4.27503e-06 
5.82922e-06 -2.65169e-05 2.35412e-05 0.00631321 -0.0112617 -0.00318488 3.47242e-05 0.000115464 -0.000185072 
-7.49342e-05 0.00073349 0.000885132 -2.81646e-05 -9.00674e-05 -2.15299e-05 0.000221652 -0.000353291 0.000138511 
-0.00309493 1.14193e-05 -1.41872e-06 5.32046e-05 5.01688e-05 -3.18027e-05 3.23123e-05 -5.09657e-06 -4.16823e-05 
3.8589e-05 -3.91795e-05 5.14149e-06 -1.8664e-05 -4.07363e-06 0.0197701 -0.00600609 0.0177861 -0.00519531 
1.23036e-05 3.52748e-05 2.27862e-05 -3.57144e-05 -3.9161e-05 -1.89289e-05 4.62987e-06 0.00619812 -0.00173887 
0.00441329 -4.26469e-05 3.89347e-05 1.55189e-05 2.19089e-05 3.04453e-05 1.45949e-05 2.50989e-05 5.26073e-07 
-9.08265e-06 -2.06769e-05 8.94521e-06 3.00845e-05 -8.88551e-06 2.15478e-06 1.00565e-05 6.56275e-06 -3.29043e-05 
1.39507e-05 -0.000170684 0.000200389 -2.25897e-05 5.92778e-05 -2.25369e-05 -1.58268e-05 2.81919e-05 -3.58559e-05 
2.04081e-05 -3.45576e-05 -1.81956e-05 -1.61408e-06 -1.07172e-05 0.00913882 0.0102792 -0.00122051 -0.00317817 
-0.0131964 -1.61174e-05 7.80989e-06 7.00353e-05 1.09452e-06 -2.04386e-05 2.89546e-05 -2.60711e-05 7.38418e-06 
-2.02797e-05 7.34555e-05 3.21568e-05 0.000245871 1.0025e-06 8.80052e-06 -1.27937e-05 -0.00018707 -1.88791e-05 
-2.73512e-05 -6.27076e-05 -1.93099e-05 2.15494e-05 -0.000127697 0.000105131 -0.000179089 0.000159922 2.79469e-05 
6.43593e-05 -1.7229e-05 6.14616e-05 1.86068e-05 -2.49771e-05 -7.40663e-05 0.000128682 -1.16304e-05 -9.27688e-06 
1.53294e-05 -4.69562e-05 -2.29538e-05 -3.13586e-05 8.45133e-05 -1.65971e-05 -1.27096e-05 -7.22047e-06 5.51224e-05 
-1.55668e-05 -3.00484e-05 -5.00965e-05 -5.72433e-06 -3.6057e-05 7.49945e-05 -4.54984e-05 1.58403e-05 7.8098e-06 
7.88548e-06 -0.00010153 -0.00016265 3.70645e-05 0.000221478 7.46273e-06 8.44026e-06 2.69424e-05 -5.04825e-05 
6.10608e-06 7.98611e-05 5.35804e-05 5.62707e-06 3.23528e-05 -1.50311e-05 -3.49857e-05 2.16653e-05 6.78459e-06 
-7.73715e-05 9.76523e-05 -2.22039e-06 4.49046e-06 6.8191e-06 0.0009236 0.000545621 -6.02083e-06 -5.74586e-05 
3.65852e-05 0.00450709 -0.0129856 0.00132043 -3.80828e-06 -7.34053e-05 -1.95317e-05 2.27961e-05 9.39013e-06 
3.32923e-06 2.97438e-05 -1.79632e-05 -8.49376e-06 -1.18395e-05 -4.73096e-05 1.04917e-06 -6.22716e-06 1.2526e-05 
-3.56948e-06 1.64568e-06 -5.99708e-07 1.53054e-05 2.59821e-05 -6.00023e-05 -1.03595e-05 -5.37057e-06 1.45729e-05 
9.09781e-07 1.93028e-06 6.24635e-06 -2.06692e-05 1.1278e-06 1.93376e-05 7.79734e-06 -4.60221e-05 2.3691e-05 
-2.3173e-06 3.48315e-05 -3.95321e-05 -1.85368e-05 -2.85514e-05 -5.24428e-06 -1.81492e-06 -4.52164e-06 4.47039e-07 
-0.000448918 -0.000648489 0.00086567 0.000635174 -0.000651181 -0.000701709 -5.50038e-06 -1.95595e-05 1.66875e-05 
2.76168e-05 -1.03846e-05 -2.65542e-05 -5.31771e-05 3.53112e-05 1.36838e-06 1.8509e-05 3.02984e-05 -1.40798e-05 
-1.20955e-05 1.95144e-06 6.1071e-06 -0.000149318 3.66989e-05 -0.00151723 -0.00168016 -0.00235524 0.002813 
0.00180689 -8.52872e-06 -3.43042e-05 -1.66793e-05 2.14117e-05 -0.00013046 0.000658608 -0.000116336 -1.55743e-06 
2.81556e-06 1.3495e-06 -8.59592e-07 2.74499e-06 2.27382e-06 -4.05478e-05 1.81903e-06 2.77394e-06 -1.00661e-05 
-2.81353e-06 0.00011337 -1.76676e-05 -5.95926e-06 -7.81036e-06 5.26351e-06 -9.86429e-07 -2.77131e-05 -1.11765e-06 
1.74875e-05 -9.77357e-06 -1.29274e-05 0.000259882 0.000208963 0.0126447 8.5022e-06 -4.16412e-06 4.12104e-08 
2.57012e-05 -1.19074e-05 1.25286e-05 -9.05762e-06 2.25664e-07 -2.99151e-05 -1.13293e-05 -0.000671186 -0.00140445 
2.80793e-05 5.03707e-06 -8.78018e-07 1.37195e-05 -3.53106e-05 2.27556e-05 2.64656e-05 3.86945e-05 1.25316e-05 
-1.85901e-05 1.08475e-05 5.15137e-05 6.93072e-06 8.57356e-06 -8.16294e-05 -7.13146e-05 -6.2835e-05 -0.000300572 
6.80928e-05 -4.6407e-05 0.000216692 7.87937e-05 -0.000199147 -8.60332e-05 0.00024424 -1.06167e-05 2.06602e-06 
-1.85694e-06 0.000109194 -0.000335084 -0.000660384 -0.000705519 -5.9146e-05 -0.000143635 5.09571e-05 5.75161e-06 
-8.97467e-06 4.79539e-06 -8.95871e-07 -4.04995e-06 -2.15038e-05 5.65027e-05 1.99319e-05 4.62169e-05 -6.0153e-05 
2.55069e-07 0.000116125 -2.1704e-06 1.56367e-05 -2.90422e-06 5.74543e-05 4.97507e-05 7.12387e-05 -2.8571e-06 
-8.88397e-05 -0.000181602 0.011269 -0.00726206 -0.0142954 -0.0132679 -0.00334551 -0.00345026 0.00294342 
7.50587e-05 -0.000266661 -0.000278085 -0.000628476 0.000412765 0.00223429 -9.03257e-06 -1.21716e-06 0.000197405 
-0.000277571 -3.80883e-05 -4.14249e-06 0.00206397 4.17739e-05 -0.000667067 -2.93272e-05 2.01823e-05 3.45445e-05 
0.00015081 -4.78553e-07 -2.05202e-05 6.38873e-05 5.21792e-05 4.53234e-05 -3.56649e-05 -0.000143276 -1.64078e-05 
-0.000417031 0.000710502 -5.84391e-07 0.000490352 0.000880167 0.0014382 -4.78945e-05 -9.37733e-06 7.65597e-05 
-3.57263e-05 3.81953e-05 3.25445e-05 5.41278e-05 -6.26096e-05 -0.000208468 0.000641137 0.000448509 -7.48359e-06 
3.03233e-05 -2.51431e-05 1.64534e-05 -4.45695e-05 -0.00105157 -0.00083664 0.000413396 2.26706e-05 -0.000563788 
0.00103959 0.000291933 4.02532e-06 2.09441e-05 -1.25256e-05 2.9502e-05 -0.000250138 1.01084e-05 -1.53943e-05 
-1.62439e-06 0.0009055 0.00103361 0.000549914 0.00508411 -1.52256e-05 -7.4468e-07 -3.04089e-05 -7.02584e-06 
-0.00428874 0.0036617 -0.00759305 7.78127e-05 0.000954991 9.83702e-05 8.04453e-05 6.82587e-06 0.000269645 
0.00267846 -8.47362e-05 0.000132392 -0.000118288 0.00634986 -0.0078155 0.00124038 0.0485094 -0.00810947 
0.0606632 -4.57781e-05 -5.41167e-05 2.99871e-06 1.4581e-05 -1.47927e-05 0.0004721 4.28878e-06 -0.000418549 
-1.40717e-05 -3.22873e-05 0.000139314 6.84091e-06 -1.2358e-05 0.0177813 -0.00185146 -0.00142611 -8.70413e-05 
1.36401e-06 1.376e-05 0.0113715 -0.0104235 -0.00424707 -0.000178978 0.0134711 3.44062e-05 -4.80296e-05 
-3.04822e-05 5.5435e-05 -0.000142644 4.68103e-05 0.000473602 -0.000140389 0.000409089 3.25657e-05 0.000177691 
-2.47326e-06 7.63528e-05 -0.000184549 0.000209619 -0.00016103 -0.000305684 -3.68893e-06 -6.12383e-05 5.38601e-05 
-1.88559e-05 2.25039e-05 -3.43352e-05 4.20158e-05 -0.000100324 4.32845e-05 -0.000199447 0.000478154 1.29346e-05 
-3.24191e-05 -7.19781e-06 4.68891e-06 7.89346e-06 5.05454e-06 -9.69791e-06 3.23744e-05 -1.87566e-06 1.91657e-05 
-3.49332e-05 -6.045e-05 2.99061e-05 2.55351e-05 0.000760126 7.14794e-05 -5.2391e-05 2.28952e-05 -4.49239e-06 
-3.06054e-06 0.000382387 -0.000178833 -0.000106114 6.98565e-06 -2.90662e-05 1.1616e-05 1.1926e-05 -1.25329e-05 
-8.07885e-06 7.20066e-06 -4.65842e-06 1.69251e-05 4.02075e-06 -1.2797e-05 3.33458e-06 -4.54281e-05 4.40845e-05 
-8.20117e-06 -1.79311e-05 0.0277984 0.0276652 1.06003e-06 5.69308e-07 1.53084e-05 8.65474e-06 5.45389e-05 
2.02019e-07 -3.27179e-05 -3.76268e-07 -1.5197e-06 -1.39214e-06 -5.8125e-06 2.82639e-05 3.2691e-06 1.34932e-05 
-0.00277928 1.12016e-05 0.016297 -5.64602e-05 -2.09162e-05 2.20226e-05 -1.52748e-06 -9.49344e-07 3.6245e-05 
2.42148e-05 2.46152e-05 -0.00048552 -0.000247053 0.00364389 1.32157e-05 9.7024e-06 -1.52291e-05 -2.38559e-05 
-5.81194e-06 0.0235987 0.03317 -0.00310027 0.0181823 1.82155e-05 -6.61433e-06 0.00748353 -0.0133583 
0.0155585 -0.00473056 -4.75723e-05 6.66599e-05 1.00041e-05 -0.000144038 0.0005442 0.000602888 -3.09683e-05 
-3.26887e-06 -5.51978e-06 -1.04484e-05 1.63478e-06 1.36298e-05 -3.52556e-05 -5.58853e-06 3.1332e-05 2.28716e-05 
-1.52061e-05 4.41302e-05 -1.45096e-05 1.05144e-05 2.2524e-05 -3.94135e-06 -9.32624e-06 -4.80602e-05 3.63636e-05 
7.94094e-05 -5.73467e-05 2.75332e-05 1.99309e-07 -2.55655e-05 -8.50695e-06 -2.08104e-05 -9.53277e-06 -4.72882e-05 
0.0112575 0.0107454 -5.57269e-06 -4.92207e-05 1.27898e-05 -0.0222194 -0.0078286 0.0168029 -3.05228e-07 
1.61648e-06 -0.00273541 -0.0107844 -9.05402e-06 -0.000130995 -3.66979e-06 0.000158226 1.7004e-05 9.6233e-06 
1.84645e-05 -2.57739e-05 -0.00298531 -0.00171474 0.000129072 0.000116027 -5.02378e-06 1.61124e-05 7.81457e-05 
1.42359e-05 2.10087e-06 -1.34187e-05 -4.37107e-06 -6.63345e-06 -5.41604e-05 -0.000189522 -0.000243682 -0.000110815 
-2.30643e-06 -4.2795e-05 -4.48022e-06 -3.10791e-08 -3.48969e-06 1.27073e-06 1.82568e-05 0.0184637 3.80693e-05 
-8.06966e-05 5.00551e-05 7.82406e-05 -1.93598e-06 -0.000101159 6.28752e-05 -5.89807e-06 -2.65711e-05 1.37193e-05 
-0.00214873 -0.00445403 3.85988e-05 1.19091e-05 3.54928e-05 4.8378e-06 6.625e-05 4.22706e-06 -6.44114e-05 
-0.000162616 7.62677e-05 -0.000134317 9.91297e-06 -1.06572e-05 3.66107e-06 -3.09413e-06 3.47763e-05 -4.22428e-06 
-7.99388e-05 9.26927e-07 -3.41439e-05 3.61111e-06 3.05844e-05 -9.97843e-07 -1.26938e-05 -1.44741e-06 2.25768e-06 
2.24124e-06 -2.35682e-05 -0.00645558 -9.89543e-06 7.51733e-06 -1.95859e-05 4.28746e-06 6.71481e-05 -0.000409084 
0.000446353 0.00365733 -4.29235e-06 0.000138418 1.81988e-05 0.000126198 0.000258883 -2.94596e-05 -4.48688e-05 
3.85915e-05 -5.68236e-05 -1.71386e-05 5.67782e-05 0.000118355 0.000117245 -9.35666e-05 -2.91581e-05 7.45729e-05 
-4.07354e-05 4.26204e-05 7.73378e-06 6.91456e-06 1.89639e-06 -2.08013e-05 -3.78862e-05 7.04731e-05 -4.95165e-06 
-0.000108972 0.000718451 3.61505e-06 -5.62063e-05 1.32709e-05 -3.43518e-05 -6.64205e-06 -1.27146e-06 2.34185e-05 
3.50446e-05 0.000225232 -7.09856e-05 0.00910851 -3.02061e-05 5.43949e-06 -7.26559e-05 -2.59106e-05 0.000108601 
5.28543e-05 -0.000134305 3.40437e-06 -2.2178e-05 4.56902e-05 -1.06751e-05 2.11957e-06 2.44208e-06 -3.69164e-06 
-6.80801e-06 1.65377e-05 -1.82297e-05 9.46694e-05 -4.21865e-05 -0.000162629 0.000379338 0.000978913 -0.00136942 
-0.00401905 -0.00486251 0.00113365 -0.00425151 -0.00157493 0.014178 -0.0238631 -0.00657738 -0.000110397 
0.000117514 -0.000152823 1.33632e-05 -1.18203e-05 3.96454e-05 9.67233e-05 -2.35521e-05 -0.00490342 -0.00381878 
0.000152013 0.000508842 -0.000222528 -0.000322556 0.000559901 -3.20544e-05 -0.00019514 4.37334e-05 -0.00153725 
0.0010979 -5.90651e-05 -5.18981e-05 -0.000134653 7.8757e-06 4.70566e-05 3.12929e-05 -0.000146333 -0.00398647 
0.000747144 -0.00936651 0.00189483 3.61207e-05 -3.55017e-07 -2.6416e-05 5.02597e-06 -3.42385e-05 1.33515e-06 
-0.000189505 0.000191782 -4.47702e-05 -0.000158878 0.000206685 5.72297e-05 1.63274e-06 -1.83111e-06 -7.28804e-06 
-0.0007316 0.000329015 -0.00516449 0.00139512 -5.81769e-05 6.58775e-05 2.10864e-05 3.05355e-05 5.80605e-06 
-4.1971e-06 -3.05978e-06 -2.02693e-05 6.59447e-06 -5.45526e-05 3.45816e-05 1.66547e-06 1.44214e-07 -1.98786e-06 
1.93107e-05 -0.000387324 -0.00103656 -0.00532384 0.00138988 -6.92189e-06 3.80782e-06 -7.29548e-06 2.91101e-05 
-9.43949e-06 1.80038e-05 -0.000138118 -2.88436e-05 -5.70556e-05 1.24293e-05 3.45617e-05 -4.57541e-05 -0.002394 
-0.000418973 -0.000214654 1.64967e-07 -0.000116883 3.90961e-06 4.62175e-06 -2.20189e-05 -7.34281e-07 1.26059e-05 
1.27992e-05 8.26882e-07 -2.06717e-05 5.12874e-06 0.000329546 -0.00056404 -0.000398426 4.37195e-05 8.58369e-06 
-1.49861e-05 -8.02257e-05 1.72581e-05 5.25165e-05 -1.31156e-05 9.04564e-06 0.000276232 -0.000490495 -5.65988e-05 
-7.61535e-05 2.80567e-05 9.15342e-05 -1.74354e-05 -0.00515612 0.0168543 0.000181993 -0.000551609 0.00183081 
0.000907951 -3.04915e-05 0.000117947 -9.49771e-05 6.15648e-05 -6.71506e-05 0.00132229 -0.00339589 0.00196509 
0.0246295 0.000219881 -3.95746e-05 0.000104519 -0.00590682 -0.00386347 0.0051214 0.000379001 -0.000199441 
0.000328621 1.01113e-05 -7.982e-06 3.09377e-05 9.05346e-06 -4.43928e-05 -0.0010927 0.0509349 -0.00639724 
0.0325857 -0.00247969 2.3936e-06 1.14144e-05 1.27137e-05 -0.000123315 0.000105333 -9.00509e-06 2.18694e-05 
5.32766e-06 -2.16882e-05 3.1631e-05 -4.43719e-05 -3.80603e-06 3.44867e-06 -5.81639e-05 1.3656e-05 -6.77023e-05 
3.74877e-06 2.30642e-05 -1.59771e-05 -1.45887e-05 1.20439e-06 -2.74618e-06 2.86963e-05 2.55373e-05 0.000307986 
-0.000265341 1.48796e-05 7.2726e-06 1.24758e-05 -2.81887e-06 4.15685e-06 -9.95771e-06 4.35287e-05 -7.74186e-06 
4.68577e-05 -1.98308e-05 0.000173525 -6.22482e-05 0.000141764 2.73901e-06 1.74001e-05 -3.95448e-06 2.31466e-06 
5.41201e-05 -1.55535e-05 -9.90687e-06 4.19147e-05 -1.56664e-05 5.00039e-05 -0.00011882 1.05213e-05 1.35339e-05 
-9.13603e-07 2.68945e-05 2.04047e-06 -6.508e-06 3.03568e-05 2.27481e-05 -4.01276e-06 0.000106014 -0.00013006 
9.79343e-06 2.25518e-05 -0.00010495 -8.38759e-05 -0.00017233 -4.66e-05 -5.34252e-06 1.09985e-05 0.0070258 
-0.000116137 2.121e-05 2.89836e-05 -2.73064e-05 5.52246e-05 6.41389e-06 -1.47392e-06 1.11468e-05 9.08014e-05 
0.000120778 -2.55021e-05 -7.4116e-06 2.7578e-05 3.59086e-05 0.0040868 -0.00555549 -0.000254858 0.000194813 
2.68275e-05 -4.21176e-06 6.53462e-05 -7.81337e-05 -1.82018e-05 5.43512e-05 1.74737e-05 -2.71655e-06 1.68096e-05 
8.27309e-05 2.57042e-05 -3.47752e-06 6.39901e-05 0.000189338 2.77715e-05 3.55226e-05 2.10329e-05 3.92408e-06 
-2.16408e-05 1.99371e-05 1.5107e-05 3.30049e-06 0.000309182 -0.000551634 0.00015097 9.61233e-05 2.06351e-05 
1.28403e-05 -1.67891e-05 9.93639e-07 -6.70903e-06 -1.65348e-05 0.00123929 -0.000340316 -5.39333e-06 3.30824e-05 
-3.40039e-05 2.19594e-05 -0.000129925 -0.00015184 -1.39358e-05 -2.4429e-05 7.72412e-06 -8.74263e-06 3.1418e-06 
1.70677e-05 1.61703e-05 -2.75326e-06 -0.00223368 0.000458272 -2.66451e-05 -2.20305e-05 -9.62831e-05 0.00013293 
-4.19777e-05 -1.88141e-05 3.46223e-05 -0.00188395 -4.19861e-05 -2.4492e-05 -4.21986e-05 7.81382e-05 1.53588e-05 
7.39313e-06 -9.8043e-06 1.24991e-05 -1.57805e-05 -0.00183524 -0.00307302 0.000130271 5.19307e-06 -7.60265e-05 
-1.01837e-05 3.45848e-05 1.02862e-05 5.00898e-05 6.37534e-06 -6.42148e-06 3.22119e-05 -2.37681e-05 7.67549e-05 
2.1749e-05 -2.62872e-05 -3.54801e-05 6.27305e-06 -0.000351463 0.00136094 0.00060713 1.88199e-05 -0.000538159 
-0.000935034 -0.000426896 -0.00136269 0.0103658 -0.00369341 0.000121125 -8.446e-06 2.71431e-05 7.13654e-06 
0.000129739 0.000243474 2.21416e-05 -1.09412e-05 1.15924e-05 -3.61965e-06 -7.51011e-05 3.07041e-06 4.20844e-05 
-0.0132633 -0.00901581 2.62135e-05 -3.0657e-06 6.424e-05 -1.54102e-05 6.4823e-05 -4.75775e-05 -0.02394 
0.0278973 0.000101965 -3.54853e-05 5.6996e-05 0.0142148 -0.00469874 -0.00014161 7.67809e-07 -3.04227e-05 
0.000157407 0.000216524 3.13279e-05 0.000424141 0.000862524 3.42682e-05 -4.85093e-05 1.34868e-05 -5.31001e-05 
-1.26499e-05 0.000235395 -2.90612e-05 0.000100895 4.27609e-05 -0.000135653 0.000276456 0.00121594 -0.000737672 
-0.000126142 -6.13088e-05 0.000150261 0.000116563 0.000316458 4.50305e-06 -0.00304556 -9.63448e-06 2.14333e-05 
-0.018661 -0.007478 0.000141374 -3.25144e-05 -2.74854e-05 -2.17641e-05 -4.93229e-07 -1.82822e-05 5.25316e-06 
1.74466e-05 4.65931e-05 -3.11982e-06 -7.17478e-05 -2.36271e-05 1.13681e-05 0.00350115 -0.00913181 -0.00962534 
-8.436e-05 0.000283058 -0.00135152 -0.000385472 -1.10983e-05 -0.00016206 3.28707e-06 5.76988e-06 9.49771e-07 
0.00366031 9.8604e-05 0.000383557 3.54199e-05 -4.01767e-05 -0.000102279 -1.79279e-05 -5.95481e-05 4.52963e-05 
-1.32186e-06 -4.45857e-05 -7.9031e-05 0.000539158 -1.65362e-06 9.45827e-05 -7.88654e-05 -0.000154697 7.42334e-06 
-1.26773e-06 6.0401e-06 -9.80612e-07 -2.80038e-06 -0.0203404 -0.00109153 -1.75525e-07 -5.8929e-06 -3.35479e-07 
1.86873e-06 5.29593e-05 -6.20734e-05 -5.63953e-06 -3.78252e-05 1.86938e-05 -3.00174e-05 -0.000608198 0.0158883 
0.000393593 1.11135e-05 0.00130532 0.000928243 -9.2115e-05 3.41386e-05 3.23187e-05 3.85271e-06 -0.00579067 
-0.000113239 -0.000220928 0.000349213 3.6545e-05 -0.000491614 0.000253726 -0.00843949 -0.00102991 -3.70227e-05 
2.63835e-05 2.8448e-05 2.68046e-05 -1.31733e-05 -1.03223e-05 1.35864e-06 -6.82538e-05 -1.53747e-06 -3.01097e-05 
-0.000417218 1.38487e-05 5.45237e-05 4.0331e-05 -1.94905e-05 -1.14768e-06 -1.41865e-05 0.015089 9.92332e-06 
2.85727e-05 1.82889e-05 2.96847e-06 -3.33649e-06 2.97426e-06 -1.36574e-05 -3.60881e-05 2.39571e-05 3.51171e-06 
2.46781e-05 1.10089e-06 7.70258e-05 0.0411218 -2.40406e-06 3.97641e-05 1.18649e-05 -9.02307e-06 -3.56135e-06 
-1.31082e-05 1.08683e-05 5.20574e-06 -4.0226e-06 -2.88776e-05 -5.37083e-06 -4.38402e-05 1.91488e-05 -3.71309e-06 
-6.85955e-06 -3.22157e-07 -3.74016e-06 2.0576e-05 2.45998e-06 -3.11004e-05 1.1596e-05 7.96667e-05 5.11511e-06 
3.92885e-07 1.44835e-05 -2.49421e-05 -3.79936e-06 -3.21516e-06 -4.96358e-07 2.57733e-05 3.28763e-05 7.017e-06 
0.00011747 0.000530972 -1.03031e-05 1.36503e-05 3.9857e-05 -8.63561e-05 0.0157424 0.0168861 -0.00430175 
-0.00541365 -8.2906e-06 -6.02456e-06 -5.35705e-05 0.000100561 -4.2379e-05 4.38106e-05 -1.40169e-05 -0.0443432 
0.0443842 -9.42134e-06 8.20241e-06 6.98939e-06 7.31981e-06 -2.1879e-05 -2.84805e-06 4.99965e-05 -3.45902e-05 
8.19529e-06 -5.10674e-05 4.87162e-05 -0.000119073 9.50732e-05 0.000584351 -0.000755831 0.000291654 -3.94218e-05 
-9.08776e-05 8.75526e-05 -5.86725e-06 4.06809e-05 1.78779e-05 -5.12385e-07 -0.000660366 -0.000594213 7.38525e-05 
-0.00835267 -0.00361674 0.00175413 9.65852e-06 2.84905e-07 -0.000101994 4.8678e-05 -2.84176e-05 -6.17033e-05 
1.334e-05 -0.000104039 -4.9858e-06 -3.5039e-05 1.78267e-05 -0.00330704 -1.41986e-05 -2.11968e-05 -1.45974e-05 
-0.00360549 1.79492e-05 1.58357e-05 -2.46574e-05 1.92548e-05 1.48529e-05 -3.53175e-05 2.08281e-05 -3.16653e-06 
-3.31396e-06 7.84005e-06 -2.00642e-05 2.49653e-06 -3.47465e-05 1.6434e-05 1.8617e-05 2.5731e-05 -5.76487e-05 
-0.00041399 -8.27454e-05 9.43919e-05 -0.000484275 -7.54324e-05 -8.83241e-05 0.000895094 2.01998e-05 -2.93242e-05 
-9.67035e-05 0.000193619 0.000198703 7.12943e-05 -0.000385964 -2.2523e-06 -0.000130667 0.00155844 0.000133293 
1.91239e-06 -0.000114392 -0.000108844 -9.47755e-06 -3.41466e-05 8.06982e-06 -2.86778e-05 -0.000191656 -2.11774e-05 
-4.06448e-05 -3.35081e-05 3.61166e-06 1.56625e-07 1.99903e-05 0.000232171 5.28093e-05 -6.4761e-07 2.10501e-05 
2.72908e-05 1.5472e-05 -2.38863e-05 3.2167e-05 2.57719e-05 -2.28648e-06 3.19687e-05 0.000289009 -0.00011088 
8.00566e-06 -3.53046e-06 -1.05326e-05 1.7806e-06 4.32634e-05 2.2938e-05 -4.23652e-05 0.000154396 0.000124518 
2.3889e-05 0.000118654 -5.20294e-05 -1.39907e-05 0.000296662 -7.85309e-05 -0.000416956 0.000210555 -2.76709e-05 
2.75777e-05 -1.38728e-05 1.21007e-05 2.59009e-05 -4.29141e-06 -2.32914e-05 2.00067e-05 4.43139e-05 2.59294e-05 
-0.000120229 9.80218e-06 7.34727e-06 2.80238e-06 -0.0113588 -0.00702484 0.0255667 2.93447e-05 -4.12721e-05 
-8.97892e-05 2.02597e-05 2.46597e-05 9.13191e-06 -3.74539e-06 -1.52111e-05 9.05313e-06 -2.66812e-05 0.00670042 
0.00817798 5.10258e-05 -0.000128717 -2.88309e-05 0.000108453 -9.44164e-05 -0.000378508 -0.0093407 -0.000119637 
-6.36312e-05 1.90238e-06 0.00014367 7.16697e-06 -0.000248216 3.90052e-05 -1.26991e-05 3.06979e-06 -1.92278e-05 
3.63139e-05 6.08606e-05 -0.000230133 -0.000178164 1.166e-05 -3.45524e-05 0.000241242 -0.0106169 0.000220652 
2.32772e-05 -4.80244e-05 6.67858e-05 -3.21155e-05 -1.39517e-05 -0.000512183 -0.000180348 1.11989e-05 -3.05854e-06 
1.56864e-06 -7.03686e-07 2.95977e-06 -4.95537e-06 -7.93389e-05 -4.81554e-05 1.59535e-06 -0.000184504 0.000251096 
-0.000805746 2.8738e-06 -0.00121686 -5.01736e-05 2.6862e-05 -6.77474e-07 1.73616e-05 0.000219815 -7.44801e-06 
-3.63675e-05 -4.98583e-05 8.43121e-07 -3.31442e-06 5.85883e-06 4.38935e-06 5.53045e-06 1.37119e-05 4.46568e-06 
-1.18831e-05 2.14275e-05 -1.83105e-06 0.000559163 -0.000239864 7.81022e-05 -0.0210251 -0.00186592 -8.39336e-05 
5.59167e-05 -2.63941e-05 7.23872e-06 -0.00391654 0.000534232 -0.000337877 0.000423063 -3.28267e-05 -4.13383e-06 
-3.6743e-05 -0.000114111 1.99386e-05 -4.96757e-05 -7.76631e-05 -7.43308e-05 -4.10095e-05 1.39077e-05 -8.11988e-06 
1.07518e-05 -7.50888e-05 5.79312e-05 0.00208183 -0.0001886 -0.00232806 1.90113e-05 2.64485e-05 -1.92953e-05 
3.33529e-05 0.000193123 -8.84132e-07 -6.13474e-05 -7.418e-05 -4.89756e-05 -0.000120239 0.000156342 0.000318254 
-0.000145189 0.0195455 7.90009e-05 0.0105482 2.54246e-05 0.000198779 -4.15543e-05 4.49227e-05 -6.35982e-06 
-7.39599e-07 2.1416e-05 -1.14363e-06 -7.54941e-06 -4.41566e-05 7.01789e-05 2.82155e-06 -2.72967e-06 2.51858e-06 
3.17182e-05 -4.58084e-06 4.50353e-06 -1.12592e-05 -1.74094e-05 -8.65186e-06 -5.52016e-06 -2.35923e-05 -2.16487e-05 
-0.000326939 -0.000151124 3.72779e-06 5.96212e-05 4.36149e-06 4.58503e-05 -8.03002e-05 2.13381e-05 3.7191e-05 
-5.26261e-05 -4.06487e-06 -9.72825e-06 5.03156e-05 0.000184855 0.000819385 0.000952386 7.37344e-05 7.14828e-05 
5.16097e-05 -2.22647e-05 -3.61234e-05 4.79208e-05 0.000546523 -8.17529e-05 -3.28283e-05 -2.25003e-05 -2.71201e-05 
-3.70464e-05 2.30727e-05 3.59555e-07 5.45406e-06 0.000870519 0.00098355 1.06515e-05 -2.65648e-06 -1.85186e-05 
7.23438e-06 -0.00225783 0.00832745 -0.010038 -1.0624e-05 2.9498e-05 2.09571e-06 -6.73772e-05 4.38715e-05 
4.40611e-05 0.00018048 -3.7717e-05 0.0120787 2.49858e-05 -7.1791e-05 0.000250833 -2.65172e-05 -2.0621e-05 
-2.6038e-05 -5.80466e-06 0.000212185 9.21088e-07 -1.71195e-05 0.000143836 3.4422e-05 2.3236e-05 -8.26884e-06 
6.90842e-05 -2.71737e-05 -4.30414e-05 -6.45902e-05 7.07913e-06 8.83433e-05 -3.19564e-05 -1.44176e-05 5.81431e-06 
-5.72054e-05 0.000943758 -0.00147429 -3.86772e-05 -0.000883592 -0.00275593 -0.0160554 0.0261921 -0.00858393 
0.0256799 1.51457e-05 2.62312e-05 1.06333e-05 -1.58175e-05 -3.15971e-05 2.70245e-05 8.8207e-05 1.02202e-05 
-6.88012e-06 2.15437e-05 -4.45651e-05 -7.52533e-05 -4.61355e-05 -3.62739e-05 -1.85407e-06 1.63964e-05 2.53918e-05 
-1.26535e-06 0.0129258 -2.2642e-06 5.07706e-05 -3.01253e-05 -1.1974e-05 2.41664e-05 -0.00465279 -0.00012232 
9.61836e-05 0.000259341 -0.000103383 -2.00605e-05 -0.00010264 0.000101928 -1.89565e-05 3.53247e-06 2.78035e-07 
-1.97605e-05 -7.32319e-05 1.57591e-05 5.42672e-07 9.90697e-05 -3.37554e-05 -1.45026e-05 -2.79755e-05 -0.000146336 
0.000695567 -0.000155921 0.000719829 -1.66216e-05 -1.87255e-05 -1.65581e-05 -2.44206e-05 -0.00110976 -0.00163042 
0.000352865 -8.88916e-05 1.78092e-05 -4.37283e-05 5.61167e-07 -4.58727e-05 -1.01667e-05 -1.90265e-05 0.000398123 
7.94195e-06 1.16689e-05 -4.4107e-05 -0.00018212 -0.00334069 2.19205e-05 2.23457e-05 6.50322e-05 -1.49245e-05 
1.1456e-05 1.74033e-05 3.77043e-06 0.000519743 -5.83011e-05 -7.60034e-06 6.18103e-05 -2.38524e-05 3.49527e-05 
0.00130896 6.85247e-06 -2.86002e-05 -5.04065e-06 4.59412e-05 2.52522e-07 -9.9286e-05 4.17246e-05 -2.13848e-05 
-2.45519e-05 0.000340205 -0.000521337 4.39307e-05 -0.00497176 -0.000403575 -1.38677e-05 -2.7888e-05 1.24589e-05 
-2.19183e-06 -4.86036e-07 -0.000180444 -0.000167261 5.00274e-06 -5.80662e-05 0.000170103 7.12712e-05 1.06012e-05 
5.04229e-05 1.3514e-05 1.01906e-05 -1.16928e-05 1.55951e-05 -9.08668e-05 3.38084e-05 -1.51656e-05 2.49854e-05 
-4.76e-05 -4.57216e-05 -6.17766e-05 -1.74521e-05 4.25464e-05 8.78824e-06 -4.24016e-06 -4.03848e-05 -1.85304e-05 
7.32858e-05 7.6378e-05 -0.000122773 -1.29754e-05 1.46331e-05 9.29355e-07 2.27232e-05 2.42813e-06 3.81915e-07 
-1.97379e-05 -4.9852e-06 -1.95637e-05 -1.24912e-05 -4.25492e-05 0.00677305 -0.00257507 0.000388266 0.000105531 
-7.92617e-06 0.000447837 -0.00412952 -0.00224132 -8.34187e-06 0.00115921 -6.00444e-05 -0.000113053 -9.42233e-06 
-7.25557e-06 0.000359557 0.000110584 0.000391895 -7.51266e-05 -5.69548e-05 0.00133136 -0.00325094 -0.00284634 
0.0153798 0.0131923 -0.000121243 -0.000673013 -0.000109098 -1.28593e-05 7.33564e-06 6.64417e-07 -5.7605e-06 
-5.83942e-05 -0.000118567 -6.13329e-06 5.36611e-05 3.44515e-05 -5.48206e-05 -2.48109e-05 1.59265e-05 1.57588e-06 
-3.14466e-06 -6.86031e-05 0.000143097 -3.53802e-06 -7.09893e-05 1.89452e-05 -2.06288e-05 -1.00873e-05 -2.19121e-06 
0.000182802 8.68635e-05 8.49584e-05 6.28832e-06 -0.000441384 -7.21531e-05 3.97589e-05 6.38144e-05 -4.83975e-05 
-0.000784989 1.23257e-06 -5.05318e-05 2.22172e-05 1.99367e-06 -1.97597e-06 -1.20381e-05 -0.000287808 -0.00037663 
0.00985465 0.00143911 1.08481e-05 5.8404e-09 2.49579e-06 0.000740035 0.0130493 0.0100014 8.06526e-06 
-2.41015e-05 -2.25555e-05 7.04382e-06 5.83847e-05 -3.2636e-05 1.34823e-05 -1.56293e-05 -2.19363e-05 -7.48472e-05 
2.88303e-07 0.000114522 0.00937704 5.78666e-05 -0.000114903 8.04883e-05 0.0113493 -0.00627354 -0.0205357 
0.000384023 2.1556e-05 -1.64041e-05 1.62412e-06 -7.48317e-06 1.70472e-05 -4.71367e-05 -0.00010107 -2.48632e-05 
3.24068e-05 -0.00164911 -9.29462e-06 0.00812324 0.00605233 -0.00334249 -4.27886e-05 8.09748e-05 0.00411146 
2.13754e-05 3.40805e-05 -5.83117e-05 6.25784e-05 0.0242919 0.00903463 -0.000127093 2.71747e-05 -6.42716e-05 
7.44972e-06 6.6229e-06 2.24129e-05 0.0545036 0.0279158 0.00111943 -0.000344667 -1.86037e-05 -1.00835e-05 
-1.34517e-05 -2.56171e-06 0.0104365 -4.01676e-05 4.15888e-05 2.50647e-05 5.09322e-06 -3.04923e-05 0.00948324 
-2.04711e-05 8.8141e-06 -0.00122653 -1.29188e-05 -2.19216e-05 4.52811e-05 -1.07695e-05 2.07528e-05 -1.59377e-05 
0.0177934 0.0271342 -0.00313993 0.0199445 -2.27629e-06 2.10696e-05 -1.5688e-05 -3.49647e-06 1.27681e-05 
-1.08102e-05 -2.37042e-05 -7.17937e-05 -2.42839e-05 -3.86289e-06 3.83367e-05 -0.000346642 -0.000176735 5.50912e-06 
-1.13645e-05 -0.00634463 -2.0985e-06 1.92858e-05 -2.93772e-06 1.38233e-05 3.2358e-06 5.67403e-07 1.88806e-05 
1.2954e-05 2.7182e-06 7.47529e-06 -2.33733e-05 0.000459312 0.0054552 -0.00336796 0.00514536 -0.00372083 
0.00806222 -0.00933303 0.000216985 -5.90768e-05 0.0138294 0.0144037 -1.1845e-05 0.00288145 5.16144e-06 
7.34955e-05 4.93412e-05 -1.42525e-05 2.79859e-05 -3.67879e-05 1.70251e-05 -9.70557e-07 -3.4702e-05 -1.98831e-07 
-0.000819614 -4.94427e-06 -9.25585e-05 1.71814e-05 1.83065e-05 -0.00041802 -0.000381789 -1.44822e-05 5.7144e-06 
0.00345994 4.61561e-06 -1.68576e-05 1.08111e-05 3.84481e-05 -4.73115e-06 -1.10495e-05 -2.35278e-05 3.44894e-05 
3.84723e-05 -1.67334e-05 -4.03769e-06 -1.58575e-05 -7.08708e-06 -1.57513e-05 -9.38323e-06 -7.69845e-06 8.79634e-05 
-3.96845e-06 5.62717e-05 3.86833e-05 -4.77329e-05 -8.15434e-05 1.72148e-05 7.38769e-06 -6.92724e-06 0.00448592 
-4.40116e-05 7.13878e-07 -2.69512e-05 -2.97282e-05 -4.50495e-06 -3.20524e-05 2.47333e-05 9.15206e-06 2.72404e-05 
0.000167388 -0.000105325 -0.00013988 0.000258099 4.13173e-06 -4.34739e-05 2.81485e-05 5.59842e-05 4.93231e-05 
-0.000187333 4.88876e-05 -3.35264e-06 -2.03935e-06 -2.40281e-05 6.14181e-05 -2.61918e-06 8.30149e-06 0.000910364 
1.61706e-06 0.00154534 0.000573011 -4.45613e-06 1.57286e-05 1.47182e-05 -1.4039e-05 6.84624e-07 -8.20442e-06 
-4.9658e-05 -4.87612e-07 -9.64779e-06 0.00471562 -1.03166e-05 2.00623e-05 -3.22537e-06 -9.75528e-06 -2.93131e-05 
9.08498e-05 -1.16709e-05 3.18927e-06 -4.82402e-05 0.000139931 1.32959e-06 -6.73973e-06 -9.17599e-06 -7.65357e-05 
9.69647e-06 -1.47136e-05 1.63287e-05 1.88729e-06 9.35513e-07 -0.0139472 -0.0107558 -8.27627e-05 -1.01468e-05 
-2.28191e-05 -1.85154e-06 0.0140443 -0.000365066 1.78673e-05 2.69928e-05 -3.74549e-05 -1.35004e-05 -1.16589e-05 
8.62187e-06 -0.00328593 -0.00752065 1.38554e-05 -0.000335337 -3.88378e-05 5.41146e-06 0.000184422 -5.24581e-05 
0.000102695 0.000176942 6.10227e-06 -7.17564e-06 -0.00125322 -0.00395114 0.000682706 -5.69331e-05 -7.95708e-06 
-6.57219e-05 0.00048317 9.56023e-06 -1.92291e-06 8.88721e-06 0.00147383 0.000729137 -0.000412092 -5.07982e-05 
7.0537e-06 0.000187994 -3.59991e-05 1.05339e-05 -1.24759e-06 0.000151133 5.90893e-06 -9.18099e-06 -1.83236e-05 
-2.66575e-05 7.53912e-06 4.11043e-06 0.0101803 1.43803e-05 -3.46759e-05 -0.00735199 1.62546e-05 -1.96608e-05 
-7.08884e-05 -2.25185e-05 -1.56649e-05 0.000119929 -0.000265896 3.11295e-05 4.55131e-05 -3.44485e-06 0.000182217 
-0.000125391 -6.60635e-06 -1.42594e-05 -3.26063e-05 -3.30118e-06 -3.36776e-05 -1.79535e-06 -3.12026e-05 3.06552e-07 
-3.92284e-07 -7.58836e-06 1.08275e-05 0.000100528 8.33101e-05 -3.837e-05 -8.6684e-06 2.72826e-05 -8.27438e-07 
-7.21534e-05 5.05541e-06 4.21174e-06 4.11417e-05 -3.77364e-05 6.08661e-05 1.33532e-05 -1.91579e-05 -6.22402e-06 
-1.95919e-05 2.41283e-06 2.48994e-05 -4.41664e-05 2.10345e-06 -8.39317e-08 -1.0852e-05 -3.00661e-05 -9.6422e-05 
0.00193233 2.16594e-05 -5.8598e-06 4.99602e-05 -0.000107087 1.88738e-06 1.12537e-05 -0.000132789 -4.47228e-06 
-0.000134216 -0.00304426 2.02516e-05 0.000143884 0.0132859 -0.00210178 0.0121089 -7.87077e-06 0.000133251 
-1.43642e-05 2.84146e-05 -1.51993e-05 5.67032e-06 0.000192828 0.000550795 -0.000183214 1.97641e-05 -1.45055e-05 
6.41888e-06 6.70042e-07 -5.98023e-05 -5.66949e-05 -0.000376123 -3.0329e-06 -7.37368e-06 -1.14741e-05 4.70076e-06 
-0.000134417 -8.06937e-05 -1.06573e-05 0.00811165 0.000190975 3.0336e-06 -3.61854e-05 -0.000191544 -0.000274665 
-0.00064932 -0.0012095 0.000421431 -1.458e-05 -4.40661e-06 5.47049e-06 1.69764e-06 -1.80748e-05 3.35007e-05 
-8.41306e-06 2.2256e-05 -3.01768e-05 -3.88387e-06 -0.000105913 1.30477e-05 -2.9899e-05 4.14214e-05 0.000112025 
-6.44258e-05 0.000792562 0.000305911 -9.39828e-06 3.81539e-06 0.000186238 -8.44533e-05 6.54977e-06 -6.25633e-05 
1.545e-05 -0.000101313 8.90044e-05 -4.29024e-05 -0.000109577 1.56922e-06 -3.62339e-05 2.79134e-05 -6.66412e-06 
0.000168893 -8.60127e-05 -0.000112232 9.36639e-06 1.92727e-07 6.52353e-05 -6.67218e-05 2.10365e-05 1.74849e-05 
7.2906e-05 -2.21739e-06 3.88741e-05 9.19078e-05 -4.94083e-05 -2.02529e-05 -1.94534e-05 -0.000489269 0.00048917 
0.00165063 2.2045e-05 -0.000179676 1.48798e-06 -7.4394e-06 -5.77998e-06 0.00201714 5.37585e-05 4.00097e-05 
1.51305e-05 -9.713e-05 -9.02205e-06 4.1606e-06 -4.55383e-06 7.87197e-06 7.04359e-07 3.97345e-05 0.000894546 
2.56121e-05 4.18783e-06 1.491e-05 -4.65806e-05 5.02372e-05 2.04376e-06 4.4155e-05 2.87391e-05 -0.000107099 
-4.66374e-05 -9.71376e-06 -7.19866e-05 -2.23303e-05 3.92291e-05 -0.000417081 6.22483e-05 2.04067e-05 -7.83634e-07 
-0.00455744 -0.00429466 -0.0036524 -9.17055e-05 6.49706e-05 -3.31057e-05 -2.4086e-05 -0.000105278 0.000120004 
-3.35786e-05 -2.64831e-05 -9.77901e-05 -1.62174e-07 0.00996707 -3.75072e-05 2.2974e-06 4.3708e-05 -0.000163803 
-1.18669e-05 -1.43441e-05 -0.000588932 -0.000470103 -0.00479061 0.00210333 0.00530369 -0.000225873 -1.28264e-05 
1.24501e-05 2.07542e-05 2.32324e-05 0.00837571 1.25418e-05 3.16202e-05 -1.51232e-06 -2.27351e-05 1.14494e-05 
-8.49011e-07 3.91783e-07 0.0111704 7.97327e-05 -8.65234e-05 5.96389e-06 -2.94536e-05 -4.54251e-06 -0.000664757 
3.85852e-05 -4.50143e-05 -1.71052e-05 -6.94036e-06 9.5566e-06 -1.41615e-05 -1.40918e-05 2.20424e-05 -0.000324185 
-3.17303e-05 -8.64749e-05 -2.34257e-06 2.68541e-05 -2.352e-05 7.70824e-05 -8.84871e-05 8.33036e-05 -1.4985e-05 
0.000129662 -8.53898e-05 1.1656e-05 5.94563e-06 -1.68636e-06 2.94768e-06 3.27967e-05 1.9047e-05 4.96569e-05 
-5.47422e-05 -3.08996e-05 -1.6948e-05 0.00781192 0.00196126 -1.53676e-05 -1.59627e-06 2.78889e-06 8.06387e-06 
-0.000221839 9.3615e-06 4.94776e-05 -1.12578e-05 -3.87919e-05 -2.93603e-06 2.47043e-05 -6.15168e-06 8.23521e-06 
-6.46092e-05 0.000306698 6.33934e-05 5.31959e-05 6.5441e-05 -4.72811e-05 -3.62175e-06 2.11865e-05 0.0136391 
-2.53418e-05 -9.52619e-06 -2.12035e-05 -1.37744e-05 -3.45841e-05 -3.5012e-05 0.000121602 0.0098137 0.00011779 
-4.60446e-05 7.65244e-05 0.000161337 0.00979161 0.0138421 1.523e-06 -0.000503914 0.00746792 -3.41066e-05 
-1.37246e-05 -1.483e-05 3.25542e-05 -4.43123e-05 0.00026867 -1.66279e-05 5.25365e-07 1.53646e-05 1.9323e-05 
1.50271e-05 -1.78362e-06 0.000253316 5.73193e-07 -3.23581e-05 -0.000106299 -0.000103209 -0.000130861 -1.31796e-05 
-3.28708e-05 0.000192919 -4.01641e-05 -3.2501e-05 7.24144e-05 0.000481186 1.9551e-05 -3.83756e-05 4.13391e-05 
-0.0065306 0.0101875 -0.00220902 -6.5949e-05 -6.91761e-05 0.000357706 3.59835e-05 8.31001e-05 2.31658e-05 
-1.24389e-05 -2.74164e-05 -5.13631e-05 6.62921e-07 4.17753e-05 -0.000361732 -7.86984e-05 1.37526e-05 3.44908e-05 
0.000114273 -6.58935e-05 0.000184582 2.88151e-05 8.36784e-06 -2.69475e-05 -0.000202682 -1.25704e-06 -6.72816e-05 
3.43259e-07 8.1976e-06 1.34313e-07 0.000103154 -0.000891634 -0.00317102 -1.4747e-05 1.17477e-05 1.23228e-05 
4.20785e-05 -9.15218e-07 -1.86744e-06 -0.00016311 -0.00536355 -0.00321766 -0.0035734 0.012425 0.00961579 
-0.000530014 -4.65345e-05 -2.37592e-05 -2.17425e-06 -0.00133372 0.0373508 -0.0459888 4.31856e-05 9.73758e-06 
5.19304e-06 0.000429808 3.96282e-05 -0.000109586 0.000128597 0.00220176 -0.0063408 -3.83896e-06 3.20557e-08 
0.000120524 -0.000107107 4.62632e-05 -0.00442385 -0.0109456 3.42533e-05 -5.09094e-05 2.48782e-05 -3.75779e-05 
-1.70947e-05 1.69395e-05 -2.16318e-05 9.44313e-06 -3.86156e-05 -0.00462293 2.58202e-06 2.40527e-05 8.3067e-06 
0.0074223 0.000101314 0.000111821 -1.06324e-05 -3.38233e-05 3.24846e-05 -0.000130837 0.000121135 1.55761e-05 
6.91904e-06 -7.15999e-07 6.58635e-06 0.00653091 -0.00312727 -0.000935722 0.000263389 -2.44645e-05 -1.99234e-06 
6.0229e-05 -1.02932e-05 0.000539782 0.000240269 0.0063162 -1.71313e-05 -0.000102879 -0.000144464 -8.38538e-05 
4.35241e-05 0.000235677 -0.000804012 0.0002083 0.00182284 8.50318e-05 -0.00168882 0.0022641 -9.85963e-06 
-9.95947e-05 -0.000134567 1.099e-05 3.15085e-05 -1.32406e-05 4.69917e-05 1.93788e-05 -4.67263e-05 0.000250364 
1.11937e-05 1.92755e-05 -2.6641e-05 -8.86088e-07 3.47965e-06 6.70343e-06 5.51881e-05 -5.36001e-05 -0.000467608 
0.000961173 0.000233177 0.000768514 -1.90486e-07 0.000282905 0.0260614 4.61938e-05 1.79136e-05 -7.24752e-06 
6.65001e-05 2.51811e-05 0.0234109 0.000268021 9.6131e-05 0.000105076 -1.36047e-05 -5.37058e-06 -5.7618e-05 
-0.0042898 -0.00136758 0.000620341 1.80513e-07 -0.000196804 0.00703011 0.00352645 -1.18688e-05 -1.42247e-05 
4.28821e-05 -8.3319e-06 -4.01207e-05 -5.24171e-06 -0.0118386 -0.00174001 0.00233535 0.000145904 -6.70812e-05 
0.00943817 -5.04305e-05 1.55794e-05 1.00723e-05 -0.000127454 3.01767e-05 7.56969e-05 -0.000149353 0.00559644 
-0.000117778 9.30239e-05 -8.31016e-06 -3.36487e-06 1.04746e-05 0.000164869 -6.15228e-07 -0.000208222 1.13658e-05 
0.000145905 2.14338e-05 -4.72336e-05 3.58915e-05 -1.54615e-05 -7.07978e-07 3.62284e-05 1.31871e-05 -9.95107e-05 
-0.000409961 -7.58112e-07 1.41784e-05 -0.000620713 0.000100697 7.83069e-05 -1.37422e-05 -0.000113557 -0.000136152 
-0.000226091 0.000329784 6.90634e-06 -0.000332259 0.000287118 -0.0130178 -0.00232514 -6.9851e-06 -2.81281e-05 
-0.000112202 -1.3805e-05 3.03809e-06 4.19395e-06 4.40255e-05 0.000578724 -0.000191473 0.00269621 0.000320021 
-0.000427786 -0.000230054 2.98647e-05 0.000138915 -8.23104e-05 3.13041e-05 4.92227e-05 0.00034108 0.00190249 
-0.00851371 -0.00189601 3.55022e-05 -1.60893e-05 1.05454e-05 4.02302e-05 -5.42948e-05 -8.31366e-05 3.15472e-06 
2.51497e-05 4.0448e-05 -1.17158e-05 1.74069e-05 0.000370702 9.15394e-06 1.00376e-05 2.58195e-05 -9.05364e-06 
-5.40236e-06 -1.20051e-05 -3.41189e-05 -3.5759e-05 -1.16535e-05 1.38752e-05 0.000176957 -4.12186e-05 9.20648e-06 
4.19054e-06 0.000573008 8.72241e-05 2.28339e-05 0.0116279 -0.0074877 0.0121861 0.0092868 0.000106557 
8.91762e-06 1.15412e-05 1.56389e-06 -0.0120116 1.376e-05 -0.00382389 0.000196473 2.20666e-06 8.71228e-06 
1.31639e-05 -1.55985e-05 -1.60522e-05 -6.23059e-05 -1.98901e-05 4.60971e-05 2.42466e-05 -2.52152e-05 -9.24249e-05 
-1.14835e-05 -6.94564e-05 0.00156081 0.0154927 3.43709e-06 -1.44262e-05 2.89313e-05 1.74196e-05 -2.08731e-05 
-2.0561e-05 1.92707e-05 3.82458e-05 0.000101922 2.43536e-05 1.08325e-05 -2.01175e-05 -3.16916e-05 1.65299e-05 
-3.38987e-05 3.78367e-06 2.5143e-06 -2.36234e-05 1.85294e-05 -2.80563e-06 0.00326279 -4.52295e-05 8.13231e-05 
-2.78207e-05 1.76054e-05 0.00846717 4.99401e-06 -0.0016467 -8.6992e-05 1.73555e-05 -6.69495e-05 4.33275e-05 
-0.000427365 1.46449e-05 -0.000509025 8.20211e-05 -0.000100693 5.6438e-05 1.62508e-05 1.62066e-05 -6.70791e-06 
-3.18753e-05 -4.60476e-06 -2.00764e-05 -1.57628e-05 0.00019708 0.000208615 1.4343e-06 -0.000171097 1.14639e-05 
1.58874e-05 0.00116536 -2.00856e-05 1.86632e-05 1.86977e-05 6.27593e-05 4.02651e-06 1.5561e-05 -3.56464e-06 
2.04896e-05 0.000158433 5.02872e-05 -1.8684e-05 -3.08771e-05 1.37485e-05 -2.33116e-05 0.000197713 -1.13104e-05 
-2.28057e-06 -1.07098e-06 2.38271e-06 5.87706e-05 -1.03014e-05 9.3666e-06 -0.00549331 -6.02549e-05 -0.00916221 
0.00837725 -0.00588229 0.000152471 -7.42509e-05 0.000204439 -0.00262511 0.000218138 -0.000573434 -0.00110902 
0.000374398 -0.000197732 7.03949e-05 -4.635e-05 3.36871e-07 0.000746108 2.72056e-06 3.90523e-05 1.02981e-06 
7.86391e-06 -3.04935e-05 4.68446e-05 1.48892e-05 -7.3492e-06 -0.000300966 -1.9285e-05 -4.55366e-05 0.000139355 
-9.91789e-06 -3.30736e-05 6.03326e-05 -4.97492e-05 -4.09939e-05 -2.05945e-05 -6.53716e-06 -1.69135e-05 -6.50388e-05 
-0.00011275 0.000291125 -2.28482e-05 -3.41904e-05 0.000120373 0.000952851 0.000523905 -2.59862e-05 0.0101645 
8.04695e-05 4.15924e-05 -2.53076e-05 9.58521e-06 -7.26335e-05 -9.82698e-06 -1.58544e-05 2.73245e-05 0.000965366 
1.87653e-05 6.63661e-06 9.31007e-05 1.47002e-05 1.46434e-05 1.77926e-05 -5.80786e-05 1.45148e-05 8.34815e-05 
0.000306465 0.000101068 -0.000250389 0.000344054 0.000892307 0.000229443 -0.00400014 3.60968e-05 0.00129767 
-0.000521101 0.000498045 -4.95036e-05 1.54478e-05 0.000194553 0.000469693 7.06372e-06 -5.46522e-05 -9.65325e-06 
4.06056e-05 -3.6363e-05 -2.01402e-06 2.50343e-05 8.6212e-06 0.00349243 -4.02851e-06 -8.92396e-06 -0.00291123 
0.00128199 0.00600023 5.7201e-05 0.01884 -2.25895e-06 5.18495e-05 -1.37116e-05 2.61447e-05 3.76376e-05 
0.00672141 0.00240321 -6.09718e-05 -1.14819e-05 -6.71686e-06 1.00907e-05 1.18958e-06 -4.66652e-06 -4.45274e-05 
1.01961e-06 0.000154949 -8.75094e-05 1.66756e-05 5.14609e-05 3.34396e-05 7.39759e-05 -0.000298681 2.14691e-05 
0.000118271 1.01965e-06 -1.82278e-05 3.43322e-05 0.000120561 0.000394229 0.000254832 -7.33763e-06 0.000263149 
9.25129e-05 5.59594e-06 -2.48895e-05 0.000470704 2.35654e-05 -0.000100855 -7.19644e-05 5.95731e-05 -5.28122e-05 
1.65619e-05 -0.000103317 0.000116521 2.41763e-05 6.1766e-05 -0.000183687 -2.98831e-05 -2.83124e-05 1.63942e-05 
-3.55692e-06 -2.0562e-05 4.32872e-05 -1.12721e-05 -0.000262343 -4.62963e-05 -5.31818e-05 -0.000183582 -5.38739e-05 
2.59869e-05 -3.18589e-07 1.79826e-05 5.55974e-05 8.2456e-05 0.000100996 -3.05975e-05 0.000102584 0.00131626 
0.0128997 0.000302254 8.81699e-06 3.68142e-06 -3.91403e-05 -0.000267888 3.21167e-05 4.20555e-05 7.47211e-05 
-5.33063e-06 -3.78331e-06 -7.95373e-06 -3.00406e-05 6.14416e-06 2.25691e-05 4.0915e-05 -5.21439e-05 3.54032e-05 
-1.31343e-05 0.000400081 -0.000143673 7.11288e-05 2.55425e-05 4.20176e-05 2.43175e-05 2.13205e-05 -4.33219e-05 
-2.5362e-06 -0.000148143 3.18889e-05 -4.34036e-05 2.41506e-05 -4.46644e-05 -1.64568e-05 -6.33978e-06 -2.48146e-05 
0.000102523 8.25335e-06 3.02162e-05 -2.92204e-06 -1.3785e-05 2.46617e-05 -0.000109152 -1.40645e-06 -0.00010107 
8.0811e-05 -0.000109246 -2.59578e-05 -1.1815e-05 1.78745e-05 7.21996e-05 5.78823e-07 -0.000310779 9.58702e-06 
0.000256832 0.000493587 0.000587376 -0.000531514 3.44142e-05 -9.02367e-06 0.0161055 -6.27967e-06 9.99966e-06 
1.93029e-05 -1.54428e-05 -0.00057256 0.00983873 4.42799e-06 -1.52952e-05 2.42449e-05 -0.0101379 0.00070427 
-0.000247129 0.000819369 2.15466e-05 0.00572911 1.08089e-05 0.0103461 -0.00378522 -0.00343145 0.000552793 
-0.00014637 4.67362e-05 0.00215003 2.0155e-05 -2.61133e-05 0.00027215 7.09716e-05 -2.02698e-05 -0.00344542 
4.25589e-07 1.96845e-05 -4.46675e-06 -8.89504e-06 -0.000115511 5.34317e-06 2.70464e-05 0.000149841 1.39112e-05 
0.00827578 -0.000117455 -2.30525e-05 -5.83361e-05 -0.010667 -5.91315e-05 -1.01807e-05 3.22204e-05 -2.18335e-05 
-2.80177e-05 0.00612272 -9.6996e-06 1.08514e-05 0.0331517 -6.81977e-06 2.69679e-05 0.0261953 2.95646e-05 
0.0155302 0.000291945 1.91249e-05 1.90347e-05 -9.44122e-05 -0.00350956 -0.000113899 -0.00202706 0.00452378 
-1.86615e-05 -5.97146e-05 4.50033e-05 9.39155e-06 2.57399e-05 0.000803777 -0.00137898 0.000357606 0.00213278 
0.00503173 -4.3145e-05 -0.00820327 0.00857053 7.35978e-07 -2.83402e-05 0.00448097 2.15001e-05 2.75297e-05 
3.26756e-05 -0.00313856 7.76325e-07 7.25867e-06 -1.49234e-05 -0.0164512 -0.00551164 0.0896472 5.91502e-05 
6.45345e-05 6.10013e-05 5.6791e-05 -2.35494e-05 -8.50854e-06 0.000507415 -0.000375183 0.0107182 5.62793e-07 
-9.76283e-07 -0.00184114 -0.00265153 2.49512e-05 3.92434e-05 -0.000284594 8.96833e-06 0.00909806 -0.00777871 
0.0128659 -1.04764e-05 0.0170301 0.0174285 -0.00300457 9.58015e-05 0.000409666 1.62054e-05 0.000283526 
0.00448811 0.00217974 -1.14294e-05 -0.00207989 0.00171651 0.000108934 8.33379e-06 3.34001e-06 0.00968076 
0.0371239 0.0140415 -0.000200009 3.97111e-05 -0.0105629 -3.3136e-05 -1.55477e-06 -0.00113972 0.0147485 
0.0151005 -0.000666908 -0.00570674 0.00755077 4.76071e-05 0.00742525 -0.00349213 0.0149452 0.000937317 
6.04232e-06 -0.000328725 0.000508744 -0.00468748 0.00851994 -0.0150481 4.62481e-05 0.0136455 -2.5379e-05 
-0.000103242 -5.55035e-06 -0.000114607 0.0103267 -3.06958e-05 -0.00439763 3.51485e-06 4.48145e-06 0.00442636 
0.000162765 -0.00150651 -6.85108e-05 0.0188157 0.00846912 -0.0107252 0.00735678 -0.000129105 -0.00985411 
7.70717e-06 -8.37353e-06 1.05581e-05 0.0342463 0.0107469 -0.00090117 -0.00169403 0.000522219 0.000945238 
0.00529676 0.0525028 0.0214162 0.014955 -0.00629878 -0.00523054 -0.00290941 0.0120938 0.0110246 
-0.00486954 0.00821307 0.0125214 -0.0020508 -0.0135929 -0.0101775 -0.00844395 -0.00127536 -0.000687206 
-0.00110827 -0.00476963 -0.00767737 -0.00557002 0.00255388 -0.00373752 0.00262422 0.00867331 0.00927393 
0.00632148 0.0135069 0.0263409 0.0373553 0.00606064 0.00611375 0.00161313 0.0159324 -0.0110327 
-0.00966518 -0.0143302 0.000161706 -0.00633536 0.00104281 0.0140559 0.0209753 0.0016557 0.0239083 
0.0203513 0.00650105 0.00295415 -0.000759243 -0.00261861 0.00841187 0.00374638 -0.00281932 -0.000997028 
0.0127382 0.00917463 -0.00356384 0.0264165 0.0157248 0.0181511 0.061685 0.00127202 -0.0036738 
0.00267346 -0.00122136 0.00339339 -0.0058439 0.00495177 -0.0040227 -0.00523997 0.0243163 -0.0101047 
0.0110197 0.000488659 0.000655957 0.000226861 0.0102753 0.0127202 0.0144475 -0.00459594 -0.0141098 
-0.0123721 0.00518381 0.00183066 -0.00406281 -0.00267456 0.0123292 0.0157934 -0.00643535 0.00168221 
-0.00395018 -0.00452811 0.00339254 0.0289 -0.000328758 0.00829863 0.0157617 -0.00403468 0.0126737 
0.00289101 0.0139471 -0.0129878 -0.00194088 -0.00424255 -0.00236224 0.00520803 0.0148652 -0.0813487 
-0.00988993 -0.0497091 
Major%20Principal%20Stress 1 13529 double
0.81885856921 0.93416334264 0.97623914636 0.90291487561 0.30771400261 0.30771300074 0.30769800194 0.30771800327 0.74388771752 
0.78187825434 0.76470415257 0.70055514107 0.61688983298 0.84194256029 0.78515093422 0.61945902062 0.88068325226 0.6265138235 
0.79738272938 0.92290438152 0.71750759953 0.66181378625 0.80598674938 0.72517127982 0.75027989978 0.8808156658 0.81354859493 
0.69658507614 0.97501912637 0.67814169789 0.9244676961 0.9482158834 0.17247600628 0.13902327174 0.6634601659 0.71079662086 
0.70707337221 0.78559877417 0.15364674139 0.1619824782 0.6945308961 0.55372438998 0.61816950531 0.49414070621 0.70674802981 
0.23189213207 0.24952481101 0.26858564093 0.31684974136 0.35186456646 0.4016677312 0.49034458303 0.2126039508 0.19692639815 
0.24166784659 0.26690696345 0.28800420417 0.78525735417 0.82017137611 0.78595870969 0.87199749609 0.20609778321 0.22562684257 
0.2688684172 0.30895161143 0.34767733699 0.38965832702 0.51436421011 0.19901118881 0.22985620426 0.21073750351 0.23929494957 
0.19425674254 0.20229694386 0.21823009953 0.23568985521 0.22939162909 0.23652926793 0.2695848441 0.31926363559 0.39922313204 
0.45715479251 0.49571882845 0.81462546835 0.77869967047 0.73234025183 0.79872812112 0.81109221032 0.232171318 0.2498929529 
0.25800584657 0.27962035241 0.20434963893 0.23003917805 0.29652424152 0.31343504539 0.32707851223 0.36316286721 0.53016474315 
0.61505142673 0.74926349411 0.73429380862 0.61690367861 0.57842822863 0.072210515802 0.23771529545 0.21200348087 0.21714276712 
0.18024497354 0.5986341759 0.48931469975 0.37430405244 0.36030017159 0.31304377723 0.26214052794 0.19521226048 0.75975972828 
0.75361863429 0.68723691727 0.67228879271 0.53657519336 0.19610707813 0.21287315524 0.2711506798 0.26086343219 0.5499931064 
0.38672982687 0.36480736788 0.31115101398 0.27532825597 0.23772700844 0.24279536198 0.93986702346 0.75408769999 0.86449201533 
0.89166173537 0.86743959351 0.65337018208 0.8294912488 0.82449112532 0.74165465011 0.70090640101 0.62148846154 0.38589276913 
0.37546328495 0.31655205806 0.29212526492 0.24160154397 0.21838619425 0.20293877872 0.24834800482 0.26118284393 0.26777637932 
0.95446077152 0.61193406348 0.74218336003 0.82399545895 0.6520966505 0.5231191644 0.43546090942 0.36412513563 0.34845531224 
0.27809103968 0.24557801102 0.21847823385 0.079823366335 0.19305170567 0.20866641225 0.22593284786 0.20520802354 0.43733865339 
0.35505274795 0.33655870857 0.32038855872 0.31302379754 0.30435129093 0.30936611013 0.30794424629 0.3072115599 0.29987316268 
0.30911740536 0.30915392634 0.31260016251 0.30879556279 0.30922272341 0.31231896243 0.31111414568 0.31271940791 0.3073116614 
0.31538450397 0.32257098731 0.33466504305 0.35347112509 0.42396409628 0.40998688996 0.38423484792 0.33787412298 0.33144804067 
0.32450151763 0.32292040825 0.34150465941 0.31105443239 0.31152419335 0.31383780535 0.31502471361 0.34338863261 0.31242343381 
0.31398202551 0.31418356438 0.31367459969 0.32572777903 0.33709604705 0.32249590283 0.31400818685 0.3123420461 0.31403586534 
0.33962769224 0.33130723187 0.32732245791 0.33350615238 0.34484211958 0.37463711299 0.38879658379 0.30762601336 0.30770600052 
0.30774300563 0.30772900262 0.30772000355 0.30770402063 0.30770802117 0.30768601863 0.30766702117 0.30766501978 0.30764900151 
0.30764300272 0.30763300872 0.30762200212 0.30767200097 0.30763000723 0.30764200216 0.30765300351 0.30766701548 0.30766502016 
0.30768001549 0.30769901417 0.30769300951 0.30771301205 0.30772000299 0.30772600507 0.30773700703 0.3077200013 0.30769401169 
0.4253819601 0.30349308641 0.27835720566 0.26240238383 0.25149394768 0.24402160134 0.24019628212 0.23786107517 0.23691701955 
0.23709106088 0.23829804834 0.24107211923 0.24482305113 0.25018605834 0.25590617388 0.26219113099 0.27014730524 0.27874733511 
0.28721938256 0.29544852827 0.30172721324 0.30568700132 0.30573820991 0.30293922193 0.29799825389 0.2925802604 0.28771421932 
0.28349105508 0.28016105663 0.27781005296 0.27650901624 0.27632500447 0.27715201077 0.278761003 0.28122700245 0.28468601169 
0.28807402166 0.29159301386 0.29547901487 0.29890001349 0.30187101787 0.30472101373 0.30673700193 0.30785400936 0.30801703746 
0.30787102988 0.30789600092 0.30705600032 0.30555100072 0.30352900064 0.30079800844 0.29803600615 0.29495000776 0.29246100877 
0.29009201388 0.28801400542 0.28638300005 0.28565300001 0.28573600218 0.28653900081 0.28851200937 0.29082008397 0.29413508866 
0.29790408091 0.30205710048 0.30581915072 0.30884007464 0.31034800302 0.30953701193 0.30643002184 0.30151302917 0.29561714827 
0.2879722281 0.28057716818 0.27279917256 0.26623013856 0.26036306937 0.25511811123 0.2508792025 0.24712706892 0.24501114442 
0.24377214344 0.24381931507 0.2451298864 0.24849271219 0.25429893121 0.26443778117 0.28009672356 0.3086999611 0.40771912102 
0.27826422363 0.34891402424 0.42807952985 0.4448224954 0.42850172771 0.41154644469 0.37890359026 0.37394172177 0.37100523957 
0.4275076017 0.45002339765 0.36364967735 0.38244420683 0.39332206704 0.40849096841 0.42433412208 0.44229542922 0.41710471107 
0.35816574226 0.25867281253 0.27294147405 0.36877224207 0.42349583008 0.423996825 0.40433962994 0.40310346345 0.3790614558 
0.36633636444 0.31271308235 0.49350857143 0.45835151719 0.34850958489 0.3609151937 0.37629654928 0.37474259554 0.4141200543 
0.38724374623 0.38974901363 0.37878262804 0.28451260535 0.30774705752 0.3077570017 0.30775500609 0.30774001441 0.30771701343 
0.30769102172 0.30767202365 0.30764501446 0.30762302136 0.30760501263 0.30760800376 0.30760900785 0.30761200605 0.30763001665 
0.3076490107 0.30767801666 0.30769201745 0.30771401832 0.30771800526 0.30773900586 0.30774600003 0.30773500142 0.30766101846 
0.39775120349 0.30239134131 0.2691662163 0.25374507496 0.24365616758 0.23914918386 0.23713224157 0.23723606126 0.23891119427 
0.24288519599 0.24829324588 0.2557272141 0.26406040552 0.2726194044 0.28211452747 0.29256052566 0.30123438449 0.30555801572 
0.30493608238 0.30047426667 0.29434529018 0.28815118943 0.28224512341 0.27869904437 0.27683004198 0.27641300077 0.27764400016 
0.2801530088 0.28402701584 0.28808502624 0.29197202777 0.29651702405 0.3005620124 0.30367900748 0.30633600757 0.30780800489 
0.30793306688 0.30801006072 0.3077330061 0.30635200146 0.30417600935 0.30092300871 0.29764601301 0.29395201187 0.29099000802 
0.2881210085 0.28637500078 0.28568200794 0.28623501996 0.28822904269 0.29149005118 0.29561209067 0.30004812649 0.3048071213 
0.30876214844 0.31026400247 0.30861500406 0.30305314631 0.29483413388 0.28556419245 0.27599116459 0.26665913217 0.25906706987 
0.25276108299 0.24804410454 0.24512205805 0.24403200907 0.24493504147 0.248520277 0.2567621781 0.27167397682 0.30308628815 
0.37144597605 0.23117921211 0.37836190635 0.46892326294 0.44491034568 0.43277886295 0.41661401077 0.43054864502 0.4180032315 
0.3330538925 0.43274819741 0.43770868884 0.33500126369 0.3919329158 0.3988164634 0.41334696988 0.42927186727 0.44182011272 
0.49449352499 0.39051247749 0.24884849113 0.23917022968 0.36761814345 0.43351233427 0.42350949855 0.40095712382 0.38362175926 
0.36263527458 0.34674983485 0.41287539935 0.55175380845 0.30528313212 0.38273637647 0.38632392755 0.42133635716 0.41021594638 
0.47772541643 0.4673013887 0.34309250688 0.29932530118 0.19488562956 0.18683962887 0.19424376385 0.22447060299 0.23422785373 
0.19760390423 0.24073480043 0.203593043 0.21737450071 0.21015361425 0.19345664149 0.1882299641 0.21871737694 0.23194136379 
0.20882403253 0.21131330601 0.24305636822 0.21262186925 0.2367099782 0.19371115813 0.20549115974 0.18966545526 0.20043923383 
0.25299909556 0.22608841363 0.18852921937 0.21054821784 0.211177709 0.22603050691 0.18507567777 0.20031940166 0.21507389926 
0.21740716452 0.1900988848 0.18341908277 0.21823215307 0.18252511238 0.20496868096 0.19779008345 0.21587800493 0.23803202655 
0.22636982173 0.21073678721 0.19976639109 0.18980081002 0.24761097814 0.18746159788 0.18997920463 0.21079040313 0.21445905159 
0.23512985338 0.20837046295 0.19026444752 0.1949412382 0.23929532704 0.19070779888 0.22292520322 0.1880926323 0.197467115 
0.18847633112 0.19429782449 0.25086049052 0.23143400463 0.22703033125 0.2157617005 0.20982452614 0.18962469945 0.19121919532 
0.19496738157 0.22804315442 0.24100510453 0.22683049272 0.21319873604 0.20292855255 0.21983538791 0.1937593306 0.21063591714 
0.30743416484 0.30741159552 0.30745335535 0.30751042378 0.3075966475 0.30763019692 0.30770732345 0.30777255723 0.30784082884 
0.3078665752 0.30792436923 0.30793959726 0.30798150007 0.30797300115 0.3079742974 0.30793716686 0.30790576869 0.30784860081 
0.30782105557 0.3077556326 0.30770510291 0.30764742927 0.30761266436 0.30757054529 0.30754231832 0.30750629677 0.3074997754 
0.30751720653 0.30766002377 0.36688495327 0.32409123463 0.2987564691 0.28160080792 0.27023674552 0.26232330046 0.25713713229 
0.25334759826 0.25199835429 0.25187164735 0.251722357 0.25313843772 0.25571627921 0.25952708709 0.26384435603 0.26833993145 
0.27369915865 0.2793964181 0.28492253259 0.2895071275 0.29234003374 0.29423459523 0.29404030264 0.29220496824 0.28944093029 
0.28664673849 0.28417569546 0.28209079942 0.28063084107 0.27983556675 0.27979800943 0.28035411742 0.2817225353 0.28364405486 
0.28627769651 0.28897927408 0.29180174273 0.29470163954 0.29772919599 0.30044800879 0.30274532114 0.30477424165 0.30617822337 
0.30715341377 0.3071883626 0.30649769253 0.30524800545 0.30360990161 0.30166544026 0.2993560894 0.29696698594 0.29481234082 
0.29267807955 0.29072311334 0.28919781767 0.28824630766 0.28771500089 0.2878403298 0.28860301506 0.28994757374 0.29183597964 
0.29396277428 0.29652682219 0.29903927174 0.30099293468 0.3017167384 0.30168758982 0.29976744308 0.29676544646 0.29278464614 
0.28753163235 0.28228233309 0.27700314052 0.27187971417 0.26730650778 0.26343241057 0.26047700982 0.25822443514 0.25674347044 
0.25687009838 0.25773717569 0.26028302036 0.26440751658 0.27148222636 0.28316616145 0.30111964899 0.33036981683 0.40452650886 
0.36452336838 0.33584040032 0.31830749169 0.30772317309 0.30137602038 0.29770658993 0.29376197392 0.29897857704 0.29810411459 
0.29747990486 0.29744424828 0.29573096232 0.30015078575 0.30065913675 0.30105626651 0.30507244328 0.30757753916 0.31190658723 
0.30219290919 0.29929969661 0.29918609349 0.30273626625 0.3048370921 0.30451253746 0.30799337657 0.31884827227 0.3411658908 
0.39952627503 0.21352452565 0.24427731337 0.28153662603 0.29122521031 0.29297658091 0.29373561584 0.29564043601 0.29913912472 
0.30799799948 0.34511079602 0.4156013229 0.39944926997 0.34189836458 0.31290436343 0.29837482802 0.29138485968 0.28919460423 
0.28728988941 0.28265127952 0.26742597484 0.23211779333 0.2201954643 0.21877765625 0.2447309894 0.27793039941 0.28876263132 
0.28744500885 0.28553437874 0.28632771717 0.29126714535 0.3023197705 0.33040585853 0.40323462205 0.39849761135 0.32982426312 
0.3008957449 0.29116328211 0.28874031182 0.28969489723 0.28941330163 0.28900122601 0.27873855746 0.25099622676 0.20951973526 
0.25149069641 0.47190229876 0.44170197164 0.24912798351 0.45652121971 0.25270617845 0.30658075007 0.30682700937 0.30705285381 
0.30730406044 0.30758505632 0.30789311278 0.30816553926 0.30840930654 0.30861737404 0.30879061496 0.30894118104 0.30897226913 
0.30896122784 0.30887259023 0.30872468507 0.30855705351 0.30833209686 0.30808095113 0.30785211113 0.30762859123 0.30741369925 
0.30720943173 0.30702174211 0.30686464109 0.30687657741 0.30696408456 0.27979448093 0.3242127668 0.30586189195 0.2930851591 
0.28222909367 0.27524629434 0.2699924417 0.266323833 0.26429283437 0.26301383036 0.26238814019 0.26286655725 0.26432847441 
0.26638220805 0.26855567315 0.27110943448 0.27420430537 0.2775887864 0.28094363289 0.28283088591 0.28399731922 0.28502283979 
0.28471068243 0.28360589458 0.28284050496 0.28234223891 0.28176565716 0.28132708549 0.28127626783 0.28167017409 0.28260684465 
0.28392148425 0.28559862777 0.28792171138 0.29024559089 0.2925284043 0.29496308139 0.29746206954 0.29981509938 0.30188932235 
0.30381168569 0.3053985664 0.30670796809 0.35455481817 0.34803981627 0.30640146527 0.30541777776 0.30402721566 0.30246913414 
0.30058347637 0.29863324468 0.29670054389 0.29476672309 0.29292557646 0.29133292264 0.29005535013 0.28918167102 0.28869053766 
0.2886498917 0.28898703067 0.28964053122 0.29058419026 0.29180583604 0.29324881353 0.29462198112 0.29523483051 0.29506393313 
0.2940697284 0.29237284406 0.28975113315 0.28634113685 0.28275680996 0.27940133192 0.27583582757 0.27273947595 0.27006125128 
0.2683456158 0.26715492543 0.26694617397 0.26758170002 0.26911852558 0.27216755144 0.27642653492 0.28338732341 0.29360197892 
0.30814118031 0.32750322866 0.25444075537 0.33251653321 0.32107356531 0.31276820104 0.30886477918 0.3058930607 0.30579268098 
0.30588787783 0.30663075417 0.30792966777 0.30850016729 0.30984247051 0.31111680775 0.31172402447 0.31293627485 0.31092245225 
0.30855564741 0.30963016596 0.31037432256 0.30868353544 0.30823160173 0.30709396868 0.30892051719 0.3146316574 0.32186913444 
0.33326161828 0.26122650067 0.4043104317 0.24623997366 0.29024668057 0.29448537207 0.2976655424 0.30187868662 0.3097641568 
0.32982007059 0.37157151278 0.25459453377 0.32384882617 0.35817650266 0.29784725628 0.29261109455 0.28865489843 0.28277946142 
0.27088507019 0.25359331867 0.24505293224 0.25651693594 0.38630587186 0.25993100087 0.24816607086 0.2840512187 0.2876937384 
0.28986819353 0.29321323218 0.30008228395 0.31729605862 0.35608687914 0.39819881718 0.31431001869 0.34623211931 0.2942528033 
0.29192086295 0.29054290993 0.28681206759 0.2779015509 0.2605257365 0.24749159928 0.30646881967 0.27536259899 0.29979622933 
0.26689693209 0.41981931486 0.26514268739 0.38806065542 0.30615478315 0.30651011705 0.30709555417 0.3077595364 0.3084338625 
0.30903663003 0.30953752738 0.31002553897 0.31047659018 0.3107633259 0.31072300924 0.31041621602 0.31011181732 0.30985762095 
0.3093926702 0.30883417143 0.3082555134 0.30776460725 0.30729522892 0.30684272395 0.30639603966 0.30601819385 0.30588005176 
0.30601171775 0.26182291574 0.28918481512 0.26954683329 0.31954388075 0.38307929486 0.30728931905 0.29870710578 0.29089469367 
0.28513168466 0.28054117051 0.27713512509 0.27435293806 0.27215444488 0.27064285149 0.27006135519 0.2702045027 0.27045405312 
0.27070356176 0.2712495888 0.27232879318 0.273243442 0.27553449045 0.27386278174 0.27617522596 0.27620016191 0.27644503927 
0.27717428005 0.27826203379 0.27946284708 0.28032326152 0.28125773796 0.28227506894 0.28371423544 0.28534750452 0.28717836568 
0.28932580195 0.29170556016 0.29376360036 0.295867453 0.29792130909 0.29989734215 0.30165795536 0.30348325394 0.30528353051 
0.26860495111 0.30483504203 0.30335685128 0.30183267183 0.30018526997 0.29847882101 0.29682990562 0.29498433571 0.29318281469 
0.29168796786 0.29043259645 0.28937859896 0.28861077073 0.28805902934 0.28774924755 0.28758034217 0.28759491899 0.28820854267 
0.28928108496 0.28980062428 0.28947025283 0.28874626147 0.28810681171 0.28660861282 0.28427237077 0.28202514505 0.28001257958 
0.27820815603 0.27652933136 0.27517872352 0.27453983019 0.27457373359 0.27501295499 0.27612314305 0.27829777308 0.28165112366 
0.2859559143 0.29205977928 0.30001112009 0.30830228358 0.31993381709 0.39776438595 0.28199341543 0.31521008543 0.31095929335 
0.30885033619 0.30791631743 0.30849473913 0.30959062584 0.31108822392 0.31261727482 0.31441492398 0.31582091932 0.3170806998 
0.31747629988 0.31682301186 0.31587366042 0.31501986414 0.31407232911 0.3128945701 0.31150703824 0.31029812232 0.31047769141 
0.31251872397 0.31611462091 0.27138444265 0.28819372334 0.29420958352 0.2986723776 0.30503176208 0.31759110562 0.34254565755 
0.28639759836 0.26409358472 0.28238768179 0.29317631522 0.27382626332 0.26442267591 0.25824112552 0.35960720473 0.37973868987 
0.3558719 0.28970636833 0.2824759357 0.29477583255 0.3054634595 0.32719052931 0.36721940878 0.26273173005 0.28441327667 
0.29155353278 0.27817525814 0.26965410847 0.28854799119 0.26296881514 0.27597575284 0.38617685159 0.31181109034 0.27697955662 
0.26828531459 0.27623839431 0.36196389837 0.26816323795 0.35786974317 0.26200286687 0.34595421488 0.29994863055 0.30441353888 
0.26501895712 0.29598774843 0.26222320711 0.33182668564 0.32061663852 0.30497418758 0.27634997004 0.30595338348 0.30707080264 
0.30832565719 0.30955413157 0.31072063209 0.3112665313 0.31234807539 0.3130897831 0.31347301814 0.31302646007 0.31207687119 
0.31211892531 0.31142291888 0.31030005313 0.30915909144 0.30819930427 0.3073507225 0.30652151816 0.30572644543 0.3051095685 
0.3045572447 0.29478954276 0.27815113622 0.31304523966 0.30803685186 0.30308929572 0.29834575336 0.29398597055 0.289813624 
0.28602872592 0.2827817716 0.27966947276 0.27708800416 0.27542443596 0.27395194351 0.27231658716 0.27026293204 0.27002347727 
0.27164741877 0.27607685113 0.27803356963 0.28009831669 0.28196930606 0.28390026823 0.28615616007 0.28844330636 0.29090847751 
0.29338709438 0.29550006994 0.29737313795 0.29916319754 0.3008415656 0.30215954103 0.30334550878 0.30305493948 0.30179886035 
0.30039972647 0.29886376554 0.29714792546 0.2952355824 0.29336756408 0.29172620228 0.2901958717 0.28880415915 0.28756737351 
0.28629448823 0.28502299525 0.2840171751 0.28350030204 0.28397958815 0.28532415017 0.28401837654 0.282771545 0.28129186772 
0.27980711484 0.27920581997 0.27870802924 0.27851154857 0.27845856621 0.27894286037 0.27979200967 0.28124450635 0.2832114116 
0.28588676554 0.28929105314 0.29308356955 0.29761043709 0.30338903313 0.31052798687 0.36599018789 0.27721038996 0.27138904786 
0.31146951256 0.31039367746 0.31022994264 0.31110127475 0.31270414405 0.31475036376 0.31708546721 0.31960469471 0.32178902152 
0.32355729293 0.32444011556 0.32423184148 0.32324260338 0.32198553115 0.32030167947 0.31819245541 0.31589812507 0.31361298539 
0.31204560759 0.31162292654 0.33066321237 0.30066974754 0.28973596462 0.34585227604 0.30997103315 0.32566808961 0.29111903926 
0.28267587711 0.3404116878 0.28849497487 0.34824947699 0.29840591769 0.28669736282 0.28290390114 0.3112528376 0.27645006704 
0.28091963504 0.28488305653 0.37429180681 0.28391200278 0.28873024809 0.26644453045 0.27106343599 0.27001945105 0.27883682478 
0.29284700502 0.26920184802 0.35629227041 0.36897059113 0.36577732905 0.28340805139 0.28352251679 0.33877100149 0.30340624785 
0.27105905084 0.31682151669 0.27756344509 0.34830950889 0.27439145217 0.33447745403 0.29464186873 0.26615479762 0.29911604637 
0.27480442149 0.27230595127 0.30897428921 0.30568688511 0.30738652009 0.30939158111 0.31184049556 0.31422349103 0.31519271005 
0.31685114582 0.31704082699 0.31502580503 0.31514489728 0.31300783989 0.31072469376 0.30900834302 0.30761047499 0.30650370699 
0.30528978164 0.3042832307 0.3036143082 0.32383909734 0.3101702625 0.30771090056 0.30496266633 0.30139250175 0.29765048676 
0.29375651393 0.28996401334 0.2858635096 0.28196176954 0.27931475223 0.27678160731 0.28124209677 0.28371058665 0.28658340458 
0.28947985885 0.29247748229 0.29526283171 0.29785323555 0.29992246041 0.30153440565 0.30263744804 0.30351562912 0.30433582141 
0.35337616856 0.30244329112 0.30120921788 0.29966894151 0.29764658415 0.29547560268 0.2934696342 0.29152405588 0.28945486579 
0.28786145368 0.2860370101 0.28374855657 0.2813406981 0.27912025796 0.27826335281 0.2762044489 0.27768423837 0.27887885566 
0.28017727171 0.28166860909 0.2836888299 0.28547782899 0.28813907083 0.29169530685 0.29526459 0.298553761 0.30190765209 
0.30543209814 0.3088747644 0.32476974974 0.31125270573 0.3135996822 0.31660044531 0.32014548277 0.32366634312 0.32704664245 
0.32998909894 0.33207016334 0.33252282569 0.33151802455 0.32955654434 0.3271332322 0.32409023668 0.3200895113 0.3162146844 
0.31277848946 0.31417338052 0.29600728619 0.29042000057 0.30368255525 0.29987753055 0.2782537005 0.33656411836 0.28837854761 
0.29341268241 0.3139591589 0.28593189022 0.33586050345 0.2873533575 0.32791004619 0.33249948469 0.35811768644 0.29046564274 
0.35060169465 0.28326276157 0.34758212944 0.35785568545 0.27955908625 0.30575438483 0.32544675169 0.30943035861 0.28117918963 
0.3301025878 0.32685603279 0.29534448627 0.28955428126 0.2847693129 0.28439210987 0.29536355209 0.30343680085 0.27474276484 
0.32365665233 0.30811734126 0.31108168237 0.31443229938 0.31958374508 0.31944791974 0.32283297795 0.32069033285 0.31751967805 
0.31303081315 0.30908786244 0.30567134253 0.30351133533 0.28611294985 0.28790668784 0.31164697329 0.30883330574 0.30505306427 
0.30081013817 0.28950282321 0.29093027174 0.29480743785 0.2979648383 0.30120651032 0.30378214868 0.30514528772 0.30544675848 
0.30101735849 0.29801458676 0.29591545145 0.29427928376 0.29118468639 0.32060002558 0.31540101876 0.27812909334 0.2809589731 
0.28294400576 0.28612070145 0.28913895178 0.29122663772 0.30023342557 0.30340226308 0.30602611457 0.30799735311 0.29130506418 
0.31144235053 0.31538618756 0.32048291323 0.32583991082 0.329891897 0.33637733137 0.33832895037 0.34349339372 0.34016120093 
0.33889002261 0.33428640142 0.33194023749 0.32435079566 0.31832914438 0.31282041692 0.3466332816 0.27653650106 0.30548299482 
0.28658120229 0.29668116721 0.33971237715 0.30272655333 0.34749417017 0.31423739407 0.29602282145 0.31638529714 0.29789051483 
0.30521561294 0.32197702476 0.30311573862 0.2855604003 0.31392961318 0.33646366153 0.30887906311 0.34271895886 0.33035229341 
0.31419875452 0.29091971772 0.34280478769 0.30929827502 0.31222185788 0.30966358867 0.30933925698 0.30583884473 0.30490971338 
0.30043389411 0.29690109139 0.30476759346 0.31950258301 0.33033552675 0.31066231783 0.29638643342 0.31851956986 0.30857847811 
0.32868402445 0.31657982757 0.32453083429 0.33305460261 0.32230765045 0.3168743806 0.3071679331 0.30734643095 0.30744666351 
0.30752736707 0.30763723472 0.30775155357 0.30785898464 0.30795651234 0.30804417404 0.30810463282 0.30809700003 0.30808348963 
0.30802219365 0.30793758518 0.30783971601 0.30775185729 0.30766838655 0.30758582109 0.30749839196 0.30742881051 0.30738949314 
0.30743419431 0.36370492547 0.31874606719 0.28820229434 0.2716799705 0.26284052482 0.25795098982 0.25535915514 0.25411472728 
0.25449451488 0.25636806337 0.25998413355 0.26428834621 0.26961776141 0.27527702042 0.28129530658 0.28644000546 0.29091009638 
0.2926354685 0.29168993445 0.28915851385 0.28633173626 0.28359397783 0.28152548169 0.28046098061 0.28037001339 0.28127067653 
0.28315928822 0.2858212637 0.28887057646 0.29204662773 0.29542305093 0.29857992773 0.3014703049 0.30391110531 0.30585030354 
0.30706559545 0.30602263603 0.30441836646 0.30216340006 0.29965638229 0.29681044888 0.29431185847 0.29182805625 0.28979662497 
0.28855684237 0.28809022042 0.28846318756 0.28976851296 0.29166174897 0.29413730943 0.29633810154 0.29863606137 0.30027628069 
0.29969173516 0.29740459077 0.29280481505 0.2866053992 0.28061726858 0.2745512959 0.26917211555 0.26467801284 0.26186815424 
0.26006482131 0.26006704808 0.26281243342 0.26756697692 0.27651664482 0.29238880886 0.31612512772 0.35768257575 0.35543305604 
0.33727970327 0.32107570082 0.31084479567 0.30376614845 0.30176254509 0.29999547253 0.30222458009 0.30449983148 0.3061469842 
0.30682669794 0.30707902051 0.30603004088 0.29439503382 0.29226293998 0.3054819081 0.30406190057 0.30292491169 0.29421152588 
0.30868940715 0.31792095442 0.33683992503 0.21150812676 0.24589578419 0.28147681429 0.29155698866 0.29008074378 0.28957110934 
0.29271995145 0.2989905385 0.31530463514 0.34558902676 0.41498158908 0.43700630605 0.3547511697 0.31035534578 0.29530189686 
0.28894404764 0.28499544272 0.28482039252 0.28595672717 0.27621630119 0.2399986859 0.21044992962 0.2132383266 0.25314098434 
0.28266386571 0.28689997349 0.28582473107 0.28553370844 0.2878994105 0.29774927949 0.32690811853 0.38729965986 0.4013590314 
0.33601987486 0.30618434832 0.29305619774 0.28860271144 0.28627685707 0.29021331771 0.29401052555 0.28520729222 0.23840864954 
0.21638881883 0.49724664129 0.24677279239 0.24788417206 0.44514677869 0.43335177156 0.30677021496 0.30626075511 0.30717572951 
0.30767859968 0.30815268669 0.30859123674 0.30898135318 0.30926517287 0.30936656352 0.30932000684 0.30916400007 0.30883806226 
0.30848106938 0.30806448708 0.30772509611 0.30737582856 0.30704527141 0.30681706056 0.30659397201 0.24644088635 0.29564567669 
0.31166042804 0.33286424802 0.28419820279 0.27668930117 0.27180242672 0.26903242089 0.26654849911 0.26564963534 0.26576525506 
0.26726703521 0.2692205304 0.27170163148 0.27432545189 0.27699057798 0.27960558261 0.28216993888 0.28362287008 0.28259833928 
0.28147067032 0.28093541245 0.2810432078 0.28139498552 0.28212426357 0.28327103318 0.28517152203 0.2874997022 0.29017544859 
0.29289895699 0.29562192288 0.2982294933 0.30053326746 0.30275094221 0.30464919664 0.30331610126 0.30526360017 0.30661207845 
0.30133691806 0.29911972649 0.29672424783 0.29458521161 0.2925488557 0.29082151141 0.28955734788 0.28881153031 0.28864827393 
0.28898562569 0.28946944903 0.29036931635 0.29136470124 0.29193640915 0.29248796171 0.29180320033 0.2895565883 0.28578304685 
0.28195717738 0.27849771116 0.27536339848 0.2730486966 0.27177817326 0.27127825642 0.27234900017 0.27475601703 0.28025694937 
0.28800471514 0.30027757435 0.31694213392 0.34154044323 0.25281541306 0.41301040946 0.31731278432 0.32594032481 0.31055662989 
0.30678494606 0.30647624018 0.30744976204 0.30887036885 0.30998196653 0.31196799248 0.3128902862 0.31321227077 0.31195224478 
0.31069897034 0.31002260912 0.3096490926 0.30881801716 0.30879528338 0.30949680492 0.31575515446 0.32450564967 0.25477305336 
0.25595500247 0.42719159259 0.26370893323 0.28088123218 0.2907730996 0.29525383673 0.29844831628 0.3025138116 0.30991962658 
0.32718358699 0.36428867368 0.33090037056 0.30953971394 0.29877276798 0.29354514124 0.2894335858 0.28416882245 0.27417777838 
0.25633884859 0.24236602607 0.38633668503 0.26463169306 0.28128811916 0.28678739006 0.28889607957 0.29075794699 0.29630732631 
0.31081540535 0.34250572283 0.25569603966 0.3181186365 0.3017237477 0.29493203143 0.2926438314 0.29132902994 0.28817046172 
0.27960002766 0.26272306979 0.2447145636 0.30680271419 0.37507545414 0.24592584705 0.34950613784 0.26912182297 0.41733213184 
0.26772197019 0.40416442508 0.37285075467 0.26197514493 0.26983221093 0.30707718828 0.26223615694 0.30913383908 0.3112343196 
0.31082261014 0.31097035951 0.31046034719 0.30971931875 0.30893838422 0.30810789583 0.30733527417 0.30663060599 0.30608320708 
0.3056767084 0.2611612851 0.30931975461 0.30568035562 0.30063681342 0.3183978245 0.28684365651 0.28243669713 0.27882833422 
0.27581111089 0.2738367946 0.27236285025 0.27163888357 0.2710165861 0.27028139174 0.26961126444 0.27434321328 0.2741449285 
0.27608058748 0.27813693551 0.28031979783 0.28215800019 0.28413640068 0.28646540354 0.28894635159 0.2918089586 0.29438844205 
0.29685474726 0.29909713534 0.30096427637 0.30237446215 0.30930219953 0.31412545443 0.31009309319 0.30110561794 0.29891110304 
0.29221298421 0.30432013612 0.26105949145 0.29688293074 0.29484192895 0.29282509497 0.29113304383 0.28949213436 0.28825614105 
0.2872745261 0.28644892054 0.28570746375 0.28515751849 0.28550207555 0.28505546289 0.28712836525 0.2854472523 0.28370705342 
0.28119253451 0.27940935687 0.27836298391 0.27789991892 0.2781486831 0.27921912442 0.28104005388 0.28419425943 0.28864764049 
0.29406820126 0.30228237311 0.38521003319 0.27075476184 0.31173758274 0.27029417928 0.26245454743 0.30879284242 0.30966804603 
0.31165562545 0.31409741623 0.31630832776 0.31788786202 0.31862512514 0.31874054761 0.3181399331 0.31658779633 0.31474924315 
0.31288696077 0.31154743115 0.31129229543 0.3121725274 0.39375893197 0.3415559095 0.27364135625 0.30289638655 0.27137813699 
0.28218228916 0.28929721426 0.29435942903 0.29904818797 0.30482893294 0.31538001486 0.31619918356 0.31128901273 0.36831411253 
0.30238245536 0.29452585886 0.28885441252 0.28242961617 0.27492389437 0.2646562457 0.33232872047 0.27841936025 0.28357668967 
0.28737369599 0.29181940834 0.30053178979 0.30815303722 0.30593026056 0.29728933075 0.29253700592 0.28953342794 0.28562171774 
0.27963295071 0.27001950806 0.26168785964 0.37622857317 0.3090416843 0.38219554763 0.33603141169 0.25997463691 0.2756737162 
0.30412007178 0.38592250782 0.37173573077 0.26700720298 0.31491583168 0.27971957256 0.3655151457 0.34613324522 0.25644769974 
0.31787719334 0.29905798779 0.31387843024 0.31181650151 0.31301061998 0.30899221896 0.30764502044 0.30639812918 0.30533873851 
0.30460011882 0.31048534829 0.27164353308 0.31356030778 0.28728898878 0.29533637561 0.28359341989 0.28000069043 0.27648528788 
0.27376437383 0.27044985984 0.26490562204 0.2784146021 0.28161165911 0.28432652423 0.28714669127 0.2902623642 0.29363842506 
0.29652747473 0.29888705227 0.30092833428 0.30244005265 0.30378899189 0.31197870889 0.31030957439 0.29720544618 0.30117151001 
0.29511084301 0.29291222378 0.29086072489 0.28868292402 0.28672908642 0.28468927757 0.2825463191 0.27996654881 0.27764114035 
0.27951358504 0.27909910049 0.27875671114 0.27714411878 0.27857942 0.28015000489 0.28234226453 0.2847972827 0.2875179202 
0.2910340941 0.29464189218 0.2987254638 0.3036139335 0.30907804299 0.27212536992 0.34497012625 0.26839469903 0.36543490684 
0.27046052284 0.31473954165 0.31812778294 0.32151709981 0.32413397103 0.32595511655 0.32667010376 0.32600057491 0.32451706329 
0.32190104906 0.31859111809 0.3151863356 0.31217665363 0.31409030469 0.29109554932 0.30595331489 0.30681626616 0.27767135983 
0.28451826426 0.28964301853 0.29467348929 0.30017077279 0.3081670397 0.32343750578 0.27216782132 0.34183998891 0.36530500253 
0.29666495908 0.28997747958 0.28317932852 0.27579902637 0.26943799669 0.30521624232 0.35229457544 0.27746393376 0.28250902637 
0.28789490323 0.29436665043 0.35617543313 0.29418939206 0.28972229494 0.28564335214 0.28064045708 0.27546838491 0.3714816434 
0.31054442564 0.26874735852 0.27417942302 0.34607248553 0.32291958733 0.32066727973 0.30745459182 0.31246408422 0.29980851806 
0.31096798056 0.36508408579 0.27079064587 0.27310691223 0.31018992449 0.30343645308 0.30332373164 0.35608488202 0.34986888912 
0.31569229438 0.30163502577 0.3092938769 0.30488196979 0.30840564392 0.28356137307 0.32785493794 0.29032680468 0.33313806264 
0.29456428838 0.28506599249 0.28795237266 0.2917692172 0.29595933305 0.29930791738 0.30210978046 0.30401495115 0.30507467695 
0.30547355495 0.31944627119 0.29209702973 0.29990267154 0.30123142789 0.29314123554 0.29787455154 0.29034728652 0.28766952189 
0.28483689061 0.28177245912 0.2780572486 0.31755928975 0.3550241589 0.28026691274 0.28412177064 0.28804791336 0.2922022907 
0.2962835023 0.3001187529 0.30339515803 0.30642167993 0.3441296869 0.29891036183 0.3251737153 0.32987344355 0.33286049528 
0.33478762409 0.33461961938 0.33327362175 0.33016441743 0.32494731131 0.31941025064 0.31358968848 0.27722123925 0.33980047917 
0.32299852289 0.31787509544 0.311831792 0.29544052653 0.28575780303 0.29090639219 0.29561274034 0.30215588238 0.27910103573 
0.32139486719 0.33621714467 0.35279327065 0.31455786794 0.30648099274 0.28761322648 0.28388662443 0.31119549957 0.35018418004 
0.30897386806 0.31198560138 0.31689228464 0.31063806892 0.33747363905 0.31602920128 0.30283262148 0.30671376235 0.29848068455 
0.31298316538 0.31510121092 0.31387402449 0.34066295441 0.35283814582 0.27598606075 0.3087240514 0.30882796545 0.29966844974 
0.29017559193 0.28519647696 0.28128433039 0.29097397077 0.30614488609 0.30307056139 0.29798409316 0.31123889612 0.3454666501 
0.2900686552 0.3256335043 0.30003950406 0.3242576993 0.30216129004 0.29302089859 0.30736904085 0.30886398695 0.30921457365 
0.30862864742 0.33435047192 0.30318103727 0.29613146477 0.33554866213 0.32103205053 0.32461589786 0.3007568666 0.30535770955 
0.3084103065 0.31064217983 0.32919068229 0.33541038059 0.32403794528 0.34272038064 0.34243300899 0.34123757968 0.33243144562 
0.32485368249 0.31453654807 0.30160982009 0.30994808249 0.30051004292 0.31607115808 0.33608353902 0.28663297805 0.32593891125 
0.30957154963 0.32067495924 0.32969521784 0.30917098986 0.32185574874 0.30667796309 0.30659940182 0.30459595727 0.31365542173 
0.3165770638 0.33837897309 0.31803362813 0.29383127089 0.2900085069 0.29695873328 0.34437696902 0.31315053738 0.2989207989 
0.29606062678 0.3175608214 0.31562532622 0.31062492393 0.30483744067 0.32750482292 0.30573061961 0.31542320133 0.31194241092 
0.32027565734 0.32051608031 0.32851022765 0.31561116126 0.30611490614 0.30365731488 0.31166418434 0.32076558508 0.31705833003 
0.31920867594 0.83370955713 0.4944122857 0.75773479164 0.47431046381 0.62546310846 1.0416786827 0.69162767139 1.2775061432 
1.2563428592 0.32038895401 0.79778951451 0.75261337312 0.74029692671 0.71522414777 0.51394364328 0.68089757311 0.24405026796 
0.24108318004 0.27063084434 0.2779706409 0.34704210969 0.39298599602 0.45719200449 0.63885144453 0.21580585697 0.19787385356 
0.27459688104 0.28972624105 0.30309029505 0.32306965832 0.97490378473 0.94622735928 0.91867398242 0.86401765233 0.86392709324 
0.19212562663 0.21071034421 0.25438652908 0.32129958375 0.29697896451 0.3793732079 0.45810953594 0.69774061725 0.261920578 
0.24645067132 0.21976147946 0.23345531181 0.27685219912 0.23152307734 0.20648870469 0.21639972486 0.22480267714 0.27755888844 
0.22404816681 0.23635684623 0.27453520609 0.27710731093 0.34175153145 0.4251875463 0.51046152407 0.53127177867 0.79891032353 
0.94689167191 0.74334804785 0.7263250361 0.87222208448 0.85753028515 0.2598645762 0.27391348238 0.29100100589 0.27131581981 
0.35785295633 0.22568934784 0.2506900188 0.26889210169 0.2989918225 0.29823493899 0.33240241483 0.38960402878 0.70248497234 
0.76256775667 0.75147500157 0.74500267304 0.72289548427 0.51275256031 0.82860065977 0.22296143808 0.21837753247 0.2615981515 
0.21595676237 0.20078245001 0.2828029641 0.65261897285 0.54080408878 0.40992745002 0.36088822256 0.31918760875 0.27959138585 
0.2525012427 0.19330400584 0.7976471003 0.94900140349 0.75068271049 0.72857235502 0.51977644811 0.73040846644 0.23302177824 
0.22354743756 0.26859795893 0.29003539194 0.36903425287 0.68858318686 0.39039899561 0.39468103416 0.30778505828 0.28020421972 
0.25282636029 0.25263164189 0.24055609511 1.0076121395 0.76454895166 0.94260952279 0.9150130004 0.87800914133 0.85781204172 
0.79297116235 0.55495720826 0.94602501212 0.73214884699 0.70619281064 0.72759487619 0.69902953356 0.47444159547 0.34995726795 
0.37194369824 0.28817511369 0.29001618865 0.23120612471 0.23935217691 0.29687582467 0.25817620412 0.28631368946 0.28323530974 
0.34970678836 0.9968952072 0.76188724091 0.55996853886 0.91798376403 0.69639099426 0.70941498824 0.81954058378 0.39658451638 
0.39308811406 0.35503732788 0.31081185534 0.2733010732 0.24285400633 0.22688561503 0.20225965957 0.16847442592 0.2093506464 
0.22181280555 0.21601976869 0.35452008941 0.90778259231 0.94442139184 0.67288372111 0.41039961247 0.44004791575 0.4132766694 
0.4018814236 0.3976076989 0.40380614684 0.40041796787 0.40006012149 0.39716212409 0.4071638358 0.40281528019 0.40556013381 
0.40823535187 0.31469791864 0.31722056791 0.40430327399 0.40288022642 0.40207950315 0.3176344692 0.40638588552 0.416205639 
0.4367867569 0.39763602023 0.64129989782 0.57744487707 0.40379908691 0.40593746155 0.41761137996 0.4129964471 0.40812010712 
0.38417307187 0.37801911536 0.39700112786 0.40159102778 0.40302047094 0.38371646058 0.38322535328 0.40439906429 0.4071066768 
0.40450706118 0.37878102273 0.32831101582 0.3274023309 0.37718077564 0.39976534944 0.39883070515 0.37423449232 0.334891642 
0.3871099714 0.41445226883 0.42430859209 0.41063875064 0.41339250904 0.64753014342 0.30759400967 0.30779300659 0.30780200528 
0.30780801105 0.30777201048 0.30772701056 0.30770802075 0.30769002821 0.30765903016 0.30765302191 0.30763800801 0.30758500972 
0.30755701623 0.30757000924 0.30759000027 0.30756800675 0.30756001374 0.30760100909 0.30763200875 0.30765601914 0.30767002423 
0.30769002099 0.3077080148 0.30772201072 0.30774800834 0.30776800939 0.30776800916 0.3077460039 0.30774500609 0.30770900953 
0.55754909395 0.30018473672 0.28690671798 0.26710212728 0.25551668123 0.24704645836 0.24144381218 0.23842823567 0.23690906266 
0.23665002888 0.23745304988 0.23948610728 0.24259311335 0.24715109831 0.25276608987 0.25887314033 0.26612626718 0.27440743427 
0.28303751854 0.29160864758 0.29895243569 0.30427603521 0.30630306359 0.30496630303 0.30078636653 0.29535936772 0.29014626001 
0.28538810133 0.28151509461 0.2787010777 0.27700703634 0.27624201022 0.27651900186 0.27771600673 0.27978300509 0.28282900929 
0.28631601507 0.28980801756 0.29358201833 0.29727002211 0.30048402336 0.30344302168 0.30585200841 0.3074380001 0.30805902467 
0.30786201536 0.30780701743 0.30800401586 0.30761800065 0.30644300034 0.30466200193 0.30223700296 0.29943900732 0.29646400959 
0.29365501297 0.29120601584 0.28897801229 0.28707900171 0.28590500038 0.28552400064 0.28589000217 0.28724400576 0.28952003841 
0.29243708706 0.29592311678 0.2999601341 0.30400617514 0.30747813183 0.30988202847 0.31033100045 0.30852701668 0.3044440505 
0.29884606447 0.29187422052 0.28428327704 0.27665925584 0.26949116129 0.2631970959 0.25750513204 0.25278921669 0.24891116459 
0.2458850979 0.24420113697 0.24341130179 0.24403575387 0.24640687385 0.25078983493 0.25799799513 0.26959675821 0.28879144028 
0.3099199101 0.56184782166 0.22893446872 0.31777776673 0.43660639011 0.45178739951 0.45028520634 0.43422676703 0.41607449298 
0.35949419824 0.36047451261 0.3664749992 0.62283603465 0.56643911445 0.37237638735 0.40305059655 0.40509925282 0.41562671881 
0.42983538161 0.44647550454 0.39139384301 0.40356479156 0.29196972967 0.22765081842 0.22775709641 0.31417759949 0.45518370772 
0.44576845016 0.43019804766 0.41385345012 0.42682621198 0.39996326496 0.3658246301 0.34825570939 0.63692151791 0.59830756343 
0.35111719383 0.34603815896 0.37803800442 0.34986629133 0.41282618357 0.37646462405 0.39551621749 0.38882966817 0.31576130073 
0.2599091014 0.30764801864 0.30783001208 0.30782200438 0.30779001448 0.30777402448 0.30773302465 0.3076760315 0.30762802453 
0.30756903098 0.30754202186 0.30752500739 0.30748700048 0.30752000671 0.30755601541 0.30757302338 0.30763301775 0.30767602365 
0.30771902286 0.30776101505 0.30776801425 0.30779900457 0.30782100201 0.30781701215 0.30763000703 0.5485369209 0.32954992864 
0.27810473961 0.25916304613 0.24721417547 0.24070927104 0.23762726995 0.23672725245 0.23756512414 0.24039721138 0.24525126239 
0.25167539824 0.25961736877 0.26808748842 0.27723357846 0.28751071467 0.29750151654 0.30444011595 0.30628802097 0.30324524558 
0.29755239384 0.29116631394 0.28490627608 0.28014610146 0.27737603737 0.27626100997 0.27670500433 0.27865500337 0.28188402473 
0.28595903004 0.28997303328 0.29426203773 0.29864202396 0.30227901235 0.30525900557 0.30736300135 0.30806603358 0.30783402057 
0.30783601098 0.30800103285 0.30722100039 0.30540500711 0.30265901744 0.29933201316 0.29578201886 0.29239201262 0.28941500644 
0.28703900483 0.28576000136 0.28567300941 0.2870160504 0.28958106882 0.29333910139 0.29777314172 0.30254317481 0.30708514155 
0.31012806574 0.31011200015 0.30638606954 0.29925125785 0.29034025342 0.28071425235 0.2711252094 0.26259314825 0.25557115313 
0.25003910301 0.24619509252 0.24409405711 0.2438370943 0.24594610575 0.25126943109 0.26172438784 0.28256324358 0.32720615487 
0.55188340225 0.22641921503 0.33350935347 0.46579230059 0.45955109094 0.45448993446 0.44173733103 0.422995685 0.40211556602 
0.38416826175 0.36509606049 0.58997952997 0.6558488281 0.33367210539 0.3995464739 0.41684266579 0.42379334203 0.43844782645 
0.45240921083 0.4499619103 0.45061245074 0.29017674702 0.20223563639 0.22974442162 0.2966116237 0.45650655738 0.45306127999 
0.43124339898 0.41100600623 0.39932635765 0.38541583362 0.34592401548 0.68115395074 0.68871723041 0.35579482266 0.35925671131 
0.37624348807 0.39289499908 0.41502840091 0.42765847102 0.48717817344 0.41584769373 0.29499507748 0.26115043679 0.30771000041 
0.30769300089 0.72257767371 0.68315050958 0.71667389066 0.83897298768 0.70971335959 0.63884003472 0.93275299518 0.8132003995 
0.64063233761 0.92598793184 0.60675390212 0.83560666323 0.14269036635 0.70425007645 0.76808187311 0.14580735817 0.18470768602 
0.177638742 0.18584146658 0.17686359592 0.17619718373 0.18692355214 0.184378899 0.17621769174 0.18614312073 0.18047915758 
0.20533812082 0.19508605593 0.23392768074 0.22813401143 0.24314904164 0.22994448815 0.23153155337 0.23210487955 0.19086439906 
0.20213968029 0.21449282767 0.22767986705 0.17860106318 0.24855155293 0.242965856 0.17078902336 0.20591977705 0.20073188186 
0.20080011017 0.20726212543 0.24435890045 0.21988690249 0.21126723011 0.22922843981 0.21524402051 0.20818391463 0.23096576873 
0.21344425519 0.19674550506 0.21324422298 0.21477962432 0.21103923686 0.20355512582 0.23836314879 0.19994880463 0.20052767532 
0.19574114538 0.18128653218 0.1815989373 0.18068674612 0.17861680813 0.17789045705 0.19319420878 0.1926942606 0.19193714234 
0.19065008862 0.21489837904 0.21733505332 0.22964792407 0.24032054831 0.22717981687 0.25116793397 0.19732866028 0.19986755847 
0.22038788215 0.20846197388 0.18272452966 0.18285403222 0.20230518769 0.21813768611 0.22320092299 0.19971857124 0.2655579552 
0.23530227819 0.24351576045 0.24218362896 0.22246886013 0.21460301023 0.22463630148 0.18568251427 0.19670778421 0.20777158268 
0.21142606505 0.17463352761 0.20713502521 0.19755053221 0.2209291808 0.21123583218 0.2275903658 0.23108216875 0.17818167571 
0.19898515069 0.20634266751 0.21377345955 0.21096085814 0.20000179213 0.23455947284 0.24134361274 0.18397973466 0.19781241867 
0.19493242124 0.17827177606 0.18707774824 0.18315035015 0.17821249113 0.18162116552 0.2000677337 0.2728643819 0.24634301898 
0.23237380273 0.25238691372 0.23180356697 0.22525429994 0.21652691667 0.2286015966 0.1776046907 0.18589104034 0.19995117118 
0.17641265036 0.20829083439 0.1869782467 0.21916093633 0.19365928327 0.24100962443 0.20060194169 0.21039668228 0.21665852416 
0.20179791857 0.20959693494 0.18481417542 0.20388451517 0.20657842346 0.2116628064 0.22701403194 0.22466221662 0.26485806369 
0.19751777424 0.19694331435 0.19371065556 0.18783771883 0.20644298615 0.20390444282 0.19573479538 0.23022071729 0.21954597837 
0.20876818942 0.24186422072 0.24660057193 0.23079082578 0.23730570383 0.22482247481 0.17835162829 0.17477663806 0.17672759596 
0.17615551437 0.18637301001 0.18008103184 0.18073477099 0.20269628196 0.21830106256 0.22562082393 0.22976983434 0.21818508828 
0.21521322944 0.21832118784 0.18057508227 0.180846523 0.17677511899 0.19122212998 0.18227964663 0.20466087017 0.21344228262 
0.20743664735 0.1992802614 0.22298764445 0.19976956026 0.19117978728 0.19414298056 0.18362071921 0.18937992189 0.20652770108 
0.2136729668 0.20120083306 0.20875590738 0.24097562782 0.23178161217 0.24096751093 0.22772709949 0.23575842215 0.23083391947 
0.21788713562 0.22036548706 0.21747671931 0.20523100507 0.20821767913 0.20536752637 0.20254187244 0.18249320288 0.18010627293 
0.17753352491 0.18041768239 0.1930847123 0.25642213558 0.25154964142 0.22893159229 0.24916137005 0.23019600088 0.21831435268 
0.23288352741 0.18869055255 0.19224524783 0.17980363669 0.19194922894 0.19925744841 0.17865399872 0.19102764829 0.18110256212 
0.18829514249 0.18741161272 0.19045227636 0.2126727786 0.20087048319 0.20119550558 0.21651262541 0.24277744692 0.20836882527 
0.21577164021 0.20147312886 0.18262866636 0.17497377499 0.19734106447 0.20519495217 0.25491749118 0.24600669677 0.23195681231 
0.21856002384 0.21276796664 0.20171687662 0.19886759606 0.19802528518 0.18378216434 0.17661472527 0.18045009079 0.18078377859 
0.1922420266 0.21010193402 0.23606905435 0.25802909878 0.21507798008 0.22090828537 0.22663292294 0.24439211607 0.19782493938 
0.18480761691 0.223451286 0.22105766775 0.20423962419 0.21409027928 0.21869510514 0.19006930846 0.17782747356 0.17621645393 
0.19883487488 0.17917479657 0.21497126625 0.18597390857 0.22843382149 0.23711739131 0.18500406883 0.20359104433 0.19866699894 
0.1844571318 0.1825302499 0.18514828116 0.18151119068 0.18085228493 0.19287267773 0.18227204535 0.18184375999 0.18949772497 
0.1991447819 0.23810043076 0.27329717503 0.24562089318 0.24085749432 0.23277757551 0.22835371722 0.24132714831 0.23586857332 
0.23004214124 0.22801713403 0.20624571983 0.20218407678 0.19956291831 0.2046748659 0.22748345364 0.19323275962 0.18951851851 
0.18967221182 0.20523092312 0.21277077129 0.20332860779 0.20216006354 0.21769410171 0.23055711827 0.21073042154 0.21979537293 
0.22837552588 0.21665096968 0.20538652202 0.21055775457 0.18415239627 0.18329061391 0.18001013167 0.17787243351 0.17919688752 
0.18950182802 0.18190606284 0.18396059594 0.19147576093 0.18619338752 0.28080727735 0.24630028233 0.24024906804 0.23951524854 
0.24018853757 0.25260968339 0.23434938217 0.22522697405 0.23318401211 0.23307205337 0.2179047872 0.22183263868 0.219010155 
0.19952305394 0.20375776274 0.19972441846 0.20267690629 0.21641365261 0.20671714906 0.21608067826 0.24830981042 0.18863098498 
0.2070128539 0.21939889885 0.23070046459 0.18472437835 0.20691525086 0.20755041395 0.22332535613 0.1870847764 0.19347322406 
0.21968142286 0.20443820167 0.19136724251 0.20223875539 0.20808853203 0.21629986981 0.20038737502 0.20158023736 0.21558952869 
0.60125623874 0.61195040454 0.40109056329 0.42059399515 0.36654155951 0.34763085749 0.34539028124 0.33392727698 0.33127430525 
0.32321825978 0.31971780576 0.31972410323 0.31900270978 0.30891297896 0.31500820305 0.30453189936 0.31056239604 0.31102663389 
0.30590481486 0.31164200126 0.30809810681 0.3080207772 0.31323755935 0.3037731694 0.31056727788 0.30946249923 0.30673753131 
0.3155310322 0.31085079966 0.29950931183 0.29490356632 0.29412123762 0.30346659348 0.31511660762 0.31353055082 0.31121768495 
0.30811711125 0.32053916519 0.30969577823 0.30247127305 0.31187732333 0.32782063798 0.33432756809 0.34665996897 0.35425436396 
0.34845262498 0.38819407472 0.3232569523 0.32477856999 0.35070838572 0.3092609288 0.30495787192 0.30433721388 0.30598466855 
0.30771102488 0.30756901036 0.30753106464 0.30753951615 0.30752876395 0.30749004827 0.30756708543 0.30755226839 0.30754411533 
0.30759389558 0.30759309972 0.30756380168 0.30762847793 0.30762878894 0.30760062424 0.30765887469 0.30765183544 0.30763987637 
0.30768935851 0.30768330801 0.30769258545 0.30773249909 0.30772736813 0.3077280022 0.30776725626 0.30775617104 0.30775746863 
0.30777902332 0.30778961061 0.30780809681 0.3078119983 0.30781583728 0.30782089356 0.30784249344 0.30784036593 0.30781532136 
0.30785943029 0.30783333236 0.30781827404 0.30783100682 0.30784100144 0.30787341314 0.30785427395 0.30784738013 0.30785631087 
0.307837276 0.3078303937 0.30782297061 0.30780566794 0.30779888198 0.30781780642 0.30778117293 0.30777545146 0.30780167775 
0.30774842794 0.30775353052 0.30779573414 0.3077233568 0.30772441525 0.30774609492 0.30768150938 0.30769651784 0.30771824188 
0.30765738641 0.30766536872 0.3076940902 0.30764143713 0.30764935696 0.30767161328 0.30762647905 0.30762121725 0.30762458986 
0.30759271505 0.3076075941 0.30762541484 0.30758543615 0.30759533829 0.30760670308 0.3075815105 0.3075913872 0.30757832179 
0.30760705543 0.30761902183 0.30756481773 0.3076490163 0.30766600887 0.30771902347 0.30764401287 0.35214504341 0.35203870939 
0.33419989094 0.32079213238 0.30290011365 0.33740758785 0.29098994608 0.28158244936 0.30609366988 0.27336692926 0.26701184458 
0.28802614532 0.26139319092 0.25753173898 0.27471369604 0.25387536022 0.25167740046 0.26512243933 0.24905985698 0.24772216885 
0.25904785109 0.2458850672 0.24532482084 0.25466224558 0.24472805008 0.24470801494 0.25226582643 0.24470276867 0.24523599215 
0.25155223766 0.24522731841 0.24659780496 0.25143666796 0.24731033098 0.24914370739 0.25207976702 0.25042460929 0.25304734929 
0.25415391086 0.25502000938 0.25780170295 0.25739506186 0.26004104032 0.26308131978 0.26145847338 0.26538112246 0.26929271661 
0.26589710555 0.27202480229 0.27620397921 0.27090435935 0.27910201472 0.28315680543 0.27649811927 0.28597974731 0.28985795587 
0.28227705459 0.29221426675 0.29529904111 0.28754781495 0.29674254982 0.29868072672 0.29141585556 0.29944941851 0.29955602309 
0.29388584247 0.29944323951 0.29828207968 0.29467821517 0.29732051954 0.29506635916 0.2934837159 0.29361376914 0.29108591883 
0.29094529149 0.28962876046 0.28723479518 0.28803840853 0.28600255121 0.28394854567 0.28536129985 0.28287820744 0.28126593058 
0.28297719374 0.28051298302 0.27937971458 0.28116671743 0.27898184978 0.27833766821 0.28000571607 0.27825702264 0.27820200168 
0.27959773314 0.27843939335 0.27889359819 0.27986648947 0.27958116197 0.28035527218 0.28084276715 0.28131127253 0.28251052921 
0.28250961352 0.28385003487 0.28554652647 0.28481934492 0.28688138922 0.28853067671 0.28754322643 0.28997289787 0.29169478288 
0.2903292584 0.29314263576 0.2950624124 0.29324430754 0.29659397911 0.29826280387 0.29626077302 0.29963965109 0.3010805252 
0.299160888 0.30224968081 0.30362743451 0.30169429813 0.30464651937 0.30563923899 0.30389012759 0.30638090695 0.30693965956 
0.30561787145 0.30742709509 0.30757505508 0.3068024138 0.30754503211 0.3075040904 0.30747703845 0.30713238387 0.30671345573 
0.30689188137 0.3060812086 0.30534232218 0.30597012545 0.30451121185 0.30352331673 0.30452690065 0.30254111308 0.30121236049 
0.30271475621 0.30003990543 0.29868493771 0.30055780394 0.29748044113 0.29596240079 0.29817511852 0.29487828081 0.2936662611 
0.29586685065 0.29258844961 0.29144342095 0.29369689333 0.29045746458 0.28942731002 0.29161718767 0.28867337975 0.28785815822 
0.2898678904 0.2874423948 0.28703229501 0.28855184365 0.28680200604 0.28685400143 0.28781434493 0.28690632599 0.2873143861 
0.28758631326 0.28768744201 0.28861773534 0.28805031307 0.28935839191 0.29040102267 0.28916366687 0.29148557846 0.29303785681 
0.290768975 0.29415828616 0.29596742809 0.2927552613 0.29727659067 0.29925271045 0.29518617017 0.30053617171 0.30229623735 
0.29781199865 0.30331660163 0.30478218497 0.3001765213 0.30514479263 0.3058683898 0.30162301891 0.30573822021 0.30532751153 
0.30203700216 0.30437277156 0.30285677134 0.30112722435 0.30133772706 0.29895595415 0.29863421426 0.29693206293 0.294090274 
0.29503801114 0.29146021364 0.28770135664 0.29031793914 0.28497064936 0.28138476165 0.28503110263 0.27872657856 0.2749459708 
0.27967278399 0.27235063865 0.26908269532 0.27439120779 0.26678221291 0.26388815618 0.26948353478 0.26197676973 0.25938310798 
0.26521278453 0.25787650491 0.25579851256 0.26175184036 0.25461634122 0.25278269057 0.25913199302 0.25207168989 0.25104656211 
0.25731395115 0.25105166008 0.25046942836 0.25647900555 0.25094205828 0.25105211273 0.25696400377 0.25221977574 0.25305768995 
0.25852643508 0.25505153927 0.25671366386 0.26178623497 0.26030610287 0.26329925888 0.26715646358 0.26929960507 0.27491184615 
0.27605986653 0.2834059951 0.29284233221 0.28983044412 0.30637687728 0.32504608913 0.31139334093 0.3462178739 0.39995959086 
0.34729890044 0.38183453772 0.37328996692 0.346390125 0.32864085503 0.31305680638 0.34758106486 0.31131998276 0.29850804578 
0.33451481156 0.29721699885 0.28906108811 0.32144922488 0.28929212953 0.28565574822 0.31143479501 0.28815010854 0.28043289045 
0.30620371879 0.28408369986 0.28364487754 0.30482577002 0.28606873764 0.28107166781 0.30717426222 0.28370711725 0.28126555547 
0.30545184983 0.28070896704 0.2818482282 0.30419970868 0.28381073861 0.28015129616 0.30568070141 0.2827474778 0.2844607083 
0.3059540789 0.2843997093 0.28246369292 0.31124002426 0.28388154962 0.28256141541 0.30891546631 0.28206703072 0.28296708632 
0.30804065361 0.28335579581 0.27898952477 0.30989798797 0.29533708233 0.29620597167 0.31027745069 0.29603419475 0.29214204952 
0.30913234311 0.27389739147 0.28351043645 0.30965516561 0.27927601745 0.28335251287 0.3061851464 0.28060208961 0.28657597831 
0.30596300371 0.28271210438 0.28570210605 0.30702928162 0.29869561522 0.29920562659 0.3062609681 0.27915178424 0.29275643263 
0.30966645628 0.29085116767 0.29717027538 0.30999287091 0.29912543936 0.31126371075 0.31913498601 0.31614902309 0.33045564689 
0.33607868701 0.35325555551 0.3863201825 0.36711070213 0.22510855392 0.17832231267 0.2637782347 0.24198606205 0.22770521032 
0.29740362871 0.28506524984 0.26694220546 0.27988907844 0.29027083535 0.28572978579 0.28517306452 0.29255408742 0.29542431431 
0.28543668183 0.29058177566 0.29704287634 0.29431923629 0.29140863013 0.2979094843 0.29781524325 0.29392404936 0.29640856927 
0.30321586194 0.30233067595 0.30173310444 0.37353327875 0.34252499154 0.33083114034 0.51880627171 0.41843548047 0.37220099886 
0.41624429071 0.48254595923 0.33555575088 0.36872937709 0.36543745419 0.30541722037 0.32089202315 0.32422231908 0.29142128739 
0.292905618 0.30797951516 0.28616307013 0.28356691381 0.29764036823 0.28540630792 0.28009260664 0.29342607401 0.28727271065 
0.28000006852 0.29186588164 0.28288256283 0.27351739226 0.2893059287 0.27210041215 0.28140696758 0.27705671958 0.22856669463 
0.25531198434 0.24965820857 0.18235652981 0.23106518267 0.21845665182 0.22889901125 0.18754639539 0.25804989247 0.24210842175 
0.22796976125 0.28486953362 0.28324963439 0.26655850191 0.28060139581 0.28988989814 0.28990690439 0.27680479528 0.28533494551 
0.29244685774 0.27511797117 0.28123508478 0.29004433951 0.27879723115 0.28175166534 0.28871362932 0.28840021165 0.28543400606 
0.29185578148 0.31296680322 0.29743769857 0.29800870414 0.35363071596 0.32123263801 0.31365549856 0.4894706499 0.38881623876 
0.34827876793 0.39038069419 0.46746853902 0.32691006793 0.36225967183 0.35028045098 0.296436966 0.30414120743 0.31193818287 
0.28776491797 0.28902100694 0.29423091437 0.28397184142 0.28284293244 0.28823877857 0.28806062235 0.28741887003 0.2885319485 
0.28617627197 0.27482700884 0.29363578702 0.29125924626 0.28559964824 0.29006631589 0.28085019658 0.28785793764 0.28673936095 
0.23914219718 0.28262914133 0.26707864805 0.17693571978 0.22730080761 0.23033177242 0.43528256268 0.23771234628 0.22172940318 
0.23720327645 0.4055563669 0.41693766446 0.57441119214 0.52543463427 0.4321441662 0.43302732636 0.23290691656 0.21776193894 
0.23879504516 0.44111826052 0.56762041732 0.42815053329 0.38588058357 0.3076510013 0.23160833886 0.25022872823 0.30697126389 
0.3070061963 0.30710322878 0.30715805142 0.30676738182 0.3072493774 0.30733173014 0.30698419474 0.30741043847 0.30747054373 
0.30720707536 0.30758294168 0.30765738673 0.30747738232 0.3077731693 0.307852961 0.30774016213 0.3079621206 0.3080224949 
0.30800573406 0.30812311983 0.30817800299 0.30823161136 0.30824073125 0.30829852347 0.30846319286 0.30837948624 0.30841860914 
0.30861840843 0.30847847747 0.30849404058 0.30873716007 0.3085126116 0.30852826347 0.30884304724 0.30850920813 0.30849844203 
0.30885700005 0.30847164026 0.30843488801 0.30881080252 0.30837859822 0.30832836051 0.30868692072 0.30826293971 0.30819706099 
0.30856481494 0.30812628661 0.30807273042 0.30839753041 0.30797444357 0.30791325564 0.30815232105 0.30782039563 0.30776588815 
0.30794666651 0.30766868845 0.30762421339 0.30773962719 0.30752564441 0.3074905524 0.30755143725 0.30740655286 0.30736364725 
0.30733375575 0.3072737648 0.30725156195 0.30715707243 0.3071782734 0.30716283142 0.30700464714 0.30717665577 0.30718048955 
0.30691773222 0.30720199001 0.3072464343 0.30696045768 0.30729331811 0.28955018525 0.27535997995 0.38493350699 0.30721925151 
0.32814894077 0.31253656534 0.30426122234 0.29438059825 0.31282551419 0.28829795897 0.28209724158 0.2977525578 0.27692469688 
0.27263263899 0.28627926866 0.26932396703 0.26657114311 0.27800463756 0.26401467776 0.26200473788 0.27193147075 0.26008644949 
0.25946187776 0.26774187154 0.25837173749 0.25826703256 0.26485548097 0.25762768069 0.2575520898 0.26325914132 0.25731893019 
0.25790614327 0.26238570067 0.25823096229 0.25949870853 0.26238011195 0.26013763414 0.26206989786 0.26338695756 0.26304502441 
0.26520370043 0.26509456938 0.26624586699 0.26853368649 0.26727719651 0.26981587718 0.27243612779 0.26970763362 0.27402842906 
0.27674748674 0.27267272254 0.27851495205 0.28106420756 0.27591220845 0.28292175393 0.28492271843 0.27931047039 0.28607639178 
0.28731522052 0.28214904778 0.28801828079 0.28888401764 0.28375016581 0.28928124477 0.28937932267 0.28481145048 0.28910890249 
0.28840207924 0.28505450797 0.28773932586 0.28650132824 0.28421553475 0.28608575836 0.28478752144 0.28328828826 0.28450906737 
0.28331544983 0.28260876402 0.28300492636 0.2819550098 0.28197119736 0.28179387181 0.28108533499 0.28143394943 0.28101936744 
0.28071243385 0.281187067 0.28086929697 0.2808280427 0.2813649651 0.28131114789 0.28155012637 0.28198101114 0.28226485444 
0.28287591041 0.28310563947 0.28375538253 0.28468161084 0.28465216501 0.28585900613 0.28714674697 0.28665131048 0.28831059333 
0.28963521457 0.28902226149 0.29076257488 0.29215630778 0.29133261648 0.29338217104 0.29481015787 0.29373146546 0.29607564905 
0.29755789623 0.29624372973 0.29874546734 0.30008274843 0.2987079572 0.30111716312 0.30226086709 0.30094331851 0.30321501862 
0.30419112335 0.30294181884 0.30503068981 0.30574128584 0.30468070659 0.30635319836 0.30694489684 0.30713459212 0.30611206343 
0.36762473198 0.35348808027 0.33972295339 0.36187661019 0.33571831435 0.33226949645 0.30677505462 0.30645643713 0.30590707985 
0.30531409026 0.30595907784 0.30458132412 0.3037817882 0.30478362846 0.30300481637 0.30203696903 0.30329700163 0.30108870012 
0.29996227305 0.30157496265 0.29897588894 0.29780632289 0.29963066151 0.29682657333 0.29576784441 0.2976617613 0.29479814122 
0.29374846825 0.29569791877 0.29282766654 0.29189318117 0.29379330971 0.29106805062 0.29034916341 0.29205908469 0.28966556702 
0.28921448797 0.29059249223 0.28877362455 0.28852133412 0.28949516152 0.28832310865 0.28833504121 0.2888140903 0.28837280753 
0.28875450387 0.2885581574 0.28887431221 0.28959656665 0.28869993789 0.28987670927 0.29078620976 0.28916690609 0.29127467293 
0.2922930496 0.29001579702 0.29295793686 0.29415968166 0.2911497634 0.29491999052 0.29607307868 0.29255931132 0.29681350545 
0.29762533377 0.29399979235 0.29803234877 0.29830388608 0.29508232269 0.2982430973 0.29822168309 0.29539250599 0.2976347857 
0.29681818112 0.29484827134 0.29585343572 0.29443255171 0.29343906462 0.2930733091 0.2911374858 0.29127129709 0.28945592947 
0.28692305407 0.28818300241 0.2850703826 0.2825093187 0.28460342997 0.28078539746 0.2782024846 0.28105300148 0.27640442362 
0.27391483932 0.27755982252 0.27236106154 0.27009474449 0.27422723856 0.26876723294 0.26678821473 0.27129632666 0.26600315984 
0.26445435866 0.26903120228 0.26392405157 0.26283621062 0.26752790352 0.26272900035 0.26204954042 0.26683320031 0.26233025908 
0.26239079204 0.26702909059 0.26318885568 0.26361845448 0.26801232939 0.26520078748 0.26646672911 0.27017048231 0.2686647349 
0.27101258617 0.27372228289 0.27413769919 0.27816989902 0.27913001016 0.28301393194 0.2893338736 0.28744326407 0.29659536016 
0.30607224202 0.29931626573 0.3147406426 0.33181573668 0.33656347745 0.31641591474 0.33594801261 0.25122313834 0.23282178684 
0.32936160233 0.32466621909 0.31566788066 0.31524094145 0.32843932499 0.30634684352 0.30797910202 0.31740078271 0.30089351818 
0.30749454218 0.31054746293 0.29836107411 0.2920756339 0.30835100461 0.29653663344 0.30110968093 0.30633843675 0.2994876214 
0.30103717345 0.30497001327 0.29958706813 0.30208929604 0.30546595936 0.29982328418 0.30478376954 0.30694935886 0.2984493652 
0.29459427926 0.30896731091 0.30054978636 0.30152919128 0.30999921549 0.30430597925 0.30442079957 0.31188122127 0.30460880694 
0.30472039903 0.31110617608 0.30607250466 0.30944198628 0.31206158247 0.30116568568 0.29470350038 0.31189399405 0.29736381016 
0.29684350953 0.31036736642 0.29819322209 0.30050746882 0.30899920158 0.31019671925 0.30213250764 0.31054782681 0.3042810383 
0.30078265 0.30899442851 0.30406695912 0.30368193853 0.30799250309 0.29663744335 0.29241496238 0.30736433096 0.2935061834 
0.30255147874 0.30881509233 0.31394911284 0.30689720004 0.31240661567 0.31595622972 0.31562487862 0.3178468249 0.32664023681 
0.33491025756 0.32867221845 0.27307698496 0.25322724149 0.26993298346 0.41322649296 0.44306107068 0.24089530779 0.23296641562 
0.25041657375 0.2906303264 0.28836150627 0.28598961324 0.29338057375 0.29095254933 0.29272915501 0.29580173126 0.29426231521 
0.29658527297 0.30017437639 0.29676796369 0.29965817263 0.30932131168 0.30387117229 0.30563799142 0.33131058056 0.32397392052 
0.31979363699 0.38027319226 0.35690970783 0.34935010352 0.23861189543 0.25119194139 0.31589913026 0.33209643161 0.35297292303 
0.37804826434 0.37891777431 0.33990539312 0.29358138901 0.29938554808 0.28930442704 0.29303295973 0.29491537625 0.28577521552 
0.28950793854 0.29083116433 0.28124071546 0.28482671619 0.28619917854 0.26780981229 0.27786580222 0.2773063727 0.24542952766 
0.26030265884 0.26180453565 0.23535590082 0.23499486002 0.24633398846 0.25248667884 0.23904411571 0.39605174278 0.41895342333 
0.2683422026 0.25348523185 0.2440430789 0.23774351554 0.24930545658 0.25223688274 0.28737829406 0.28321006259 0.28844205675 
0.28547405918 0.28621728128 0.29039398807 0.28670418421 0.28852259581 0.29450997269 0.28968536144 0.29071207869 0.30380991832 
0.2958853147 0.29538563724 0.32852316551 0.3109003171 0.30672590413 0.38253442746 0.34874610607 0.33557859604 0.43249732316 
0.41181781963 0.30882018036 0.31949759173 0.33924135564 0.37383646025 0.36366517514 0.32920982082 0.29207865686 0.29329167302 
0.28908833944 0.29170210737 0.29295827324 0.28979302989 0.28968354998 0.29143851367 0.28635080255 0.28863380954 0.28917541189 
0.27814929019 0.28475318125 0.28303651019 0.25429667017 0.27264830338 0.26936195971 0.23426482039 0.24650897747 0.25165766005 
0.24786844561 0.30700680232 0.30100530209 0.31016604054 0.31418511179 0.3013870374 0.28388086097 0.27283301187 0.26792486571 
0.28072160234 0.29653413445 0.30040963406 0.30622760417 0.29665359691 0.35395063965 0.260688538 0.25829644286 0.30707766631 
0.34334249369 0.40988062234 0.43969866966 0.26128450648 0.30667930581 0.34281794216 0.33627000621 0.44373926978 0.24779700358 
0.26021550663 0.25602229413 0.26111301491 0.40837343894 0.24847654898 0.39105651346 0.4059474324 0.37631777991 0.39468603711 
0.30665679149 0.32906268423 0.30645577873 0.30661893291 0.30674752455 0.30693871187 0.30635834059 0.30715620487 0.3073698564 
0.30681114816 0.30762084531 0.30786869055 0.30745046116 0.3081246581 0.30834810246 0.30809355552 0.30857686309 0.30877914396 
0.30870370844 0.30896943509 0.30912206314 0.30923410533 0.30931377179 0.30946266602 0.30973159194 0.30963914589 0.30977149127 
0.31018382729 0.30988718452 0.30990440619 0.31051941606 0.30990233202 0.30986942602 0.3106404142 0.30974904177 0.30965923974 
0.31047149804 0.30954633074 0.30942370962 0.31018175225 0.30934578515 0.30919501442 0.30993107333 0.30902281626 0.3088516383 
0.30956932972 0.30863858601 0.3084297427 0.30906434814 0.30821625242 0.308026395 0.30851198845 0.30784302926 0.30765977672 
0.30799329526 0.30747525797 0.30731211625 0.30755554374 0.30712697923 0.30700001735 0.30709996689 0.30680415436 0.30667522326 
0.30664058147 0.30651135151 0.30641899901 0.30624205711 0.30634561977 0.30637624501 0.30597219976 0.30642015696 0.30650026334 
0.3062183231 0.30594880174 0.26036436457 0.25596388627 0.29206108529 0.28890185736 0.26147026648 0.26765850841 0.32314041213 
0.31269887742 0.3934344442 0.40480436689 0.30762110374 0.30031655845 0.31268833079 0.29673872051 0.29040132534 0.30221022378 
0.28730322852 0.28331646875 0.29399250075 0.28073405532 0.27775263307 0.28743593893 0.2757818904 0.27370912645 0.28241942301 
0.27196559887 0.27095900733 0.27844549208 0.26950747916 0.26888207024 0.27537925505 0.26778835385 0.26745446247 0.27297422198 
0.26671770572 0.26689691753 0.2711668156 0.26661976948 0.26732639574 0.27019024689 0.26730157551 0.26837095843 0.26999522969 
0.26842043203 0.26956850197 0.27018347361 0.26969853931 0.27101672506 0.27047917147 0.27127163959 0.27284938055 0.2708556313 
0.27335650838 0.27496580808 0.27174748838 0.27548055262 0.27690276093 0.27275537738 0.27831588235 0.27899542802 0.27421965977 
0.27835004743 0.27879079641 0.27477779408 0.27991146863 0.28062600511 0.27496820436 0.28045895565 0.28063033627 0.27610495251 
0.28045740322 0.28009999007 0.27622025395 0.28031712554 0.28008016977 0.27677053861 0.28060804328 0.28035721952 0.27781922643 
0.28090925824 0.28058897983 0.27896533721 0.2810428297 0.2808390066 0.27988521058 0.28136653453 0.28132329313 0.28076582452 
0.28185995543 0.28204812631 0.28172921261 0.28276193529 0.28321835424 0.28294936535 0.28405408943 0.28465606126 0.28445925929 
0.28562717424 0.28641068922 0.28619372257 0.28752900422 0.28861811744 0.28820744718 0.28987687616 0.29097301691 0.29049246314 
0.29202256858 0.29312771394 0.29272247631 0.29420280521 0.29538656659 0.29481257308 0.29644294007 0.29766756466 0.29691295417 
0.29867563873 0.29983222227 0.29894814934 0.30071630385 0.3017361331 0.30083187915 0.30266954879 0.30359052886 0.30264855291 
0.30450842425 0.30533179163 0.3044412116 0.30594969901 0.30566781101 0.26727905871 0.26149832966 0.30508858962 0.30441894296 
0.30544770974 0.30364236456 0.30290436859 0.30212126477 0.30120471187 0.30263677163 0.30036150521 0.29941971502 0.3010286571 
0.29853443036 0.29760065507 0.29933760801 0.29675508125 0.29582296955 0.29764849576 0.29487758913 0.29399596997 0.29588411584 
0.29308402181 0.29232626682 0.29404545933 0.29153618109 0.29094883949 0.29238131393 0.29027296151 0.28988553223 0.29098505968 
0.2893377025 0.28911105044 0.28982986103 0.288726048 0.2887034757 0.28892500073 0.28842958063 0.28858578629 0.28828914886 
0.28838626957 0.28872431925 0.28784841554 0.28863217361 0.28910957608 0.28758547304 0.28915053419 0.28971913277 0.28753361585 
0.290074569 0.29071833717 0.28784005793 0.29132634069 0.29183925319 0.28872260417 0.29224071697 0.29234007807 0.28957836777 
0.2923190316 0.29210800046 0.28971730593 0.29180128203 0.29131081298 0.2892348205 0.29091362076 0.29021739472 0.28857273503 
0.28930809777 0.28817282177 0.28746220875 0.28690397141 0.28535211096 0.28546400432 0.28415275943 0.28241642786 0.28318952988 
0.28135961982 0.27967917008 0.28101344206 0.27877916016 0.27702757898 0.27903166853 0.27625636601 0.27472366644 0.27728930738 
0.27405876466 0.27273877704 0.27576053821 0.27243103736 0.2715016586 0.2747341612 0.27156153029 0.27095344942 0.27437142274 
0.27125100202 0.27116232493 0.27454987469 0.27170955263 0.27210626667 0.27530494678 0.27307767774 0.27405193993 0.27690214145 
0.27557604921 0.2772423957 0.2796121027 0.27937361445 0.28166575809 0.28331753284 0.28454738154 0.28857150545 0.28834648795 
0.29178103119 0.2977818613 0.29526555484 0.30097477105 0.3088611367 0.3030645483 0.32498059316 0.32030606664 0.32792476978 
0.4147595695 0.41617217603 0.28650478682 0.28066078666 0.28560075861 0.31748397294 0.3136765938 0.31813241213 0.31121366539 
0.30949442901 0.31339465624 0.30825115658 0.30612071016 0.310100665 0.30554587512 0.30636830597 0.30850719119 0.30672686636 
0.3066144411 0.30837873636 0.30731403317 0.30761280592 0.30911527317 0.30829642269 0.30917635437 0.31052929191 0.30975145118 
0.30958723176 0.31194045391 0.31032492285 0.31204706757 0.31354406613 0.3123946691 0.31320006914 0.31512750162 0.3137542306 
0.31391258966 0.31656069181 0.31428083315 0.314659201 0.31738085279 0.31433415836 0.31318003574 0.31719496829 0.31232374318 
0.31073152807 0.31630618422 0.31077588739 0.31089681003 0.31573065023 0.31116190237 0.31159317568 0.31458561825 0.31109668243 
0.31040754814 0.31363251376 0.30973860382 0.30954879746 0.31230957322 0.30868956205 0.30799105948 0.31102576838 0.30781743751 
0.30788500688 0.31051360352 0.30944502933 0.31295237977 0.31166001935 0.31487760135 0.31812071999 0.31448131919 0.32082550742 
0.32481512584 0.27634965344 0.26747817709 0.26532288103 0.2761446626 0.28794399846 0.29061193022 0.29609618964 0.29415707294 
0.29174696141 0.30009933425 0.2978323044 0.29644642692 0.30743322699 0.30345692231 0.30179752372 0.32271538757 0.31431894171 
0.31105695028 0.35320383046 0.33810387769 0.32914140836 0.28816124746 0.28668715203 0.26050510228 0.25387120886 0.28188389626 
0.28590234015 0.28527712309 0.29267863579 0.29546917917 0.290625102 0.27213117834 0.27865043016 0.2780439309 0.26017050773 
0.26752481082 0.26863622959 0.25328523872 0.25431117799 0.26006867705 0.36753507035 0.377017649 0.40716164084 0.37938721615 
0.36023627979 0.38648448253 0.37732455835 0.35969435778 0.29120349204 0.28957159741 0.287999406 0.28537994875 0.28247345665 
0.28451604674 0.29674265637 0.29384630228 0.29199723534 0.31036026004 0.30300581979 0.29979903018 0.34038209164 0.324917312 
0.31592241929 0.38165487952 0.38070899448 0.25229632246 0.2588230186 0.26624885428 0.26069689481 0.3059142362 0.30607103952 
0.28469543883 0.28773226572 0.29153384601 0.29295107246 0.27716915462 0.28280760109 0.28128576139 0.26574233616 0.27392750483 
0.27370519451 0.28896154354 0.29040195036 0.2864975128 0.30576055596 0.26593007206 0.25935285129 0.27301443097 0.27143999173 
0.38635789265 0.39938312228 0.3092166413 0.31662314865 0.27223791038 0.27300614249 0.27625702997 0.30413165531 0.32482282679 
0.25315349266 0.39376156491 0.31833725554 0.34094948727 0.26200696765 0.26657403144 0.36108428316 0.27921625357 0.28057484064 
0.27510588591 0.38273453755 0.37141263321 0.36280991086 0.25978713028 0.27169730203 0.26436512936 0.27160419018 0.36078600425 
0.36966058594 0.26419368047 0.26003942004 0.25690369495 0.36527681917 0.35411316631 0.34830484361 0.29646176897 0.29885307023 
0.30260220671 0.30243126831 0.30846402263 0.25610373386 0.26083316211 0.26213664299 0.36340066061 0.2936968381 0.29504602056 
0.29757425445 0.26032831244 0.26495870109 0.25673947412 0.26967465672 0.2662490413 0.29002541068 0.32908705621 0.34327970128 
0.32118635994 0.31880257407 0.33176593229 0.33246029775 0.31193539805 0.26618698727 0.30559204906 0.30580876605 0.27292643244 
0.26947504632 0.30619385317 0.30657266963 0.30547339976 0.30701312097 0.30747593895 0.30653665064 0.30796145499 0.30846275923 
0.3077244044 0.3089511618 0.30938858891 0.30893935541 0.30983385792 0.31019148148 0.31008712945 0.31038710999 0.31070720273 
0.31096027378 0.31114555311 0.31150350651 0.31180014268 0.31179157371 0.31198730975 0.31265722952 0.31215838649 0.31210957326 
0.31318065457 0.31194536527 0.31170739981 0.3131591111 0.31132409355 0.31111150912 0.31250974726 0.31117590523 0.31095898635 
0.3120665774 0.31070737757 0.31035759084 0.31170754518 0.30991993647 0.30952896278 0.31081520625 0.3090727426 0.30867072297 
0.30970011216 0.30828556468 0.30793368108 0.30866392716 0.30758615988 0.30726721361 0.30779347537 0.306923935 0.30664049619 
0.30696604509 0.30631229048 0.30602593761 0.30613810207 0.30576403367 0.30553642555 0.30543716377 0.30529341047 0.30522191128 
0.30483960261 0.30533364702 0.29675327719 0.29429753091 0.27400077048 0.27694238202 0.31490072956 0.31621584586 0.3096932208 
0.30818711232 0.303333123 0.31046990069 0.3014010953 0.29694394421 0.30513209393 0.29514492942 0.29187864877 0.30021829832 
0.29002648714 0.28753997374 0.2957974047 0.28547393806 0.2836602472 0.29164707039 0.28181140975 0.28036791816 0.28764848631 
0.27872619106 0.27765500316 0.28416491532 0.27610831868 0.27530612868 0.28103008946 0.27402277367 0.27370820675 0.27820919722 
0.27281568812 0.27281131265 0.27615797302 0.27209584918 0.27218871919 0.27465026752 0.27138989151 0.27152075576 0.27314590765 
0.27055678939 0.27083765272 0.27119358051 0.26897957047 0.27008139496 0.27082462697 0.27248611663 0.27260666153 0.27320571409 
0.27372573923 0.27426299757 0.27506799991 0.27050956417 0.27700865677 0.27760743031 0.27426225637 0.27865287788 0.27911199711 
0.27708028142 0.28014098072 0.28065681728 0.2791641953 0.28159917798 0.28214714803 0.28111315186 0.28310058378 0.28383164052 
0.28301706706 0.28497335554 0.28574832157 0.28504388799 0.28693080795 0.28778845707 0.28729448178 0.28906582715 0.2900753784 
0.28969397118 0.29138360609 0.29249488584 0.29220106716 0.29362135828 0.29458064742 0.29450376081 0.29556696585 0.29656787507 
0.29648441691 0.29751208314 0.29849294645 0.29831220464 0.29938642631 0.30034437747 0.30003685763 0.30102487149 0.30187299478 
0.3015388025 0.30248999459 0.30336322063 0.30276773558 0.30317137042 0.30242984507 0.31390441787 0.31376837231 0.30179375869 
0.30100129202 0.30242556435 0.30026581428 0.29944948855 0.3011086162 0.29863976079 0.29785937088 0.29964755851 0.29696061653 
0.29609366321 0.29801720496 0.29509329597 0.29424364655 0.29620077079 0.29327614955 0.29257088199 0.29429527326 0.29170831398 
0.29112399707 0.2925285225 0.29031783716 0.28982733789 0.29092419972 0.28911327895 0.28874603682 0.28946641176 0.28812062908 
0.28783676419 0.28818608994 0.28720253405 0.28700102965 0.28698725884 0.28638712359 0.28627311323 0.28568968403 0.28581701269 
0.28578723541 0.28447279368 0.28564231244 0.28583140498 0.28365247551 0.28620297602 0.28654002995 0.28352096335 0.28740406568 
0.28750491518 0.28460313839 0.28696154133 0.28661136277 0.28463314356 0.28570865057 0.28544750001 0.2838407338 0.28294212353 
0.28202134821 0.2810624359 0.28047270396 0.28057429979 0.27969845192 0.27948734806 0.27932573286 0.27846931258 0.27890979861 
0.27834215899 0.27752816758 0.27855802508 0.27750888624 0.2769227727 0.27841413879 0.27709700271 0.27688082288 0.27858735948 
0.27727042022 0.27730162984 0.27918746696 0.27802678921 0.27825028736 0.2803299209 0.27928569267 0.27990003649 0.28197364024 
0.28115524366 0.28243167954 0.28426155801 0.28402390936 0.28579627172 0.28732776852 0.28758774262 0.28997787568 0.29086351435 
0.29201862862 0.29539675387 0.29501395563 0.29778939715 0.30241554546 0.30007826442 0.30543655977 0.30996996238 0.30626745042 
0.26117571063 0.37373502718 0.37735057352 0.27562605931 0.28011389851 0.268514675 0.27244336441 0.27395998265 0.31289630287 
0.31145858606 0.3105303602 0.30950737324 0.31110102507 0.30940120895 0.3090268298 0.31057406105 0.30947047321 0.3097296366 
0.31093962972 0.31052193553 0.31110913801 0.31212668311 0.31197956631 0.31290689749 0.31391799171 0.31394173438 0.31493871047 
0.31609554296 0.31600555651 0.31707823095 0.31849788296 0.31807143424 0.31885819831 0.32081361035 0.31966731899 0.32028493745 
0.32277920899 0.32071407434 0.32091872772 0.32407634709 0.32081557404 0.32049522522 0.32441107142 0.31998170257 0.3194623506 
0.32379001676 0.31888756841 0.31830492047 0.32270778766 0.31771283734 0.31699878273 0.32126759586 0.31616702541 0.31542481347 
0.31944802117 0.31441420367 0.31350684532 0.31724985167 0.31246315117 0.31189095763 0.31495960964 0.31104075427 0.31121250675 
0.31308329818 0.31090196601 0.31201915722 0.31203600431 0.31274277292 0.34301438546 0.3305979856 0.30283457039 0.29961149602 
0.29776924009 0.29223808797 0.28925635007 0.29229339446 0.35810780685 0.35133703101 0.31335956581 0.30776647291 0.30521600298 
0.33322426178 0.32294561075 0.31749355448 0.29278534624 0.29029197577 0.28226303947 0.28558901183 0.27992754954 0.34761485046 
0.34973362444 0.28813997036 0.29102255258 0.28551621341 0.35507918512 0.35617670712 0.30003966528 0.30159043942 0.29684913106 
0.29464251254 0.28828010149 0.28632539085 0.2888343915 0.30466876092 0.28483495268 0.28252392714 0.28476980992 0.31816469532 
0.3093859513 0.30447511395 0.30505508634 0.30547228759 0.27323524096 0.27740720505 0.27920070299 0.28246084 0.2787182273 
0.28445123391 0.28688684242 0.28259632165 0.26873702875 0.38183153996 0.38304981378 0.28688466269 0.28293953828 0.28671238065 
0.28847877615 0.29022100495 0.28666325298 0.27001090738 0.26567441311 0.26176036776 0.2695855679 0.31375883933 0.27314402782 
0.26759219497 0.26616640344 0.26481864596 0.2669827433 0.28084775266 0.28090770092 0.2775375724 0.30395234113 0.29077464352 
0.29211641082 0.2942687645 0.28036641569 0.27952443274 0.27996508988 0.27636810892 0.27029939929 0.27087583319 0.3135894017 
0.27055495297 0.27122965245 0.30382714535 0.30422931837 0.3709820236 0.36129115403 0.35979223986 0.33795051295 0.38407446069 
0.37467308254 0.37200537149 0.36700416665 0.37386764108 0.28598797298 0.28312592029 0.28033431422 0.28646327571 0.28571338341 
0.2851385759 0.31266955302 0.34080579714 0.34652209498 0.30183714649 0.30703664282 0.3111293471 0.26745354525 0.26969318012 
0.27078379509 0.26944878872 0.28366231321 0.2822979014 0.3097075588 0.31504865051 0.32345957443 0.34359432716 0.27990749506 
0.27496072207 0.27362832109 0.28056052967 0.34723132846 0.34771567563 0.3363053428 0.3624288451 0.34596445891 0.27529968826 
0.27165855616 0.27612352708 0.34784468403 0.33832432186 0.33875515907 0.29152796504 0.29378259644 0.2970512716 0.26334386624 
0.26503778747 0.29773838704 0.30132533177 0.29597093511 0.26829769007 0.32042279663 0.26873412415 0.27239069512 0.27622594253 
0.27218122718 0.27088633348 0.27430299568 0.26803391022 0.3706899516 0.30744460793 0.31405368032 0.30386593088 0.30575135874 
0.30643126729 0.30713318733 0.30793925332 0.3065808404 0.30875881416 0.30957068174 0.30839206113 0.31061150249 0.31140689255 
0.31062188361 0.31239642462 0.3127308777 0.3130565463 0.3134061761 0.27887546081 0.32093954424 0.31374985607 0.31426092315 
0.31468786585 0.31494295849 0.31519823485 0.31602816228 0.31530800873 0.31496527228 0.31680396799 0.31413325133 0.31349620142 
0.31605562512 0.31362993241 0.37816668915 0.37457049413 0.31366875536 0.31318883108 0.31505264524 0.31234504163 0.31158031624 
0.31403437858 0.31061838718 0.30986244174 0.31186357737 0.30914946694 0.30855328241 0.30986157144 0.30795911885 0.30740302481 
0.3082813835 0.30694763561 0.30645807615 0.30707172017 0.30594922342 0.30546930861 0.30590049819 0.30503293549 0.30466309793 
0.30480485243 0.3043736836 0.3040454116 0.30334395015 0.30395303881 0.2831890232 0.30983792716 0.32318358091 0.33481718877 
0.32941413781 0.30962084253 0.30653366954 0.3107273166 0.30572795792 0.30295679707 0.30876056006 0.30196337822 0.29947756812 
0.30605424257 0.29797887128 0.2956516344 0.30301492572 0.29390125627 0.29189078336 0.29945164729 0.28999184413 0.28833447772 
0.29563814533 0.28649876298 0.28488543147 0.29180967365 0.28287702865 0.28146257365 0.28782457916 0.27960653484 0.27862570967 
0.28381237401 0.27735804465 0.27643599002 0.28061726002 0.27529832203 0.27437134957 0.27816495587 0.30421815833 0.27492470889 
0.27618376915 0.28060112142 0.28159492302 0.28272239327 0.28378136666 0.28264490945 0.28520548081 0.28633850656 0.28520362302 
0.28781001656 0.28887243994 0.28804660075 0.29044384068 0.29159182422 0.29105343938 0.29307032434 0.29422070371 0.29400779368 
0.29561938635 0.2965610101 0.29675323456 0.29769053472 0.29854859523 0.29904115602 0.29941622765 0.30027896027 0.30081485796 
0.30087595731 0.30170614164 0.30211336251 0.30218887691 0.30281949748 0.30307745614 0.30327393241 0.30385132994 0.30460344601 
0.30390109436 0.3027201569 0.35885134993 0.36019287156 0.27982224537 0.30210819583 0.30142444311 0.30075710606 0.30003833942 
0.30183858113 0.29920709062 0.29840876742 0.30048028961 0.29733405424 0.29645967957 0.29870912384 0.29530032447 0.29443823046 
0.29661391072 0.2933785926 0.29259519676 0.29452673885 0.29158777626 0.29085127174 0.29253767332 0.28980858147 0.28909832258 
0.29050192389 0.28831544533 0.28767376714 0.2886196524 0.28678102734 0.28607395563 0.28704786004 0.28499382803 0.28424009845 
0.28511203372 0.28315448172 0.28261802343 0.28266866131 0.28162893106 0.28130315274 0.28016318981 0.28108173673 0.28109432083 
0.27842802614 0.2988499328 0.27796747543 0.27778340194 0.27844473238 0.27825888516 0.27703725372 0.27886586958 0.27874303858 
0.27829701912 0.27930652313 0.27934963622 0.27954737093 0.28010590373 0.28039277324 0.28089832275 0.28139640511 0.28187143222 
0.28256731924 0.28274177791 0.28349682294 0.2844756856 0.28476748061 0.28584763894 0.28665351077 0.28752691857 0.28901509601 
0.28976644384 0.29066856609 0.29259477165 0.2933442221 0.294045502 0.29612054736 0.29677672936 0.29760695867 0.30017507461 
0.30007460689 0.30154233925 0.30478008892 0.30345087526 0.30600369026 0.30976069612 0.31012831091 0.30697254773 0.30960745182 
0.33140857317 0.33161037198 0.26561186127 0.26799048076 0.26774676922 0.31058146639 0.31102924501 0.31221228586 0.3130561888 
0.31269611666 0.31445462696 0.3156066595 0.31538267307 0.31722967534 0.31867045929 0.31862202747 0.32015094527 0.32169937359 
0.32219440044 0.32313985008 0.32445231056 0.32556203473 0.32572671514 0.32676942066 0.32868166574 0.32769115461 0.32820522848 
0.33111740072 0.32838100704 0.32831116158 0.33238059852 0.32781472595 0.32727281908 0.3320914245 0.32641550187 0.32557804793 
0.33061339544 0.32463302034 0.323459542 0.3285074762 0.32229016705 0.32087652472 0.32581139745 0.31920143413 0.31775859137 
0.32241460779 0.31596545592 0.31468310117 0.31844448099 0.31308044909 0.31219211925 0.31481771691 0.31090373785 0.31947073565 
0.31265855114 0.29830762727 0.29538110758 0.26848050212 0.26775924755 0.29257004945 0.28995381572 0.29324416716 0.306679976 
0.30228539921 0.29973420658 0.30859671501 0.30497722972 0.29951288876 0.27670991719 0.27801902204 0.27909005812 0.2785427568 
0.26966616527 0.2655835373 0.26828044922 0.33556082909 0.34855253329 0.3458150126 0.32606931175 0.28971297489 0.28745893158 
0.29578159689 0.29232550158 0.29080838075 0.29667893344 0.2768841615 0.27954093824 0.32193671859 0.31317188483 0.30636303902 
0.28797010551 0.28499208759 0.28819992531 0.34309358879 0.34010463631 0.28617690933 0.288024499 0.3374357072 0.32953321435 
0.32058641333 0.33187577408 0.33672102126 0.33917060009 0.36247940304 0.36493129302 0.27267505725 0.30517099048 0.27072964841 
0.27191864145 0.28959368665 0.29153012633 0.28876686248 0.35259803545 0.35709690108 0.35463762476 0.2709708013 0.31605956054 
0.27804656156 0.27753966065 0.27982475241 0.28294414499 0.28595892238 0.2813185885 0.35175643202 0.35771794777 0.35089212383 
0.30302473441 0.36692891767 0.36272268143 0.35816618832 0.28101929474 0.27991065497 0.28195267985 0.28244620611 0.30500125129 
0.31077157527 0.32630147864 0.33100044382 0.27431461015 0.30979436076 0.31058688189 0.30982008955 0.31183758382 0.28246980911 
0.2795984926 0.28339835292 0.32911559405 0.32168181559 0.33856716229 0.35755869073 0.33433315201 0.33029469426 0.33065165128 
0.29420232135 0.29686760966 0.29292888705 0.27980581244 0.30500579291 0.28893868115 0.29211525663 0.28634910807 0.28479244066 
0.28582701889 0.28322070642 0.2856137961 0.28357072464 0.27284333483 0.27546756999 0.29508919686 0.29909166667 0.30030788225 
0.32892076963 0.29919955573 0.30150761792 0.30554451056 0.2785721901 0.30936776509 0.27290399192 0.27534076819 0.27611480803 
0.27234512994 0.28629926818 0.32783888735 0.33190346715 0.32523354267 0.3076592296 0.30887793211 0.310089663 0.31145725621 
0.30961788141 0.31297515745 0.31436371546 0.31268838169 0.39897470209 0.38536800873 0.31694703684 0.31679296168 0.31685750549 
0.31719502259 0.31961713403 0.31836532003 0.39255539125 0.39997031393 0.31967706171 0.31978913902 0.32126261821 0.31912185264 
0.31774118867 0.32162859568 0.40950437404 0.41740609109 0.42681069177 0.43252538513 0.31785936537 0.43757276913 0.42887938587 
0.31655775118 0.31501320987 0.31899494231 0.31318064999 0.31172676044 0.315428241 0.31006059614 0.30911858649 0.31092057807 
0.30821696379 0.38998782546 0.35458279638 0.30671398548 0.30610768894 0.3073979808 0.30539497638 0.40450265229 0.50582954741 
0.30443963259 0.3038631725 0.30457312049 0.30338152767 0.28258153323 0.28468369395 0.28788389246 0.28405572417 0.28652004202 
0.28757988722 0.31014611746 0.30845751807 0.30640542973 0.3052206695 0.30314106441 0.31024353448 0.30135807213 0.29933561957 
0.30702239199 0.29722967497 0.29534768338 0.30312498362 0.28781542016 0.28569304292 0.28777847185 0.28266244575 0.28403388177 
0.28864431807 0.29003327718 0.29204750578 0.29348631905 0.29294921886 0.29513915826 0.2964389123 0.29665496043 0.29814677708 
0.29931538816 0.29989812669 0.30076543834 0.30168891962 0.30282118607 0.30244793073 0.30323686579 0.30463333588 0.30345522265 
0.30401703901 0.30531961326 0.30461820666 0.28031049186 0.27807822758 0.27520921767 0.28182872599 0.30725621488 0.30024250098 
0.29930750531 0.29772884884 0.29674124321 0.29955704437 0.29560520375 0.29466061957 0.29704586856 0.29377444631 0.29284917194 
0.29519002849 0.29126133341 0.29027369264 0.29285383147 0.28869086433 0.28779895708 0.28681859583 0.31263487708 0.31943502394 
0.32815582008 0.27775302297 0.27591990871 0.31898718834 0.32487700984 0.3198849845 0.31295851024 0.27789851184 0.27844531267 
0.27671726403 0.27983368356 0.28058849479 0.27965431253 0.28152233215 0.28235438816 0.2820300532 0.28389691411 0.28497530308 
0.28441581472 0.28642193885 0.28739134864 0.28754517581 0.28837294863 0.28976471323 0.29016704663 0.29598474335 0.29786412647 
0.29934827268 0.30113798527 0.30184721187 0.30226752956 0.3042058216 0.30472993492 0.30489074971 0.30697515925 0.3086353165 
0.29362696904 0.29091800339 0.31122513455 0.31235666917 0.31435276768 0.31589060352 0.31365614464 0.31826898279 0.32036131909 
0.31823232454 0.32271518667 0.32489064904 0.32351785742 0.32651685919 0.32845789695 0.32800558359 0.33142145649 0.33323983626 
0.33321083805 0.33396762558 0.33522452821 0.33740692353 0.33755641514 0.33790545521 0.34116373533 0.33632942858 0.33577324022 
0.34204288334 0.33516625539 0.33401087273 0.33954482298 0.33199036149 0.33040400553 0.33670927724 0.32971392708 0.32763841582 
0.3332430609 0.32437056781 0.32199711431 0.32835828099 0.31921811537 0.31706221326 0.32174179852 0.3143443548 0.3126044466 
0.31050385936 0.31579609345 0.35738223062 0.34850479847 0.33771769565 0.30954101726 0.28223876569 0.28397217161 0.28200510191 
0.28005616107 0.27707302492 0.27435241618 0.27532142237 0.27878939184 0.30552789306 0.30648908364 0.30682790654 0.30449872851 
0.3029487818 0.2855032633 0.28504722962 0.28658782686 0.28748168843 0.30235908024 0.35203742505 0.30880328285 0.31211506158 
0.29332046741 0.29122279084 0.34331905009 0.34711448618 0.30310218653 0.30192425646 0.30115874428 0.30541934919 0.30408270353 
0.32357634949 0.32610729472 0.35312141102 0.35237809963 0.29894591751 0.31865068781 0.31986750186 0.30194715618 0.28960707739 
0.28530105198 0.27520187066 0.30954625733 0.27517560547 0.31659007463 0.32088206211 0.32727916368 0.30696732238 0.30990255785 
0.29394979603 0.29810356714 0.2921215318 0.32297857806 0.3157104882 0.30076120519 0.29701414972 0.29449639989 0.30951528681 
0.30467244901 0.30135248265 0.32455154136 0.32933536418 0.2923322226 0.32451735865 0.28099332088 0.29203331291 0.28976876125 
0.29626505377 0.30096560227 0.27873703524 0.30816380811 0.30199068597 0.28790062066 0.28571265474 0.28359963916 0.28837583898 
0.3141158815 0.30828369003 0.32113726473 0.34736692159 0.3501323789 0.33709029807 0.34671043352 0.3419721973 0.32818081807 
0.31047850495 0.30243290659 0.30773685267 0.31435886075 0.30457736434 0.3472328028 0.3468506576 0.28868942431 0.30423108394 
0.29294921345 0.33921003967 0.33511714093 0.33326142191 0.30937071457 0.30728401261 0.31206721384 0.34136284245 0.28922782434 
0.28919215836 0.34563232959 0.30683329086 0.34505993711 0.35037176113 0.34494118092 0.29072226314 0.29862613486 0.3002833025 
0.30514961109 0.30619916408 0.30801554664 0.30843150515 0.31117086464 0.30736456027 0.30757197698 0.31076411126 0.31704315815 
0.31292551389 0.30414820734 0.30341414469 0.28682311884 0.24914912873 0.31480386109 0.31046456069 0.30513903983 0.29803423794 
0.29723289899 0.29541081785 0.29383421772 0.29892495714 0.30417740822 0.30123381101 0.30270557313 0.30923722167 0.31883768006 
0.31568422961 0.31397676946 0.30718256239 0.31174254089 0.30875523901 0.31054507014 0.29702102132 0.28307992309 0.28419997881 
0.28594632616 0.28864487451 0.2902421187 0.33081993053 0.32338817869 0.33823029422 0.30860593604 0.30847589234 0.31100041484 
0.30686920278 0.3004254677 0.30254125761 0.34103465748 0.33821593513 0.29300249928 0.32356405504 0.32089190751 0.29057654783 
0.3158590498 0.31656926027 0.29504473478 0.29633023273 0.29967778479 0.31837528163 0.30706076328 0.31008389005 0.30293566809 
0.2940160409 0.29388552296 0.29264162043 0.29379916619 0.29721039954 0.3444128398 0.2924419002 0.29094494244 0.3137094791 
0.31120105389 0.30569811102 0.31363975615 0.31155606279 0.31670166526 0.31917504872 0.30770013074 0.34274964028 0.2809961923 
0.30426633151 0.30608216125 0.30974142103 0.29355147614 0.27951536472 0.33554228708 0.33738804882 0.30691155073 0.29627934185 
0.33461414044 0.33039202783 0.32626774011 0.32969431521 0.33634068481 0.31284598084 0.30055431028 0.31591374915 0.31844323594 
0.31374493632 0.32218880512 0.32545032734 0.32079596454 0.3288925327 0.33156018095 0.34181794374 0.34503106959 0.32416327573 
0.32180617968 0.31512179369 0.32187362807 0.32959053052 0.31788361654 0.33991181169 0.3291318649 0.30075432866 0.27715003072 
0.32269908205 0.32531497048 0.31563846731 0.3266417627 0.30742622928 0.3044545876 0.31675434474 0.31053621824 0.3033170898 
0.32351061104 0.31119626804 0.29916913645 0.31546999149 0.32416296682 0.32354177479 0.33468627324 0.31212081643 0.32220680828 
0.33738950812 0.33224242214 0.3270727901 0.30061863843 0.31238981806 0.32070743362 0.31677620163 0.31276745507 0.31389598761 
0.3076740559 0.30745331921 0.30753206519 0.30753186834 0.3075204783 0.30733805167 0.30756707734 0.30757170748 0.30747144598 
0.30760334161 0.30759400018 0.30754278892 0.30766574356 0.30764145549 0.3076430715 0.30772516796 0.3076972975 0.30770322747 
0.3077837068 0.30775127645 0.30777397726 0.30783471987 0.30781516683 0.3078274216 0.30785010158 0.30786454457 0.30790819377 
0.30789478344 0.30787719086 0.30794550574 0.3078990172 0.30789301479 0.30794890078 0.30786807832 0.30788478302 0.30795385801 
0.3078472451 0.30784780678 0.3079249811 0.30780461839 0.30782622683 0.30789174507 0.30775005777 0.30777662103 0.30781132602 
0.30770405738 0.30772190551 0.30777530033 0.30767325575 0.30767535087 0.30770917215 0.30762857122 0.30763697843 0.30766290296 
0.30759670438 0.30758905511 0.30759529893 0.30755857799 0.30756599983 0.30754062924 0.30754374698 0.30753199275 0.30747969683 
0.30759000846 0.30752006803 0.30749933876 0.30769502546 0.38074460053 0.34358087394 0.390372566 0.29471051737 0.31516152623 
0.33881612288 0.27168817987 0.28030652615 0.2996560516 0.2580564211 0.26360094213 0.27780418873 0.25115365995 0.25370977015 
0.26623852904 0.24771405852 0.24885574777 0.25960337675 0.2464942723 0.24655354421 0.25609986737 0.24677659749 0.24599277238 
0.25425300026 0.24883225427 0.24697274759 0.2538747443 0.25247162449 0.24982478871 0.25504152294 0.25787414821 0.25432669352 
0.25784709019 0.26425242636 0.26013768953 0.2618669496 0.2711123971 0.26699986818 0.26681136292 0.27859233725 0.27405031263 
0.27242104383 0.28664095014 0.28173667204 0.27837288667 0.29321174289 0.28935167149 0.28415173017 0.29766164071 0.29559564909 
0.28911750828 0.29850349898 0.29864101626 0.29237668811 0.29596832642 0.29789407128 0.29269590478 0.29177767371 0.29457004936 
0.29070215914 0.28740918572 0.2902519273 0.28779320198 0.28314865584 0.28591206002 0.28484263072 0.28030478993 0.28201389561 
0.28239498725 0.27886759651 0.27975508033 0.28076269054 0.2786080001 0.27883108376 0.28017064349 0.27959836701 0.2790279467 
0.28056904549 0.28174777062 0.28054105943 0.28199408369 0.28495195652 0.28309528084 0.28430060978 0.28846557929 0.28651494379 
0.28724012104 0.29199299116 0.29011600399 0.29041163265 0.29590482118 0.29370410473 0.29374339514 0.29948648905 0.29751196405 
0.29707230171 0.3024656673 0.3009581143 0.30015067175 0.30498823943 0.30371075755 0.30285062122 0.30665752449 0.30592715671 
0.30503792597 0.36592425778 0.30731215488 0.30751906049 0.30609231426 0.30677700406 0.30665006753 0.30423148384 0.30527306033 
0.30532510719 0.30152004806 0.30307871807 0.3033974527 0.29865029892 0.30023107958 0.30097211488 0.29541844899 0.29719949379 
0.29824227127 0.29271492799 0.29414314932 0.29551192154 0.2900810362 0.29144142289 0.29298649405 0.28823076244 0.28904718712 
0.29067557445 0.287256305 0.28759156552 0.28905026973 0.28728615607 0.28702104256 0.2881362066 0.28848081827 0.28748537788 
0.28807495078 0.29067017632 0.28911544436 0.28890610864 0.29365474664 0.29165804948 0.29053813505 0.29705414293 0.29496392911 
0.29284418275 0.30042753598 0.29824610816 0.29530915193 0.30337154105 0.30166563198 0.29763788484 0.30492631938 0.30428230989 
0.29975499979 0.30385833733 0.30464832583 0.30040724293 0.30004514999 0.30268580351 0.29901085387 0.29372362842 0.29764627085 
0.29547124612 0.28608471756 0.29048401081 0.28988214689 0.27837900603 0.28295332946 0.28357468093 0.27082397564 0.27523913276 
0.27746832986 0.26429939394 0.26804493889 0.27162147944 0.2589075452 0.26190041428 0.26667923468 0.25521866716 0.25741319487 
0.26297863825 0.25295727836 0.25427532145 0.26062125526 0.25233500582 0.25283225369 0.25971348017 0.25428286074 0.25352937298 
0.26089287283 0.2587962196 0.25647638385 0.26450063802 0.26776334519 0.26315152908 0.27100761337 0.28394336118 0.2753477951 
0.28249633126 0.31306556435 0.29509709309 0.30105304545 0.3664411774 0.33141871437 0.32969810139 0.37343740587 0.32921104403 
0.3637791486 0.30492274812 0.33165624342 0.34708926782 0.29027183503 0.30134126502 0.33757512161 0.28215469663 0.28945580497 
0.32336679391 0.28391567158 0.2830188989 0.31436974241 0.27486754799 0.28396652836 0.30813552621 0.27359602829 0.27699777211 
0.3080963064 0.27583988321 0.27586721094 0.30929557342 0.28251435131 0.27772855652 0.31066288065 0.27795862267 0.28451725332 
0.31010593704 0.2771842433 0.27801350857 0.31446454325 0.28009084727 0.27890813698 0.31548842203 0.29096211441 0.28124479719 
0.31435654648 0.28188722794 0.27418942698 0.30228952036 0.27464324817 0.27772549476 0.29218784534 0.28114708469 0.28986487047 
0.30226068689 0.28071716824 0.27690834016 0.3131387912 0.29091850138 0.27770655383 0.31196176124 0.27981463669 0.27477560738 
0.29966909383 0.29149061376 0.29511540963 0.30346514286 0.30166909062 0.29126639643 0.31978481318 0.32688822372 0.30298945264 
0.33458772013 0.18503946919 0.21730898979 0.24091730224 0.26635952428 0.22759081934 0.28341410173 0.28351092398 0.26698243461 
0.29665820023 0.2933973147 0.28986638519 0.29165220889 0.28494014965 0.29424145284 0.2894734559 0.28497211779 0.29470785212 
0.29013868923 0.28302168563 0.29451490511 0.29748781664 0.3007379933 0.29648870804 0.30786181012 0.32834386378 0.30570106095 
0.3329702716 0.3677952829 0.32760352629 0.40007894607 0.49720348192 0.3689440389 0.51776526119 0.42738774425 0.3815120729 
0.34867626899 0.37828896951 0.31205202017 0.30296373186 0.32938367198 0.29200525095 0.29036661321 0.3040028926 0.28394326215 
0.2856111426 0.29389308832 0.28013321498 0.2841152974 0.29077943741 0.27942734258 0.28529621332 0.29007209394 0.28719953444 
0.29182636809 0.28968773385 0.28617378772 0.27791029013 0.28392242406 0.26049659164 0.23261469164 0.25841283476 0.21390776296 
0.17797608127 0.22006872788 0.18584816907 0.22613801358 0.24624585968 0.27796704484 0.23309550577 0.28934312038 0.28630675585 
0.27545455638 0.29061306291 0.28003507485 0.29300029211 0.28418875469 0.27602250731 0.29171898833 0.28087355126 0.27481339958 
0.28936042647 0.28140687283 0.28036675288 0.28973604442 0.28816897934 0.29407981616 0.2954270858 0.31985000564 0.35367449375 
0.31369161464 0.39719735428 0.46121043006 0.34572216782 0.50727037283 0.40505812339 0.37161801885 0.33826382759 0.35724784799 
0.31101438131 0.30105448765 0.31554932187 0.29240897619 0.28460487148 0.29565794031 0.28106940663 0.28310616512 0.28830495856 
0.27262061321 0.28366360514 0.28731929447 0.28665933449 0.29164954574 0.29097000744 0.29018940905 0.29687689123 0.29288196197 
0.29237786238 0.2868061224 0.29294990242 0.25707396947 0.24244698754 0.26760705084 0.22696973677 0.18977268687 0.22392028483 
0.30747506873 0.30767100226 0.30725025045 0.37659477247 0.36374818755 0.46975408939 0.59865845165 0.21567279951 0.23314750548 
0.32968049545 0.23292724578 0.21581272348 0.44436476595 0.23387291708 0.23877807744 0.39292290313 0.55923971702 0.50957810358 
0.41611406425 0.42661781661 0.30663335618 0.35228271782 0.30710528139 0.30699283675 0.30682279759 0.30666626155 0.30600955185 
0.30652499323 0.30742473723 0.30730309899 0.30775493416 0.30759517059 0.30744934051 0.30806140341 0.30790851338 0.3083283939 
0.30821040193 0.30833452273 0.30855795325 0.30844114731 0.30873065941 0.30864804349 0.30902956576 0.30876550735 0.30878234526 
0.30920339552 0.30872547873 0.30874556821 0.30922200435 0.30858188382 0.30866721529 0.30914241178 0.30835922014 0.30847499466 
0.30891952445 0.30814341268 0.30826311169 0.30859945169 0.30788665955 0.30799424951 0.30824352186 0.30766422818 0.30776371594 
0.30789014188 0.3074355954 0.30752774966 0.30756935233 0.30724892887 0.30734039444 0.30724208174 0.30708368641 0.30715705296 
0.30697677906 0.30697602906 0.30700311728 0.3067572642 0.23351390472 0.24359734736 0.28400163332 0.293490703 0.30011850066 
0.31592035257 0.30217662446 0.32449452141 0.34832983179 0.32224757507 0.27380175673 0.27908402662 0.288922092 0.26762267357 
0.27028786128 0.27952083111 0.26384306227 0.26513970046 0.27363284358 0.26184978749 0.2624851208 0.26998044345 0.2607485397 
0.26064534526 0.26742177871 0.26114255623 0.26034862357 0.26579398996 0.26300210338 0.26122418112 0.26542917102 0.26587822498 
0.26372376243 0.26633445089 0.26947274794 0.26685289949 0.26812756407 0.27347398834 0.27075040962 0.27044490403 0.27766050343 
0.27486970291 0.27300102196 0.28139247432 0.27917113321 0.27563676307 0.28488139716 0.28295663313 0.27837773318 0.287296598 
0.28620632479 0.28104162136 0.28761762642 0.28782879558 0.28317900642 0.28595380442 0.28698891105 0.28321239249 0.28402965297 
0.28531207111 0.28200551582 0.28235167362 0.28364371962 0.28114139917 0.28140731772 0.28235797049 0.28093405393 0.28108147561 
0.28152137374 0.28110487543 0.2814110853 0.28140456938 0.28164718452 0.28236589765 0.28198077492 0.28258555577 0.28422708326 
0.28333777976 0.28410087617 0.28670741403 0.28541912276 0.28621385519 0.28953617423 0.28804366176 0.28876677194 0.29245950686 
0.29092852967 0.29150697087 0.29548098925 0.29385390226 0.29426016441 0.2983408541 0.29681856642 0.2969556921 0.30091782465 
0.29951867816 0.29942916905 0.30323237744 0.30206493436 0.30173474822 0.30512986278 0.30423540735 0.30380870102 0.30553234704 
0.33094863322 0.30270955184 0.30380518694 0.30720936843 0.3047986211 0.30561002627 0.30436418681 0.30624691186 0.30684475858 
0.30706230466 0.30596820692 0.30048575377 0.30169537626 0.30237012131 0.29798486866 0.29934291367 0.30026349419 0.2955534232 
0.29674701749 0.29792232911 0.29326811784 0.29445489879 0.29561830016 0.29126445283 0.29222265659 0.29350252229 0.28980785481 
0.29038316715 0.29159972629 0.28890934198 0.28914966254 0.29009681 0.28871053084 0.288549636 0.28907208741 0.28925106293 
0.28863129156 0.28861240252 0.2903468681 0.28942724264 0.28873321109 0.29177808395 0.29063710064 0.28918309368 0.29327077331 
0.29231966348 0.28990008672 0.29483928491 0.29385865724 0.29089209059 0.29581292788 0.29522523937 0.29176200962 0.29588257322 
0.29616504603 0.29237708286 0.2944803358 0.29548948853 0.29240059794 0.29112793817 0.29324912536 0.29093461236 0.28625939952 
0.2891684485 0.28778061334 0.2813468957 0.28417580155 0.28387097717 0.27664856197 0.27950703711 0.28012331151 0.27244761192 
0.27499357774 0.27677691278 0.26904505749 0.27124042577 0.27400139091 0.26705475227 0.26836469305 0.27216436647 0.26597229554 
0.26675973796 0.27124528362 0.26660400089 0.26645482319 0.27147727861 0.26924598047 0.26770021638 0.27315905482 0.27455378491 
0.27186584973 0.27692888604 0.28358901697 0.27824667351 0.28337796773 0.29794002249 0.28891226502 0.29311753285 0.31889566233 
0.30547045917 0.30705969555 0.35354362469 0.32973716459 0.3255031318 0.25204022019 0.23439918987 0.42120006354 0.44757342629 
0.31270557339 0.31480180384 0.32162102636 0.32686083405 0.32185811894 0.34079336438 0.33339820821 0.30622889439 0.30514874298 
0.31316451079 0.29861924451 0.29844487373 0.30866218604 0.30192355795 0.30069547821 0.3065098547 0.30287923026 0.30066833766 
0.30603775385 0.30464410154 0.30100404576 0.30736109348 0.30231241132 0.29996714834 0.3092874049 0.30425724081 0.30534154068 
0.31189864741 0.30709315118 0.30711608522 0.3120753902 0.30673770107 0.30691118081 0.31214485311 0.30419738199 0.30273771618 
0.31189284072 0.30244618303 0.30065477612 0.31166831003 0.29977677419 0.30517909204 0.31110147822 0.30240662148 0.30556907361 
0.30938307074 0.30274741958 0.30547057737 0.30855481108 0.30179095497 0.30147468301 0.30830624476 0.30038828805 0.30128059956 
0.30979340507 0.31118044878 0.31044811544 0.31234520883 0.32575152353 0.31915269182 0.31918602177 0.32922371582 0.25055736389 
0.23629188186 0.24890413102 0.23886777731 0.25125228274 0.46584047595 0.43451624886 0.25367451632 0.27501247057 0.2525569488 
0.27812884855 0.28378073807 0.27195143384 0.28695592037 0.29262486695 0.28694620066 0.29231276583 0.29473600202 0.29399258077 
0.29435217398 0.29902922176 0.2974119306 0.29860310792 0.2985932186 0.3007277656 0.30370292056 0.30978448467 0.3058475231 
0.32046835061 0.33554658586 0.31691898631 0.35583508194 0.38974951772 0.38750061687 0.34336413212 0.3358817054 0.32309660765 
0.31426103082 0.30356422554 0.31954456135 0.30017450697 0.29445484925 0.30310387126 0.29328508719 0.28952212857 0.29557229132 
0.28969256519 0.28668886486 0.29213665572 0.2874452018 0.28125236457 0.28810317259 0.27792687171 0.26963288771 0.28040729813 
0.26439046785 0.24550602957 0.26514791685 0.23563483196 0.23157702805 0.24838977838 0.2458888545 0.39279789262 0.4197258479 
0.25495905657 0.27772046685 0.27900719158 0.28694576752 0.27457378532 0.2855464915 0.2882863971 0.2857768864 0.28661707634 
0.28946963787 0.28831683658 0.28720806389 0.29112415075 0.28947500229 0.29139342449 0.2985466458 0.29272208391 0.30457425921 
0.3198735219 0.30225642474 0.33626849545 0.36152915823 0.36154824744 0.32389280741 0.23687053106 0.25201178062 0.32183296457 
0.31058034161 0.30218655398 0.29573568888 0.30911747218 0.29290368632 0.28980866515 0.29766237118 0.28884162324 0.29072388117 
0.29347522374 0.29284916316 0.28839922074 0.29234339329 0.28681811632 0.28680852663 0.29054552898 0.28563427483 0.27515505002 
0.28546708739 0.27199509545 0.25650580386 0.27086673889 0.24280092703 0.23294353541 0.25135069066 0.3071940119 0.30709860454 
0.30680885472 0.40157081307 0.36242941407 0.35071327676 0.23243507487 0.24440813884 0.25251130703 0.3682962009 0.34289046863 
0.33242049414 0.30790929158 0.30871506301 0.30697025615 0.30664020446 0.26264362093 0.25910251447 0.24706155794 0.33542850636 
0.26238310545 0.41823801698 0.4376844295 0.25754680448 0.26181899853 0.42635753701 0.24903210399 0.30703063812 0.39668041743 
0.4189362731 0.43084218301 0.3926802156 0.26276390859 0.40832818834 0.3773419099 0.35953466586 0.25836353648 0.25310289653 
0.26342748813 0.26918429119 0.30744086506 0.30704759863 0.25843953357 0.25219440066 0.30895892099 0.30858865514 0.31034349123 
0.31027471671 0.31010794475 0.30985145441 0.31092558895 0.31007555283 0.31020219298 0.30959050524 0.30987314995 0.31064729133 
0.3090487742 0.3093628571 0.31002219432 0.30845793518 0.30879151334 0.30929981574 0.30786542834 0.30816174949 0.30851364358 
0.30729046699 0.30756581595 0.30772560554 0.30679529638 0.30703751897 0.30700509629 0.30641224876 0.30658319187 0.30638796723 
0.30610724245 0.306250333 0.30590280288 0.25268816732 0.25899423229 0.30263258907 0.31126935003 0.30625361945 0.30590564044 
0.30514919243 0.29253739866 0.29928527212 0.3045491858 0.31481247311 0.32427880228 0.32059577911 0.31320811625 0.27945276792 
0.28223579175 0.27594092869 0.27744939146 0.28419059542 0.27288331412 0.27418414717 0.2802751836 0.27091144045 0.27139458759 
0.27704466445 0.26986925054 0.26995811178 0.27459764688 0.26983816228 0.26921759953 0.27288350308 0.27042921617 0.2695178072 
0.27186675416 0.27134139327 0.27015713151 0.27134652918 0.27228969555 0.27109217394 0.27077814583 0.27318013395 0.27213093684 
0.26989748586 0.2746957931 0.27358040382 0.27562382409 0.27452791688 0.27864355336 0.27878255662 0.27798826541 0.27842317093 
0.27410665356 0.27853243341 0.27880185131 0.27514140894 0.27958643909 0.27951212689 0.27719094968 0.2808718617 0.28062728267 
0.27933538745 0.2822050735 0.28179919864 0.28126839206 0.28377014489 0.28318531002 0.2831415099 0.2858622591 0.28492737113 
0.28525753884 0.28822123897 0.28713034775 0.28767559389 0.29098098265 0.28971018262 0.29036853853 0.29360815501 0.29231300543 
0.29311059466 0.29619012188 0.29489193935 0.29564815592 0.29861500303 0.29736524525 0.29801130094 0.30069499877 0.29958977487 
0.30006086366 0.30249821342 0.30142957385 0.30168109842 0.30764745335 0.30884387413 0.31516303706 0.31800425385 0.30961698903 
0.30928254424 0.3095644733 0.31039547549 0.30012756764 0.30117563772 0.29783914471 0.29897461323 0.30005232131 0.28455872182 
0.28892014692 0.29581506961 0.28899648937 0.30381585334 0.30475111016 0.30592421806 0.25475212921 0.26051868029 0.26024789752 
0.29577226692 0.29677850787 0.29790150366 0.29374277643 0.29470572478 0.29584868933 0.29188034901 0.29269873825 0.29380265316 
0.29040811405 0.29100226014 0.29193906645 0.28920618739 0.28956720236 0.29026354849 0.28847833995 0.28859483688 0.28882615191 
0.28812850767 0.28799908274 0.28773049206 0.28794291255 0.28774372997 0.28685640995 0.28799383648 0.28761721095 0.28608786117 
0.28818238395 0.28785584419 0.28542927261 0.28854619303 0.28852348422 0.28523905725 0.28868104827 0.28850018774 0.28522032297 
0.28935829032 0.28973284298 0.28613731812 0.2875405789 0.28847666512 0.28637808074 0.28484758067 0.28650892233 0.28463999331 
0.28171994842 0.28341056672 0.28234841868 0.27908515009 0.28065109891 0.28013257835 0.27700856941 0.27845289598 0.27882138734 
0.27565210636 0.27671950628 0.2779941889 0.27512039852 0.27567103994 0.27785613972 0.27545528891 0.27563577047 0.27845177455 
0.2770250549 0.276360571 0.27985665239 0.27983837072 0.27852654684 0.28230516009 0.28491764998 0.28196704514 0.2859923457 
0.29161532935 0.28742380372 0.29083064447 0.30218286228 0.29515420566 0.29764123407 0.39607031442 0.40451278699 0.26903627856 
0.26387651736 0.26686979943 0.31056725322 0.31293393211 0.3133399678 0.31087730685 0.2668503423 0.27641378266 0.26456162823 
0.25669932702 0.26203581481 0.2611938383 0.30687379827 0.30731576575 0.30925279465 0.30782820628 0.30728939474 0.30937517313 
0.30941880259 0.30866839741 0.31078202651 0.31170830454 0.31067872894 0.31298778285 0.31354455197 0.31279709909 0.31533635087 
0.31468963158 0.31431041604 0.31715306017 0.31505310472 0.31501782272 0.31830444697 0.31497367338 0.31511326009 0.31866157364 
0.31408529406 0.3146822451 0.31842906621 0.31287398527 0.31355158951 0.31752659747 0.31125834816 0.31207628767 0.31575597496 
0.31011746443 0.31054913035 0.31392391393 0.30965816334 0.30938743495 0.31239883762 0.31017793714 0.30955446767 0.31163305042 
0.31258088094 0.31026939445 0.31175553167 0.40922922943 0.40732869609 0.35529426883 0.33726926904 0.26543672656 0.27030154533 
0.30211504481 0.3030530376 0.30362717136 0.3020377428 0.26732735427 0.27613247771 0.26559459342 0.28023559764 0.28650746765 
0.27654941843 0.28897970659 0.29204509616 0.28599136429 0.29406809852 0.29648361893 0.29198164511 0.29853648065 0.30033468604 
0.29661782081 0.30313923482 0.30736889275 0.30169669462 0.31297230156 0.32018346186 0.30970316287 0.32155505886 0.31337034728 
0.3282844986 0.31032597841 0.31037368196 0.31114658242 0.37694330848 0.38874620682 0.30541975556 0.30044725584 0.30905017285 
0.29641560528 0.29380274848 0.29826774734 0.29122929609 0.2887069323 0.29163822978 0.28605221977 0.28214389149 0.28573237536 
0.27953989069 0.27285114384 0.27876375089 0.26934310314 0.25984566157 0.26934683386 0.33738781523 0.32585745538 0.27845622026 
0.2828432993 0.27481187523 0.28458189514 0.2862694315 0.28151531055 0.28775197691 0.28905228298 0.28569724063 0.29120946945 
0.29367733707 0.28945166554 0.29873160511 0.30461139952 0.2957011567 0.30823892365 0.3078265695 0.30762726335 0.30863862594 
0.30662317408 0.30633760823 0.30651744652 0.30624929732 0.29881591044 0.29559727285 0.29367462167 0.29210851109 0.29490750944 
0.29116405344 0.28987080206 0.2910591206 0.28841926515 0.28554847883 0.2878306413 0.28415160754 0.27802931632 0.28295532693 
0.27490062137 0.26623978296 0.27452362227 0.2615492131 0.25553931863 0.25998131533 0.40088780899 0.37720250229 0.31171694586 
0.30497026712 0.30310536783 0.32053453305 0.39664899689 0.40053349563 0.38125805106 0.32107344676 0.31728277709 0.3057618928 
0.31103142523 0.32479203759 0.33298972556 0.3484311369 0.26806317176 0.35726452721 0.25023268708 0.2575236576 0.26524778383 
0.30500095779 0.30547457859 0.26932506115 0.27978061639 0.27882121908 0.30431110154 0.3034191548 0.30332499364 0.30496009579 
0.38734526103 0.39734839147 0.30753026148 0.30779958071 0.37073447168 0.38353816918 0.35291383681 0.26738247839 0.26073531376 
0.38486976871 0.39133347627 0.31757727859 0.31454112184 0.31385027475 0.31794880882 0.26472071575 0.27677892999 0.27412954492 
0.36703924115 0.38726247814 0.37515805549 0.34939857394 0.36461984672 0.35613821364 0.27126052995 0.26826913177 0.25439563382 
0.25121161194 0.25928058268 0.30855365887 0.31556564541 0.34669346337 0.32796543204 0.38018971721 0.26453098716 0.27531093224 
0.29798494361 0.29893220463 0.31241271329 0.31265229127 0.31068866453 0.31124777182 0.31167751535 0.31207936435 0.31333989962 
0.31232388843 0.30848027913 0.30906891734 0.3074107132 0.30794549814 0.30832776884 0.30645300259 0.30691054758 0.30703647989 
0.30567822561 0.30603040429 0.3058897259 0.30510960434 0.30536401138 0.30499931599 0.30445120701 0.26509403578 0.26855998687 
0.30963079067 0.31022159439 0.31113244068 0.30977069311 0.26822239767 0.27114898888 0.31247586255 0.31215933636 0.28162433923 
0.28324483357 0.28901037818 0.29138323103 0.27879981202 0.27990233933 0.28533686216 0.27613675378 0.27706096127 0.28166971647 
0.27396657098 0.27450070536 0.27812203549 0.27223808587 0.27268280586 0.2751976491 0.270139257 0.27057672227 0.27233648199 
0.26718793417 0.26770398734 0.26830867418 0.26191665165 0.2792014955 0.27809052724 0.28185037837 0.28078702139 0.28018051289 
0.28421481461 0.28315063558 0.28315162503 0.2867759626 0.28560807547 0.2857967123 0.28954324169 0.28835796361 0.28875573684 
0.29263144154 0.29128670022 0.29203457612 0.29535981793 0.2941481265 0.29517917554 0.29778183686 0.2966127973 0.29779892338 
0.29995866028 0.29887281936 0.30000387296 0.30167916762 0.30077595924 0.30175056161 0.30306949047 0.3024197772 0.30311956793 
0.31072376554 0.31024420453 0.30601901231 0.3104146621 0.29604712211 0.29700319852 0.29815687378 0.30005523122 0.30108955636 
0.30014687 0.29398744988 0.29494365456 0.29618660659 0.29203812892 0.29284676488 0.29402391923 0.29017539082 0.29097760771 
0.29190003517 0.28845412129 0.28907873677 0.28977900452 0.28695017432 0.28749688957 0.28772788492 0.28548427088 0.28597082414 
0.2857783425 0.28405347597 0.28445113714 0.28371934928 0.28256702186 0.28282990341 0.28141410603 0.28151339976 0.28150634429 
0.27876679323 0.28232396552 0.28277137086 0.27827592664 0.28355933004 0.28224899149 0.2827259616 0.28157920684 0.28223564194 
0.28027208815 0.28124836255 0.27888392912 0.27850966855 0.27923388219 0.27772858106 0.27855819703 0.27898367502 0.27780635101 
0.27918019529 0.27928197587 0.27927001841 0.28036380912 0.28016116795 0.28114377901 0.28214200121 0.28153025231 0.28338634787 
0.28447772224 0.28349664042 0.28599572684 0.28789133468 0.28617591687 0.2890408219 0.29194798388 0.28950590652 0.29259042724 
0.29674731011 0.29376942551 0.29640772413 0.30326457015 0.29882859292 0.30088260715 0.31099336515 0.30524517696 0.3062177209 
0.310966435 0.27065974486 0.26759693257 0.33115345177 0.35522290899 0.34018356926 0.2712656299 0.26560396985 0.26379369011 
0.27229748665 0.38074759994 0.37088059601 0.26694433688 0.26605976561 0.27043866526 0.3132350997 0.31207687417 0.31358869555 
0.31618749464 0.31470884602 0.31668320521 0.31899254265 0.31759056425 0.32008557583 0.32101554087 0.32002176873 0.32301940741 
0.32230342402 0.3217834997 0.32513218428 0.32265392717 0.32256795068 0.32636003376 0.32194237853 0.32234018857 0.32637649458 
0.32033749454 0.32138674349 0.32534650164 0.31805832485 0.31927841777 0.32336647013 0.31547086713 0.31677389732 0.32053566765 
0.31313688212 0.31407095396 0.31721166974 0.31165548714 0.31173767574 0.31400190578 0.27965790324 0.31271349421 0.3126818752 
0.31373122067 0.28507461995 0.28700196024 0.29297997722 0.28906159692 0.30659180276 0.30585832838 0.31064530246 0.30491609974 
0.27480091828 0.28021764884 0.27383591364 0.2830464484 0.2873314476 0.28071620621 0.28903787352 0.2922509285 0.28705481298 
0.29434808435 0.29683719085 0.29216204875 0.29936225763 0.30244456916 0.29739880979 0.30657333257 0.31143667004 0.3040145396 
0.33124513394 0.32068603735 0.31482161484 0.26721585223 0.27233154714 0.34442272188 0.35575083591 0.36409103377 0.37299327456 
0.37635984206 0.29929159 0.2955389857 0.30165786666 0.29237055825 0.28922158598 0.29331969296 0.28634825883 0.28260512559 
0.2865270135 0.27917721915 0.27503940291 0.27920447266 0.27261248844 0.26701510298 0.2727917556 0.30354023613 0.31045930116 
0.35901673253 0.36386761107 0.34701497342 0.27722658108 0.28052922482 0.28271556163 0.28495662548 0.28037940079 0.28751020301 
0.28978982073 0.28518220417 0.29319240953 0.29691815404 0.29948269339 0.29096593255 0.36594884007 0.36636680779 0.29554458766 
0.29320314993 0.29120593199 0.28938103538 0.29196484095 0.2878158099 0.28530579589 0.28767812188 0.28320811397 0.27963004212 
0.28303969541 0.27789277791 0.27279146999 0.27297932332 0.27833212094 0.38042928583 0.38063133967 0.36892384288 0.27259780422 
0.30956102551 0.30969252038 0.31152472455 0.26482275102 0.26586658276 0.27054921086 0.27004868962 0.27598385202 0.27508148123 
0.2715888408 0.27658004575 0.36063081075 0.34519159365 0.33391270873 0.32206977732 0.33380337346 0.31348434482 0.31386604042 
0.31413431211 0.31862315325 0.32730618036 0.30715279031 0.30672990923 0.30790619171 0.30374379479 0.2582513156 0.31293657432 
0.31174348702 0.31119485814 0.31232608035 0.29717832185 0.29340984393 0.29646823416 0.27497434192 0.30505831955 0.30494662062 
0.30387343204 0.31167947318 0.31067113047 0.30997827797 0.31167042211 0.33153353723 0.2712069517 0.27925117199 0.37331865308 
0.36910270958 0.35532127176 0.36555298183 0.26923180824 0.26696245044 0.26962543809 0.27179380751 0.27532995686 0.27164332103 
0.26779927438 0.30981831387 0.31049665078 0.30973281356 0.31058326246 0.27162146929 0.27662962217 0.31099482592 0.31143273281 
0.31154750376 0.27574040499 0.29775075953 0.30250188865 0.30704476971 0.30115641788 0.30230271412 0.30223273923 0.30306567002 
0.36114722871 0.37134451102 0.36104280247 0.27450340642 0.27617400565 0.35153093095 0.27487337072 0.35840885081 0.35442965284 
0.35158264452 0.32963456496 0.32233766383 0.29960362784 0.29805331009 0.30468416838 0.30933458449 0.3086037805 0.30839510508 
0.31015031919 0.3136882212 0.30505881883 0.30569411888 0.30794372645 0.30879905823 0.30395031035 0.30438909956 0.2798492946 
0.28189399378 0.33664216097 0.32643359588 0.285063719 0.28703742784 0.28675117069 0.3367512554 0.34310280171 0.3049137972 
0.28902380922 0.29095619995 0.29254154834 0.28462023797 0.28308813558 0.28744993421 0.28603353292 0.28658081279 0.29087122849 
0.28938975722 0.28994593337 0.29466123689 0.29307086642 0.29401371344 0.29774746622 0.29642420288 0.29794094925 0.3003275784 
0.29922719686 0.30097728943 0.30236367659 0.30138093448 0.30323409245 0.30369666263 0.3029615765 0.30463814183 0.30460266345 
0.30397677683 0.30524975396 0.30568308185 0.31884927564 0.31690847587 0.29302556442 0.2908096421 0.29855394826 0.29941263418 
0.30013606454 0.301138583 0.30059791024 0.29194276446 0.29295149433 0.29648598355 0.29746319577 0.29896490515 0.28944945116 
0.29053477442 0.2918221556 0.28712870637 0.2881162793 0.28905018169 0.284580558 0.28572077335 0.28635621678 0.28180649342 
0.28313284553 0.28360889232 0.27872974038 0.28004201156 0.28029025152 0.27521174814 0.3159116399 0.31552602732 0.36084684448 
0.36181998966 0.28024798964 0.27931604994 0.28330545157 0.28205879425 0.28228665888 0.28649218196 0.285153738 0.28611193084 
0.28998464201 0.28849250902 0.29007938488 0.29380720944 0.29190812122 0.29421498325 0.29752810168 0.29559040237 0.2981675461 
0.30127713092 0.29902194784 0.30166904661 0.30526780528 0.30253732462 0.30481579812 0.35517009978 0.34562254188 0.33578445547 
0.30241477784 0.29798117843 0.32352814749 0.32132581088 0.32263530974 0.32714345276 0.32536510069 0.32779088705 0.32942729817 
0.32824745353 0.33151436258 0.33070120142 0.33023396651 0.33388673231 0.33019374306 0.33059404292 0.33471259271 0.32861896722 
0.32968674698 0.33402578765 0.32570089468 0.32745587793 0.33191495755 0.32136933129 0.32362548707 0.32780811394 0.31690137242 
0.31917113308 0.32257765159 0.31259018155 0.31440697542 0.31699181623 0.27495362233 0.27738587271 0.33904655892 0.35222403738 
0.32964823557 0.32335481771 0.33235177121 0.32784434376 0.31585701525 0.31601560545 0.31758492396 0.26105914295 0.31701851015 
0.30980799355 0.30508419598 0.31928985306 0.29414409908 0.29519513752 0.29673996033 0.29435528281 0.2850704813 0.28772849347 
0.29028144411 0.29284728908 0.28819741693 0.29498384634 0.2978226254 0.29327164394 0.30122086522 0.3049724865 0.29881576135 
0.26631788015 0.26429428994 0.28124818091 0.27770600173 0.33148794851 0.31964807442 0.34714071811 0.34094579406 0.32805672284 
0.28398756882 0.28655139325 0.36292787828 0.3583194664 0.35431237462 0.31453131663 0.31314379275 0.31728386435 0.30635710494 
0.3071329163 0.30747403977 0.30568219716 0.28872890138 0.28651076784 0.28977082654 0.28491999696 0.28245574409 0.28559032805 
0.31142085161 0.31080506561 0.31313746233 0.35666749172 0.35803720358 0.30878314228 0.30804963543 0.31543566798 0.31575315396 
0.26940769247 0.27303589933 0.31034504659 0.315767515 0.30680867836 0.30654447152 0.31484297699 0.31551459963 0.31727811763 
0.30956777873 0.30971804176 0.31070455069 0.30411650364 0.33554359142 0.34360404802 0.31492878449 0.31414689334 0.31673107158 
0.2818317619 0.29693472407 0.29926421559 0.3009674887 0.30370785646 0.30471960339 0.27600934388 0.27782438808 0.27271201694 
0.27464072845 0.29660738834 0.29286343588 0.29486555148 0.27549700454 0.273938935 0.31157508035 0.31249588215 0.31180934044 
0.28008926995 0.31401732974 0.31335127118 0.314194697 0.31331986157 0.31226347836 0.31491931883 0.34704450083 0.33875321614 
0.3463110745 0.35818500315 0.35443946023 0.35193910545 0.2744450499 0.27588456068 0.27648032873 0.27371291607 0.27374177269 
0.27725894787 0.27814409973 0.27541996538 0.30892359715 0.31052579665 0.27613613885 0.27604563382 0.34858344395 0.30897837622 
0.30602078129 0.30762152812 0.30967074507 0.2813352367 0.31165484887 0.34752742331 0.29697378033 0.29576476199 0.30031952352 
0.28755843394 0.2890386463 0.29204187826 0.28898226179 0.28405712044 0.28189428807 0.28443727253 0.28768705285 0.2795540536 
0.28311958476 0.28362006201 0.27902267872 0.27545590178 0.34475583436 0.29367954724 0.29041150434 0.28801885221 0.29484793566 
0.31347677287 0.31001612001 0.3101448006 0.30873790039 0.30214119809 0.30312945853 0.30402444751 0.30218169639 0.2965084116 
0.30111675748 0.30315588336 0.31122156409 0.31016804152 0.31265016205 0.30346800077 0.3071766065 0.30645256354 0.35560114762 
0.3478795065 0.35032128493 0.29086014399 0.28892472314 0.32843039502 0.33206736515 0.29771286193 0.29569531555 0.3006561424 
0.32102892686 0.32071599918 0.29600363909 0.29817398931 0.2922977713 0.29042157307 0.2916924094 0.29643641985 0.28712600227 
0.30428640369 0.30447110669 0.30311996189 0.30625540973 0.30535451613 0.30855257322 0.30710544849 0.30650501155 0.30918038831 
0.30703836647 0.30687813931 0.30891768268 0.30791513368 0.33250103947 0.32934770461 0.30152017211 0.30214729311 0.28871434907 
0.29009149019 0.29419772803 0.29196865781 0.28244684386 0.28423121068 0.3378360973 0.34642064858 0.34073604118 0.32828839346 
0.32213725291 0.3233479752 0.3320166203 0.3300916812 0.31794953379 0.30743457755 0.29849197272 0.29638152548 0.29855902632 
0.30275131518 0.30072434896 0.30322970138 0.30598849674 0.3041507286 0.30703165832 0.30865589857 0.30693289011 0.30964345542 
0.31095571116 0.336782282 0.32888755963 0.3367842545 0.3410547251 0.33889898499 0.32476472183 0.32147114821 0.32954859195 
0.33877812972 0.33754431137 0.33765496415 0.33861538658 0.33523277458 0.33739173273 0.34209217688 0.32823199926 0.33147752422 
0.3372585424 0.32158538996 0.32520529377 0.32857807647 0.31380177512 0.31719117308 0.31989552066 0.27747024938 0.29973971323 
0.30063452885 0.30250767456 0.31002016604 0.3151073679 0.30886636025 0.31517341987 0.30101177553 0.30278493553 0.29870595956 
0.30524717003 0.28092167796 0.31764371587 0.31524281517 0.3202911181 0.31243060233 0.30913140958 0.33924127277 0.3424008523 
0.30956721792 0.34486795023 0.33967916459 0.33324604353 0.27902679247 0.28536326999 0.28557121618 0.28707718668 0.28710391819 
0.32628285401 0.33065567165 0.33105504292 0.31592689592 0.30886632048 0.31027685395 0.31930572656 0.3181397589 0.3228717115 
0.29085955466 0.33590137627 0.33294834542 0.32515117822 0.30363536 0.30593724084 0.32001439083 0.32333564144 0.31928272748 
0.30471596059 0.3004221592 0.30249543797 0.30646972007 0.30755501242 0.3081524287 0.31353913524 0.3066437611 0.30078876194 
0.30156125128 0.30013663916 0.3064505806 0.31193207129 0.31345945349 0.31168112233 0.31465625333 0.31600561054 0.31504236979 
0.31084559913 0.30305679072 0.33576740875 0.3338878725 0.31724636927 0.31572037481 0.31925310757 0.29212406867 0.29197928992 
0.2933228228 0.34665462716 0.3477207259 0.28907212752 0.28686630831 0.27639740623 0.28490370703 0.28279417068 0.30996399117 
0.29496852948 0.29604756666 0.29565056891 0.33945075147 0.34345287453 0.3486365617 0.3393614427 0.34342773971 0.30285869883 
0.34060797505 0.31573482876 0.31366160663 0.31213498451 0.29301742838 0.2880743152 0.29712954654 0.29825948869 0.3003983959 
0.29805460805 0.29429417343 0.29288991065 0.29463944691 0.29742094253 0.31975621804 0.32544372786 0.32163906848 0.32141329723 
0.31421777508 0.30852946634 0.32201402387 0.29050132446 0.29270988892 0.29598717859 0.29895684005 0.31013203056 0.31666365536 
0.34864626458 0.34650527702 0.30394113152 0.30478671707 0.30567996932 0.30408672974 0.34962349785 0.33644047854 0.33129350557 
0.32544734739 0.33083130584 0.33900013042 0.31428484075 0.30072841316 0.30414497648 0.30853749934 0.30306546292 0.31202928837 
0.30810432595 0.3087007575 0.29391567559 0.31588541285 0.31191534517 0.31010986195 0.29440222677 0.31058203487 0.31327216555 
0.2883724657 0.31204683891 0.33659737856 0.29936885379 0.30409924087 0.29698714991 0.31468848975 0.31695582981 0.32288710034 
0.31343705616 0.31081784437 0.31761876282 0.31887973028 0.31869907967 0.33258292631 0.33321370187 0.32961030062 0.27898278694 
0.2806256818 0.34378332031 0.34801240522 0.33444331255 0.31652985421 0.32065501586 0.30381827744 0.30451689359 0.29856273836 
0.32996347685 0.31593016334 0.31158668577 0.30646960465 0.3026068219 0.30018888343 0.3077210677 0.31954002332 0.3083510028 
0.30595250987 0.30917365198 0.31390889789 0.31124167383 0.32822034432 0.31092047784 0.32121916952 0.32097998519 0.32467213118 
0.32159457239 0.31626979086 0.32484558418 0.30566803144 0.31204823138 0.31084109686 0.30783848455 0.30881059945 0.30635618908 
0.30481908985 0.31292718308 0.31292545671 0.31489829226 0.31188313303 0.31115334518 0.32323480623 0.3214525045 0.32086426608 
0.32166636013 0.32418909987 0.32896157908 0.32684246579 0.30507853341 0.29533098055 0.31840643462 0.31216864442 0.31611190969 
0.32134072245 0.31482780953 0.31673883849 0.32544325868 0.32433778913 0.32118145766 0.31922738257 0.31856664418 0.30519173815 
0.31689202674 0.31783233699 0.30107341826 0.30246518512 0.32746734822 0.30708033477 0.32380650418 0.32510468029 0.30782900419 
0.61789542406 0.3079410324 0.30802601727 0.30788900295 0.3074910011 0.30678300057 0.30602500088 0.30494000273 0.30231700443 
0.30390600283 0.29950000186 0.29784000581 0.29628200824 0.29443300856 0.29317400802 0.29168600652 0.28902000523 0.29049101043 
0.28709500482 0.28638200046 0.28583700063 0.28565900153 0.28628500248 0.2872070099 0.28938804371 0.29117906758 0.29265204889 
0.29480307937 0.29670406369 0.29894908027 0.30106709753 0.30349508724 0.30540512618 0.30744008906 0.30996205255 0.31033200026 
0.31036200132 0.30933300607 0.30781600497 0.3050150544 0.30243705828 0.29850308609 0.29148612868 0.2868171841 0.28308613924 
0.27827313095 0.27433115245 0.26968710369 0.26331404756 0.25971503956 0.2568540883 0.25381308495 0.25169812484 0.24930808795 
0.24756106068 0.24594602126 0.24414906444 0.24388503445 0.24356714164 0.24408113704 0.24476734594 0.24633128373 0.25049659057 
0.25541037308 0.25906729308 0.26683134842 0.27402519595 0.28862523876 0.30324166865 0.34284499492 0.38173394672 0.30087000474 
0.28804700622 0.2855420007 0.28584700592 0.28831201893 0.30885008127 0.29522810259 0.26641308053 0.24502005777 0.24839938051 
0.63045239492 0.30786100707 0.4036622087 0.34988723875 0.3055621972 0.28396652577 0.27187750645 0.26434782581 0.25652158046 
0.24758939132 0.24342171662 0.24145018306 0.23934522595 0.23823009638 0.23719811926 0.23682708345 0.23669405242 0.23743701173 
0.23858908418 0.24369608039 0.24634610355 0.2491081213 0.25265313605 0.25877804989 0.26312317387 0.26701322742 0.27130830916 
0.2756202809 0.28040734778 0.28471337657 0.2900213663 0.2942104948 0.29872530725 0.30422709016 0.30562601017 0.30641303285 
0.30568212857 0.30425911931 0.30191620351 0.29934821819 0.29622420959 0.29344824559 0.29035715589 0.28557711773 0.28275807854 
0.28103006321 0.27927703802 0.27809504192 0.2770800237 0.2766540201 0.2762160006 0.27653200027 0.27727900312 0.27806300071 
0.27934200482 0.28059900455 0.2824770083 0.28435600787 0.28629401043 0.28983000781 0.29178501353 0.29375801668 0.29602101717 
0.2977590138 0.29978301073 0.30128001195 0.30286000948 0.3042880096 0.30569400468 0.30653900345 0.30747400015 0.30804400945 
0.30799104009 0.23967009454 0.24178914585 0.25239526344 0.23711003628 0.25578311798 0.3015742394 0.28787115778 0.27633400159 
0.28808401313 0.30786900486 0.30766400358 0.30767400217 0.30771301656 0.30775600637 0.30771900023 0.30780500184 0.30778800546 
0.30777100291 0.30776900619 0.30774900741 0.30776800824 0.30772001298 0.30771202086 0.30768301638 0.30768101785 0.30765002201 
0.30764301127 0.3075820074 0.30760400712 0.30758500724 0.30758200408 0.30761300164 0.30766500402 0.3075440024 0.30758000604 
0.30758900222 0.3075950055 0.30761700744 0.307587007 0.30764300987 0.30765601852 0.30767801268 0.30768201411 0.30769300929 
0.3077100029 0.30776500557 0.30775000326 0.30776100531 0.30776800097 0.30776900225 0.30780400011 0.30772700147 0.30768200904 
0.30757801079 0.30761900392 0.30770301376 0.30770701045 0.30754100134 0.30771601405 0.30764901499 0.30765201137 0.30771600479 
0.30772700152 0.76662267233 0.68455133517 0.7623917583 0.64116035804 0.6287641973 0.73201521963 0.61266881597 0.70306697722 
0.59016391932 0.82291977747 0.2069075308 0.68787165845 0.50180685007 0.20664540378 0.21752261219 0.22288485003 0.24555182798 
0.26317568163 0.28198257991 0.29976165171 0.34044957326 0.33513335455 0.356276453 0.38298498821 0.43286777265 0.20143999206 
0.29417876179 0.20129740483 0.20126838274 0.1835455233 0.23235729096 0.2325688749 0.25719759939 0.21239634099 0.22204933221 
0.22345710548 0.3015318146 0.24884015186 0.20754683635 0.20026245485 0.21562675782 0.21780071561 0.22510948924 0.22818149729 
0.19627841797 0.19487583779 0.7663631948 0.52210240536 0.22892485554 0.20430974267 0.26462697537 0.23681377349 0.29690984589 
0.34251350284 0.30373103539 0.39251927903 0.3633756895 0.43264949132 0.34153744661 0.8230254391 0.58754875514 0.67119297732 
0.74684852887 0.74644669325 0.64293259888 0.7410360215 0.72942609299 0.71937581624 0.68837839773 0.70385927647 0.24627013118 
0.3013344696 0.15272263838 0.20117133437 0.20726816366 0.20044164562 0.21809926279 0.22849788655 0.22060833205 0.22069951836 
0.70228390301 0.20706304506 0.20439189499 0.55806643975 0.44551731849 0.37887989727 0.35622519607 0.3614532627 0.3169239806 
0.31473945911 0.27487505779 0.26173491203 0.22941033551 0.20415126285 0.40803478946 0.8072699689 0.60012069183 0.67313189081 
0.64363955412 0.89889445993 0.63163113895 0.75027834463 0.70884974952 0.7269456484 0.69682340712 0.81503093413 0.79164232879 
0.74208288992 0.66377305542 0.77643350165 0.88117754559 0.75542824738 0.74943594901 0.73887849315 0.72673898967 0.79019804772 
0.70318110912 0.67936928454 0.20294103482 0.19535739442 0.50778220717 0.58998920129 0.35654788675 0.41245763628 0.31336359657 
0.33489453151 0.27068523924 0.31121906655 0.22329157263 0.24684968102 0.20291877667 0.41191516882 0.20545055624 0.32369874104 
0.21823649682 0.19103649522 0.13319208673 0.21444145753 0.21117554941 0.23132843663 0.22539791488 0.2222698028 0.1955043703 
0.54984108989 0.41940330518 0.24475271961 0.28873747897 0.35499327991 0.38777628945 0.42039123215 0.41903273106 0.41188507047 
0.40166162329 0.39064431264 0.38317130649 0.37557515711 0.36892868584 0.34426407591 0.35626304816 0.33102815981 0.31508020528 
0.26282020384 0.38761815769 0.58296529328 0.73091564732 0.6194859548 0.71758543752 0.65315393274 0.66109372012 0.6063605871 
0.58817094299 0.55490456153 0.53457511643 0.49927275754 0.46710119699 0.42835654584 0.40712600688 0.36083948315 0.35527089016 
0.40767535319 0.59741131691 0.70873063382 0.88395896448 0.71266753083 0.80642907161 0.71766280644 0.5717542414 0.38359273538 
0.33620526596 0.36220642612 0.36915386285 0.40069662905 0.43375192917 0.46312476614 0.49912090538 0.52302673663 0.55659396115 
0.58060830103 0.60979730863 0.61786299583 0.68507738434 0.60933579122 0.73613310792 0.56192599481 0.34205616524 0.35881755289 
0.41374187892 0.4393180834 0.47761821945 0.5048870038 0.53717941883 0.5599882517 0.58880254261 0.60889077253 0.65408309494 
0.66054138362 0.72597624895 0.62279946262 0.73544715137 0.55158148633 0.41185750828 0.39444460297 0.43307807963 0.61553476072 
0.59637852368 0.69307954167 0.6056044455 0.60678567338 0.572730083 0.54454214201 0.52165025345 0.49341552507 0.4604231167 
0.42772038024 0.39125370685 0.37222941209 0.33856884136 0.31800727508 0.3649075101 0.65871078824 0.45496715617 0.43271263713 
0.82500650501 0.28842523493 0.25188296945 0.29092300642 0.27073576566 0.30038739678 0.30098708072 0.7049640813 0.4213375431 
1.192279558 1.2649349979 1.3362938539 1.3042477824 1.3280410915 1.316415606 1.2925722688 1.2548814787 1.2086065722 
1.1011483371 1.0626245028 0.89145237784 1.1076627032 1.1978429963 0.88413867726 0.3431954124 0.19319599967 0.30794231732 
0.24512836516 0.23123703714 0.28875672928 0.28334804433 0.31636486173 0.29241855267 0.37294716534 1.3200813876 1.1792908407 
1.3055302712 1.3128265382 1.2988537516 1.3111357907 1.2439155055 1.2631112382 1.1361419242 1.1953406451 0.92854545458 
1.0114593807 0.72832268386 0.52712420497 0.77487865 0.78211666926 1.3410133208 0.59767017001 0.2643406669 0.56422516194 
0.65628453497 0.2694443053 0.7760020762 0.36005203996 0.74268080399 0.55544034185 0.71916605221 0.62737767188 0.62832627388 
0.6238229506 0.58588877108 0.59843818623 0.52957457897 0.55462015634 0.46891748718 0.48879335559 0.40483976876 0.42790668218 
0.36186135525 0.3754917593 0.65722620829 0.4063876334 1.0133337729 0.6101068759 0.75706418594 0.6359792218 0.60303403863 
0.41468472285 0.61540708721 0.32206298534 0.33438539097 0.39483034014 0.34300462431 0.4577102904 0.44503724214 0.51800227932 
0.49348175564 0.55822727663 0.54397022763 0.59792748662 0.60439418616 0.52913756467 0.68734452984 0.58374035405 0.73769849683 
0.60229421044 0.7785347219 0.90935842502 0.39818051583 0.34980133342 0.42820642673 0.40551029746 0.49795560667 0.47106517206 
0.55721078448 0.5318634679 0.60378433321 0.58744096834 0.62644095408 0.63162700235 0.67031926323 0.70362483292 0.54485337146 
0.72095531419 0.34589241256 0.41833474149 0.69545981289 0.41847972483 0.65959126805 0.63470789982 0.59373154803 0.60775925269 
0.54288950557 0.5650041934 0.48777278276 0.50499206396 0.38583425049 0.42144014655 0.32762296685 0.35796260068 0.39535145862 
0.89417158552 0.35453491651 0.20418700799 0.27802324725 0.26069720905 0.27997958668 0.27281901764 0.2814832647 0.30229027297 
0.28239652784 0.32962137783 0.74757794217 1.2920866911 1.2797780998 1.3427416008 1.3379007827 1.314868524 1.3319936967 
1.2578913281 1.2850665375 1.1472779368 1.2063317587 0.94126255205 1.022171343 1.2177296548 0.22361226007 0.42969429242 
0.26164602362 0.27871975534 0.32388294317 0.2750259922 0.29925579869 0.31328360541 0.39666012149 0.7054974044 1.192276414 
1.2302012088 1.3083355904 1.3156097495 1.3191096271 1.3042629767 1.2777052807 1.2469545508 1.1938007852 1.1241843905 
1.0489129436 0.8485656883 0.43469215491 0.72652409867 0.83699972466 1.1530731375 0.64337238654 0.53838945777 0.44409197348 
0.53209488188 0.58692099273 0.54421440483 0.41586867252 0.18619793774 0.25094048901 0.29451765109 0.33174897887 0.34812389526 
0.37284971827 0.3761845845 0.38158202636 0.39018389325 0.39707545811 0.40679315377 0.41333072701 0.42299441983 0.42921812282 
0.46508772305 0.44275238273 0.39093710748 0.35990926491 0.29325672814 0.59961756743 0.47610066274 0.23764106013 0.28830652419 
0.30071197543 0.35287300577 0.36570020636 0.36463293832 0.36689800052 0.39497036441 0.38209104541 0.38853831069 0.39983396141 
0.44099624562 0.41824329848 0.42838630933 0.42492628797 0.3623357031 0.28528240726 0.28576177627 0.42411306706 0.21021343514 
0.13744023973 0.27086036513 0.43753406139 0.40350614839 1.1997635043 1.1536177582 0.4903692268 0.52284134334 1.340941094 
1.3467857066 0.64096137792 0.52775729173 0.59496559625 0.73420370708 0.53801457603 0.54659292194 0.2201612206 0.51344260625 
1.3123161515 1.3195527496 0.64896082695 0.57740067256 0.34864535547 0.61918691371 0.57824518235 0.74973907821 0.078531212673 
0.33711268367 0.28214348395 0.51565707887 0.8791604577 1.0382597537 0.32760561228 0.35220639594 0.5660064768 0.20503725014 
0.19993438934 0.57636136529 0.36061281153 0.66948331068 0.5136577656 0.19996949165 1.245547053 0.47663755948 0.55674483251 
0.34361006629 1.322262751 0.2966784983 0.32520092706 0.34538298394 0.57338428107 0.52919423409 0.63272704019 0.36574973364 
0.45970825388 1.296495496 0.21337009798 0.22608504945 0.50236305922 0.3857165772 0.60125247179 0.29121526858 0.73053922387 
0.61766246644 0.65701546541 0.29509220495 0.36333369311 0.60875656248 0.6107376884 0.29900796424 0.2999291906 0.46568314988 
0.47039194042 0.52176662279 0.74193207025 0.71893383365 0.5295173091 0.54130926989 0.55468388558 0.65332863622 0.27702082298 
0.25550157549 0.19745520727 0.19652120109 0.29228876393 1.2397431371 1.1071904596 0.78193658929 0.59213030913 0.20068949115 
0.46481793954 0.59298234425 0.75050207971 1.2988602663 1.3071850323 0.21015994628 0.20964518309 0.20456341012 0.53688276865 
0.74047460092 0.67180314839 0.23876717901 0.22857757265 0.2463671018 0.24494934916 0.32411634508 0.79859382362 1.2073358122 
0.22384195234 0.19932592439 1.2663460353 1.2714675517 1.2956934697 0.24649345713 1.2851857766 1.3147883704 1.3271380126 
0.30249623771 0.57265796872 0.66900599721 1.307025628 1.3118562376 0.5726460683 0.71859711946 0.55185736188 0.899237143 
0.25284870524 0.26499464654 0.27752714585 0.18148638418 0.45617072107 0.27915539134 0.18780973542 0.40024103832 1.0934805348 
0.99468611625 1.0720927948 0.39598116315 0.43009832589 0.61877447633 0.42142907621 0.33618921516 0.59159456852 0.39300378991 
0.5560698693 0.36138117301 0.74064561395 0.93232486723 0.99969461755 1.2439553498 1.2717685463 0.61198943402 1.2691903327 
0.57250687942 0.20659638662 0.21248554833 0.21069651887 0.4389325981 0.51865663053 0.32659920743 1.1461597084 0.31455284975 
0.22896738297 0.25269190605 0.20943317263 0.19635387051 0.18273446436 0.22330037138 0.2221570966 0.23042758495 0.2341859594 
0.18155802765 1.2052498289 0.32458372452 0.33812141988 0.32635134717 0.32880951798 0.3416313305 0.24133985313 0.25063012318 
1.3185144704 0.22986297778 0.2319081723 0.31564024818 1.307792799 0.32686525328 0.35191019915 1.0728118845 1.1029506884 
0.25111266294 0.23309004984 0.23605155612 0.17746605969 0.20328719005 0.20866589927 0.18052364742 0.21181633751 0.41323391723 
0.51034414743 0.23538644171 0.20515161553 0.20227969764 0.22384266684 0.22219481883 0.21750580787 0.20933221508 0.33173062023 
0.18948877522 0.52172124161 0.81942420661 0.24271341291 0.70992486183 0.20159385261 0.19341209033 0.19180085129 0.4968078985 
0.20230512936 0.20515140485 0.19736572178 0.18209077934 0.68273373774 0.2834533219 1.0714516923 1.2619658097 0.58387535774 
0.1809888444 1.3365706064 0.31960651591 0.21833884545 0.17577760553 1.1322282129 0.19229899407 0.28531161191 0.28444608179 
0.28457682123 0.28352034403 0.29793011166 0.29566075122 0.29784133293 0.28264368529 0.27359074119 0.27898538406 0.28973363 
0.29030898972 0.29230647769 0.28306048248 0.28000728699 0.28059119074 0.27672113103 0.27421137903 0.27817563053 0.27622675197 
0.28756346906 0.28549037948 0.2856719318 0.28312751876 0.31433654531 0.31180290235 0.31073966613 0.3151679045 0.3158458946 
0.3123723758 0.29661503812 0.29535901277 0.29199556682 0.29462763343 0.21407107791 0.2230018342 0.24131403479 0.24010476101 
0.26089661911 0.26226664542 0.2656829043 0.29466737415 0.29844641247 0.30005035281 0.32100891533 0.32456728009 0.32142926114 
0.32509028464 0.3205745772 0.32391176407 0.32008412176 0.32321162257 0.31928765366 0.31719499787 0.31835185122 0.31044535841 
0.31197596951 0.30656506635 0.30850600825 0.30084959236 0.297616325 0.3009598802 0.30805490887 0.30461830546 0.31099521861 
0.30358130979 0.31659547486 0.30830579593 0.30243293759 0.29688576105 0.29887325347 0.29439802416 0.2963936789 0.29354921207 
0.2919747996 0.2879325275 0.29290387816 0.29045163539 0.2908283363 0.29208433926 0.29207832237 0.29008976995 0.29107145897 
0.29137610133 0.26647421842 0.26889520042 0.26901894304 0.30763618952 0.30767452994 0.30758292518 0.29506236608 0.29335102687 
0.29517089965 0.29351032677 0.29757083993 0.287590523 0.29950793536 0.30644942547 0.30697590561 0.30689908368 0.30731621638 
0.29922996307 0.30007093188 0.30413890378 0.29090565371 0.29088364726 0.28650893671 0.29340572115 0.29044885215 0.2890400029 
0.28694172532 0.30733248098 0.30695952038 0.30730973068 0.28644428989 0.2756433318 0.29659418525 0.27591326432 0.27323509673 
0.27639554455 0.28721593763 0.28704481596 0.29101531334 0.28593107374 0.28297160532 0.28259000756 0.33732215566 0.34125509806 
0.34223606525 0.2725118314 0.27141074641 0.26711187805 0.29058930192 0.29260145003 0.30286155247 0.30354860086 0.30224359953 
0.30298919492 0.26112515489 0.26558501572 0.25288266277 0.25937215698 0.3228214285 0.31880216673 0.32022442808 0.30854651364 
0.30858663978 0.30803738719 0.30766253227 0.3076308005 0.30763667468 0.30679351238 0.30632147067 0.30647524716 0.30819013655 
0.30856953509 0.30840462865 0.30890924653 0.28668403767 0.28704653287 0.28487929701 0.28526536722 0.30772923118 0.29666703408 
0.2986438716 0.29948599249 0.30170591697 0.31097765388 0.31302333006 0.31128697929 0.30454052349 0.30436016188 0.30373202781 
0.30794589079 0.29960587115 0.30767115112 0.30704237277 0.30628794821 0.30644220121 0.26752490686 0.32646075068 0.31658820665 
0.31986720023 0.30157875704 0.30236739415 0.30257991954 0.31507984449 0.3124631504 0.30640999729 0.30588190243 0.30648942732 
0.30587690879 0.29755687386 0.29434130414 0.30145393604 0.26594710404 0.26700344023 0.27164298234 0.27223801775 0.27660965767 
0.2731258683 0.27777132965 0.27649030448 0.27201117234 0.27826660735 0.29738235315 0.28760258914 0.357153472 0.35169815232 
0.34377356234 0.28316357262 0.28036901768 0.2793588462 0.30420409385 0.30459030837 0.30508981226 0.28414777791 0.28851918069 
0.38188447829 0.36705896049 0.37236734244 0.30210809229 0.30463423532 0.29984705477 0.27627958559 0.27818896598 0.28313616072 
0.26483805873 0.26414717688 0.26745246472 0.29348745967 0.28609711335 0.29011626118 0.2843273235 0.28524203225 0.28351139041 
0.26727060524 0.26860054979 0.2656203763 0.28792110813 0.27902384479 0.28362321784 0.27588139113 0.25974650338 0.25525060335 
0.2576733701 0.26826702266 0.27095420245 0.27037766631 0.30774995511 0.3077078412 0.26301814569 0.30420647537 0.30485515422 
0.30495828201 0.30495922567 0.31384643999 0.30376537035 0.30779686604 0.30795697956 0.30785985219 0.29600489008 0.29699956657 
0.29490622348 0.29594045235 0.25995600973 0.30762629957 0.2906007591 0.29128026599 0.29046549255 0.33085839934 0.32284681575 
0.3265249307 0.3067250722 0.30713136731 0.30698482461 0.30730277121 0.3077890105 0.30782201023 0.28786614032 0.28869539167 
0.30808257447 0.28696120961 0.28734338216 0.28841256226 0.30456203264 0.30412481912 0.30505133328 0.30694245875 0.30716177771 
0.30723037457 0.30755601685 0.2668776579 0.30655994122 0.30703549613 0.30721829684 0.31399350271 0.31488700191 0.27827398039 
0.27942289171 0.2781496466 0.27575154803 0.27709613062 0.27881782404 0.28003140149 0.26938609707 0.27315761994 0.27523214988 
0.27714604448 0.2789907413 0.26773976364 0.27404024366 0.27134897431 0.31068576497 0.31166227477 0.31039629027 0.28854161593 
0.28854732588 0.29003677638 0.30909288397 0.30955053049 0.28856834205 0.29352700508 0.29369850117 0.30871187473 0.26809855552 
0.26797701161 0.26515172908 0.29410156684 0.29836461853 0.29426600649 0.29859577383 0.30705221518 0.31956328016 0.31864293067 
0.31228346914 0.27412825898 0.28046228298 0.26977481386 0.30772631866 0.31145637327 0.31333060595 0.32459942068 0.28365955039 
0.31996817381 0.2814241129 0.28178007013 0.2799716191 0.34054935656 0.33751720102 0.360038457 0.34819213276 0.28522680994 
0.28302251762 0.28271910929 0.30956744286 0.30891117373 0.3092428594 0.30219076224 0.30108490904 0.30200442571 0.30015553555 
0.29917289572 0.29905606585 0.30759128745 0.31773189683 0.30869910343 0.30240219262 0.30399858676 0.28842685243 0.28790565931 
0.28814033782 0.33290078748 0.30767028792 0.30755235313 0.30773725845 0.36554695893 0.37852157438 0.37497841226 0.38777753672 
0.28551552067 0.28404174622 0.28535147142 0.37870213772 0.40540096147 0.39297926228 0.37679170293 0.28022742473 0.28164406688 
0.27959056046 0.3049607056 0.3037063006 0.30158367606 0.44443242836 0.46961567258 0.49253501166 0.43276117305 0.28819200461 
0.28728196663 0.28669878881 0.28593106113 0.28718429564 0.29208644239 0.29358932774 0.33289709872 0.33782924989 0.34098389235 
0.34603390313 0.25308903129 0.25693494695 0.29220699158 0.29023776023 0.28967085667 0.25833432038 0.26620385138 0.25348404027 
0.2948942582 0.28373739909 0.28383751895 0.28612231116 0.31566290985 0.31559705108 0.314249936 0.32053240509 0.31672840547 
0.31926918368 0.31554615239 0.30605011026 0.30574018648 0.30547158953 0.34314276192 0.34030661351 0.32181888822 0.3229125388 
0.3124828828 0.3113176206 0.314298285 0.28804260529 0.28683928007 0.28512681375 0.28398970016 0.37769876521 0.331215862 
0.38894000877 0.27080899031 0.28095115257 0.27955626374 0.28333120063 0.28211029843 0.28947571305 0.30670267941 0.30680181897 
0.30708941016 0.30759600832 0.30763000048 0.30760985771 0.30738030744 0.30756122597 0.30643767787 0.30684446822 0.30691152458 
0.30742427811 0.27868456569 0.27464152036 0.27864945431 0.32188940397 0.31794800858 0.30728588684 0.30754277093 0.30525587305 
0.30264709944 0.30091702979 0.30461441372 0.30619531166 0.30653171418 0.28660488116 0.29554105715 0.28889791763 0.32489835479 
0.32398328281 0.30023565161 0.2985399125 0.3052452081 0.30687761415 0.30273355485 0.28134549312 0.28283067584 0.30685687743 
0.30638403587 0.27250740618 0.28339195427 0.26951813433 0.30624942811 0.30650507838 0.30671263866 0.27182565984 0.27534531479 
0.27206185235 0.27524155531 0.2732092162 0.25362644482 0.25406595897 0.26099145911 0.28819417379 0.28113224686 0.28606758837 
0.25985978989 0.26909305023 0.26218451043 0.30710761499 0.30416234124 0.31388392029 0.31162005003 0.28775121933 0.28503639552 
0.28971544348 0.27266377197 0.27077137886 0.27144295443 0.25178742689 0.26246190633 0.2555215177 0.27445166926 0.27632888318 
0.28967693395 0.29204533951 0.29367337222 0.29629364939 0.29121151597 0.29497236728 0.29295350803 0.29059941747 0.28951406556 
0.28992321047 0.32506672355 0.33254897659 0.32457614036 0.26228065885 0.25737564292 0.26818640798 0.27147190634 0.27094343515 
0.27748840914 0.28041923319 0.27636806584 0.27892458711 0.28020159509 0.28249742795 0.28129950948 0.28366649558 0.2880247806 
0.28357980797 0.28594466146 0.30769417003 0.30761759573 0.30779108407 0.31364271525 0.3154412829 0.32500750439 0.329782637 
0.32549213975 0.36582465762 0.36712398467 0.39200100761 0.30721036051 0.30580056223 0.30952721605 0.31010063294 0.3100046975 
0.31103436677 0.31793985781 0.31975895153 0.31990021482 0.3090925271 0.30911032235 0.31191103669 0.31067321097 0.31159141682 
0.2958030529 0.29688740848 0.29589833846 0.31239761412 0.31235178525 0.31097547577 0.29739723329 0.29716078729 0.29624748132 
0.29528913861 0.29408739463 0.29229114735 0.27848551212 0.2794298333 0.2760074675 0.2810820459 0.28237166276 0.28151423544 
0.28295844603 0.30990809664 0.31080636455 0.30287784814 0.30164220169 0.30230832102 0.30500796703 0.3049493031 0.30424643494 
0.31285006792 0.31497002584 0.31552770197 0.28533632957 0.30643741698 0.29173903637 0.30750039712 0.29542471848 0.29671148744 
0.29680008799 0.29791036072 0.32356282824 0.32239507299 0.32029121519 0.28169324052 0.28146747453 0.28146568682 0.28116146216 
0.30406028436 0.31104001143 0.31155822101 0.31125532397 0.31091977878 0.31137207388 0.32258521542 0.32068479339 0.43254408139 
0.43095749061 0.31031523803 0.31049584145 0.31122961828 0.31156124165 0.34986857855 0.36063635095 0.34894652094 0.28636514559 
0.28684835129 0.28731084967 0.2877526068 0.33838200168 0.34042990501 0.33547317623 0.30330364344 0.30367420211 0.36118910041 
0.3552433404 0.35700927609 0.30084796813 0.2999556213 0.30002693811 0.29912993791 0.27268827623 0.27148678537 0.30920483636 
0.29188135362 0.29346849982 0.29221852622 0.24975444652 0.24860112065 0.28584876795 0.28536381898 0.28419706699 0.28542760844 
0.2843573407 0.28548707907 0.28652202727 0.29297462613 0.29530472281 0.29399772073 0.29646373359 0.29404929737 0.29202928166 
0.28099047592 0.27928308333 0.28069329109 0.31598403259 0.31979224982 0.27887731954 0.27840366461 0.27834548566 0.27862470824 
0.27810368263 0.27905013914 0.27872656775 0.27583611446 0.27718518616 0.27425987772 0.26533784745 0.26710840874 0.27899354133 
0.28737027312 0.284973066 0.29263083989 0.27114374637 0.26778867463 0.27505360899 0.27250797046 0.30230933648 0.30346309936 
0.30287829513 0.30010506291 0.29096395908 0.36715249123 0.35590467774 0.29882869384 0.29949221923 0.28273626463 0.3047083585 
0.30558779849 0.30345687225 0.30380685711 0.30410425628 0.30440545607 0.26131768869 0.26402548482 0.26005017819 0.30981630253 
0.31147028887 0.31088392264 0.34278594146 0.34513289242 0.25848931316 0.26464224171 0.26396515544 0.30866766093 0.30829710771 
0.30667589822 0.30619067779 0.27917127103 0.32480966899 0.31783066413 0.27478536148 0.28520006064 0.2556729149 0.27511665546 
0.24754712144 0.25473098937 0.24872451473 0.30245981251 0.30573885867 0.3069016201 0.27683592078 0.27726809037 0.27462854959 
0.27416167832 0.30642067239 0.30590709476 0.265975022 0.25603681379 0.26371759938 0.31420943007 0.32204580673 0.31395542385 
0.3223315356 0.31566934369 0.3133292407 0.31303699487 0.31066204493 0.3021354506 0.30388049837 0.26107701767 0.26210663397 
0.25360736696 0.25621210945 0.28257296219 0.3082385205 0.3054680535 0.30932978655 0.27554594165 0.32105911146 0.32235540285 
0.32440771776 0.32588351558 0.31212995171 0.3133750813 0.31431843986 0.31116266856 0.31364158132 0.31320692476 0.27793448367 
0.27484077081 0.27417604104 0.31703469575 0.27009433021 0.38314061042 0.39934316252 0.39705063676 0.28136668233 0.25354311669 
0.25647360969 0.24651854985 0.28856307355 0.28420260205 0.29035745586 0.28617889615 0.25238810556 0.3124623444 0.3118635465 
0.31109153938 0.25177857364 0.25727981758 0.24677923849 0.29169675707 0.27145710566 0.26795247771 0.27253299422 0.26962917196 
0.38693562978 0.39778983466 0.4282938659 0.2805005257 0.33467379575 0.31986268679 0.32802256809 0.33663397762 0.36774299654 
0.3676623458 0.31203507007 0.31457471077 0.31635341173 0.45173351413 0.42014326168 0.39904912794 0.55344579516 0.46802456414 
0.62266958562 0.27818776788 0.28072788233 0.30671989015 0.30674955398 0.30711092357 0.25999072246 0.26185192066 0.24917197545 
0.28538201312 0.2846400747 0.27475897026 0.27151092712 0.26980920094 0.23775412671 0.18764981636 0.21815523819 0.27826806307 
0.28056415052 0.27930639549 0.27913232313 0.27514040632 0.25311775042 0.29487728815 0.25972250187 0.27296524917 0.27420340702 
0.2900042851 0.28727161967 0.26590619663 0.27049773003 0.26787630679 0.27005701634 0.25919426593 0.26253202974 0.34835291326 
0.34297612473 0.33846998405 0.29999454161 0.29846082484 0.30993370627 0.30932798168 0.2972915111 0.29561412922 0.2988138924 
0.29701594303 0.28107841613 0.28330221058 0.28199840431 0.30587471069 0.30271525754 0.26056234072 0.26694800467 0.29203228377 
0.29653464756 0.29382663282 0.30831741108 0.30831076731 0.30802757609 0.3080117671 0.30780605949 0.30797576529 0.30787110424 
0.30654458118 0.30319245889 0.30089738038 0.31160506485 0.32489235615 0.31515294627 0.32620891842 0.2793089346 0.27786135585 
0.28141040573 0.24966485945 0.26068232416 0.25339772136 0.29771445382 0.3016721805 0.30019145737 0.3060659211 0.30559063277 
0.3027481413 0.30457570231 0.30199610213 0.29419916831 0.29765659331 0.29609769039 0.29966968702 0.25998503973 0.26458431534 
0.26111255101 0.30586407095 0.39979990615 0.44719159458 0.30809705632 0.30851897501 0.30821874242 0.2971790826 0.29832275073 
0.29996245763 0.30092703663 0.30771602713 0.30772817146 0.30775724111 0.28028859392 0.28071907784 0.27879796636 0.27930222617 
0.29459797822 0.30773327632 0.27965801846 0.30627317941 0.30556168274 0.30293338398 0.30383439879 0.30332884855 0.279280932 
0.2781310381 0.28034833417 0.42293761804 0.41393865018 0.45683338339 0.3095482805 0.30934392418 0.30891932591 0.30877241433 
0.30019904944 0.34012072762 0.37043385962 0.30992143795 0.29644648685 0.28861391318 0.28779673486 0.3158690517 0.34560449998 
0.2978478072 0.35662041039 0.28832352044 0.28371672632 0.28300405314 0.32441563591 0.33289815743 0.32172777394 0.32795080506 
0.30297977352 0.30449289653 0.3036261703 0.30629987413 0.27192998297 0.27114400151 0.28480388078 0.2856866379 0.2885700596 
0.2844357845 0.28609160275 0.28826422067 0.28908842049 0.29957037674 0.29816531437 0.32289957604 0.31891662394 0.26326414884 
0.26545115164 0.26176411453 0.26689894771 0.30098551646 0.30060209117 0.28786159577 0.28932899102 0.28459190614 0.28585560985 
0.30697003558 0.2978463863 0.28082897643 0.28444283914 0.28421126337 0.34532376899 0.33618832584 0.30118110962 0.29375240856 
0.29478279371 0.29923662441 0.29824791927 0.26357146773 0.26158857925 0.33991253036 0.33561925376 0.2814463448 0.29137231848 
0.29405927405 0.29584122547 0.31765311369 0.28575218398 0.28378748061 0.28644302488 0.32301111375 0.32451577413 0.32702975667 
0.29072091507 0.29271793309 0.29798798952 0.2978322708 0.29643671601 0.31205529589 0.30381604269 0.31211114409 0.30356131877 
0.28481234646 0.28280076418 0.28254330815 0.28062215923 0.32860266835 0.27830899058 0.27873735191 0.35180900384 0.31710735654 
0.31631864759 0.32224170531 0.32198833105 0.3029448767 0.29993231895 0.29909612107 0.29526829136 0.30572126298 0.30569491678 
0.29527353288 1.2905633027 0.28311457543 0.28026926283 0.2844499082 0.32665840895 0.28853975677 0.28851147169 0.28903023791 
0.31121119249 0.30314464918 0.30793456097 0.29196694914 0.29209090063 0.29287654594 0.28735246371 0.29212093634 0.28369188601 
0.28805408343 0.28938745354 0.28974262028 0.28888587983 0.28936908666 0.28871956479 0.28867408653 0.28875290399 0.28906200026 
0.30722052175 0.30714987737 1.2931203111 0.2822200075 0.28169349573 0.28177048854 0.28133587198 0.25653374194 0.29543687229 
0.27969501982 0.28648754262 0.29420498596 0.29214502459 0.27772932991 0.27480844265 0.27997668719 0.29295609934 0.29655984872 
0.29338433628 0.28755786305 0.2908261946 0.28746772897 0.36870446966 0.35925232106 0.31967633485 0.31894236153 0.32194853059 
0.29636001879 0.29459281096 0.29565012057 0.28666675336 0.29703598188 0.29680726238 0.29089702749 0.29397814205 0.29371642035 
0.21788260029 0.25595199701 0.26149875298 0.260105558 0.29582116354 0.28807336605 0.29028864154 0.28569261684 0.28777489464 
0.307896939 0.27054187652 0.25868438429 0.28383637119 0.29476434722 0.29180559504 0.29294065385 0.29381304067 0.32585724585 
0.33070238119 0.32785850487 0.29192249611 0.29047475101 0.25327858865 0.30855539815 0.30901836475 0.30910082512 0.30192619412 
0.30136868493 0.35604288967 0.36119154747 0.3517674602 0.34399416452 0.31929943376 0.32287085153 0.31931290469 0.39333237966 
0.35640853044 0.33188773938 0.32873415438 0.31783241933 0.32961256314 0.27692048336 0.31910222865 0.32260275874 0.3405547946 
0.34619564919 0.34685812816 0.35306967638 0.29562881503 0.300087652 0.29698168107 0.30112403503 0.30716535221 0.30663001091 
0.31272843554 0.31190434835 0.31389739324 0.31436674271 0.31296061055 0.29965737277 0.30356446841 0.31934513006 0.40171449073 
0.30838942718 0.27080416191 0.27823302764 0.27293381011 0.348803191 0.31805024711 0.31798943593 0.27259303067 0.31639441852 
0.32379505295 0.3355342157 0.32429969549 0.35036484531 0.31128039778 0.31195291855 0.3125794158 0.30859189324 0.30903796568 
0.36887295849 0.36625439218 0.36824181367 0.35975531106 0.36204026754 0.35436842939 0.30190790531 0.30095650523 0.33936245789 
0.34791958828 0.34113404451 0.33115871556 0.32979448741 0.31594152537 0.31415883533 0.31512174847 0.30126777087 0.3006752305 
0.30010609873 0.29950682826 0.30764765655 0.31483039158 0.31466794506 0.31310266577 0.31300342448 0.28653122473 0.28730568876 
0.28621284275 0.31047025685 0.31395678693 0.30919741155 0.30875461126 0.28647085082 0.28463991745 0.28189618567 0.28100317422 
0.28165108192 0.28088915073 0.27188617771 0.29587092522 0.28875526597 0.32121811332 0.31878640156 0.32051458371 0.18786014683 
0.31516769465 0.310216676 0.29984393054 0.3296220614 0.30769965559 0.30781963332 0.28949301153 0.29283720931 0.28975874057 
0.27144338667 0.30936659516 0.30873280627 0.30944367048 0.36550713715 0.35789177282 0.344638541 0.29295940703 0.29175688666 
0.29169633477 0.28899454847 0.28929434705 0.29073600917 0.31909195976 0.32257700032 0.3048693137 0.30784861816 0.30137189975 
0.30389396292 0.2986708555 0.30001397515 0.31578660544 0.206463796 0.28123563494 0.29870443091 0.29714010197 0.29675459865 
0.30009347808 0.32565644809 0.33290465158 0.32975550679 0.29727431956 0.30161688266 0.31490900359 0.30757621654 0.30547944425 
0.31246047564 0.29359636234 0.29518320911 0.29591486457 0.29202319967 0.29228537905 0.2815189859 0.25898854359 0.35380771479 
0.34237185392 0.31287558527 0.31407380713 0.31418935515 0.31337433497 0.31288622119 0.29520311378 0.57048758037 0.43273983304 
0.49184145452 0.40602535922 0.31065311107 0.25302551174 0.2586425133 0.25262581464 0.25292895973 0.31757961742 0.30752057452 
0.30746972758 0.30755381518 0.3104739308 0.31152579121 0.31087736697 0.28201998424 0.28052934939 0.27973100105 0.31716520325 
0.31607761106 0.3162771822 0.30825657278 0.30761275953 0.30794512014 0.31016057295 0.30966941583 0.26697927731 0.27201401679 
0.33847341479 0.28987024449 0.28946729785 0.29055153216 0.29869335605 0.29966922518 0.29953074 0.29066076699 0.29200347059 
0.29180596568 0.29325346192 0.35133198022 0.36215982257 0.3545461192 0.35363736627 0.28931334058 0.29423862325 0.28058735192 
0.28825261816 0.28719275643 0.2696320656 0.27027256089 0.28111419897 0.28350247256 0.30582913091 0.30915578743 0.30434815369 
0.28214424637 0.28544222489 0.2870358141 0.28009092739 0.28247588669 0.27664675156 0.28077582626 0.31698169477 0.3097428228 
0.30744089042 0.33230860455 0.33038799885 0.33783940574 0.33572278636 0.31040837379 0.30741470187 0.30663662027 0.28445226559 
0.29875333243 0.32828694289 0.33216565032 0.32466775363 0.3282222224 0.28019004844 0.27925129471 0.36191734622 0.3311635997 
0.26655027385 0.27953586261 0.28314689685 0.28035022247 0.28440847814 0.4083031614 0.37317873066 0.3700552639 0.30503360559 
0.30551674698 0.30175856646 0.30931454546 0.30820499462 0.30709052378 0.30622237929 0.28384575361 0.30626910396 0.30674721793 
0.26700255788 0.26331723414 0.26211478339 0.31032021432 0.31771426906 0.31160138209 0.31852680559 0.29368905499 0.29259458804 
0.29596195204 0.29497594999 0.29140176356 0.29309833191 0.33800914777 0.34054673154 0.34514926954 0.25994660326 0.29233988466 
0.29224387653 0.29328969898 0.2931860774 0.29107597576 0.2905834481 0.39145413342 0.36824729685 0.28929945908 0.30107253396 
0.30203285828 0.29967935693 0.33311142526 0.34875022634 0.28410841087 0.28313244454 0.28303444567 0.28205037092 0.27681352 
0.27558617526 0.30236797807 0.30297122264 0.27190708033 0.26291603683 0.26991875587 0.3059422241 0.28198800933 0.27223237801 
0.30739209992 0.30712069097 0.30763302351 0.26039037913 0.28072798134 0.30760007319 0.27030071983 0.27095118061 0.27147722324 
0.29079489447 0.29064861632 0.28918428344 0.28892082719 0.31427569262 0.31847137442 0.29709421344 0.30445273627 0.29734680971 
0.29580227739 0.30177236854 0.29524416575 0.29291413796 0.29297463601 0.29063715226 0.29892803929 0.31405334724 0.31256346347 
0.28895298446 0.28670813612 0.28988063028 0.29064263738 0.31035390132 0.30981988431 0.30992734451 0.30856325882 0.36080881676 
0.36955551706 0.35029297718 0.29702856231 0.29871142266 0.29304735357 0.28696777285 0.28736001904 0.28921636608 0.28980878567 
0.30862969364 0.30688878868 0.28435878062 0.28574840736 0.28563694675 0.28700849442 0.32000834524 0.31725891331 0.31858925748 
0.33061074754 0.32653860744 0.30217737157 0.32123522993 0.31999502583 0.31985376165 0.32389939993 0.32061371874 0.41312822011 
0.43269045762 0.31380408907 0.31643969489 0.31733400803 0.28499373229 0.3168958244 0.27084537988 0.2699991017 0.27515922816 
0.31373862327 0.3140537049 0.30070647673 0.29815117951 0.30514960843 0.28101199147 0.28099264127 0.28177831288 0.31742095897 
0.31537744557 0.31335056736 0.30998185411 0.30690848095 0.28519918394 0.28563927305 0.28833785273 0.38363325898 0.39065137018 
0.2636664464 0.2613386008 0.2995378854 0.3701402128 0.35342958094 0.30294282942 0.42297047986 0.33134740238 0.33474566964 
0.31648301422 0.319654307 0.30871211399 0.30821130867 0.302795567 0.31635778739 0.28851003212 0.28914219476 0.28875062274 
0.27828205279 0.27848271357 0.28010100736 0.27995378995 0.3181915712 0.2808955104 0.31140693338 0.30901795563 0.30512021909 
0.36936776294 0.37981134969 0.28766778123 0.33127471979 0.32652427804 0.32629394762 0.30526286928 0.30612598272 0.30608118999 
0.31204065637 0.32586443033 0.33161872361 0.31721457421 0.31034052589 0.31157247455 0.28817693723 0.28975412173 0.30853736172 
0.30802820802 0.30794729544 0.32115536143 0.32250707164 0.34067098638 0.34277646932 0.34615955023 0.28953692844 0.29571514938 
0.29685017408 0.30521875328 0.30486601847 0.29913114589 0.37411579594 0.42876371675 0.30215633692 0.30116639007 0.30120925295 
0.31543676312 0.31558233623 0.31363943626 0.31380890846 0.29417234745 0.29513364022 0.29285818517 0.25265101011 0.28216959439 
0.30079231359 0.28092229848 0.23709119122 0.23842825246 0.33920539749 0.29746291515 0.29953176489 0.30045857271 0.34713953181 
0.35283954495 0.34612227494 0.33444000767 0.26009911675 0.29579258081 0.29808248689 0.29906765866 0.29918822812 0.321365677 
0.32532417636 0.26377386814 0.26630813544 0.26875590028 0.26401499023 0.26817574522 0.33292396053 0.33549086007 0.3373911214 
0.3220048162 0.25601565742 0.25971338282 0.26046920976 0.31860993033 0.30820103084 0.30856656756 0.33438308285 0.27467359547 
0.27394440892 0.30763201864 0.30765361409 0.3074728287 0.30756988916 0.30758090372 0.30850162931 0.30916944354 0.3087133031 
0.30829876737 0.30791729485 0.2455365555 0.41400927219 0.3036673483 0.27981968622 0.30650686578 0.30555958976 0.30406650116 
0.28868869598 0.28994848827 0.28934717293 0.29059437618 0.29374646546 0.30622525836 0.27598142288 0.2847890778 0.29806426585 
0.29905689121 0.30771363869 0.30779857489 0.30585471456 0.30563133435 0.29708141184 0.29286818938 0.29893027551 0.30257027754 
0.30288141309 0.30709293873 0.30145146139 0.30077605699 0.30144575197 0.30075780451 0.2848773264 0.28623816866 0.2867918755 
0.31128020839 0.31020272566 0.31028461402 0.30908450287 0.2870540749 0.31007897907 0.36577239843 0.41301724812 0.33717723136 
0.36565731494 0.2767470581 0.27732940663 0.26970474448 0.26760231771 0.34194757841 0.27716532807 0.27682120595 0.45466875053 
0.53417910341 0.26509637792 0.26407452728 0.30515292707 0.30516014329 0.27740022889 0.32139647869 0.33752891998 0.27849497208 
0.28072160656 0.27829964965 0.31242816871 0.31165080701 0.3103673272 0.23809827463 0.24719160323 0.24451483917 0.29804446929 
0.30941845282 0.30887589436 0.30900998089 0.3147531964 0.31364205613 0.28819926429 0.24737286181 0.2394054531 0.25607969526 
0.32267545026 0.305812043 0.31341645462 0.31329624567 0.34313035634 0.33205742575 0.3274631596 0.3126947083 0.31163470536 
0.30468832129 0.31086265822 0.31172613027 0.31006190016 0.31112581004 0.29017896867 0.27305151778 0.27136068856 0.2703555295 
0.23164822419 0.31085533825 0.31150772111 0.31247126824 0.31280041203 0.30437982772 0.30419854766 0.3033811705 0.30530667326 
0.30598801172 0.30628326162 0.30033115604 0.31426490499 0.30545034468 0.27715059823 0.27658200188 0.27131956522 0.26059360588 
0.26527487449 0.26553181224 0.27017534617 0.33458651451 0.32692689059 0.33014532626 0.25814794817 0.29770543217 0.30182190183 
0.28826904817 0.28905742071 0.29078982689 0.29071086011 0.31659904045 0.31896026796 0.31541004656 0.23502423675 0.28274962602 
0.28421308089 0.28360405367 0.28513013198 0.30481924814 0.2812059602 0.28565165137 0.28465097049 0.2766249942 0.27138734259 
0.30014397706 0.29643124598 0.29435237835 0.3072229911 0.3071109195 0.25702304832 0.2907865337 0.28723218013 0.29448084794 
0.2924977937 0.2925165105 0.29532641748 0.2728157259 0.27110580536 0.27204350091 0.28244998361 0.28003938671 0.27868638669 
0.30457800903 0.28317711655 0.28400801732 0.27519026658 0.27277128209 0.27308031006 0.29250175448 0.32265543565 0.28727288867 
0.28538965179 0.2819181315 0.27791200976 0.27664153656 0.39267763196 0.37603842141 0.39089759049 0.37863918363 0.31696560466 
0.31947342013 0.31743000009 0.3151532873 0.31549297596 0.30552752534 0.30526442132 0.27167366384 0.27054235404 0.26672429108 
0.26519201555 0.30512125775 0.3055709992 0.30578627558 0.22093842867 0.38334648072 0.38875605934 0.28124324099 0.27830366243 
0.28140266674 0.2900373289 0.2786810011 0.2780152014 0.28603684096 0.28385502553 0.27732050335 0.28070135553 0.29390646975 
0.2852504141 0.2731749291 0.26739200083 0.37908715349 0.26211401797 0.25654540133 0.27270950869 0.2709232829 0.31037677714 
0.30910862452 0.30873419717 0.35736757376 0.36495507464 0.36836120793 0.28817106563 0.2934626196 0.29016882242 0.29565532666 
0.30790400724 0.30784935305 0.36040010781 0.35601140197 0.2905316953 0.30440064223 0.30780421567 0.30949267198 0.30211663114 
0.30321675028 0.29751547028 0.31053030055 0.31215222671 0.30541544137 0.36883122337 0.35104453762 0.31024594712 0.31211080343 
0.3098304703 0.30395597952 0.3054657911 0.30526168109 0.28325209252 0.28001437333 0.2850731607 0.32525185487 0.32708954236 
0.3884685811 0.30182157391 0.21615605201 0.27907690232 0.31220043696 0.29849937629 0.2975269802 0.3226719196 0.31510166888 
0.31629282136 0.30968048127 0.30592898984 0.30579447353 0.2774780385 0.27596510526 0.29703473567 0.29561692085 0.29410554289 
0.3073944062 0.30730183879 0.307385109 0.28379973669 0.27810989666 0.27911916761 0.45190387047 0.42696441203 0.28349846189 
0.29056974476 0.31242815636 0.31157508384 0.30813542221 0.40890245494 0.39975300574 0.38683385913 0.28086075669 0.28017035316 
0.28146252651 0.31074015626 0.31131025372 0.30260037514 0.30403958473 0.27750319567 0.27468112292 0.31318766103 0.28114262114 
0.29099202577 0.29475424786 0.29224610169 0.23803642514 0.2463880244 0.24684166413 0.28574871355 0.28754681813 0.28708794738 
0.33656699034 0.33960148413 0.2922543414 0.39010668784 0.27935719796 0.27769429694 0.27874299536 0.35002604271 0.35431688678 
0.30262279515 0.29724330484 0.24797519791 0.27578445926 0.28855731821 0.3385723092 0.33760243193 0.34750860087 0.35269318741 
0.30709435521 0.30741198717 0.30768120156 0.28456587979 0.28712930114 0.28745035972 0.25304999701 0.2987904693 0.29965214704 
0.28931734439 0.29144279942 0.29051699761 0.30833971423 0.30791303441 0.3004170529 0.2994792216 0.28862882001 0.28669839196 
0.35071557812 0.34094575134 0.28424602569 0.25867358665 0.26482292861 0.25852720087 0.26427253257 0.32994205095 0.31615955606 
0.31188584209 0.30817276838 0.30854161771 0.24819462265 0.30333512295 0.30681596667 0.3072637486 0.26990747215 0.30627974075 
0.30842612985 0.27403310242 0.27515971539 0.31493469528 0.26816262059 0.254628247 0.30756018816 0.28477600705 0.28332193443 
0.30788504936 0.30783615196 0.30789338294 0.30837547707 0.32877070437 0.24883705669 0.27550553058 0.30691839785 0.30721657382 
0.27401597413 0.25331045895 0.24142654218 0.22857682702 0.26732996927 0.26960815679 0.27160980818 0.27331595904 0.26587941937 
0.28264727402 0.25671974579 0.26592539902 0.27469871885 0.32566065174 0.32690464785 0.37418302312 0.27791136544 0.32239239122 
0.33059619263 0.32884263007 0.33532805018 0.30911345505 0.30873838208 0.29553297791 0.29168505494 0.3077543737 0.3047532599 
0.30412578915 0.28880554782 0.28664104898 0.29922362538 0.29551799149 0.30935243639 0.31318134306 0.3094633794 0.28752559939 
0.28619660045 0.29400742451 0.2808475649 0.25441028151 0.23399532048 0.32371811922 0.31905424265 0.43055265483 0.36789222987 
0.37925190771 0.27735030249 0.27597103868 0.30765501209 0.30742824741 0.30763601166 0.30758001735 0.30376503467 0.31074007574 
0.31195805913 0.28906014623 0.29858170997 0.3017491259 0.30417119761 0.28290684133 0.28421724086 0.28198885986 0.2859405832 
0.28708066305 0.30882899126 0.28579134279 0.32418763641 0.2740909258 0.29772543855 0.29949638886 0.35367327436 0.28071466626 
0.31153411316 0.26614667065 0.26752493505 0.30075660689 0.30573934601 0.30123200211 0.3283856815 0.30747840433 0.30712106784 
0.30731970353 0.26420594993 0.30778527755 0.3081507321 0.34089721453 0.33846123837 0.28079969534 0.26413203421 0.31345568599 
0.31198631617 0.31305175341 0.3112606443 0.2824811974 0.28069865388 0.28133606049 0.25916930615 0.28694074512 0.28593782031 
0.28259284132 0.34192511184 0.27981292375 0.2812966212 0.30686334443 0.29705390963 0.27581586215 0.27987175172 0.33118838297 
0.32382666378 0.31775685659 0.31097248621 0.31826843244 0.30425314393 0.27525512186 0.30786228997 0.31513997588 0.28990674522 
0.27770820382 0.27970952483 0.28101292962 0.3858633113 0.38417025619 0.30171700512 0.3059994069 0.30699571565 0.27132749167 
0.30665402676 0.30861886045 0.31045554189 0.31383663894 0.31470688437 0.29831695128 0.29653890673 0.29916893455 0.29250369521 
0.27117784656 0.31085019053 0.31284478041 0.31218302368 0.29249763698 0.28882494036 0.29282625433 0.27067987833 0.29590921728 
0.29406555695 0.29492600511 0.32657308037 0.33597591631 0.29156798151 0.28670572542 0.29057749494 0.27854144919 0.28079225083 
0.27937334766 0.30706901969 0.32542435157 0.32868653645 0.32910550436 0.31878498578 0.31823981272 0.30689823423 0.30861500948 
0.30795458726 0.30792753477 0.26797351459 0.30899889559 0.30846333783 0.31526476453 0.30785445154 0.30785935117 0.26936537857 
0.25101046316 0.25112221335 0.25811754611 0.30163352299 0.30091352409 0.28601889113 0.28690678955 0.31766012067 0.31564124915 
0.28133103296 0.28220311918 0.28765893367 0.28178793743 0.27906270193 0.36205933772 0.34392445703 0.34127003044 0.34801339072 
0.29371064295 0.30983342335 0.30556840454 0.30997754929 0.28714902136 0.24735809802 0.33689180293 0.34005243575 0.30227976323 
0.30155483534 0.3293541151 0.31870585567 0.31397019451 0.27036316466 0.2800894907 0.30134292364 0.29575509909 0.29423389814 
0.29977799167 0.29571243184 0.26952103312 0.33189547714 0.31764389419 0.31896375942 0.2819175449 0.28166500566 0.28470709813 
0.28134866587 0.34569135019 0.29867652673 0.30180052648 0.29076564739 0.29618235537 0.29101890358 0.28751998045 0.30780565091 
0.30772322246 0.28497306074 0.31008892352 0.30895843277 0.30982985554 0.27550525124 0.31095069637 0.3105300311 0.31162001971 
0.42000553063 0.25938400078 0.29343684657 0.2906023523 0.28779929355 0.29124708993 0.27014178579 0.2665798861 0.27303300321 
0.33360064082 0.301309733 0.27274918007 0.30759365729 0.29309947105 0.29401818166 0.29298403 0.30963189377 0.30900596174 
0.27776500019 0.31930273093 0.29551385622 0.29674699877 0.29671618439 0.32251437659 0.30318681583 0.29644137856 0.305865828 
0.29587931502 0.27595658816 0.30417571954 0.31071711823 0.31182921488 0.28179151697 0.3014431441 0.28833372631 0.29332008751 
0.29575335451 0.29821392691 0.29126160928 0.31186060376 0.29697103791 0.29307166105 0.27661562803 0.31801114079 0.31391623407 
0.35053524753 0.30901143189 0.32442189527 0.27318595358 0.26914587797 0.26921881202 0.27282228125 0.30918181818 0.26940242985 
0.27324082445 0.29852151669 0.30772701763 0.28173246911 0.28600378037 0.29408140865 0.32690302706 0.33004427196 0.31306706485 
0.31007364925 0.29077269483 0.29236004607 0.29332586748 0.34010776298 0.31199065062 0.29912902996 0.30715988692 0.30911504223 
0.31001193471 0.30918098138 0.30777601382 0.41052147168 0.35513510733 0.3126636444 0.31407285017 0.29864997775 0.29741288318 
0.30758370853 0.30753840725 0.29416134219 0.2880174335 0.28680500006 0.29076480656 0.28988393191 0.29072838702 0.29223661631 
0.32210580103 0.31835157989 0.23230993187 0.29984541928 0.29841412231 0.27168051926 0.30126961832 0.28673031348 0.28425952633 
0.29406386311 0.31485975047 0.31069393367 0.29593510509 0.29058990619 0.2883870813 0.28988504812 0.29021023392 0.28957577405 
0.29155332412 0.27931334309 0.27972015529 0.28252271176 0.30324806362 0.29618156501 0.32185843137 0.31739751329 0.30404859354 
0.30695877166 0.35742417375 0.2922704923 0.29228853028 0.2632755397 0.28729534077 0.30805076595 0.30842197436 0.30817200632 
0.25231288023 0.25839152715 0.2742690081 0.29930069455 0.25166961841 0.28029981698 0.29388603734 0.28571001763 0.30360433226 
0.28215692263 0.2930543936 0.26249882255 0.2525736394 0.27103929659 0.28827456808 0.25873220915 0.30917830015 0.29393342904 
0.29649468101 0.29280485574 0.28645751136 0.28942819937 0.26998459991 0.27113240033 0.27086362074 0.29471805769 0.29155129402 
0.33435525186 0.32275393968 0.34920864233 0.27392070869 0.27521213948 0.33601363874 0.33793651091 0.27121515337 0.27331386389 
0.21777053541 0.29446023598 0.29350420419 0.29229089914 0.29595664854 0.28392279081 0.28350222663 0.2850325281 0.29760577775 
0.3074943197 0.30756072305 0.27982101247 0.28213084686 0.30662404248 0.30646933058 0.30621425897 0.30602202414 0.26586906432 
0.30626201725 0.31570330856 0.31407644349 0.31910989247 0.31738553693 0.30292902628 0.30015730026 0.28893727182 0.3482857761 
0.2927109757 0.29115149014 0.27784734288 0.28264225317 0.28159598894 0.28859771394 0.28886619093 0.28837945911 0.29036391173 
0.25310257261 0.26535268312 0.27023820994 0.26787236963 0.27238603208 0.28414910655 0.28103718113 0.27962087557 0.28425491 
0.27319208637 0.2787020657 0.27845450576 0.27854388991 0.27347264217 0.28316208598 0.28149752381 0.2819187668 0.30255678082 
0.28818210756 0.37582746058 0.39608107224 0.30792961783 0.30747583284 0.3076841358 0.3098444842 0.31069460567 0.31182674444 
0.31167422467 0.29853098453 0.30009583075 0.36940055328 0.30273895632 0.30997983294 0.30980461195 0.30127428257 0.30759963453 
0.26226059949 0.28662315167 0.29317124184 0.29718247055 0.29611633298 0.30113469525 0.29996874299 0.27594635691 0.26615449944 
0.28809073836 0.28680812094 0.28748882226 0.28591935202 0.2993682144 0.32056007857 0.32202949407 0.30920349763 0.30675497071 
0.30711206751 0.30748597838 0.30220792012 0.35733687654 0.28877014707 0.28860240442 0.31602018762 0.30494313904 0.29403223609 
0.2851577087 0.29598545875 0.29436190122 0.27932197817 0.287862131 0.26420717645 0.26354796103 0.27353551293 0.27346520426 
0.27748563619 0.30740245742 0.30486258191 0.30979332245 0.30941891149 0.30531975667 0.31103528514 0.29176696684 0.28915585999 
0.29408360441 0.292196487 0.29812438976 0.29894843329 0.29788697153 0.29210029164 0.4068886347 0.26797969925 0.26229429052 
0.26940145564 0.26589187096 0.28123229558 0.31401033769 0.31594550845 0.32566279121 0.29788588422 0.29886952274 0.30159787737 
0.3031174124 0.29761528043 0.29485309513 0.2269023382 0.31258558019 0.2700777599 0.30075313188 0.28516604994 0.28629392124 
0.27780040212 0.30382632687 0.30277361993 0.31710452668 0.31356314078 0.29807530805 0.27393121664 0.27511982189 0.27141864431 
0.26960490025 0.28079233522 0.28184030132 0.28635455964 0.29677468058 0.27104016216 0.30591317184 0.2868801112 0.30531216131 
0.30369091857 0.30311788796 0.30794405568 0.33422440201 0.3276575217 0.30905640981 0.30901164634 0.30991253347 0.30977036992 
0.28096624408 0.28923122351 0.27710903823 0.27696653086 0.2793957702 0.28241377888 0.27895743877 0.27068519639 0.31113998782 
0.31078364455 0.30823699578 0.27653297213 0.29693632999 0.29094990868 0.28904590009 0.28971786445 0.30435871914 0.3107068349 
0.30820796745 0.288438644 0.31604784912 0.32032221816 0.3198983155 0.32424171909 0.34166301074 0.35006849878 0.34658667933 
0.36905125796 0.30296825232 0.30768927713 0.29632920587 0.30347386982 0.3010302148 0.2952053463 0.28239841474 0.28092233925 
0.28393685269 0.31008180111 0.29660618566 0.29792578037 0.27179272027 0.27932547808 0.28187995989 0.29426155399 0.29312084264 
0.29420917877 0.3080840005 0.30798643278 0.28515996151 0.29319645835 0.27856595087 0.30653494615 0.28946751414 0.28945214487 
0.31119974325 0.30911559681 0.30728829361 0.29471955107 0.27876822403 0.30582481533 0.28820335727 0.30538985938 0.30407422963 
0.28818886475 0.30965941607 0.27645483401 0.27823269275 0.28138304964 0.29198177266 0.29332387995 0.28057141784 0.28951032338 
0.29125727657 0.29101829242 0.28589669214 0.28216795719 0.28305382435 0.30752601789 0.28905129062 0.28448992983 0.28786706637 
0.28710734299 0.27222734994 0.26817019425 0.29515556846 0.23849410861 0.27312943191 0.26516580974 0.26910647531 0.27678432582 
0.28113541362 0.31238437937 0.31602702366 0.31319154069 0.27569920235 0.2954036509 0.26948213234 0.26376185126 0.31558460807 
0.31416392579 0.31490332125 0.31298735217 0.30525518344 0.30385371772 0.30248346951 0.30372496787 0.28521525183 0.27079492347 
0.32288219497 0.30064927396 0.3006230077 0.3160743213 0.29012609838 0.30044046137 0.30779212931 0.30968556516 0.30974329235 
0.31241964555 0.31450304267 0.31226676262 0.31339723451 0.30503204595 0.32418100868 0.31989492757 0.24471367465 0.24532932344 
0.2885365371 0.30950607618 0.30042420303 0.3013379513 0.29976974681 0.30445820199 0.30744258271 0.30749146392 0.35331473734 
0.28839993884 0.28830547738 0.28935148445 0.28020929756 0.27830126942 0.28683278366 0.28509508483 0.25056416246 0.28303768596 
0.28432272793 0.28477176794 0.27505009582 0.31373493969 0.29303112864 0.30857234941 0.31092230624 0.3335577712 0.33302839043 
0.32237377349 0.30446319262 0.30406793282 0.28733491019 0.31442355814 0.27671579162 0.28002199005 0.309461145 0.31032640189 
0.30968989991 0.30903285485 0.30991668306 0.31627881366 0.2839882053 0.28658811911 0.29240446766 0.30590460715 0.33193484532 
0.32519815421 0.27840135006 0.21596930543 0.2294700243 0.17954688173 0.21330339027 0.2167536593 0.35737677087 0.30450162345 
0.30123020334 0.30026611449 0.30825615896 0.26591046949 0.29440223365 0.31443312038 0.2795948532 0.2797071861 0.28281108804 
0.29887612177 0.29773292501 0.21259407014 0.30342993061 0.33561014357 0.33672432263 0.307586058 0.29727639996 0.32052387702 
0.30858024973 0.30034998919 0.30483998059 0.30379459045 0.30295787759 0.29828046377 0.29916040111 0.30839073329 0.307270801 
0.3058125781 0.31160446772 0.30723454226 0.31316654655 0.30390484848 0.33392669484 0.33209399717 0.3016071833 0.28547535855 
0.3108416483 0.31076654317 0.29454478628 0.29329807453 0.30763114891 0.3076900487 0.31243305229 0.28910014406 0.28884571711 
0.3172900266 0.2624851463 0.27787940935 0.29950434136 0.29430346076 0.2871285114 0.28641221982 0.29611941081 0.3137928546 
0.3780057346 0.31378108609 0.28132287088 0.29472088906 0.30627617966 0.28856918087 0.28763629189 0.31042487119 0.28991098707 
0.29327046886 0.29316507582 0.31888643032 0.31958745393 0.31243197217 0.30669576793 0.30582574743 0.28657025066 0.27673131744 
0.30824579058 0.29170032398 0.29063748786 0.30793404761 0.2744598871 0.27155714908 0.26424126259 0.27418887104 0.27654387811 
0.28041075373 0.32477791698 0.30938477236 0.28523868588 0.32282621427 0.32459035496 0.32768947581 0.44201926756 0.30752899208 
0.28901321521 0.29138572658 0.27639861694 0.27649816153 0.30621913223 0.31006514992 0.30983161687 0.30950529051 0.30930555752 
0.30383874674 0.30287615457 0.28710830496 0.28780761148 0.30603330832 0.30698411111 0.30697874554 0.30964432464 0.30810724253 
0.32665188239 0.32867284173 0.33367780696 0.32582106207 0.27827107556 0.30993428519 0.30776928991 0.30784100153 0.27362446287 
0.35865224127 0.28476630908 0.32031799386 0.27493273974 0.25358488004 0.31848174963 0.25994131615 0.25771212441 0.28841530803 
0.28848650919 0.28785967228 0.28807182109 0.27927468505 0.25560185652 0.26150746693 0.32676243591 0.32458605643 0.32306627168 
0.24483201794 0.28726359814 0.29296605755 0.31101459497 0.30882067972 0.28604821678 0.25946193252 0.29584883656 0.29679009475 
0.2963557727 0.29533476504 0.29709984337 0.24806556535 0.23561452951 0.3160013634 0.29064558214 0.29145464369 0.29081089213 
0.2798180709 0.30699392248 0.30674533419 0.26234844477 0.30424946017 0.32093811118 0.30306945564 0.27718620205 0.28360518274 
0.32078824702 0.27449268571 0.31920622702 0.31841901303 0.1997396257 0.50845461025 0.42203974095 0.28851176977 0.29028311647 
0.2884878176 0.2903030809 0.24813257936 0.25721610142 0.24843594826 0.40398216688 0.37122387546 0.2846481882 0.2922841317 
0.30368878268 0.29065898718 0.30783932581 0.32099964934 0.3194229275 0.28883683165 0.28698626958 0.28731741349 0.2800963939 
0.28297203972 0.28427274689 0.31777153033 0.32110390816 0.32148408513 0.30755466144 0.29654319957 0.31745126071 0.31677183405 
0.29262371144 0.26568106924 0.26511388959 0.34393772123 0.33899216636 0.30659160423 0.27922737363 0.27707283268 0.28361229391 
0.29132189312 0.29082814453 0.28893939883 0.28744118577 0.29711801403 0.28825292593 0.30164721006 0.30607290319 0.30282362849 
0.25676587718 0.29016718617 0.27874633279 0.28141202411 0.28016275661 0.33129829034 0.31931908189 0.28479164207 0.29969966897 
0.28766196958 0.29288725426 0.18938178372 0.28268431506 0.29351389929 0.26732041533 0.24506219637 0.23548721822 0.29173244599 
0.27849724157 0.31678640749 0.2921413527 0.2933772188 0.31316483819 0.31228901104 0.30957640385 0.31109718671 0.33222170403 
0.30967549615 0.30713726509 0.30887389666 0.29346479536 0.2938174993 0.26891088886 0.26989416897 0.26771110936 0.34347816321 
0.30780849114 0.30744633657 0.30723915612 0.30729981143 0.28573474104 0.31310427877 0.28454383256 0.30872557784 0.31317409827 
0.31107177447 0.27379914667 0.30906878006 0.27040027161 0.26432759785 0.31246296835 0.32258820337 0.32800855979 0.30798637056 
0.42504530928 0.2895833417 0.3494924578 0.31149680772 0.29511646799 0.28280754087 0.28513642522 0.30765330945 0.28817865711 
0.28953892184 0.29071618385 0.30792085101 0.27259917597 0.2946753113 0.2930340279 0.28875854842 0.32235302612 0.32404101155 
0.28682278393 0.28280137709 0.29881650613 0.28283604661 0.30394305906 0.2984217459 0.2464076968 0.36685890481 0.28803942672 
0.30171727427 0.29404719675 0.29635343769 0.30707494922 0.3065618645 0.32561015692 0.32329671 0.33232932144 0.29833902082 
0.31032117292 0.31031039957 0.28890221753 0.29068939665 0.28954276837 0.30546821713 0.28941692866 0.28972680915 0.3176488672 
0.3305258776 0.28235705228 0.28176617838 0.31478903174 0.31535810504 0.31396565238 0.2840787039 0.30680149534 0.33496793418 
0.26899804975 0.2600514851 0.33418868647 0.31500381467 0.32296927998 0.31578065073 0.30064361889 0.30758610405 0.30756365699 
0.32755121128 0.29577368931 0.29952338976 0.29938501389 0.30783332127 0.3098345606 0.34515716112 0.34206428483 0.27597064008 
0.36581300615 0.28070938755 0.31241132969 0.30860221896 0.29093780054 0.28851202421 0.30783645001 0.28835560417 0.25926547585 
0.29408948848 0.27873111009 0.31146590464 0.31023873269 0.32553392246 0.32523582353 0.27707303351 0.30036602064 0.29953152865 
0.29677145335 0.250784292 0.30310308383 0.30332880309 0.40879038529 0.29722194934 0.31348725583 0.31219341303 0.29810046252 
0.30647740381 0.30698470316 0.33392838275 0.29016747604 0.29492895313 0.29386896732 0.30800469239 0.30503579865 0.28998379279 
0.29183284104 0.28935183259 0.27545700023 0.2923443466 0.28076278855 0.31834630548 0.27378113283 0.28306031037 0.25107627128 
0.29342296002 0.27622498244 0.29454639129 0.3196583582 0.29704231822 0.30527231478 0.29483295423 0.27952126752 0.28057726633 
0.27954076206 0.29762510926 0.28353411655 0.25897975106 0.27929958951 0.27927002417 0.31022478119 0.31368655337 0.31110648241 
0.28178406602 0.27464686074 0.31730395152 0.30788220111 0.27852180534 0.32953945332 0.32940777269 0.32785632952 0.29351440013 
0.31236189872 0.30776593242 0.27965781796 0.28411102937 0.308359759 0.29659896051 0.30878330311 0.30951467834 0.30005398102 
0.31698958923 0.29727417633 0.30789625486 0.30777605966 0.30775285585 0.30783303413 0.27942196302 0.27337551157 0.27481483408 
0.27307540585 0.30799551983 0.27866267385 0.28513856007 0.30158148872 0.29673292242 0.31075037079 0.3062176561 0.30790960885 
0.40424997654 0.29563005012 0.3596801289 0.31601850052 0.26560658352 0.26880318911 0.2693166353 0.30047622024 0.30195069676 
0.32315468836 0.27604678582 0.27706440513 0.27815901395 0.31083532951 0.31163377252 0.29349444645 0.31242338255 0.29306210399 
0.29059180153 0.30979651254 0.28751965623 0.28518828682 0.28804662645 0.30538009642 0.2913606412 0.30683211933 0.30713847968 
0.31340532236 0.30905725463 0.30930017282 0.29708887936 0.31262309296 0.30742940966 0.31197916598 0.30911796686 0.29271519851 
0.29373871638 0.28790324356 0.30295732564 0.30218917222 0.2928870345 0.28806472263 0.29340066485 0.28526313751 0.29438468103 
0.28835071794 0.44721579168 0.2729830884 0.27349644867 0.29048424332 0.20847561187 0.3060120264 0.29154573527 0.29308771182 
0.37055690414 0.32339587244 0.35214365567 0.34795913736 0.29468004192 0.30800047016 0.30795909349 0.27324956022 0.30791444041 
0.30757893922 0.30751568555 0.32199442324 0.31117085165 0.28809963311 0.27609468971 0.30793618634 0.30799443879 0.30872198262 
0.30757766822 0.30977506854 0.30789546322 0.3116865558 0.31081262107 0.30711599009 0.30715990768 0.31033939362 0.28020158021 
0.3004655768 0.30587762875 0.28476211147 0.28277480614 0.32662413492 0.33618771194 0.28774500482 0.30381985688 0.28745825385 
0.31299620022 0.31237503433 0.32893330161 0.2940160738 0.27256768232 0.27385659949 0.27569572954 0.2766523693 0.28144065837 
0.28210824222 0.2817827057 0.30864843286 0.2960366394 0.3060574262 0.29240188194 0.28160007871 0.27515197017 0.27310324855 
0.3116938188 0.30027429989 0.30700554567 0.30703998681 0.30584050684 0.31194662177 0.30819469458 0.27677856456 0.28586241053 
0.28999480148 0.29190123902 0.27055152074 0.27979202199 0.26183042838 0.27428380955 0.30470335321 0.31352872181 0.32470180775 
0.30175038041 0.2833517842 0.28505979408 0.29251026616 0.29128948677 0.34957099708 0.29502422183 0.30510386457 0.30136416984 
0.30823463096 0.30155682252 0.3324336211 0.19976202088 0.28698816757 0.31884312228 0.30601800209 0.28277032707 0.31852356031 
0.43748994741 0.41371161016 0.31635758442 0.28615399379 0.29934011248 0.29846384249 0.30872115426 0.30798997929 0.27577883533 
0.29031295545 0.30362700072 0.30602184633 0.32081895852 0.28274637158 0.31999711282 0.3124051173 0.30763999515 0.31069459544 
0.32286922687 0.28786403838 0.30760866714 0.30416972255 0.28249911213 0.29081753175 0.31650510768 0.29028104414 0.33778687238 
0.33369791914 0.30926609336 0.30976379552 0.34010395684 0.30852040963 0.34131525342 0.3331679258 0.30904348911 0.3143304806 
0.32002683655 0.32965455694 0.33239916591 0.30940219389 0.31196892402 0.33419521596 0.29188730398 0.27002768121 0.30804448653 
0.28352910718 0.26623384884 0.27371683974 0.28381298776 0.38035401923 0.28943247007 0.28636302172 0.28061247806 0.29364038379 
0.28943990509 0.29217529952 0.27639330823 0.31737803965 0.30961138799 0.31658339105 0.2835092561 0.3175778085 0.31385180293 
0.31832375971 0.26512453238 0.28025895257 0.30253317074 0.31123210963 0.31732792378 0.31336067656 0.28283088931 0.27969899553 
0.28685774585 0.28723016119 0.28464619363 0.29135422691 0.28912154547 0.28859513658 0.31642095957 0.29298095631 0.29628072121 
0.29348181065 0.34363325477 0.32752738838 0.33252761792 0.31554250691 0.28715840575 0.30775793774 0.30784555159 0.27086230887 
0.29573353058 0.3103344322 0.30549005496 0.3079011821 0.29908281186 0.28065569717 0.3129488867 0.28791888705 0.32754418306 
0.32299574301 0.2964124313 0.33366679187 0.29154522831 0.33337583093 0.33682645944 0.25279514553 0.27275790891 0.27400206379 
0.2454766739 0.31562455694 0.30659453648 0.30727454266 0.2992015685 0.31592949558 0.30769040028 0.29990367958 0.3082764848 
0.29759171685 0.30939939541 0.30665192929 0.321661859 0.27697818749 0.26893078924 0.32493782068 0.30531179383 0.28289701771 
0.288668242 0.30619909495 0.31863814297 0.30137733099 0.29335653675 0.28855460056 0.28825836136 0.3179041603 0.30000303727 
0.30746557024 0.30867492344 0.29067777255 0.30587457764 0.26015992306 0.29348863372 0.30391165959 0.30334123316 0.30780351527 
0.30856984368 0.29234920744 0.30594375163 0.30886468843 0.30834008531 0.23086182942 0.25215052776 0.30760238376 0.30133876692 
0.28409900293 0.30375920716 0.30485936691 0.3057304391 0.29949144826 0.29439465982 0.27817900019 0.34881388784 0.30681891989 
0.29366163594 0.28655563448 0.28866871473 0.28580248824 0.2981662448 0.30439593396 0.30719432772 0.30478642532 0.30489315357 
0.30367368885 0.17643366274 0.29129266528 0.29121394268 0.57106134819 0.29095477775 0.29221434457 0.20338759585 0.1995006726 
0.19362132006 0.33971991489 0.28489539912 0.33594435821 0.2892376191 0.19582772974 0.30950680122 0.22559679563 0.18352862012 
0.28911134584 0.27769407119 0.30160764567 0.34909576374 0.30832288437 0.29559719998 0.21209960131 0.20827470121 0.21882252315 
0.177093294 0.29741656521 0.19817168472 0.2013261393 0.30179239336 0.31247137888 0.17684920272 0.29494729776 0.29162346737 
0.30914498836 0.20969543878 0.29821996894 0.29803365503 0.30063029813 0.21035633725 0.2228820242 1.0752816482 0.26989060815 
0.27931885237 0.28230109109 0.31751499812 0.28763755136 0.2873782052 0.27775756573 0.27547513608 0.23335784106 0.30076276508 
0.29677032927 0.30721112166 0.33278546586 0.30856817298 0.30749329936 0.32224284886 0.27077892563 0.21222765821 0.331836897 
0.28664876993 0.28994597051 0.26174820722 0.24110913771 0.30185553567 0.25361264979 0.35491390655 0.28448492397 0.26829778323 
0.25407639227 0.24647104197 0.28843227743 0.19742548588 0.20329714587 0.33009588297 0.34145785977 0.18685468538 0.20717490339 
0.27511855941 0.27763176486 0.33299487717 0.30841300189 0.22296005759 0.30106231948 0.30742616572 0.19584481726 0.2187294324 
0.22258156896 0.18636790865 0.18819065326 0.2927358235 0.30540450522 0.19997772136 0.22055789268 0.19480496686 0.29475559991 
0.30384098257 0.20395101507 0.19890276614 0.18634597214 0.17950145274 0.23191859424 0.31054452711 0.26238632078 0.29037481474 
0.30427896362 0.29573700705 0.300437175 0.20665940168 0.31510937009 0.21334749294 0.30336878435 0.30860692719 0.18088765846 
0.19075242125 0.18725737886 0.31902110854 0.35634435998 0.23687995239 0.24556295373 0.28535067686 0.31428758524 1.2939373492 
0.30761302962 0.30771701646 0.30763600745 0.20426844171 0.23364721946 0.22217780246 0.23354140069 0.18015850407 0.19605115222 
0.18155464106 0.29036658883 0.26558043823 0.28282185296 0.21974567514 0.22973173605 0.21209306823 0.22737905977 0.22020269797 
0.21390863102 0.20621899442 0.19748125119 0.22434244649 0.23702698615 0.23842869578 0.24769652522 0.20235368077 0.19987238619 
0.19118418381 0.19204148389 0.20481467824 0.20331380341 0.17959053935 0.18840775691 0.2070391635 0.23104696676 0.20766854295 
0.20503175314 0.23324603188 0.23549113604 0.21197185326 0.25434502762 0.24418835266 0.18472822664 0.22443460078 0.25523189496 
0.210319806 0.24928990839 0.22240041013 0.18527635516 0.19022909033 0.26356021051 0.24019898547 0.21351121056 0.20450768859 
0.20618688321 0.20636528199 0.17912998112 0.20265423499 0.20483557104 0.18765746509 0.18677260672 0.19817727137 0.19547265533 
0.23762524328 0.2886848077 0.26240268617 0.23541559208 0.20549943175 0.1974196825 0.29615414006 0.19925975693 0.19306589469 
0.17939935969 0.19094301863 0.17869965903 0.19754538237 0.1848768414 0.18488189225 0.1912865142 0.21717264827 0.21119562589 
0.23620177864 0.20311962075 0.21147895767 0.20115555042 0.22219927517 0.22592094881 0.22230739904 0.25371172591 0.23327469249 
0.25415104883 0.22740410944 0.17697532535 0.212578817 0.20841761657 0.23469152487 0.21010929712 0.22564857163 0.20604646643 
0.20914516543 0.22497856523 0.22162502476 0.20876325073 0.22819429891 0.24738818289 0.25659681188 0.21746565722 0.2162422106 
0.19006655489 0.18853222239 0.23201883511 0.18995378282 0.21984429703 0.20338756233 0.23876096408 0.21260899309 0.59855974333 
1.2692709543 1.3178090157 
Intermediate%20Principal%20Stress 1 13529 double
0.44252984038 0.39255792532 0.55033396 0.40246943571 3.0858857488e-05 1.7835464316e-05 2.3163239661e-05 4.605403788e-05 0.048780400909 
0.064935740959 -0.0070518586571 0.080022274829 0.063413170741 0.027278452813 0.064217032741 0.042418754837 0.054927193117 0.010260649021 
0.078370099644 0.020034684984 0.058420209114 0.076140091837 0.018606066891 0.095203427267 0.061731315322 0.01598796135 0.057768883788 
0.060666348985 -0.018386058885 0.067604694143 0.093315225957 0.069761920426 -0.01512511907 -0.024628743638 0.091109029628 0.067328730144 
0.088983379001 0.13920704816 -0.019966744665 -0.0085434954816 0.04617312367 0.043029439423 0.050534092212 0.050129725248 0.066924735768 
0.03615669126 0.080723224978 0.081620061562 0.07543307975 0.078936567603 0.080644673209 0.089700729087 0.014286915324 0.034367499618 
0.00057146745776 0.0080532809237 0.0048546961933 0.032985576931 0.039581479069 0.045504519073 0.056414900107 0.023583423668 0.061756017047 
0.068359182389 0.087360885945 0.085543668045 0.08433311488 0.057030968627 0.014609707158 0.011818095801 0.016116278108 0.030391436261 
0.021736827027 0.027774115231 0.022522477049 0.024207602839 0.037414067991 0.071701008412 0.071406690035 0.07811221202 0.09256444112 
0.08208990842 0.065786753745 0.054477381139 0.039428934554 0.039087823167 0.049953146475 0.059999647014 0.0018862702248 0.0010544611448 
0.0084923739673 0.0086455444619 0.023961168131 0.058027637408 0.10274204292 0.085750670405 0.076628518288 0.081292098772 0.058237575217 
0.046398425885 0.053795416246 0.058530779712 0.057587116021 0.062617131284 0.031273944052 -0.0064233964531 0.034737028383 0.035856760407 
0.031707786229 0.082102014581 0.098547480952 0.0794295349 0.090890950799 0.090031055433 0.085501974743 0.037629262379 0.030449722692 
0.043388523212 0.056043703934 0.060998067138 0.0659857434 0.041820397072 0.0056142214933 0.00080408262251 0.0063362304174 0.066214392267 
0.075154198235 0.087228925284 0.08173376181 0.081577122886 0.076547305014 0.058296960441 0.068829689602 0.042881142899 0.040880907616 
0.052573914395 0.059425760745 0.045364912682 0.037950558155 0.04695605567 0.049918505446 0.085835097253 0.06696364403 0.087725002833 
0.084142753573 0.076003784907 0.083986174391 0.063811258844 0.03664281552 0.00283850044 -0.0023545130084 0.0028921846066 -0.0017056237516 
0.036929822915 0.048881507588 0.052510299621 0.065193802338 0.068886586715 0.07743337172 0.070332590847 0.084303957584 0.097178420518 
0.082919803798 0.083203466146 0.03489186977 0.030237664897 0.036088201601 0.032115442415 0.040807536872 0.041652323562 0.14802557553 
0.1635067321 0.16667532123 0.16016989014 0.15909439822 0.15368903613 0.16583042128 0.16827409006 0.17105375391 0.16808683254 
0.17729343539 0.17787685566 0.18099287501 0.17215602225 0.16903179405 0.16518086752 0.17063079165 0.16894156348 0.15512809998 
0.14666225886 0.16065092845 0.16486599097 0.15599347973 0.15777841119 0.21083775284 0.20975588659 0.16243311689 0.16230766105 
0.16184495366 0.16413498626 0.19481849893 0.16854395288 0.1723087965 0.17556619249 0.17759902909 0.20038442902 0.18235113718 
0.18436411358 0.18483724705 0.18482878396 0.19128136529 0.19938847062 0.18891720268 0.1745712301 0.17196791253 0.17032732639 
0.19274270962 0.18569743832 0.16108214469 0.16114467074 0.16391194219 0.19819474325 0.18831449057 0.00023976679537 0.00025478641325 
5.4823381125e-06 2.8982377754e-06 1.404127702e-05 3.0384160106e-06 -1.3567879018e-05 -3.211012091e-06 1.187127071e-05 -4.2676638016e-06 -1.0036016415e-05 
-3.0146510385e-06 2.1875582494e-06 -1.1042009608e-05 1.8007723786e-05 3.2180409118e-07 -3.7780280329e-06 -8.7734829313e-06 -4.9983954523e-06 1.3724866277e-05 
3.2224668148e-06 -4.9446641363e-06 -8.3909202953e-06 4.2760676455e-06 3.4253820869e-06 6.7183862682e-07 -3.6778815906e-07 0.00013368693772 0.00034728870635 
-0.12538054068 -0.00064254164856 0.00043938835163 2.3692331021e-05 -1.2391244979e-05 0.0001432581086 3.6466780843e-05 1.1070196607e-05 1.5399242109e-05 
-1.4873359003e-05 4.1170897996e-05 2.5192611885e-05 7.1478271781e-06 8.30795298e-07 -1.2319567664e-05 2.2245591584e-05 2.6036638002e-05 2.0483691812e-05 
5.8724340332e-05 0.00015975659436 0.00020006832836 7.0422482887e-05 0.00022331464026 0.0001418966425 4.6619792049e-05 2.8102624734e-05 4.6836175097e-07 
-2.7898572828e-05 6.5483489606e-06 1.7124666913e-05 2.0659657505e-05 -8.9764810481e-06 1.3115075468e-05 7.2017746573e-06 1.6571525059e-06 6.1730226019e-06 
-1.5293429645e-06 1.4091487885e-05 1.3481471052e-05 2.8867414883e-05 4.2794519918e-05 5.5676031474e-05 2.1148204969e-05 4.3509087115e-05 9.6735567391e-06 
1.6186584313e-05 3.3897243847e-05 4.6267655471e-05 3.4527574891e-05 2.0134567465e-05 1.3600696802e-05 4.5531064355e-07 -9.2380190787e-07 1.0683660243e-06 
9.8897115256e-06 -4.4921850954e-06 1.0859929318e-05 8.5976482058e-06 7.0904204552e-06 1.1628480401e-05 -3.7984791319e-05 2.6156307226e-06 3.0049610219e-05 
6.843146135e-06 3.0444351407e-05 8.2877197513e-05 0.00011080362066 2.7573114664e-05 0.00017263187037 0.00010392582719 6.4139757913e-05 6.9855276073e-05 
4.6321230085e-05 -4.9439701619e-06 2.1201479092e-05 -4.7619864838e-06 1.3179325856e-05 1.9823496168e-06 1.6757894996e-05 1.1521229313e-05 -8.5503445276e-06 
2.2009893233e-05 1.6006002544e-05 7.6563287092e-05 -2.0621718421e-05 4.8401092013e-05 7.839603272e-06 0.00027882002394 0.0016238508636 -0.13839373 
0.027957699084 0.042351614453 0.057916273446 0.071869607712 0.069238172813 0.064706248088 0.055664163326 0.054565126227 0.077167032209 
0.010706148953 0.021358556295 0.073200712668 0.05921657904 0.059924800742 0.063051544612 0.067709701206 0.07247485906 0.064966181777 
0.044173176506 0.028205081529 0.024240386879 0.027120733582 0.061468619416 0.068578767364 0.064109671814 0.054852218756 0.049893736559 
0.044530983863 0.055472947629 0.023118596054 0.0018936783015 0.063224461743 0.053909014701 0.049157235263 0.052791702221 0.067724817632 
0.061455501524 0.050465962311 0.018677142792 0.005083319106 0.00036110383701 2.5809585776e-05 -3.1876288007e-06 -3.820752675e-06 1.5981333287e-06 
3.6203142748e-06 3.2388396066e-07 -1.5464507037e-06 8.1568093015e-06 2.7692670755e-06 -3.8033779411e-06 -6.2112865718e-06 2.6666337206e-06 8.6006745889e-06 
-5.38117939e-06 -1.5737885495e-06 2.0666942304e-06 -4.2090496793e-06 5.1040752633e-06 -1.3900995351e-06 7.1150639024e-07 0.00013340959857 0.00021236954224 
-0.014137309263 -0.0001781705574 0.00025003193745 -6.1274550956e-05 1.4680427351e-05 8.5280615722e-06 3.6769352638e-05 -2.6084301566e-05 1.7144105355e-06 
2.0980391432e-05 2.3328784246e-05 -1.6534748193e-05 1.2007475983e-05 -1.9168648225e-05 3.5194389019e-05 0.00011826098356 0.00022505309628 0.00024689230391 
0.00020050081886 0.00010275875852 1.916296991e-05 6.4736095303e-06 1.1348975519e-05 1.4641590693e-05 -1.1118474078e-05 -1.4416970224e-05 9.0401146029e-06 
6.9825650044e-06 -3.7985646288e-06 -2.1669449961e-06 6.1846061077e-06 2.0627679079e-05 3.7007255883e-05 5.4946030162e-05 6.8296934902e-05 8.5732448754e-05 
1.102028582e-05 3.8801979473e-05 4.1504508611e-05 5.0792790179e-05 4.9673443549e-05 1.795505859e-05 8.2833289357e-06 3.688303856e-06 6.4905934026e-06 
1.3456713778e-07 -1.8978082267e-06 -1.0918230989e-05 1.4548457872e-05 2.4358768867e-05 -5.239321802e-06 -1.3055833017e-05 5.2996791158e-06 5.3674519472e-05 
0.00013147846438 0.00014134492448 0.00018995279978 0.00014960811958 7.141499719e-05 2.1059457043e-05 6.4969522444e-06 9.1955296576e-06 -2.1094805166e-05 
1.8216976471e-05 1.2395012832e-05 1.0245710285e-05 -2.5848162178e-05 4.4175700024e-05 3.4284377686e-06 -0.00010015265308 0.00019844708238 0.00069048929465 
-0.01080615167 0.023913691705 0.033840400646 0.075699027762 0.059939170243 0.062722132412 0.057061056275 0.069129729849 0.065121983352 
0.070604901963 0.04086484922 0.0030605043983 0.076625942623 0.051428210834 0.052635048559 0.05673862106 0.060282255813 0.062068115899 
0.060652485708 0.069023135463 0.044711121816 0.037466571944 0.042366251441 0.06616702337 0.066999961977 0.064320908287 0.069914331575 
0.056592359323 0.07001868339 0.026431533452 0.039033832326 0.061912886327 0.046136404697 0.069445486486 0.068064868414 0.057440291545 
0.069348242595 0.051835366428 0.036413361349 0.015397956844 0.023126619858 0.030391102822 0.024411997588 0.011999150162 0.0050348844265 
0.0087989058492 0.0062694043006 0.01430048055 0.01533918618 0.02250119098 0.025576277983 0.023961177107 0.014451743903 0.0075231709378 
0.015778204475 0.01804497782 0.0065972332092 0.013302824876 0.0085350221022 0.022737365587 0.013915498428 0.030950048057 0.020994445611 
0.0059740564882 0.013936876904 0.029637014362 0.021950056966 0.015112430271 0.0085273378093 0.02766042841 0.021682899628 0.0161629444 
-0.0025493897917 0.026043195878 0.031191847038 0.011330485293 0.035359308721 0.022435005761 0.012830968064 0.016243911134 0.0036344764579 
0.012809708427 0.014599357524 0.023859193413 0.027775505803 0.0052474730249 0.027452541669 0.029668217523 0.021525527012 0.01575022164 
0.0035155182855 0.018048152103 0.028326669589 0.012731409064 0.0045403269248 0.032330863255 0.011542724924 0.029182264042 0.023913959989 
0.032034142779 0.023565864958 0.0091006206081 0.0034357172447 0.01214257305 0.014665650669 0.017927094913 0.029214765974 0.02807887 
0.027614571476 -0.0011362159541 0.010147692503 0.011220884845 0.017410943668 0.018047128839 0.016005997729 0.033384442912 0.023658362294 
-1.1724513109e-05 -1.111199192e-05 -1.1485415759e-06 -1.1811457702e-05 -1.7836161992e-05 1.1305293314e-05 -2.3379955841e-06 3.4594843973e-06 -9.7209262225e-06 
1.7459908353e-05 1.2363653915e-05 4.5731358778e-06 1.1479448398e-05 -9.9025139899e-06 8.2070430558e-06 2.854570832e-06 8.9237569998e-06 1.7040723622e-05 
-8.4835310273e-06 1.5258804525e-06 -1.1463335311e-06 9.1103419607e-06 2.7454459773e-06 -1.3378247658e-05 -1.737043503e-06 -1.0617366395e-06 -3.8879767726e-06 
-2.5279697238e-06 -1.6943350553e-06 0.00871789173 0.0025929495978 0.0022685790027 0.0016475081564 0.0011118445659 0.00090623971089 0.00060743053072 
0.00050274265422 0.00048628321232 0.00048260493851 0.00043601425125 0.00039420196315 0.00032825598478 0.00027497450711 0.00022201698615 0.00015870079277 
2.5460968822e-05 -2.2747132493e-05 3.5477181314e-05 -4.2749247875e-06 2.7578384564e-05 -2.840706178e-05 -1.7254396237e-05 2.4474486878e-06 -2.9179787343e-05 
0.00016988450616 0.00021337918685 0.00031344423941 0.00035976957521 0.00037531703771 0.00035153833306 0.00033464212651 0.00030293283445 0.00022376502733 
0.00015080745886 6.7690258773e-05 5.0201470144e-06 -1.176364831e-05 -7.7991194419e-06 -2.5760340515e-06 4.4550861122e-06 -3.1170361655e-07 7.3046676833e-06 
-1.8868564697e-05 -1.3414865882e-05 -6.6064677937e-06 -1.0792841964e-06 -4.1924172877e-06 -8.5787692805e-06 -3.3611648669e-07 7.6480734666e-06 4.1313163665e-05 
9.2026384828e-05 0.00015312464263 0.00019826196845 0.00023246302503 0.00026042127304 0.00025946785932 0.00025770886242 0.00020025060662 0.00018612377951 
0.00010790054642 -5.2978635452e-06 1.287748274e-05 1.8034987779e-06 1.8940167643e-05 -3.7432823144e-05 2.103561529e-06 -1.894356153e-05 -4.5593870752e-05 
5.9370255621e-05 1.3154797212e-05 3.0304592851e-06 0.00011979161178 0.00014200051451 0.00018452437888 0.00024128643384 0.00029943685274 0.00031768229382 
0.00034219372085 0.00039814886506 0.0005128189543 0.00067066118318 0.00082020033246 0.0013375118477 0.0022329596044 0.0040278444909 0.0057241845747 
0.029940023944 0.045527822562 0.053402495871 0.065526898388 0.071947595517 0.074836657957 0.06935615155 0.081343442458 0.085075646163 
0.088963104199 0.087316959947 0.080016974088 0.088851026751 0.092035290081 0.091781654845 0.088001278471 0.079657115674 0.084734922179 
0.085124292272 0.084172692617 0.080103388073 0.075225782277 0.065326261814 0.070770536251 0.066675850416 0.058227265445 0.045373844547 
0.031681350385 -0.0060418026048 -0.0084225849719 -0.014083215478 -0.0033289909301 -0.012067516429 -0.011792898732 -0.011803434236 6.9633121468e-07 
0.012285918392 0.029011996945 0.04871232895 0.034661394343 0.030156023434 0.011931327083 -0.0061332492831 -0.012794880058 -0.011950170413 
-0.0125483531 -0.0031864610591 -0.0029704006271 6.6626676941e-05 -0.0038081798211 -0.0021904231837 -0.00039031053638 -0.014518805639 -0.013435213079 
-0.013617338432 -0.013093340421 -0.012608779743 -0.0044355414655 0.012127629037 0.025635977016 0.019380127931 0.02723586186 0.027046766599 
0.0091828728148 -0.0014037637661 -0.0022441635325 -0.012803273628 -0.0028992179706 -0.002722172527 -0.002431135648 -0.0040363211318 -0.011909516706 
0.0015869966953 -0.0056337293062 0.0085696282064 -0.0011067515544 -0.023240612709 0.00022032220993 1.1557063096e-06 -4.705624373e-06 8.5168182101e-06 
2.0147444188e-06 4.9437806993e-06 -6.6734722159e-07 -3.3545151095e-06 -5.3923132191e-06 -8.5841108258e-06 1.7433290751e-06 -3.3765548011e-07 -9.9740204376e-06 
-4.5727876783e-07 1.420483106e-06 2.4570183018e-06 -8.6222989851e-06 -6.2109942415e-06 -3.3039393773e-06 -3.3263028653e-06 5.6447106309e-06 -2.6502829952e-06 
5.9746255231e-06 -2.2598370571e-06 -3.0662608141e-06 2.6320290199e-06 3.5967152735e-06 0.00025193351368 0.016616158202 0.0099229435509 0.0066709816014 
0.0045016509563 0.0034100064771 0.0027378967693 0.0023141216021 0.0021722559322 0.0020199315686 0.0018583720375 0.0016795567998 0.0014906565926 
0.0012323121129 0.000903859121 0.00044734406086 2.0413512928e-05 -4.7415174742e-06 -1.24381492e-05 -9.1529316144e-06 2.0544992413e-05 -1.6255553545e-05 
-9.3841086827e-06 -2.0718773164e-05 0.00024798061933 0.00082292667008 0.0011324578016 0.0013221846231 0.0014748677946 0.0015110416283 0.0014298702624 
0.0012832556472 0.0010790128155 0.00077965337413 0.00047277545463 0.00016371607817 2.6494655014e-06 5.9592201151e-06 7.9281792155e-06 5.7647039538e-06 
-6.1193364087e-06 1.5712490769e-06 -3.3990444071e-06 0.030586181246 0.027824486239 3.7804680292e-06 3.699014805e-06 -5.1752054935e-06 8.271392487e-07 
4.113679483e-06 -6.2621246286e-07 0.00010832637253 0.00031490702662 0.00054336404483 0.00073747163958 0.00089627962211 0.00099506181383 0.0010933773425 
0.0011055963651 0.0010433751271 0.00085069879327 0.00053330487433 5.5640441698e-05 5.4235016997e-06 -1.181768794e-05 -3.4296082591e-06 9.2526044405e-06 
1.2121364969e-05 -4.1464787323e-06 -1.0991191675e-05 2.3811075896e-05 -1.2549676097e-05 2.6003980734e-05 0.00041021264823 0.00072635417054 0.00092789083457 
0.0011266579811 0.0012915360885 0.0015089975446 0.0016943221741 0.001884650905 0.0023133291486 0.0028384286205 0.0037760205077 0.0055667050591 
0.0090389943592 0.015928985025 -0.00048116761825 0.0438339138 0.054724499578 0.064612659405 0.07189815506 0.077314369929 0.081343442455 
0.084153850433 0.086367777716 0.089332827896 0.090229146711 0.091278131358 0.091961843108 0.091798562453 0.091797721695 0.091245962911 
0.09103262277 0.08736622747 0.085157355564 0.081980436445 0.079456059303 0.075595781824 0.071171609842 0.065471341858 0.055542281088 
0.043239803084 0.00086332852205 0.017345930743 0.0010991244919 0.0001926809605 0.00033825530582 0.00037384461698 0.006285907816 0.020533615857 
0.036215777712 0.038521192991 -8.1603335272e-05 0.033922937201 0.035445872602 0.005805736844 0.00034972111488 0.00028629842212 0.00016477558602 
5.6646552182e-05 0.0001135484654 0.00013418995129 0.0001389478558 0.0047569361942 0.0003396176166 0.00021481732641 0.00044282529684 0.00078411754198 
0.00078284073079 0.0057234257525 0.018010130089 0.029323096442 0.022282103213 0.00073936565519 0.027149737301 0.026821074701 0.0043852021561 
0.0002311865941 0.00016244025951 3.4777388017e-05 -1.9969693776e-05 0.0002979973872 -2.0630991213e-05 0.0200557753 0.00047652282493 0.016105648296 
-0.00024029652261 0.0027309171504 -0.00033193277223 0.00024842722671 6.3857462867e-07 1.9112706498e-06 -4.3267125409e-06 9.0269901439e-07 4.3755096766e-07 
2.6654467203e-06 -3.9121015761e-06 7.3241564615e-07 5.1764938136e-06 -5.7835473588e-07 -2.9349899027e-06 1.4456205952e-07 5.4794521082e-06 -1.6604111159e-06 
-2.6496107494e-06 2.2771735377e-06 3.3554803764e-06 7.8156765909e-07 -3.6199300041e-06 1.9992964694e-06 -5.6321274579e-06 9.9660180226e-07 -5.0956769772e-06 
1.3549890898e-06 -7.7109987743e-05 2.2537103279e-05 2.3199865825e-05 0.029395567166 0.012182513094 0.018214783224 0.012615497478 0.0091103464603 
0.0071415082455 0.0059831976603 0.0053540250073 0.0049154936337 0.0045227137173 0.0041306015154 0.0036692854165 0.003149818177 0.0025148389576 
0.0016861125149 0.0006079092478 2.3700041862e-05 -4.1945288609e-05 -9.7883962744e-06 5.1404706765e-05 -2.3570400758e-05 5.8319053214e-05 -1.9529912649e-05 
1.9824398066e-05 0.0012688366288 0.0020308425063 0.0025865273683 0.0029443820641 0.0031603155471 0.0031834318557 0.0029377862141 0.002495046219 
0.0019560387063 0.0012752163932 0.00062710912413 -3.1985370622e-06 -1.5483227514e-06 1.8111010704e-06 2.6862897121e-07 -3.7022060589e-06 3.1945412752e-06 
7.3599662745e-05 1.9095091958e-06 1.2850207289e-06 1.3897356362e-06 -4.2219188396e-07 8.0716722374e-06 0.0004750130586 0.00099265592479 0.0014542855758 
0.0018314965338 0.0021426856204 0.0023488840129 0.0024129593089 0.0023598885542 0.0020284943434 0.001493888034 0.00066418189635 7.7590961866e-07 
9.1306229532e-06 -1.0728127798e-05 -1.514414462e-05 -2.9593615991e-06 -9.5956209922e-06 -8.8215760897e-08 7.6178066139e-06 1.4851056968e-05 2.3495772248e-06 
0.00082912354692 0.0015428391204 0.0021382499278 0.0026286747115 0.0030862847243 0.0034381832223 0.003830849399 0.00439623097 0.0053153437863 
0.0065782329405 0.0085645653187 0.011757564466 0.015022554976 0.027067918329 0.0081227454943 -7.5982633207e-06 0.043698266179 0.054189816919 
0.060107756694 0.065265927295 0.068900495805 0.071799814581 0.07422422049 0.075917476785 0.076518620723 0.077090203747 0.077015238586 
0.077141445901 0.077367027811 0.076607163912 0.07452443643 0.072009300029 0.069331082153 0.065832902165 0.062132907557 0.057970511827 
0.052467025008 0.046775793944 2.6591645606e-05 0.0012243129246 0.0019967702963 0.010267027768 0.020676775865 0.030877800974 0.032779813632 
0.0014524560005 -6.8810987683e-05 3.5044183342e-05 0.0085109344004 4.1621498712e-05 0.00046157737644 4.0655456623e-05 -0.00013542636412 0.021022534623 
0.0050125378437 0.0072742982495 1.7734218193e-05 0.015665398335 0.022098009608 0.019462779103 4.6308525909e-06 -6.3610088343e-05 1.0244087585e-05 
0.0076994217576 3.283175317e-06 4.8513350125e-06 0.0022005712014 -1.391457303e-05 -0.00012173356414 0.0086683449327 0.0283512956 -0.00011675380275 
1.9296030167e-05 2.4536900151e-05 0.023939752494 0.0013654700378 -4.5973862465e-05 0.00060752373573 0.012979659529 0.018704408171 0.021191899682 
4.4534047479e-05 0.015159188156 2.755230743e-06 0.031573968114 0.022504468109 1.0303348135e-05 1.5705217601e-05 1.6540993925e-06 -5.7491964364e-07 
-7.5937539652e-07 1.0340613302e-05 3.3576634227e-06 1.2331873395e-07 9.0451364279e-06 1.1405290114e-06 -5.801575319e-06 8.7042052722e-07 7.5630854453e-06 
5.213699908e-06 2.8594813761e-06 -1.6114701386e-07 3.4917473947e-06 6.4164218154e-07 1.5980931523e-06 -1.115739638e-06 1.1542735844e-06 -3.6025027819e-06 
3.4297615442e-06 0.012133057879 -2.6151577223e-05 0.034027970814 0.025030949173 0.018713125359 0.014627058579 0.012047225679 0.01035157617 
0.0093201709224 0.0086166451506 0.0078976303064 0.0070240356139 0.0061070879769 0.0049129504194 0.0035947182426 0.0020661546817 -2.9607679913e-05 
0.0018424933646 0.0026152996692 0.0034346072523 0.0042606710341 0.0049118787183 0.0052095418273 0.0051177936735 0.0045982960695 0.0037096136831 
0.0025803995316 0.0014328280242 0.00034662056488 -2.5718341548e-06 7.9571314691e-06 4.4669294632e-06 -2.0697607082e-06 -5.2427479831e-06 6.3292689284e-07 
-3.6671353587e-06 0.00033247980762 0.0012057053826 0.0020722392752 0.0028320659279 0.0034953209056 0.0039431384416 0.004037660911 0.0039845366601 
0.003761402755 0.0030470914853 0.0018918046953 0.00019679668425 -8.4038627134e-06 -1.5223522006e-06 -6.6047811978e-06 4.0846045095e-05 -1.7659232392e-05 
1.0601498291e-05 -6.1894830821e-06 0.0011289191112 0.0023321622685 0.0035092940479 0.0045003002558 0.0052924961566 0.0060673210473 0.0068392102687 
0.0078353668327 0.0092557629916 0.011161637183 0.013964372359 0.018286492935 0.024722838746 0.014568944313 0.0024455980001 0.0027019639025 
0.039335861095 0.044638124151 0.049924657921 0.054060330437 0.057617456845 0.060334541281 0.06220883325 0.062864505937 0.062986679279 
0.063000008801 0.062914287275 0.063179760165 0.062966400021 0.061391169485 0.059406624693 0.057303546933 0.054135984608 0.05049891694 
0.046378299599 0.04104157574 0.0082039337764 0.01958828014 0.0062208613468 -2.0508405795e-05 0.026704575123 0.029600418029 0.013045465173 
0.0049870225353 -3.1268523579e-05 0.0093864013292 -3.4184266673e-05 0.017130183757 0.0081154364105 0.0048486278985 0.016314375296 0.0026201366583 
0.0046966307021 0.0061074316919 0.012807672582 0.0029541663062 0.0090641223603 7.3661026012e-06 9.5425652697e-06 -5.9746708507e-05 0.0033054881553 
0.013492799038 0.00041346055524 0.018995837667 0.016653183827 0.01557188135 1.6061194872e-05 -1.0636276303e-05 6.2506181599e-05 0.023476583571 
0.00059170884792 0.027456695106 0.0017054115212 0.025246717765 0.0030852084228 0.0059587093992 0.016472651302 0.0011540845096 0.016928001676 
-1.8808493293e-05 1.5143357768e-05 0.017569217639 -4.0644114399e-06 -1.0716693966e-06 -3.293430934e-06 -9.266102461e-07 -1.2679083973e-06 8.254666981e-06 
3.2793835744e-06 4.9723564634e-06 -1.694805622e-06 1.5623266653e-05 5.5038644276e-06 -5.1057838578e-06 5.5248239501e-06 -5.9327362564e-06 -3.5832856552e-06 
3.7217769011e-06 4.5426173192e-06 1.0474805611e-06 0.014834506903 0.032055042976 0.024891716711 0.019983737405 0.016727999705 0.01484811552 
0.013741291245 0.012976788469 0.011755394325 0.0099964304769 0.0080995284568 0.0056080230743 0.0059692772651 0.0069339492185 0.0074346454499 
0.0071573279393 0.0059807164594 0.0042843179697 0.0024681305373 0.00081702228009 -5.7104454701e-06 1.0116775194e-06 -2.1997221895e-06 1.3139416563e-06 
0.020167572896 -1.2937713039e-06 1.2352771426e-06 0.00091192176551 0.0022359363216 0.003485321995 0.0047026458327 0.0057029164181 0.0060694751978 
0.0056228475584 0.0057833422917 0.0050693919879 0.0036196188769 0.0015724903203 5.9133892933e-06 7.8757890207e-06 0.0011220780024 0.0030836649661 
0.0047780583164 0.0062940810863 0.0078280115392 0.0088826611241 0.010083430928 0.011800095573 0.013678633924 0.015934541624 0.019204150148 
0.023966106789 0.030479736487 0.00010645972822 0.040722695854 0.044290620625 0.047092557193 0.049157226696 0.050484557281 0.050241666228 
0.049489201432 0.048970137028 0.048950475769 0.049340575509 0.049154356051 0.047651969872 0.045735266482 0.04382138885 0.041001422875 
0.037403015577 0.0265847216 0.017480626718 0.012207704304 0.023028352895 0.013007176269 0.0044670118281 0.025540081434 0.011012052646 
0.013563018068 0.0094697424057 0.0077313130923 -5.2900957178e-05 0.0093595822064 0.0010486523043 5.4625189608e-06 0.020588314471 0.011626035297 
0.025451312581 0.0090691187227 0.02006688655 0.019647376747 1.4731704043e-05 0.022980616777 -2.6517319518e-05 0.035762454798 0.0055658707984 
0.026522425762 -5.2588825888e-05 0.013341320465 0.01376762496 0.0070970065483 0.0080099668212 0.018477160467 0.012773878263 0.00078443000675 
0.0037897697992 1.2080634373e-05 -1.0537661448e-05 -3.3916186854e-05 1.264204133e-05 2.3266977398e-05 -4.440190223e-05 2.5436297612e-05 -1.5958311668e-05 
-8.5651810269e-06 6.7094302524e-06 1.3305332169e-06 -5.4697791595e-06 0.012485051044 0.0079475548377 0.024347227944 0.020678039937 0.018768656575 
0.01796117067 0.014597277883 0.010461135408 0.0089704923428 0.0064745026982 0.0037129450279 0.0011765001908 2.707727185e-06 1.4603280665e-05 
0.0018962186381 0.0036284438085 0.0051818865343 0.0070959132323 0.0082657636797 0.024675013466 0.010819390596 0.0034861115046 0.005846097076 
0.007520095494 0.010136998589 0.012130351667 0.012929762343 0.017962782984 0.020337737787 0.023882685625 0.028969950118 0.014449736009 
0.033121357077 0.036185113176 0.037948391977 0.039302699216 0.040917310613 0.036376371423 0.038309051437 0.033537307325 0.037506400415 
0.036690484464 0.038456605523 0.033905779161 0.03454700504 0.033155379315 0.03002948544 0.023032636945 0.0028290339892 -2.2521636358e-07 
0.0091098438576 0.01773963546 0.024649772413 -1.2661525644e-07 0.027335539964 -1.9666138752e-05 0.015721380775 0.025877915626 0.019222186704 
0.022788491677 -3.3840960883e-06 0.008794333915 0.0095827500205 0.00384343476 0.022448559177 0.021699439564 0.028559291999 0.023325844646 
0.02184254593 0.010585887591 0.026293680813 0.0014594733962 4.1845080239e-05 -5.0026057462e-06 0.0052678100455 0.00016499227318 0.021683290772 
0.0052612551839 0.0098331514567 0.0051155504988 0.027213526819 0.027126189629 0.02762778377 0.017348769183 0.023459634524 0.023836929239 
0.027069878258 0.030190173287 0.031295369276 0.032215307761 0.023028970289 0.026840936109 -3.525939095e-06 -8.5607510171e-06 -3.060974704e-07 
3.8874974743e-06 -4.3887066312e-06 -5.4853832789e-07 3.1630487148e-06 -4.9936296191e-06 -4.6962754797e-07 2.0292292742e-06 -6.4551640311e-06 5.2887838861e-06 
7.8595386211e-07 -2.1393222094e-06 3.6326571788e-06 1.7928776737e-07 -4.2464988416e-06 3.3862550007e-06 2.2484640727e-06 -2.656345919e-06 -2.6201185381e-06 
6.7534626496e-06 0.023450221394 0.0041135744253 0.0022858996232 0.0012496305961 0.00096142297944 0.00082472070516 0.00074070976348 0.00066233443358 
0.00061166029379 0.00053012650403 0.00045883263001 0.0003014655076 0.00014596286258 1.1319652124e-05 2.4953433043e-06 -2.0330311579e-05 2.5117320626e-05 
-6.520252713e-06 -7.9637600084e-06 9.0548741459e-06 0.0001178518298 0.0003954194543 0.00049791392165 0.00052933421049 0.00056575902571 0.00047947638827 
0.00038603317395 0.00028527068626 0.00014947413674 1.017750031e-05 5.0831520825e-06 1.593625591e-07 -4.9928324043e-06 -4.4100856371e-07 6.2590922515e-06 
-3.3502563007e-06 -5.0733827732e-06 2.5512592476e-06 7.1258054626e-07 -5.6018746107e-07 1.1775017106e-05 0.00010782636379 0.00020477757029 0.00028149602062 
0.00036418571328 0.00040522481911 0.00039201514551 0.00036641483542 0.00024179641854 6.9348104274e-05 -7.3692611148e-06 4.3820551778e-08 2.2195988475e-05 
-2.0239088627e-05 -4.4719469799e-06 1.5507446062e-05 -1.4430472001e-05 1.0429925232e-06 0.00014071152509 0.00032038188144 0.00042407285076 0.00053658238028 
0.00057398443677 0.00067340689656 0.000895296142 0.0011597970467 0.0016858128879 0.0028743701793 0.0044985142368 0.0068011853407 0.039082791596 
0.053635067835 0.063103560514 0.067762840435 0.075190700322 0.081798683936 0.082500083737 0.085043411934 0.089283140697 0.092315161256 
0.092434860412 0.091284867959 0.090216139652 0.092863087628 0.09139675031 0.085790608788 0.083569657645 0.078983898128 0.078373505723 
0.069667292201 0.062684331978 0.051414878715 -0.0070901302463 -0.0047831658726 -0.013708753654 -0.020544660681 -0.014819633729 -0.01454599782 
-0.013295203562 -0.0073277593028 0.013214756101 0.030884865748 0.032920933898 0.034886446465 0.034179033991 0.015777591372 -0.0038035367456 
-0.012218444463 -0.014214243159 -0.014159909498 -0.020280609401 -0.015982244694 -0.0034868673448 -0.0093906942704 -0.006941326361 -0.008042872326 
-0.014924504834 -0.014439900708 -0.012608378678 -0.012329982723 -0.010557309634 0.0039498010099 0.026430367335 0.035517718468 0.035172575676 
0.025341381205 0.0093642555212 -0.0074243176746 -0.015632098694 -0.014573070282 -0.020322799801 -0.021069344524 -0.016995714857 -0.00026784115261 
-0.0016336570081 -0.022772166615 0.00045420837095 0.00011266365459 -0.010630135336 -0.002710448084 1.8880449648e-06 4.4692958691e-06 5.2128365311e-06 
1.6193269346e-06 -4.8150437429e-07 -3.5316367215e-06 3.0361380177e-06 -6.7211925552e-08 -6.6055328871e-06 -2.5445082233e-06 -7.6829547266e-07 -5.8050004758e-08 
-2.0503826943e-06 2.4549301041e-06 2.6676472195e-07 2.5091200819e-07 1.0965961628e-06 2.6667446005e-07 3.5616587803e-06 0.00035974918404 0.008217271624 
0.01276268462 0.027321839176 0.0053206975446 0.0039437313692 0.0033384292615 0.0031140196086 0.0027794123058 0.0025191847444 0.0021081558603 
0.0016988348256 0.0011691363926 0.00047431297602 -1.349917039e-05 1.2330740193e-05 4.5260451798e-06 2.9112486374e-05 3.6334402792e-05 -3.9248461335e-06 
-1.7134598934e-05 0.0011375503649 0.0016912950754 0.0020720659599 0.0021469470332 0.0020049868343 0.0017041579826 0.0012546489054 0.00078797201087 
0.00031164775922 3.9751225307e-07 -4.1366638103e-07 1.3012493076e-06 1.2478966236e-08 5.3713397417e-06 3.3717730947e-06 7.3131591588e-06 -2.1797130472e-06 
3.4054922538e-07 2.0096032892e-06 0.00021834376519 0.00058424775492 0.00096475600867 0.0012796600714 0.0014631941448 0.0015476305894 0.0014634387973 
0.0012309164654 0.00075247475235 -1.6465527882e-06 -3.5888036838e-06 1.0478274445e-05 1.5540271852e-05 6.4848684353e-06 3.0837361484e-06 -6.8136427598e-06 
8.6657990104e-08 0.00037344384647 0.0011153959596 0.0017118459384 0.0021322267469 0.0024191939422 0.0027789865472 0.0033115557197 0.0045020207947 
0.0063193815384 0.0098556072698 0.016311512761 0.026523083109 0.00069807253239 0.014309212434 0.055432148685 0.042045649051 0.067069794171 
0.074940725767 0.07911152915 0.082211946983 0.084957817029 0.087679723541 0.088371286396 0.088519271855 0.088071089273 0.086812225328 
0.085489664975 0.083691679061 0.080900161585 0.076752298683 0.071533793035 0.068133771411 0.059883317379 0.048299486861 -8.1370495731e-05 
-9.0212661764e-06 0.010402424787 0.00092773009822 0.00018617993475 0.00065692129498 0.0014642441707 0.001043681671 0.0058157117784 0.019555649431 
0.035667911673 0.037078260069 0.036523850448 0.021660820732 0.0055195175605 0.0011662660014 0.0011883239869 0.00081637478813 -0.00026661529475 
-0.00036839366369 5.3634203049e-05 0.01024736776 0.00051596200845 0.0011178748006 0.001228602495 0.00064411248174 0.00064469442943 0.011773278209 
0.025421765906 0.029199374953 1.5227217688e-05 0.028879178981 0.01613893587 0.0032807756953 0.00022436924916 0.0007667118605 -0.00021892726079 
-8.4573573699e-05 0.00062548740621 -0.00010234851831 -1.3315545388e-06 0.03550989666 8.1583910809e-05 0.028700293812 6.4075506045e-05 0.0027757636514 
0.00010208630228 8.0311282833e-05 0.012416508623 8.3889338671e-05 -1.088893476e-05 3.6106344528e-06 1.904166227e-05 7.8269683984e-07 -3.1395944697e-06 
-6.1375228835e-06 -4.6679339507e-06 -9.6572460387e-06 -5.3725241843e-06 -5.5811727036e-07 -9.9486772086e-07 -4.684693411e-07 2.807929758e-06 1.5156920006e-06 
-1.1033245136e-06 0.00029018953887 0.021377346863 4.2421316111e-06 0.014714715953 0.028692341795 0.0081565949524 0.0070641348015 0.0064078089193 
0.0059093806398 0.0053482879808 0.0043484901769 0.0033246016628 0.0021187870601 0.0005534214607 -3.5647780332e-05 3.6137877641e-05 -2.4085504498e-05 
0.0014313046281 0.0027416279801 0.0035917025166 0.0040988123599 0.0042890003319 0.0039532473095 0.0031054608184 0.0021509047574 0.0011025408415 
5.1696174539e-05 2.0925997393e-06 -2.1037124751e-06 -6.3120679399e-07 0.057635114278 0.029112472189 -1.9335729712e-06 -8.3073510079e-07 1.864755339e-05 
0.01007893879 -4.8750626907e-07 0.0010845268255 0.00075834946506 0.0015286431961 0.0022565372115 0.002821767531 0.003168240722 0.003129842067 
0.0028249144833 0.0021406600702 0.00096398233775 1.6204891695e-06 1.2255993076e-05 -1.434856725e-05 4.1504593958e-06 -1.1688310289e-06 5.2186122193e-06 
-7.0478375262e-06 0.00017550750007 0.0018756277531 0.0031860683215 0.0042703802936 0.0051083069573 0.005859140475 0.0069474673492 0.008649086516 
0.011173410461 0.016232742188 0.012518721549 0.00010800127845 0.046770619584 1.5116817835e-05 7.3175871164e-05 0.06316156727 0.066743558782 
0.069250175086 0.071176396205 0.072643781051 0.073285445675 0.073371988339 0.072456452744 0.071250474514 0.069729906081 0.066871660629 
0.062931945583 0.057993179114 0.053115024651 0.050211072904 0.0083607370633 0.031717337756 5.4583384832e-05 5.920837465e-07 -2.0239859655e-05 
6.8946550739e-05 9.611658611e-05 0.0016688723717 0.0093848775933 0.019913977516 0.029914603899 0.030150339031 -6.5999241159e-06 0.00018982825525 
0.020367463079 0.0088995322631 0.0011874676349 5.9764872361e-05 6.5185092716e-05 8.7843622092e-05 0.022049294316 8.3785096004e-05 2.9688160226e-05 
0.0029859310326 0.011052093327 0.019766194763 -6.2047806592e-07 -1.0240026923e-05 0.015294575312 0.0069920169262 0.00058587375596 9.186739871e-05 
0.00016666070415 6.1435090093e-05 -4.0388953274e-05 0.020064571852 0.023647539465 0.00014823407131 0.033621088491 0.00017066718129 -6.6682494607e-05 
1.2794600126e-06 0.0086099846027 -6.7354058976e-05 0.00014594135788 0.039034704617 -7.8762729289e-06 0.025185832311 0.014201154511 0.00013669643319 
0.023269729648 0.00056415016753 -7.9487424258e-06 -3.4669967799e-06 -1.4306197631e-05 1.4652117939e-06 3.0116736987e-06 1.6984656059e-06 2.200562162e-07 
1.0253187179e-06 4.7187990513e-06 0.00071885911062 9.8861928246e-07 0.010803023131 0.012920725251 0.010168981282 0.0087066505934 0.00644028398 
0.0044380608732 0.0025585385799 0.00053797620142 0.0043535313013 0.0058779851484 0.0066690661728 0.006678068963 0.0058253858672 0.0041702653162 
0.0023818558862 0.00061819805151 5.7117514611e-06 -5.7750791631e-06 -7.2331292746e-06 0.051583291905 0.032363826501 0.0017280750003 1.6050741741e-06 
0.0029850197113 0.0041228173344 0.0049469154806 0.0052967665423 0.0049774252194 0.0041425881564 0.0027999159322 0.0007611959636 2.1224963592e-05 
4.0778192992e-05 -7.322919779e-06 3.388330217e-05 -2.7018878643e-06 0.0022264764051 0.0046870492762 0.0068604899724 0.008500079014 0.0097233204325 
0.011155410026 0.013015836972 0.01597624127 0.020973511346 0.029825612957 0.00043552602465 0.0067139042573 0.0012826413024 0.016022474931 
-1.6549563186e-05 0.054087762981 0.055995417541 0.05761600121 0.058771934496 0.058639084889 0.058241898691 0.057556625772 0.055865240463 
0.053771952401 0.050352583631 0.046455866377 0.040949461689 -7.3266161995e-06 0.011471261013 -1.2038871441e-06 0.02512985763 0.0012345956648 
0.0027866377935 0.0062370917216 0.011817515041 0.018943442646 0.025725798406 0.028199052869 -6.1363516914e-05 0.0047310543839 0.01632393845 
0.017995447145 0.010500425833 0.0048157680037 0.0033085736588 0.001595836034 0.018686258989 -8.8820569704e-05 0.0023381774084 0.0052318054722 
0.009648870634 0.015340649926 -2.3847587029e-05 0.014190109884 0.0089581258614 0.0047753806404 0.0031132211666 0.0012833518701 0.012862282192 
0.047833374812 3.0698810678e-06 0.0029462764961 0.023835285607 0.014861824701 0.029998021202 1.1578872016e-06 -5.0033278789e-06 0.015782682485 
6.5394864221e-06 0.016155853417 0.0014900129251 2.3938262222e-05 0.04293807725 0.019440048832 -3.0483198164e-06 0.020826561009 4.4086586343e-05 
0.016552547443 0.018868369989 -7.2970443124e-06 -6.2728728997e-06 1.3883974677e-08 0.010703531975 0.024439370158 0.014968095591 -8.7918085141e-05 
0.015666216476 0.0085078156226 0.009389544537 0.008808689991 0.0070341899764 0.004186571271 0.0014693757754 1.2722988778e-06 -1.0287379355e-05 
3.1245867844e-06 0.04308953221 0.012798493743 0.0012942415409 4.9438793736e-06 0.0064250650563 0.0030327198608 0.0075012036439 0.0072710403443 
0.0062814749082 0.0048268451401 0.0029094338349 -1.6152084962e-06 0.021541175238 0.0053064120025 0.0085751801885 0.011592587556 0.013939913562 
0.01560919914 0.017694859212 0.020771144552 0.02583462663 0.020947237381 0.020430849807 0.043178985487 0.044268871024 0.045354208164 
0.044828076058 0.044615881088 0.042897089017 0.041312190317 0.039181494016 0.035660564543 0.031599419991 0.003198159101 0.027606235403 
0.0072616673148 1.5072885393e-05 0.024544915583 0.0048581880304 0.0087103796745 0.011897110427 0.017187259713 0.022218618666 0.0070048067678 
0.0070777745969 5.8940787012e-05 0.019304229401 0.041247933767 7.5742352209e-06 0.0094512489895 0.0065078506337 0.038293800997 0.024012121832 
0.013580041138 0.026419911848 -7.7186004501e-06 -3.7811794685e-06 4.6605627083e-06 -1.0867795473e-05 0.017365679457 0.021078051485 0.015861028659 
-2.2116249209e-05 4.9957522561e-06 -3.697119904e-06 0.00016144544164 0.024115363897 0.0015460772474 0.026829464849 0.033307739975 0.01573278748 
0.012106108526 0.0099296655355 0.0050414505918 0.015100530576 0.011797427618 2.7205477255e-06 0.014790808652 3.0590843893e-06 0.023706468595 
0.010116445767 -1.5622084445e-05 0.010712118879 7.1054237144e-05 0.020295310273 0.011605004357 0.0024592199708 -1.4895114261e-05 -6.373027877e-06 
8.3557463946e-06 0.031605531537 1.5789255288e-05 0.017965039456 0.025528446472 0.00025339083468 0.027723670188 0.019700343981 0.021704291169 
0.024785110748 0.030359622509 0.02286073186 6.9012404499e-05 0.033880666024 0.033371338465 0.032607501086 0.028249920386 0.031280395756 
0.028408481919 0.024716154855 0.0021054806966 0.0057459992451 0.0089097379426 0.033106650364 0.023930780554 0.0083577050552 -4.2760577486e-05 
2.084932521e-05 3.4144830224e-05 -9.7481043592e-06 0.02040412799 -2.0994383054e-05 0.020011169058 -2.0522360347e-06 0.0064902911708 2.096251414e-05 
-9.713908373e-06 0.034496133296 1.0861419655e-05 0.0090703875554 0.013255493363 0.0069873095374 0.032453934705 -3.9635651064e-06 0.0045191390372 
0.012151105429 0.002785212224 0.022805074832 0.0085539917848 -2.0241818203e-06 0.027649179386 0.02328288136 0.027568217994 -1.4416306791e-05 
0.023033149249 -4.626924402e-06 3.6085649259e-05 -2.7957418156e-05 7.0943366926e-06 0.0043391397037 0.024707828067 -8.9124031881e-05 2.8092233969e-05 
0.026371246526 0.04882061771 0.042885815404 0.10815821372 0.015168211872 0.042123125295 0.1222005656 0.10215943767 0.038993416587 
0.068664807739 0.024304546111 0.066390419084 0.043258076589 0.052383226098 0.057697878093 0.064795107668 0.099614479218 -0.009933820044 
0.059561635829 0.096605544311 0.079357082163 0.097145186428 0.10362027748 0.097040118258 0.11722570876 -0.074496278688 0.024949130221 
0.011687280516 8.2844087355e-05 0.009289345809 -0.00038672139841 0.041331052194 0.040874365965 0.049170362352 0.059654534367 0.095777290152 
-0.020936872771 0.042107737017 0.072567516242 0.092384691249 0.078189394803 0.10964983814 0.11224915222 0.13945743557 -0.0081025881524 
-0.0016614346618 0.016566379373 0.026420564104 -0.015218510576 -0.02103592346 0.024536372571 0.029488315481 0.0215601691 -0.010759802649 
0.017727846362 0.056755532603 0.10071014128 0.068944357504 0.083623500795 0.08244859807 0.083039345599 0.10918926233 0.041510381073 
0.042464233583 0.042103768143 0.046816855632 0.072141916618 0.092730232654 -0.01572359627 -0.0014649881923 0.0012620256944 0.015700095098 
-0.0075053263087 -0.034962589524 0.072870964614 0.080274519191 0.098597314122 0.074461871963 0.070039765304 0.072382409467 0.11071195874 
0.018731126589 0.057029769174 0.056005650938 0.062789663254 0.065809090029 0.10372884411 -0.0087498769423 0.0078919462393 -0.0027880577389 
0.032487282865 0.017900506187 -0.017589495164 0.098633891166 0.080402301376 0.093106750934 0.095086269321 0.090635321217 0.08713666649 
0.076028006333 -0.030826876532 0.049390801053 0.037689938253 0.0535048932 0.058540702877 0.065182757183 0.12685579022 -0.037215479344 
0.021564044351 0.0003297872884 0.0024060733509 -0.012782134525 0.10859713083 0.063441574736 0.10801843708 0.077666417289 0.078399059469 
0.077304777359 0.091542484491 0.020034267623 0.02616151141 0.055438016439 0.04787495939 0.054227529248 0.067508125449 0.1002208296 
0.027686386174 0.034119198925 0.044832598835 0.054458803629 0.078354021276 0.10595381641 0.113507828 0.095099463336 0.068981977697 
0.10670192599 0.074183664191 0.097853112949 0.054554406182 0.0080835234277 -0.023792148542 -0.012053328403 -0.0076859544024 0.0018295624211 
-0.0061521144212 0.055187564288 0.047027523924 0.049449595231 0.063334649465 0.076176665018 0.066672687103 0.14121419777 0.059299112621 
0.099637176771 0.10805650561 0.10351466684 0.10168860524 0.072309857583 0.0097412349271 -0.024507841025 0.034327230754 0.037563968665 
0.034107077843 0.030677943861 -0.010938291963 0.51903700957 0.54090698731 0.25854464165 0.18600988863 0.25457355525 0.24192054126 
0.23780200122 0.23780501019 0.24370099138 0.24262326303 0.2449020033 0.24480309437 0.25339507104 0.2494869982 0.25136699999 
0.25366199669 0.17374325398 0.17111865362 0.24757818458 0.24454799577 0.24242234147 0.15274273717 0.23925301043 0.24266699943 
0.25293858432 0.17039129607 0.23894118377 0.29926394867 0.21541953704 0.23159195953 0.24612551886 0.244050483 0.24129246059 
0.22541802531 0.2267292668 0.2428310079 0.24564699977 0.24574218431 0.23319715338 0.23520899276 0.250835001 0.25262000021 
0.25078699997 0.23199399971 0.19484104097 0.19371510528 0.22714020397 0.24417000136 0.24398224245 0.22344497607 0.19016337575 
0.223783486 0.24165799979 0.24770300356 0.23183496081 0.21868056354 0.34665895321 0.00010665666366 0.00044661162512 8.9143838455e-05 
6.5552742713e-05 5.2765576915e-05 3.7522740924e-05 -8.3249247264e-06 -1.313469197e-05 -1.315976694e-05 -4.1985984144e-06 -4.4588646085e-05 -6.3263554487e-05 
-7.6857681978e-05 -7.7625388619e-05 -5.2383325388e-05 -7.5596523362e-05 -6.9426254708e-05 -5.4386745534e-05 -4.7314936287e-05 -4.5280922183e-06 -1.6195988207e-06 
-1.3754974043e-06 -4.0808090794e-08 9.9584913612e-07 4.8176826839e-05 4.7413226146e-05 4.4461740744e-05 4.0015348836e-05 0.0003446843461 0.00016444058181 
0.029681304257 -0.017545896287 -0.0046137504548 -0.0005637499293 -0.00047268846089 -0.00014831357917 -0.00014129058397 -9.8998721472e-05 -5.4075031778e-05 
-0.0001122258315 -5.1172808515e-05 -8.301596618e-05 -5.5834116719e-05 -4.8303289521e-05 -6.2735831396e-05 -1.158979863e-05 -1.3282299294e-05 1.8273454124e-05 
7.2502797321e-05 0.00020673902213 0.0002753434649 0.00032578396468 0.00047066807906 0.00043118198502 0.00021197886712 6.8706395902e-05 5.3959066073e-05 
-2.7724877959e-05 -5.2718111676e-05 -4.8844864257e-05 -6.4762652095e-05 -4.2842858978e-05 -6.825162217e-05 -4.3966579838e-05 -3.388955622e-05 -1.6235410074e-05 
-3.0051273952e-05 7.7093206428e-06 4.2022968561e-05 6.426423918e-05 8.4061930256e-05 0.00010439259158 0.00011294317766 7.2858260017e-05 5.2716146317e-05 
5.5466458462e-06 2.6666700749e-05 8.9758418329e-05 9.040922298e-05 9.1011106211e-05 8.0358198022e-05 5.0851128945e-05 1.6210685441e-05 5.4623843327e-06 
-8.800244481e-06 -1.3807306688e-05 -2.8933859233e-05 -3.5854231032e-05 -4.6216185746e-05 -6.4013321563e-05 -4.0910127624e-05 -3.6977232188e-05 -8.2303180302e-05 
-1.0120055137e-06 -9.6004647989e-06 2.1901925337e-05 7.8912789155e-05 0.00012711766518 0.00016351279984 0.00032663538581 0.00033641090317 0.00032992758454 
0.00021497809061 6.8330752547e-05 6.7195678571e-06 -1.6732084425e-05 2.4198406993e-05 -6.1373909338e-05 -6.8957867616e-05 -4.41940257e-05 -6.5907448496e-05 
-5.9825550573e-05 -0.00010633677695 -0.00012592943027 -7.6718553454e-05 -0.00020468327725 -0.00026829525728 -0.00042562822469 -0.00041890125309 -0.0021680932482 
-0.0022971808631 0.050665541475 -0.015845767631 0.068073180024 0.083596689909 0.06986078001 0.09645063258 0.092555150788 0.090050722049 
0.048289533366 0.053277034295 0.051133585715 0.072778904325 0.070582757113 0.035106572784 0.094087218449 0.085587753633 0.087148189666 
0.090406008136 0.095221228434 0.062246687232 0.055827086634 0.053204321229 0.0014334152172 -0.0045008858557 0.050239494612 0.072128149859 
0.099304923638 0.094187576371 0.088959017473 0.069108143147 0.065420227382 0.06719606712 0.017819739131 0.065647284745 0.053420059709 
0.0221422896 0.04600804922 0.04949924292 0.044448918308 0.088223640633 0.058798665787 0.062558248746 0.033241924628 0.045254688969 
-0.0036540220997 0.0002330453662 0.00031883532328 5.6534234476e-05 4.010292123e-05 2.3096406745e-05 3.2609196939e-05 -7.0598416068e-07 -3.1629350197e-05 
-3.1947935342e-05 -4.6686739734e-05 -5.7946674012e-05 -0.00013630635896 -6.0993001103e-05 -4.3473584555e-05 -3.6071678519e-05 -3.6905793027e-05 -9.8928796382e-06 
1.836126067e-05 4.6926707709e-05 2.6478592088e-05 4.2460377453e-05 6.1165800813e-05 0.00036749456452 9.9009182823e-05 0.098544856555 -0.007466603002 
-0.0013888718382 -0.00039683147009 -0.00036144260696 -0.00013070014122 -7.9133123006e-05 -9.3361246978e-05 -0.00025986763468 -8.9269057739e-05 -6.4067008374e-05 
-5.2476843416e-05 -0.00014164255475 -7.688226862e-05 -1.9085473072e-05 0.00014561779567 0.0004481778597 0.0006767115277 0.00058858345298 0.00036615306715 
8.3876375387e-05 -2.5097788561e-05 -2.8150817055e-05 -5.9728709234e-05 -8.1775737685e-05 -0.00017009177929 -6.7862927603e-05 -4.3201545102e-05 -2.8077893767e-05 
-5.3942842296e-05 -3.5607415463e-05 1.7265510838e-05 6.5406185081e-05 0.00011424124892 0.00015192400748 0.00020300930313 0.00018822308155 -1.4583281312e-05 
-1.2544591943e-05 5.7494852913e-05 0.00012168134001 0.0001177939282 6.2478434184e-05 4.4956658036e-05 4.6045937386e-06 -1.6417717488e-05 -3.0791434197e-05 
-0.00011423813445 -0.00011770133242 -5.1742798262e-05 -4.3803977465e-05 -0.0001031317039 -7.1220783084e-05 -1.3490634295e-05 8.635319415e-05 0.00025192893241 
0.00035582408783 0.0004470490444 0.00034454889548 0.00019763461703 0.0001053777562 -1.5657046292e-05 -6.0723320615e-05 -0.00010748476709 -5.7292834527e-05 
-9.2160154437e-05 -0.00023688205285 -0.00022788964491 -0.00011246411362 -0.00022494760888 -0.00060178139765 -0.00051509754853 -0.00080277802225 6.1776761903e-05 
0.10691933845 -0.0094458201903 0.089088181399 0.075851927889 0.079334880401 0.083050193889 0.082393992771 0.07353272724 0.061027672029 
0.073857458772 0.046933918816 0.082832517736 0.09202118244 0.01819075734 0.084661098565 0.073143179392 0.076982071323 0.081133709795 
0.084239288447 0.067840480296 0.086318976781 0.054317824721 -0.014447539425 -0.0076206325158 0.050503835931 0.10753760362 0.093835064996 
0.086271307969 0.080145655631 0.087179477888 0.08605946206 0.036320928447 0.10320965847 0.045977929676 0.038676785358 0.052829552409 
0.071794193944 0.060903089757 0.07211696701 0.068284642156 0.074227695625 0.071744610833 0.04885270279 0.011089881233 2.1567419157e-05 
2.5373310161e-05 -0.011696880716 0.023712297664 0.038828533492 -0.011348902895 0.0553792967 0.042638378337 0.046416620334 0.055239361771 
0.013211189176 0.059423854771 5.7815683788e-05 0.060511835974 -0.030212739243 0.092667875743 0.1129918263 -0.017663250449 0.024961006976 
0.031564167845 0.020368773445 0.035228347425 0.033240306161 0.028219922405 0.028353770068 0.030599394888 0.027058227585 0.035532489822 
0.021846236606 0.024971972499 0.020037445905 0.021343699257 0.013961597749 0.0068241917862 0.014865236466 0.0052447954183 0.020933172557 
0.029128116297 0.0198778792 0.024734854589 0.019867823367 0.03677996279 0.0048540649886 0.026719459361 0.0091860119671 0.02313871968 
0.025575894726 0.011616208756 0.011306879486 0.017300719617 0.029350681055 0.015298172041 0.015111755335 0.026971288526 0.025654281466 
0.018437632078 0.025314330525 0.01973748404 0.01506607898 0.022966364816 0.020375602329 0.0062807200638 0.02655032619 0.024434387669 
0.015427139699 0.024940381475 0.029405069455 0.031154261236 0.030539320865 0.030180147675 0.027317980178 0.034682035952 0.022529368858 
0.016321758268 0.0021505740741 0.0078826221518 0.011124799675 0.0089532257193 0.015403124877 0.030122572299 0.019893484729 0.02265080664 
0.023144233904 0.018110083394 0.027478509207 0.024643464432 0.020929086005 0.029073726126 0.024532953231 0.020225098704 0.013691043915 
0.027577760083 0.010550930976 0.014605949728 0.020190546493 0.01909436283 0.026202240148 0.023450867012 0.02091936202 0.021456901316 
0.018750233584 0.017991796972 0.027381105319 0.022679159071 0.020196166826 0.017963224073 0.017405636039 0.0026366204387 0.027393569793 
0.02534291153 0.024646829245 0.017436315781 0.014904401395 0.020208235849 0.014129063563 0.011402568648 0.034962083427 0.042053958514 
0.034371883581 0.037590633528 0.019853604474 0.031629692426 0.030990759651 0.032988224238 0.024987635685 0.0074695781251 0.034985727525 
0.030761359728 0.019541566841 0.017035622403 0.0089702222484 0.015551742493 0.021563907386 0.034885574416 0.02654037781 0.022929388286 
0.032620579393 0.018123440756 0.023469888405 0.016497841717 0.029649797022 0.0031976557567 0.025663936595 0.021304296993 0.015512561275 
0.020313905299 0.019311997668 0.016559920058 0.024223880723 0.025102450796 0.02176831946 0.029619517143 0.018155562084 0.049039021852 
0.044925940148 0.038881997459 0.03870816933 0.032005116605 0.022344705134 0.026786329316 0.030345178472 0.029415482853 0.026959966738 
0.018967683187 0.011339517162 0.011808442798 0.025164130678 -0.0021930437408 0.024913442472 0.032330328222 0.025023006675 0.037160653439 
0.036750443585 0.028254237015 0.032172676465 0.011118860251 0.024406606377 0.010737540222 0.0078432511889 0.0066931349946 0.0023882202035 
0.018197216636 0.017370798311 0.030629634071 0.041797508553 0.039045432579 0.025167350653 0.032957328712 0.020038379641 0.01809710437 
0.018244801663 0.024674370894 0.0034731953911 0.02073678104 0.024391689035 0.024690652296 0.025446772786 0.018973292665 0.028192184047 
0.031694349786 0.024681383311 0.023603812674 0.010162123622 0.0070788233302 0.0094675642245 0.019006367345 0.02004213402 0.013014169113 
0.024720974323 0.020487443036 0.013095306936 0.032131353754 0.026041845413 0.019010563809 0.053577093521 0.031800291664 0.034839075328 
0.034012288494 0.028692748 0.025537010994 0.01756131738 0.033467825023 0.022065329222 0.01812213418 0.024059374354 0.020154956095 
0.016432717358 0.03377920891 0.040249259009 0.035269279707 0.024801941059 0.021302802859 0.03347111336 0.030569305054 0.034052856188 
0.028093972048 0.022723464929 0.021168963419 0.019915429988 0.019947634299 0.024576601864 0.016033121149 0.0052139033359 0.017821605675 
0.016150725325 0.025989350121 0.0064294585243 0.018364334449 0.020146297141 0.02351853016 0.033077266243 0.0093252091492 0.01061301173 
0.016183574135 0.019163059426 0.021395577516 0.025609866454 0.020541832115 0.034766155438 0.029535128573 0.034134533565 0.03538540747 
0.021222007468 0.021683569398 0.03055875964 0.0045204258007 0.021898180191 0.021506719061 0.026839942773 0.0096502895454 0.043865094269 
0.036222327207 0.0092881225412 0.0082565597516 0.040280805878 0.021134751104 0.017584622718 0.030928537518 0.03432749803 0.033312801878 
0.023194512947 0.036174221067 0.014667599027 0.025239183729 0.0097712205653 0.007266415473 0.028916346892 0.0180555007 0.02450088219 
0.026394331417 0.031693703935 0.023910219383 0.037512877824 0.03766438915 0.028849636677 0.029778226973 0.028262251396 0.026126264232 
0.045031064597 0.010774213035 0.010847527628 0.014095930732 0.028334468564 0.00022024881641 -0.0018885467585 0.011516772421 0.019511904675 
0.018380670585 0.013466016694 0.025480711756 0.029254300485 0.022378214035 0.023069269633 0.024602540057 0.020818936834 0.034778807434 
0.03458143435 0.020074599786 0.012023059437 0.024517068778 0.024987471965 0.01636642507 0.019283525855 0.01774307704 0.01516179362 
0.02685503897 0.011127598017 0.022785218795 0.020000113604 0.032449760164 0.033117606072 0.034607308252 0.031867151046 0.033776666816 
0.02853736977 0.035723693163 0.035367285997 0.030300206027 0.031008193927 0.059271760474 0.0037335311888 -0.0038099833998 0.026282322349 
0.014205891009 0.018610000204 0.0043985464842 0.012470285632 0.015461520445 0.0099751964269 0.023349813796 0.021774805213 0.014323560829 
0.0248933504 0.022432471497 0.02758805668 0.029246384952 0.031558481393 0.026505676696 0.023393690252 0.043225163135 0.03547263678 
0.052241460104 0.021757147746 0.01342163178 0.036165861901 0.023586332608 0.047377397296 0.027202288019 0.024374169686 0.023940621829 
0.01894701188 0.024232543561 0.028036807581 0.026966144075 0.01896660288 0.018022563272 0.026389335725 0.021431906575 0.021788046146 
0.32548099662 0.33723199725 0.21268770501 0.22857539835 0.20917299943 0.17354644871 0.19952853796 0.17730153106 0.18790282135 
0.1789445593 0.17648580463 0.18591755282 0.17497108242 0.17505541735 0.19897918034 0.18012854566 0.19270254987 0.19326045891 
0.18792587041 0.20018914982 0.18987871511 0.1969272543 0.20890578428 0.19715010676 0.20604281956 0.20503931975 0.20109740528 
0.21163802398 0.20413976733 0.19254045942 0.19336599975 0.19099300089 0.19398632007 0.19237132324 0.1946042866 0.19184574082 
0.18337035996 0.20265727733 0.17763520726 0.18494900081 0.18673617532 0.17745565629 0.18107199252 0.19470322799 0.18254158999 
0.1983485041 0.21855292021 0.1712793531 0.18282940937 0.20257282035 0.18929302444 0.19453851238 0.19789914692 0.18784821045 
4.861964063e-05 2.1324991223e-05 -5.6738879186e-05 -5.7083629069e-05 -5.8592859992e-05 7.2158468458e-05 -3.6733026233e-05 -2.5866607437e-05 5.5005483279e-05 
-3.1158387603e-05 -1.2636686117e-05 4.5588219066e-05 -2.2421237015e-05 -3.071854716e-05 3.0525904519e-05 1.1781661502e-05 -1.0481483433e-05 1.6131273651e-05 
-2.3792200208e-05 6.8232834743e-06 8.9797200988e-06 -6.3168188317e-06 2.9937473622e-05 -7.8538257899e-06 1.8280768903e-05 -3.9539078481e-06 -2.7483417505e-05 
3.252008761e-05 3.3321136443e-05 -3.6990357873e-05 2.6191783235e-05 3.7584056679e-05 -4.8482088934e-05 3.715080352e-05 6.2404106094e-05 -7.1799744507e-05 
5.9349402246e-05 4.6690664101e-05 -8.7017992326e-05 1.4288462875e-05 6.1230212486e-05 -0.00011610769554 5.0613299825e-05 4.8684656505e-05 -0.00010683730666 
5.5959813295e-05 3.1334417328e-05 -8.2514073985e-05 3.1658571767e-05 1.7662674327e-05 -6.4633412991e-05 3.1971060469e-05 3.4407573013e-05 -4.7766682742e-05 
-5.0196376346e-06 1.8458927014e-05 -3.2870961187e-05 2.9300403614e-05 1.1269187007e-06 -2.239212771e-05 8.3614514254e-06 -1.2919610346e-05 -5.6696547883e-06 
2.1397561754e-06 8.8642359922e-06 1.0495691993e-05 -2.5713582023e-05 7.7488773961e-06 2.4820448086e-05 -2.9193212014e-05 -3.6473909781e-05 4.8940351912e-05 
-2.5040427496e-05 -2.9394523197e-05 4.2592734929e-05 -2.1179478912e-05 -3.2815814058e-05 4.9301553272e-05 -3.4219355634e-05 -2.2439578846e-05 4.6758821483e-05 
-8.0383688153e-06 -2.206345849e-05 6.0443603696e-05 9.2692431607e-05 -1.434445781e-05 3.7781067514e-06 3.1132352434e-05 -0.047076984022 -0.012992842154 
0.0049867445015 0.0058643818763 0.0021961304835 0.00078600431538 0.0023522932118 0.0016258006369 -0.00081476294165 0.0012991684751 0.00085731280459 
0.00062228190339 0.00070713351253 0.00069420863426 0.00083108253087 0.00059268036399 0.00052897214559 0.0004020464523 0.00041427565507 0.0004092352997 
0.00027276689538 0.00027117429985 0.00028896695718 0.00021325284365 0.00028386527604 0.00025489717859 0.00021428070738 0.00022774856279 0.00028809619964 
0.00029765086867 0.00024092842297 0.00027507289861 0.00024173778141 0.00020367835053 0.00025046650028 0.00017313932626 0.00017377277712 0.0002071408534 
0.0001745598803 0.00017409176253 0.00016886272269 0.00015667342737 0.00011130720694 0.00017682179485 0.00015001760107 9.39582502e-05 0.00016696168765 
6.3021088885e-05 5.1190038088e-05 8.648294976e-05 2.3090234184e-05 4.9770543763e-05 -2.7942647069e-05 -4.0080191033e-05 1.5359027569e-05 -0.00014546328399 
5.0918580825e-05 -0.00012419439021 -8.4918569037e-05 0.00015762450995 -6.3691975429e-05 -0.00018945730755 0.00030179213616 -0.00019034539901 -0.00019166704205 
0.00035343783486 -0.00020977980716 -5.0719108783e-05 0.00021799113065 -0.00011161379386 2.517041201e-05 9.6294748825e-05 -8.6770017338e-06 4.4513540248e-05 
3.6224879311e-05 0.00012118324508 6.9468119131e-05 5.371871636e-05 0.00013189457342 0.00013391861737 0.00014029039613 0.0001928893672 0.00015878407342 
0.0001993971668 0.00021013143184 0.00018108268972 0.00021037654773 0.00022713618779 0.00019087491843 0.00020462956359 0.00020530525629 0.0001677505285 
0.00023120965408 0.00016837579616 0.00017855927914 0.00023531999768 0.00017303062574 0.00015315947597 0.00019013416465 0.00014229494011 0.00012603505238 
0.0001453376318 9.9764787522e-05 9.1895812803e-05 0.00011196889302 5.0242391621e-05 3.821086765e-05 5.5630709682e-05 9.536817905e-06 1.7948397242e-05 
1.6860616248e-05 -1.8794290765e-05 -1.8043868472e-06 6.981730103e-06 2.2590946164e-06 -1.3964280907e-05 1.8690436109e-05 -4.5356288523e-06 -2.3979470855e-05 
2.6000508634e-05 -1.4618156188e-05 -3.1945834607e-05 3.8426546679e-05 -4.4476798755e-05 -3.8403110575e-05 6.8471863162e-05 -4.7194479248e-05 1.7930577182e-07 
7.4932396e-05 -3.0082201626e-05 -1.8747972678e-05 8.3451979812e-05 -3.3403667364e-06 -1.6698319828e-05 2.4226297297e-06 -2.5946934277e-05 -1.6103022557e-05 
5.1485765313e-06 -2.706490962e-05 -9.4439056709e-06 3.9545052644e-05 -2.390732323e-05 -8.0416039536e-06 5.3333677658e-05 -2.5086307854e-05 -1.7048224533e-05 
2.8944419765e-05 6.1229924255e-06 -1.0521007872e-05 3.2128213566e-05 1.8174367434e-05 1.1299932017e-05 4.719556874e-06 2.6640736249e-05 2.449867839e-05 
6.4260755673e-06 5.2683525554e-05 4.7330244798e-05 3.2835010645e-05 9.2469385971e-05 7.4034025484e-05 6.0588264947e-05 9.4546765363e-05 9.418279516e-05 
0.00011119971092 0.00014570074869 0.00012243638718 0.00012038550494 0.00015546469855 0.00014380893699 0.0001582041825 0.00015424846116 0.00014469403207 
0.0001214504589 0.00016122280794 0.00012578239849 0.00014714240318 0.00013239785967 4.0839596306e-05 0.00016175824749 9.670086111e-05 0.00011193613126 
0.00014236141134 6.6563581353e-05 7.8143794493e-05 7.0550751647e-05 3.6253729359e-05 1.216067499e-05 5.3636423378e-06 1.4075121371e-05 -6.2659784469e-05 
1.0268918425e-05 -4.6619242594e-05 -3.8221502303e-05 0.00010110327133 -4.1620547136e-05 -9.1024650181e-05 0.00014973933311 -0.00013384545121 -0.0001135131595 
0.00018894284634 -9.9622803522e-05 -4.3734555472e-05 0.00017175199376 -0.00011880366367 -5.6994206596e-05 0.00015833999963 -0.00010140219749 -8.6504942532e-05 
9.951946325e-05 4.977247643e-05 -1.0454322027e-05 0.00011111530157 -4.6706483894e-05 1.5575212984e-05 4.8947156592e-05 2.8914930728e-05 4.5259648769e-05 
5.6454576283e-06 0.0001074319472 6.9716469881e-05 1.9120725768e-06 0.00011023245148 8.6202071317e-05 4.664320197e-05 0.00015282437826 9.2685488851e-05 
0.0001104054865 0.00017118393952 9.3142573325e-05 7.8666886064e-05 0.00018680952837 0.00011601461151 0.00011811488942 0.00021621639293 0.0001490761498 
0.0001509833873 0.0002032750806 0.00017977268717 0.00013960380311 0.00028226855564 0.00019130070396 0.0002169769704 0.00031548056946 0.00024632650336 
0.00011720754679 0.00044904980961 0.0003143672922 0.00015112189738 0.00051675573136 0.00049809536194 0.0003006074391 0.00090619720116 0.00089678893203 
0.00049542729586 0.0014302378118 0.0016409103417 0.00031353939921 0.0026153266712 0.0050467954279 0.00067957520198 0.0062631156418 -0.011359138554 
0.003262900872 0.0043494547259 0.080493343134 0.079857127379 0.072312342719 0.074630447913 0.038689517199 0.079179155854 0.081622245313 
0.061010531655 0.081575881336 0.086494063359 0.072532595067 0.085526147003 0.092121837693 0.07845292307 0.091374094991 0.090873654701 
0.084456421428 0.086170657716 0.096855499721 0.081060865558 0.099226188512 0.10209648186 0.090310779229 0.10243785186 0.10572346357 
0.092069210076 0.10353303269 0.10895695666 0.096114232889 0.10570776886 0.10315168409 0.099298545283 0.10045775207 0.10898805996 
0.093592823191 0.11168737241 0.11163263034 0.10365580568 0.11269692761 0.11247733777 0.10235655176 0.1116478212 0.11197390429 
0.1018327395 0.11045422254 0.1022445978 0.10124108934 0.11246050652 0.11322250947 0.089428836857 0.1140872688 0.10950771552 
0.086321906746 0.099832400486 0.10536833822 0.087467247507 0.10419776056 0.10120521924 0.094222146953 0.10137104842 0.098916215588 
0.090894525581 0.095146889054 0.08824637631 0.087553528381 0.098046528513 0.094301416236 0.075688658562 0.085360626259 0.089371255047 
0.074573241772 0.087794147618 0.081096629457 0.077640083661 0.082188446997 0.079573693983 0.071407293573 0.075262036629 0.07225300966 
0.061889529224 0.074653644894 0.075211610916 0.040231960579 0.023061384311 -0.006162257455 0.0084227619868 0.011874283404 -0.0014204740472 
0.0098223769685 0.0080904241683 -0.0043840481284 -0.0019116289264 0.0016591864774 -0.004676821103 0.0046631339737 0.0083918898038 -0.0014376366181 
0.0057965657041 0.0085755311453 -0.0027856426661 0.0075901842583 0.0076115395423 -0.0031690980739 0.0054901321961 0.0045409914644 -0.0040807351641 
0.0054929101845 0.0037664404574 0.0035995141701 0.032567114719 0.028369205143 0.022802925899 0.065385576231 0.033594552929 0.029273858446 
0.024433913645 0.040223516342 0.010246825978 0.014960515937 0.029306536455 0.0066500453569 0.012738945954 0.02046622804 0.0056083312233 
0.0074679095353 0.0044008970982 0.0063021464761 0.0055280878822 -0.004019021456 0.0069983620422 0.0042213492897 -0.0033183985632 0.008100159353 
0.004094617292 -0.0031221042461 0.00069295038489 -0.0014184590256 -0.0012364946961 0.0029688450474 0.0017523571821 -0.0019091775866 0.0052889252077 
0.0023380526532 -0.0025873704478 -0.0065654293968 0.022679320514 -0.0030876699148 0.0039768108956 -0.0063523793183 -0.00038392226047 0.0016872900242 
-0.00065452116425 0.0046403313594 0.0070693563719 -0.0011791892221 0.0015270141732 0.0051897388882 -0.0030574061934 0.0023858822818 0.0054246986327 
-0.003077392972 0.0036608660793 0.0044858450394 -0.003850865881 0.0072048757788 0.0068351439928 -0.0036062899081 0.01060378095 0.0062441852729 
-0.0028873797328 0.018788392223 0.0078013610646 0.0058602673432 0.010311909696 0.0019447001294 0.02115079364 0.025402288153 0.0053251735421 
0.018375260251 0.010029919628 0.02777794741 0.012664755253 0.016179161013 0.024824303284 0.0050996616467 0.0043125458403 0.01527292398 
0.0042484099255 0.0017909194171 0.00087130847221 0.0031189216102 0.0011175308261 -0.0029701101236 0.0066240192306 0.0043095306622 -0.0041698490487 
0.000937026186 -0.0017167764498 -0.0014045897527 0.00045055820996 -0.00020908299425 -0.0018189317427 -0.0019101360676 0.00053950893911 -0.00073950349068 
0.0024918383357 0.012759849321 -0.0014477471078 -0.009417975844 0.014206569411 -0.0047537616926 0.019649003556 -0.00023493135559 0.0089034585316 
-0.0010129640007 0.056978667782 -0.001047775716 0.034611455984 0.0081865536969 0.03449734252 -0.017963250798 -0.00073048982696 0.005307177835 
-0.0035639698574 0.0041365631583 0.040244444822 -0.010760655171 0.015480654835 -1.3340025293e-05 -0.0031142346508 0.0014592382541 -3.9783976138e-06 
-1.5038092621e-05 -3.61094903e-05 -3.1448274131e-05 2.8749800284e-05 -3.6024108431e-05 -1.6500567175e-05 6.4615272113e-05 -9.3876089742e-06 -9.6500949292e-06 
5.2864230838e-05 7.5813873726e-06 8.6505310751e-06 3.1885784516e-06 -3.0129906032e-05 3.070657954e-05 -7.8421985042e-06 -6.9448958983e-07 4.1000312851e-06 
-1.1319734139e-05 2.3287917551e-05 1.6247819627e-05 -2.4914825118e-05 2.2581801256e-05 5.1376152819e-05 -8.4502259402e-05 5.3473589657e-05 6.0323170036e-05 
-9.628964671e-05 4.0096276556e-05 4.1679448581e-05 -0.00010312461975 6.2691149805e-05 2.6455706649e-05 -9.6526076549e-05 3.6208466986e-05 7.2937552972e-05 
-0.00012776895506 4.7905475704e-05 3.369949363e-05 -9.1062137461e-05 5.3086516743e-05 4.4006914778e-05 -9.0935724073e-05 4.8560651174e-05 2.0131602413e-05 
-8.5086082637e-05 1.5382251901e-05 2.0312045832e-05 -7.9749597061e-05 5.002320383e-06 3.9163384297e-06 -2.9217308292e-05 2.3692897915e-05 -1.1381049624e-05 
-1.5797473136e-05 1.0443166094e-05 8.7077134825e-06 -8.5694648709e-07 -2.1187531988e-05 2.5941170947e-06 1.9726703201e-06 -1.8781509774e-05 -2.6210730998e-05 
3.8736246966e-05 -3.511423649e-05 -3.5107079923e-05 5.9059792709e-05 -2.4428112045e-05 -2.2631679702e-05 2.9949551103e-05 -3.9879797961e-05 -1.4345005057e-05 
3.8091931207e-05 -2.3590958061e-05 -1.388087274e-05 5.7332659267e-05 -2.9847883868e-05 0.0011427313766 -0.004098609927 0.027798635095 -6.6409323669e-05 
0.013574331086 0.0093055535098 0.0076897941939 0.0057505789461 0.011562582144 0.0049279527625 0.0039611483197 0.0074944085932 0.003243591201 
0.0027226023645 0.0048592961346 0.0024640577148 0.0021416211539 0.0034543546887 0.0018821013114 0.0017091706879 0.002641775206 0.001513272684 
0.0014909283465 0.0022466590586 0.0013991783558 0.0014172458727 0.0019946524709 0.0013270275236 0.0013370061635 0.0018940997676 0.0012063189475 
0.0011930466388 0.0017235965867 0.0010985987526 0.0011102323284 0.0015916327974 0.00092590819803 0.00094668014106 0.0014646327757 0.00076791558531 
0.00080193085603 0.0012530769643 0.00057904517236 0.00060381671642 0.00099924036657 0.00033181186474 0.00028131267788 0.0005616241838 1.3045098832e-05 
1.3508598961e-05 8.1960625428e-05 8.8763287244e-06 -8.5285000726e-05 6.45414514e-05 -2.0003588381e-05 -9.1617647409e-05 -5.1240487581e-05 -7.8811205265e-05 
-8.4555490704e-05 8.3663567172e-05 -6.8648786508e-05 -0.00017747499045 0.0002675539165 -0.00015396815216 -8.8064222008e-06 0.00019354283323 -0.00019985384028 
8.2434918627e-05 3.3457708593e-05 -0.00012272012475 -2.0387165166e-05 5.5574375066e-06 4.9520767917e-05 0.00025141839851 8.8143005724e-05 0.00049465931861 
0.0005494213116 0.00049639081977 0.00070217525657 0.00072291814804 0.00097191802258 0.00086061766819 0.00086421108532 0.0011948524977 0.00095924032021 
0.00096151974429 0.0013196204856 0.0010107557538 0.00095937405469 0.0013926322675 0.00097384210896 0.00090072422194 0.0013820724429 0.00087517439005 
0.00079123079808 0.0012727906474 0.00075724639739 0.00065712025941 0.0011064978908 0.00055793681979 0.00046198239105 0.00086751124894 0.00036195282345 
0.00026164603877 0.00058928683608 0.00014086600961 7.3982965281e-05 0.00029331727955 -3.5124875675e-06 -5.6909804775e-06 2.5713573781e-05 -9.8978114728e-06 
-2.1205673294e-05 3.1780180406e-05 -1.3438970857e-05 -2.7338039999e-05 5.702136498e-05 -1.9530475749e-05 -3.3061634321e-05 7.4029812695e-05 -3.7092668163e-05 
-5.1892055132e-05 5.6609275892e-05 -4.391238454e-05 -2.6282290685e-05 3.9235632464e-05 -4.6622215089e-05 1.0499920306e-05 1.1028690812e-05 4.704511226e-05 
0.018132381496 0.039473996091 0.014856895149 0.022615528934 0.013623382439 0.018943496816 -9.0839509987e-06 1.6360688717e-06 -7.7533723418e-06 
-1.3585522426e-05 3.5651373565e-05 -3.2808412012e-05 -1.9804233424e-05 2.0319920134e-05 -2.8324479138e-05 -7.6176974558e-06 3.221204137e-05 -1.9793941604e-05 
-3.380325868e-06 4.1587237855e-05 -1.6469368991e-06 4.0327561262e-06 2.3129003659e-05 3.4517179037e-05 9.7267525425e-05 9.7590444786e-06 0.00016691592305 
0.00022938508161 0.00019764383214 0.00030705995136 0.00038979583202 0.00039842493952 0.00044656902326 0.00052323183455 0.00058411632826 0.00055463517561 
0.00060792494208 0.00074797192514 0.000639959418 0.00067632651032 0.00087907670737 0.00069873918672 0.00071053485987 0.00096482387804 0.00071961182192 
0.00074563466945 0.0010123940249 0.00067553866225 0.00065655412936 0.001008088607 0.00054490819929 0.00052481737569 0.00088396637966 0.00037975478879 
0.00032366742921 0.00066435154271 0.00013778314275 1.0857799056e-05 0.00024698567257 1.5429001114e-05 -3.1452287999e-05 6.2470731059e-05 -1.5649352494e-05 
-8.4119300722e-05 5.8062096127e-05 -6.5257215339e-05 -7.0309440807e-05 6.1187678109e-05 -3.8614826724e-05 -0.00012185926856 0.00016326383621 -6.4694988196e-05 
-9.4218486568e-05 0.00018646802822 -9.6771481238e-05 -2.856052045e-05 0.00011209947105 -0.00011586769029 -7.541168782e-05 9.738618545e-05 -5.1728989031e-05 
-7.7741955589e-06 0.00012299555179 1.491252242e-05 -2.6447820595e-05 5.4808343754e-05 1.2620560273e-06 3.0352519585e-05 -6.3963154229e-05 0.00020839496034 
0.00026627187836 0.00021889279862 0.00046616366066 0.00045845601525 0.00047973061924 0.00060844895142 0.00058994345686 0.00071707831662 0.00071479937511 
0.0006837238269 0.00095714070692 0.00081952349249 0.00081497537682 0.0011138545482 0.00097710198943 0.000960350083 0.0012500796839 0.0010831792806 
0.0010697233305 0.0014034631012 0.0012331450409 0.0012616598333 0.001577515329 0.0014062873046 0.0015490385957 0.0018719538282 0.0017683792246 
0.0020674137376 0.00226269908 0.0022947114137 0.0028012014894 0.0028049103437 0.0033006937392 0.0042465573132 0.0039360543688 0.0051016466538 
0.0068894751523 0.0065757126476 0.0083103814847 0.013020186077 0.020600539712 0.01162255254 0.043785613596 -0.00073893898476 -0.0016801572474 
0.054262297376 0.053966347914 0.06255845939 0.062920212417 0.050426087973 0.070653626702 0.06977398391 0.060815114147 0.076291868732 
0.077189415253 0.068858399888 0.080089762866 0.080322315851 0.07507781161 0.08511698464 0.085118037953 0.080369862707 0.088628359454 
0.08733987346 0.082602089171 0.09050636244 0.090968609497 0.085373944078 0.093699215583 0.093209155976 0.088192078071 0.094155542042 
0.092653838952 0.09026274334 0.093596897338 0.095388067174 0.09218998357 0.096146005646 0.096060173841 0.092680730419 0.095994767949 
0.096030545943 0.092386201757 0.096360478 0.097028144397 0.091900158866 0.09421943693 0.090056567343 0.091877973145 0.093523996613 
0.089956245523 0.09131953861 0.088897309837 0.089610212334 0.089235083436 0.090230233328 0.089896868357 0.086457897814 0.08559573339 
0.086891086354 0.083637918694 0.083557806003 0.086879975077 0.080529436607 0.080091433841 0.075069638991 0.078122945461 0.071524135604 
0.072253715257 0.074055929212 0.070542627175 0.070627402442 0.068313972957 0.062388380653 0.062110817568 0.061107323067 0.052491149099 
0.054334798932 0.050598137191 -0.00037442960322 0.0011031114675 -0.00034450066549 0.032389017939 0.0081320986792 -0.0023728025668 0.00041660637543 
0.00015269384988 -0.0010666808621 -0.0025059104099 0.00031989211895 -0.0010564901468 -0.0018116754082 0.00046263146234 -0.00080913550216 -0.0005950527535 
0.00072246809128 0.00017692037665 -0.00087073253681 0.00092030864946 0.016039473667 0.0077210552714 0.013225124268 0.027778657977 0.027171856216 
0.028425733534 0.034954586823 0.030597936659 0.038192536017 -0.00060249742045 0.00017156075815 0.02464058918 0.031493486126 0.035653674205 
0.031582000647 0.026609678546 0.035367996611 -0.00050935035602 0.00084085261765 -0.0010893001791 -0.00048048519808 0.00035463724966 -0.0015057369256 
-0.0003782258672 0.00042383621083 -0.0017453061719 -0.00069930134412 0.00049305386188 -0.0012048718977 -0.00035305865126 0.00025837075023 0.0015777841218 
-6.4082444865e-05 -0.00044769583912 0.00094791398406 -0.00079175669953 -0.0013237185821 -0.0015363905655 0.00021019386677 0.013935887009 -0.0033867569882 
-0.00026422410765 0.00059432050745 -0.00014327866999 0.0014227040949 -0.00096034709912 -0.00064559148489 -0.00048537802549 -0.0021173537535 -0.00068184669057 
-0.0017383656698 0.0006318330903 -0.00060091912756 -0.0008111771084 0.00016063802212 0.00058064355318 -0.00017578955257 0.00031758020434 0.013516824394 
0.0093064253901 0.010963278187 0.028700948015 0.022921238671 0.023505628459 0.021976019071 0.029815762731 0.028302943274 0.0022986403248 
0.0094821413189 0.019457789 0.025023764765 0.028341726291 0.027611263558 0.015656812856 0.028174846108 -0.00035541092761 6.9770263527e-06 
-0.00090550168777 -0.00014874468575 6.4278001986e-05 -0.00096741483869 -0.0006733723761 0.00039862625849 -0.0018992353938 -0.00067341046943 0.00038448321868 
-0.0014103722121 -0.00049466919781 0.00029288981422 -0.00030105432481 0.00054452034661 -0.00010555900712 0.00094558502381 -0.0020043995007 -0.0011129415924 
-0.00084046605059 -4.9676200905e-05 0.010196536775 0.016501144036 0.027217300048 0.012190966954 -5.8024592075e-05 -0.0020746730644 0.00052610706451 
0.0011102213667 0.0053003413998 0.013023437543 0.021914888564 0.010014537222 0.027885046975 -0.00019049861012 0.00087734452233 1.8496819031e-05 
0.038663722785 0.005924378881 -0.0047728982169 -0.0010700984476 1.7263971943e-05 0.039012396963 0.041703561365 0.015136421045 -4.2003977244e-05 
-0.00033791863603 6.912379248e-05 -0.0010233947658 0.025529457963 -0.00043089480929 0.0030228047875 -0.008139555885 0.00923533928 0.0002657905737 
-9.1239782321e-06 0.02880788879 -3.1379326995e-05 -2.0944044953e-06 -1.8958077972e-05 -3.0079180769e-06 4.1013453391e-05 -9.7312612738e-06 -1.3446195914e-07 
2.1520362294e-05 -3.0222041342e-06 3.3344792892e-05 -1.8665361169e-05 -2.8777854143e-05 1.2706065598e-05 -7.1134950201e-06 1.3845600936e-05 2.8248474299e-05 
-2.2463154043e-06 1.3693463988e-05 4.0060879911e-05 -4.0406211338e-05 1.4525113862e-05 5.7453327079e-05 -7.4738626665e-05 4.0495507606e-05 6.478830278e-05 
-7.2328685903e-05 6.8425458812e-05 3.8075593563e-05 -6.8727234689e-05 4.4661128319e-05 5.5110816575e-05 -0.00011295159005 3.7206430521e-05 4.7822315184e-05 
-8.6640424942e-05 5.6650946213e-05 3.3195945627e-05 -5.92777382e-05 5.0813243027e-05 1.0931624947e-05 -6.0508641565e-05 4.179634912e-05 9.4230065563e-06 
-7.1784845675e-05 2.3753526004e-05 1.0020399774e-05 -4.4998662521e-05 1.874113421e-05 -1.1461596562e-06 -8.040985167e-06 1.6914950973e-05 -1.4011387838e-05 
6.8250163795e-06 -6.6652756531e-06 -1.3934589024e-05 -6.2692133605e-06 -1.6637561464e-05 -1.2115699136e-05 1.9297304986e-05 -1.7665326041e-05 -2.2642385403e-05 
3.6609438153e-05 -1.0856269928e-06 -1.5285433008e-05 2.5407474765e-05 -2.2480094793e-05 -6.2304671219e-06 1.0952077761e-05 -2.0730812296e-05 7.523097932e-06 
1.5562679563e-05 -3.9709710164e-07 -0.00054751044401 0.00067796528205 0.00020701169262 -0.00026399822088 -0.00012169097883 -0.00044024717255 0.024637473422 
0.019052649274 0.013335251001 0.011333473352 0.015171133357 0.012220727418 0.023330178008 0.010499984638 0.0084039303461 0.014979516253 
0.0073985182571 0.0062683746052 0.010440883944 0.0056081988789 0.0049695105704 0.0077845927701 0.0046430808559 0.0042160728103 0.0062834483647 
0.0039425641913 0.0038217891974 0.0054540586206 0.0036156975809 0.0035458383479 0.0049354314246 0.0033422180984 0.0033036179326 0.0045696596498 
0.0030534696471 0.0029972950703 0.0041581220625 0.0027207828574 0.0026353930251 0.003792065165 0.0023137502161 0.0022137064861 0.0033603115743 
0.0018466406463 0.0017458684521 0.0027876617063 0.0013124686095 0.0011417428578 0.0020825861625 0.00058242639334 0.00026247793318 0.0010437784697 
5.7935201615e-05 4.6079629718e-05 3.7217056433e-05 1.4237509765e-05 -9.1145861668e-05 -6.8507901583e-05 6.091661055e-05 -0.00013928966557 -0.00021496296915 
4.055492327e-05 -8.3011240676e-05 0.0001438458235 -8.7406117097e-05 6.0905929414e-05 -6.9494610072e-05 -0.00017333281975 0.00019379999635 -1.7884646118e-05 
-0.00020458391915 6.5833148101e-05 -9.1839797764e-05 -7.5035988487e-06 0.00018907652881 4.3252858847e-05 0.0007522805069 0.0010823066845 0.00059568286565 
0.0014648876076 0.0015527405012 0.001709255685 0.00186255279 0.0019521511668 0.002357244742 0.0021897382055 0.0022248476032 0.0027781798278 
0.0023653329203 0.0023476345592 0.003013738752 0.0024021457241 0.0023121672169 0.003130844738 0.0022572207383 0.0021009529938 0.0030203117976 
0.0019682558281 0.0017686823429 0.0026824476102 0.0015961971222 0.0013316196395 0.0022032436222 0.0011066874124 0.00083861154811 0.0016005913657 
0.00058981858478 0.00035379431403 0.00095093843096 0.00010795913933 -8.7722372445e-06 0.00031458171735 4.0538119526e-06 -1.3173763422e-05 -3.8940963723e-06 
-3.7810362093e-08 -1.6694321263e-05 3.4618529567e-05 -5.283072998e-06 -2.9906496496e-05 4.5101874074e-05 -2.2099524101e-06 -3.9501746084e-05 5.1879897687e-05 
-4.7007051069e-06 6.6312196613e-06 5.0189266232e-05 -5.8526594378e-06 -2.7278772433e-05 -0.0004476830585 -0.00034838732944 -1.4697587586e-05 -1.2184333022e-05 
1.4954828026e-05 -1.421445449e-05 -1.8819702572e-06 -2.2325075891e-05 4.3223534844e-06 2.7939342901e-05 -1.6979125799e-05 7.7255702039e-06 2.2956858098e-05 
-1.2490692975e-05 8.5465888531e-05 1.150328305e-05 0.00025580801982 0.00043029133041 0.00024567974721 0.00061398997172 0.00081576388081 0.00072133119774 
0.00098393026644 0.0011536468359 0.0012044717453 0.0012730408874 0.0014209407082 0.0016036482587 0.0015080214541 0.0016215886684 0.0019402104663 
0.001674543602 0.0017693712864 0.0022093789832 0.0017605492485 0.0018071355267 0.0023296697688 0.0017542923172 0.0017318448122 0.0023430930661 
0.0015379811075 0.0014326132526 0.0021797829495 0.0011808980954 0.0010048928171 0.0017446871921 0.00065903778226 0.00034333990228 0.0010786280312 
2.3123398959e-05 -2.9294541618e-05 2.2740983228e-05 3.5056640132e-05 -3.8907213986e-05 1.5117219443e-05 1.8206384988e-05 -8.3270639344e-05 3.6868553047e-07 
-1.0402041461e-05 -9.1936218293e-05 2.4135422139e-05 -3.7237664661e-05 -7.3487700818e-05 5.4879028243e-05 -5.6218820072e-05 -2.1538031165e-05 6.2488999288e-05 
-0.00010176929666 1.5192188946e-05 2.6063769072e-05 -4.621507508e-05 3.1302563756e-05 3.8861616863e-05 -8.4357757447e-06 -2.6539910144e-06 5.3056845183e-05 
-7.236608521e-06 -1.2615964481e-05 3.9841623225e-05 0.00038219260718 0.00062230423269 0.00034905171531 0.0010289017043 0.0011848474093 0.0011811581032 
0.001485240769 0.0015740917997 0.0017268347893 0.001841283802 0.0018937838469 0.0022779795447 0.0021258080239 0.002218415634 0.0027760674765 
0.0024513182677 0.0025330242045 0.0031576554863 0.0027505822201 0.0028745812025 0.0034567229964 0.0031204180346 0.0033196656361 0.0039033135372 
0.0035857017254 0.0040138754449 0.0046489784156 0.0044179802575 0.005062567224 0.0056764088965 0.0057044117939 0.0067698598566 0.0072362106439 
0.0076169777793 0.0094679684807 0.0096296617047 0.0098599587458 0.012840685874 0.012469354476 0.033855618097 0.040017782989 0.028450093234 
0.0077114335674 0.0062234050731 0.00029915988789 -0.00018388047719 -0.00016688092378 0.048614149773 0.054092668207 0.036359989421 0.058964052289 
0.063169157081 0.049678016414 0.065619196263 0.067744403688 0.057564620939 0.070673417326 0.072467030332 0.063116914434 0.074686850483 
0.07602620076 0.067282872769 0.077729547751 0.07892123676 0.070554371189 0.079986715191 0.081786526738 0.073245514156 0.082256723937 
0.08231862511 0.075240951603 0.082586219737 0.083619041507 0.076483145104 0.083403577949 0.084210046416 0.076985509879 0.084305608571 
0.084139944735 0.077185771295 0.084353044426 0.084179948115 0.07718446628 0.084217346952 0.083903761973 0.077394573582 0.082976836875 
0.082192855696 0.077243227283 0.081648072962 0.079938936601 0.075848857993 0.079117709504 0.078061339644 0.073562883875 0.077102223804 
0.075378135366 0.070898239277 0.0736797693 0.072137677206 0.067739759198 0.070261495816 0.06858101704 0.064173655341 0.065581746786 
0.063392618266 0.060370713535 0.060659431451 0.058520134938 0.055675818926 0.056061880648 0.0504284106 0.049984994541 0.042565776856 
0.035282124853 0.00063317606238 0.00069811637858 -0.00051570829868 -0.00044563598211 -0.00020800043294 0.00017052407497 0.00032530052478 -1.2892502415e-05 
3.206970483e-05 0.0083971271186 0.0027662539984 0.0059768323228 0.020541511845 0.013528590062 0.015457557004 0.031901527312 0.026194114444 
0.026311952841 0.032166977768 0.035887903128 0.032893689933 0.00018899816008 -0.00028852291911 0.00040219206967 -0.00079273395842 -0.0002812268844 
0.0002276159166 -7.5276482114e-06 0.0018798116308 0.0073177492734 0.0046788942785 3.6221171486e-05 0.00026351905252 -6.7962777613e-05 0.00078940736811 
0.00023965890751 -0.0004453754315 0.0011876358874 -0.00024754780499 -0.00062946173443 -0.0012875221168 0.0012572292939 0.013565561325 0.032416722445 
0.027500669615 0.012583682161 0.00349383517 0.014380441886 0.0064589990084 0.0017525389289 0.0041411723599 0.00014278304914 -0.00025497165399 
9.4640909611e-05 0.016391997152 0.01070353963 0.011445719034 0.024169852204 0.020668724458 0.019611755881 0.019627493029 0.025980082251 
0.021719780285 0.002937098047 -0.001549309718 -0.0012786676263 0.0011157310413 2.5934553671e-05 -0.00059176082946 -2.6104112259e-05 -7.856156607e-06 
-0.00042596050017 0.00013511639045 0.0017486893016 0.00635867809 -0.00025768808893 0.00026179223663 -6.6787313334e-05 0.00056376366828 0.00038107973966 
-0.00015062914607 -0.00022576202211 0.00012850588084 0.00066513418843 4.4305397668e-05 0.00026283644899 0.00015929459868 -3.9010605088e-05 0.00017277291971 
0.010051831696 0.0038879529731 0.024605506727 0.030285874423 2.935848155e-05 -0.00024429500008 -0.00026397938284 1.6008402648e-05 0.02287765437 
-0.0012755528462 0.0089610968186 0.038783617597 0.012324402191 8.3747018009e-05 -0.00013843661859 -0.0006746774701 -0.00020611595274 0.00028298206482 
-7.2466732117e-05 0.021389980707 0.016446342567 0.030804116608 -0.0003784201986 0.00027031140313 0.00078393013453 -0.0001914193003 0.0011140456052 
-0.0020634635468 0.00032993397361 0.00060055648445 0.0012245608481 0.01053079884 0.0065731558561 0.020482491963 0.013606782505 0.012131957738 
0.019131964742 0.01914081645 0.023290124703 -0.00031973955964 0.00058950090898 -0.00034908181621 0.00046944756514 0.011423271953 0.0098790866389 
0.015589869465 1.0414092973e-05 -0.00066733771323 0.0011493770206 -0.00012553362025 0.00041905727006 0.004790355876 0.033624731054 0.032218904391 
0.030387331854 0.025834216427 0.023528986192 0.018139368439 0.022126514247 -0.00020562009332 3.1933737128e-05 3.9687551924e-05 0.00041987046865 
-0.00030006265225 -2.0632787586e-05 7.0455583233e-06 1.3474122822e-05 -2.541742123e-05 1.5389079958e-05 -5.3496314438e-07 -3.5232485109e-05 4.3253047225e-05 
-6.76670064e-06 -2.3478722892e-06 2.6205431569e-05 1.7712719772e-05 5.5201822995e-06 3.2418884933e-05 -7.2654646871e-06 4.1751189129e-07 5.5445054278e-05 
-2.1980004787e-05 2.2072077233e-05 6.5435406736e-05 -2.8278568027e-05 4.6643491819e-05 3.4122907087e-05 -3.3664554452e-05 7.2935132154e-05 2.4745842546e-05 
-8.9053261045e-05 4.6758670664e-05 2.8551528181e-05 -0.00010342007111 4.1699401531e-05 4.4561443379e-05 -3.9757999133e-05 6.1260978647e-05 2.4710877086e-05 
-1.5712355114e-05 6.7603720928e-05 2.1667028615e-06 -5.3551220327e-05 3.3931859627e-05 3.8917648368e-06 -6.2402348841e-05 2.3728532133e-05 -2.15227743e-06 
-1.0787374594e-05 2.3195912757e-05 -1.3489944236e-05 1.4926915643e-05 5.3107757668e-06 -1.4909259729e-05 -5.2881977646e-06 -7.1004237258e-06 -7.527753399e-06 
4.8777777811e-06 -1.8533444444e-06 -2.3854713998e-05 3.0232052158e-05 -1.0933723528e-05 -2.4485632188e-05 3.2767515388e-05 5.2167639365e-06 -2.1311513115e-06 
1.0582495203e-05 -9.9986499088e-06 0.011283042439 0.0068347664651 0.00016423986857 -0.00021720584907 0.040911719751 0.031920998359 0.025563312378 
0.022309353224 0.018591617718 0.029595809892 0.016193709277 0.013758383952 0.021679134106 0.012324972948 0.010855708088 0.016387307314 
0.0099328965678 0.0090368381885 0.013113607739 0.0083835243383 0.0078604457987 0.011044070742 0.0074674259587 0.0071556455365 0.0096922842412 
0.0068462197247 0.0066623285414 0.0088502202072 0.0062912539233 0.0060902218535 0.0081365628837 0.0056461570222 0.0054129762372 0.0073424777014 
0.0049320767501 0.0045969923926 0.0065252167391 0.0040351264864 0.0036786114387 0.0055076939106 0.0030504065094 0.0026677944321 0.0043194410491 
0.0019097126018 0.0014175936679 0.0028165983106 0.00013596450986 3.1614905209e-05 9.0142290736e-05 -7.5892547751e-05 0.00033888689603 7.4280409109e-06 
7.9554965083e-05 0.00077742085598 0.0015911257858 0.00021845219653 0.0019496464676 0.0022753764653 0.002339360657 0.0026989342995 0.0029696458925 
0.003051518607 0.0033969860737 0.003608210831 0.003943016102 0.0039086574834 0.0040522480765 0.004663119038 0.0041953607238 0.0042032495115 
0.0050885430093 0.0041903379767 0.0039946836859 0.0051628131143 0.0038425927111 0.0034951147018 0.0048777135859 0.0031882432188 0.0027698327398 
0.0041740263618 0.0023548346817 0.0018546400942 0.0031782348321 0.0014101219653 0.00096053786786 0.0020501593878 0.00052146603581 0.00010129615905 
0.00092843312242 -7.4349249242e-07 -1.8913132266e-05 2.1691306115e-06 4.9304214092e-06 -1.2965193544e-05 3.1911080261e-05 3.4983374689e-06 -1.5498327977e-05 
4.1956168607e-05 1.2538645265e-06 -4.0410006196e-05 1.0202937642e-05 -2.1310409834e-05 -4.8085685416e-06 0.020986839159 0.017272800007 -1.6518707277e-05 
9.7820307442e-06 1.4142049661e-06 -1.9596699623e-05 1.0236182583e-05 1.4806002665e-05 0.00012307359256 0.00044441272404 -1.5318966709e-06 0.00078251953416 
0.0011516530017 0.00077874970108 0.0014757253192 0.0018198218392 0.0016458605982 0.0021054054212 0.0023897356595 0.0024506456423 0.0026309670475 
0.0028731029455 0.0031497775257 0.0030152794908 0.0031904831073 0.0037028306807 0.0031900902845 0.0032578134437 0.003983088707 0.0032046309509 
0.0031881870652 0.0040074615017 0.0030685119933 0.0028714072376 0.0038879117701 0.00253565687 0.0022364471524 0.0034517292482 0.0017078081919 
0.0012361772299 0.0024751190687 0.00054262805458 -2.9779402658e-05 0.00099449146458 7.0633891491e-05 -7.7635822547e-05 -5.6900774114e-05 6.9418781663e-05 
-4.7727287179e-05 -1.1695707408e-05 5.7869311381e-05 -0.00015420194596 -8.4633584117e-06 -1.7393169014e-05 5.2943595589e-05 -7.0517879509e-05 8.3293342094e-05 
-6.2805163768e-06 5.8936634622e-05 -2.1837641142e-05 3.8491031181e-06 5.5140031687e-05 4.407689978e-05 0.00043626017494 0.0010058535654 0.00022080851209 
0.0015541331583 0.0019506148897 0.0017432632259 0.0025118795746 0.0028755535595 0.0028637924284 0.0033201609049 0.0036283082442 0.0039138924801 
0.0039743010742 0.0042437718379 0.0047714064403 0.0045994957655 0.0048212261355 0.0055875218727 0.0052104071919 0.0054426815361 0.0063407855878 
0.0058911081495 0.0063091526943 0.0071767920109 0.0068358416161 0.0075163539728 0.0083643226045 0.0081461386467 0.0092142855703 0.010029404956 
0.010085284342 0.011752492686 0.012363747303 0.013120405414 0.015557519433 0.015925578209 0.018158525903 0.020529230018 0.021295584421 
-0.0007039744424 0.012434340065 0.012794064959 0.00080400687634 0.00076677106445 0.0017121445384 0.0011836957755 0.002333256123 0.041042851428 
0.046449455858 0.04938095914 0.052072531054 0.042279424713 0.054937002911 0.057305271446 0.047729540182 0.059506640447 0.0612250704 
0.052358570525 0.063120768841 0.064520675733 0.056193020759 0.065853535915 0.067093707808 0.059285712389 0.06806587045 0.068900397954 
0.061591258424 0.069228044827 0.069563274869 0.062818823949 0.069606668153 0.069995910792 0.063183490724 0.069909888417 0.06993496724 
0.063234094356 0.069847128145 0.069874293066 0.063119659007 0.07011823894 0.070127384106 0.063177531744 0.070077706965 0.069548981854 
0.06327538621 0.068689060151 0.067741081175 0.062403017431 0.066782089438 0.065552536834 0.060661504613 0.064474983602 0.063215908822 
0.058676780531 0.061530515114 0.059760055742 0.056046150561 0.057950959819 0.0561517476 0.052637002317 0.053955756574 0.052058101931 
0.048838802583 0.049129090222 0.046771771586 0.044113513562 0.043080266996 0.0070720761144 0.01466530234 0.019991000531 0.014931321379 
0.015965201916 0.0045240431477 0.0017075172432 0.0091252940267 0.0011810383815 0.00093765519628 0.028110076951 0.024032725645 0.023585270068 
0.030351892045 0.03133369421 0.02865401844 0.014057767224 0.010202051365 0.0013001735663 0.003333364172 0.0035448731997 -0.0011769609013 
0.00040069957237 0.0052180077104 0.0091258282126 0.0069461941474 0.00085855365257 -0.00058102877436 0.01847637741 0.018908265627 0.016795015488 
0.015587351244 0.0078041480105 0.0046341179034 0.010622938692 -1.2177991198e-05 0.0035412983147 0.0018241383015 0.0063841304862 0.017103998143 
0.020137683821 0.017176892854 -3.6938369458e-05 0.02386677606 0.001353971671 0.0016373791656 0.0022778281346 0.0029137008514 0.0035748182161 
0.0029914220967 0.0046472214235 0.0050955485371 -0.00010834945186 0.011701491259 0.0091033033937 0.00077894967145 9.6916229699e-05 0.0043064130153 
0.0055888261086 0.0085654804725 0.0072997086524 2.5875436516e-05 0.00016984337676 -0.00052178590676 4.0918682142e-05 0.025219271616 -0.00016499458759 
0.00048973824437 -0.00014422331754 -0.00056665965502 0.00026842144885 0.0038270893529 0.0016826075696 0.0015642834301 4.0762924425e-06 0.011242958611 
0.010568589387 0.01414757991 -6.368875481e-05 0.00011421697066 6.501226524e-05 -9.7039632687e-05 0.00053414718385 0.00010685425028 0.034213452753 
-0.00012909838516 0.0003548744085 7.7187811014e-06 6.3234403382e-06 0.017323241089 0.015985504298 0.021236915966 0.0020200916325 0.013852849736 
0.018899422202 0.014418981209 0.015083281998 0.010810476903 -2.6772248395e-05 1.2352413321e-05 0.00011374853279 0.00010714034075 -7.8838795984e-05 
6.9993192471e-05 0.038018382704 0.00065036915063 -0.00054664645999 0.021403148849 0.025422841318 0.032177368646 0.00031248639436 -0.00036543154227 
-0.00012541924809 0.0010489958032 -8.6043161311e-06 -8.7011259479e-05 0.025631778694 0.028429242039 0.028854496996 -0.00025336881935 0.00022851397832 
0.00047073601717 0.00062723323684 0.0019726110859 3.4744891043e-05 0.030287532713 0.027793616647 0.022621708601 0.028281625048 0.0019376228911 
0.0024606518012 0.0027967217881 0.0041268440313 0.0018829008246 0.0083353631856 0.012987892138 0.01245834963 0.017365893515 0.00079299470656 
0.00094444997029 0.016269718137 0.018541069053 0.01554589429 0.0016386158512 0.012408962355 -0.00010041119349 0.00010789378256 -8.441187856e-05 
-6.5355917872e-05 0.00034974074169 0.0012795600846 0.00042615130863 0.014409341461 0.019946626688 0.019268136324 0.017634818647 -1.0718645366e-05 
2.259008233e-05 -3.5940928395e-05 2.6027084974e-05 -1.4851087328e-05 -2.4592201909e-05 6.5048143359e-05 3.4884059189e-05 -3.8774870966e-05 3.4687181533e-05 
1.1155654471e-06 6.4944515059e-06 1.0246839847e-05 4.2702827949e-06 3.4112867681e-05 -0.0033525562285 0.03913149149 1.5126379746e-05 3.8631131022e-05 
-1.7434922744e-05 3.3016954386e-05 2.429916912e-05 -2.0428621504e-05 7.7731997934e-05 -4.1403104321e-06 -7.9220795932e-05 4.3365674234e-05 -3.215901483e-05 
-3.0800207767e-05 3.9370625808e-06 0.043852723315 0.037256863585 5.3087096522e-05 -1.4414670879e-05 -1.8035503973e-05 7.52879469e-05 -1.840326642e-05 
-4.3862459899e-05 3.5853854098e-05 -2.8028793513e-05 -1.2947941238e-05 1.981810347e-05 -1.3532726213e-05 1.4520000426e-05 1.5453698246e-05 -3.2917235733e-05 
2.2289566065e-05 7.8821079398e-06 -1.7215357514e-05 -3.1966503455e-05 2.108028375e-06 -2.4462724887e-05 2.4680891824e-05 3.7016526891e-06 -1.4714608549e-05 
3.195103238e-05 3.8125556044e-06 -1.9296685572e-05 -3.9211616136e-06 1.4336316095e-05 5.8016957095e-05 0.032711197855 0.018949060918 0.014284291008 
0.010377400863 0.029086160328 0.0251186971 0.036558183795 0.022221947216 0.019578736582 0.028309543563 0.017663830602 0.015963638202 
0.022271966799 0.014636032263 0.01347949874 0.018243577381 0.012763453538 0.012077853897 0.015744555149 0.011605658742 0.011226422453 
0.014284654742 0.010850938335 0.010495894543 0.013352326638 0.0098898082277 0.0093963767898 0.012312624019 0.008591847165 0.0079881740083 
0.010819136318 0.0071838756788 0.0063549043959 0.0090648649475 0.0053363519529 0.0045172393809 0.0069232504683 4.1846101121e-05 0.00283187522 
0.0033113767186 0.0050562764791 0.0055478094486 0.0058290809938 0.0061187836704 0.0065115951616 0.0063088417742 0.0062717344714 0.0072461179959 
0.006169514799 0.0057962698449 0.0073230131742 0.00538091016 0.0047381805674 0.0066400407509 0.0040938635283 0.0033233866334 0.0052154517016 
0.002588044879 0.001837840111 0.003491679789 0.001164592968 0.00049724669152 0.0017586762859 -2.2315600643e-05 -3.3040867994e-05 8.9900536806e-05 
-1.4425879915e-05 -7.6760662585e-06 -9.6191201446e-06 1.3090582836e-05 5.0364713638e-06 1.0433560623e-05 2.0197326173e-05 1.2259904777e-05 -2.5545152384e-05 
7.0147508189e-06 9.462880198e-06 0.016667761138 0.018460430254 -0.0001850534704 -1.0348847144e-05 6.6862993496e-06 -2.5646659543e-05 3.8347763903e-06 
1.1046950569e-05 0.00055420982994 0.0011099516062 0.00025862430446 0.0016424191037 0.0022148461295 0.0016151370776 0.0027026563506 0.0032155514503 
0.0028859893152 0.0037067996122 0.0041518216362 0.004119558223 0.0045415053196 0.0048596983457 0.0052427325649 0.0049772497454 0.0050547703146 
0.0058925662928 0.0048407932128 0.0048070438329 0.0058513485381 0.0048887831422 0.0047181401762 0.0057401408691 0.0044031801086 0.0039542051715 
0.0055159519855 0.0033482110792 0.0027461978242 0.00450694049 0.0017685389979 0.00082671381787 0.0025505504866 0.00016496584699 -0.00010915120673 
4.628836988e-05 0.020227593262 2.9887502131e-05 4.7280723758e-05 0.00021683728508 0.0011501336002 5.2052328976e-05 0.0021081241898 0.0027337488792 
0.0021335186684 0.0035228072032 0.0041741686729 0.0039539061322 0.0048826974512 0.0054705610452 0.0055268587274 0.006171616738 0.0066341468372 
0.0070293797918 0.0070882093751 0.0075431152735 0.0082845575473 0.0080949109462 0.0085511913709 0.0094369652355 0.0093545082128 0.0099411043354 
0.010875989552 0.010760193031 0.01165757055 0.012664982884 0.012516511572 0.013803258189 0.014734070891 0.015006641383 0.017001217273 
0.017488595405 0.01870382545 0.021493319762 0.021458534796 0.024200329913 0.027830980465 0.035055897257 0.027195798419 0.03742839804 
-0.00066360380211 3.8949707192e-05 -0.00038814893351 0.00029615779674 0.0016989848066 0.045166739457 0.047101955981 0.048977214532 0.050644819867 
0.042937885661 0.052096573305 0.05338314195 0.046116239216 0.054531956308 0.055470144137 0.048533173893 0.056088559764 0.056505230426 
0.05022459991 0.056349653802 0.056475200916 0.050775668991 0.056056887386 0.056158279607 0.050112235457 0.055807247343 0.05581487177 
0.049495903226 0.055732898356 0.055901039629 0.049077202199 0.056156874772 0.055975491107 0.049334975616 0.055969398701 0.055029575549 
0.049446011465 0.054388603871 0.053310269666 0.048734931884 0.05238034241 0.051266179402 0.047005703925 0.050325672406 0.0487742311 
0.045228995786 0.047274251804 0.045525000599 0.042895519022 0.043724356616 0.041702681681 0.03969800946 0.038844625796 0.027758670323 
0.027186723892 0.018451122559 0.014889029351 0.0016225162686 0.00077393236845 0.012236559921 0.0092281242871 0.014932239321 0.024545902914 
0.021496050344 0.020465967358 0.024882786444 0.014283243422 0.015454520549 0.0038929341755 0.0038539490932 0.0042608731191 0.0040402376104 
0.0018386288902 -6.7891479032e-05 0.00039865005761 0.029163289727 0.024656285018 0.021759049556 0.026788359119 0.011922427738 0.0096362310202 
0.015012974107 0.013496764664 0.012520725028 0.013501811481 0.004040757932 0.0053876939896 0.0090558896603 0.013256631406 0.011269621977 
0.0072010137908 0.0054560610604 0.0099619448747 0.0005725285852 -0.00024248258859 0.0079229644976 0.0094566094484 0.00018611478237 0.0046150151903 
0.0049844347711 8.1354505477e-06 0.00053049425615 -0.00032008830206 0.01842422189 0.016087481406 0.0023838699772 8.3936447052e-06 0.0025701778388 
0.0032981806705 0.010459937572 0.012401011852 0.010301829135 0.022811236992 0.0199056064 0.023131285523 -0.00030733273039 0.016823380526 
-4.9183661476e-05 8.1243564239e-05 0.007112075675 0.0069734236822 0.0093862712014 0.0087515815046 0.019116322802 0.01842123097 0.019784766759 
1.4048717104e-06 0.01724396091 0.017732489528 0.019854336426 6.0752308462e-05 0.00012991935551 0.00020160379099 2.0795252657e-06 0.023502927553 
0.02482892769 0.00068468049775 -0.00064024713196 0.0042197406726 0.042629740361 0.038690727179 0.040128719173 0.035229216577 0.0046441012372 
0.0038202411029 0.006488460442 0.028690741207 0.026587774239 0.025752586652 0.020354860354 -0.0002471918398 0.00032250061709 -0.0004836228033 
0.013639938601 0.014715351265 0.012786908507 0.0052169985901 7.4068378971e-06 0.011582232468 0.015006854869 0.011294296217 0.0069691632688 
0.0080009321697 0.0061012066437 0.0082155688424 0.0064303860478 -0.00020723708909 9.5039764383e-06 0.01770627219 0.020688052992 0.020775542446 
3.1298380135e-05 0.013395472975 0.015058187169 0.014503968482 -5.7769899644e-05 0.033453884406 0.00016340220907 -3.006713235e-05 0.000914031549 
0.00044246758598 0.0094522550649 0.0040983736982 0.001074713146 0.001398732977 -2.986677029e-05 2.2769233e-05 -9.156026049e-05 1.1511793562e-05 
3.6717786608e-05 -5.5759743487e-05 -3.363535844e-06 -2.5402848041e-05 0.045597405065 0.038895701687 -4.7133586802e-05 -6.4160463742e-05 4.4580422989e-05 
-5.5081214037e-05 -6.3891449676e-05 4.5283083377e-05 0.040298849849 0.043003156165 1.8018742862e-05 -0.00010137077203 -2.2858425656e-05 0.00014686275644 
-2.3805873202e-06 -9.5754679965e-05 0.044242414974 0.048575227056 0.04857839785 0.051641969403 -3.8784167727e-05 0.052905030449 0.045519374713 
0.00018460380398 -6.4379756091e-05 -1.2609147419e-05 7.7204533272e-05 -6.1502501081e-05 -5.8838149728e-05 2.9226532762e-05 -1.2996694792e-05 -3.5815261097e-05 
-8.4613015041e-05 0.037131802845 0.020509537237 4.2247391676e-05 5.551044661e-07 5.5724904079e-06 -4.1572326872e-05 -0.0050945571136 0.025499477577 
2.1563997983e-05 -1.7083981633e-05 5.0154466121e-07 1.7704124575e-05 0.010130869441 0.010864210291 0.013261321952 0.011332476536 0.0076412783585 
0.0087540173916 0.030788661413 0.022470285074 0.02040609652 0.018896978576 0.017693750538 0.022437968628 0.016887557753 0.016263194981 
0.019798113743 0.015828036231 0.015531518914 0.018516417151 0.013270286824 0.012241582992 0.013522137459 0.0068345128344 0.007659467674 
0.0088727370805 0.0087238619575 0.008166088914 0.0073284027093 0.0098174963211 0.0063431139269 0.0052202902778 0.0079200337586 0.004069493339 
0.0029155477305 0.0052369728744 0.0018563774117 0.00086863098237 0.0026432355286 -5.3892245482e-05 -3.1051671815e-05 0.00019521591152 -2.3103822514e-05 
5.1423625505e-06 -3.9404449535e-07 -4.456577405e-06 7.2051420049e-05 0.00011815356515 -0.00024430018687 -2.8913353486e-06 0.029515328905 0.0013162154507 
0.0021350260334 0.0028316715921 0.0036116078038 0.0027748847468 0.0042454701577 0.0049753253487 0.0044708103105 0.0057843513664 0.0064478082723 
0.0062072932979 0.0068850366395 0.0071492287318 0.0078064013713 0.0070460582227 0.0067459700442 0.0067974182298 0.023948055646 0.026467681173 
0.024984497714 0.0021961904114 0.00081516462763 0.012372560107 0.009073816916 0.0072937078121 0.014426328398 0.0023280272388 0.0032652675431 
0.0022908459733 0.004402457233 0.0053622226974 0.0047793075929 0.0061054529021 0.006977142461 0.0066760328921 0.0081830124702 0.0090651232188 
0.0088264208095 0.0099676620462 0.010573261774 0.011141671268 0.010901382426 0.011568486965 0.012501471865 0.014888390838 0.015894292681 
0.016934829004 0.018304118971 0.019178794653 0.019730672093 0.021836180153 0.022116868272 0.023806588771 0.02682364687 0.032337591001 
0.016015673343 0.01357081085 0.036766270643 0.038375635011 0.039995135144 0.041286211125 0.035076258234 0.042165928805 0.043215589638 
0.03753219532 0.043900567025 0.044678394046 0.039089854187 0.045342942169 0.045290019142 0.040444917541 0.043036848043 0.042841479125 
0.038857528676 0.0436479761 0.04352917334 0.037505776547 0.041021088814 0.041026467665 0.036182987434 0.043116173221 0.043271760761 
0.03564362664 0.042917044805 0.042706230795 0.037249077414 0.043721540234 0.042659340983 0.037812340647 0.040550281851 0.039511201737 
0.036240672419 0.039840732386 0.038902793424 0.03469372297 0.038221999031 0.03693521619 0.034378102343 0.035189714511 0.033549521996 
0.027856569624 0.031996679169 0.020306726633 0.024438725347 0.024476852128 0.034552880335 0.0050176299385 0.0059040230547 0.0056905226443 
0.0047550055389 0.0024479716775 0.0019900077974 0.0017221519383 0.0040904116595 -1.4765220303e-05 1.7617096467e-05 -1.5946123385e-05 -1.4526242844e-05 
-1.2845233994e-05 0.0086140411636 0.0079460604797 0.0083554718259 0.010062225687 6.9509220276e-06 0.0209170328 0.024798018988 0.027045450801 
0.015352433326 0.014728224887 0.022014369044 0.023228815798 -1.5793761864e-05 -9.7253578398e-06 0.00029312837607 1.0186092777e-05 1.4580282058e-05 
0.00027938717405 -0.0002620661994 0.024309904318 0.023287729764 0.017975883456 -0.00053158233451 2.2436931798e-05 0.00080055479631 0.0081321274975 
0.0064800202699 2.7439889586e-05 0.012341886052 0.00016491231032 0.00038955963353 -0.00042204712335 -0.00011293731291 0.026387792061 0.031411564367 
0.013798305807 0.016855939741 0.012943972123 0.026220546118 0.026511251782 0.021004124948 0.018429253688 0.016794224415 0.024569220442 
0.023181052786 0.020973420893 -7.4796148506e-05 0.00010354862464 0.016284996686 -0.00012745481749 0.0041400681004 0.011952588076 0.010897742422 
0.018280378951 0.02018619945 0.0030467568617 0.0090888354318 0.011211523167 0.010823684438 0.0088695327736 0.0076283202437 0.012114901591 
0.0066458308445 0.0062959059979 0.0028341530151 0.029621100498 0.026699124159 0.024119374194 0.021461020338 0.020710427637 0.023410184082 
0.024279703634 0.01976070728 0.022607647976 0.023042458095 0.019716040485 0.02377393549 0.027303755469 0.0098864767799 1.0334223249e-05 
0.016198089868 0.022371963195 0.023587790624 0.022696801256 0.020259813062 0.019973235307 0.022026987547 0.026424861711 0.0091351587037 
0.01011244753 0.030259580113 3.8958556844e-05 0.02652621655 0.023283025375 0.024827082668 0.011232480956 0.0089112542868 0.0074250483623 
0.0026531463937 0.0011188873874 2.3987188406e-05 -0.00014382877836 0.0003243612715 -2.209091463e-05 -4.6855364315e-06 -2.1025994681e-05 0.0016292163341 
0.0014899346351 -1.2561536428e-05 0.001125676797 0.038900902481 0.012585914008 0.028508376936 0.023968979823 0.022292369282 0.0052947952492 
0.0063692125984 0.0082468090732 0.0091049494856 0.0077639564198 0.0070206560737 0.0058809494127 0.0042418479788 0.004639033643 0.030032421319 
0.026168570445 0.023721058187 0.0093766559597 0.0077777065163 -2.5003633775e-05 1.3743254055e-05 0.010694887371 0.0075660312649 0.0085896582835 
0.0099926777401 0.012195638265 0.013385387805 0.027051147125 0.026426626742 0.025144427666 0.028206833272 0.02601621921 0.030257495875 
0.02374063212 0.018750433506 0.019761351033 0.032513642864 0.033395688244 0.011771003832 0.00027301695083 1.4266101117e-05 0.015343057631 
2.810695631e-05 -0.00028687604251 0.011783888715 0.011902371623 0.011078568454 0.00031195590398 0.0023508479777 6.2141581034e-05 0.0079642628115 
0.010377866571 0.015957977117 0.014694282527 0.015177636158 0.018396403172 0.030894589524 0.016506005523 0.0093608949143 8.4099124701e-05 
-4.0231708875e-05 -1.2336451138e-05 0.022257951703 0.021063751186 0.022942277809 0.02541805448 3.7405170698e-05 0.032804470059 0.0058018559283 
0.020812769741 0.022256792898 0.02569968299 0.014339024075 0.0045055596066 0.028922602676 0.031486951457 0.022804054647 0.016543262784 
0.026425991243 0.030206662231 0.030544982652 0.025152212834 0.026759082077 0.031587631415 0.019515700747 0.032978074229 0.033694167875 
0.029232464628 0.034264463751 0.035111319686 0.031190447087 0.03534193736 0.036572165691 0.031906078999 0.031352561385 0.027467647228 
0.030529039872 0.022365223941 0.024084279415 0.023172294229 0.0222556057 0.031173588843 0.032108968039 0.020133074036 0.0030899389696 
-5.4490360403e-05 6.2679546109e-05 0.0041881445763 0.023045185375 0.0033742650434 0.0052771883322 0.026366162583 0.024081921599 0.0026689995123 
0.027383823818 0.0022904022817 0.0044222323225 -7.6368269623e-05 0.023376356404 0.025129132098 0.034324819134 6.9984306818e-06 0.022703762094 
0.028973717915 0.02966539579 0.028953918376 0.0033667943176 0.026725387261 0.02881014859 0.028367899735 0.025590568046 0.00024693498816 
2.5236500189e-05 -4.7369803757e-05 -4.1910368314e-06 -1.0080359101e-05 -2.0858706839e-05 4.3469501158e-05 -1.573120577e-05 -2.739650396e-05 3.8322972498e-05 
-1.753950843e-05 -2.1219188286e-05 5.19544785e-05 1.2161371582e-05 -1.4557419362e-05 2.5402168351e-05 1.9435361577e-05 -1.7006827953e-05 3.9670306486e-06 
1.9116521996e-05 -1.3622667028e-05 -1.4794995307e-05 3.0279873955e-05 2.3813085625e-05 -4.4840892052e-05 2.2307579962e-05 1.9930112975e-05 -9.0046566114e-05 
1.8804067913e-05 6.8096970697e-06 -5.5159586386e-05 6.6107464555e-05 7.0747726337e-05 -0.0001089888366 8.365773683e-06 1.6437309189e-05 -0.00011638947004 
1.5522424066e-05 2.3355486032e-05 -5.3428820578e-05 2.0295251728e-05 2.9729742383e-05 -8.309117096e-05 -6.3183065792e-06 1.9609883001e-05 -4.3535834892e-05 
-1.1196340267e-05 1.3836740392e-05 -1.0444417258e-05 -9.2266179223e-06 8.2971476574e-06 8.9893474986e-07 -1.7025234262e-05 -1.9214897697e-05 1.670849675e-05 
-1.6191916086e-05 -3.4689486147e-06 5.2427243264e-05 -2.1143594034e-05 -6.266037086e-06 3.4892041056e-05 -3.9606539018e-05 -2.5166694347e-05 5.4252563718e-05 
7.6399691151e-06 -3.145970218e-05 5.8634085491e-05 2.4751276797e-05 0.033657638952 0.012980057821 0.015865896652 0.0022100587229 0.0027088677365 
0.010689260135 0.0012493193892 0.0017149790123 0.0020528237766 0.00069763908878 0.00098813490778 0.00076913429094 0.00050500602485 0.00060196651299 
0.00053439517159 0.00043226858931 0.00038860902666 0.0005060551665 0.00041672836549 0.00035504234997 0.0005103772087 0.00038886716176 0.00033244383626 
0.00042658174313 0.00032658868316 0.00029519900389 0.00036958714258 0.0003076517379 0.00022873089553 0.00038770756389 0.00029348550852 0.00020582630676 
0.00032827330079 0.0002330984497 0.00014022888361 0.00024038675412 0.00016272257576 5.4158407492e-05 0.0001098222564 2.0897038696e-05 3.21037614e-05 
6.6480906903e-07 -6.0735183491e-05 1.7071190966e-05 7.6998154269e-05 -9.2512481941e-05 -2.0245155227e-05 5.1985353863e-05 -0.00020428604366 -0.00021275757285 
0.00019982453305 -1.2762965023e-06 -9.1319022392e-05 0.0003184155534 2.1927109033e-05 -0.00011072273269 0.00014978990823 1.6329353617e-05 -8.1754377546e-05 
6.3230592817e-05 5.9899071561e-05 7.0666675907e-05 3.5223583444e-05 0.00019985967894 0.00020526949391 0.0001822229611 0.00022467024311 0.00025386740489 
0.00037236077317 0.00025734012564 0.00028021096627 0.00039716291991 0.00026725734931 0.00031282300678 0.00039324547174 0.00022192756514 0.00026381906178 
0.00037144393275 0.00018082851583 0.00020639072665 0.00032450184464 0.00014164678232 0.00014302937197 0.00023021382799 6.604389232e-05 8.8302835156e-05 
0.00016146962881 1.7160873907e-05 2.9904940108e-05 5.463964221e-05 -7.954306993e-06 -2.0225821472e-06 1.1570590077e-05 -1.4354833711e-05 -5.763719217e-06 
3.7465665816e-05 -2.797090974e-05 -9.4786658376e-06 5.8418397198e-05 -2.4292585312e-05 -7.5487381242e-06 7.5892662943e-05 -7.7333788074e-05 -6.5671251258e-05 
6.8672106542e-05 0.047904322439 -2.6197369414e-05 -1.8120821017e-05 -2.0315737571e-05 -2.0642782048e-05 4.5953745898e-05 -1.0844924468e-05 -1.6091575317e-05 
3.6003083713e-05 -5.5969573048e-06 -1.4188677997e-05 4.7021015173e-05 -4.613169691e-06 -1.5432010809e-05 3.8283453904e-05 1.5581206674e-05 1.2594836062e-05 
6.0050152006e-07 6.2295853145e-05 5.3934802887e-05 3.5596210566e-05 0.00010685182877 9.0206547835e-05 0.00011770002147 0.00015566579206 0.00012938384332 
0.00016577253906 0.00019099328568 0.00016833752272 0.00023526453902 0.00020726154505 0.0001911435422 0.00027870911764 0.00022284273327 0.00017034259163 
0.00030375912188 0.00016516488585 0.00016024568552 0.00028039026858 0.00013237634371 0.00012055032638 0.00022324592229 4.9505900848e-05 3.9021246399e-05 
0.00010866128158 -2.9809759057e-05 1.3966117139e-05 3.5635524262e-05 -5.5577133703e-05 -3.1138578842e-06 8.6746884265e-05 -0.00012648337092 -0.00011539000523 
0.0001383470105 -5.6516686676e-05 -6.1119945553e-05 0.00020275217315 -1.1987772265e-05 -5.7661559355e-05 0.00017186210836 -2.0926459705e-05 -7.2062080439e-05 
0.00010352695397 6.5031024335e-06 -7.6409516551e-05 0.00010398545444 1.7579869867e-05 -1.7861769244e-06 -3.8935470624e-05 8.9402054455e-05 0.0001015889866 
-2.0250581783e-05 0.0001749874056 0.00019621833462 8.250413284e-05 0.00020165908429 0.00024980549209 0.00022948067673 0.00023585594649 0.0002703393027 
0.00032986384316 0.00028424978392 0.00033854517244 0.00033932777143 0.00034766444727 0.00035913971678 0.00038528336434 0.00047009609783 0.00044956811337 
0.00049118887872 0.00062161549806 0.00054324891817 0.00069393436585 0.0011166354612 0.00090222349055 0.00084178945344 0.0020229111014 0.0017921235413 
0.0013546455577 0.0037924286703 0.0024353106802 0.0022063464033 0.0048165700383 0.004048282891 0.0014598331252 0.022197709135 0.065712843537 
0.053961116495 0.075085104686 0.083888934074 0.050835075137 0.078424503059 0.074475448378 0.07159692844 0.081747216529 0.076335265406 
0.077748562874 0.090550678867 0.082332865864 0.083359443764 0.093162221485 0.092340436331 0.085861142774 0.094964107299 0.090937798177 
0.09456310757 0.098817754686 0.093179137427 0.098018331989 0.10564459009 0.098249042189 0.10006065828 0.10538278507 0.1071530573 
0.097954519299 0.10371878604 0.10217383147 0.1049091599 0.10533499698 0.10376618244 0.1064070358 0.11253941192 0.10673470652 
0.10452226811 0.10116448891 0.1002894531 0.096117072414 0.094018485653 0.097595276748 0.091031511442 0.096098631085 0.10373591401 
0.094185107364 0.092179318085 0.096604164145 0.098377077594 0.098426248498 0.093592717625 0.094819245158 0.078622105716 0.084573604499 
0.080921702475 0.079412419127 0.086799595771 0.077614593263 0.07456606309 0.079282991888 0.077415757079 0.077667551298 0.0718499192 
0.069677717303 -0.0012486465343 0.013006303759 0.0073562391862 0.010155491694 -0.0002745437228 0.0084270593897 0.0046160480443 -0.002968998057 
0.010956276232 0.010878910966 -0.017703814685 0.0083817935884 0.0081738235726 -0.0030003391307 0.0080358932277 0.0086967748281 -0.0024800791573 
0.0080253516227 0.0063694375642 -0.0024722020244 0.010081690746 0.012318030264 -0.011058466976 0.0094789988417 0.022185753855 0.00054962690278 
0.0041933305621 0.01721281555 0.023794440625 0.010302385323 0.044922228014 0.029591458356 0.039329482036 0.023599390519 0.031201184577 
0.029054613704 0.021929405824 0.019163336966 0.008927955232 0.021390078483 0.010567912455 0.0050359540718 0.0071787118029 0.0085011473141 
0.0055016534143 -0.0028215964309 0.0077001204252 0.0061159992209 -0.0028969380577 0.0062402532594 0.0057686510809 -0.0016267280185 0.0087920574916 
0.01167430467 -0.0017727166091 0.010929897894 0.0083553041706 -0.017389035043 0.0085330368296 0.0079792732253 -0.010365470931 0.012829731018 
-0.0040163598541 -0.0032319059984 -0.0023981989949 0.011575433631 0.0066922238633 0.0097957097155 -0.0031928133622 0.0058083729844 0.0063846711902 
8.308362746e-05 0.005416819597 0.0039087782308 -1.7540280407e-05 0.0040052577874 0.003362714851 -0.0015310308333 0.003369220512 0.0018682405649 
-0.0023201881158 0.0029378627304 0.0037964962767 -0.0027172049533 0.0013664520413 0.0061967424369 -0.00021367711419 0.015315055391 0.028004319684 
0.015716412235 0.026948075112 0.030434993818 0.019795009636 0.038232385026 0.026825432335 0.034696737283 0.026298464193 0.022577218175 
0.018367616568 0.011518619753 0.009857423539 0.013901231607 0.0050128154104 -0.0040806739054 0.0038162228652 0.0067751030596 -0.014553085888 
0.0025340302087 0.0057552879315 -0.017354529394 0.006824883531 0.009875659319 -0.0018856805879 0.0068326194595 0.010079921205 -0.020715736434 
0.0070325767375 0.0068331375146 -0.017691794549 0.00030795282125 0.0030344644516 -0.00015402105885 0.0049385747919 -0.0041138671022 0.00077926045508 
-4.0695964926e-06 6.1513388578e-06 -2.970991764e-05 0.028180063607 0.026767817993 0.0093212433517 0.04330716687 -0.00074456404967 0.00054977979508 
0.0570589238 -0.0014882015409 0.00087971370124 -0.021043827547 -0.00073413698182 0.0028747701261 -0.0022036006955 0.036835083208 0.0025138758758 
0.012207541117 -0.013628202452 5.9890853596e-05 0.044476343151 -1.2632947465e-06 -4.5327581056e-05 1.0380044692e-05 -2.2722300399e-05 -2.4103283712e-05 
2.1427686511e-05 -1.2610234061e-05 -3.4726631733e-05 3.6098233471e-05 -2.9333171687e-05 1.9000455386e-06 3.1174411617e-05 -3.2537099125e-05 6.200376633e-05 
2.8088024652e-05 -2.3232941395e-05 5.3919202762e-05 1.1805769423e-05 3.1367916285e-05 -6.5463409798e-07 -8.7543063477e-05 7.13594606e-05 6.7121343316e-05 
-9.6419678342e-05 6.3132543434e-05 2.9150968717e-05 -9.4729507205e-05 -3.6289716626e-06 2.9282483856e-05 -8.3243587419e-05 1.0376748302e-05 4.752514736e-05 
-7.9159987813e-05 2.2289728542e-05 6.0419801857e-05 -6.1706961084e-05 -9.7064555316e-06 2.9011203786e-05 -1.7801873569e-05 -1.9111602557e-05 1.8653530966e-05 
8.6827701018e-06 -3.4755901217e-05 -1.6720738503e-05 2.5580260563e-06 -1.9659700079e-05 -6.1182663268e-06 3.2104477746e-05 -2.1857555206e-05 4.1742041409e-06 
2.2959070281e-05 -1.0889013069e-05 -2.8956817171e-05 3.1105343989e-05 0.00089393547069 -0.001634519103 0.0045713094364 0.0065761714059 0.0069676550408 
0.0099003028454 0.009773181216 0.015049677919 0.028587060151 0.020328729975 0.0031756178835 0.0039675955873 0.0061959959263 0.0024699962701 
0.0027417685665 0.0042379814016 0.002076960514 0.0022114044002 0.0033501637415 0.0019345866818 0.0020264287765 0.002993251646 0.0018227979837 
0.0017910501304 0.0027380474144 0.0015921384037 0.0016352565923 0.0024675614755 0.0013123834248 0.0013301156023 0.0021707924096 0.0010256422356 
0.0010954755897 0.0018163053481 0.00073072625612 0.00073054867413 0.0013832820713 0.00020812408317 0.00035411054709 0.00079223727815 -1.608252899e-05 
-8.7488774376e-06 2.162738683e-05 -7.4713000531e-05 6.6575634181e-06 -8.9866263024e-05 -0.00016547578755 -3.8051432735e-05 2.6581440816e-06 -1.4410511115e-05 
-7.4264892061e-05 0.00011534120436 0.00012127170988 -0.00018448681459 0.00013558399091 9.7178685067e-05 -0.00018059284796 2.6180772741e-05 0.00016503086762 
2.1683346649e-05 1.6504274391e-05 0.0008007702974 0.00062881066564 0.00051973051834 0.0011141386133 0.0010407202595 0.0013904203737 0.0013208751257 
0.001310348461 0.0018398655525 0.0013547174308 0.0014066466329 0.0020326699551 0.0012496765832 0.0013640122969 0.001988136254 0.0010343905892 
0.0011649028463 0.0017791958292 0.00076109606284 0.00089279564265 0.0014254274983 0.00042852125906 0.00059563295093 0.00098682302015 0.00012417745771 
0.00027369093928 0.00053432058927 -2.0379243681e-05 1.4400697248e-05 7.3453915319e-05 -3.6030572905e-05 -6.2090142593e-06 2.5939379417e-05 -5.0288208369e-05 
-1.2743584146e-05 3.6696928478e-05 -4.6836538915e-05 -9.2731457898e-06 5.5664066516e-05 -1.91226668e-05 -2.2765166306e-05 6.0689567147e-05 6.4387118644e-05 
0.04065168641 -5.860428529e-06 -2.9103940214e-05 -3.2488409278e-05 -2.0261184728e-05 -1.2203651868e-05 1.6735962663e-05 -2.1294680338e-05 1.3349197203e-05 
-3.2925078436e-06 9.5250954638e-06 -2.3714358426e-06 -3.9733393931e-05 4.1453736883e-05 1.4956580206e-05 -2.1209018521e-05 3.4256138862e-05 0.00020151186616 
7.7404172247e-05 2.3622501111e-05 0.00044769321277 0.00031144004664 0.00037912784209 0.00067183630842 0.00056368205485 0.00074231267341 0.0008680728275 
0.00077567773028 0.0010744442297 0.0009978340946 0.00090587044853 0.0013169657996 0.0010136727735 0.00098588048574 0.0014401843579 0.00091749170801 
0.00093007663455 0.0014450986448 0.00072131141206 0.00080986255088 0.0013097002213 0.00038001871062 0.00053284040018 0.00097991579791 -4.6525375978e-05 
7.0451461622e-05 0.00030052069219 -6.2061675343e-05 8.4864563629e-06 4.7500299449e-05 -4.801254401e-05 -4.1154067825e-05 -4.6702498013e-07 -0.00013846812608 
-9.5387771553e-05 9.8657762546e-05 -9.8910062097e-05 -6.4522905749e-05 0.00014199380259 2.4915784901e-05 -6.7977236077e-05 9.2947828399e-05 7.5225537533e-07 
-4.9714876414e-05 7.868379272e-05 3.8392869307e-05 -4.781391868e-05 3.5640162556e-05 0.00032625702827 0.00010489072549 -7.0403784905e-05 0.00077863722599 
0.00064763056381 0.00066600495783 0.0011123832886 0.0010645539186 0.0012795792988 0.0013953928063 0.0012905511353 0.0017766226651 0.0015344857961 
0.0015446086975 0.0021140584452 0.0018115945966 0.0017718073416 0.0024023017484 0.0023312225791 0.0020233962148 0.0027899173206 0.0031714469552 
0.0026345211226 0.0035796177033 0.0046051269574 0.0037216033042 0.0050378579148 0.0077089061559 0.0056455710846 0.0076579732469 0.012716375207 
0.0089426438947 0.012178627181 0.021004078139 0.014799881004 0.019044584214 0.00087710727981 -0.0014460474098 0.025161635682 -0.00052039552706 
0.063808584413 0.063519909861 0.05472660159 0.05217234628 0.05064746298 0.030622068259 0.03907170253 0.073507352842 0.072361699025 
0.062276778118 0.077944591186 0.078385112866 0.071762684347 0.083681175728 0.084169277869 0.077995376332 0.087041335806 0.088430808725 
0.080845573038 0.090590020159 0.090290684227 0.084192090066 0.091311566459 0.091736677869 0.087057766139 0.093623742673 0.094468068996 
0.088956237854 0.094410497628 0.094905864584 0.089483385821 0.093326591654 0.094345560985 0.088685499371 0.092061898319 0.091157743427 
0.088208392067 0.089268666773 0.088498525657 0.086530994062 0.087856186327 0.089455699289 0.084798675979 0.087793630306 0.086064306376 
0.083037670021 0.082520529314 0.083349134348 0.079197000506 0.076814267326 0.076505174183 0.07514181181 0.071014537333 0.072216591395 
0.070283409324 0.066077285172 0.066360745771 0.064753619637 0.053801866889 0.056289009385 0.055365861469 0.040257055077 -0.00043260418646 
-0.00081197923076 -2.0697706685e-05 -0.0004651591617 -0.00066298502435 0.0069175214092 0.019970234214 -0.0012085497553 2.9803932576e-05 -0.00051785053414 
-0.0037419906213 -0.0039062290129 -0.00019109053773 -0.0042929808837 -0.001407666029 0.00096665100259 -0.0019203874597 -0.0012980702176 0.0019466236922 
-0.0015413131611 0.00016973229998 0.001616613766 -0.0014464984876 -7.9900083206e-05 0.00077905221695 0.0057921223981 0.015212399362 0.012262360429 
0.026091202272 0.032968846802 0.027775514025 0.035936144051 0.036498492281 0.025945607062 0.037592453837 0.030596107948 0.024108790062 
0.016923202708 0.01045540144 0.02868767685 0.00098335302723 -0.00034662706178 0.01300876427 -0.0013751533832 -0.0010276792328 0.00018314746707 
-0.00088288602051 -0.0014917281886 0.0016436652123 -0.00034033255183 -0.0038373834469 0.0022219069411 -0.003068206214 -0.0060197397295 0.0014615932351 
-0.001488646725 -0.0028496335021 -0.00048423717292 -0.002297244249 0.00066304581748 0.00028982850467 -0.0022092856673 0.026281526456 0.0030673194003 
-0.0033719811387 0.0010515726113 -0.0023877428919 -0.00051564958509 0.0021940122436 -0.0012232699665 -0.00075926867773 0.0024629924646 -0.00076998700222 
-0.00052027319597 0.00033427495303 -0.00077350790594 -0.00058104591599 8.2806903216e-05 0.0031088039291 0.0076713323676 0.0048157638098 0.019845174221 
0.022175098803 0.018398864674 0.028734982916 0.025684207238 0.020846923782 0.027555280043 -0.0018713602072 -0.00012173915201 0.024571365872 
0.016661625754 0.012721913643 0.0020642321724 0.022292950384 -0.00033785245098 -0.0039690619557 0.0089222772741 -0.0029596908832 -0.0016896329134 
-0.00029314115191 0.000864160356 -0.002994557425 0.00077436809004 -0.0033841542952 -0.0055460762609 0.0012160170487 -0.0021760636116 -0.0077458447209 
0.00071904407872 -0.0039743407772 0.0042388261574 -8.0551379659e-05 0.0016035050261 0.0013332952729 -0.0012669355878 -9.5075630667e-06 -2.4845836747e-05 
2.7196810198e-05 0.030227391598 0.031685117447 0.036440429831 -0.0012413066123 -0.0014773338389 -0.00079298590186 0.025260439735 0.026671585076 
0.02942011032 -5.0098094428e-06 -6.9975137212e-05 -4.9242584301e-05 3.1223288357e-05 -0.0002252925412 0.0011891266425 -0.00091277554463 0.037624477731 
0.00032338262009 0.0082689887094 -0.0051052183769 0.00057407139084 -5.586309948e-05 0.0058465013318 0.00016896676495 3.8504869881e-05 0.022146319544 
-0.0068633149268 0.0083981077095 -0.0015414161065 8.9434367503e-05 0.0063639898747 0.010672283765 0.019618849593 1.1715897492e-05 -0.00049557257027 
0.00016037263649 0.00013353379905 1.0175791258e-05 -3.1194143752e-05 0.0010785405898 -0.0011365989297 2.7843127831e-05 -2.2065218933e-07 2.4364574439e-05 
4.5582961096e-05 5.3640934663e-05 1.9609947108e-06 -7.6193318598e-05 3.7891918865e-05 2.8150881693e-05 -4.0466481898e-06 4.5103874952e-05 -5.1219762163e-05 
-2.285813813e-06 6.6771318803e-05 -8.0360058478e-05 -5.2038916465e-06 2.3309921707e-05 -1.5841558216e-05 -5.8875008537e-06 1.803788011e-05 6.4117494131e-06 
-1.3350906892e-05 6.2324947107e-06 -1.4177379808e-05 -1.3696946425e-05 6.2160117382e-06 4.607548367e-06 -2.2247241764e-05 9.9905156644e-06 3.5121682592e-05 
-1.7037552512e-05 4.7571250865e-06 1.1467715488e-05 -0.00022605764364 0.00082468416933 0.014106165672 0.018129875915 1.5301686995e-05 -2.0858257693e-05 
1.391963576e-06 0.0097926990423 0.012425980806 0.017700430081 0.02056046486 0.027805365878 0.038045252746 0.024657457568 0.0057299093997 
0.0063851975864 0.0051152752152 0.0053742210707 0.0074106357563 0.0046288108403 0.0048802964776 0.0065406814641 0.0043113893409 0.0044120432479 
0.0060171010738 0.0037289626281 0.0039961484329 0.0054895734291 0.002996487566 0.0032677047594 0.0047349034976 0.0022199264247 0.0025114548603 
0.0037846768438 0.0013096277967 0.0016302314964 0.0027732431433 1.9469885186e-05 0.00054945717304 0.0014069641434 -3.2615009449e-05 6.2135319218e-05 
2.7065699373e-05 -0.00010663951365 0.00011780628114 0.00010814103172 0.00010053369941 0.00019072715245 -0.00026899839746 1.7056446971e-05 2.2342033747e-06 
6.7374144063e-05 0.0013275334873 0.00069352672655 0.00015025710522 0.0022093042309 0.001941367264 0.0021647078405 0.002840919834 0.0026221409773 
0.0032687462853 0.0031376868928 0.0030987223895 0.0038870221202 0.0031310067077 0.0032625531544 0.0041905508316 0.0027978923636 0.0030441088148 
0.0040996820533 0.0021385195713 0.0024891023379 0.0034997966046 0.0014028229154 0.0018062777236 0.0026378351767 0.00063894289057 0.0010111045678 
0.0016369095596 -9.5642976885e-06 0.00023294085907 0.00058692909637 -2.1504207717e-05 5.6905943921e-06 1.482436336e-06 -2.9081240596e-05 -3.9272179991e-06 
3.3657003889e-05 -4.4142192313e-05 -5.5003109551e-06 2.0176951846e-05 0.065828550753 0.062069253121 0.04187419425 0.034518747536 7.1358972784e-05 
1.2687731195e-06 -2.2914559904e-05 -7.3310855151e-05 5.9788821606e-06 -2.9785228713e-05 0.00017075096119 -2.14906603e-05 3.2185342421e-05 0.0069996322707 
0.0082272098631 0.012105091566 0.0088443745665 1.4450471801e-06 -2.2468321003e-05 -9.9953162922e-06 0.00096119629285 -0.00043668809802 -0.00046027778297 
0.00072669331445 0.0004310017684 0.00038967568175 0.0013120538712 0.00099837115939 0.0011322242023 0.0018325517322 0.0015658705197 0.0018808432518 
0.0021943265679 0.0020276358636 0.0025205739396 0.0024042975548 0.0022919077466 0.0029832133597 0.0023149810848 0.0023454359616 0.0031251102188 
0.0020049640671 0.002137005503 0.0029670984976 0.0014039286006 0.0016954258849 0.002504250812 0.00035033438237 0.00089625191427 0.0015892673352 
-3.0200331561e-05 2.4138753355e-05 3.1479151878e-05 -5.2657220133e-05 7.8028235871e-05 1.1376870267e-05 -3.3360983256e-05 -1.0229534253e-06 -5.0665871767e-05 
-4.9557368404e-05 -3.1729339779e-05 -6.5122919941e-05 9.0814576671e-06 -3.7337246239e-05 6.3199042365e-05 4.1367345182e-05 -5.8988967787e-05 -7.580793563e-06 
3.1374442735e-05 -4.313415946e-05 6.4358052961e-06 0.00038341513376 -8.6564554938e-06 -1.0107591825e-05 0.001571472592 0.0010422640478 0.00099515849828 
0.0025506079065 0.0021791027333 0.0024753746766 0.0032666014031 0.0029984110349 0.0036437706615 0.0038394450159 0.0036266400999 0.0045738132576 
0.0044374554917 0.0041929138072 0.0053406190892 0.0053081806947 0.004913368871 0.0062084737847 0.0068992630027 0.0058652113475 0.0075626055175 
0.009293483817 0.0076739141812 0.0096095615586 0.0137081521 0.010860107736 0.013454236715 0.011318840318 0.0097952999327 -0.00019312826653 
0.00070525933298 0.00046211703383 0.056726625088 0.050226659656 0.038733717301 0.052818805724 -0.00025503871356 0.00034840505302 -0.00043405888274 
0.0012251196205 6.0129663553e-05 -0.00015604651131 0.071060002057 0.068773064762 0.060767413415 0.074378510972 0.072821271757 0.065266435103 
0.076864195455 0.075569112436 0.0682797768 0.079116407429 0.078060374677 0.070461127835 0.08013917411 0.079877725812 0.072180260694 
0.080937823653 0.080683403566 0.073197948231 0.080587271285 0.080946901708 0.073535470234 0.079489241106 0.080182954033 0.073060737792 
0.07816302659 0.078641798937 0.071965045059 0.07627526627 0.077323816106 0.070725915221 0.073745361906 0.075177515496 0.068576537037 
0.069743902227 0.071822446138 0.065209589829 0.064586036829 0.067251070468 0.06081737204 0.060342627866 0.061869804441 0.055934885303 
0.054571933455 0.058619272226 0.051781339195 0.0082240932835 0.0064671805444 0.031327141188 0.034746579882 0.0001144211135 -0.00026123639904 
1.6939276111e-06 -3.1405725838e-05 1.5378986126e-05 3.4251289244e-05 -6.1485740493e-05 0.00032442198601 -0.0004640107329 -0.00075446839635 -4.9647849411e-05 
-0.00030517666788 -0.0006665325873 -0.00014987406432 9.5330348293e-05 -0.00046045993722 0.00027341983146 6.1389569335e-05 0.0022134693608 0.0072762496081 
0.0051735451887 0.01240158364 0.020113567739 0.014557258492 0.025571106562 0.031851315552 0.025268508282 0.031451035593 0.026092111223 
0.031902110584 4.7375766194e-05 6.8383525575e-05 -9.9731574524e-05 0.0035879013609 0.0028368175216 0.021163889121 0.012863607388 0.025541769937 
0.0076216381179 0.0018498317908 0.014509049243 -1.5405261372e-05 -0.00011145846037 0.0046990361015 8.6280805949e-05 -0.00060021730722 4.1310851299e-05 
9.6164920943e-05 -0.0012123951631 4.9491880054e-05 -7.1679430052e-05 -0.00062924505283 -0.00015950773249 0.023430769886 0.026213883117 -0.00056772472196 
0.0001136434611 0.00029660793122 -0.00030930385704 0.00017748508588 0.0002922179321 -0.00012462902052 0.0012654429639 0.0007069354151 0.0051723063481 
0.0111735788 0.0068254426684 0.016113329627 0.021607622844 0.015615463349 4.9507129562e-05 -4.6447517977e-05 -1.7566759302e-05 6.2029273629e-06 
6.4643940046e-06 -2.1820915722e-05 3.076447743e-05 3.5972463254e-06 0.015414541051 0.0085548409114 0.0052614950318 0.00037022833554 0.0110268422 
-0.00014623996049 -0.00026075098264 0.0036036670405 -2.5435533167e-06 -0.0010343292557 0.00018513797659 -0.000118707006 -0.001149688974 0.00033613351828 
-3.6288630569e-05 -9.9041914853e-06 -5.6521576232e-05 0.00029135410287 0.00085323559022 -0.00063893489751 0.017228800908 0.028572238539 0.024646055335 
0.019703621705 0.020195975982 0.024475712545 0.00063849418507 -0.0043698411213 0.0041504597005 0.027888937081 0.024466037059 -3.1319411383e-05 
-8.0512603183e-05 0.03262866414 0.035449318196 0.034367103332 0.00040657511596 0.026315232253 -0.00086146128111 0.00020872642807 0.00010226383209 
2.8094992438e-06 1.6576229027e-05 -0.0003260549255 0.00012772932628 -0.00017564414569 -5.0705407029e-05 7.904068683e-07 4.0916126035e-05 5.2840613216e-05 
0.011094893748 0.0039936774266 0.018881569394 0.022087408209 5.345165116e-05 -0.0028135313031 0.019383718716 -0.00068471720946 0.00077760088737 
0.012493612106 0.0083898497343 0.043227430186 0.049020513961 0.045075469608 0.03495489411 5.2193787208e-05 -9.814808279e-05 0.00030015789271 
0.032018241048 0.020540056925 0.017341878919 0.02954843494 0.01252630666 0.0055503032734 0.00051717664161 -0.00016747914586 -0.00052042408779 
0.00077393206157 -0.00064088602708 0.02242626124 0.025072836066 0.023109412498 0.024489369547 0.0025263280665 -0.00080342200623 -3.0850612949e-05 
0.00071338522873 0.00021479242205 4.1232142302e-05 7.1625273319e-05 -1.9023143862e-05 6.154263064e-05 -4.6284242432e-06 3.2156410617e-05 -8.0561961974e-05 
-8.7144492589e-05 -2.1020515024e-05 2.2701369474e-05 -1.615779223e-05 1.6884529803e-05 2.6804396741e-05 -2.9413975615e-05 1.1538383595e-05 -5.4290731416e-06 
-1.0840737683e-05 7.4394619961e-06 3.7764224841e-05 -1.9359734898e-05 1.2660600223e-05 3.1264657169e-05 -5.7378622872e-06 0.00016839378013 2.5234124518e-05 
-2.2156463212e-05 7.7864560334e-05 -3.3941525242e-05 2.6113891478e-05 0.00067051074219 3.1634078639e-05 3.1872400187e-05 1.7207306239e-05 0.0083981069986 
0.0086898722104 0.0099589249891 0.010826087474 0.0077878923449 0.0080951328382 0.010455538732 0.0064341700482 0.0071223135512 0.009382441844 
0.0047781022459 0.0054547687285 0.0075184909692 0.0031946175942 0.0038850759024 0.0054891245007 0.001605030485 0.0022868670062 0.0036998783336 
-5.348960984e-05 0.00048150203842 0.0017645679117 -0.00011239730009 0.0039871440829 0.0035623201599 0.0050526000289 0.0046282835267 0.005299881172 
0.0055099026074 0.0053567247474 0.0063836363846 0.0052807989377 0.0055064879392 0.0067263416202 0.004380819042 0.0049567757459 0.0062856536211 
0.0030522883986 0.0037557213752 0.0050666158534 0.0016482922495 0.0023538749751 0.0033376231673 0.00024752742492 0.00091064091454 0.0015573992329 
-1.7900690047e-05 -7.275159983e-06 3.4611107193e-05 -1.8463614154e-05 -2.4710964481e-06 4.1957677462e-05 3.6154634754e-06 1.4395301781e-06 1.9587422738e-06 
0.058894034742 0.057232601794 0.023313975544 0.027790355449 0.0016877481004 0.001166643353 0.0011600993342 1.4981251752e-05 -2.3360804217e-05 
-2.8549203797e-06 0.0026909615007 0.0021821960773 0.0023655394718 0.0035395610905 0.0031281948641 0.0035693783948 0.0041044805892 0.0038398740189 
0.0045601377681 0.004233048062 0.0042045650926 0.0051514367924 0.0038832730211 0.0040622865564 0.0051591605704 0.0031045196408 0.0034811911474 
0.0046141657038 0.0018436150295 0.0024523621103 0.0035707610185 -7.1769130916e-06 0.00086088570664 0.0019276788306 -0.00014133744253 5.3288484891e-05 
8.6200096759e-05 -6.7292322251e-05 0.0002282687769 -4.6801216687e-05 0.00018063485559 -4.3995933883e-05 2.5384120195e-05 0.00011460287492 -2.8976739225e-05 
0.00010143522485 2.0203836051e-05 -5.4472258549e-05 8.2613030849e-05 2.6257763429e-05 1.7189517202e-05 0.0021216702058 0.0011255023392 0.00065011139585 
0.0040481657005 0.0032301159893 0.0034195369216 0.0056282022766 0.0049994712578 0.0057725145347 0.0068749709026 0.0063575383895 0.0075984957131 
0.0078994178106 0.0074140753573 0.0090450333477 0.0092075422162 0.0085378785558 0.010313878252 0.011091536286 0.0099376494964 0.01196147547 
0.013931891242 0.012160923922 0.014348476739 0.019132430646 0.015791629863 0.018296710055 0.029324723455 0.022688241821 0.025443479375 
0.038578296324 0.00017184475136 0.00036595485123 0.019711451621 0.0073671474121 0.014850358438 3.8073340768e-05 0.00020403892922 0.00056331819255 
0.0013193722607 0.013731543264 0.017134436191 9.5082963736e-05 -0.00017495593969 -0.00017487940363 0.061457301444 0.060223326225 0.053247907419 
0.063384407228 0.062395354488 0.055464008551 0.064989259127 0.064190536711 0.057216127401 0.065927759747 0.065506431499 0.058541592719 
0.06594757907 0.065791500601 0.058945321593 0.065226874509 0.065690449816 0.058655275144 0.064213526757 0.064889313473 0.05809170698 
0.062590606387 0.063456056832 0.056912299458 0.060059477028 0.061580387981 0.055140246658 0.056381335717 0.058413103775 0.052540233316 
0.051978321007 0.054407446149 0.048886449606 0.047010924648 0.049046325285 0.044178409249 0.00014725113173 1.9117536026e-05 5.4646888465e-05 
-7.8434627489e-05 0.0089437805464 0.0094147224873 0.012095723468 0.011067903553 1.9237394748e-05 -4.4884668927e-05 0.026845289574 0.022893511801 
6.8764348667e-05 0.00027095425713 0.00053962183069 -0.00018850792896 0.0007164299069 0.0014663614041 0.0014999891397 0.0042936787251 0.0042774918147 
0.0067527496581 0.010807117122 0.0088113316377 0.014197855511 0.019495761074 0.015449344092 0.023060402214 0.027441788415 0.02260694193 
0.029022755481 0.029955999598 0.027212843708 0.00024616787178 -0.00035538204636 0.0094281776315 0.0032445940644 0.0023274692104 0.013212325519 
0.013305785283 0.019019755304 0.013411231698 0.021776256717 0.0099801721729 0.0056407458502 0.014274546827 0.0034991460881 0.001221728198 
0.0074639470843 0.0012784510659 0.00054183547139 0.0036474046459 0.00044374970058 0.00055542805043 0.0023805436656 0.019790062597 0.020137799051 
-0.0011226388797 0.0010983273702 -0.00020311251154 -0.00033597854226 0.00056905562812 0.0018964813028 0.0043093054743 0.0038718026053 0.0062582460372 
0.010203484141 0.0072984845515 0.013358220659 0.016997358877 0.017485791108 0.01262297085 0.00052921893942 -0.00082266230167 0.014720647961 
0.010540253863 0.008269729637 0.0046152360421 0.011585685097 0.0031411491966 0.00090432039012 0.0066839293429 0.00092616247552 2.9980893472e-05 
0.0036712782999 0.00025355244776 7.2219135189e-05 0.00053221468754 0.0023119058504 0.011987303517 0.0095235778686 0.013777861065 4.9590453395e-05 
0.055233275358 0.052557287818 0.050140275778 -0.00024188599864 0.00067388553776 3.167903896e-05 -0.00023303745998 0.0027398071502 0.0022774474038 
0.0022437182233 0.0038802675045 0.022502608332 0.028753578349 0.026332771321 0.020522633484 0.014444774511 0.016993657332 -0.00011320712986 
0.028377070506 0.030373194252 0.030862026911 -1.8597396945e-05 -1.5502195332e-05 2.398019359e-05 -1.9348682284e-06 0.00015429831652 -4.9502075317e-05 
5.4411034249e-05 -1.6817030588e-05 0.029935109648 0.014135092084 0.011925215431 0.013402198946 -7.5853948452e-05 4.3559227369e-06 4.160974109e-05 
-4.073276961e-05 0.035163826674 3.8186237208e-05 -3.3001221299e-05 -1.7405751789e-05 0.0093458795967 -0.00024967939862 1.5502723408e-05 0.011487603154 
0.014693933044 0.019198829592 0.016102918453 0.001622663476 0.0018136840624 -0.00042789174918 0.0019749793884 0.00012942772195 -8.5049990292e-05 
-4.5030608516e-05 0.049983888713 0.044559492762 0.036480526707 0.045645740313 1.4236850974e-05 4.9134348633e-05 0.042552757188 0.037326373268 
0.041181330785 -0.00011277269386 0.014498776842 0.017516894923 0.025684054655 0.017216394498 2.7094741806e-05 4.6874026301e-06 -3.106043728e-05 
0.022412481058 0.018229640074 0.018065613921 5.258039398e-05 6.5806568071e-05 0.00020939870055 0.0023315475081 -0.0014867085494 0.00086325889654 
0.0003858383318 0.012759938768 0.018031537193 0.017280943702 0.016722097306 0.020628169422 4.6574962027e-05 -2.7172137792e-05 3.6246894946e-05 
-3.3727525886e-06 0.021000096075 -3.1977391758e-05 1.0373883536e-05 -4.2891512198e-05 1.8625672307e-05 -1.1180770713e-06 1.5200792037e-05 0.0083502239214 
0.0098661903931 0.024253772724 0.026957701967 0.011739682739 0.012648974717 0.012827130378 0.0014967933304 0.00030075270179 2.1463869465e-05 
0.012965094623 0.013256003984 0.015451458814 0.0077110829801 0.0070171989943 0.0080130235576 0.0080007171227 0.0090470543715 0.0072007379255 
0.0077912798912 0.0091945843209 0.0054563037817 0.0065645165435 0.0080181988527 0.0031357031263 0.0043121441076 0.0057675537127 0.000938049414 
0.0019871962608 0.0029920343012 -1.7273059931e-05 -4.5716670932e-05 0.00030224280722 -2.3986092259e-05 -3.1808666579e-05 2.9113558758e-05 -1.1860150243e-06 
1.1201975282e-05 -6.3757177513e-06 1.4866420161e-05 0.04916405012 0.048330526815 0.01353193577 0.010907684486 0.0015605531791 0.00084699846894 
0.00025563551604 -1.5786187885e-05 0.000611533302 0.0057496191886 0.005190062575 0.0030659964806 0.0022911246054 0.0022067065112 0.0064151561136 
0.0061641667226 0.0070466250306 0.00611370245 0.0062669513181 0.0074466634372 0.0051006934027 0.0056650879427 0.0068493403872 0.0037156820626 
0.0044900544541 0.005697995423 0.0018528033508 0.002781743095 0.0041923845005 0.00016790499588 4.8281261313e-05 3.0982652949e-05 0.019389764496 
0.01648099578 0.0051086235705 0.0037184764506 0.0078379894558 0.0065310777252 0.0069983497484 0.01014101887 0.0091557027784 0.010151072831 
0.011929559131 0.011200594328 0.012791731068 0.013517291642 0.012682480085 0.014772018384 0.015540028804 0.014423699833 0.016657968091 
0.018628689706 0.016764188272 0.019192660227 0.02376721681 0.020672704133 0.023207101889 0.019313915844 0.022247192294 0.022439645973 
0.022346472548 0.019312325864 0.050137352814 0.049208003323 0.043627797719 0.051384150385 0.050578999711 0.044120517872 0.05191940301 
0.05174115033 0.045110742884 0.051475198877 0.05153783762 0.045297070966 0.050901561668 0.051317258092 0.044898512264 0.049032644222 
0.050148155236 0.043998826936 0.04719631525 0.048401227214 0.04228124298 0.044315969058 0.046221513939 0.040760338928 0.040653728996 
0.042686076098 0.038051953674 0.035878223686 0.038585224958 0.034360792633 0.0022263338947 0.0025607262803 0.031041476876 0.026453455941 
0.02920632757 0.011220193491 0.0063720917911 0.0029555023235 -2.0721770502e-05 4.6855051705e-05 -7.5265294537e-05 0.00031507437066 0.025858002041 
0.025284311745 0.022746908949 0.024680383141 0.0045521310158 0.003833023782 0.0039808627191 0.0056960272378 0.0059031257147 0.0079568392469 
0.0091129165798 0.011967243596 0.010132224252 0.014463372989 0.017944582445 0.014682971684 0.020669450745 0.023752126848 0.019816668346 
0.00078878138816 0.00067274683778 0.0063721676008 0.0052400131012 0.0065577878461 0.012359023818 0.00016029331105 0.0026447483988 0.0027438157755 
0.0070776082675 0.0092204163309 0.01712056593 0.01690064196 0.019995048212 0.047313584089 0.046236911317 0.04265423602 -4.0311576709e-05 
3.1991009353e-05 1.4613519857e-05 1.1469194664e-05 0.0094429234135 0.0070617647375 0.011120131023 0.0060642464153 0.0048592465282 0.0077571085758 
0.044557452345 0.043006735984 0.040173243728 0.019661235437 0.020646805561 0.018531720076 0.0168930217 0.01394454155 0.010473396806 
0.0019706343802 -0.00010203875917 0.026246055573 0.027615328377 0.024583545071 1.7165775345e-05 -6.693260753e-05 0.00010178955795 -6.5224363094e-05 
1.3342551354e-05 -2.930262273e-05 4.087754787e-05 1.1466974765e-05 6.9324814898e-05 -0.00085874044172 4.1327758564e-05 -4.9482492763e-05 -6.0940555127e-05 
0.0058578204908 0.014375976764 0.015397802489 0.016838643904 0.01894025886 0.019231897173 0.0053477243534 0.0068270977949 0.0028541836849 
0.0040338070064 0.015840812338 0.013334664677 0.013737365342 6.3205549547e-05 2.0543033288e-05 -6.2883192075e-05 3.1171869154e-05 1.1943553802e-05 
0.0045869299251 -1.2345726978e-05 -3.859650681e-05 5.3007335555e-05 7.7077333422e-05 -3.6978471099e-05 -9.3842008884e-06 -0.00068198855652 0.00014498160445 
0.00051357120834 0.019835251051 0.023042317722 0.024062124806 -8.8419330559e-05 0.00057226370956 0.00021453069821 0.00014047202257 0.0011001467843 
0.0019023579847 0.0034755204892 0.0017127416897 0.029233143031 0.033495224285 0.0020021038932 8.510508204e-05 0.019458856798 0.031695059179 
0.026882021565 0.02959308405 0.038341158114 0.0087871482359 0.02997219092 0.023422745246 0.015209129112 0.014415237613 0.01721918113 
0.01029956661 0.010957260631 0.013444622034 0.010675639963 0.0072144296901 0.0080850506315 0.010510034837 0.01029413501 0.0030105788356 
0.0043226228834 0.0068264215761 0.0039326528346 0.0027753904967 0.00034781345236 0.016416772443 0.012781529526 0.012540878426 0.017914965253 
0.0098820585396 0.013447157788 0.036067599836 0.031751253607 2.9585091798e-05 -4.163692877e-05 2.8638051044e-05 1.5064430992e-05 0.01540657087 
0.016198049032 0.014334823549 7.6052604145e-05 -5.1981883203e-05 1.8271325728e-06 0.014050856664 0.016563762207 0.023623108382 0.020652472025 
0.023492674904 0.021708321538 0.011353868727 0.009941324682 -0.0006152577158 0.00036585536504 0.008703329751 0.0098975598767 0.016633560085 
6.5309828044e-05 -6.4774806074e-05 0.017726567261 0.017893917774 0.010178971735 0.010612659856 0.012009544466 0.011307423838 0.012696974293 
0.020969215898 0.0017959397676 0.0033769622078 -2.9453111662e-05 0.00017687403819 0.00089451132331 7.21212245e-06 -6.12238412e-05 6.2139950514e-05 
-6.2023726981e-06 1.7854563238e-05 -4.452740299e-06 -3.4532644762e-05 0.037726073974 0.037010300773 0.00049169400571 -2.2108214578e-05 0.0085992581655 
0.008751200257 0.016032372811 0.014671768832 0.0053926170803 0.0065490927688 0.026349057375 0.02415242574 0.024148021955 -0.00014356320787 
0.0040900317611 0.029447289568 0.027672320698 0.026363049715 0.027248476198 0.023760924393 0.017693338617 0.016816076982 0.018939390494 
0.019822725493 0.018656651703 0.020830100781 0.022934265282 0.021096794035 0.023336180261 0.028355535259 0.025319866808 0.027526446189 
0.034229589691 0.022257673457 0.023768849338 0.00031223519 -0.00051601730578 0.00048567208577 0.038090996474 0.038076256735 0.033345208332 
0.039040680797 0.039132289604 0.037521073147 0.038586135914 0.034442102798 0.035300438808 0.03050022552 0.034814349881 0.035956181505 
0.030247926103 0.031490181731 0.033539210292 0.030127258647 0.027855744909 0.029904436196 0.027073419676 0.0032883433603 0.0026319495909 
0.001610328778 0.00095851361387 0.025940449935 0.0061575198634 0.0091700703251 0.0030426516076 0.012295018927 0.0099187647642 0.010792999696 
0.0075382208892 0.0042175146337 0.037693485562 0.036968589404 0.033999494469 0.035418900297 1.6140234969e-05 0.02720207504 0.02850536316 
0.04022763564 0.022361884775 0.022055643482 0.023412484649 0.0029688042297 0.0074750110669 0.0072041884653 0.0078811530062 0.0089244984184 
0.00013035995039 -0.0003443468879 0.00011900578889 -4.7748493589e-05 -5.2782675134e-05 5.0841498086e-05 0.00015806849638 -4.4841434941e-05 0.00026064932526 
0.015258765965 0.00053081023156 2.7593975785e-06 -9.4569838264e-06 0.018018843675 0.018910762619 7.7548416213e-05 1.8507077033e-05 -1.0104723049e-05 
0.020380939837 0.017879143635 0.017935177413 -4.4687842694e-05 3.6174910147e-05 2.8362527668e-05 0.032091280962 0.022172344083 0.020612242129 
0.0050918915857 0.0069002458167 0.0047506584292 -5.5216977586e-05 2.0269544924e-05 2.5595801486e-05 -6.9026816618e-05 6.8590304545e-05 7.0750219707e-05 
0.023428211902 -7.1824761778e-06 0.039929300532 0.039037927695 0.00012162827812 -0.00014744692706 -6.0249022801e-05 0.0097530376292 0.0083339785015 
0.0075944399658 0.02843597715 0.028663583229 0.012597372575 0.010742193363 0.0023211527536 0.0088881524045 0.0068413700321 2.48560314e-05 
0.0067694292839 0.005806994168 0.0082331297431 0.038530457936 0.033074128364 0.028256103244 0.038357660452 0.032625069731 0.0087986886621 
0.034107761786 1.638329265e-05 7.6214995797e-05 -3.4881888768e-05 0.015714415643 0.011116709487 0.0047454644602 0.0036765542426 0.0033109134691 
0.0058551331452 0.012639948897 0.011200970273 0.01035571231 0.013589207258 0.0048021239399 0.0015039888232 8.0218534073e-05 0.023530323118 
0.024061231043 0.021647651603 0.022840999337 0.012789825354 0.015037515866 0.017759424156 0.019992666575 0.011347236695 0.0079650262514 
0.025617131103 0.023264723981 5.7510900621e-06 -3.9005805348e-05 2.0342322495e-05 1.9217442763e-06 0.026795335373 0.026159173071 0.029355108436 
0.030205372281 0.026175818449 0.025646132773 0.0056605215296 0.020685589976 0.022832029246 0.0246029592 0.021367949592 0.028640017355 
0.020262683434 0.02103744488 0.013698324763 0.030229600106 0.026332654956 0.024493841344 0.017516000942 3.5811952594e-06 0.00026539978469 
0.0093352678859 0.022524302259 0.033182350527 0.013062466107 0.011800668491 0.0091691986029 0.02203211592 0.023613000745 0.02559833368 
0.021519688282 3.6993872805e-06 -3.5646001641e-05 0.00013327027546 -3.8195367533e-06 0.00017587388338 -0.00035131627905 0.00036608613196 0.0043453330319 
0.0053389238488 0.029143780311 0.026828997256 0.027393174464 0.0006935152494 -4.3136463636e-06 0.0011444196132 -3.1244589658e-05 0.0077975556089 
0.025825041137 -0.00032870581423 0.0027915914108 0.0048019831746 0.0069411264284 0.0058167715763 0.0018701747884 0.030372133518 0.023180071734 
0.022203093237 0.024293363652 0.026446209211 1.4322285813e-05 0.023916063408 0.021327723015 0.027894383826 -6.3852702283e-05 -0.00042050972104 
0.00036988082484 7.1656989596e-05 3.6282089659e-05 -1.0322345236e-05 0.0026042080015 0.004943123023 -1.6278301805e-05 -3.1481930769e-05 -2.2693766118e-05 
-1.280729481e-05 -1.2232397559e-05 -3.2511369186e-06 -2.2860407141e-05 -0.00020957196668 0.00062100181874 -4.6532416519e-05 -0.00019210506721 -0.00022220400688 
5.4085014189e-05 0.022607627632 -0.0004061633184 0.0002543263289 0.0097564232926 0.012929800309 0.022842629644 0.02503404247 0.026622754724 
0.026583753085 0.025233395855 -0.00029993458559 0.00019071610542 -0.00013892865993 0.00027388725442 0.026315322024 -0.00010048058185 0.0023370224421 
0.0002646636395 0.00012637901203 0.004407530438 0.0030300844945 0.026466923631 0.0071599800789 0.027048207147 -7.0213498088e-05 -6.7674353615e-06 
0.082185267916 4.4167804258e-05 4.1929317132e-05 5.8851754246e-05 7.8628548522e-05 7.0396945846e-05 7.401996359e-05 6.9023145629e-05 5.0141384107e-05 
5.2998778027e-05 3.3006797886e-06 1.0604317334e-06 -5.8646572818e-06 -3.8096184885e-06 -8.3482357483e-06 -8.4958278249e-06 -4.5428945599e-05 -4.1971371459e-06 
-4.0763198507e-05 1.0433676579e-05 -5.1070150196e-05 1.243830993e-05 -2.6266765524e-05 -5.7517082672e-05 -4.8346752646e-05 1.1213134496e-05 -6.2167052836e-05 
1.7643244315e-07 -1.5773941446e-05 1.3936457e-05 4.2915626459e-05 6.2229903128e-05 0.00012044970855 0.0001783333602 0.00015029840624 5.6011412943e-05 
0.00036183856246 0.00026710227989 0.00023405690193 0.00021997415211 0.00016530009738 0.00019796467498 6.6723496623e-05 7.1843551174e-05 3.7993659397e-05 
2.2024793733e-05 2.6340728127e-05 -3.6670290504e-05 -4.9534850247e-05 6.7851523725e-06 -8.9725629914e-05 -1.6673476146e-05 -1.6830526257e-06 -6.6574134619e-05 
3.1837420224e-05 -6.0243447938e-05 -8.3281740821e-05 9.6694561499e-06 -0.00013757690441 -4.5656841305e-05 2.0308335636e-06 -0.00026933577546 -0.00028989099569 
4.8999811087e-06 -0.00080056247968 -0.00015083881746 -0.00054843138934 -0.0004250022914 -0.0011444525816 0.0045133354638 -0.027440624091 1.7739205666e-05 
-6.9277572539e-06 -8.0635666256e-05 -2.6428788822e-05 -1.4341913687e-05 0.00011665702513 6.2076703975e-05 8.0688765213e-06 6.7789126364e-06 -4.1025315685e-06 
0.08209062961 -9.5338361429e-06 -0.022553694538 0.0055612783177 7.9688038936e-05 -0.0020323197832 -0.00011119014693 -0.00029891565118 -0.00081145821549 
-0.00052044572304 -3.0117530784e-05 -0.00017054829953 -6.2261066675e-05 -6.942081186e-05 -6.982038774e-05 -2.1878466164e-05 -0.00018680827535 -0.00010730037558 
4.2060170533e-05 -3.616771892e-05 -4.7943003191e-05 -1.8146043786e-05 -0.00012174245023 -6.1998672217e-05 4.4166378693e-05 -6.1798835896e-05 1.7909530753e-05 
-1.371250717e-05 5.267442571e-05 9.0385872011e-05 0.00013722143755 0.00023490654521 0.00037194800226 0.00029717657163 0.00010980957811 0.00051131091185 
0.00035069119075 0.0002684159984 0.00020779595562 0.00010512249707 6.1666584871e-05 3.3912329522e-05 -1.7270884626e-05 -9.1450722432e-05 -2.6392657077e-05 
-4.6828221547e-05 -3.507389056e-05 -2.0201290002e-05 -0.00011854410465 1.2603318933e-05 -7.7159170115e-05 -0.00012266958449 -1.6028773148e-05 -4.2121773195e-05 
-2.7717707996e-05 -1.8946264069e-05 -5.7006725841e-05 -2.1828552638e-06 -3.507579292e-05 -1.3118874968e-06 1.3501307879e-05 1.7579662747e-05 2.8359507167e-05 
4.4939877263e-05 4.9120943057e-05 7.2063497334e-05 7.359680804e-05 9.137424427e-05 0.00012030955285 2.7294195839e-05 7.342225304e-05 5.300722697e-05 
1.8139013527e-05 -0.00015268292523 -1.2893358741e-05 -2.6545386868e-05 -2.5735728046e-05 -2.988196397e-05 0.00020938047886 7.4420829463e-06 -1.1394937365e-05 
-2.4000893521e-06 5.2909892847e-05 0.00016425829168 0.00012164287641 0.00035407643018 0.0004299615104 9.3394604876e-05 8.0769330619e-05 2.8270269777e-05 
2.1983732326e-05 3.8312246011e-05 1.3464079043e-05 4.9568229819e-05 1.9191288746e-05 2.3874623774e-06 -1.7115640121e-06 -2.1788885695e-07 -7.7377401995e-06 
-3.0467183229e-05 -6.4931292653e-05 -1.7935052117e-05 -4.6033449254e-05 -2.7479011578e-05 -6.3177175989e-05 6.3885642453e-06 -8.6970992708e-05 -2.5293895968e-05 
-2.6511475621e-05 -3.8632993284e-05 -1.429162404e-05 -5.966130119e-05 -3.4398443712e-05 -2.1429661538e-06 -2.781145206e-06 -9.9598949523e-07 -4.1734779422e-06 
1.9400741765e-05 4.8944588846e-05 1.5983384217e-05 2.2007335946e-05 3.3680394938e-05 1.897975821e-05 6.9911142504e-05 0.00035804634697 0.00029382762923 
-2.7691348634e-05 -1.4417755526e-05 4.5124384418e-06 5.5636148416e-06 -9.471690673e-05 7.7262407697e-06 -1.017566377e-05 -1.1190319055e-05 7.1895707483e-06 
0.00016060228339 0.057569553603 0.087411940883 0.04429560361 0.039870149647 0.039026001327 0.042265155267 0.046858309916 0.048194282782 
0.0613501329 0.06140177092 -0.035591378529 0.11814141183 0.062024424353 0.014372973436 0.049228573005 0.060110852901 0.068448092217 
0.071209154805 0.070679684099 0.06364903703 0.06814270347 0.063160083754 0.063818658022 0.06098859791 0.055118117751 -0.072622536012 
-0.033267992366 0.0086385127977 -0.004930530135 0.0054737460911 0.013214528438 -0.00019961250402 0.0123259871 0.00068183819834 0.0040335672226 
-0.053652516522 -0.0065101488195 0.0018357698253 -0.0018264933894 -0.0041586173011 -0.0065766641311 0.0048606249349 -7.1074084695e-05 0.0055820345888 
-0.039047085941 0.017181402136 0.10541158433 0.064381913303 0.063765234617 0.036789545477 0.062586744414 0.059844976632 0.066699372529 
0.07091493601 0.062397321116 0.072154159557 0.066749170505 0.067489451697 0.066197737597 0.037954255159 0.08536619596 0.075384615394 
0.064084266481 0.041840759093 0.04532731365 0.042606212423 0.042661875154 0.046982378621 0.057393692114 0.049071370831 -0.037031174085 
-0.039776911509 0.028497251156 -0.005393744291 -0.0056665278865 -0.0019333866194 -0.0087043370487 0.0052222868785 0.010714202886 0.0098504989643 
0.10568560073 -0.024766190302 0.032132339986 0.060187356658 0.059155337302 0.062933304698 0.066800775791 0.069784376101 0.065713080443 
0.070518497578 0.064914837089 0.068042314732 0.05888355465 0.049335109708 0.065651555578 0.047970782033 0.10053873044 0.062762616275 
0.039469576576 0.059167570703 0.040444853309 0.038576059338 0.049700519137 0.049094331096 0.057857439904 0.043621126418 0.024690517861 
0.10439834397 0.078620408154 0.054872017262 0.036968515716 0.039499013853 0.041053536756 0.043775398974 0.046615392787 0.054693173175 
0.065858488289 0.094290128491 -0.036504231895 0.015120737396 0.055515692459 0.084502051016 0.065468920889 0.068214726693 0.065356166454 
0.064100623328 0.065791189756 0.069927604285 0.052410544488 0.059434700728 0.038027912088 0.06783667621 -0.057662370721 0.013343659034 
0.0088689886628 0.0060989587805 -0.0088091466535 0.010083145465 -0.0075716569496 0.0039019620844 0.0027761610492 0.0014943496928 -0.038686509047 
0.045526041572 -0.017167456879 0.014577527254 0.055565556204 0.028883415364 0.04853408527 0.054261191896 0.051141715681 0.050132346624 
0.048241088132 0.044923683505 0.043813246812 0.047136764978 0.045983769941 0.034949161705 0.039824849005 0.0285105998 0.046074309663 
-0.030933463334 0.013430578072 0.052864661496 0.13237892418 0.078568710307 0.096582077688 0.14282152429 0.15538697812 0.13133513785 
0.13786410083 0.13011526809 0.13406916037 0.13361833829 0.13865590611 0.12728439839 0.12740811214 0.11131503528 0.1258057034 
0.09672920718 0.065675492685 0.045997667437 0.093664119572 0.044517579421 -0.0095371944332 0.066446080732 0.015966717195 0.088597090681 
0.10609100292 0.10440451232 0.12912325629 0.11429264419 0.10925146409 0.12272259504 0.13011669726 0.12824707243 0.12957437094 
0.14218380092 0.13079477786 0.13491946029 0.13708964185 0.10108357931 0.093768333491 0.03678840703 0.12310305348 0.11297942936 
0.13596531704 0.127721826 0.13267511759 0.13059567158 0.13288450057 0.13266599883 0.1328257707 0.12925498084 0.13188633255 
0.14886927837 0.14265190086 0.11720545517 0.11015129887 0.0083150485577 0.0017538973991 0.019150636877 0.012470662148 0.023146766587 
0.11642701352 0.15110588726 0.13042646458 0.13572420167 0.12939181391 0.13244882207 0.12434774434 0.11255858563 0.12756008199 
0.12919987271 0.12193360045 0.12114522289 0.097567660922 0.11536042551 0.07245150517 0.017649133976 0.15079624046 0.010326424557 
-0.031873026176 -0.00041843433169 -0.0012466324385 -0.0038784865707 -0.010377258407 -0.00052878876431 -0.0037853405265 0.003655649089 0.011155958965 
0.03365927011 -0.016450173675 0.061342327252 0.043836385956 0.059761051414 0.066674555349 0.068467517294 0.071533361994 0.069719913738 
0.066032869739 0.12315426772 0.053477388182 0.03979572246 0.0028414559584 0.0029225441813 0.019401557948 0.011216483247 0.0044490751569 
-0.0052251062702 0.022708926786 -0.004385935137 -0.0080188933142 0.012331998465 0.043882510543 -0.0017751464193 0.044611799929 -0.097774887279 
0.046768565544 0.049868249205 0.056927177272 0.057519402183 0.056116407457 0.053338402454 0.076866265853 0.063816825586 0.058563579413 
0.059444131735 0.11490047461 -0.032616696452 0.040585862451 0.0047571817868 0.048507242921 0.088791227614 -0.010202842051 0.026902648638 
0.017085734779 -0.029407999517 0.0070370198813 -0.0058726328363 0.14252179719 -0.020957938051 0.13927232582 0.096345946235 0.11991125223 
0.11402916099 0.13681059327 0.12759451413 0.13752336225 0.1335686015 0.13478797797 0.12659018362 0.13118266024 0.13216412176 
0.15380372127 0.11545518246 0.13260007915 0.14174668493 0.1731654289 0.049796322008 0.049111410322 0.0653494473 0.078792359598 
0.071871968804 -0.017924210871 0.082587565436 0.12862225646 0.11422845965 0.064902658791 0.12618826146 0.1485829562 0.12773245427 
0.13422240749 0.11759203612 0.13313557599 0.12411536807 0.13496223251 0.062936908219 0.099399456826 0.064868325402 0.15274247684 
-0.0088211503072 0.021032044656 0.060086863181 0.13172624494 0.14210080289 0.12472946077 0.12967549443 0.12917435599 0.13240974193 
0.12914865038 0.13239328338 0.12921012997 0.1332065277 0.11322476824 0.12919312374 0.12851170289 0.10097468025 0.03153830704 
0.11541739192 0.013377881467 0.013987460951 0.0075671413726 0.0030667159697 0.10432461907 0.10107105347 0.14419375889 0.1294365039 
0.14284825975 0.12768766716 0.16164510787 0.13445608071 0.11416193268 0.13145610108 0.092601646088 0.10684102269 0.10357291438 
-0.0036745682337 0.015344545084 0.026354761367 0.013589479128 -0.0038849646032 -0.004471331387 -0.015872129939 -0.0029391879305 0.00051358174132 
0.012037831821 -0.012134130038 -0.00037395113654 0.029006843549 0.028104466831 0.057177847843 0.040830821161 0.057247840954 0.057059772248 
0.076673965625 0.069270384549 0.086250082368 0.070436201959 0.086061054917 0.097101088082 0.052217306079 -0.011852997339 -0.025685030642 
-0.033792305002 0.011481093511 0.00096399983221 -0.020453625015 -2.7068221739e-05 0.0063131751682 0.0099396373963 0.035254334781 0.029459816282 
0.014861859041 0.057233807556 0.050374567483 0.05536728892 0.05891433815 0.063728761353 0.06608076018 0.062758403452 0.076036941624 
0.062620743147 -0.076235244737 0.10608395184 0.10894046415 0.057867837543 -0.014006979622 0.094867387508 0.059667842972 0.12034423857 
-0.012685744675 0.036503126876 0.026039445967 -0.021439833029 -0.02087693088 0.032650812059 -0.011714840717 0.056079672154 0.03488199732 
0.037079348072 0.03726039191 0.038269561683 0.040154674504 0.042478666334 0.043901828707 0.046852253838 0.048363092612 0.051001795706 
0.051309666799 0.055572325897 0.051921008501 0.050090222489 0.071403607226 0.0013218758276 -0.013029505927 -0.00066986921384 -0.02197247651 
0.025836858893 0.033423054865 0.047425177671 0.040291421329 0.040598286984 0.043865800862 0.040799463979 0.04177174799 0.046734908448 
0.053275359517 0.056091424539 0.058427435423 0.03435006294 0.027915290891 0.03303823049 -0.0044552102654 0.046125935731 -0.0039044297616 
-0.010205748618 -0.014533458917 0.088779935705 0.084474866064 0.05855100381 0.0774849934 0.083862040521 0.098785313203 0.040892380398 
0.043948780695 0.050876336198 0.085110085572 0.065878849205 0.065223622113 0.072775820444 0.08281982511 0.0077104485137 0.0072508756493 
0.040004403075 0.031867266766 0.071891579983 0.084002694108 0.078041385255 -0.027433782878 0.049295049395 0.015844794357 -0.032274328449 
0.065145618945 0.067694962713 0.090778750084 0.082469932035 0.10898004439 0.063625294091 0.065627723099 0.084234010642 -0.018421898439 
-0.021921488253 0.086744588115 0.070442938191 -0.029387676149 -0.018992889445 -0.016210417339 0.049273808644 0.081898951646 0.0042781748432 
-0.016430548006 0.036634819523 0.090908296394 0.05951213988 0.057229253627 0.083704873829 0.010361933684 0.013456373132 -0.029925278646 
-0.0020254706577 0.036031961814 -0.0070678047026 -0.00084498425188 0.089603624638 -0.021725920174 -0.00091385407074 -0.039787138673 0.090311713694 
0.081125108167 -0.012780572603 -0.013567928916 0.078683799867 0.081536313591 0.085237209567 0.055949525824 0.07729112615 0.08464287327 
0.084055339788 0.08500650503 0.0087540505124 -0.0057090348687 0.083645254087 0.083215833506 0.088243095061 0.081219053959 0.010185314395 
0.012798615705 -0.02293504587 -0.016895460383 0.046691171116 0.032850970356 -0.0031347372373 -0.044086491588 -0.0454698707 0.03281683394 
0.087490338643 -0.015008586534 0.009849060689 0.026085153334 0.050186958715 0.024351575626 0.025435241701 0.030816262295 -0.0032912394184 
0.035080535301 0.07245665054 0.020660740018 0.016819726891 0.018515463823 0.020421897529 0.063712882355 -0.046409640882 0.13658456111 
-0.005604762347 -0.011089714458 0.054131160317 0.052784512545 0.042647827687 -0.04116169558 0.076733120462 0.037894808459 0.088539895328 
-0.010250815972 0.030610510431 0.10921176745 0.054115226388 0.030845262424 0.055401140009 0.10389236197 -0.041902321907 0.084776403185 
0.016884296161 0.026125988846 0.023294163802 -0.0021914241124 0.083491123719 0.072285023729 -0.019207252641 0.081465156931 0.079764297372 
0.071264880948 0.076228777232 0.082239362453 0.086141500369 0.077179989231 0.066801812831 0.070274136481 0.048642857467 0.069396715222 
0.088984436926 0.086619946431 0.081440053882 0.16093732239 0.15123478448 0.04691068141 0.040109286637 0.094379498238 -0.017810702443 
0.083319980387 0.024226685982 0.020249687661 0.029696885221 0.088547180813 0.016297013763 0.07166402502 0.090674628788 0.038928825506 
0.027160509864 0.019203803879 0.036629261947 0.030543194137 0.029747546463 0.016066716968 0.021248098271 0.016259472896 0.021044616456 
-0.0073087085745 0.04830894826 0.031379230579 0.032158701347 0.0305771416 0.035601419698 0.03714151858 0.010616195343 0.020503355079 
0.077152441239 0.01672990388 0.016766210949 0.017599531807 0.04236122133 0.021083245297 0.035887487904 0.10812152775 0.070780685002 
0.00075752624216 -0.0011824141094 0.024021893446 -0.014761201796 0.053423461145 0.059423073453 0.031232652061 0.019983000199 0.08402927138 
0.076276002661 0.012094922376 0.023941588671 0.025867926717 0.02435653889 0.023169306008 0.024903100916 0.022362098134 0.023575622191 
-0.026834697212 0.072345080385 0.084895162679 0.033336909928 0.096228188478 0.02415179103 0.027205446234 0.029991099546 0.089565039519 
0.036641367614 0.028559396963 0.040477686422 0.032449017366 0.067366471653 0.052321144269 0.086045966657 0.048074184963 0.076196935543 
0.033942294701 0.039241490558 0.022458956881 0.022242448827 0.031921231473 0.18198609139 0.03209624472 0.0013502807887 0.0007925160588 
0.0015362401704 0.00080940877978 8.6062735452e-05 -0.00074199201733 -0.00087411690181 0.0019916992985 0.00010328351112 -9.7838246817e-05 -1.9513222472e-05 
7.230866408e-07 2.0096756082e-06 2.1493182022e-05 0.00074747421232 8.0005187797e-05 0.0037815251938 0.0029738562109 0.0038678819059 0.003229315789 
0.00099334423873 0.00038057671954 9.7600974347e-05 -0.00022741603001 0.069386555191 0.077829853607 0.07603779641 0.07101939637 0.072146218305 
0.078960664086 -0.0012344429293 0.0051913991168 0.00076218618858 0.0085505094738 0.010307953898 0.0009705664672 0.01302137822 0.00091663069041 
-0.00020440479834 2.8700467649e-05 -0.00065331052265 0.012589041591 0.014917710278 0.016293257953 0.067758991205 0.060240021987 0.067794840349 
0.060530216664 0.067055329759 0.05954163637 0.066372779757 0.058597483455 0.046992446629 0.0524186031 0.053811863659 0.070301454335 
0.067230430239 0.074408684485 0.070433879625 9.9715240684e-05 -5.36735475e-05 1.162700344e-05 0.10333131682 0.098120634284 0.096652067771 
0.092180379739 0.10358314055 0.08692035791 0.092550111278 0.011235529978 0.0097934419386 0.0068783676836 0.00532312104 0.012326978654 
-0.0022126776893 0.01034002894 -0.0008367134516 0.0038241781197 0.00018385246232 0.0074047946813 0.0013763340647 -0.0018420535558 8.7543683333e-05 
-8.4530578607e-05 0.00063634098303 0.0010654255371 0.00053915707852 -1.4089851605e-05 -4.5898929269e-06 -2.2375706049e-07 -3.3810448265e-06 -1.255777951e-05 
1.692563044e-06 -9.6033974907e-07 -0.009954785567 0.0094568125475 -0.0026173164236 -2.655482061e-06 6.9769697624e-06 9.645418221e-06 -4.3343655398e-06 
0.014088472086 0.011767019167 0.013089665697 0.008535555378 0.00010424206652 0.0004459947925 0.0014520665127 0.001685294239 -0.00020414055773 
0.00064427537193 6.3246501414e-06 -2.7667311593e-07 5.4052890183e-06 -0.00050260931493 -0.0025547719318 0.012967746526 6.0336866039e-05 0.001700609902 
0.0027731677859 -4.1947069739e-05 -3.1309809389e-06 8.7892545128e-06 0.0034367452106 0.0049466411952 0.0014035317864 0.04102425149 0.035196112243 
0.034992139233 9.2169535117e-05 3.1965590004e-05 -8.5624298927e-05 -0.0019013537011 8.9604045274e-05 -3.6938251467e-06 -8.0238901433e-06 -1.0415615303e-05 
-1.4744451194e-06 9.1356567006e-05 -0.00031623847123 -0.00010478645631 -0.00028762835228 0.00012116573985 3.1666832028e-05 -3.3103723315e-07 1.9193395917e-05 
4.5073699869e-05 -3.9808608737e-06 -1.2496790149e-05 4.8885589975e-06 -1.3912742392e-05 2.3569082928e-06 4.4260649818e-06 -1.5069682367e-05 9.5904877317e-06 
-8.3317724808e-06 -4.5288635654e-06 1.7834156111e-06 0.0012730641117 0.0018199366678 0.0014214142716 0.0020408232859 7.8855379183e-06 0.011052583286 
0.0093578478835 0.012488413883 0.01047910448 0.031699296327 0.037265094565 0.035725922096 5.2662610161e-06 -9.6715170946e-06 -3.1203716832e-06 
0.013436312842 0.0095856487944 -1.1068547142e-05 -3.1803497871e-05 1.5252472715e-06 -2.2658472451e-05 6.7746172548e-05 0.03263973124 0.03034988165 
0.030483250131 -3.5817574582e-06 3.0826149314e-06 6.9201271988e-06 0.028390367063 0.027600482087 -1.0296307541e-05 1.0807628822e-05 -2.1624898258e-06 
1.6178749163e-05 0.011074033414 0.007649977117 0.013035695802 -0.00033009293554 -2.6776377127e-05 -2.2057467155e-05 0.0047722221872 0.006573385072 
0.0049822439373 0.0069401760769 0.0039410077909 0.0026776702069 0.004370813996 0.01175134009 -0.0036991192296 0.025376492864 0.022621473895 
0.026139104382 6.2825528896e-05 -2.4861612755e-05 -3.6284170895e-05 -8.0816834788e-06 1.367683957e-05 -4.6736798274e-06 -1.8762853266e-05 -4.0533899519e-05 
0.016134857771 0.020587573579 0.022626619348 -5.5036074992e-05 -9.2702690452e-05 2.2643283309e-05 0.0034674753346 0.0037592765886 0.0056146927367 
0.00027486748085 0.00051813708421 0.0011872279099 0.0087305556102 0.0054305271523 0.0076478725232 0.0025105007519 0.0022928801954 0.0016078908689 
0.0012488123847 0.0018792467511 0.00084425894094 0.007637740606 0.0041700564179 0.0064302048259 0.0037235479011 0.00037931086592 0.00028491628409 
0.00031920618755 0.00027437419593 0.00055483963761 0.00015611940877 -2.1669183068e-06 3.4761678161e-06 -0.0002714593003 -1.2666908511e-05 9.5409557741e-06 
1.2399630566e-05 0.10037557827 0.10135480367 0.084732740627 2.9118138329e-05 -5.8563131272e-07 1.8573415286e-05 0.0014065500704 0.00095599955681 
0.0012413794116 0.00090356186035 -0.00024882701486 -2.4532693782e-05 0.0016854912668 0.0015890267484 0.0011190975941 0.00043706053221 0.0021001882447 
-2.0290247451e-05 1.1586463908e-06 -1.0849075904e-06 1.4172983716e-05 -8.3604406307e-06 1.6394829755e-05 3.1893246815e-05 9.7600920939e-05 9.6228401381e-05 
-5.2425171228e-07 7.8072021135e-05 0.00010793887585 0.00033483569061 -7.4702536891e-06 1.6639251626e-05 9.4162348848e-06 7.7869035835e-06 -7.8176255492e-06 
-2.7464135632e-05 2.7246562464e-05 4.9761968618e-05 8.9179708491e-06 -4.445535632e-06 -1.043612856e-05 0.042755424898 0.038671618722 0.0026459012845 
0.0041736327925 0.0033490813059 5.9052603454e-05 0.00013712819849 1.6383592059e-05 4.0437645987e-05 9.0340307897e-05 0.00012850169808 0.00032789436004 
0.00042803386701 0.00021192607445 -0.00024534095373 4.6148568327e-05 6.4881859489e-06 3.5860988985e-05 -2.2680856383e-05 1.3315665861e-07 0.0007427253168 
0.0011163371162 0.00065845448137 1.5258307948e-05 -1.139769312e-05 -0.00016889499463 6.472760194e-06 0.00015613534728 2.4910290401e-05 0.0026863369552 
0.0029230847173 0.0018707680921 0.014844636499 0.017698082448 0.015651494134 0.01852506981 1.6950884085e-05 0.015737708487 0.019233107119 
0.017051179402 0.0015220492185 0.0032359653335 0.00097241938307 0.024849889372 0.02678113838 0.026619118601 0.10595398753 0.10970902638 
0.10575706526 0.0059333962837 0.0056736818984 0.005208329932 0.0045972174426 0.016839071193 0.022559427573 0.029376326098 0.004056910793 
0.0016176017723 0.0050287774911 -2.6305165189e-06 2.4640242401e-06 -2.7202409223e-05 -1.6973196329e-05 -9.6284339322e-06 -5.2215034119e-06 -5.2780684857e-06 
-2.1152330226e-05 2.0089610711e-05 -2.2021258618e-05 0.074835604555 0.023669033799 0.021853711664 0.021533736066 0.0027732434516 0.0035529678039 
0.0027342011958 0.020831772181 5.1769396351e-06 9.732382581e-06 -3.6335343306e-06 0.015107739251 0.011711227004 0.01528972538 0.0098976818064 
0.0070530215389 0.0068088662503 0.0078159642905 0.015210568297 0.035071674038 0.021898769194 0.031077036972 0.0015797316029 0.00098823152913 
0.0012070727134 0.020186497412 0.013444604391 0.014877520414 -0.0033449394839 0.0012960442824 -0.0012977518007 0.04556725477 0.01019302939 
0.0092618930166 0.0096954048419 0.0088573383733 0.007186916114 -0.010366722304 -0.0031789168097 0.026189119201 0.025702874096 0.024151823938 
0.023373305595 0.00073675175304 0.00089712075491 0.0089331990304 0.0089865890704 0.0061828123616 0.00074361268889 0.00076975440503 0.00057801650144 
-0.0027264004976 0.00024210127104 0.00029816645931 9.0555092972e-05 0.044339713798 0.050512353767 0.049268464797 0.060249098996 0.067052796174 
0.060066116448 0.066608550538 5.1414920079e-06 -1.8662917061e-05 -4.0687609816e-06 0.029691188094 0.032487454326 0.023674964469 0.021175496977 
0.072738124824 0.071733888402 0.065838116438 -3.5707581634e-05 -3.9159044183e-05 -1.8929699329e-05 4.6607320379e-06 0.024846154837 0.0010217048634 
0.0094078637271 0.0012134650269 0.0022518484389 0.00117954501 0.0023405832316 0.0013867535185 0.0099431932736 2.5098904297e-05 5.3379568383e-07 
-9.0744375528e-06 -2.0494623442e-05 9.1298953832e-06 3.0090345973e-05 -8.8848759424e-06 2.1663373589e-06 1.0056911017e-05 6.5635346191e-06 -3.2901624547e-05 
1.3950881892e-05 -0.00017062064473 0.00020046932477 -2.2588845953e-05 0.06103009717 0.067675992659 -1.5825044963e-05 2.8199391574e-05 -3.4707528105e-05 
0.020150525038 0.018323386772 0.022248920656 -1.6140501736e-06 -1.0717192858e-05 0.01005611937 0.011040470653 -0.0010938870208 0.086237912335 
0.083322464606 0.017542806301 0.016043288813 0.021738295671 0.022708787405 0.019828166269 0.005730968229 0.0061741199251 7.384298686e-06 
-2.0279823091e-05 0.0026177606476 0.0052312869407 0.0025274496549 1.007595589e-06 8.8116231662e-06 -1.2793457282e-05 -0.00018632374226 -1.8874200045e-05 
-2.6914846438e-05 -6.2482445224e-05 5.147262189e-05 0.00062075876589 0.00050734714846 0.0016357183683 0.0084599843119 0.0058107506333 0.0078075158746 
0.0014859169766 0.0029063713815 0.0016256158999 0.024468497658 0.019899137234 0.02893918576 0.025275019692 -1.1567712273e-05 -9.1053949854e-06 
1.5384310873e-05 -4.6589093566e-05 0.00056662942685 0.0005477202292 0.0005429017856 0.00097450439131 0.00065450559841 0.0044099972399 0.0047677469433 
0.013005674556 0.01443236087 0.016066738268 0.017672753773 -3.5993869897e-05 7.5063134587e-05 -4.5497029905e-05 0.00054381456079 0.00027615729401 
0.00057487276599 0.02664407766 0.025863332892 0.026438160758 0.00022172530312 3.321549206e-05 1.0190634467e-05 2.7265564005e-05 -5.0419335839e-05 
6.1088710487e-06 7.9938736762e-05 5.3625206072e-05 5.6609079165e-06 3.2353811462e-05 -1.5032668749e-05 -3.4964702817e-05 2.1716159719e-05 7.6426837383e-06 
-7.7307502235e-05 9.872789801e-05 -2.2183890363e-06 4.4950387076e-06 6.8190044214e-06 0.068609293869 0.062737239962 0.036444996364 0.035507209285 
0.041239567054 0.044991947169 0.048206220524 0.035246940559 0.024437726151 0.022488545491 0.026195035253 2.2796059052e-05 9.3901602429e-06 
3.3306239277e-06 0.045125947307 0.046012248991 0.040466499434 -1.1839649799e-05 -4.7309069416e-05 1.0492411342e-06 -6.2242059074e-06 1.2526864543e-05 
2.5529795517e-05 6.9014813109e-06 2.2070893778e-05 1.5305653509e-05 2.5985432523e-05 -6.0002007274e-05 0.0019468881409 0.0014372204329 0.0019421513784 
9.0940242659e-07 1.696522287e-05 7.8040543742e-05 -2.0667263776e-05 1.1254143534e-06 2.0218334942e-05 0.0010666754276 0.0017334218756 0.001040413773 
0.0017468898199 3.4833093527e-05 -3.9530464648e-05 -1.8534831596e-05 -2.8513452631e-05 -5.2341106846e-06 -1.7905701887e-06 -4.5151633156e-06 4.5896460175e-07 
0.054493975146 0.04902394284 0.060491335581 0.0017869083339 0.0027648772358 0.0014999449791 -5.4983007457e-06 0.0041168115505 0.0033118415515 
0.0042925433591 0.0032885637944 -2.6564800885e-05 -5.3141952658e-05 3.5313028013e-05 0.00083170665706 0.0014442402499 0.0009419056066 0.0015074738515 
-1.2095493359e-05 1.9515178717e-06 0.049799789924 0.046958566119 0.055571141236 0.018774387771 0.027811878353 0.021473581755 0.014219764441 
0.0068179653566 -8.5263685554e-06 -3.4299095921e-05 -1.6678024246e-05 2.1411697876e-05 -0.00012996190772 0.00065885011464 -0.00011616268509 0.0053585672269 
0.0064948556475 0.0053033018077 0.0064250932314 0.03658691899 0.035839801477 0.041724937445 1.8218044252e-06 2.7840019409e-06 0.018274438362 
0.022372267584 0.021376271858 -1.7659480191e-05 -5.9507744972e-06 -7.8101089788e-06 5.2895570492e-06 -6.8767411854e-07 -2.763434607e-05 -1.1170522159e-06 
5.9247367308e-05 9.5674517092e-05 0.00013202331914 0.00026862502935 0.00021927260467 0.077367319681 0.0049514874056 0.0045564653421 0.0060416341201 
0.0056351440699 0.0039590134879 0.0043556537737 8.9564834395e-05 8.1925011817e-06 -2.9885596052e-05 -5.4597053139e-06 -0.00062050646217 -0.0013377880756 
2.8904825974e-05 0.00018889276246 -5.7102821426e-07 0.0034583324316 -3.3671490187e-05 0.00058041573732 0.0006251785337 0.0013533653236 0.00061524187076 
0.0016518279556 0.00061958414577 0.0016939295538 0.0019607445035 0.0026724157112 0.0013326725325 -6.9357300531e-05 0.00032781069341 0.0014121150655 
0.0020638821629 0.0035685661953 0.0046789627515 7.9417517156e-05 -0.00019893136645 -8.6020068855e-05 0.00024428439115 -1.0607225632e-05 2.0752802743e-06 
-1.8513788436e-06 0.011091752584 0.0064292889404 -0.00066007401176 -0.0006860807244 -5.8796113639e-05 -0.00014344415544 0.00080515863059 5.7909007337e-06 
-8.9413249302e-06 4.8309444272e-06 -8.772508452e-07 -4.0475644106e-06 -2.149691888e-05 0.00011120261398 0.00031029027854 0.00025284464701 0.058529800218 
0.052825033986 0.05118199576 0.030994061612 0.030355214384 0.00057944274974 0.0013317674824 0.0012960434165 0.066141763709 0.06415863657 
0.073843063844 0.07202126735 0.083569653736 0.085695418007 0.088257025971 -0.0052533803732 -0.0025072037868 -0.0029381702011 0.0029632659573 
0.00015589841096 -0.00026661810322 -0.00027780578669 0.085767651406 0.079987566333 0.082317194594 0.0029772731975 0.0025690343536 0.0019547863053 
0.000885316802 -3.8070221803e-05 -4.1311640652e-06 0.0022172478592 0.00034467014843 -0.00066667436597 0.025745693252 0.027454171219 0.025257483588 
0.026978579807 0.034620391292 0.030450712981 0.033419951584 0.029058267084 0.017120954686 0.018831502956 -0.00014299117095 -1.2215819641e-05 
-0.00041527988032 0.00071255751658 -4.7487537377e-07 0.077927265521 0.084879976633 0.079805013651 -4.787827568e-05 0.056583391172 0.057841801885 
0.050773892889 0.051844585636 0.064433056397 0.056802019556 0.05840646335 0.088785594055 0.081537676254 0.080211978489 -7.3036241135e-06 
3.0338290895e-05 -2.5140036302e-05 0.073886116895 -4.4178468663e-05 -0.0010302592694 -0.00080919444297 0.00042810569175 0.0017069135854 -0.0005636929705 
0.0010401032878 0.00036633062582 0.010416329766 0.0082346036329 0.010949745703 0.0087478609073 -0.00023946190874 1.01118185e-05 -1.5391907512e-05 
-1.6240872756e-06 0.00090627097703 0.0010449561809 0.00060270012621 0.0062458291028 0.0022622184823 0.0013832627567 0.0022511626059 0.0014032742877 
0.041299973249 0.040871657762 0.044513822126 0.0033943275565 0.034018678496 0.031316416468 0.03524650692 0.041599423999 0.035981512987 
0.040801415629 0.026697742407 0.03651573837 0.028274707816 0.032316843337 0.044289943837 0.040077159571 0.079727059313 0.020291508791 
0.060328542017 0.0027835513681 0.0041230274037 3.016272532e-06 1.4583865866e-05 -1.4778364198e-05 0.0004735429518 4.2750147553e-06 -0.0004176847746 
-1.39468058e-05 -3.2280923174e-05 0.00013945440528 8.3259096142e-06 -1.2050568927e-05 0.019163499732 -0.0014104677673 -0.0008099357286 -8.7037114489e-05 
1.5222422872e-06 1.3833170704e-05 0.01278304632 -0.0029340713574 -0.0014841223639 -0.00017870334533 0.014261103259 0.00012001298041 -4.7017267081e-05 
0.0088287696733 0.0077769718043 -0.00014107364351 4.7089148925e-05 0.00047482646223 -0.00014038880157 0.00041200958815 3.2540293172e-05 0.00017939146281 
0.0014154322066 7.6427894921e-05 0.00061451245075 0.0027235426562 0.072737645251 0.071001827329 0.0042792864844 0.0055334672546 0.0053741029626 
0.0067945470966 0.00019872939859 0.00025410402628 0.00013793445907 0.012607106645 0.0064498175098 -0.00019949591996 0.00047875500114 0.0111874277 
0.014450790358 0.012217394461 4.6917516426e-06 7.8941543691e-06 5.055082502e-06 -9.6980995335e-06 3.2377575971e-05 -1.8751743701e-06 1.9165538041e-05 
0.022078902461 0.019895189856 0.018484039987 0.024640634405 0.025963236613 0.023380073562 0.022056109638 0.0075993094506 0.0072216241569 
0.0093105604771 0.00038318027124 -0.00017865367873 -0.00010590841085 0.015720360285 0.018959234741 0.017874148551 1.1926046567e-05 -1.2532898671e-05 
-8.019132135e-06 7.3396445504e-06 -4.089030926e-06 0.014718332131 0.016806408134 0.014798610159 0.01692831784 0.00042267449853 0.00099007396904 
0.00037141200029 -1.7930855126e-05 0.042581481582 0.047705476067 1.0617428047e-06 5.7712188123e-07 1.531062544e-05 0.0024041848392 0.0016759278817 
0.0020100542198 0.0010630640149 -3.7605342125e-07 -1.5202036144e-06 -1.3926732176e-06 0.0018948657649 0.0021621269173 0.0023741442232 0.0026947599257 
-0.0025082020469 1.1201609197e-05 0.10669752235 1.8573910571e-05 0.0017442553598 0.0012900812217 -1.5266173476e-06 -9.4814124038e-07 0.0035747391931 
0.0030864883925 0.0030819487777 0.0060071536906 0.013724610871 0.009701213701 1.3217647539e-05 9.7024675837e-06 -1.5228539945e-05 -2.3852741362e-05 
-5.8119397943e-06 0.081192103335 0.085448262997 0.087855280597 0.095241755599 0.0067138670045 0.0075935103458 0.077792895899 0.070331120412 
0.07366004701 0.065851216459 -4.7365524739e-05 6.6671141652e-05 1.0012880917e-05 0.035218465198 0.036150561603 0.023776590135 0.022050545447 
-3.2413318519e-06 -5.5154205861e-06 -1.0437012846e-05 1.6382036001e-06 0.0045048014122 0.00401448849 0.011536542105 0.011346963107 0.013734141706 
-1.5206071825e-05 4.4150617207e-05 0.005458935479 0.0056921718555 2.2565106984e-05 -3.3865761298e-06 0.060881032609 0.067753283484 0.00087887475327 
0.00083311050903 0.00024090213284 0.0015243391794 4.2579574599e-07 -2.5547685183e-05 5.752963276e-06 -1.1315740812e-05 0.00021816255913 -4.7121832458e-05 
0.012260359476 0.01185342474 -5.2889290278e-06 -4.9163719213e-05 1.2803540262e-05 0.068368722984 0.07450523473 0.074094378121 0.0010075418854 
0.00078128929168 -0.002692148685 -0.0095503858847 -7.323186745e-06 -0.00013080866346 0.0064718521048 0.0024401664909 2.6473072473e-05 0.011530531492 
0.013773934757 0.014704775645 0.017313572968 -0.0016705102553 0.00013202196793 0.00011964821911 0.049721487149 0.042437634087 0.043727345774 
0.00019533698288 0.00023510648994 -1.3402054651e-05 -4.3080744517e-06 -6.6334562018e-06 0.016147653296 0.012072448427 0.01267263332 0.0098959375969 
0.0091056749171 0.0072889225552 0.0071334454658 0.0055896164534 0.044409331896 0.002827671216 0.0026482183723 0.032065624132 0.026152946331 
0.023997557118 0.027996398744 0.025954585942 0.022603435688 0.020519381737 0.020000791517 0.0032097401059 -2.6559067965e-05 1.3949933218e-05 
-0.0021468997542 0.037261725828 0.0073553578376 0.0056317732527 0.0079107718329 0.027716830087 0.00014998255489 0.00032082587684 0.00023620821814 
0.022406514424 0.02106649547 0.022851944786 0.00088358314066 0.0013655030321 0.0012193741579 -3.0949670762e-06 3.5972193486e-05 -4.0044199876e-06 
-7.9932379832e-05 0.0012525966938 0.001146399804 0.00068881776215 0.00067929547325 0.0019885396008 0.0013080240778 0.0013383953371 0.0019533319861 
2.2538381224e-06 -2.355859354e-05 0.049127546394 0.003627536725 0.003496043681 0.0025966725974 0.0025143680085 0.0002807453168 0.0023362842452 
0.0019109941416 0.0052496454638 0.0017495795962 0.0043113716017 0.001556826634 0.00014894363454 0.00025896655622 -2.9458228632e-05 -4.4842799857e-05 
3.8639810848e-05 -5.6818393594e-05 -1.7112486076e-05 5.6778198903e-05 0.013827690017 0.017338080048 0.039657369172 0.034489345625 0.035386182463 
0.0059834195095 0.0058573790681 0.0049855206498 0.00081391330726 0.018622852878 0.018252052968 -3.7877252789e-05 7.048014843e-05 -4.9506112651e-06 
-0.00011769757336 0.0007459904017 0.00077423462667 0.0003497460202 0.017285985626 0.01031477671 0.012774382633 0.009186305905 0.011406751196 
3.5045613808e-05 0.00022532842164 0.00049401935573 0.10918048346 -2.949954666e-05 5.4789023846e-06 0.015221664187 0.016263560153 0.00010956532778 
5.2850692727e-05 -0.00013404392162 1.1532515482e-05 2.6900221383e-05 0.00017033153207 -1.0669313915e-05 2.1214584019e-06 2.449484283e-06 -3.2470392693e-06 
-6.8047023777e-06 0.020027653181 0.01802210446 0.021925092972 0.025196212224 0.04272639374 0.048377949226 0.055742311061 0.028877650616 
0.068794318138 0.05200955261 0.042627063917 0.06139435989 0.05756950987 0.10536458314 0.10390620979 0.10662298328 0.026369614088 
0.022371957498 0.024243336576 0.019743308004 0.017158923341 0.020858954747 0.018754512116 0.021733074612 0.094198651211 0.094920853559 
0.089510478872 0.089534971141 0.082383837083 0.082265118067 0.089850278132 0.013820738398 0.016473610626 0.023220887615 0.01100048167 
0.096293817286 0.0031016293102 0.0050941483982 0.003164491988 0.02569005261 0.074975459734 0.075258896683 -8.6533235965e-05 0.061868992767 
0.052504674974 0.076465232857 0.059636743428 0.025875562441 -3.5474300802e-07 -2.6409490386e-05 5.0335300225e-06 -3.4235904327e-05 1.3351434895e-06 
0.014131219089 0.016474789756 0.014025590519 0.018473961391 0.016941449119 0.020910805889 1.6370404083e-06 -1.8072261054e-06 -7.3069173292e-06 
-0.00073159792995 0.00032906136793 0.049410091075 0.046958074571 -5.8176792913e-05 6.5885792601e-05 2.1087105411e-05 3.0541069904e-05 5.8416631011e-06 
-4.1491628044e-06 -3.0541365753e-06 -2.0263311348e-05 6.6335842859e-06 -5.4531499644e-05 3.4581650182e-05 1.6659461488e-06 0.0011746152679 0.0018436335295 
0.0021466302859 0.011452323341 0.02125271986 0.0053572334054 0.011261644141 -6.9140180065e-06 3.9003833587e-06 0.0018371822563 0.0010356661407 
0.0017959731286 0.0010303850931 -0.00013803838972 0.013536384845 0.0002333774894 1.2748309292e-05 3.4560346828e-05 -4.5541146278e-05 -0.0021513140471 
0.022995813818 0.019870313292 1.7206340547e-07 0.0014653221832 3.9108816182e-06 4.6223000217e-06 -2.1999821018e-05 6.8091186798e-07 1.2720481773e-05 
0.00064369988675 8.3702616382e-07 -2.0660078744e-05 5.1317626501e-06 0.0048758390968 0.011975861931 0.0092888671174 0.00012163520745 0.00022752994212 
9.6493383089e-05 0.0054649722746 0.0090397290499 0.0084178602705 0.052517240365 0.046272103881 0.02039600532 0.021717661634 0.016556490039 
-7.5986049186e-05 2.8369092608e-05 9.1649814034e-05 0.013273063963 0.024743095665 0.093354387258 0.015645570996 0.0091430202019 0.0026917949124 
0.0073949070019 0.022935957383 0.022819545022 0.022869507787 6.1837796103e-05 -6.674022413e-05 0.023030768956 0.013823593644 0.016264364724 
0.12170128042 0.0059239345812 0.0043443618341 0.0098151881724 -0.005662518803 -0.003665355865 0.0062213967802 0.00037995595586 0.029343605225 
0.030351979193 1.0113709004e-05 -7.9749948567e-06 3.0996035871e-05 9.0534239001e-06 -4.4390234119e-05 -0.0010171213783 0.052532623972 0.0073906365248 
0.066137047201 0.042251350532 2.3935290279e-06 0.00066526806347 0.0013907950963 0.00046540549034 0.00034171727217 0.059079482662 2.187000626e-05 
5.3324870298e-06 -2.1685839333e-05 3.1631642703e-05 -4.4363429922e-05 -3.7935051498e-06 3.4539707194e-06 -5.8145506964e-05 4.4039381183e-05 0.028316453302 
3.7840672373e-06 2.3061972673e-05 -1.5975362335e-05 -1.457629517e-05 1.2158723979e-06 -2.7438552404e-06 2.8696362446e-05 2.5776983976e-05 0.00030899332278 
0.022987794379 0.0035822089869 0.0046210325733 0.0044637046222 1.3400055208e-05 4.1736093966e-06 -9.947007209e-06 0.011313734375 0.011050358805 
0.012926060369 0.012519238951 0.022032153837 0.018815919272 0.022623150099 0.021703839893 0.011553425911 0.0065249584892 2.7801317052e-05 
0.0093532797421 0.0066723334188 0.00044241097109 0.0013492745961 0.0078661999318 0.01005953005 0.024035336098 0.026224768695 0.022745366784 
0.006403179961 0.0083498558877 0.0089498478951 0.00043805636142 0.0079091437116 0.0057250635054 0.0075387540148 0.026609911813 0.024685880682 
9.7989836182e-06 0.025502121274 0.029111106332 0.024127671977 0.027834330872 0.060404328254 -5.3299038578e-06 1.1004452481e-05 0.0078065742056 
-0.00011614007873 0.036759774523 0.032503489448 0.036830256204 0.033138399581 0.003907656138 0.0043316921765 0.018211981442 0.037724200703 
0.00012090498096 -2.5485481435e-05 -7.0254955326e-06 2.7856604156e-05 3.5908921097e-05 0.019151544704 0.027132728423 0.016263924202 0.02333042276 
0.02303516095 0.021290833544 0.029910857975 0.0270143264 0.027310731909 0.024981423783 1.7709189741e-05 -2.7155005537e-06 1.6809935736e-05 
8.348217097e-05 2.6154970002e-05 -2.4417064933e-06 0.014849471164 0.012014034382 0.011671067285 0.0084638516086 0.0018512051225 0.0023666341503 
0.0018454682021 0.0025301402452 0.005929969911 0.0050378622391 0.00030924831093 -0.0005516029227 0.00015088332389 0.0003689178676 0.0060923024643 
0.0048981464845 0.0055067710179 0.0044046035881 7.323694271e-06 0.00036784178482 0.020234512414 0.021536256537 -5.1987217216e-06 0.0035836685447 
0.0047591939574 0.0048806631668 0.029825700738 0.02834980153 0.0059362711179 0.0057534669489 0.0046475268043 0.0044942519038 0.0010025437869 
0.00074881348537 1.6171969097e-05 -2.7127691525e-06 -0.0020823805758 0.00050351735195 -2.6226139579e-05 -2.1929805715e-05 0.0045045846078 0.002240529083 
-4.1967181315e-05 -1.8584557772e-05 3.602244449e-05 -0.0010041098406 0.0049489289468 -2.4485149533e-05 0.0022639463841 0.0026907371324 0.0031015691378 
0.0078740145852 0.0091471957932 0.0077393146983 0.008924825107 0.096540341626 0.090783018438 0.0081137098147 5.1937835004e-06 0.014281924363 
0.012768595653 0.014249846018 0.014761644377 0.012060911614 0.014667464106 0.012019006337 3.2550585222e-05 -2.3765862465e-05 7.6755688207e-05 
2.1749151889e-05 -2.6283562974e-05 -3.5470883929e-05 0.013904774927 0.074798791539 0.082070267936 0.082872144745 1.8821169705e-05 0.0015617272103 
0.0074245787809 0.0090382918775 -0.0012031961089 0.01112997405 -0.0034902520009 0.0098097978527 0.011799293063 0.0099269883646 0.012170016785 
0.061600126707 0.069908526311 0.0068936067682 0.0076364145405 0.0078303722058 0.0088260957629 -7.5082917062e-05 3.0717344844e-06 4.2085814893e-05 
0.078350498383 0.082667108001 2.6424027245e-05 0.048173072324 0.055748874984 0.068144239828 0.061088609354 0.068040183945 0.0090583460961 
0.06551185266 0.068319912296 0.062002405278 0.074379992335 0.086077749464 0.096137590993 0.0023812804666 0.0023004531356 0.0035211793611 
0.081635991423 0.082082284093 0.013389708615 0.014739862655 0.021492482925 0.00026134125036 0.00040976643769 0.00039179628165 0.063130243571 
0.060144754707 0.025537388321 0.025287588511 0.023326690612 4.3320285402e-05 -0.00013466838237 0.00027901125895 0.0012663921184 0.0030990123641 
0.00075875583372 0.00067383150285 0.019631718973 0.0001168342684 0.0040502594478 0.021211271872 -0.0014634641389 0.047386199368 0.040938831936 
0.093039995705 0.097632106238 0.023872695085 0.023183492495 0.020678338021 -2.175785073e-05 0.0035826082774 0.0035946591387 0.0046653240555 
0.00011814107848 0.00019654767798 0.00050579492735 0.00041285450486 -2.3274823856e-05 0.0023497129139 0.098599360844 0.10061442718 0.09977349949 
-8.2960365691e-05 0.00028274524313 -0.0012807317699 -0.00038514645628 -1.1031903542e-05 -0.00016173114794 3.2875651778e-06 5.8417617046e-06 9.4977978793e-07 
0.099797786431 9.8734663392e-05 0.00038405111694 0.022445827553 0.020862748361 0.021077145506 -1.5988160094e-05 -5.7873048464e-05 4.5296352639e-05 
-1.3219303989e-06 -4.4585708288e-05 0.016057182428 0.011207430479 0.034667830557 0.030668595325 0.029031155547 -0.00015387680313 0.00056430098918 
0.00060147369698 6.0544231806e-06 -9.7510788499e-07 -2.7862473449e-06 0.030777392289 0.037544505727 -1.7395516125e-07 -5.8639367899e-06 -2.9317987526e-07 
1.8686919714e-06 5.2958692309e-05 -6.2072804006e-05 -5.6375509457e-06 0.01087421478 0.01456706632 0.010964435599 -0.00012346276338 0.10098883434 
0.0083058503579 1.1157096487e-05 0.0013484698608 0.0009314483874 0.033025558319 0.015525911758 0.01475361361 0.019246473383 0.04548047396 
0.033732504597 0.0377724886 0.03523108 3.689625556e-05 7.8459067372e-05 0.0055904033847 -0.0048604185561 0.0024606276585 0.022863796483 
0.023320616653 7.2584192812e-05 0.00012651541162 0.0034886659221 0.0022435343473 0.0033579835389 0.040197647178 0.034041945775 0.035437398445 
0.034031583198 0.00042750520773 0.001158875039 0.0010353037699 0.022104811844 -1.1382429889e-06 -1.4183928565e-05 0.026651845157 0.0057746082246 
0.0052513447869 1.8291780266e-05 2.9706672674e-06 -3.3336415265e-06 2.9749536278e-06 -1.3657517641e-05 -3.6086407733e-05 2.3958080604e-05 3.5152646611e-06 
2.4678333612e-05 1.1083365896e-06 0.00025783795398 0.086949965673 -2.4037515635e-06 0.00019126779698 1.1878281111e-05 -9.0082788161e-06 -3.5535614259e-06 
0.0038082723509 0.0034448229298 0.0052115785846 0.0047097269965 -2.8488288761e-05 -5.3671382251e-06 0.0021227946612 1.9158053585e-05 -3.7092012523e-06 
-6.8443814966e-06 -3.2163184084e-07 -3.7381820655e-06 2.058131715e-05 2.4629916941e-06 0.019355552723 0.016672424478 0.019575558235 5.1401743058e-06 
4.2920683671e-07 1.4484763466e-05 -2.4939339425e-05 -3.7740854307e-06 -3.1862824006e-06 -4.8837720699e-07 0.0035828459196 0.0029908918788 0.0032856907384 
0.054168633913 0.063196614516 -1.0300635411e-05 1.3666795841e-05 0.00021195876879 0.0242517065 0.027263073375 0.0380972849 0.034129892697 
0.033620117466 -7.5430894995e-06 -5.8183229467e-06 0.0017650113834 0.0017174123024 0.028476647558 0.0025678302968 0.0013127854383 0.0044699673434 
0.080421290727 0.00082405414849 0.00031614404721 6.9895261842e-06 7.3200146388e-06 4.5799326756e-05 0.068260134103 0.041267285321 0.004386935494 
0.0057113441281 0.0037739613552 0.034501418781 0.042999439691 0.034905281578 0.0011015008351 -0.00073450358 0.00029974950282 0.018048523385 
0.03666906845 0.03214700717 0.030206528091 0.057245503966 0.055827651596 0.013728036906 -0.00066073136011 -0.0005616274263 7.4311275078e-05 
0.10774915996 0.095410964907 0.090763516935 0.073491964843 0.033641359292 0.03609208505 0.042194741157 0.047883393682 0.046181202601 
1.3355153496e-05 0.036655845698 0.041249352987 0.032340314234 0.036632435841 -0.0032726440313 0.00014110503157 0.00046041066319 0.00033309458011 
-0.0035734269157 0.060001048353 0.062046517391 0.054198341813 0.066099632985 1.4917163999e-05 -3.526046084e-05 2.0830968624e-05 -3.1622012224e-06 
-3.308711368e-06 7.8447509959e-06 0.0039773251934 0.048445918275 -3.4510349705e-05 0.0023187556376 0.0027236243943 2.6151747131e-05 -5.7356883243e-05 
-0.00041371519539 -5.6269350547e-05 0.00011123059107 -0.00048389675705 -7.4349163842e-05 -8.6153062238e-05 0.00089575550216 2.2028186113e-05 -2.8496347524e-05 
-9.6563427247e-05 0.00019785413475 0.00019889554098 7.6293556476e-05 0.014241212334 0.029243396768 0.021223330684 0.0015719054433 0.0042514566079 
0.0028644888797 0.00618129735 0.0051452161629 -9.4774649155e-06 0.0053318779901 0.00075583275346 0.0002114413827 -0.00019076576081 -1.9298395747e-05 
0.016078733274 0.013959664815 0.013162337038 1.7116451306e-07 2.0001290395e-05 0.00044834390623 5.2818250571e-05 -6.1619810723e-07 0.0048307020802 
0.0098652452237 0.0086913127053 0.0094005913918 0.0041105842701 0.0029511149196 0.003507735814 3.3274771091e-05 0.0008073627087 -0.00011053595141 
8.008151642e-06 0.0037175709631 0.0047458947583 0.0049591941296 0.0036737963525 0.0039915380764 0.011641474296 0.041455873972 0.0037155012598 
0.0055584914322 0.00011881989667 -5.1995649382e-05 -1.365745934e-05 0.011348624514 0.014520882658 0.0082704439195 0.013205120576 -2.7671149062e-05 
2.7606855798e-05 -1.3850485205e-05 1.2116362904e-05 2.590484991e-05 -4.2645989043e-06 -2.3289321725e-05 0.004048704539 0.0039102990652 0.0027240725501 
0.0023990392989 9.8031314716e-06 7.3472405891e-06 2.8031562844e-06 0.017979235178 0.042248429126 0.036714497118 2.9351411059e-05 -4.1062384915e-05 
-8.9740784923e-05 0.0018427056439 0.0049244499851 0.0046508683619 -3.425187684e-06 -1.5211715156e-05 1.3007541853e-05 -2.612559986e-05 0.008257535628 
0.0087890397288 0.0043080257556 0.0026341763825 0.010441435905 0.00012787074159 0.0004607417654 -0.00023642068864 -0.0059420117233 0.003015481283 
0.0052644125305 1.9216730431e-06 0.0001436775046 7.6943930567e-06 -0.00024267369052 0.013415536112 0.016398080963 0.013716880064 0.016689575929 
3.6316496596e-05 6.0861797506e-05 0.017199348604 0.018222252683 0.01229410554 0.00970184625 0.020367575664 0.0086230049687 0.017215313198 
0.019140894397 0.014198436609 0.023100235393 0.022213604597 0.020970559221 0.028828923643 0.027778783845 1.1200987135e-05 -3.0609855782e-06 
1.5804486265e-06 -6.8785583982e-07 3.0050313564e-06 -4.9318502228e-06 0.0067719994033 0.0053110546374 0.0074806681962 0.0039290698682 0.007793366875 
0.026248151579 2.8859108869e-06 -0.00065213962228 -5.0170223964e-05 2.686334655e-05 -6.6510728824e-07 1.7374972487e-05 0.0023388690175 0.0028089215796 
0.0047615656808 0.0055194523024 8.4408166172e-07 -3.3007814223e-06 0.001773593567 0.0013576769462 0.0082809616063 0.0070538386082 0.0080386078356 
-1.1882907212e-05 2.1433801169e-05 -1.8206638935e-06 0.00056420368286 -0.00023974326746 7.921789321e-05 -0.010842371018 -0.0018207582765 0.0070315771123 
0.01022219418 -2.6369804512e-05 7.253586792e-06 0.069023144183 0.0070818197108 0.0058817075387 0.00936653728 0.005479343444 0.0047265990596 
0.006018224134 0.045734555575 0.050435067073 0.020169742673 0.022425838203 -7.4324835111e-05 -3.402429587e-05 0.045459735795 -8.1158627318e-06 
1.0763613826e-05 -7.504872005e-05 5.7945758941e-05 0.0023190662064 -0.00014907726496 -0.0016853385066 0.0025922997403 0.0024352895562 0.0020891259466 
0.031305175823 0.02850761942 0.014321262189 0.0087862118034 0.0043175077364 0.0032987740368 0.0037891112185 0.032787328766 0.024167473483 
0.019472807337 0.098201037846 0.00032373841995 0.097198845438 0.009578791459 0.035810598994 0.033275472013 0.029028405657 0.023493937961 
-7.3941354873e-07 2.1423213528e-05 -1.1433018214e-06 -7.491227042e-06 -4.4129773606e-05 7.017853629e-05 0.00052281585087 -2.7152977899e-06 2.539636635e-06 
0.010188492604 0.011642202737 0.010351747408 -1.1244092819e-05 -1.7392196051e-05 -8.62484838e-06 -5.5200401645e-06 0.011906683636 0.011561510101 
0.020959172319 0.024422365879 0.0094865847076 0.0013328800324 0.0024709106743 0.0013101107247 0.0022706734013 0.042612654837 0.027257712677 
0.025692980462 -4.0622415463e-06 -9.7253022932e-06 0.00021508496907 0.089343069511 0.083357274673 0.084639790898 7.384906081e-05 0.0038517919283 
0.0019763949091 0.00094520467733 0.001573101994 0.0012501457628 0.0005572730156 0.00043608866272 -3.2823528088e-05 0.0066606439716 0.0058969581956 
-3.7043788733e-05 2.3072624826e-05 3.6473873431e-07 5.4944528551e-06 0.031026228148 0.001573094073 0.0062170554989 -2.6481599105e-06 -1.8514824444e-05 
0.0052592624424 0.0016671986466 0.0093429060398 -0.0030526790215 0.00068110382043 0.00064396495805 0.0013605538419 0.0028565365424 0.0014359319134 
0.00094939698931 0.00063462085582 0.00097398882545 0.10507645993 0.054513649156 0.053977253151 0.013286904371 -2.633920782e-05 0.041592921799 
0.029688612756 0.027390347281 0.027405478368 9.3031247274e-07 -1.7110684064e-05 0.01268362346 0.0098077376505 2.3240556554e-05 0.0058001365043 
0.0077071901807 0.0090093924276 0.0080757941367 0.0078134432788 0.0080347221723 8.8388431709e-05 -3.1937242051e-05 -1.4421816714e-05 0.0094121300457 
0.0076186710999 0.0011812736921 -0.001408143652 -9.79254767e-06 0.0019680221431 0.027787067731 0.022251332827 0.048048451143 0.034008387465 
0.03681416715 1.5562795446e-05 2.6420426782e-05 1.1144045882e-05 -1.5764986973e-05 5.523682489e-05 2.7041199692e-05 0.00029801471443 1.02209638e-05 
-6.8769294884e-06 0.010471957621 0.003246023217 0.0045622989759 0.0030756571255 0.0072731921315 0.0084694396966 0.0065585792588 0.0097486806091 
0.010869753328 0.015548214553 0.0082214156438 0.031454023026 0.0019650321805 0.0025854322074 0.0025322921103 0.038117476255 -0.00012231077508 
0.022401990078 0.00025957596791 -0.00010302586993 -2.0059558881e-05 -0.00010263695695 0.00010192615722 0.04722822411 3.5512659839e-06 2.83486921e-07 
-1.9759251651e-05 0.0018984288468 1.5760776886e-05 5.4422621781e-07 0.030226909269 0.028907290469 0.0049857747296 0.002060583341 0.082675691479 
0.090216142766 0.082420858275 0.090460309204 0.0054321157499 0.0039172254098 0.0047380189667 0.0011580813715 -0.0010914948239 -0.001560882177 
0.00035433795454 0.025406502524 0.0062684713439 0.0065383801116 5.6438861137e-07 -4.585666937e-05 -1.0124827546e-05 -1.902307627e-05 0.00039927417068 
8.4993275526e-06 0.026053255304 0.024669633697 0.027607562989 0.0017755600127 2.191929508e-05 0.02086701384 0.022328131491 0.0147469557 
0.0073817625741 0.0085062792471 0.0093688538131 0.00051948986089 0.00034460782374 0.017299006925 0.019462797442 0.019515967218 0.0037794855518 
0.07845449142 6.8543255963e-06 -2.842568763e-05 -4.0392626331e-06 4.7029291997e-05 0.018266051592 0.013799998862 0.015391081637 0.011261205792 
-4.682441494e-06 0.060297777136 0.055747731379 0.051316623966 -0.0044849244084 -0.00024691022106 0.015744945747 0.0021365520899 0.00076539691202 
0.00083991724068 0.0012449736342 0.011418338753 0.0064120004054 5.0532644824e-06 -5.8008219531e-05 0.00017017458873 0.00018781875946 0.00041104901043 
0.00025272116776 1.35187313e-05 0.060724352885 0.053419265509 0.053857199515 0.022850231271 0.023750929664 -1.5165241687e-05 2.4985403405e-05 
-4.7600004241e-05 -4.572175916e-05 0.003052648102 -1.7451165952e-05 4.2546412209e-05 0.074525337919 -4.2374663842e-06 -4.0381740877e-05 0.0036856384444 
0.00016603121256 0.00016746009275 0.00040612441057 -1.294299079e-05 1.464069205e-05 0.0002085667806 0.00056123296008 2.4328064462e-06 3.8651331876e-07 
0.0017872610657 0.0026632476536 0.0009756297675 -1.2490168797e-05 -4.039975987e-05 0.03430983971 0.044456325826 0.028321485151 0.013911211487 
0.0067380226892 0.089010005506 0.094994340256 0.095872822372 -1.6047350463e-06 0.0015809089248 0.0222792965 0.021494019164 -9.4129800836e-06 
-7.2389641764e-06 0.029149704104 0.025446163195 0.027242420788 0.0020841516248 0.0033853522207 0.0037810610929 -0.00096368227948 -0.0023450071076 
0.016701499183 0.014519108175 0.0013806777638 0.014250407807 -0.00010907895835 -1.283981758e-05 0.00094427216786 0.0090600769141 0.010981216756 
0.00032526486072 0.020262563939 -5.8455428718e-06 0.0098397751034 3.6349926319e-05 -5.4810352832e-05 0.00097430548918 0.0001184683064 1.5759332728e-06 
-3.1449781942e-06 0.00022162422657 0.056223678248 0.058807467447 0.051046747818 0.0012085915562 -2.0628124112e-05 -1.0087255657e-05 -2.1829056564e-06 
0.0038443380788 0.0015186254964 8.496011425e-05 6.3023922792e-06 0.0059532213423 0.0087084545581 0.0016945443862 0.00084350107879 0.00066724859156 
0.0029867468573 1.2339188078e-06 0.0011574387982 2.2230128435e-05 0.0025462389708 0.002198538346 0.0018276906814 0.080225796715 0.079241941293 
0.094977288992 0.0039946465271 0.00013229763394 4.592735395e-05 0.00015936190402 0.012105861812 0.013642494794 0.010847635212 8.0665316076e-06 
-2.4100777697e-05 0.0063155917639 7.0452074841e-06 0.057682993813 0.052266200072 1.3584916351e-05 -1.5628683242e-05 -2.1922198115e-05 0.011200724857 
0.012543448483 0.015232674385 0.010357071648 0.045600704367 0.012220571384 0.010154065406 0.092419406236 0.097691015356 0.093054126389 
0.020504969835 0.067827378762 0.046788007611 0.0029856852983 0.00202286734 0.0018813751316 0.00272675073 0.029216394438 0.00171630562 
0.0026724784946 -0.0014279339468 4.6135352662e-05 0.0086675489163 0.0070856775984 -0.0032784987637 0.052430376079 0.045379229623 0.082335429527 
2.1375372935e-05 0.0091319159561 0.0083149630737 0.013345993672 0.082633016737 0.077875798594 -0.00012704665396 2.7177295764e-05 -6.4270700076e-05 
7.4543463403e-06 6.6234179134e-06 2.2412951294e-05 0.10105801481 0.084038691665 0.090531701462 0.082458372823 0.0061742462949 0.004886717736 
-1.3451423509e-05 -2.5546293501e-06 0.011365170877 0.00028407489736 0.00014168127432 9.8541278997e-05 0.00030319361415 0.00019515492925 0.010337686273 
0.035890204648 0.035643781907 -0.0011887378718 0.002889621378 0.0040287193967 0.0028483275023 0.0019645169793 2.1003491275e-05 -1.523561207e-05 
0.11161045058 0.1196142492 0.10635881911 0.11555921938 0.007971441846 0.0069454294589 0.0064600523948 0.00062729927979 0.00031435800352 
0.00040191742584 -1.7339799267e-05 -7.1631009394e-05 -2.3402278196e-05 -3.8352848257e-06 4.2936836228e-05 0.031872106412 0.027377528986 5.5276344878e-06 
-1.1284221568e-05 0.060270781077 0.0028479088015 0.0020783997541 7.086860308e-05 0.0082233196247 3.2372892147e-06 5.7350259934e-07 1.8882560875e-05 
0.00010322135501 0.00049800887014 0.0033888946041 0.016885616766 0.00046210436028 0.0062294815281 -0.0032085772009 0.006307307605 1.1046310396e-05 
0.0085915884446 -0.0086213187938 0.00075852175797 -5.8847114414e-05 0.01598739322 0.015640166533 -6.0352235312e-06 0.083892322445 0.014338571223 
0.016392055553 0.014253924946 0.00014841212457 5.3383970151e-05 0.0014527293143 0.0010449698498 0.001900086295 0.015277758678 0.011975699008 
0.022860509598 0.021609813919 0.026019868282 0.004734719398 0.0056441800863 0.016559515859 0.01103407731 -1.4445887248e-05 5.7809596488e-06 
0.023988775434 0.0042369611759 0.003305880376 0.0039755536189 0.0033149393487 0.0037292752484 0.0025946246732 0.0035754204658 0.017696437907 
3.8473034372e-05 -1.6733275545e-05 0.00053410058994 0.00012336879764 -7.0861081031e-06 -1.5751407552e-05 -9.3505949493e-06 -7.6872123547e-06 8.873406695e-05 
-3.9661407353e-06 5.6239217453e-05 3.9338735435e-05 -4.7479133036e-05 -8.0902574255e-05 1.7216110349e-05 9.6032387328e-05 0.00020752126796 0.034741136974 
0.00012384589943 0.00042289689238 -2.6672953243e-05 -2.972571188e-05 -4.1551264725e-06 0.0012808030254 0.0012834342149 0.0019212824021 0.00018320920446 
0.00018037230763 -0.00010507716294 -0.00013986472987 0.00025984337029 0.0002605802391 0.0081151879431 0.0060761097757 5.6251312457e-05 4.9329532491e-05 
-0.00018703852869 0.0023934775196 0.0021262571833 0.0015444619811 0.00039640373877 0.003981700345 0.0041726033242 0.0031843827825 0.012466271715 
0.0055283630111 0.030313264205 0.018840773636 -4.4524344328e-06 1.5741224054e-05 1.4718148541e-05 -1.4035452214e-05 7.0965392717e-07 -8.2011825707e-06 
-4.9652035803e-05 3.399850373e-06 -9.6434407911e-06 0.041228829475 -1.0315851174e-05 2.0119378261e-05 -3.2192781432e-06 -9.6647156609e-06 -2.9312023668e-05 
0.0010582320655 0.0058663887816 0.016859258583 0.013556481242 0.0074195418062 0.019427915077 0.012898573172 -9.0459565148e-06 0.00018701899851 
0.002833033882 0.0031857914393 0.0043087390503 0.0034582608049 0.018985202755 0.10706105443 0.10752855176 0.026302711994 -1.0141544052e-05 
-2.2813759146e-05 -1.8505861365e-06 0.015835517957 -0.00036515205483 0.00073315616711 0.00077950119695 0.024592917577 0.0072878083841 9.2015256075e-05 
0.0094051771255 -0.0031961087175 -0.0070564350653 0.0034474574082 -0.000226827552 0.00099854263553 0.0010830710335 0.00018554697118 0.00036714958046 
0.00010268776298 0.0094695701931 0.012263105168 -7.1712545809e-06 0.097081273016 0.094843690318 0.089336963649 -5.4912133822e-05 -7.9621123223e-06 
-6.5703316356e-05 0.00048381979641 0.00091913146423 0.00042729738246 0.00058476629651 0.0014932249637 0.0074174326687 -0.00041218246496 -5.0759640067e-05 
7.1720517514e-06 0.00018813124373 0.00095404362872 1.0534020984e-05 -1.2190599599e-06 0.017192321272 0.00027691239948 0.00014348854081 -1.8320994408e-05 
-2.6631107473e-05 0.0001514211253 6.7354900962e-05 0.025549327553 1.4380306922e-05 0.00079143557245 0.0054086654869 0.0047106010948 0.0045227707855 
0.0058549687888 -2.251233044e-05 -1.5116809441e-05 0.034630703271 0.025201766293 0.015411693161 4.5686787924e-05 -3.042492112e-06 0.00018246525698 
-0.00012527904578 0.0032765531336 0.00065340887837 -3.2593045513e-05 -3.2981721254e-06 0.001324716594 -1.7933781892e-06 0.00013522215078 3.0791409478e-07 
-3.9171050815e-07 -7.588054497e-06 1.0836001554e-05 0.00010056146525 8.3485297941e-05 -3.8369912929e-05 -8.6684608066e-06 2.7282591879e-05 -8.274457508e-07 
0.0059213295316 0.00018643346272 0.0043095924144 0.0041388523693 0.0051922503282 0.006940923409 0.0047733134138 0.001417658728 0.039473930126 
0.044278555494 2.4171066431e-06 5.3060892874e-05 -4.1026641073e-05 0.0010392633436 0.00081201797352 0.0013172971386 0.021066598837 0.086703308244 
0.097197595391 0.0016509118684 0.028860695154 0.032219691155 0.029453856496 0.032606867309 0.02230230258 0.019526265771 0.025321894163 
0.037646407236 0.086377657805 2.025678269e-05 0.00014540628618 0.014280271894 -0.00093708953166 0.012907146193 0.00034063624411 0.0062604057245 
0.0074175496031 2.8414603083e-05 0.015138039185 5.7660151068e-06 0.00047065991834 0.00055231538506 -0.00018297233475 0.0029552162605 0.0034374373889 
0.0038443117749 6.7040274947e-07 -5.980083625e-05 -5.6692184189e-05 -0.00033556971437 0.007914415752 -7.3688034288e-06 0.0019042261947 0.0027710518481 
0.033224867777 0.028652841597 -1.0651710165e-05 0.010392277401 0.00019098249433 0.020600688616 0.0093053619903 0.022057555545 0.019618757433 
-0.00055903663864 0.019727161012 0.0016196569381 -1.4580112396e-05 0.0011517729905 0.0007553124525 0.00045409279957 -1.8075770885e-05 8.3986002167e-05 
0.00018076621653 0.00010375273225 -3.0167690137e-05 -3.8467155184e-06 -0.00010345071194 1.3051447538e-05 0.0012704196413 0.0064122643596 0.0072509538791 
0.0042383426123 0.00080178434542 0.00031204016797 0.0024915520973 2.0454863533e-05 0.00019061326656 -8.151490334e-05 1.6049659508e-05 0.00091965199862 
0.0042478024159 0.027720587384 0.032711282693 0.030867156794 0.0025938690474 2.9926420697e-06 0.0021007212065 0.0011267929817 0.043624397864 
0.042229788266 0.036265880265 0.034400851023 9.4292062597e-06 2.0773064763e-07 0.018118036616 0.020164162038 0.0070097429714 0.00026298207638 
0.0055886661241 -2.1685191218e-06 0.0071091772194 9.1917127183e-05 0.010319301715 -2.0252473288e-05 -1.9453544495e-05 0.060156285046 0.069340545743 
0.066844780254 2.2047674951e-05 0.0079840425337 1.4877503525e-06 -7.4363996963e-06 0.054006999435 0.059182687211 0.00023670219864 0.00015285567714 
3.8456028365e-05 0.056464632572 0.0015470422378 0.00050974236188 0.0010706005553 7.9248846594e-06 7.2468491983e-07 3.9740114099e-05 0.018328872919 
0.0016443628273 0.0013916426415 0.001062300888 0.0047054300246 0.0043209466695 0.0021640312878 4.4346473229e-05 0.00013612096633 0.0070362272585 
0.0077185550627 0.0082644328764 0.0023283013847 0.021969170144 3.9984098659e-05 0.063257936019 0.085912351931 0.046944832059 0.04697291054 
0.10185156019 0.090249675083 0.088482987864 -9.1701307791e-05 0.074357647641 -3.308205832e-05 -2.405996581e-05 0.033477664869 0.037386783616 
0.03927760161 0.034466853411 0.041699418802 0.03165795564 0.10018376924 0.010056981503 0.012633834413 0.025137049268 0.023211461765 
0.023704247251 -1.4307040014e-05 -0.00041977404823 -0.00045237254164 -0.0043118824232 0.0022736882474 0.0053958248691 -0.00022566302067 0.022481992974 
1.2526839682e-05 2.0879343725e-05 2.3232855688e-05 0.0093648916274 2.8239888192e-05 3.1620030479e-05 0.0038165763052 0.0032334108771 0.0049843723536 
-8.4504167242e-07 6.2700149067e-07 0.012131894184 0.020689169678 -8.6162351845e-05 5.8937712396e-06 -2.9429120078e-05 -2.5533686314e-06 0.038342678404 
3.8585314153e-05 0.018560228132 -1.7098325814e-05 -6.9404691955e-06 9.5612471766e-06 -1.2524680078e-05 -1.4042187152e-05 0.031219570152 0.019975263146 
0.019049262914 0.022632037316 0.020731460621 0.02471261133 0.018112965414 0.040798807178 0.039756237783 0.021018018052 0.0059401680849 
0.028865839821 0.032024576562 0.00021635009645 0.00028598871223 -1.6863523101e-06 2.9476023563e-06 0.0089489090925 0.0015033676911 0.0098480866044 
-5.4743010671e-05 0.00031842811595 0.0061883277428 0.081587032106 0.002018663824 0.0044672297803 0.0071382850698 0.015663207332 8.132116352e-06 
0.010642925411 9.3652052174e-06 4.9609228656e-05 0.01189305506 0.004730465776 0.01187632525 0.00020629236738 -6.1493178397e-06 0.0067760390594 
0.002046782232 0.00032721448593 6.341647022e-05 5.3556886502e-05 0.0061855227181 0.0086617786937 -3.610220047e-06 4.7908104254e-05 0.1063461631 
-2.5341079657e-05 0.013438181669 0.012999815023 -1.3773697497e-05 3.2423403022e-06 3.3351333612e-05 0.0019422595381 0.096622368629 0.0046479392991 
0.000373555319 0.025143942367 0.023023350936 0.11019167452 0.02008011931 0.031409359517 0.017555451135 0.038548059587 -3.4104381902e-05 
0.0027907955877 0.0022939234841 0.0034917636732 0.003131901603 0.017731942 -1.6627506602e-05 5.2915615451e-07 1.5364488243e-05 1.9323537495e-05 
1.5027513793e-05 -1.7836227449e-06 0.00065827160054 0.0099156628401 0.02563140492 0.028538414586 0.022917978008 0.025286483395 0.025828575777 
0.047500217997 0.033354994725 0.031995708878 0.029284978763 0.004880717022 0.07231632188 1.9551060064e-05 -3.8373990368e-05 0.0029266234142 
0.051660261703 0.10421332582 0.10492850653 0.0053738934731 0.0004075020081 0.028898994017 0.00014581028065 0.00017613096925 0.00078130705237 
0.00073241307742 0.00028515138436 0.00029232182519 0.007279617543 4.3448208569e-05 -0.00036173676671 -7.7708655212e-05 1.3759082833e-05 3.4568118824e-05 
0.00027224896784 -6.581582939e-05 0.00018473980319 2.8815372408e-05 8.3724160814e-06 0.012383484066 0.00056534211458 -1.2453790507e-06 -6.7281524337e-05 
1.0128509435e-05 0.00037643055212 0.00016919822909 0.00010375830462 -0.00085041505152 0.10933866308 0.0033545378759 0.0031857509473 0.0025105238944 
0.00016805538652 -9.1497615343e-07 -1.8674465009e-06 -0.00016262465914 0.07939137155 0.093906260246 0.082751604979 0.092600785886 0.097498186952 
0.0032605873839 -4.4720617398e-05 0.06560278123 0.06453828912 0.024542421907 0.066708845741 -0.0059493442187 0.005029204891 0.0034190885612 
1.823120586e-05 0.00045784131656 0.00042612412046 0.00055529247963 0.00041398211298 0.012986673708 0.0075681594811 0.00063391607464 0.00025681636822 
0.022269797895 -0.00010643973755 4.6263275007e-05 0.10677226497 0.099373010249 0.0085240616144 0.0054870689111 0.0088647869767 -3.7489300114e-05 
0.00063740255957 0.00042936142742 0.075230773672 0.068218095477 0.068048820781 0.09025488627 2.5877023122e-06 0.075288160143 0.07512037106 
0.0085772415023 0.0010239790159 0.0012162291719 0.03315359688 0.039115139252 3.2520892052e-05 0.0011368906222 0.00049297323421 0.00014864529561 
0.011101029495 0.0099182936493 0.00012258968623 0.0076977422501 -0.0029780856749 -0.00090677989571 0.014448302917 0.020518798379 0.017361455066 
0.00016520723867 0.0054882848707 0.00054971739175 0.00024180444421 0.0072446164156 0.045933515283 0.031039324664 0.0020033197148 -8.2980598269e-05 
4.3523965161e-05 0.00023815501544 -0.00032490770882 0.0017522139602 0.0018931919517 0.0024185548015 -0.0015223896584 0.0024561743101 0.0016711348643 
0.0027525172786 0.015318595002 0.0073343934381 0.0089261664351 0.06471896248 0.063543489567 0.069303599811 0.062092513417 0.0035329269621 
1.1197360986e-05 1.9277976656e-05 -2.6638292118e-05 0.011315907215 0.013114801589 0.0021377031168 0.0018655497507 0.0011733666908 0.00049568419733 
0.073673745615 0.06731203107 0.074636847378 -1.7497112807e-07 0.00028333287096 0.12173244583 4.6936120202e-05 2.361896408e-05 -7.2371951567e-06 
0.0022963557038 0.0021881022466 0.12039321983 0.00080360704304 0.00030832022203 0.041478453763 0.054010696768 0.05411624169 -5.7615894069e-05 
0.023614526306 -0.001316061477 0.0055899976523 3.0842861815e-07 0.011695939599 0.0080983878598 0.0045994039963 -1.1868869217e-05 0.010324249018 
0.011353837315 0.012456960613 -4.0120675498e-05 -5.2748460502e-06 -0.010696020822 -0.0011278786505 0.0024195277999 0.026396866409 0.024423668721 
0.0099444987707 0.010184828853 0.0018132145666 0.004344284701 0.015393964031 0.015951882265 0.00042728385173 0.016318492098 0.0065263853166 
0.017734014077 0.010376617587 0.012280925967 -3.3538583958e-06 1.0475098906e-05 0.028762584614 0.029813511304 0.028630632622 1.1440927423e-05 
0.046651735101 0.048869909891 0.0011140182538 0.00057010197004 0.0008144484763 -7.0084852642e-07 0.00074150030721 0.00063265234028 0.038420442831 
0.030774948021 -7.4983050995e-07 1.473800233e-05 0.05265885836 0.04298624697 0.048788663105 -1.3723163611e-05 0.025609109363 0.026962084862 
-0.00022478796503 0.00033056587246 0.011252426314 0.018739061446 0.010876579204 0.098696049907 0.087599643546 -6.8995943969e-06 -2.8104956534e-05 
0.0065555659124 0.014148356156 0.01817388473 0.00068564526453 4.4025580843e-05 0.084631740707 0.037102281581 0.037675713836 0.0003213418815 
0.019311122619 -0.0002292808632 0.027608139291 0.024439296363 0.0044950189313 0.0012812921129 4.922338254e-05 0.00034263649632 0.0024375204761 
-0.0074920239568 -0.001881315668 3.5501997418e-05 -1.6082555159e-05 0.060660877739 0.060940187148 0.0012892867675 0.017608823179 0.016348183649 
0.015671371975 0.00029994416257 -1.1696863728e-05 1.7409114088e-05 0.00037406816823 0.0010792635588 1.0039943287e-05 2.5819496327e-05 0.00044475177226 
-5.3736844527e-06 -1.1321445036e-05 -3.4062723061e-05 0.00017648572489 0.013412666123 0.008752313706 0.024363300556 0.024125512163 1.1889663522e-05 
6.0416847163e-06 0.00057542024628 0.0015269085257 0.0038413636498 0.099274609015 0.10280119483 0.10068776049 0.10207771072 0.00024747253882 
6.2184003782e-05 0.00038290162891 6.6771719408e-05 0.10061727068 1.3810240919e-05 0.095363509901 0.00019952264743 0.0041771172551 0.0053089747696 
0.0039254280463 -1.5561171144e-05 0.0080330347394 0.00038210278358 -1.8826571361e-05 0.0044586948939 0.043776822379 0.036373468329 0.027737916143 
0.0053967372428 -6.9368978212e-05 0.0022094786103 0.0172950229 0.0022213400191 0.053543649516 0.053693228451 0.053464484591 -2.0865300129e-05 
0.00025492757485 1.9271061114e-05 4.1144279183e-05 0.00010250230553 2.4353947233e-05 1.0832738437e-05 -2.0115617309e-05 -3.1689886876e-05 1.6556388186e-05 
-3.2973123306e-05 0.0098125830086 2.5142223644e-06 -2.3623438349e-05 1.8529998228e-05 -2.8037114538e-06 0.0042726530287 -4.4101015829e-05 8.1349302248e-05 
0.0023961222898 1.7605399143e-05 0.10629199095 0.0087061710165 -0.0015478520714 -8.6059167578e-05 0.011426403608 -6.6916496256e-05 4.3333621121e-05 
0.01006650311 0.013632060982 0.019608504959 0.075039705649 0.0015418787063 0.0024641349606 4.4585980954e-05 0.00042144899633 -6.7027592505e-06 
-3.165606218e-05 0.0020264862479 0.0026763282332 0.0020177457318 0.081484779586 0.08185809873 4.3024173407e-06 0.081920013351 0.0012319066055 
0.0020950185031 0.089738148011 0.00013911789251 7.2460418358e-05 0.0004273458404 0.011049334038 0.0028881799479 1.5606980767e-05 -3.229299837e-06 
2.0498167341e-05 0.066776398902 0.064646517678 -1.8604544961e-05 0.042133816067 1.374906373e-05 0.043600676534 0.074100996623 0.00073812074225 
0.00058059221575 -9.5074987099e-07 2.5540592493e-06 0.00080874882274 -1.0296589365e-05 0.011726192133 -0.004630857223 -5.8960856592e-05 -0.008320586438 
0.009136652099 -0.0045602458036 0.00015249359754 0.0030602632554 0.00027098979946 0.019652250888 0.02048884354 -0.0005464310076 -0.00099324080755 
0.015326610629 -0.00019755375169 0.025063954868 0.028732772207 0.00044429693405 0.096249648076 2.7209732433e-06 0.0046958759725 1.0380638098e-06 
7.8725349607e-06 -3.0484122877e-05 4.6886697104e-05 1.4892221371e-05 0.0046429370085 -0.00030093152915 -1.9283712514e-05 0.019736970851 0.023741469196 
-9.9179030924e-06 -3.3072060489e-05 6.0561234148e-05 -4.9549023637e-05 -4.0993785157e-05 -2.0594249241e-05 -6.5287621205e-06 -1.6913302593e-05 0.00039188032056 
0.016858243821 0.022633496202 -2.2849522034e-05 0.00031964497947 0.029255980361 0.036358549418 0.0017270005062 -2.59845274e-05 0.087912051307 
0.045874830459 0.039138275167 0.053729002391 0.0015232962186 0.00018332054867 0.0015606210211 -1.4923368292e-05 0.00061197899151 0.0010381991122 
2.0454760999e-05 0.00042279832524 0.017862975159 3.4084801198e-05 1.465273316e-05 0.00039830165424 -5.8078966784e-05 0.0027299158027 0.0024253322394 
0.0076761415444 0.0060396607587 0.075366736767 0.07637448491 0.088371924196 0.089124427297 0.015512072337 0.0061846540864 0.0013782125258 
-0.00034779336849 0.002451196352 -4.2134969147e-05 0.0047106718767 0.00024613566024 0.0004714157766 7.0673975898e-06 -5.4649148519e-05 0.060817393554 
0.0025902115143 0.0093210474837 0.0097416174426 0.013117539774 0.012197152169 0.034542122308 0.0017814905448 -8.9239412645e-06 0.089744567746 
0.086247852886 0.0093477042718 0.046300496231 0.028161834591 0.010338632511 5.1851840245e-05 9.7322540798e-05 0.0063856954428 0.0090374777712 
0.020369721456 0.0028827930337 0.028600928288 0.0087536070214 0.00070287309968 0.0013711698796 1.2426172364e-06 -4.6591774213e-06 -4.4351222584e-05 
1.0198940897e-06 0.019969519663 0.023980256226 0.053369541954 0.0073215184745 3.3538610753e-05 0.054780897862 0.076775307555 0.041338175654 
0.00012072476953 0.00031893097347 0.014313882112 0.016643453668 0.003992361857 0.0051973215967 0.027582467362 0.01445027092 0.030293327947 
0.034777601573 5.6012048493e-06 -2.4886462612e-05 0.00047097179599 2.3567982384e-05 0.023047129048 0.023601682473 0.020614848744 0.025697134951 
0.027642949307 0.026862107694 0.025065517246 2.4179979403e-05 0.026632691791 -0.00018327502765 -1.663497348e-05 0.0015280319319 1.6394200137e-05 
0.0065727375942 0.00023757041285 9.8199364006e-05 0.0029343949617 0.0097991236447 0.010711934944 0.0092675328473 0.001642813216 0.014221319132 
0.011394497529 0.012847201255 0.0037211733977 0.051827364129 0.02754423136 0.073003546706 0.0069969242487 0.045368702435 0.066474509546 
0.015489026337 0.00030241211655 0.0085473353353 3.700381454e-06 -3.9125806546e-05 -0.00026557012062 3.3007878438e-05 0.010461310773 0.0033978832577 
0.0070546264628 0.0083679037785 0.0065871580129 0.009579862806 0.0081641286401 0.00071947845305 0.058309940577 0.012349744719 0.014940188428 
0.013755196829 0.00040100484089 0.029259334016 0.047404395943 0.050336904914 0.00014128277672 2.43231754e-05 2.132043257e-05 0.003229162672 
-2.5158312677e-06 0.020647789044 0.018530575145 -4.3399743928e-05 0.017163717445 0.0054175758676 -1.6454340632e-05 0.010663614458 0.027023647976 
0.0001026906797 0.0026528418316 0.046989214851 0.00044719853105 0.046906072105 0.040745740928 0.00048549492443 0.00042583103253 -9.8512864472e-05 
0.00028536378587 -0.00010905892401 -2.5953968885e-05 -1.1800902488e-05 1.7881302243e-05 0.0060068727203 5.7901468618e-07 0.0091574761754 0.011145776969 
0.006662996541 0.016372936602 0.0085202099769 0.0039590009876 4.0859335646e-05 0.00014721403132 0.022204065303 -6.2796174905e-06 0.0026722232582 
1.9494477104e-05 -1.5435173532e-05 0.047228094174 0.081390027818 8.7532472126e-06 0.0019242847057 0.0017796367493 0.10098557081 0.0028589819558 
0.0031101355623 0.088492748505 2.1632104616e-05 0.0087318350714 0.00062895134834 0.084550944158 0.081658176345 0.07654755687 0.075489435569 
0.06930707741 0.013426396815 0.0054593024785 2.015516945e-05 -2.6110892579e-05 0.00028533479137 0.00019446324376 -2.0069033144e-05 0.0032791832461 
4.345228157e-07 0.0012107454476 0.0022410381697 -8.8793090294e-06 0.015111770385 0.00018983279101 0.00014962020024 0.025363650793 1.3913158568e-05 
0.085734404221 0.0064943680556 0.0053642293965 0.0069038094714 -0.010132208595 -5.8001039464e-05 -1.0181388577e-05 3.2221718604e-05 -2.1625910741e-05 
0.018976712334 0.037644622723 0.0041881555826 0.005340036807 0.033442396161 0.0065626606063 0.0073377855854 0.049124974895 0.042926279657 
0.037686744102 0.017712722068 1.9125314212e-05 0.03984486376 0.0017269225567 0.036489644843 0.053633402766 0.016725458047 0.038906953482 
0.002488135705 0.0035173378352 0.019128154337 1.0369257297e-05 2.5740313286e-05 0.00081278143148 0.019353061982 0.023414030257 0.021303872129 
0.036480024323 -4.3139947999e-05 0.034690748582 0.028176909406 7.4521118969e-07 -2.8338739769e-05 0.035926270801 0.013443961778 0.0096117373948 
0.00014874834134 0.0204621696 0.016796331388 7.3107486646e-06 0.018724902414 0.020659883324 0.022943698362 0.19127931616 0.00011783841457 
0.00028080074848 0.00016943869728 0.03979240579 0.0025901200515 0.0033918575238 0.0035809011482 0.001210374054 0.019866033107 5.6619538648e-07 
0.0003295246823 0.083488091109 0.027228803166 2.4951201147e-05 3.9273948499e-05 -0.00028422871163 0.0023470182812 0.024925373549 0.080607004588 
0.079672868993 0.0026356202119 0.044930162143 0.030815487817 0.084921150966 0.00048618135046 0.00041025392974 0.0018853468398 0.0009148590305 
0.016615168992 0.019880274616 0.0096958059953 0.027462386171 0.026102592516 0.04712142614 8.1677659669e-06 0.027613755378 0.026494965216 
0.038189430652 0.020339473182 -0.00019999829505 3.9711115902e-05 0.018054951269 0.0064012001831 -1.2275227014e-06 0.02754203302 0.022468386597 
0.022674091282 0.034231786481 0.030349474393 0.008415579299 4.7615106855e-05 0.023868509552 0.018337170999 0.033054159586 0.0010445993491 
6.0435828521e-06 0.024595188097 0.027508918566 0.038558974154 0.040408576951 0.022543722317 0.070529688701 0.019014886889 0.010966056963 
-0.00010310908819 0.00027878998648 0.017333130171 0.025179669547 -3.0689842797e-05 0.018299055557 3.514650595e-06 0.077488477087 0.033279861519 
0.028911083644 0.031009673085 0.027147640673 0.032227120698 0.029972216379 0.012467738902 0.10265593644 0.082605129217 0.052874366067 
7.7071114638e-06 4.7494668915e-05 1.1154018556e-05 0.046975647858 0.019318281542 0.019799630043 0.01861487508 0.027814191769 0.029364934473 
0.035708196636 0.055345814646 0.047974838048 0.020609497853 0.025565503294 0.0251051813 0.021549156321 0.023800846393 0.024605425179 
0.020822484366 0.027104542092 0.023659253675 0.017445458677 0.014351077446 0.022166529955 0.015803277321 0.025653670591 0.027022408624 
0.031554015412 0.033675875888 0.029388702095 0.02664824989 0.035740685359 0.031016857932 0.027188517599 0.013721672782 0.028332001637 
0.022935375848 0.029163591428 0.037120584082 0.059670226552 0.013600486835 0.015480999345 0.037687417824 0.025646128148 0.020620678506 
0.027601630777 0.016768650002 0.018963822932 0.038101521876 0.041951142693 0.018022067297 0.029579180619 0.023841345551 0.046681453635 
0.041003190599 0.031295993922 0.036578502419 0.047884914217 0.033657056005 0.045190323924 0.039851439151 0.039524825814 0.035202176781 
0.027084768468 0.026672393234 0.022013027222 0.03122071893 0.04096414288 0.044906729605 0.062472897564 0.043724050064 0.033401298553 
0.03437780732 0.031946803007 0.032766983327 0.029468102692 0.04019402687 0.025709750907 0.02539677691 0.041516646361 0.024826779593 
0.018580314622 0.027016498718 0.022388339406 0.026382041376 0.027680275982 0.024640266239 0.027308561119 0.018511428438 0.017690064349 
0.017526672402 0.02249437345 0.032653563352 0.019898478573 0.025940812851 0.021332037218 0.027450054484 0.024977771627 0.025609001408 
0.020254105478 0.019976931689 0.021301730057 0.054815666313 0.016479532909 0.012640000713 0.019369387375 0.02471829858 0.032453168812 
0.0097280446369 0.020620240502 0.01357893525 0.030328212213 0.01729950357 0.025363402336 0.010896960081 0.036934359415 0.069119289452 
0.056299291315 0.08253743349 
Minor%20Principal%20Stress 1 13529 double
0.28746259041 0.36961473203 0.39959389363 0.36592268868 -2.1862466342e-05 -2.8784603403e-05 -2.8950677016e-05 -3.1016008827e-05 0.0013022815757 
-0.065402665295 -0.21580890391 -0.052977425899 0.020123996275 -0.3137328131 -0.13600906696 0.003576424541 -0.20669244537 -0.032141572517 
-0.13428462903 -0.14401386651 0.014003291359 -0.12699117808 -0.17558821627 -0.080403407085 0.031390684902 -0.24579681715 -0.084398978715 
0.027270174872 -0.28215586748 0.0096189079719 -0.07850835206 -0.14315780382 -0.06122748721 -0.079252728098 0.027813204477 0.033228648996 
-0.020892751215 -0.0063705923307 -0.087261096725 -0.080902662721 -0.051013819767 -0.0021445193984 -0.0014371115204 -0.029377131459 -0.036023265583 
-0.01682301333 -0.017418035983 -0.0032818324893 0.0055018188883 0.0014415659363 0.010211095587 -0.019213782118 -0.21776896612 -0.22489389776 
-0.11322901405 -0.14195164438 -0.14878130036 -0.0024880880977 0.0040224048247 -9.2542766924e-05 -0.0019356826989 -0.00010990687944 0.0017083103789 
0.0064084404094 0.0063939026264 0.006649994963 0.0060772580987 -0.0085190387407 -0.11694389597 -0.21416060006 -0.22523338162 -0.23639708583 
-0.20488456956 -0.22766015909 -0.28201737658 -0.28873005805 0.0089305029211 -0.0041832263382 0.0075462658638 0.010428652386 0.005157426838 
0.011800199074 -0.011691412191 -0.042597949491 0.0076211949795 0.0096854250027 0.013137332409 -0.015678857338 -0.12115841823 -0.14288576404 
-0.12619662053 -0.11522729687 0.0061718929409 0.0077871245422 0.011464915561 0.0086561842004 0.0066903694795 -0.0011485659866 -0.018988418367 
-0.0049125926125 -0.00057243036033 0.0011284716712 0.0013637453734 -0.045350659912 -0.21222855985 -0.145334779 -0.24378810925 -0.24113472752 
-0.21186005977 -0.0012442704818 0.011131019299 0.0054137926569 0.005479777614 0.0061473673379 0.0077015973134 0.013030777139 -0.0044311709698 
0.0047843124931 -0.0033849712044 -0.0033638498502 -0.017562436764 -0.2082011752 -0.15780449673 -0.17286793242 -0.13314566261 -0.025595698666 
0.010012774895 0.0089003068327 0.012142124212 0.014374921146 0.018143786545 -0.00077571241841 -0.03832891306 0.0044455971117 0.0031039870584 
-0.0017107047621 0.002624285747 -0.041148494764 0.0050468730486 0.0011536290131 0.00025731444599 -0.031525398265 0.0022853944324 0.0010795480413 
0.0094527614805 0.010508057034 0.0091777606931 0.0085736971816 0.010176490225 -0.10689035916 -0.14166190181 -0.13696968854 -0.18354050557 
-0.00087023233626 0.0012976389329 -0.0029435596464 -0.0064041512867 -0.011181487214 -0.053871936125 0.012196599736 0.008739706782 0.0050363372428 
0.005077946522 0.0059089228357 0.017288896384 -0.19382303123 -0.22726910727 -0.21569625466 -0.25711548473 -0.17480004711 0.12082977108 
0.11844551995 0.12318297021 0.12178455114 0.12382880424 0.11914367294 0.12800346859 0.13187866364 0.13588268619 0.12857300478 
0.13981115925 0.140400218 0.14334196248 0.12195241496 0.12388848254 0.12013817006 0.13361506267 0.13231902861 0.11830623863 
0.10826023716 0.12017308424 0.12105396598 0.12107939518 0.11352949253 0.1249643572 0.13042726549 0.12766376013 0.12652129827 
0.12186852871 0.12338560549 0.14714784166 0.13508761473 0.13297001015 0.13140900216 0.13269525731 0.16505493837 0.13939042901 
0.13751586091 0.13716118856 0.13835861635 0.15623485567 0.16484548233 0.14954089448 0.13027258305 0.13170804137 0.13500180827 
0.14722859813 0.13200632981 0.1192373974 0.12029217688 0.12518093823 0.11960914376 0.082817925641 4.2398943859e-05 -3.2939212952e-07 
-0.00097940277326 -0.002901026527 -0.0056852846233 -0.00894017822 -0.012356933196 -0.016257126844 -0.020190926042 -0.023448840952 -0.026476004992 
-0.028738508998 -0.030330908315 -0.031191201109 -0.031304401896 -0.030400406667 -0.028892705893 -0.026458905043 -0.023907335175 -0.020682224023 
-0.016828923826 -0.013610224857 -0.010194737232 -0.0071728259108 -0.0045792265722 -0.0024036972616 -0.00076876854857 8.4189920917e-06 -3.3851426525e-06 
-0.15395741942 -0.0030661827614 -0.0014222570161 -0.00067011586463 -0.00041332993445 -0.00040905444651 -0.00022566910288 -0.00015783722286 -0.00013219825233 
-0.00014605831826 -2.3101234385e-05 -0.00010844183917 -8.6119008288e-05 -9.0533218999e-05 -0.00010245331465 -8.3743718831e-06 -5.0794576082e-05 -1.4802603618e-05 
-1.513729542e-05 -5.6815667429e-05 1.3929535097e-05 -4.9358606311e-05 -4.1431153829e-05 -1.2018600594e-05 5.7701186809e-06 -2.4020321718e-05 -4.4011680621e-05 
-5.4694607719e-05 -7.0329919003e-05 -8.0811489934e-05 -2.4946394199e-05 -8.4173489147e-05 -7.6606923365e-05 -6.1551845605e-05 -4.9812041214e-05 -9.8223015444e-06 
-2.0730974304e-05 -1.1905844864e-06 6.0651381733e-06 8.9546960121e-07 -6.8162338934e-06 -1.021265442e-05 -1.4042931877e-05 -6.0046662332e-08 -9.1079451974e-06 
4.324677093e-06 2.8176503884e-07 1.4547459297e-06 -7.997097646e-07 -6.6283287313e-07 2.3026063066e-06 -9.4049272677e-06 -1.0546556809e-05 -2.1553658398e-05 
-3.4136400747e-05 -4.5413112735e-05 -2.630728352e-05 -2.2062101642e-05 -5.8194467335e-05 -4.5838217365e-05 -5.902467937e-05 -8.4281153318e-05 -5.2800972478e-05 
-1.198062792e-05 -8.5105748383e-06 -3.1401820127e-05 1.0792834641e-05 -3.0796832848e-05 -2.0297462987e-07 -1.5782470997e-05 -3.0762256317e-06 2.9661540678e-06 
-4.9509628942e-05 -2.3967606304e-05 -4.8955734563e-05 -5.6132393498e-05 -3.0293498456e-05 -8.0669529544e-05 -9.8409585694e-05 -2.6611803694e-05 -0.000114042472 
-4.2987036937e-05 -0.00016935750139 -0.00020967128699 -0.00029606636858 -0.00022554409798 -0.00084689487577 -0.0017095805888 -0.0035855929645 -0.18591139102 
0.012483677284 -0.045200238689 0.0021883967043 0.0056821968879 0.0041866394732 0.0031552572206 0.0072391464102 0.0091962520049 0.0064116282231 
-0.041851650657 -0.0061624729418 -0.004902240014 -0.00016450587245 -0.00044722778031 0.0009076869738 0.002278506711 0.0062220117216 -0.019901692845 
-0.023739918767 -0.002501898059 -0.0041919009247 -0.041063675649 -0.004672038492 0.0013935576328 0.001226528242 0.0048702777954 0.0045581076397 
0.0058704516921 0.010641670019 -0.0094717174887 -0.017741885489 0.0089699533677 -0.0029735284002 0.01052611546 0.0022756022394 0.0044425580647 
-0.0017467877509 -0.0026997659384 -0.016929170831 -0.017022424457 -4.0046617539e-07 -6.3813883371e-05 -0.00195388039 -0.0048565053044 -0.0088558531602 
-0.013391534196 -0.018455529014 -0.023406621345 -0.026972623377 -0.029488814572 -0.031136803707 -0.031068508212 -0.029695707099 -0.027226317971 
-0.023874015861 -0.019552624428 -0.01506422401 -0.010804421462 -0.0067579836536 -0.0034832951424 -0.001148528492 7.9871365324e-06 -1.9253242663e-06 
-0.017858294227 -0.0061053817538 -0.0012453482387 -0.00053746940942 -0.00030419070525 -0.00022790265606 -0.00017067632314 -0.00016003546261 -0.00013679847458 
-0.00014163477674 -0.00010925246477 -9.5965350139e-05 -9.5155693762e-05 -4.5047848502e-05 -1.427975805e-05 -8.8575686442e-06 4.8172162152e-06 4.0082277037e-05 
-1.4628802278e-05 -1.1301633184e-05 -2.2411252587e-05 -6.1343014434e-05 -8.9457787879e-05 -9.9914759147e-05 -0.00010535360731 -0.00010472029946 -8.5921772413e-05 
-6.7180817169e-05 -3.5190541731e-05 -2.5696966965e-05 -6.2521896839e-06 -7.4507534881e-06 -5.8301401526e-06 -1.0541374563e-05 1.0253490444e-05 3.2135004356e-07 
-3.9653735049e-06 9.2344712542e-06 -1.3042721476e-06 -6.0256979819e-07 -4.3883403279e-06 3.968982943e-06 -1.0727325834e-06 -1.5994203803e-05 -3.2462266435e-05 
-4.585131732e-05 -6.2736555297e-05 -7.5303512519e-05 -8.1231320474e-05 -7.4020661199e-05 -5.0297588608e-05 -4.1680739411e-05 -1.0458356175e-05 -9.4808667938e-06 
-3.8757167449e-06 2.6727010036e-05 -5.8197107582e-06 -8.9542822419e-06 2.8859518305e-05 1.224139302e-05 -2.0981611693e-05 -7.0384800778e-05 -7.9080561931e-05 
-8.9534468368e-05 -9.5792736189e-05 -0.0001338943627 -0.00013397811029 -0.0001935430731 -0.000336160489 -0.00056115944835 -0.0011191429056 -0.0012795534425 
-0.024388724378 -0.036686303814 -0.035833906994 0.0030430892975 0.0024509140788 0.0035879446352 0.0021707829591 0.002055805128 -0.0017273048535 
0.014355405539 -0.0072669466288 -0.041883573237 0.0090660936833 0.001239103364 -0.0016062519589 0.00043996906201 0.00052791691552 0.0018224213829 
-0.0021507707008 -0.036997712957 -0.029442412949 -0.032541101628 -0.023372594886 -0.0018512676402 0.00063341947731 -0.00016375210476 -0.012326750836 
-0.013252673906 -0.015008168242 -0.015880492802 -0.042127740773 0.0010909815571 0.0060705788343 -0.015335254041 -0.0026475655719 -0.0018215379287 
0.0049820409705 -0.0013103051231 -0.041623468227 -0.017002658022 -0.016769549421 -0.0024938016936 -0.02444976144 -0.016521053157 -0.033580968158 
-0.023520710084 -0.036745184731 -0.0065815835465 -0.018051586888 0.00069094377194 -0.003291209469 -0.0070278312087 -0.0032390608404 -0.02962706473 
-0.017268837001 -0.013558383833 -0.030305581425 -0.022288694129 -0.038919990303 -0.016934923716 -0.0069800581724 -0.017780403314 -0.016106779443 
-0.042301692052 -0.01515499053 -0.0014711337329 0.0004127961983 -0.019488739266 -0.024579264719 -0.015489006179 -0.012920601284 -0.012540643661 
-0.012782344727 -0.0031433206821 -0.0062692898036 -0.003999148364 -0.004180971103 0.00095015627601 -0.017729451516 -0.016450116066 -0.032929363012 
-0.01545573016 -0.02317874473 -0.022302384503 -0.003890745828 -0.035882041169 -0.017204439547 -0.0048093321541 -0.0008080831399 -0.019465273232 
-0.029749291668 -0.005000725056 -0.010890317112 -0.028172447259 -0.024141673964 -0.020645062137 -0.0049134281479 -0.0031477663399 -0.0033522449913 
-0.0040311338979 -0.017314889451 -0.036819801125 -0.023609541872 -0.010353004299 -0.019923351173 -0.0044149510492 -0.0042935354259 -0.0013332053178 
-0.020284453043 -0.035432648461 -0.026969997038 -0.014383177561 -0.017403779704 -0.020692481391 -0.018142185643 -0.023288773512 0.00039219256766 
-0.00039064302415 -0.0013105593322 -0.0028416108878 -0.004816118525 -0.0073428206417 -0.010083697718 -0.013122023442 -0.016139157245 -0.018896729564 
-0.021380877506 -0.023538170187 -0.025007497281 -0.025990201614 -0.026208801466 -0.025999497626 -0.025037166869 -0.023536969064 -0.021599302831 
-0.019196156202 -0.016436832658 -0.013788802921 -0.011036829226 -0.0084393243458 -0.0061424357396 -0.0041290283174 -0.0024166337474 -0.0012088925408 
-0.00040227041799 -3.8065560012e-05 0.0019493949998 -0.0011786942303 -1.8746807272e-05 0.00012404992243 -0.00011389908235 7.6325052294e-06 1.5454983844e-05 
5.0260751857e-06 4.1087997292e-05 -1.2105591781e-05 -8.3349300697e-06 -2.1152680838e-05 2.0457705309e-05 4.1728197898e-05 5.6504805561e-07 -3.0180147751e-05 
-3.7120817816e-05 -0.00017882036763 -0.00053275317003 -0.00092217472326 -0.0011131138285 -0.0011373759662 -0.00080677714792 -0.00042406313302 -6.1068665119e-05 
-3.5672295969e-05 5.817264908e-05 2.4457143038e-05 -1.3441348552e-05 -9.7974188397e-07 -7.7226541969e-06 1.7806854832e-05 2.3863008963e-06 2.9660447906e-06 
1.2114730847e-05 -4.1083784509e-06 8.1800172555e-07 -5.0597391637e-05 -0.00011576452168 -0.00017732662243 -0.00021966449964 -0.00026480539176 -0.0002525165798 
-0.00023346730422 -0.00025705773866 -0.00017751188296 -0.00017371687653 -0.00013721385814 -8.6389275806e-05 -4.950986929e-05 -1.3878289768e-05 3.9903244941e-06 
-3.0411526444e-06 8.6524785716e-07 7.8741979248e-08 -5.4328671431e-06 8.9109137945e-06 -2.6284182082e-06 2.3625272829e-05 -6.017541506e-06 -3.4155323523e-05 
-6.0904344558e-06 -2.4950007133e-05 -0.00018220082085 -0.00039933796909 -0.00053157156326 -0.00065524330185 -0.0006864684065 -0.00056876169983 -0.0003932681696 
-0.00027765540103 -0.00012534808727 -3.4387825137e-06 -2.2799581629e-05 -7.2610044038e-06 2.9848851045e-05 -5.0645656611e-06 -2.9105390336e-05 1.4898263921e-05 
-1.2159096826e-05 2.646324116e-05 -3.3227417607e-05 -9.5376689206e-08 -3.7520491261e-05 0.00013022770496 -5.5550990433e-05 0.00074476367501 -0.031987093432 
-0.068410792321 -0.040583022883 -0.035278387561 -0.029806071475 -0.030605815901 -0.033221147884 -0.047459725468 -0.0322158195 -0.03233746075 
-0.03155660906 -0.035294608231 -0.046919136412 -0.036988512503 -0.032110626831 -0.032045121353 -0.036830821746 -0.06517115483 -0.054713809414 
-0.038310001463 -0.031936889229 -0.031811581559 -0.035662548528 -0.061336153912 -0.035151773713 -0.029886126984 -0.029440737715 -0.040957435344 
-0.054618325417 -0.010545333045 -0.016399268401 -0.020528210553 -0.025517419376 -0.023885664479 -0.021404717106 -0.017261701777 -0.010530661054 
-0.0041115378726 -0.032919792967 -0.041277051846 -0.012284074311 -0.0072931780189 -0.015596790515 -0.015355348732 -0.017980979625 -0.020744333821 
-0.022575536307 -0.023028518462 -0.017232164209 -0.0077563000108 -0.014648824482 -0.013772163068 -0.0079559748594 -0.016716993776 -0.021866718236 
-0.022841970417 -0.020494438314 -0.016147137431 -0.015458393882 -0.019327199532 -0.0075488855486 -0.0084487799851 -0.0044895432091 -0.0084765397223 
-0.0057028277149 -0.010278418343 -0.017365788286 -0.021061623598 -0.02360888366 -0.024577323486 -0.019110551812 -0.017802180632 -0.014968118553 
-0.044402603108 -0.013974009451 -0.0060935598451 -0.036385751953 -0.026607206997 -0.021490073656 -0.0022283847599 -0.0039301594568 -0.0058515642091 
-0.0081023514244 -0.010459856823 -0.012963712883 -0.015196939541 -0.017312906761 -0.019151774916 -0.020571014842 -0.021460380985 -0.021967170101 
-0.022023828624 -0.021507990218 -0.020563084925 -0.019118654506 -0.017348596922 -0.015293351098 -0.013190311309 -0.011033691203 -0.00884972931 
-0.0067990421542 -0.0050483526765 -0.0034495634229 -0.0020995313036 -0.001018766354 -0.008812804446 2.9885893944e-05 3.0331595069e-05 -0.00014340870109 
-2.3470327006e-05 1.8100583172e-05 5.0756039426e-06 -2.8666303015e-05 -1.2641204369e-05 -5.8133328942e-06 9.7457319797e-06 8.3231444897e-06 -1.8348806875e-05 
-1.9668165263e-05 -5.51503329e-07 1.593265483e-05 -0.00017631557957 -0.0011832842441 -0.0024889855386 -0.0040191480378 -0.0049448091163 -0.004080450635 
-0.0024243347805 -0.00090003110872 2.1984918525e-05 8.6246704545e-07 -2.6920159914e-05 1.0134187989e-05 6.2555340512e-06 4.8924195445e-06 -5.4105189452e-06 
-8.7985912663e-06 4.2198421647e-06 9.8931161537e-07 -5.8121366741e-06 -4.540400678e-06 -0.00012094599816 -0.00039296056377 -0.00062361137029 -0.0008290749797 
-0.0010544633403 -0.0011608994321 -0.00094306249269 -0.0013774394189 0.0011818474877 -0.00066979430046 -0.00066489976958 -0.0005805430581 -0.00045645713641 
-0.00029201540105 -0.00010213802314 -3.290119874e-06 -4.3492612141e-06 2.596381435e-06 -7.218915956e-07 -2.9109991829e-07 -2.2402458586e-06 5.0675032074e-06 
5.33743723e-06 -1.1573395308e-05 -1.1193511757e-05 5.7945824501e-06 1.2455114826e-05 -0.00053644019311 -0.0012475020326 -0.00201279201 -0.0025613357323 
-0.0027751872693 -0.0023802699118 -0.0018239773566 -0.001127620828 -0.00047707438012 -1.8994103723e-05 8.4054004396e-06 2.4298080231e-05 5.857800457e-07 
-1.6260285233e-05 6.8276435787e-06 1.621348519e-05 1.4377209622e-05 -2.7135740543e-06 -5.0111322098e-06 1.0636558313e-05 -7.3187359671e-07 -1.4052879338e-05 
-9.9387964563e-05 0.00030034531369 -0.026837481755 0.0027064929915 0.0016224751145 0.0014109595537 0.0018113457566 0.0010660993756 0.0023211365641 
0.0020885117324 0.0013504581171 0.0020684243312 0.0012219359965 0.0030578581364 0.0020053891442 0.0017139530791 0.0018243334593 -0.0002181991656 
-0.00073129818281 0.00048758557366 0.0016457418759 0.0018524181134 0.0020027489638 -6.2172105745e-05 -0.00030846703188 0.0017483607373 0.0014802544707 
0.0011866286333 -0.0024028511938 0.00036317555238 -0.0030970581477 -0.011926455533 -0.0098342513805 -0.0040789770136 0.00023448456361 -6.2779753694e-05 
-0.00014607730491 -0.00064277376648 -0.016254766632 0.00030125062464 0.00042440173638 0.0007395898766 -0.0040687816603 -0.0091269438486 -0.01004077301 
-0.0059938776419 -0.0001624905327 -0.0043222501934 -0.019986914792 -0.00021299605349 -1.929449037e-05 -0.0014069791834 -0.0087470259964 -0.0078787739398 
-0.0031366392579 0.00081000106704 0.0010214659574 0.00080776193445 0.00025585864747 -0.0021756178386 6.7253906009e-05 0.00024784099187 8.7521945114e-05 
-0.0037991925451 -0.0088668211928 -0.0099527737794 -0.0069570496032 -0.0012243924849 -0.0051553730842 0.0006912280269 -0.0055058878102 9.5333771936e-05 
-0.025513951565 -0.00021581870736 -0.019277976614 -0.0082622146508 -0.0045381141655 -0.0061472670922 -0.0081115961898 -0.01017246877 -0.01222736516 
-0.014012430112 -0.0156567294 -0.016917838968 -0.017704789877 -0.018198826814 -0.018463209256 -0.018595316051 -0.018030617031 -0.016765920993 
-0.015332671415 -0.013812371424 -0.012161513534 -0.01040520835 -0.0085859789224 -0.0068549749752 -0.0051979796711 -0.0037108743867 -0.0024925820079 
-0.0014384685826 -0.0012733706519 -0.0025440485186 -0.014773264953 -2.7699916955e-05 0.00018422304529 8.3703827247e-05 -3.3381855302e-05 -9.5990451026e-06 
7.4980967766e-06 1.8582929819e-05 -5.4880654536e-06 1.6722890796e-06 1.1600307422e-05 1.9918693877e-05 1.5439594215e-05 -5.1425660762e-06 -1.1950977537e-05 
-2.9147562428e-07 7.657702929e-06 -0.00085173281988 -0.0033233974146 -0.0063005468391 -0.011036182245 -0.010140941955 -0.0067757532667 -0.0028633595544 
-0.00012267568266 8.8784262179e-06 2.5253802916e-06 -1.204159163e-05 2.1888012099e-06 4.5847723115e-06 5.9435417632e-06 3.5964213768e-06 -1.9477094291e-06 
-6.5978670199e-07 2.721587031e-06 -1.098350802e-06 -1.1010810118e-05 -0.00059197782049 -0.00110508834 -0.0015166257697 -0.002031795733 -0.002661255035 
-0.019491050874 -0.0014517249277 -0.0011194012311 -0.00078228289253 -0.00043475295865 -1.5595249397e-06 9.4200333114e-08 1.2258401475e-06 9.1260500364e-07 
-3.1077925728e-07 -1.1494221885e-06 3.3124219239e-06 9.4760748222e-06 2.1264560342e-06 -2.6261510432e-06 -5.3225354398e-06 1.580600201e-06 -0.00052093827553 
-0.001854739435 -0.0034392310535 -0.0050907625898 -0.0060904023997 -0.0055051928797 -0.0042383198252 -0.0029369149642 -0.0013810561073 -0.00013374932839 
-1.4497079091e-05 3.2940035958e-06 1.3656254469e-05 1.2361897269e-05 -8.9200740955e-06 -4.0514987259e-06 1.8445854061e-05 1.3682054758e-05 1.3168258118e-05 
2.9912061544e-05 -5.2500199814e-05 3.3501948545e-05 8.2945585749e-06 -0.00014312641742 -0.00043313344314 -0.0033555159936 0.00011780038871 0.00013027972922 
0.00026575011679 0.00023477927054 8.8629269237e-05 7.7725680668e-05 6.3143793845e-05 0.0002656403915 0.0002372542944 0.00017510892972 -8.9753140045e-06 
0.00010300421448 0.00031061232844 0.00031896367019 0.00023735643349 0.00031355485848 0.00012097374938 -2.0507100281e-05 0.00029796712141 0.00025854476723 
0.00027839002185 0.00012283414704 -0.0014625764953 3.3786531612e-05 2.8491784242e-05 1.7302128278e-05 2.9750458259e-05 7.2764202588e-05 0.00032330681913 
3.9161238093e-05 -0.0080435856293 -0.0020119082778 -1.1895616779e-05 -0.0012987623221 -1.3725381603e-05 -0.0008836506733 -0.00038190136821 0.00036064150572 
9.1428251442e-05 7.5198302534e-08 -0.0011418244229 4.7615904388e-06 3.8356677808e-06 -3.143291714e-05 -0.0067248849329 -0.0079917265592 -0.00030936667712 
9.188873917e-06 -0.00053921288434 -9.214790434e-05 1.2919910197e-05 -0.010896780269 -0.016126714278 2.3620981017e-05 -9.0510237033e-06 -0.016216077814 
-0.01248968632 -0.00056440620867 1.1477540548e-05 -2.8972690376e-05 -0.0076098356096 -1.6832401231e-05 6.0768693148e-05 -1.1943016147e-06 3.5377640075e-05 
-0.0059628392713 4.2412219314e-05 -0.0020566339796 8.4042147258e-05 4.0599073964e-05 -0.0039395104309 -0.011576570258 -0.0057888631012 -0.0074999928248 
-0.0093358515516 -0.011047431579 -0.012581232061 -0.014108632274 -0.014622875495 -0.015201683979 -0.015458718409 -0.015635662695 -0.015908972026 
-0.014561227464 -0.013191119081 -0.011862755167 -0.010698791534 -0.0092280859843 -0.0077700526137 -0.0062617600072 -0.0048189263326 -0.0035705287616 
-0.0023413864343 -2.2094541964e-06 -0.010583007439 2.9034430241e-05 4.7522071079e-05 -2.0575574444e-05 -1.1314879197e-06 2.6650869983e-05 1.0211228916e-05 
-1.1556886011e-06 -3.7063778212e-06 1.4055832202e-05 1.1430029597e-05 -7.4666964709e-06 5.3514966553e-06 -6.8339369544e-06 -3.0078518219e-05 -0.0010164221918 
7.3505368928e-05 2.0850597492e-05 -4.2855980437e-05 4.4268268663e-06 5.2631369196e-07 3.0856520856e-06 2.942931862e-06 6.0680979294e-07 -3.3202324011e-06 
-1.1085518736e-06 6.6747897652e-07 -1.7042419617e-06 -0.00069520490974 -0.0016249758505 -0.0022675614389 -0.0027466451332 -0.0015111856267 -0.0011053304728 
-0.00047059557809 -2.1142375354e-07 5.1336475741e-07 1.4863602198e-06 -8.8239720738e-08 -1.7667912377e-06 -4.4829989284e-06 2.9360750208e-06 5.7343494814e-06 
4.7945113832e-06 -4.2270674992e-06 -1.3422893914e-05 -3.097123444e-07 -0.0019253290957 -0.0039737093878 -0.0069335740512 -0.010648554348 -0.0058038321921 
-0.003155381637 -0.00063465126212 1.6627651404e-05 -2.0640041798e-05 -1.5951757577e-05 -1.7841225837e-05 1.5629773361e-05 -3.818485586e-06 -8.6315797329e-06 
3.5610936485e-06 1.2530865928e-05 8.3716749437e-06 6.6512855427e-05 -1.7183983538e-06 -5.113381435e-05 2.4053697404e-06 7.6601634997e-05 -1.8057557609e-05 
-0.00010884265392 1.4261185159e-05 1.1576142223e-05 9.2885970051e-07 -9.1053031994e-06 -1.1953539054e-06 -6.730026012e-06 -1.5823851138e-05 2.9089063895e-06 
-1.1324447546e-06 -2.8374334578e-05 8.3243256996e-06 7.5305190906e-06 4.8221707111e-06 1.6051037284e-05 2.0424057077e-05 -4.7003074351e-05 -1.3290826268e-05 
-2.9058173748e-06 2.9292117943e-05 4.3454748862e-05 -1.8878284848e-05 2.2953619899e-07 -0.0027284632389 -1.5690376775e-05 3.1736764523e-05 -3.5448764123e-06 
-4.0784944062e-05 -0.0025984650812 3.0492103549e-05 -0.0087118245243 4.1564953117e-07 1.1484866454e-05 4.7789961808e-05 -2.7283192235e-05 7.5466198921e-05 
-5.0286785707e-06 -2.177321987e-05 2.6933713368e-05 2.608861421e-05 -5.29651781e-06 -0.0020193840476 -0.0050500849291 -0.0026882129405 -1.5058035014e-05 
1.3609537431e-05 7.9739625602e-05 5.5707826066e-05 -5.4899256354e-05 -9.5105003172e-05 -0.010012459583 -0.0075028842122 -0.0075512481732 -5.6201465217e-06 
-3.1262286877e-05 2.4548701813e-05 2.6325341352e-06 0.00015057434285 8.9631791024e-08 -6.7699828195e-05 -1.190563077e-05 -1.3819028342e-05 2.6925852773e-05 
-0.0065463991949 -2.575193205e-05 2.4180755426e-06 -0.0052177454494 -0.0066904880144 -0.0083444314883 -0.009784775333 -0.011320993171 -0.012945810538 
-0.013131058494 -0.013155338879 -0.013345807552 -0.011443999851 -0.0098659200441 -0.0084935544232 -0.0078128037295 -0.0061659300596 -0.0054672584003 
-0.0041161425297 -0.0030970607087 -0.0022688993212 -5.7074632079e-06 9.801439451e-06 1.3849925143e-05 -1.202083502e-05 1.8842947083e-05 1.8185024764e-05 
-3.4598470314e-06 -3.5960206068e-06 4.9724706018e-06 2.3860965268e-06 8.3183487073e-06 7.7414940846e-06 -2.6882634985e-05 -2.3018968668e-05 1.0393773995e-05 
-1.1592786001e-05 3.3391957599e-06 1.5401619171e-05 1.0050516265e-05 2.798686537e-06 -0.00078555472819 -0.0021745703784 -0.0031785996607 -0.0039041754065 
-1.8090158941e-05 -0.0015402911957 -0.00045810847377 3.9868436067e-06 8.5688888337e-08 -2.356294307e-06 4.2954555948e-06 2.8880580208e-07 -7.2920029878e-06 
2.7323863083e-06 1.8973404311e-05 2.0571340571e-05 2.779875695e-06 -8.1717256027e-06 -0.0013493638749 -0.0018630482966 2.4485603688e-06 1.7889878343e-05 
-1.8563834703e-06 2.5551027755e-05 1.5910282346e-06 7.8470700904e-06 1.8791939924e-05 -6.4767295377e-07 1.01017085e-06 4.1137997987e-06 8.5314910178e-06 
-2.3682127348e-05 -3.0765589581e-05 -0.0023469804724 -5.6217214733e-06 -8.4479120315e-06 -1.4932598471e-05 2.3801789675e-06 -1.634009845e-05 1.029492446e-05 
-2.8279491903e-06 -9.1306372875e-06 -4.7363117416e-06 -1.0161988104e-06 -2.2530892786e-05 -2.2820368491e-05 1.4609637079e-05 6.4554061985e-06 1.7545322304e-05 
1.8757760129e-05 -1.6128622905e-05 4.4119690321e-05 2.1048028893e-08 1.014685407e-05 2.8300981381e-05 9.2376675673e-05 -5.1616996601e-05 1.3503331845e-06 
2.0096723691e-05 -1.1707412335e-06 1.7439785072e-05 -0.0067932422898 -1.0342907448e-05 -7.3272595203e-05 -0.0098751321816 4.0584287932e-05 5.2951363337e-05 
-3.0238633183e-05 1.0542405949e-05 -2.1550967575e-06 4.5337503021e-05 -0.0053782521563 1.30530124e-07 -0.0076146082742 -2.3001662462e-06 -3.7260223511e-05 
-3.5146063158e-05 -0.0091507111646 2.5766768675e-05 -4.0652458647e-06 -8.0346103173e-06 4.5734841307e-06 -9.2510703276e-06 -3.0854115178e-05 -2.093904316e-05 
-7.0780625831e-05 -0.0054192317952 -0.0070355424117 -0.0074188892894 -0.0078265954234 -0.010903652613 -0.011404629552 -0.010810238246 -0.0083411006402 
-0.0064973869944 -0.0044446788283 -0.0030955118539 -0.0019991278761 2.2821002141e-05 1.4261810973e-06 2.8377436729e-06 -1.4971879032e-05 6.3950506923e-06 
-1.2740644581e-05 -5.553375682e-06 -1.1961244317e-05 -4.7574511583e-06 -1.1183311857e-06 -4.0904846683e-05 1.2509127033e-05 -0.0010647033343 -0.0028381107635 
8.66913956e-06 -1.9484917891e-06 1.3841516238e-05 4.0061211354e-06 5.007092577e-07 -1.0551650231e-05 6.3838346762e-05 3.0553422567e-06 -5.1295767086e-06 
-1.7191855446e-05 -3.2335834228e-06 -7.1643055695e-06 1.4807335674e-05 -1.2983248695e-05 3.1968749916e-06 1.0694705349e-05 8.0951623781e-06 -8.5837007725e-06 
-2.0881009925e-05 -1.1143636185e-05 -1.4070708006e-05 4.7475968826e-05 2.9331991591e-05 7.1424648861e-06 3.0642307969e-06 2.9775957355e-05 3.5453355076e-06 
6.4306164667e-06 -2.6167845374e-05 1.5105047097e-05 -4.0077200841e-05 7.5658989246e-06 -3.7865064275e-05 -5.6539344842e-05 8.2791910067e-06 -0.0042206654694 
1.4448454169e-05 -1.3212873096e-05 -7.8687837645e-06 -0.00040510816432 -1.6174837447e-05 -0.0028232603341 5.3895536484e-06 1.3952235424e-05 -2.0641128835e-05 
-2.5764340686e-06 -0.0033515850954 6.4801855127e-06 2.3832180638e-05 -1.9953836339e-05 1.3659393776e-05 5.2419758958e-07 -5.5343061726e-05 -3.2998152532e-05 
2.1013654203e-05 -6.1965297144e-06 -4.2788102841e-05 1.3516782706e-05 -0.0025688344571 -0.0041143058575 -0.00010513202475 -2.6345605147e-05 -2.2135855673e-05 
-2.5950216738e-06 -9.6550666034e-06 -1.1465357025e-05 -1.402497553e-06 5.7133239974e-06 -2.092070398e-05 2.7592597631e-05 4.9235612724e-05 3.9832849822e-05 
-3.2093410486e-05 -1.1842360878e-05 -6.6670996245e-06 -7.6318970479e-05 -7.9215810944e-06 1.0848986364e-05 -0.00059096409685 -0.0020657709301 -0.0042154844952 
-0.0071373698412 -0.010329735267 -0.014236553657 -0.017795384595 -0.021095314886 -0.023355074206 -0.024841432816 -0.025526800244 -0.024891989779 
-0.023428593668 -0.0212581871 -0.018250816084 -0.014985557313 -0.011673586491 -0.0083345228948 -0.0054788423781 -0.003163460943 -0.0014357581196 
-0.00038497858111 -0.0086991568653 -0.00020104861414 3.3502339546e-05 2.6766402762e-05 2.5026597262e-05 2.5281814212e-07 9.9808744899e-06 -1.2720915467e-05 
2.1422422364e-05 -7.8205481128e-06 -6.2559850941e-06 -5.8103228933e-06 2.6753028379e-05 -0.00011367996812 -0.00054016449851 -0.0012384321464 -0.0016429508036 
-0.0014470637685 -0.00091634596159 -0.00031094041381 1.508691457e-05 -1.1700679444e-05 -2.4171965721e-06 1.4661178017e-05 -1.3071312213e-05 2.581164899e-06 
2.7862778344e-06 -2.9391183005e-06 3.207451037e-06 -7.1711103886e-08 -0.00010346312506 -0.00018570149631 -0.00025734111353 -0.00036742259497 -0.00050866974398 
-0.00023241805139 -0.00031313182877 -0.00029118866784 -0.00018068924226 -9.0344991975e-05 -3.0698345688e-06 3.1345588308e-06 5.8851550977e-07 2.5054561265e-06 
-3.9831341787e-06 9.0840522979e-06 -1.0678007435e-05 -1.0012225367e-06 1.1762712522e-05 5.2063248849e-06 -0.00020813044603 -0.00055931503559 -0.0008677697834 
-0.0010358751673 -0.00084942088448 -0.00063206639613 -0.00030359342308 -5.3689680585e-05 5.6879731146e-06 -1.3525133022e-05 5.9882871316e-06 2.0370310481e-06 
7.2961236083e-06 -1.2028481283e-05 2.0202339124e-05 5.9178180714e-06 -6.8417208632e-05 6.0541262071e-05 0.00019591604499 -0.00076751808873 -0.010208987635 
-0.033387971104 -0.030523561338 -0.032912736101 -0.028311748774 -0.027387029025 -0.031598956271 -0.032842592029 -0.030131972182 -0.028486645452 
-0.030434058353 -0.034074788466 -0.03160528053 -0.010504511452 -0.0084360302943 -0.029733716884 -0.032448258219 -0.031273209814 -0.010443061605 
-0.028271499356 -0.033110486396 -0.032078403747 -0.012314616518 -0.013811828318 -0.017414060632 -0.024746927977 -0.023295810052 -0.020972011519 
-0.016435547884 -0.028068639197 -0.022782791245 -0.0074742025105 -0.010574582974 -0.045320952517 -0.03537020369 -0.020906537147 -0.015037810116 
-0.01627090318 -0.021349199566 -0.023529783024 -0.024617917769 -0.023394556499 -0.021803706556 -0.012840725354 -0.011799010236 -0.023988942013 
-0.021126260872 -0.02348617278 -0.021407552395 -0.018979425715 -0.014863900867 -0.014954050496 -0.032115485865 -0.042438078325 -0.042727307078 
-0.041260956062 -0.027998503845 -0.024343800067 -0.023751212749 -0.020909886789 -0.025184917905 -0.025220281027 -0.022782577359 -0.015256918385 
-0.017370551818 -0.026544974678 -0.045296146757 -0.035746474514 -0.025452283355 -0.0074529134731 -0.0034281361666 -0.0018742168576 -0.0078284323662 
-0.010759599704 -0.013864986706 -0.016498338788 -0.018696653671 -0.020050273206 -0.020982563587 -0.020950507083 -0.020071900273 -0.018653262653 
-0.016624470758 -0.014198287195 -0.011576496159 -0.0088195300288 -0.0063306814118 -0.0042256206036 -0.0023744620043 -0.0030762515382 -4.2502418929e-05 
8.419894195e-05 0.00051404380836 -5.7479132493e-05 2.5986763974e-05 -1.7388180771e-05 7.5413608448e-06 -2.0704220362e-05 -1.3077387642e-05 -1.4777016915e-05 
1.1409017883e-06 -3.949549016e-06 8.4927885453e-06 -0.00069834881892 -0.0029825219172 -0.0056995520949 -0.006077092862 -0.0041126881796 -0.0019354780208 
-6.0444218696e-05 -6.6918820324e-06 -5.5759484875e-06 -8.5587256199e-06 -9.496158246e-07 -8.936292702e-06 -5.8609407013e-06 -1.0199802265e-06 -1.1608340545e-06 
1.6313088416e-06 -0.00016665626605 -0.00056981435822 -0.00086228199188 -0.0012018926402 -0.0015768376124 -0.00084472526234 -0.0012759301804 -0.0010334238047 
-0.00054115277849 -0.00017365035091 1.4999562868e-06 -2.1303113672e-06 -3.3525117692e-06 3.5394825548e-08 -7.8861143154e-06 -5.612113494e-06 -6.5766072477e-06 
1.5306928055e-06 -2.4467163801e-06 -0.00011032781098 -0.0013429720444 -0.0029441306216 -0.0038697818802 -0.0037392029292 -0.0028581412351 -0.0017479769444 
-0.00052414482311 -4.6407900928e-06 -6.7539643282e-06 -1.5228736404e-05 -1.1738902294e-05 -1.534755814e-05 -1.212761941e-05 -3.0508245963e-05 -1.3339867304e-05 
-2.8998180233e-05 1.1932681309e-05 0.00013390031792 0.00083887966008 -0.017654197595 -0.00021413489144 0.0010870269917 0.00093339914223 0.001137095942 
0.0008729771723 0.001562900668 0.0012850309774 0.0012994341174 0.0010008699323 0.00071254911953 0.0012315819451 0.0014498099593 0.00052674488855 
0.0002825226813 0.0004394618142 0.0012927858196 0.00130787416 0.00057872658962 0.00062687967247 0.0010545281627 0.00091109947311 -0.021123865968 
-0.016436120567 0.00088485262598 -0.0025991643271 -0.0091918611142 -0.011900040895 -0.009613580897 -0.0041632979554 -0.00011931087383 0.00020347198649 
0.00088148233452 0.00016566824918 0.0002128639923 0.0011064853256 0.00098059045899 -0.0046753072405 -0.0095379097875 -0.010351972241 -0.0074266620881 
-0.001144668929 -0.002531366075 0.00055853920833 -0.002265528065 -0.0091101039576 -0.010354112551 -0.007429561053 -0.00063175041663 0.00068710148377 
0.0010945087442 0.00047072821594 -0.02292589138 -0.00095772647979 -0.00038787556797 -0.00034204112352 -0.0051417106498 -0.0095725648051 -0.011191210461 
-0.0085120013874 -0.0028270541959 -0.0039301700781 -0.0053529546952 -0.00075964579472 -0.00064162295894 -0.00076787265148 -0.01665752498 6.1299707613e-05 
-0.025200237497 -0.0078341327588 0.00085274170716 -0.0076104131674 -0.0085282478912 -0.0079962213739 -0.004021723204 -0.012977039153 -0.017336119709 
-0.016443410719 -0.017393560316 -0.016346747186 -0.014820119288 -0.012836485069 -0.010727296088 -0.0085595447518 -0.0063861979529 -0.0046039071994 
-0.0028973284176 -0.0097945156435 2.1270028167e-05 -0.0033451972421 -5.6757276775e-05 3.2187703779e-05 -2.5164059797e-05 2.34168453e-06 8.422946886e-07 
-1.2038630331e-05 -1.9664285613e-05 -4.7199075338e-06 -7.7401817894e-07 5.3262505082e-06 1.5879502977e-05 -0.0024350188617 -0.0056751034594 -0.0013055079995 
4.9836434783e-06 6.3188261174e-06 9.8608089067e-06 -1.4027037401e-06 2.2559830027e-07 -5.8803184715e-06 -3.2208808229e-06 1.7301010603e-06 3.1583981661e-06 
3.3677626541e-06 -0.00089247737477 -0.0016091363889 -0.0019456687874 3.8699289975e-05 0.00010271438406 -0.014973393766 -0.00078407601885 6.6159322038e-07 
-3.0813803178e-05 -0.0018325090371 6.5523383069e-06 8.4231834165e-07 -3.061714312e-07 -7.0581322656e-07 -2.5028379057e-07 -4.166331988e-06 -1.0428516799e-06 
-2.7965718573e-06 3.1509484031e-06 3.40207684e-06 -0.0011486429042 -0.0040250636466 -0.0079391302247 -0.0073518654527 -0.0069138449202 -0.0043541470139 
-0.001933604911 4.4878642216e-06 -8.0498116628e-07 1.4046654327e-05 6.316936558e-06 -4.6207065244e-06 -1.1022954578e-05 -1.8974275397e-05 -7.8437320684e-06 
-1.4046019289e-05 3.4480330411e-06 1.6139866232e-05 -0.015634599123 -2.0739219565e-05 -0.0016988365947 -0.0012933201028 -7.528260448e-06 8.1957944774e-06 
8.8034160957e-05 2.1634464836e-05 2.5372886113e-05 1.9845602542e-05 1.5579118416e-05 1.6573896133e-06 7.0588086349e-05 2.3162291443e-05 9.0022625904e-06 
3.0735350049e-05 1.4332936633e-05 3.0585122644e-05 9.3317698499e-05 7.0293369852e-05 0.00015610674482 -0.016053579538 -0.0014424598345 -0.001536684033 
-0.0034369547142 -0.0024471775484 4.2778495612e-05 6.9553941094e-05 9.0988844478e-05 2.478864103e-05 0.00014802040762 -0.017735712839 -0.00062164478592 
-1.8651738086e-05 9.8070961244e-06 4.5828442826e-05 -0.0019671762415 -0.0020702151591 -0.00029924021723 0.00029817021378 -0.0029392470462 -0.0014188271339 
3.8858581125e-05 1.8135033574e-05 6.3172037156e-07 -0.010535440388 -0.0053303708356 0.00015265593982 0.00012352015716 8.6637305043e-05 -0.0025001159366 
-0.0028315174189 -0.0011348627451 -0.0015118299842 2.164948264e-05 0.00024862423842 -0.0044579017024 -2.2236083348e-05 -0.0048397440892 -0.0094730662075 
-0.0027650419998 6.0668777837e-05 -0.0081508414103 -0.011944945336 9.3298206066e-05 -0.014085133135 7.8692489357e-05 7.5690068422e-05 -0.00018727017786 
-1.0989888623e-05 1.5113897425e-06 -0.014910230791 -0.012951001985 -0.014229920578 -0.0093824089701 -0.0077228005753 -0.0059272426248 -0.0042406603864 
-0.0028977211041 -0.011229651666 -1.2788589781e-05 -0.014383607776 -6.7008175823e-06 -2.7058365397e-05 -3.4750912682e-07 -1.015132633e-05 -1.4364658039e-05 
2.3307527683e-06 -2.5840816594e-05 -5.7053593153e-06 3.545439861e-05 1.6061611267e-06 -9.7693938514e-06 3.7152182756e-06 2.9338688887e-06 1.9590761486e-06 
1.1142985761e-05 3.4189118803e-06 -0.0010601118556 -0.0024121084828 -0.0034166329895 -4.2359510192e-06 -5.9747289377e-05 2.1718590079e-07 -0.00072151471991 
1.0972696711e-06 1.3373364601e-06 -2.6723447792e-07 -5.4966979105e-07 9.1475402009e-08 -6.4361329971e-06 1.0732410783e-06 -6.0565973859e-07 -0.0030164115129 
-0.0079049458286 -0.009245922128 -0.0044892112469 -0.0010543966604 2.9430115722e-06 -2.8878657146e-06 8.4902273751e-06 4.0879588984e-07 -4.1296070766e-06 
-3.5085358615e-06 -1.6442748791e-05 -7.1522475663e-07 -9.4005346722e-06 -2.6137849653e-05 -4.9631539842e-05 -8.6328609804e-05 -4.066208613e-06 -1.8638070399e-05 
-0.0019355396797 2.7923564047e-05 8.5490990582e-06 9.9419739677e-07 -2.8544071935e-06 -5.0152063313e-06 -2.0202470223e-06 -7.9903762118e-06 2.4880749995e-05 
-4.1945309894e-06 -1.3528954543e-06 4.9807625314e-05 1.7038579378e-05 -0.014926407098 6.6068059528e-06 -0.0057748848826 2.812570916e-05 -3.1212394578e-05 
-3.0093443203e-06 -2.360334899e-05 7.1133695245e-06 9.9888279597e-08 -1.3889405507e-05 4.1204752402e-05 -0.0079752813041 -0.00012886229302 -9.246977494e-05 
-9.7422321893e-06 8.9876993875e-06 -2.5182126037e-05 2.2612671082e-05 1.7235374394e-05 -1.0062704483e-05 -0.0048238454666 -3.8354166577e-05 -2.5485393187e-06 
-2.3507503386e-07 -1.0250757524e-06 -0.0057560748384 4.4949401252e-06 -9.0665529983e-07 3.1769270368e-06 3.741375047e-05 6.5147385493e-06 7.8045012095e-05 
2.3544047542e-05 -0.0033472887318 -2.8092219156e-05 2.0652662856e-05 -7.0970078572e-06 -2.2861027834e-05 -0.0075480454998 -0.013410184654 -4.7638240911e-05 
-0.011908880903 -8.8112073211e-07 -1.4299497221e-05 -0.006409073189 5.2109462657e-05 1.3833485114e-05 -0.0021633118644 0.00010919397158 -0.0085980531024 
3.4252280624e-05 -3.520356285e-05 -0.0097832379003 -0.0036085997806 -0.0062116971314 1.9370452727e-06 8.6012405834e-06 1.7329229348e-05 -0.00077210645756 
1.0960544317e-05 -1.5772214675e-05 2.6770020659e-06 6.7299500633e-06 -1.5218626177e-05 -2.1156051108e-05 1.4452968572e-05 -0.0010733813951 -0.0031861298736 
-0.0047243555285 3.25398985e-05 6.2992850983e-06 -1.2452832414e-06 -0.00013852954418 -5.1552009973e-06 1.3531643719e-06 1.6669747253e-06 -2.7020710088e-06 
-9.4423551104e-06 9.7223543912e-06 -6.362294494e-06 -0.012625789931 -8.6371745174e-06 1.339406248e-05 -1.3592927846e-05 5.6202558887e-06 -1.9596463921e-05 
-2.0936510047e-06 -5.0283709204e-06 -3.4867036505e-07 2.1251120657e-06 2.7314120942e-05 1.0184664269e-05 1.9821708772e-05 -2.6397633084e-06 -1.7831897835e-06 
5.3113485584e-06 7.1420928863e-06 3.7948034712e-05 1.6261148732e-05 -1.3546365931e-06 -3.8714579274e-05 -3.1224672157e-05 -2.8014648505e-05 -1.2040473376e-05 
6.8583943431e-06 -0.012840617224 1.5742418717e-05 8.0058080772e-06 2.4841111617e-06 7.4425082902e-06 -3.3096254017e-05 -3.9574200008e-06 -4.1143171025e-06 
1.7019716027e-05 -0.0010091321604 -9.89632107e-06 1.0606093981e-05 -0.0049708954316 -5.5697753997e-06 -3.7869973461e-06 1.8018634654e-05 7.8441307284e-06 
3.7383599861e-05 1.1798868575e-05 -0.01244942014 -0.007678116269 -0.0068804016305 -0.011867701681 -5.1701306499e-06 6.0004431948e-06 -2.3487182984e-06 
-0.0096383825309 -0.011283611672 -0.010487024385 -0.0076819958514 -4.1477814062e-05 9.0531923043e-06 1.628574889e-05 1.2963642903e-06 -3.5764017654e-05 
6.7985606607e-06 -1.182719946e-05 -1.8679385618e-05 -2.8972098245e-06 2.5407331349e-06 -0.001718133454 -7.6299482567e-06 -0.0091248408337 -6.8935090596e-05 
1.8322133342e-05 -0.0039954744151 2.181846629e-05 -0.010971224438 1.4197589566e-05 -1.324054905e-05 4.0476682355e-05 -0.0011392161353 -0.003979103591 
-0.0064191976174 -1.1282560594e-05 -0.00039012872959 -1.6598151105e-06 4.9698122717e-06 7.0492434036e-05 -4.8128716157e-07 2.8956982442e-06 6.4443595137e-06 
-8.6968213156e-06 8.1680804806e-06 -4.1629958616e-06 -0.009524858894 1.1831993861e-05 1.7083099098e-05 -6.4988041977e-06 -6.546341927e-06 3.2874129179e-05 
-1.2922209089e-05 -4.2056729814e-06 1.3221715632e-05 9.2409296888e-06 4.5172736984e-05 8.999447037e-06 -9.533572445e-06 -5.4937575698e-06 -0.0085413027769 
-0.0038102219592 -0.010664989069 -0.0051019489348 -2.5707984374e-06 -0.01106047976 -1.5034949435e-05 -0.0029987447479 -1.8147544158e-05 -0.0056863356427 
-0.0082721774482 -2.9206484558e-05 -0.0091090264518 -1.082084524e-05 -8.7934693982e-07 1.3650085341e-05 2.7160676366e-05 -0.0073511989724 2.1138506853e-06 
-4.4671004254e-05 -3.8280920919e-05 -2.1303756528e-05 -2.1356960277e-06 -0.0027156009024 -1.492540526e-05 1.698373399e-05 -2.1171426378e-05 -0.00069406270867 
-1.9649390566e-05 -0.0095774359394 -0.0090698578008 -0.0010447440372 -1.423378621e-05 9.0387616239e-06 4.2302420745e-06 -0.0055476481498 -0.0052927950616 
-5.2137867795e-05 -0.044469574836 -0.085328001108 -0.04065330536 -0.12595817569 -0.041285333757 -0.027443848317 -0.0053903190549 0.0059743702191 
-0.024761866953 -0.0015835501227 0.041656266405 -0.0078244297044 -0.0026978128113 -0.0063047758605 -0.020441450947 0.046317147673 -0.042293647918 
-0.021090315872 -0.0088525886525 0.0095526769384 0.0005866038815 0.0024445064987 0.0037409772499 0.033526546707 -0.24554137828 -0.25725978378 
-0.17998126156 -0.18627578514 -0.18057604086 -0.12946020392 0.028730163079 0.0078975147511 0.0085937352281 0.0039022133008 0.055389916612 
-0.071208563858 -0.010538481223 0.01438245468 0.014379124999 0.0071587406887 -0.0029200960487 0.0075478118391 0.093695947174 -0.21278683985 
-0.18977064666 -0.27910165883 -0.28820677592 -0.34562718854 -0.29683845388 -0.26639537727 -0.27545374034 -0.29436174624 -0.32859738579 
-0.0074442031765 0.0015539711699 -0.0032384773651 0.011607231566 -0.0058880932467 0.0019918256338 0.014950530334 0.041764858997 0.017166795398 
-0.00077197649455 0.0096836840044 0.015182508271 0.016532498902 0.030021782191 -0.13010417993 -0.17039571419 -0.18347038158 -0.10825251491 
-0.19773813002 -0.078916498318 0.010219616587 0.0081501791154 0.0015613133761 0.0062877890506 -0.0091019801292 0.006742561755 0.056237368925 
-0.025276283258 0.00091599925485 0.00093464602418 0.001449512472 -0.0025439703423 0.01554769612 -0.23853186114 -0.19022137871 -0.18792137476 
-0.28546654523 -0.3147429562 -0.25186106893 0.02666703598 0.0064983098421 -0.0016029409537 -3.4121884087e-05 -0.0023300099718 -0.0021207023443 
0.00039166096501 -0.082071829304 0.0014756486437 0.0030978582609 -0.0011227786923 -0.0057272778931 -0.00084972228866 0.065830043338 -0.21158649889 
-0.25376738191 -0.18631954621 -0.18883667529 -0.25476931834 0.064765182315 -0.0037414003501 0.0012596387601 0.0085779244282 0.010190220812 
0.01113396235 0.0044744736157 -0.011881022735 -0.01650165089 -0.00092559509896 0.0083246478239 -0.0019134896526 0.013259733222 0.054381328681 
0.00060024147901 -0.0089722871891 0.0072972190481 0.0012230293852 0.0040243780798 0.050117907408 0.054683638445 -0.0038015188021 0.003718554349 
0.0068436757777 0.01141442212 0.00032454840291 0.012623069108 -0.03059761034 -0.20002297613 -0.18198186572 -0.18422693506 -0.19019801216 
-0.22591959394 0.0059449285095 -0.00063523423341 0.0024569259088 -0.0068113134923 0.0019431007223 0.03411502466 0.035428318446 0.0016404009974 
0.003191959166 0.0014816265157 0.0025263878126 0.002338641562 0.00932913609 -0.022035419955 -0.20802201855 -0.27894575668 -0.27378911507 
-0.28138838339 -0.20937441255 -0.24442379744 0.38980739812 0.40784262084 0.24117663724 0.1393884989 0.19638452901 0.19152378935 
0.19262257518 0.19690429091 0.20544586178 0.2061407691 0.21219387522 0.21484578153 0.22632409317 0.2209007216 0.2228578662 
0.22591865144 0.12281382738 0.12265977847 0.21464154142 0.20848877781 0.20397515538 0.11483679363 0.19174610405 0.19046136157 
0.19555765878 0.1356016837 0.21070191841 0.17071317426 0.13474837605 0.17304157892 0.19770110118 0.1971290699 0.1951104323 
0.17937090282 0.18880361784 0.21007586425 0.21252597244 0.21133434474 0.19927638603 0.20479665396 0.22268793471 0.22444232299 
0.22245993885 0.20120397756 0.1587919432 0.15688556382 0.19067002039 0.21065864919 0.2111250524 0.18437753161 0.14051698225 
0.1723475426 0.18969173139 0.19494740435 0.16894728855 0.13330792742 0.21911490337 -1.1765674964e-05 0.00010706878296 -0.0001934709151 
-0.001755464096 -0.0041435955577 -0.0072343143991 -0.010638886265 -0.014311692319 -0.018268171788 -0.021866945419 -0.025070543165 -0.027794237369 
-0.029765317452 -0.03093010675 -0.031413700045 -0.031009703526 -0.029862514184 -0.027853026946 -0.025278638209 -0.022339738033 -0.018782056899 
-0.015212969826 -0.011905054201 -0.0086335371948 -0.0057819868662 -0.0033536501168 -0.0014425251021 -0.00021762134777 3.2046367683e-05 -1.4517928829e-05 
0.0020221017975 -0.03516184043 -0.0048042875216 -0.0028546173542 -0.0012950657654 -0.00057069878383 -0.00061288460049 -0.00046611295276 -0.00034226162781 
-0.00033143105116 -0.00017786227446 -0.00017796301562 -0.00026326422856 -0.00023382002475 -0.00026545303581 -0.00012621852775 -8.5353378412e-05 -5.5124024861e-05 
-1.9060636585e-05 5.6185296397e-05 0.00013123484742 0.0001987388291 0.00018755432918 0.00012034098687 5.0066504698e-05 -1.8717814825e-05 -4.074597723e-05 
-0.0001747258531 -0.00021819050231 -0.00018931493612 -0.00014915358293 -0.00011104086527 -0.00015266614017 -0.00017663624825 -0.00014829233088 -9.4944780621e-05 
-4.2957495763e-05 -1.6108166854e-05 -8.0674976784e-06 1.3427351464e-05 1.9295105724e-05 2.3178826445e-05 5.2677209805e-05 4.1727440624e-05 2.5457986435e-05 
-3.298820934e-05 -1.4266647119e-05 1.2079020571e-05 3.030762742e-05 2.4250552618e-05 1.3801474367e-05 3.3260078372e-06 -7.8423383547e-06 -3.1344232681e-05 
-4.2547230057e-05 -6.1118737129e-05 -5.6954129371e-05 -6.9884380112e-05 -9.0693892013e-05 -0.00014409212247 -0.00016936814315 -0.00016673353096 -0.000124185832 
-7.2908027894e-05 -4.8039413576e-05 1.3297238661e-06 1.2650868162e-05 6.6151702091e-05 0.00010353773055 0.0001339991668 9.2394415168e-05 8.3491915906e-05 
5.9523437864e-05 -2.0233172078e-05 -5.7869206248e-05 -5.2408951898e-05 -6.8915301933e-05 -8.1998286052e-05 -0.00022874417668 -0.00019029226721 -0.00011770794422 
-0.00014465544657 -0.00015013019419 -0.00038338236083 -0.00039117831603 -0.00033310957669 -0.00046309767244 -0.0014026689044 -0.0025258499536 -0.0049118670292 
-0.034343329235 0.029774036868 -0.036173001086 -0.011033546755 -0.010240500024 0.010834520477 0.0020485010775 0.0024410121833 0.00084779496732 
0.0041287683912 0.0050358530975 -0.023719684911 -0.040787538976 -0.0024944715637 -0.021524060135 -0.0092389849993 -0.0032533064505 -0.0014984584809 
-0.0005453597444 0.0018124470227 0.0021880897626 -0.023962178199 -0.0052951108993 -0.026961768636 -0.02297588055 0.0031095958954 0.0022645824194 
-0.0040458837972 -0.0034616240282 -0.0028661275972 0.013341944872 0.012628307659 0.0065940027816 -0.022559348517 -0.040032202656 0.010278976856 
-0.018125093429 -0.0037833081764 0.0074523526616 0.00086022035801 -0.0045311603495 7.5720164356e-05 -0.0017706262308 -0.0036508828001 -0.0082622497012 
-0.034748329298 -3.3239803186e-05 0.00011496659688 -0.0007350261114 -0.0032468869965 -0.0067216685819 -0.01105450345 -0.015923963679 -0.021034056583 
-0.025365143845 -0.028415321319 -0.030587008718 -0.031407102124 -0.030665405808 -0.02865351493 -0.025719534701 -0.021819749054 -0.017336647692 
-0.01288995332 -0.0086809119582 -0.0049801881438 -0.0021527584473 -0.00029992571276 0.00010492329006 -1.354241728e-05 0.020043122546 -0.016589725635 
-0.0044237377763 -0.001500524657 -0.0008293458674 -0.00054489989951 -0.0003917208252 -0.00035823720548 -0.00040845250986 -0.00029000131911 -0.00026523068525 
-0.0002140303998 -0.00024100821955 -0.00020241414821 -7.8059090555e-05 3.3116435707e-05 0.00015297759606 0.00044493752374 0.00020788057946 9.9979355327e-05 
1.6562680062e-05 -9.8381852722e-05 -0.00017570416521 -0.00022316055222 -0.00024360503315 -0.00027371619426 -0.000200270204 -0.00017186512079 -0.00011196493845 
-6.0656093601e-05 -5.8362969009e-05 -8.0255089975e-06 1.67310594e-05 3.328569732e-05 5.1000422496e-05 0.00012495634968 0.00010536434265 -8.0382985639e-05 
-4.703918576e-05 2.8533094174e-05 4.0728872277e-05 3.2281266244e-05 1.695402252e-05 2.8236379601e-05 -1.28553183e-05 -5.9965707496e-05 -9.3544901054e-05 
-0.00014563469229 -0.00018098702371 -0.00017034411062 -0.00015829942455 -0.0001951631128 -0.00012575291065 -3.4757089308e-05 2.5426000806e-05 9.2753516618e-05 
0.00023579517566 0.00015383680785 0.00010682656087 4.9400630677e-05 5.8706828681e-05 -5.7007401817e-05 -0.00015156317934 -0.00017497647823 -0.00020854729722 
-0.00027315385937 -0.00033671946935 -0.00032888146184 -0.00040858118797 -0.00061758514593 -0.00096836069246 -0.0017957542953 -0.0032729355587 -0.010826201632 
0.036015959291 -0.020186104842 -0.030755034866 0.0044398315223 -0.0025639513417 0.00046931165017 0.0009464061957 -0.0031517422374 -0.0074674680507 
-0.0012624305255 -0.0054469693038 -0.030041547701 -0.055672310541 -0.041074662734 0.007626427539 -0.0017616251807 -0.001568143356 -0.00029129624288 
-0.00080327927863 -0.0037306205983 -0.031120827524 -0.016959471744 -0.028643496968 -0.022241649102 -0.022763359627 0.0019818289988 -0.0015850649859 
-0.0045563869515 -0.0088283018641 -0.013486695535 -0.017471465679 -0.043961243925 -0.040843609212 -0.044276360083 -0.018983899022 -0.011922033721 
-0.0056926220176 -0.012413578841 -0.0067678189211 -0.0056588821762 0.0096875309313 -0.0033963745631 -0.013890780268 -0.043591218022 -1.5624733921e-05 
-3.0589304712e-05 -0.218973993 -0.013933707245 -0.10779052415 -0.30307718479 -0.082381156291 0.0061521869428 -0.18622651551 -0.10232566128 
0.0028205332181 -0.13510678661 -0.046550947806 -0.14642519921 -0.081585227108 0.045497147804 -0.042127699411 -0.093034307724 0.022560907 
-0.00017787984475 -0.023071040022 0.003141626656 0.0011908201125 -0.0016966645453 -0.021933969072 -0.0051348166286 -0.0060221983156 0.014300452598 
0.0043367925716 0.002676421574 0.0043881733596 0.0053368893166 -0.00034839938481 -0.0041475559381 -0.002033409837 -0.015677634968 0.0088462283803 
0.014448903417 0.0011219831316 0.0078183683638 -0.0083991365473 0.0036618942803 -0.015847080993 -0.011597792717 0.0032577909804 -0.0042764415366 
0.0020251651006 0.0010232158186 -0.0031998299357 -0.0017699421098 0.010577688837 -0.0054459118561 -0.0051409958495 0.010890996847 0.012666449802 
-0.0027748272709 0.014262364415 -0.0018558470202 -0.0037459133027 0.0026904783254 0.0014077018531 -0.017118088854 0.00035223518074 -0.0023493829907 
-0.026699785076 0.0061973963494 0.00228854325 0.0020761326434 0.00071773900309 0.00038542927904 -0.0020090889538 0.015323003453 -0.0016589811958 
-0.0028075268869 -0.0022817731119 -0.00047904547411 -0.00084433374819 -0.00057481403126 -0.0054119117479 0.011999993732 0.0036179449949 0.0041128148905 
0.0042610239469 0.0021245927212 0.0026255011347 0.0016755433507 -0.0022109436944 0.012914687769 0.009241723775 -0.0018537599422 -0.005348209117 
0.011411161726 -0.0019229414283 -0.0084080386878 -0.0066480266237 -0.0017764730616 0.0089102583753 0.0044710587202 -0.0035513362266 0.0010703360011 
-0.0026657586332 0.004347265419 0.012578769475 0.0070252387213 0.0013891323759 0.0021362837499 -0.0084484818426 -0.012251059184 0.0050184344965 
0.0032538177838 0.0047101832474 0.0094082246725 0.0043198004624 -0.0052105979755 0.0001884835925 -0.0036186513859 0.0015847719175 0.0053567028127 
0.0055002951745 0.0029348204072 -0.022270752711 -0.0001100625779 -0.00037728178328 0.0016294302433 0.019038430618 -0.013294332028 0.023995953499 
0.017724037545 0.00027185943745 0.0023810906256 -0.026813322192 -0.0035139791656 0.0056358960162 0.0038740048797 -0.0063634781539 -8.031756173e-05 
0.0018208902478 -0.0065113951489 -0.0062265551087 -0.0050502780457 -0.0069860302933 -0.04695980019 -8.4402183245e-05 0.0004235297305 -0.0032950254304 
-0.0042183638694 -0.0021317826075 0.0015190145181 0.0034974441024 0.0084025057447 0.0051301241415 0.0070444109193 -0.0064894187074 0.021669014457 
0.032364785607 0.0088234881928 0.0095519751074 -0.0039666354383 0.0026569387212 0.0066216678618 -0.0017983638479 0.0099731998518 0.0064209548895 
-0.015809072603 0.0041677421151 0.0022011152721 0.0042973035377 -0.015277970086 0.0071005827205 0.0018710134915 -0.0016918547371 0.0025484806032 
0.0028697220489 -0.0056994970202 -0.00029086030953 -0.0053473812421 -0.0017091883394 -0.0072852827787 -0.00097579512188 -0.00024730933427 -0.0037598574792 
-0.00072361907863 -0.0006827360496 -0.0057900363359 0.0082745884464 0.0056055984319 -0.0029539606315 -0.0053898253405 -0.0015610198085 0.0001027950113 
-0.00087750100862 0.00038489170174 -0.0080298198397 -0.0011732413014 -0.0014876963147 -0.0006289498573 -0.0023227419939 0.0004826654411 0.015175714877 
0.018200583414 0.0070497036263 0.00027361594676 -0.0095171414429 -0.0029577704992 -0.0045251251546 0.0021050131663 0.0040890438302 -0.0054384785784 
0.0074809900555 0.0033374699014 -0.02019012625 0.0070692411738 0.0048502754521 -0.021418090176 0.039362034036 0.0031733754572 0.0037813617406 
0.00047378859555 -0.001718320389 -0.022633723291 -0.0089265699575 0.0059772335618 0.0090842784832 -0.0012089042304 0.008674624767 0.0039846812276 
-0.0065949947681 -0.0057442914552 0.0098712931622 0.0025407136034 -0.0059404199962 -0.0027860512691 0.0010129979174 0.0019493066557 -0.0012652083083 
-0.0030847845426 0.00091155235494 -0.0025623697812 -0.0034298385924 -0.00019819518964 -0.00042398144169 -0.0054280465581 -0.028439090257 -0.0027071009502 
-0.0040013355341 -0.00042399598501 -0.014317774886 -0.015465109436 0.0038451783841 0.0034824776709 0.012895942577 -0.0023027959181 -0.0022458940359 
0.0046015420263 0.0050181439304 0.00083253586809 0.0026641574849 -0.0060120872986 0.0069362402192 -0.0002995848443 -0.00072265835479 0.0016986839393 
0.010715465933 -0.0096440134161 0.011789186008 -0.010312834585 0.00566130973 0.0026390455686 0.009440834284 -0.00098939561689 0.0017847463537 
-0.0013822041194 0.0021090614551 0.00034016249838 0.0064737699301 0.010082469612 -0.0061546178582 -0.0014524559782 0.0027732484114 0.0024564341952 
-0.00056965582727 0.00079083236667 -0.0026644852755 -0.0031425623007 -0.0094039820592 -0.011448516785 -0.013597215726 -0.0028450950313 -0.0015709711303 
0.011994536788 0.0021636061664 -0.0057279505463 0.0049866314993 0.004952535919 -0.0011596744105 -0.0065518323269 -0.0026073113821 -0.0047792792029 
0.024197053502 -0.010046423799 -0.016089212657 -0.00049744390938 0.0089607371174 -0.0070197043217 -0.0058290204582 -0.0020821607285 0.0038554220024 
0.0027543981767 -0.0041049807284 0.00444401841 0.0038250527384 0.002937187654 0.0045765644693 0.001661506303 0.010493203545 0.0096064740567 
0.010933353834 -0.0065422029078 0.0029617092751 -0.0062331565724 0.00028186849053 0.0038793432168 -0.0062471241205 0.0023653714209 -0.0032368565512 
0.0078827551505 -0.0064580676986 -7.0490018747e-05 -0.001207898176 0.0053054735628 0.0051036100169 0.0031463600802 0.00076962144209 0.0018616756607 
-0.00092494579121 0.00068095699531 0.000606148068 -0.0021342569595 0.0086088985561 0.028655662178 -0.0083159635185 -0.016739434643 0.0057304091107 
0.0030985414215 0.0024380164043 -0.028012988658 -0.0020287796851 0.0040565674492 -0.007257599799 0.0098890990037 0.0062739561039 -0.020862915827 
-0.00057738434392 0.00022966576622 0.013167724864 0.01212270876 0.017309665993 0.007738444243 -0.0028832485087 0.03564282644 0.001463818239 
0.015783985992 0.0055882334078 -0.010549496367 0.0036764697446 -0.0045953234642 0.021010888753 0.010864455852 -0.0022735560863 -0.009211485886 
-0.0019626547411 0.00022124776498 -0.029087350094 0.0012290005342 -0.0038428749144 -0.0027761630791 0.0005883212539 -0.0051932839394 -0.0010274858359 
0.21244476464 0.23112659821 0.1335297317 0.1508306065 0.15639044106 0.15758369381 0.1614501808 0.15619019196 0.1580458734 
0.15607018092 0.15562338961 0.16141534395 0.1569322078 0.15839860369 0.17491961661 0.16061755498 0.1723770541 0.17159190721 
0.16737931473 0.17894384892 0.16235517808 0.16642796849 0.18797065636 0.16787272384 0.18133790256 0.17737718102 0.1733810634 
0.18765294381 0.169251433 0.19084122875 0.18851043393 0.18335976149 0.18012408645 0.16779006914 0.17424816257 0.17008457423 
0.16485752879 0.17797255748 0.1599730145 0.15990072614 0.15413650136 0.15181770573 0.15436843939 0.15850180304 0.16023204605 
0.14902487092 0.15818600507 0.15213769461 0.15592602064 0.15484379393 0.16342004676 0.1861466157 0.1919246392 0.167243121 
4.5922424324e-06 -0.00010837894738 -0.00016280545814 -0.00064554022452 -0.0012579822868 -0.0007243013398 -0.002013887807 -0.0029559785803 -0.0019158097179 
-0.0039400482896 -0.0052920724345 -0.0037152822977 -0.0065658077918 -0.0081635811908 -0.0059846044452 -0.0095355198565 -0.011234945455 -0.0086747561421 
-0.012774559913 -0.014676813301 -0.01158248602 -0.016194802582 -0.018102369508 -0.014655810118 -0.019492561128 -0.021117577355 -0.017573868314 
-0.022370129112 -0.023847011246 -0.020214496248 -0.024931001183 -0.026032037032 -0.022598593569 -0.02677529394 -0.027545465934 -0.024444622417 
-0.028026536188 -0.028485948728 -0.02569637515 -0.028595117179 -0.02866540125 -0.026289513446 -0.028510898947 -0.028072382487 -0.026303810558 
-0.027600376015 -0.026873994519 -0.025710371538 -0.026114867812 -0.024935883853 -0.024452307507 -0.023952073886 -0.022707654933 -0.022694777764 
-0.021501833142 -0.019891435351 -0.020468833777 -0.018496058104 -0.016620219705 -0.017867394494 -0.015294112654 -0.013717220231 -0.015131845433 
-0.012326189368 -0.010650070053 -0.012393890389 -0.009333287349 -0.007852902657 -0.0096843861277 -0.0066923542403 -0.0054312070403 -0.0072176705096 
-0.0044104962247 -0.0033317343787 -0.0050346723711 -0.0024828890718 -0.0016716574731 -0.0031600240299 -0.0010595851456 -0.00059489142266 -0.0016834515086 
-0.00020719018311 -6.3548974156e-05 -0.00070614563232 -1.9643232123e-05 -2.3498412232e-05 -3.3287651153e-05 -0.00015577521855 -0.080009059387 -0.023499867237 
0.0011332245602 0.0020752857416 0.00095226986882 -0.006234042167 0.0016319207106 0.0003749409982 -0.002626660942 0.00063954426796 0.00029569461623 
-0.00085612922684 0.00011837357043 0.00025221238642 -0.00071091256745 0.00038090441719 0.00010748739323 -0.00048682378539 0.0002020883606 8.6744952255e-05 
-0.00027901698594 8.3955204528e-05 6.5188404366e-05 -0.00022414242748 0.00012923364029 0.00011600688616 -0.00019105413788 -1.2124415214e-06 0.0001167776495 
-0.00022778453279 3.6260766588e-05 7.8132439399e-05 -0.00018279174518 8.9403773525e-05 2.4863812538e-05 -0.00015604335094 5.9380333233e-05 3.939956126e-05 
-0.00014602173976 7.894466047e-05 9.6457530122e-05 -9.816778357e-05 -2.6387423392e-05 9.9583421629e-05 -0.00015114897849 -4.4832913727e-05 2.1560106673e-05 
-9.4786443457e-05 3.0114375904e-05 -2.1510553633e-05 -7.8840482361e-05 -5.8552361475e-05 -8.6424586001e-05 -0.00014627287763 -0.00024208633764 -0.00024923658961 
-0.00028117167175 -0.00048022435618 -0.00044512344416 -0.00050383046434 -0.0005350911409 -0.00056504741446 -0.00071874070097 -0.00065799711058 -0.00059335904725 
-0.00076839830374 -0.00049146970198 -0.00041391577078 -0.00058437030049 -0.00023658775049 -0.00019466687154 -0.00042353445103 -7.4074834716e-05 -2.0927216172e-05 
-0.00018825116562 -1.2230722728e-06 -5.4552604107e-05 -4.4341243983e-05 8.8508318002e-05 4.1870414994e-05 -1.6859641788e-05 2.202099448e-05 5.2860443294e-05 
-5.3169111768e-05 2.0201146266e-05 6.0118226558e-05 -9.4571977501e-05 6.6132231372e-05 4.2733371624e-05 -0.0001043216308 7.7855600176e-05 6.87602841e-06 
-0.00011140479453 5.3070451304e-05 6.7239732222e-05 -0.00012909947057 5.9891003442e-05 2.8343945463e-05 -8.5790715077e-05 4.9985526711e-05 2.3476234588e-05 
-6.8461451243e-05 4.8371640919e-05 4.5890716389e-05 -4.8528215549e-05 2.6590090956e-05 8.2461176743e-06 -6.403443488e-05 -2.7214835818e-06 1.3691723404e-05 
-4.069641345e-05 -3.5613270662e-05 -2.6175750616e-05 -3.7276040912e-05 -5.4072162321e-05 -5.2940292131e-05 -6.2613357059e-05 -8.6895741616e-05 -8.0324627338e-05 
-0.00010359120445 -0.00011210024922 -0.00010966147144 -0.00013081007254 -0.00014756876731 -0.00013373127672 -0.00014870585565 -0.00013859177225 -0.00012533254588 
-0.00017226374851 -0.0001135702876 -0.00011976110992 -0.00016302487912 -0.00011125952279 -0.00010514577932 -0.00016551975322 -0.00010836614027 -7.6709802555e-05 
-0.00018197181901 -9.9291586216e-05 -7.9825213583e-05 -0.0001087604072 -8.2070724639e-05 -6.3100218945e-05 -9.0302823767e-05 -6.0688971971e-05 -2.957296437e-05 
-6.6803426428e-05 -2.4387493986e-05 -2.2116306384e-05 -5.2569058547e-05 -6.1076389336e-06 -8.0122451256e-06 -2.0878408894e-05 -4.1285028986e-06 1.0547825044e-05 
-1.3287190716e-05 2.4816122328e-06 2.2086704849e-05 -2.0230237488e-05 2.8568537648e-05 2.4333059402e-05 -4.7700136722e-05 9.1124851475e-06 4.1837983088e-05 
-6.5018406347e-05 3.1200552094e-05 4.7108698504e-05 -9.8337150843e-05 4.6275863612e-05 4.3482037676e-05 -7.8116212227e-05 5.2585253103e-05 2.7897368352e-05 
-8.5614618727e-05 6.0487382526e-05 9.6021642252e-06 -8.3114973169e-05 9.1576814122e-06 3.2857301892e-06 -4.5883614955e-05 1.3385686624e-06 2.6271060118e-05 
-8.6211914725e-05 5.9147956985e-05 -2.834872143e-06 -5.3615455639e-05 8.191890348e-07 -3.1267424691e-05 -3.1620916866e-05 -8.7457934588e-05 -7.9017561465e-05 
-7.8278269178e-05 -0.00021674289054 -0.000187451366 -0.00016203737269 -0.00026672878359 -0.00026426964572 -0.00030219824557 -0.00039689675881 -0.00033185137201 
-0.0003970040095 -0.00037136485152 -0.00033219238794 -0.00040428534657 -0.00032787539521 -0.00030253724554 -0.00037281825831 -0.00024199673171 -0.00015522625656 
-0.00034168420109 -0.00011169671366 -0.00011847721647 -0.00027917943722 -7.2070871273e-05 -7.9605798901e-05 -0.00013731458754 -3.6942891548e-05 -1.9800447023e-05 
-4.3425657487e-05 -6.472732714e-06 -1.5705869627e-05 -5.7351760212e-05 4.008173612e-05 2.0717748106e-05 -4.9260179907e-05 0.00011039089147 3.2647930742e-05 
-9.9827021205e-05 3.0869351853e-05 3.2859769382e-05 -0.00011526924923 1.9365053893e-05 2.5745677081e-06 -0.00014538791075 8.9619413955e-05 2.1473741387e-05 
-9.7758240715e-05 5.2960243483e-05 6.4969450517e-05 -0.00018889735677 0.00014551715987 0.00010321857059 -0.00018419473601 5.9957487236e-05 0.00013708254487 
-0.00024579262353 0.00015290891834 9.8229844961e-05 -0.00039354486954 0.00013027439453 0.00023461875785 -0.0004150450229 0.00049761473132 0.00049163591698 
-0.00063675982542 0.0002280120914 0.00072263444594 -0.0009800005143 0.00055610504395 0.0024725054422 -0.0018069061291 -0.0057257295388 -0.076350752306 
-0.0040192013143 -0.033621292449 0.041005589945 0.019297047618 0.008636902246 0.0099209457106 -0.060726982061 0.016866961383 0.012237308908 
-0.0067598032138 0.011747819814 0.010304448529 -0.0043447399447 0.0094121234642 0.011844014089 -0.0067424480769 0.016401596465 0.011574454847 
-0.0060421502146 0.0048133224204 0.015030122739 -0.045380235575 0.015964973849 0.014136350323 -0.0071208014519 0.013371830886 0.012347280964 
-0.0099128599087 0.010724300264 0.013484915147 -0.0083743115696 0.015097892528 0.0096449197461 -0.0060886966907 0.0082915701346 0.015634631737 
-0.046829302087 0.014875918289 0.013880076733 -0.0051107499385 0.013947822773 0.012971146817 -0.0063186680714 0.012607048072 0.012812009397 
-0.0080533331118 0.014369681652 0.0093718774369 -0.0062985273055 0.015011711156 0.014385118868 -0.05135878755 0.018501536444 0.01582853496 
-0.056541949858 0.0060950880464 0.013610125327 -0.052845213121 0.0097163219912 0.011900867883 -0.0066224933547 0.01312996197 0.014808406101 
-0.0088975792869 0.012352706563 0.0091997176426 -0.0065797499981 0.015626956272 0.015487457175 -0.050649426658 0.007368689498 0.01654421232 
-0.047831198051 0.012288084708 0.011177695159 -0.0075326945691 0.012394213641 0.014500495262 -0.0075386795869 0.0097217402848 0.012911143451 
-0.0049247562384 0.024782299591 0.034564706585 -0.05707646271 -0.0036767882277 -0.047129415212 -0.015938126683 -0.012295305455 -0.0083085662767 
-0.021069475675 -0.02344792401 -0.012874067329 -0.033430259517 -0.033286501824 -0.024089074683 -0.028166398489 -0.026597787224 -0.021420317689 
-0.026038907534 -0.026752166804 -0.018747543677 -0.020206890553 -0.024533169668 -0.015822706226 -0.014676085447 -0.020562300828 -0.013512734102 
-0.0015659121242 -0.012007006403 -0.0061466710105 0.013268006536 0.012549403314 -0.0024811062403 0.035688452064 0.013753866597 -0.048371857305 
0.013991795647 0.0098497244232 0.006753423145 0.0019699369712 -0.012700490645 -0.0084341757259 0.0024993008955 -0.0078698771152 -0.02098936861 
-0.014294937536 -0.0070398222593 -0.025425486604 -0.02258652169 -0.011093896777 -0.02629442996 -0.026082815931 -0.01570709545 -0.025150820005 
-0.026785425814 -0.017898697398 -0.030159555216 -0.030840513237 -0.019427134 -0.020368967199 -0.024771334767 -0.019880031998 -0.0096789498365 
-0.013704156993 -0.013567548118 -0.045697290417 -0.00055654618072 -0.009996621908 -0.012001812148 -0.042340666075 -0.018690411208 -0.012474031776 
-0.0092847300878 -0.024749944976 -0.019703550763 -0.0087901926845 -0.027644959985 -0.029439417024 -0.013438168197 -0.026636127562 -0.027748544144 
-0.017602454767 -0.025087097247 -0.027218619818 -0.018245343628 -0.021689176931 -0.023041309335 -0.014980999415 -0.0141697626 -0.018885061331 
-0.0087164917522 0.0032312145594 -0.0087356796369 -0.0075180014879 0.0046082443433 -0.0031740511416 -0.0078686222029 0.016124661946 -0.00035192430628 
-0.013973628183 -0.0041269838164 0.0098053535668 0.0067133468145 0.0073755171587 -0.0091189742603 -0.011002007646 -0.0029737932747 -0.0081792168486 
-0.018966487897 -0.017365056357 -0.0079229638403 -0.026326083032 -0.022515118262 -0.014824218443 -0.023112871585 -0.023211740689 -0.018444989448 
-0.029625053159 -0.030933902388 -0.019404537272 -0.030892184865 -0.029396295246 -0.023316114147 -0.033439240517 -0.029287113577 -0.021422537462 
-0.017159722519 -0.010711290652 -0.0094793109415 -0.047874943936 -0.015358577026 -0.017294510729 -0.059569466236 -0.024650862926 -0.067080461716 
-0.02643953245 0.03160146532 -0.028540898742 0.0097927518776 -0.0084100579659 -0.015957708722 -0.024809675561 -0.027012279735 -0.056583516777 
-0.025300585299 -0.006524573682 0.010861937854 -0.016737378123 -0.054901238404 -0.00012686727882 -0.021582144211 -0.035337176484 -0.0018175512682 
-0.0025916858057 -0.00345122629 -0.0044346875416 -0.0029950138211 -0.0053727694883 -0.0066212380694 -0.0048073502117 -0.0077654366634 -0.009101834726 
-0.0069124718912 -0.010281846915 -0.011778886509 -0.0092518366846 -0.013053271892 -0.014519562377 -0.011725270549 -0.015642720294 -0.017003695061 
-0.014112339031 -0.018072024048 -0.019266803909 -0.016323213539 -0.020214551651 -0.021269427823 -0.018349098103 -0.021949607126 -0.022659412813 
-0.019994111385 -0.023127281446 -0.023608251026 -0.021195561446 -0.023893011549 -0.02398296698 -0.021891247161 -0.024021812093 -0.023908743086 
-0.022186200097 -0.023632047634 -0.023173590208 -0.021913803283 -0.02268320094 -0.021959375823 -0.021198620994 -0.021253943359 -0.020308875988 
-0.019953418052 -0.019397187164 -0.01824303367 -0.018344334518 -0.017199743524 -0.015838555463 -0.016393923038 -0.014782796532 -0.013482288503 
-0.014271366438 -0.012400388515 -0.011039220747 -0.012115329116 -0.009957474274 -0.0086706330327 -0.0099135601444 -0.0076413151454 -0.006513516517 
-0.0077665099947 -0.0056616257635 -0.004651146168 -0.0058528939199 -0.0038541518906 -0.0029961930407 -0.0041571363936 -0.0023081414673 -0.0016983495416 
-0.0027169442492 -0.0011873366517 -0.00072356902301 -0.0014948404439 -0.00039123052299 -0.015034136627 -0.014567420026 -0.0077241320814 -0.00034312338498 
0.0016843481465 4.6456051498e-05 0.00096883846196 0.00017463579902 -0.00085889133736 0.00067694027081 5.0353641092e-06 -0.0010497663888 0.00026061592021 
0.0002553766487 -0.00086583579868 0.00022348125185 0.00012348973536 -0.00043185424745 0.00023996792482 0.0001602534325 -0.00029197395716 0.00015505782975 
9.8351495309e-05 -0.00032164360262 0.0001395861554 0.00010047156403 -0.00031561644382 2.4218791207e-05 0.00014959803282 -0.00026064908333 3.7735660962e-05 
0.00012846609605 -0.00016662425836 9.8563158012e-05 0.00013348614179 -8.7254244215e-05 4.9212166318e-05 7.02810015e-05 -0.00016385333264 4.0747603066e-05 
8.3005114484e-05 -0.00018658034029 -4.6560767053e-05 9.6391290537e-05 -0.00014470987269 -2.2681040076e-05 5.3327530285e-05 -3.7694205213e-05 -4.3052578122e-06 
-0.00020716013568 3.9369438841e-05 -0.0005938425178 -0.0010150374602 -0.00070007980121 -0.0014100910382 -0.0019109638836 -0.0017587427035 -0.0024261383725 
-0.0027967035308 -0.0030732664447 -0.0030889049066 -0.0031003036515 -0.0042891727293 -0.0028703086141 -0.0023935458791 -0.0042764433182 -0.001876583653 
-0.0013194178553 -0.0031862980783 -0.00080633873513 -0.00038029257956 -0.0016443641692 -1.6737031789e-05 -7.5628202924e-06 -0.00031432966335 2.1125810281e-05 
-1.1035543915e-05 4.4215758443e-05 4.56842847e-05 1.2509451546e-05 -8.7504282538e-05 6.6639223721e-05 4.8896623592e-05 -9.1755323781e-05 7.4960043457e-05 
3.53616036e-05 -3.4413781807e-05 9.5458272355e-05 3.2789746863e-05 -7.4966368697e-05 6.3958803867e-05 4.871880919e-05 -9.6785884205e-05 4.696147482e-05 
3.9032994253e-05 -9.9272220646e-05 5.0448669336e-05 1.4019302875e-05 -6.6863998915e-05 4.8797949738e-05 2.4161340894e-05 -4.3374732301e-05 3.3814749461e-05 
3.601545724e-06 -5.2660826441e-05 1.0050015232e-05 5.1760164463e-06 -4.7238955591e-05 -3.9243712066e-05 -9.8131222079e-05 -2.0474029298e-05 -0.00020217723752 
-0.00027065565594 -0.00024956201138 -0.00035721217165 -0.00041928219097 -0.00047687826981 -0.00050310024161 -0.00055143085808 -0.00067925891802 -0.00064303165458 
-0.0007020092931 -0.00088582731499 -0.00072758333036 -0.00071930474466 -0.0010387022204 -0.00066919264886 -0.00054655425706 -0.00066492190629 -0.0010262448376 
-0.010903513479 -0.0057702063621 -0.0028540385344 0.0047658308749 -0.00091762178554 -0.0028327832632 -0.00047112072506 -0.00041040191014 -0.00044720290796 
-0.00042389274143 -0.00063204101214 -0.0004075990051 -0.00035971236444 -0.00057795557567 -0.00031868439236 -0.00026584890546 -0.00049273246745 -0.000212314778 
-0.00015686901671 -0.00035435128744 -9.4237932584e-05 -3.7588848672e-05 -0.00019806761023 1.5901012494e-06 1.3531968673e-05 -1.5790547596e-05 2.5062410752e-06 
1.8606564824e-05 -3.501610601e-05 1.6419411483e-05 3.5727397009e-05 -3.4160851566e-05 2.9238260703e-05 2.6724854819e-05 -3.9550113714e-05 3.5303904038e-05 
3.4714090524e-05 -6.7085150442e-05 1.1181631559e-05 6.1607868237e-05 -8.180912444e-05 2.5509062567e-05 6.142862718e-05 -7.0501977128e-05 6.3286546369e-05 
7.6925357592e-05 -4.3225824842e-05 4.7567028039e-05 3.5267618691e-05 -8.4247201633e-05 2.8521327658e-05 3.1592063009e-05 -0.00010832646941 -9.4286206591e-06 
3.7928773732e-05 -7.5869258755e-05 9.0339427118e-06 -1.234410875e-05 1.4192124548e-05 -0.00021178332245 -0.0004203920917 -0.00025086595374 -0.00065073409988 
-0.00093860846886 -0.00086672414305 -0.0011704840565 -0.0014080670387 -0.0014760352684 -0.0016092629747 -0.0016978828231 -0.0021192348308 -0.0017747704075 
-0.0017470849371 -0.0024997653728 -0.0016533525347 -0.0014981834898 -0.0024142700915 -0.0012850244143 -0.0010804965129 -0.0019825586787 -0.00082481987613 
-0.00062967136919 -0.0014374249568 -0.00038743252581 -0.0002768641774 -0.00081588531036 -7.4193464251e-05 -2.0331120663e-05 -0.00018763462863 1.9556916931e-05 
1.4955199214e-05 -7.2604519667e-05 8.0214399146e-05 1.6383099087e-05 -3.6964525288e-06 7.4575207928e-05 2.1644015365e-05 -3.4363681137e-05 5.5246479935e-05 
2.3912708755e-05 -0.00014062198232 8.0667835507e-05 4.7466905224e-05 -0.00014208606746 0.00011762565735 5.1854793492e-05 -0.0001047309943 0.00015866363777 
3.9764929864e-05 -0.00014496169293 7.177287567e-05 0.00012070668799 -0.00018912671864 6.2604810589e-05 0.00018034229565 -0.00030143014236 0.00019127087154 
0.00027033208785 -0.0003134599743 0.00024491640116 0.00036729349482 -0.00046606750343 8.0900915891e-05 0.00071585108562 -0.00066403544137 0.00010582218351 
0.0011691328324 -0.00097957937776 5.5563413047e-05 0.0024677272389 -0.0022782271651 -0.0010592272791 -0.0064289262084 -0.039108697359 -0.027500919595 
0.0009403002954 -0.00084763000411 -9.8991447371e-05 -0.0011401738676 0.0035051970329 -0.0016030002184 -0.0012974359301 0.0011482731412 -0.0030251869098 
0.0027168725692 0.00081035618213 -0.002233496975 -0.005265889747 0.0016155337799 -0.0016325580837 -0.0019802388806 0.0030426705478 -0.0017212308544 
-0.0022460269076 0.00057924556357 -0.0019074605707 -0.00098725253555 0.00033408956205 -0.0022036897663 0.0027507644862 0.00061356506715 -0.0022083672444 
-0.0040009982077 0.0018627057502 -0.001415213698 -0.0022842884548 0.0031483909409 -0.00041510389619 -0.0018490034091 0.0038496283092 -0.0016436148889 
-0.0015381349769 0.00069980016143 -0.0015593026595 0.0023752993284 0.00052255766699 -0.0052881426082 -0.0091651277267 0.0012532328089 -0.0055774667694 
-0.012027655054 0.00033418296536 -0.0074905919274 -0.0045302811542 -0.00022145201389 0.0026419674256 -0.0018784959974 0.0012500553771 -0.0015818216902 
-0.0015702563526 0.0004980007938 -0.0013075651196 0.0028435563915 0.00051430730212 -0.0055737971954 -0.0082110613668 0.0013605335827 -0.0089245390038 
-0.0052614739976 0.00074734146112 0.0020792799855 -0.0027987524803 0.00095279737754 -0.0011968503703 -0.0023004161909 0.00085612403249 -0.0012619259112 
0.0011526535103 0.001334004361 -0.010027085358 -0.0025856609533 -0.0072210457993 0.004199759099 -0.00026002535972 -0.0072526952251 -0.0058617261978 
-0.0037464305951 -0.018169905542 -0.018870675861 -0.01060404036 -0.015348833601 -0.016891833924 -0.010703497471 -0.0099803857625 -0.011119881459 
-0.006740493065 -0.0018223867682 -0.0049217961488 0.00014327372372 -0.001341085345 -0.0011553215657 0.00046493731696 -0.0083692285397 0.0012909732621 
-8.4327222948e-05 -0.012884079082 -0.007708114491 -0.00042453753447 -0.015889700007 -0.027009174148 -0.0014639194404 -0.0014048977386 -0.00033992323109 
-0.0026020849849 -0.00087265285924 -0.00059015573279 -0.003402808656 -0.0010578837003 -0.011480056861 -0.0095990845292 0.00013834850534 -0.015378548593 
-0.014312156673 -0.0066219965432 -0.016370359284 -0.016061074849 -0.009450071399 -0.010790740389 -0.013385118568 -0.0083109874533 -0.00037328478466 
-0.0065950323918 -0.0039906348158 -0.0070939028011 -0.003476400323 -0.0023954198759 -0.032157228274 -0.01947894258 -0.0038830897872 -0.0061545963423 
-0.006449347495 -0.00034803935634 -0.0019436292297 -0.0045894296369 -0.0087594634836 -0.0010019112581 -0.015236282038 -0.014775358833 -0.014352175056 
-0.013346443514 -0.0084408703722 -0.0094027809438 -0.0090895251061 -0.0061450628288 -0.0021058242474 -0.0022192338879 -6.8327390288e-05 -0.0027108827117 
-0.00038499308539 -7.3730122405e-05 -0.00035831552233 -0.00067782477445 2.0272106054e-05 -0.0012421765308 0.002580401197 0.0009128996835 -0.0031614534897 
0.002059569052 3.0234424786e-06 -0.001742036493 -0.0007396669351 -0.00029523280531 -0.00047726399917 -0.00036716192877 -0.0053889639279 -0.00097657611028 
-0.011872305755 -0.0088876876798 -3.9139744812e-05 -0.015747836046 -0.0147476756 -0.0062616279276 -0.017665627153 -0.016257966068 -0.0093091581041 
-0.011785627977 -0.01495999005 -0.0086352519996 -0.0027404538439 -0.0062321197272 -0.0047766487027 -0.0098675874095 -0.0066690679685 -0.0038593984566 
-0.01549925056 -0.0012050194165 -0.0019134088648 -0.0013473945774 -2.8717541641e-05 -6.8608755045e-05 -0.012537343281 -0.0096995688024 -0.0030081507768 
-0.006955393705 -0.00015218885101 -0.00070124860777 -0.00030931473676 -0.00011342512892 -0.011859686623 -0.024494879393 -0.031244794385 -0.00058285883121 
0.0015115835278 -0.0019255212235 -0.0074960214452 -0.026808738034 -0.001506279677 0.0024248808747 -0.0052240275764 0.0093550291762 -0.010594465798 
-0.018692294993 -0.026523762421 -0.020750140143 -0.0018511969074 -0.012640468171 -0.00083798224336 -0.01464937651 -0.00029721419093 -0.0061544176873 
-0.00086170238108 -0.00039151702305 -0.0042739189015 -0.0052248376169 -0.0060192518722 -0.0071206212914 -0.0053062328411 -0.008129509898 -0.0092675601609 
-0.0071115511206 -0.010327946391 -0.011522190543 -0.0091442230001 -0.012611958442 -0.01367450263 -0.011219074776 -0.014589768693 -0.015596945932 
-0.013148509295 -0.016441241055 -0.017340766016 -0.014902108917 -0.017968573204 -0.018646069152 -0.016402597711 -0.019041445398 -0.019442592674 
-0.017420228808 -0.019726486183 -0.019980606382 -0.018091116424 -0.020094835951 -0.020171728835 -0.018495614606 -0.020181746602 -0.019983443751 
-0.018683998618 -0.019661630785 -0.019219409466 -0.018445155116 -0.01858058579 -0.017884617048 -0.017486474691 -0.017164520712 -0.016312145156 
-0.016153632076 -0.015516286332 -0.014542348398 -0.014655051177 -0.013670157657 -0.012679705754 -0.013018489794 -0.011767834715 -0.010737981329 
-0.011294595434 -0.0098102863928 -0.0087513817608 -0.009484613763 -0.0078710592721 -0.0068446236479 -0.0076852697916 -0.0060332262375 -0.0051628739727 
-0.0059765537039 -0.0044063915102 -0.0035990701806 -0.0043997809867 -0.0030156467731 -0.002307468893 -0.0030699737347 -0.0017980646449 -0.0012407304352 
-0.0010262732801 -0.0019499339508 -0.002163365123 -0.0011335625547 -0.005979528978 -0.00769871114 -0.018036243497 -0.021181349233 0.00098357744333 
-0.00042818369385 -0.00020148919898 0.0032359097533 0.0009237319025 -5.9696471879e-05 -0.00057434680187 0.00045774185624 2.934180983e-05 -0.00057020703388 
0.00026582122152 0.00018003964604 -0.00040180169132 0.00017424580266 0.00014733636351 -0.00033328870442 0.00021612074601 0.00014517373615 -0.0001943333709 
0.00016455893969 6.4860569346e-05 -0.00020039970148 0.00013697325659 0.00011713740709 -0.00025192847949 4.9669553968e-05 0.00016298059472 -0.00018030263031 
4.0036229391e-05 0.00013354739778 -9.0463257888e-05 4.0391062863e-05 7.6259131299e-05 -5.2043052354e-05 6.7086211751e-06 3.3868382929e-05 -8.7006267304e-05 
-1.8094774901e-05 7.2823375128e-05 -0.00011370032027 -2.5161715787e-05 0.00010668608473 -9.2120033552e-05 3.696593372e-06 7.5564818063e-05 -6.4104347809e-06 
-0.000422872183 -0.0010749682094 -0.0002173960373 -0.0021666119326 -0.0032475301723 -0.0020325336752 -0.0041979638621 -0.0054020833544 -0.0048660838056 
-0.0072175838535 -0.0080491171692 -0.0087114368994 -0.0078104332136 -0.0069396362362 -0.010665250854 -0.0057418208261 -0.0042388252632 -0.0086198252654 
-0.002897853302 -0.0016703044208 -0.00490042545 -0.00061283560695 3.5304196802e-05 -0.001510534464 3.4495808406e-05 7.0585795916e-06 0.0001166107041 
4.8501353681e-05 -4.4920327472e-05 7.2994105286e-05 6.3844222296e-06 -1.0268463447e-05 -3.4965821368e-05 4.7017067646e-05 1.9073564852e-05 -1.7929850366e-05 
7.0964650634e-05 1.2105935712e-05 3.0035167443e-06 7.106198761e-05 2.0167641945e-05 -2.331349177e-05 4.8089329766e-05 1.4619545706e-05 -4.4302391731e-05 
3.2829131062e-05 1.2558036637e-05 -3.6101479255e-05 3.4436261274e-05 -4.2445525604e-06 -2.1521305281e-05 3.3645829414e-05 -3.5404368568e-06 5.1256810074e-06 
1.9868435952e-05 -9.9020662527e-06 -1.4126141967e-05 7.276617842e-06 -0.00010180673805 -1.4652892383e-05 -0.00032714264159 -0.00051702799775 -0.00028315977949 
-0.00071662176329 -0.00088128284939 -0.00083279397093 -0.0010491586512 -0.001194678103 -0.0012812436227 -0.001405744328 -0.0015835257169 -0.0017390031072 
-0.0018400130348 -0.0018755439831 -0.0023048826705 -0.0017442595227 -0.0010690061424 -0.024068796647 -0.023214793329 -0.0010728766282 -0.0010089920286 
-0.0014196799678 -0.00088376150273 -0.00076435459222 -0.00064022529527 -0.00050614674081 -0.00093320557148 -0.00038683788464 -0.00023296949768 -0.00060337915439 
-7.8668053385e-05 9.2344739913e-06 -0.00022074408971 -6.5282588815e-06 2.2811620398e-05 -1.5204103014e-05 -4.9961183435e-06 3.2554850498e-05 -2.5414737407e-05 
4.860004551e-06 3.7486944696e-05 -2.3615577531e-05 1.74595237e-05 2.7533406643e-05 -2.674498946e-05 1.9945635541e-05 4.5829697607e-05 -4.6351250835e-05 
8.7137290406e-06 6.3889476592e-05 -5.1984609907e-05 1.0289755613e-05 6.0449669753e-05 -2.9220194639e-05 1.8031455801e-05 3.7392198842e-05 -5.4261762472e-06 
2.2620971245e-06 8.0055983526e-06 -3.5316888373e-05 1.2973950521e-06 2.4488403938e-05 -6.0588129548e-05 1.438532436e-05 1.7582724255e-05 -5.0417476215e-05 
-0.00012123210384 -0.00059043962592 1.389358398e-05 -0.0010549461343 -0.0016779679807 -0.0012376635937 -0.0022635443527 -0.0029447888303 -0.0025857826544 
-0.0034639343609 -0.0039591745422 -0.0041752049532 -0.0043400945697 -0.0044639428785 -0.0055463273241 -0.0042741808389 -0.003891714386 -0.0057057354325 
-0.0034660804777 -0.002939359758 -0.0047663161161 -0.0024916477384 -0.0019011940263 -0.0036118151326 -0.00131844033 -0.00086373878573 -0.0021959896226 
-0.0003313816937 -5.823191391e-05 -0.00077569478072 2.0938969939e-06 -1.5152215411e-05 -9.6344546944e-05 6.624158154e-05 4.1607046846e-05 -7.1182083094e-05 
0.0001048805735 5.1831258928e-05 -2.7244199455e-05 7.1277337494e-05 3.1611554223e-05 -4.2509845769e-05 3.7132686727e-05 5.253184217e-05 -0.00013620821247 
8.2566208763e-05 7.012176946e-05 -0.00014098617802 0.00016187514769 7.2742323682e-05 -0.00014700677738 0.00014218322781 0.00014836043667 -0.00012281898818 
8.9231065449e-05 0.00027929985556 -0.00025319011652 7.6607096386e-05 0.00038170968189 -0.00033654373533 4.5712664852e-05 0.00035389569679 -0.00035500659346 
0.00017051203387 0.00068661421722 -0.0004810465487 -9.7894094721e-05 0.00073372342468 -0.00077529278094 -0.00076838625437 -0.00026390762791 -0.00031163901618 
0.0014002169357 -0.0023246811027 -0.0072311977093 -0.0064169731851 -0.0032818986821 0.00021430929087 0.00040965799181 0.00064840744981 0.0001133723221 
0.00052151791384 0.00061826134583 0.00034226515425 -0.0011105538467 0.00033406806345 -0.0010592324444 8.663019808e-05 0.00052361137636 9.6804959012e-05 
0.000116713136 0.00023948786689 0.00022412007798 0.00014352532291 0.0002119436385 5.7240020311e-05 0.00042963789007 0.00017647993424 0.0003302808877 
-0.0008331528746 0.00022847149203 -0.0010413325854 0.00037045792087 0.00044847176513 -5.6791547256e-05 0.00040484744441 0.00018390650024 0.00027469782507 
0.00010282660613 0.00015936789292 0.00026024441937 0.00015875588547 0.00018682093223 0.00025573169043 -0.00067877871034 0.00019394712447 -0.0011540500599 
-0.0016247537666 0.0003434124989 -0.0013581803572 -0.0012158966337 0.0006299557786 -0.00071609986883 0.00026554567842 0.00039937687595 0.00032302976689 
0.00019085849226 0.00028324496081 0.00023307888268 5.8717928992e-05 0.00023545457942 0.00028242313693 -0.00062528052367 0.00014148127536 -0.001151474297 
-0.0016352351464 0.00044138894821 -0.0015278607774 0.00033425928941 0.00058689972851 0.00044261100549 -8.1603587823e-05 0.00030921427115 0.00037612672818 
-0.00018567569237 -0.0042880145004 -0.0016966764653 -0.002045305736 -0.003150293616 -0.0044060190282 -0.0010698092921 -0.0007263571681 -0.004002713739 
-0.00066155961486 -2.6690869169e-05 -0.0001527234029 -5.5036641696e-05 -8.5510338847e-05 0.0001073436243 0.00013194627986 -0.001190864886 0.00045077284865 
0.00018018388225 -0.0020057782238 0.001488599186 8.0526104793e-05 -0.00068520262128 -0.0036384011137 -0.013076672347 -0.0081803269037 -0.0064142933765 
-0.0050886120618 -0.00054856313426 -6.0479425706e-05 0.00010309056152 -8.9733953095e-06 -0.0036582062135 -0.0051469192121 -0.0020989543241 0.00062493589897 
-0.0019315137248 -0.00097279115847 -0.0015430146062 -0.00064147318806 -0.00080394231712 -0.0031186082296 -0.0021069082983 -0.0013572921647 0.00069025940287 
-0.00016333240625 -0.0010571946875 0.00077752847528 0.0018281603373 -5.3567949549e-05 -0.00015060434154 -2.6183559687e-05 -0.0043280227993 -0.0054357749946 
-5.5691445671e-05 -0.00039779352226 0.00010783609261 -1.8706576045e-05 -0.00088255224485 0.00070417575585 0.00013314594055 -0.0012301246692 0.0018199957544 
0.00046970542524 -0.0044542675624 -0.0060438147642 -0.0076368848299 -0.012951329642 -0.011018566537 -0.0047228849765 -0.0024779031835 -0.0033215273269 
-0.0054996233283 -0.0041718861099 -2.8804812814e-05 5.3954146829e-05 -0.0038209755283 -0.0043979943222 -0.00069832977502 -0.00034634682839 -0.0023474415696 
-0.00076936635934 -0.0036730505228 -0.00044729423843 -2.9165685042e-05 -0.0035286772605 -0.014794624504 -0.017272954893 -0.015896956762 -0.020352722653 
0.00022614964963 -0.0024344852557 0.00030671997566 -0.00035546007383 -0.020651395966 -0.018507442487 -0.016176246592 -0.0012522877089 0.00048958284166 
-0.0097555098152 0.0010777182753 0.00074960385951 -0.00023671446481 -0.014488466369 -0.016378706821 -0.0026348906896 -0.001216015613 -0.0039424977033 
-0.003215751775 -0.0002434982591 -0.00090028677331 0.0019588725311 -0.0047991670856 -0.0010302764343 0.00036852950105 -0.00045369288453 -0.0030731898599 
-0.0097529423979 -0.00069389844399 -9.4954620151e-05 0.00048342820635 -0.0001762410102 0.00012347683554 0.0017018144238 -5.2227279684e-05 0.00010777402764 
-7.1586946644e-05 0.00026976524242 -0.00037923933588 -0.0048113753012 -0.009978671018 -0.0028898021777 -0.0074977771747 -2.0682957403e-05 7.2793704805e-05 
-5.7037918929e-05 -0.0014393411727 -0.0015846653793 -0.0024092411379 -0.015762224099 -0.015325408567 -2.3430058503e-05 0.00054351673749 -0.00053531167525 
-0.00034302679251 0.00047911750264 -0.00064110148102 -0.00014689418814 0.00016747170659 -0.0091661901771 -0.0042249167992 -0.0049974458973 -0.014927608906 
-0.012577927672 -0.0059896130783 -0.0069312248983 -0.0048483820781 -0.0078460983506 -0.0087984010285 -0.0066410820851 -0.0097898059078 -0.010714560382 
-0.0084121250234 -0.011647265099 -0.012453592745 -0.01020881593 -0.013289658471 -0.014049684961 -0.011858732844 -0.0148458101 -0.015431903984 
-0.013388074273 -0.015722455988 -0.016020606816 -0.014430746511 -0.016382980505 -0.016579409856 -0.015017429565 -0.016724086326 -0.016882973607 
-0.015469954714 -0.016925465539 -0.017066999736 -0.01567961103 -0.017127493552 -0.016902829359 -0.015870048657 -0.016177405512 -0.015596486125 
-0.015298678641 -0.014886879094 -0.014246692937 -0.013948545157 -0.013507039132 -0.012833263987 -0.012607012404 -0.012184442631 -0.011427024408 
-0.011336215581 -0.010646864696 -0.0098293814319 -0.0099697373718 -0.0090792722948 -0.0082152866454 -0.0084902868604 -0.0074265267667 -0.0065933800028 
-0.0069902220632 -0.0058319926129 -0.0050425014992 -0.0054997373191 -0.0044072638443 -0.0036667262132 -0.0041589057881 -0.003033910973 -0.0024206815568 
-0.0029281242088 -0.001979679273 -4.3419515718e-06 -0.00017022937822 -0.012592370349 -0.013708320174 0.00017975568669 0.00015968177999 -0.00014892317814 
0.00055002845549 -8.4617619653e-05 5.9130514113e-05 0.00027124641891 8.7382118657e-06 -0.00031997503192 0.00018351263069 9.7947545702e-05 -0.00027128963767 
0.00022621329217 7.8716470843e-05 -0.00014149243559 0.0002130425974 3.6654105527e-05 -0.0001320051354 0.0001700502954 4.9917005365e-05 -0.00018567154925 
0.00010709621769 0.0001024682983 -0.00015401853009 9.1150696793e-05 0.00013121146915 -0.00010110034432 6.237990452e-05 8.8672808263e-05 -5.0639424535e-05 
3.0479631174e-05 6.7213611275e-06 -7.1316354702e-05 -5.2705985547e-06 5.7903819144e-06 -5.7597726838e-05 -3.3553722183e-05 4.931670324e-05 -1.1293094984e-05 
-1.5835586869e-05 7.8754214903e-05 -0.00010818182384 -0.005341662978 -0.0074706422694 -0.014445963963 -0.011714506686 -0.0092138724267 -0.0019757451243 
-0.00041945459105 -2.2722326911e-05 3.2168901032e-05 -1.1704962061e-05 -4.9052636347e-05 -5.6798880147e-05 0.00021898997013 -4.6851077832e-05 -7.9936005405e-05 
-3.8893822845e-05 -1.7941198525e-05 -3.3657315796e-05 5.4726101257e-05 -7.3602115269e-06 -1.0325954089e-06 8.5439806495e-05 1.4136798896e-05 9.927416201e-07 
6.6342927334e-05 3.7676085763e-05 -9.61127898e-06 1.5622099285e-05 4.1581434756e-05 -2.2871372613e-05 -2.3847246803e-06 2.1522633952e-05 -4.3280541071e-05 
1.8217362393e-05 1.7837731417e-05 -3.8928638882e-05 4.5952912064e-05 1.6078759683e-05 -2.2275190372e-05 3.4910505677e-05 4.5533753854e-06 -2.0518429605e-05 
2.1274871498e-05 -0.00032353894422 -0.00069178422255 -0.00013705651711 -0.0010644613911 -0.001381178074 -0.001149212508 -0.0016540232396 -0.001910124748 
-0.001923123366 -0.0021071313169 -0.0024217311266 -0.0024876094197 -0.0013468934053 -0.0011275924283 8.2090371784e-05 -0.00021412031518 -0.00096616808495 
-0.00072957771618 -0.0012952542627 -0.00048829427616 -0.00019493793162 -0.00079400200198 -1.900278627e-05 1.6430095969e-05 -5.1692489324e-05 -1.3222166041e-05 
2.694578857e-05 -3.5521951529e-06 -1.1738093159e-05 3.0769212342e-05 -6.9498394018e-06 -1.1276974577e-05 2.7579952489e-05 -8.5656730675e-06 -7.2352229149e-06 
2.0310480496e-05 -3.6571044614e-06 -6.1566400774e-06 3.1596900368e-05 -1.9074002891e-05 2.2282085955e-06 3.5167532396e-05 -2.7369465275e-05 1.7212075076e-06 
2.0342040572e-05 1.5932556493e-05 -1.9735080905e-06 5.0440953893e-07 5.0489190797e-05 -1.9512062037e-05 -3.4386659148e-06 1.9346818355e-05 -4.3292109424e-06 
-4.4454880795e-06 -3.7566252424e-05 3.2371703818e-05 -0.00023411818066 -0.00010315797245 -0.0010529358156 -0.0020354776271 -0.0009600002736 -0.0027614524612 
-0.0038484204929 -0.0028863154851 -0.0050179933442 -0.0063185398248 -0.005487304538 -0.0083954301972 -0.0078903504025 -0.0051895085197 -0.0041473795708 
-0.0031429609527 -0.0020871987371 -0.0045899652232 -0.0010803469658 -0.00030428075472 -0.0019139878584 -2.8131530621e-05 -4.9698303281e-06 -3.5041319639e-05 
7.7121597133e-06 -5.5926666362e-05 -7.3358902606e-05 2.586538875e-05 1.5570140491e-05 -3.6569320342e-05 4.3057781169e-05 7.5177377363e-05 -4.8556862419e-05 
4.095180415e-05 6.1584918748e-05 -0.000108403396 4.3814323111e-05 8.2629603164e-05 -0.00013923777675 8.2444040515e-05 8.7219177438e-05 -0.00015324082734 
0.00013626719109 0.00018453076819 -0.00012841602583 8.001802525e-05 0.00024588231097 -0.00013982412015 3.114833666e-05 0.00037693774669 -0.00019722230739 
2.8700933767e-05 0.00047606744604 -0.00023258793548 -0.00015232055997 0.00031790610723 -0.00019701562699 -9.1672568512e-05 0.00016967860081 -0.00021682584423 
-0.0065456931895 -0.00066881124798 0.0012180815185 0.00015364081192 0.00036381943017 4.2149259392e-05 0.00015722981941 -0.00017176077051 -0.00053286629809 
5.6514086768e-06 -5.8080235573e-05 -0.00011255728998 0.0001631212166 -2.1635965699e-05 -0.0001371772453 0.00028181777071 -7.0408461457e-06 -0.00013478500241 
0.00023480675962 -1.9299074747e-05 -0.00011490874473 0.00020012712651 -0.00013845322652 -7.7343002482e-05 0.00017032689875 -0.00011282783307 2.5304087523e-06 
0.00017788061785 -0.00010124333438 4.1068328128e-06 0.00018297208824 -5.1995149033e-06 -1.1922204298e-05 0.00013349493049 4.0549818483e-06 -4.6745591431e-05 
0.00010394365522 -5.3252988421e-05 -3.7778890007e-05 7.1273805675e-05 1.6142856946e-06 5.8274654421e-06 6.2032237559e-05 -2.6795140289e-05 -0.00010968245299 
8.8139632103e-05 -0.00013051956417 -0.00015455964384 0.00012885690923 -4.1845976051e-05 -9.434406539e-05 0.00016072152723 -6.3979338545e-06 -5.1084888998e-05 
0.00022508129823 -8.7825285734e-05 -0.00014843106548 0.00018334976802 -0.00013514298938 1.1237695026e-06 0.00017484603877 -0.00013035584518 3.6697121313e-05 
0.00016888223553 -0.00026565022802 1.79757963e-05 0.00020066413107 -0.00011599192095 -9.1449506652e-06 0.0010449520567 -8.9847820137e-05 -3.7736001854e-05 
8.3491596442e-05 0.00021857488609 -0.0001286043149 -3.2566084917e-05 -0.0031238652317 0.00017342579328 -0.00038305175659 0.00029036944297 0.00012198295602 
-0.00079092482943 0.00097084303946 0.0002039610838 -0.00021174646213 -3.2635730531e-05 -0.00016883303903 6.7152195331e-05 -0.0001036357414 -0.0027938295548 
-0.0044640040131 -0.00012867106655 0.00013605320682 -6.4212656912e-05 -0.0067723267719 -0.008741374343 -0.00010558269397 -0.00048148604437 0.0003082124565 
7.7137216474e-05 6.0769397475e-05 -0.0001621447509 6.0482177665e-06 -0.0019185915267 0.00023684100333 -0.00011344843905 -1.2979502625e-05 -0.0004182844675 
0.00028569087741 0.00025235119813 -0.0033557968679 -0.00012878565324 0.00019803437359 0.00024126778684 -3.1217819829e-05 0.00011185114379 4.7115783899e-05 
-2.8401822639e-06 0.00012932715754 -0.00022137918656 -0.010197892301 0.00048754778038 -0.0010824471698 0.00023770764204 -0.00015586171463 -6.5144164852e-05 
-4.6767555968e-05 5.9274072668e-05 -0.00015448663064 -0.002825021518 -0.0043570004829 -0.0018964998582 -0.001463716987 -0.00040163594582 -0.0086380122317 
-0.0075783302123 -0.004039358126 -0.0027912213092 -0.0047793737499 -1.7930812283e-05 0.00021075851451 5.623737202e-05 -0.0017017413141 -3.2986431145e-05 
-1.7501204251e-05 -2.1668814616e-05 -0.010922153833 -0.013224215714 -0.01361367865 -0.014093811085 1.5952830772e-05 -0.00016956424286 7.712984519e-05 
-0.0070096165853 -0.0040460968548 -0.0019219860425 -0.0029369982986 0.0012682753153 -0.00026950833016 0.0003280221742 -0.00024774258382 0.00038242657746 
0.00037560825882 -0.0002185107036 0.00012926235595 -0.0008932499822 -0.0082020468346 -0.010310420204 -0.012845123749 -0.0073983740527 -0.0066986441144 
-0.0057450386931 0.00038152427541 -0.0042302832953 -0.0084143175227 0.00012167566162 -0.00019686214183 5.5532453359e-05 0.00014140535671 -0.0012805335764 
-0.00027711484653 -4.0626719644e-05 -0.0086562011589 -0.0065950675405 -0.00023479849839 0.00030425344932 -0.00027308642265 -0.0082717253418 -0.00018932003608 
0.00035841991242 -0.00028645832384 -0.00023265175097 -0.0063707192527 0.0012288916615 -3.7896844527e-05 -0.00053197369807 -0.00026901296149 0.00025331584731 
0.00018143204194 -0.00019494886984 0.00079954893776 0.00057593131775 -0.00078284625657 5.1831222283e-05 -7.0906566057e-05 -0.00012585511642 0.00029395405588 
0.00017105456243 0.00015628682313 -0.00022632982702 -2.6775876286e-06 -0.00026868692215 -0.00039030298328 -0.0076835129567 -0.010580723901 -0.0086470399502 
-0.004597945863 7.2975875689e-05 -2.9490562432e-05 -0.00069025653043 -0.00015453206139 0.00021747537846 -0.00045253763888 0.00021340747473 -0.0055251415988 
-0.0063361173714 -0.0071439271046 -0.007965293704 -0.0059465706135 -0.0088771341542 -0.0096263029818 -0.0075001868863 -0.010416216415 -0.011091494027 
-0.0090521744491 -0.011953827186 -0.012655218638 -0.010588747674 -0.012879375966 -0.058550624577 -0.0080223857325 -0.013748168753 -0.01396702288 
-0.012214365123 -0.014118263849 -0.014205935622 -0.013137262059 -0.014215110533 -0.014389975914 -0.013288068895 -0.014415551403 -0.014629312609 
-0.013317325412 -0.013885632467 -0.017854612468 -0.00468918772 -0.012939578558 -0.012328141905 -0.012457771431 -0.011415245773 -0.010873226071 
-0.010751089317 -0.010096278037 -0.0096105645494 -0.0092144590259 -0.0092174172419 -0.0085419128793 -0.0081633460425 -0.0076632241445 -0.0070094761771 
-0.0069565981674 -0.0066153856957 -0.0059033187881 -0.0058305543648 -0.0051714649436 -0.0044986537854 -0.0047507115816 -0.0039543024876 -0.00336140332 
-0.0035638973645 -0.0029237523147 -0.0023341829139 -0.0018806901945 -0.0026746388233 -0.0091493126556 0.00015063898161 0.00056605617239 0.00019994722485 
6.4021623174e-05 0.00044924514027 -0.0001116886354 -4.4806290068e-05 0.00013400586728 -4.7324855789e-05 -0.0002223166252 0.0001494581783 3.2101574982e-05 
-0.00015495336551 0.00012661746126 1.0669658489e-05 -5.8593196928e-05 0.00015586418735 8.4896580267e-06 -1.9867534428e-05 8.5567126372e-05 4.8094023651e-05 
-4.1469868007e-05 4.377278505e-05 7.6037585322e-05 -5.2502586778e-05 2.5722818147e-05 2.630325645e-05 -9.1799621416e-06 1.2710398561e-05 4.7936225124e-06 
-3.5164229892e-05 1.5093174481e-05 -3.8807918556e-05 -4.3146565341e-05 -5.4780587561e-05 -4.2602651281e-05 8.8502190386e-06 -0.003322591836 -7.7869007368e-05 
-4.3678872323e-05 -6.471570111e-05 6.9578197022e-06 -9.1261865164e-05 8.2887987089e-06 0.00011198538411 -3.0448380248e-05 -1.0086626946e-05 2.475377942e-05 
-6.7870463118e-07 -6.033588322e-05 1.7127375517e-05 1.5974159893e-05 -9.3646689453e-05 5.7003874036e-05 1.6260734419e-05 -8.6899141204e-05 0.00011685461491 
8.4710463378e-06 -6.5395415696e-05 0.00014702164668 -1.1190189831e-05 -3.3613823281e-05 0.00010454669173 -0.00019352995126 -0.00079447710531 4.4577204158e-05 
-0.0014165098252 -0.0019187632429 -0.0014713366823 -0.0023721274936 -0.0027324049268 -0.002668636101 -0.0030473417366 -0.0033023522469 -0.003945769662 
-0.0035622773717 -0.0016712028507 -0.00070933107274 0.00046902218296 -0.011078670903 -0.0013389323791 -0.00096906995582 -0.00050924660383 -2.1206079763e-05 
-0.00099005817849 -1.9106253215e-05 8.1123015606e-06 1.4884384925e-05 -2.2761447241e-05 1.9511303629e-05 1.6916185944e-05 -2.4367423527e-05 1.6632591684e-05 
1.4455066731e-05 -3.0810512702e-05 1.0972001079e-05 1.7829231171e-05 -3.901768389e-05 6.8306771052e-06 4.800351295e-05 -2.6743916407e-05 -7.183660881e-06 
9.4705750762e-06 3.4869440654e-06 -1.8475276281e-05 -2.6749337799e-05 2.0955948733e-07 -5.4380710472e-05 7.8389091957e-05 -2.3491237262e-05 -6.2917519559e-05 
0.00013390929352 -3.686799444e-05 -6.3306109963e-06 0.00010022919886 8.0817667193e-06 5.2230934844e-06 -5.1247497375e-05 -0.00041713857572 -0.0017910246247 
-8.7929207577e-05 -5.4762761131e-05 -0.002607677233 -0.0011444047643 -3.4919661631e-05 6.7342543773e-05 -0.0002773419537 4.8959525569e-05 -4.9318577125e-06 
-2.8373185126e-06 1.6325063241e-05 -2.5617490805e-05 5.3266923408e-06 1.3356600628e-07 7.7810419516e-05 -7.1409405638e-06 -1.3625543308e-05 8.9142843469e-05 
-2.2496834253e-05 4.5630515196e-05 7.3116986535e-05 -5.173884556e-05 6.2543947922e-05 3.061198412e-05 -5.0240006696e-05 6.5644421369e-05 5.9058457484e-05 
-5.9244494253e-05 7.1380879716e-05 0.00015580680048 -3.934018079e-05 4.8901124383e-05 0.00024877745546 -0.00011190625608 -1.7446751727e-05 0.00037347611322 
-0.00012678729001 -5.8319498353e-05 0.0002229023199 -0.00015194106021 -5.3048768001e-05 6.6096753055e-06 -5.4721366913e-05 -4.975514643e-05 -8.7951158357e-05 
-0.0029078703648 -0.0049557409842 -0.00071132833996 -0.002986707552 0.00028187297497 -5.429257181e-06 -0.00020816798853 -4.5582288021e-05 -0.00020336566509 
0.00021778767554 -0.00016657626814 -0.00014350844683 0.00018065571562 -0.00018450564995 -4.8022925837e-05 0.00027427964001 -0.0002244830316 -3.0519113179e-05 
0.00030541165027 -0.00017751187693 6.8895382802e-06 0.00022636328247 -8.2720128704e-05 -7.3892762229e-05 0.00015243680083 -5.0823548007e-05 -9.1529648037e-05 
0.00011736905222 -8.2351992725e-05 -5.4958311558e-05 6.9899382548e-05 -8.4753316627e-05 -4.2088490872e-05 6.4998680489e-05 -6.5983875128e-05 -0.00013512848039 
9.3772099103e-05 -2.0657506826e-05 -0.00020558766837 0.00014775691809 -2.133716046e-05 -0.00023422811759 0.00019600762567 -3.305583453e-05 -0.00019509446627 
0.00034489942823 -0.00014366671926 -0.00016938076989 0.00031534098558 -0.00019745670336 -0.00014844792645 0.00027967562736 -0.00017924064697 -8.7548869407e-05 
0.00015201696506 -7.0796933205e-05 2.4179464369e-05 -5.5375203619e-06 3.3561780733e-05 -1.4859369439e-05 -3.2041810573e-05 8.2837815072e-05 -0.00023786091244 
0.00012428944249 3.1983160501e-05 -6.5514051428e-05 -0.00011545814195 7.7503093091e-05 0.00021097663931 -2.4596635513e-05 -3.6303739294e-05 6.0362990371e-05 
2.9432337446e-05 -0.00045505932244 -0.00049383828092 0.00083605818133 -0.00052579830647 -0.00035336615639 -0.00019138987359 -6.7898924973e-05 -3.0084101701e-05 
-0.00026158099808 0.00013516975213 3.1831023145e-05 0.00016683008043 -1.8529628033e-05 -4.1529329427e-05 2.7655349578e-05 0.00017491076676 -0.00025832299881 
0.00016287870279 4.3267852803e-05 5.5787010542e-05 -0.0068520063741 -0.0051898567184 0.00014746916948 3.2670853259e-05 -0.0001488079835 8.7508758738e-05 
-0.00022343710168 -0.0031495208826 -0.0080479895148 -0.0097625327847 0.00021362107336 -0.00021363742655 -0.00013466223046 -0.0048354117665 -1.0419411948e-06 
2.0196676956e-05 5.4593076725e-05 -9.2647982258e-05 -8.4738412604e-05 5.0447659825e-05 -0.00028909747858 -7.4500481816e-05 -0.0027502085725 -2.713056571e-05 
-0.0064130982946 -0.0045855343174 -7.0077989467e-05 -2.5525367859e-05 6.4736313777e-05 6.2749195558e-05 -0.0002216578254 0.00087969025576 -3.9369893296e-05 
-0.0018913448597 0.00058927441914 -0.00027965095633 -0.00021426074181 -0.0089859499528 -0.0079388013219 -0.0034206226446 -0.0047592034266 0.00018216915306 
-0.00019337896529 -0.0044019821416 -0.0080556726877 6.2936177455e-05 -0.00015459712227 0.00023256192688 1.2492479381e-05 0.00036395960193 8.1047554505e-05 
4.4821893073e-05 -8.4903059152e-05 0.00060798374133 -0.00017910582607 -0.00035249794562 -0.00036492108666 -0.0086875831739 -0.0091061118762 -0.0085173394733 
0.00010457104617 -0.00015795592847 0.00010427343962 7.899616904e-05 -0.0045668343025 -4.9893121349e-05 -6.8188600852e-05 -2.1685284991e-05 4.7140676075e-05 
-0.00018596006363 0.00024148793578 0.00014102605705 -1.9393088624e-05 -0.0024689887365 -0.0040910883476 7.7651152485e-05 -9.893476154e-05 -0.00015714869084 
-0.008952467209 0.00017289029543 -7.5845648086e-06 -0.00043872404384 -0.0033818756035 0.00024351650877 -0.00056804712976 -0.00050753286037 9.4420222761e-06 
-0.00023250052218 -1.5490347933e-05 -0.00086143704435 -7.7129198793e-05 0.0006676483575 -0.0061060678286 -0.0068411776441 -0.0077714502404 -0.0084164261024 
-0.0061961898963 -0.008670266404 -0.0094028667649 -0.0072414150392 -0.0098950271532 -0.0046763804188 -0.0075694222507 -0.00964178242 -0.011044105309 
-0.011954322574 -0.0094469161757 -0.011910128816 -0.0079293010983 -0.0072715600939 -0.012227365556 -0.012286180247 -0.011219254787 -0.011767056392 
-0.01209138844 -0.011248788701 -0.0076955290132 -0.0058348981435 -0.0059003896192 -0.0057730245292 -0.011151254899 -0.0080893895805 -0.0078982105871 
-0.0096990229888 -0.0091701937173 -0.0097791367624 -0.0081247140282 -0.0075837169373 -0.0073695393467 -0.0063939782732 -0.0061613553965 -0.0054274227091 
-0.005390682271 -0.0058061783052 -0.034086533618 -0.0045857297721 -0.0042847506365 -0.0037283056587 -0.0036700362556 -0.029756505172 -0.07881522499 
-0.003062093187 -0.0025711562141 -0.0025233875961 -0.0023057049982 -3.3496568561e-05 -3.3467935874e-05 7.4902988448e-05 6.8087698287e-05 0.00011025962186 
8.6663909339e-06 -9.5065274646e-05 0.00010782485797 -5.6595847098e-05 5.2557426865e-05 -5.859994916e-05 -8.1542231497e-06 4.2580117169e-05 -2.3747950658e-05 
4.1213664226e-05 -4.2668496461e-05 8.680228665e-06 0.00013351322999 4.7422018346e-05 -5.0533544679e-06 1.7088194094e-05 -0.00014343458238 3.9080058514e-05 
-5.4216450203e-05 -8.1263535108e-05 -1.4547489769e-05 -0.00016160575616 8.2280720981e-05 4.0747409423e-05 -0.00013058958273 8.7718313678e-05 8.3839307348e-06 
-0.00014236688677 0.00010315443124 -1.8562947457e-05 -8.7578802953e-05 0.00020281840482 -0.00011490698678 -0.00097276661958 0.00012521920608 -0.0018099732267 
-0.0025147590038 -0.0019512299084 -0.0041917890423 -0.0090532618807 -0.008239145146 -0.0055244674863 -0.0061647016136 -0.00018019478208 -2.1436229155e-05 
8.1611682986e-07 -3.4044935512e-05 4.3310929169e-06 1.1361683063e-05 -3.5706111119e-05 -6.2282304499e-07 4.7627026828e-05 -6.9143171953e-05 -1.0294616822e-05 
7.6574113376e-05 -7.7029949692e-05 -1.2187568244e-05 0.00010361015585 -3.9458752777e-06 -3.1381028997e-05 -9.650035891e-05 -0.0001447117304 0.0004719098858 
-0.00034690079605 4.832821807e-05 -5.8395090947e-06 -0.00042025644709 0.00010582423979 0.00029019768833 0.00042148935792 -2.3688182712e-05 2.9679391159e-05 
7.3290299813e-05 -5.7695895939e-05 1.9216351811e-06 8.6302573987e-05 1.2810950841e-05 3.6631382924e-05 4.6183912685e-05 1.8403718057e-05 9.254560358e-05 
-9.9695124615e-05 -2.8544600138e-05 2.9843489265e-05 -4.8689044627e-06 3.3423043575e-05 3.7104002687e-05 1.2167404022e-05 1.5263209696e-05 5.8152644934e-05 
-7.3539670693e-07 0.00013380875719 -1.4635728469e-05 -4.3201448109e-05 0.00021891424796 -5.7728588915e-06 -7.6143577822e-05 0.00025099688296 -7.2712504351e-05 
3.4560015818e-05 7.9392559623e-05 -4.2275389317e-05 -0.00024622417726 -4.8906328223e-05 -0.00022055864191 0.00019515113089 -0.00017597459825 -0.00016652572924 
0.0001895061414 -0.00026478769426 -3.6926584019e-05 0.0003719043904 -0.00025899436164 -4.7477294192e-05 0.00023740786745 -0.00017623852843 -5.9096982634e-05 
0.00016602727534 -7.6473280111e-05 -8.2619451416e-05 8.9773523787e-05 -8.2992949502e-05 -2.0241078395e-05 0.00013414923783 -8.2914204314e-05 -2.1704784903e-05 
9.2988421814e-05 -8.7330797299e-05 -8.3509923112e-05 6.8395504921e-05 -0.0001047217211 -0.00025842951418 0.0001256931151 -7.9640344541e-06 -0.00028923655855 
6.6334285891e-05 -2.9654594462e-05 -0.00029155773699 0.00024019003723 -8.8771701718e-06 -0.00010758744708 0.00024384913636 -8.4227606805e-05 -0.00016632759248 
0.00025495602095 0.00017892337829 0.00011349374724 0.00045985018043 -0.00014593877445 -0.00016393159627 -1.3961024618e-05 -0.00016936966103 3.9032943537e-05 
-1.2070550485e-06 9.908440473e-05 0.0001995110254 -0.00016104531079 -4.5457500074e-05 -0.0047513788407 -0.0054532234408 -0.0048057129156 -0.0036966183648 
-0.0017830617657 2.8995034487e-05 -7.4598995888e-05 7.0518512143e-05 1.633558529e-05 -0.0012066489712 -0.00025772385187 -0.00013345883545 -9.1404978665e-05 
-7.8281059519e-06 -3.3240426578e-05 -0.00031345513089 0.00057493801958 -0.0012290478656 -0.00046034366689 -1.396205896e-05 -0.0035469563788 -0.003189261908 
-0.0089259396625 -0.010561218517 9.7639557504e-05 -3.4743792929e-05 8.0658533107e-05 -0.0030419244762 -0.0050855125951 2.2444320889e-05 4.2051811904e-05 
-1.8523652796e-05 -0.00075251914506 0.00018852261603 -0.0027784567796 -0.0052309552673 -0.0083009019826 -0.010667448371 -5.6464944183e-05 0.00020481078184 
1.5883667051e-05 -1.330135429e-06 5.9101172501e-05 -4.8126981964e-05 0.00024400101879 -0.00010165713483 8.528879175e-05 -3.4181101516e-05 -5.8777651779e-05 
0.00010613320881 -0.0001141995451 -0.0065758838069 -0.0044729188096 3.2313317158e-05 -0.0013801658297 -8.8614578616e-05 -0.00011245198871 8.7080025354e-05 
0.00012065327465 -8.9250217479e-05 2.3958696151e-05 -8.0668045214e-05 0.00018176686293 -9.6055901067e-05 4.3575785684e-05 0.00013854159144 2.8285230273e-05 
5.5530256633e-05 -8.5697124751e-05 7.8852652895e-05 0.00010697091647 -5.8188560636e-05 0.00030194373229 0.00039571613681 -0.00018298193773 -0.00015717614976 
-0.00017040958667 -0.00010570286872 0.0002675503528 -0.00026922584314 -0.00019264282243 -0.00056328229218 0.0002154279297 -1.232779338e-05 -0.0017319838655 
-2.588142112e-05 0.00044333413275 1.6567485438e-06 -5.7504463781e-05 -0.00014350263167 -4.2444821153e-05 0.00031093361074 -0.00015957116146 -5.3666340634e-05 
-3.250839382e-05 -1.3235903364e-05 -0.0041219254145 -0.00012437366276 0.00014315449274 -7.6211293208e-05 4.9471108736e-05 -2.6088747206e-05 -7.8571262552e-05 
-4.7190387571e-05 -0.00016149446798 -0.00056424422587 -0.0018419503763 -0.00024343291437 -0.0026328994515 -0.0034485079907 -0.0034422766684 -7.3104282584e-05 
0.00039892947142 -0.00018881100856 -2.0043983252e-05 -0.035186321323 -0.0083649327344 -0.0001391980305 -6.6498914935e-05 1.6848983585e-05 -4.2967186526e-05 
1.1678412882e-05 -0.00013200891982 -1.5653002324e-05 0.00017521743549 2.226240599e-05 2.9965372991e-05 -0.00017949610821 1.994518789e-05 -1.2715375505e-05 
9.7975846452e-05 -7.5027746792e-05 0.00025965465004 -0.00012206040975 -0.0048266907723 -0.0055073283895 -0.00016026869211 -6.3959357686e-05 1.9666780531e-06 
9.3643004485e-05 -0.00010078577711 6.8905952531e-06 0.00028728234354 -8.2476635744e-05 -4.2442081794e-05 -0.00016865331687 0.00015517445385 -3.0784718174e-05 
-0.00015258290344 1.5929942349e-06 -3.4707743081e-05 -4.7007044169e-05 -0.00020650937163 -0.00010486710879 -0.0081442799943 -0.0056989676113 -0.00011379445752 
-0.0053174874514 -0.0031655272297 -1.7104999024e-05 3.7713151771e-05 -0.00023994624387 0.00022491146959 -0.00018597025989 -0.0010640834341 -2.9616612517e-06 
0.00010518353045 5.3240127513e-05 -1.6962252553e-05 2.5720751994e-05 3.6145889109e-05 -9.2317524002e-05 -2.521922411e-05 -0.00011203535791 -0.0046438115267 
-0.003800993984 -0.0015531395676 7.2557750293e-05 -4.6130673454e-05 0.0002599629278 5.4898803541e-05 -0.002063266506 -4.7360536376e-05 -5.3835730758e-05 
-5.6306150957e-05 0.00012339185485 1.9022383874e-05 -2.5706715558e-06 -5.3870629503e-05 -0.00017422475649 3.9943824804e-05 5.2822924494e-05 4.8724866832e-05 
0.00041165132113 -7.6491864e-05 -0.00022347775895 -4.430914473e-05 -1.1404387949e-05 -0.00023830525577 1.1477772951e-05 -1.5421383391e-05 -0.00021339982029 
0.00013461204732 -0.00016721886911 -7.1020727276e-05 0.00013435937408 -0.00030784505852 2.8962363219e-05 -2.7149643323e-05 -0.00015411597078 3.829834473e-05 
-0.00012584955124 -9.9829626646e-05 0.00029812651823 0.00018412724712 -0.00019746824206 0.00010043046728 0.00027265406288 1.905290261e-05 -4.1426691594e-05 
-0.010190800592 -0.0099822916279 -0.00052637088952 5.2703726521e-05 0.00015275967696 -0.00022406592864 8.6970310004e-06 -0.00014067884413 6.0735591564e-05 
-4.7766560498e-05 -0.00025036732469 1.1033425199e-05 -0.00075475652066 -0.00021414222466 -8.7902888038e-05 4.6911121539e-05 -0.005717763814 -8.9712169918e-05 
-0.00038963603343 -2.5100527714e-05 3.1694228487e-05 -5.2826847893e-05 -0.0001897633222 -0.00012455321058 7.7556737761e-05 0.00015550688716 -0.0048469035984 
-8.3837198719e-05 -0.00046808590808 -0.00018468673956 -0.0020896193814 -0.001163959098 -0.0011833233685 -0.0045999681335 -0.0031717038725 -0.002974525651 
-0.0080322856021 -0.0060950144868 -0.0055757888029 -0.011832543634 -0.0096591377754 -0.008660032267 -0.016284071717 -0.013852802471 -0.01227482903 
-0.020485107424 -0.018126776478 -0.016063778169 -0.023890422242 -0.022189668513 -0.019582321611 -0.026301708258 -0.025077948982 -0.022390193709 
-0.027835683211 -0.027084693221 -0.024338904954 -0.028147618961 -0.02816971462 -0.025420700947 -0.027203679405 -0.027853482828 -0.025436158535 
-0.025247347428 -0.026446512471 -0.024388780384 -0.022510019143 -0.024103828274 -0.022499444903 -0.018894557825 -0.020956721111 -0.019881226082 
-0.015048559439 -0.017211308746 -0.016663401115 -0.011287557661 -0.013347652569 -0.013338372821 -0.0076071127858 -0.0095840721299 -0.0099572634533 
-0.0045504518635 -0.0061415607315 -0.0068131791701 -0.002249318294 -0.0033831111402 -0.0041834003811 -0.00074487944172 -0.0014089313509 -0.0021831003962 
-8.7627409268e-05 -0.00027744542587 -0.00079686844713 -2.8870834231e-05 -0.00041908947846 0.0043487082374 -0.00988852265 -0.00018472809546 0.00055023903131 
-0.0022444830171 0.00012469274269 0.00078142283578 -0.00079615637427 8.4854412245e-05 0.00045865495804 -0.00090478301653 2.7249225195e-05 0.00014026233978 
-0.00051551321074 4.5156687331e-05 5.8707101315e-05 -0.00017738791445 3.8490236323e-05 5.2536536072e-05 -0.00025244158183 0.00014818235217 0.00010236278234 
-0.00025688700027 4.3836549156e-05 4.0732803958e-05 -0.00018546744316 3.2620071792e-05 3.2870998014e-05 -0.00013891250078 1.8884880414e-05 2.0060870753e-05 
-0.00016895948926 0.00010252319387 1.2868685513e-05 -0.00015155735608 4.6504019812e-05 3.0851008012e-05 -5.5425273486e-05 3.9355998655e-06 -3.4042389555e-05 
-3.7815361578e-05 -0.0002338938579 -0.00021049272721 -0.00031928312117 -0.00060037490336 -0.00053214653322 -0.00074649071992 -0.00080338566928 -0.00076598651402 
-0.0010879878106 -0.00062663382209 -0.00076896024021 -0.0011268416627 -0.00037676512691 -0.00049612854376 -0.00088584769119 -0.00011005676405 -0.00017097748555 
-0.00048209123277 3.2271709121e-05 -5.4952248874e-06 -0.00012123056574 2.2646976216e-05 2.2963287919e-05 -1.6021285065e-05 3.1505227088e-05 1.8244183766e-05 
-7.8606821415e-05 3.6938267471e-05 4.2362898821e-05 -7.6190358573e-05 7.9146348449e-05 0.00011048223098 -0.00012131795784 2.1103323321e-05 3.9330536819e-05 
-0.00010989242025 8.1063503298e-06 2.9622744644e-05 -8.5902735217e-05 5.2596487107e-06 2.1986086426e-05 -4.9069411762e-05 1.2501616899e-05 2.2919071472e-05 
-5.5223471683e-05 8.3277672957e-06 1.7682367893e-05 -3.251318801e-05 -4.1020073895e-05 -5.2031257971e-05 -4.6413123086e-05 -8.3466114186e-05 -8.8964647856e-05 
-0.00010964357356 -0.0001300948912 -0.00012659501177 -0.00015918374559 -0.00018409854619 -0.00016276775665 -0.00022960688232 -0.00023405400532 -0.00024061155964 
-0.00034131797645 0.0039872997853 -0.00011002480732 -0.00012777866503 -0.00014575432648 -0.00015813197322 -0.00022203147983 -0.00012687901796 -0.00014178135751 
-0.00023568827673 -8.1658823476e-05 -8.8143595104e-05 -0.00019217171194 -3.0184206982e-05 -5.0947269964e-05 -9.9999638856e-05 8.190553943e-06 1.8798290282e-08 
-3.0852508023e-05 1.5684460621e-05 4.0385893565e-07 -2.3900649327e-05 1.6953367187e-05 8.7113436454e-07 -3.772997013e-05 2.5031767884e-05 4.9169539131e-05 
-5.8814288597e-05 5.9094415413e-05 5.7342858227e-05 -7.2762872457e-05 3.1109284086e-05 1.1647693495e-05 -7.3588321551e-05 3.6734895049e-05 1.8123029561e-05 
-7.4495403599e-05 -1.0853608697e-05 4.9081351523e-05 -0.00010007310902 1.1258613949e-05 4.4011093903e-05 -9.0449874141e-05 -2.2840142758e-06 2.5591743604e-05 
-1.0392634526e-05 -0.0001009198186 -8.2313079553e-05 -5.0410705463e-05 -0.00027423151359 -0.00023875196463 -0.00031574932651 -0.00045745900902 -0.00038715288499 
-0.0005098658009 -0.00048091824502 -0.00053481618498 -0.0006509561031 -0.00036965711344 -0.00042422315256 -0.00071201298192 -0.00028229336057 -0.00029602237058 
-0.00051797907833 -0.00010503797121 -0.00014886719229 -0.00039825134586 -5.0813990918e-06 -2.850688795e-05 -0.00019491995697 3.7742305186e-05 -8.5010273166e-06 
-7.9034174622e-05 4.2112753396e-05 0.00010063877474 -9.242867402e-05 2.455671876e-05 6.4154627569e-06 -0.00010584936133 3.7627395239e-05 1.0441927872e-05 
-0.00013474009483 4.6737758332e-05 0.00015978937708 -0.00016422902804 9.5483328155e-05 0.00014408259159 -0.00020858553044 8.071226708e-05 -6.8618847863e-06 
-0.00022538670838 0.00011709990006 1.8685927079e-05 -0.00031776038895 0.00047274134654 0.00035400843145 -0.00050248382588 0.00061417672264 0.00021982135738 
-0.00080926482006 0.0014932869803 0.00023148822653 -0.001414441855 -0.0062144474397 0.00064388474385 -0.0022554845136 -0.016230015008 0.0078356124376 
-0.0029817750976 0.0040960571939 0.012947422508 -0.012080842957 0.0057710019125 0.0069964065979 -0.0080209100477 0.0046299068429 0.0048747996203 
-0.010408856787 0.0071668295511 0.006750655233 -0.010010736176 0.0060591805275 0.013045735306 -0.0067341689837 0.0056651144094 0.0064217797113 
-0.0085995239679 0.0066630021 0.0028678116347 -0.0076830654136 0.007488238591 0.0048583112924 -0.0096429989243 0.0077142922563 0.014680989384 
-0.008485206338 0.0051648206529 0.0053386899563 -0.0066919831552 0.006975365756 0.0056765105812 -0.0091218878345 0.0095949736671 0.0074793162908 
-0.010444614596 0.0053236431459 0.0034612299227 -0.0084718527765 0.003713816179 0.001682118495 -0.0086721267854 0.0037050242226 0.0055729555173 
-0.0064745542505 0.0059127036764 0.0050241156947 -0.0088418587985 0.010251150117 0.004790498549 -0.0093924263969 0.0036359475899 0.0043973781251 
-0.0097814163073 0.0077668271153 0.0078914145971 -0.0074617061267 0.0085304462936 0.0068684316779 -0.01071597026 0.0086742249844 0.0021753081626 
-0.012304337432 -0.040741012652 -0.010887183548 -0.011663511426 -0.015999995975 -0.0060450256179 -0.023651681118 -0.030168782029 -0.0092842465526 
-0.027814326465 -0.025180785662 -0.0214149705 -0.027800492481 -0.027309723223 -0.019364653706 -0.026861829131 -0.025388192614 -0.017858852967 
-0.022868120855 -0.025154203193 -0.015206453087 -0.017024897382 -0.013683623568 -0.023204241063 -0.010214388959 0.0063051823654 -0.026870587857 
-0.0016353401631 0.0054239815527 -0.0066325569111 -0.0039775553019 0.019138590065 -0.012039297251 0.0088868567758 0.0071033652301 0.0079293425186 
0.010617017308 -0.05557057533 -0.00026504713753 -0.0061821870912 -0.034252750459 -0.014944413403 -0.020264387282 -0.0058860444059 -0.022561789468 
-0.025414466014 -0.010158151889 -0.025691895409 -0.02777049662 -0.015425149356 -0.027509845836 -0.028751014403 -0.017739265925 -0.024936821929 
-0.025033772762 -0.018401047241 -0.022438645612 -0.020560954297 -0.022816089012 -0.015309748465 -0.009333194862 -0.024026613829 -0.0093465439743 
-0.035542471414 -0.018415491882 -0.037127250071 -0.011629547216 -0.014840583545 -0.016361614557 -0.019882924411 -0.025762453366 -0.024787547037 
-0.0095320500121 -0.027595322502 -0.026855493083 -0.014733162826 -0.027020732474 -0.026633542165 -0.016811947497 -0.026584001771 -0.026279100149 
-0.01597068835 -0.02478981556 -0.020648539156 -0.012795819465 -0.017113056376 -0.0068105486011 -0.0058385686903 0.0041296689709 0.010248186562 
-0.0059906868779 0.0096091706043 -0.0071100238792 -0.050966377452 0.015006142145 0.0071329442776 0.008553943871 0.0085203082132 -0.050609266164 
-0.0012337378787 -0.0077900674031 -0.037117645408 -0.014790507799 -0.020523976888 -0.029595396407 -0.025744689496 -0.023959218176 -0.02630297267 
-0.029581343421 -0.025313063073 -0.023645165074 -0.025636478019 -0.025643095061 -0.018285506849 -0.027156778506 -0.025831582432 -0.025163025539 
-0.025086659117 -0.017499089913 -0.022490307872 -0.023095774296 -0.015293631989 -0.012411359778 -0.015252871559 -0.041009099772 -0.014530595289 
-0.00023051461095 -0.00011096392143 -0.00030013803417 0.01315576392 0.0020938744552 -0.012418832742 0.014315881484 -0.068573985458 -0.031870711277 
0.0084392807464 -0.029773854243 -0.058256775177 -0.070226938399 -0.034023196093 -0.022061647568 -0.058129112431 0.0036779497721 -0.031471609458 
-0.018389705371 -0.020810214159 -0.00048247373488 -0.0087054109746 -0.0038567887691 -0.0028027089733 -0.0019809447387 -0.0012703298455 -0.0011726042669 
-0.002594547715 -0.0090931970999 -0.0075416993565 -0.012456135195 -0.010597070619 -0.0092604305139 -0.015749903721 -0.014057114381 -0.018687093967 
-0.017102803657 -0.015246622886 -0.020929956848 -0.019840052578 -0.022319964531 -0.021632050293 -0.0195409707 -0.023123107308 -0.022792556499 
-0.020701097544 -0.022834283077 -0.023087675681 -0.021144704447 -0.021683586787 -0.022361019678 -0.020696317094 -0.019899625493 -0.020952296211 
-0.019516727363 -0.017401114213 -0.018840211793 -0.017737051634 -0.014580564594 -0.016156749511 -0.015471321889 -0.011649728179 -0.013256216771 
-0.012900241809 -0.0086372268977 -0.010255452819 -0.010173952333 -0.0059366486694 -0.0073502138724 -0.0075264949207 -0.003755255755 -0.0048829258072 
-0.0052005696278 -0.001967737042 -0.0028151676668 -0.0032045802451 -0.0066912411903 -0.0055822782601 0.00025251323976 0.00091303959564 -0.00035826270022 
0.00082562958098 -0.00075637567175 0.0001588156748 -8.3862739571e-05 -9.1147912287e-06 0.00021206939042 0.00028564479537 -0.00043744392181 1.5510864107e-05 
0.00014326815809 -0.0003867915113 7.021431436e-05 0.00015827913624 -0.00023569932621 7.5364828817e-05 0.00022267942148 -0.00027191009545 0.00016442931512 
0.00015340461096 -0.00022469312482 0.00012009736855 4.1321341074e-05 -0.00015384843197 5.5835292469e-05 3.7844276688e-05 -0.00010515843418 5.8702282232e-05 
6.59045759e-05 -0.00012599723366 6.0416903271e-05 3.3427533883e-05 -7.5391936858e-05 2.4775775131e-05 -1.2422563882e-05 -6.0628878474e-07 -0.00074342769949 
-0.00029237310547 -0.0001434021419 -0.0024238673203 -0.001594186995 -0.0018500763059 -0.0038597873713 -0.0033720239967 -0.0042628581147 -0.0036670673859 
-0.0039660411944 -0.005713253569 -0.0023286971346 -0.0030603027617 -0.0050026254156 -0.00093196640773 -0.001672427207 -0.0030021403607 9.9565669931e-06 
-0.00026888455566 -0.0010376512972 3.7745986974e-05 1.607111482e-05 -2.6239905361e-06 3.4419862102e-05 3.1924645757e-05 -5.5996408029e-05 1.5601863575e-05 
6.2532399681e-05 -5.7028481744e-05 1.0900864861e-05 0.00010529698346 -6.7568373343e-05 5.4830168731e-05 9.7702984546e-05 -7.6505325835e-05 3.8373752408e-05 
3.7143691435e-05 -6.1868595318e-05 -5.2673467308e-06 3.127169947e-05 -4.4668689513e-05 7.6756083515e-07 3.2585987222e-05 -1.5881363734e-05 1.879411333e-06 
3.4553793423e-05 -3.0892654519e-05 -0.00016102400471 -4.0543759599e-05 -1.232602151e-05 -0.00040200753138 -0.00030257175546 -0.00035176457476 -0.00058793734166 
-0.0005005303721 -0.0006852159752 -0.00083330989907 -0.00069975529988 -0.0009867084901 -0.0010903875138 -0.00095664098252 -0.0013283759854 -0.0016660409591 
-0.002156099631 -0.00047815660568 -0.00060192510441 -0.00037056431724 -0.00077574071251 -0.00079688182164 -0.0010321573751 -0.00072011318385 -0.00059922537914 
-0.00075791747637 -0.001153686355 -0.00027384679809 -0.00039382386438 -0.00066162374603 -4.3715158094e-05 -0.00016256735637 -0.00033380383081 3.0959433676e-05 
-2.8695549735e-06 -1.1378107396e-05 3.3098844869e-05 1.8460522278e-07 -3.1816003955e-05 2.0841757244e-05 2.0675250301e-05 -3.7925861131e-05 2.681686536e-05 
4.579522273e-05 -4.0091016546e-05 6.8640822313e-05 3.9941913705e-05 -5.319209631e-05 5.7761589864e-05 1.6369911691e-05 -6.1255363615e-05 2.8387263026e-05 
2.1089603132e-05 -4.7713261556e-05 2.4158284987e-05 4.3584407785e-05 -5.7665007636e-05 -2.6948800877e-06 3.1757062543e-05 -4.0320875123e-05 -0.00023034713313 
6.5996432492e-06 8.3483700783e-06 -0.0011004642334 -0.0006409407652 -0.00071557128767 -0.002063477439 -0.0016588996006 -0.0020815703725 -0.0025379690988 
-0.0023425074607 -0.0032699929186 -0.0022798675347 -0.0024667898214 -0.0036354567471 -0.0016667043582 -0.0019644157225 -0.0031396356841 -0.00087342824807 
-0.0012753548194 -0.0022662066283 -0.00021173016931 -0.00050356013445 -0.0011479431372 2.9649200802e-05 9.4225629491e-06 -0.00013577902959 1.7378368604e-06 
6.865330032e-05 -9.3395634138e-05 8.6257119785e-05 9.0281814939e-05 -9.545770669e-05 0.0001028469216 4.9472117764e-05 -0.00014453913556 2.4828867512e-05 
0.00013316434237 -0.00015233006112 5.1496008476e-05 0.00019019346338 -0.00018501535373 0.00028455194592 0.00015190240691 -0.00017893514361 0.00031087013647 
6.2826848854e-05 -0.00037959573941 0.00022758406963 0.00031710318834 -0.00037209064218 0.0012296013565 0.00035478190015 -0.00037176409851 0.0019315324617 
9.3779691562e-06 -0.00094221173093 0.0027308971681 -0.00061316959944 -0.001142036014 -0.025388933467 -0.017027522463 -0.0024229792218 -0.0052144707606 
-0.0026836078073 -0.0022179837003 -0.0017272479515 -0.0012609303306 0.0013123680838 -0.0034190826348 -0.0045524207412 -0.001454377233 -0.003386832005 
0.00068504209441 -0.0033743056962 -0.0028408365921 0.00076515361548 -0.0026425136729 -0.0016877660757 0.0010559489659 -0.0021993260637 -0.0011583163827 
0.00038581111242 -0.0014902316979 -0.0026379499826 0.00062197745017 -0.0028662177837 -0.0028673062114 0.00085826996562 -0.0025259934786 -0.0011604596718 
0.0016002647357 -0.002516678806 -0.0017013798018 0.00073668597707 -0.0023827527221 -0.0026449817923 0.00039717952044 -0.00095419531299 -0.0028545196079 
0.00064322321652 -0.002149539806 -0.0029397417781 0.00079301590691 -0.0026202605186 -0.00074110833254 0.00075339280132 -0.0019947717863 -0.0020455199823 
0.00059614924182 -0.002108788896 -0.0021145317137 0.00040382941675 -0.00097899229539 -0.0026926171978 0.00077458342701 -0.0034099353841 -0.0029386709529 
0.00098749460345 -0.0039469039537 -0.0023835112111 0.00072044152822 -0.004027560418 -0.0036322912096 0.00064630876463 0.0013504291027 -0.033598391708 
-0.020987813632 -0.010839541715 -0.01955362415 -0.027321112715 0.0031056326447 -0.0034944430701 -0.0036393565613 -0.010146955505 -0.0029038072648 
-0.014894077927 -0.019722199061 -0.0069236123062 -0.020144699489 -0.019168620925 -0.010240871661 -0.017280278368 -0.017258061804 -0.0099237344583 
-0.013277520822 -0.010979980061 -0.0066140943705 -0.008087789436 -0.0072073485148 -1.3174813765e-05 -0.0041967929613 -0.0034287540338 -0.00029600252884 
0.00021161512122 -0.0014478426649 0.00038838566495 -0.00082871099496 -0.0006395470026 -0.001309913931 0.00040957004517 -0.0068659233473 -0.0024811677164 
-0.00012694553021 -0.00031775197912 -5.1540897151e-05 -0.0030605789923 -0.0034131211909 0.00023836546708 -0.011901443805 -0.013211589342 -0.00013523248961 
-0.016804129174 -0.016744196669 -0.006662780929 -0.01745750725 -0.017930991123 -0.0088140695288 -0.016933135495 -0.01540316798 -0.007912561365 
-0.0083100511204 -0.0067964460707 -0.0048276636783 -0.0061789377136 -0.00790531687 -0.0094007668848 -0.0028620888368 -0.00096123207713 -0.0040595972987 
-0.0069701354306 -0.010433195456 -0.015332948688 -0.017508809933 -0.0048132175598 -0.016801311533 -0.017022704419 -0.0086360588659 -0.012461333342 
-0.013546120672 -0.0089127125339 -0.0074350899844 -0.006714477831 -0.0047058142954 -0.0007313344179 -0.0010428231717 8.5341477493e-05 0.00069280756634 
-0.0025863807038 0.00017379258656 -0.0031664283689 -0.0084706654642 -0.00054236021987 -0.00021013144875 -0.023159160853 -0.035136483472 -0.006311740445 
-0.0055085373693 -0.0032119176223 -0.005378071051 -0.00128525256 -0.0040759338649 -0.010156873195 -0.00094380745197 -0.012804422358 -0.014432138252 
-0.0018747915866 -0.015019038512 -0.016811233319 -0.0072051483781 -0.019070712028 -0.020302850366 -0.0095363560315 -0.016755561219 -0.016810035299 
-0.0093531884683 -0.011080154675 -0.0018612100206 -0.0068302585103 -0.0045633620567 -0.007208040686 -0.0038537650721 -0.0062738345709 -0.0048288784078 
-0.0043375394258 -0.0093512446682 -0.0084048415151 -0.0018006165962 -0.005601418259 -0.0063212549975 -0.0013709731324 -0.01274724063 -0.0046500237028 
-0.001144694463 -0.01233519688 -0.017716562971 -0.0013005854672 -0.0016443316462 -0.018071271388 -0.023187591115 -0.0079855703926 0.0024798159097 
-0.018855311067 0.0023187043137 -0.008990441119 -0.033170116873 -0.024811543735 0.00039764665948 -0.012537265752 -0.0065571187884 -0.0012563769733 
-0.014325088173 0.0014698792801 -0.0026697804966 -0.025009349553 0.0022929217833 -0.01205569366 -0.00035346944915 -0.013764965582 -0.0066691199611 
-0.011720671764 -0.012929926989 -0.0093611352476 -0.0079670795826 -0.0093242241642 -0.0041368717306 -0.014631121114 -0.013428655662 -0.019038593108 
-0.018630216966 -0.018156745281 -0.017528955796 -0.017044495927 -0.018679653644 -0.019062193057 -0.017469507136 -0.018132250623 -0.017001101472 
-0.015714675867 -0.016625857121 -0.015675795262 -0.013534136994 -0.014638713363 -0.013880715981 -0.011175035831 -0.012398554167 -0.011811043639 
-0.0087359676786 -0.010036960641 -0.0096459254627 -0.0063888774294 -0.0075900116818 -0.0074462468426 -0.0044381404182 -0.0054778819133 -0.005452468813 
-0.0026747287011 -0.0035737546192 -0.0036995138967 -0.0076021746754 -0.015515041462 -0.00022080374105 0.00087480505411 -0.0033526902418 -0.002643025283 
-0.0024279151429 8.0276100272e-05 0.00071805907763 -0.00041569988112 -0.00038293997307 -0.00058522015675 -0.00011297985174 -0.00010175582223 0.00010711867575 
0.00014740466051 5.7404391344e-05 0.00016583747416 -0.00021741917297 5.6887238817e-05 0.00018655735077 -0.00021428406517 0.00012868420444 0.00010734516361 
-0.00014312151896 8.100303582e-05 2.4695885738e-05 -0.00012808830881 3.5339958954e-05 4.0815011012e-05 -0.00013487358173 3.3880105195e-05 3.2630635308e-05 
-8.6319498938e-05 1.5564036555e-05 -4.3511906636e-06 1.8593933178e-08 -0.00012666313592 -9.2555414076e-06 6.2649622766e-05 -0.0030639771383 -0.0014498014607 
-0.00092427496356 -0.0074637185882 -0.0053605931049 -0.010698070122 -0.010351617778 -0.0034955045099 -0.0053708602211 -0.00048930945651 -0.0018401532416 
-0.0035640878007 -1.1450201376e-05 9.9596803117e-06 7.502355517e-05 -1.5066523425e-05 4.1871645534e-06 5.8736475428e-05 -9.4932588424e-06 1.2786253309e-05 
5.4103660441e-05 -2.0538839611e-06 2.4224867009e-05 4.4300418521e-05 -1.32256267e-06 4.9412925882e-05 -3.2386487118e-07 1.3739139993e-05 4.6388256747e-05 
-2.6994295301e-05 3.1862733152e-06 2.441141471e-05 -1.6257394584e-05 -1.2677662142e-05 2.6587257746e-05 1.9121389282e-05 -7.7382455967e-06 2.1308899224e-05 
-5.6607057704e-06 -0.00011839631782 1.4781391619e-05 -1.0081256728e-06 -0.00076841242226 -0.000479395723 -0.00039756366293 -0.0012603997289 -0.0010464964059 
-0.0012276571684 -0.0016082625261 -0.0013752578464 -0.0017655518676 -0.00010309510485 -0.00021786225184 6.626271764e-06 -0.00070422538417 -0.016718689701 
-0.015724745185 -0.014042874543 -0.015817676431 -0.00041867826158 -0.00070569959584 1.8786133381e-05 -0.00012944126879 -0.00035838405097 0.00016730390952 
0.00021163721478 -0.00023892017683 -0.00026855193283 -0.0013023150469 -0.0015915364361 -0.0018514079412 0.00029649449463 -0.00055520119423 -0.0012229707417 
3.0921364239e-05 -1.0166739511e-05 -1.1657944689e-05 3.4412597625e-05 -9.1070602995e-06 -2.2126533278e-05 2.2262562715e-05 7.9246839465e-07 -2.1526711889e-05 
2.0582784285e-05 1.4543299753e-05 -1.4240789358e-05 3.8837451047e-05 1.2317890264e-05 -1.8408846947e-05 2.9249068846e-05 5.0737302734e-06 -2.4735331229e-05 
1.2486464632e-05 -3.7506535308e-06 -2.3552141549e-06 9.7466038249e-06 1.1706643329e-05 -1.1996565185e-05 -1.8263360777e-05 7.3751338983e-06 -7.5148144126e-06 
-0.0013908159231 -0.00046453054318 -6.497706054e-05 -0.003773448305 -0.0024471787528 -0.0026371759208 -0.0059544180836 -0.0052363972462 -0.0059872603981 
-0.0055804436517 -0.0056581826411 -0.0077815162035 -0.0047534486371 -0.0054697054757 -0.0070204714834 -0.0028196292201 -0.0037919478646 -0.0055638705255 
-0.0010270006631 -0.0019561267613 -0.0031909646452 5.523197293e-05 -0.00027361174822 -0.00094932215413 5.3227702269e-05 1.1657974963e-05 -5.6911835833e-05 
1.1451631375e-05 6.899598297e-05 -2.5293574748e-05 7.2042680847e-05 6.8629120183e-05 -4.5442482445e-05 0.0001030810761 4.1945327229e-05 -0.00012504380675 
4.4779909845e-05 0.00012972819106 -0.00013731147803 0.00020170258138 0.00014219228796 -0.00016765987573 0.00034356201407 2.1782011318e-05 -0.00025379121483 
0.00037161983035 1.7537498486e-05 -0.00036043202707 0.00029340761541 8.0053771452e-06 -0.0002486617895 -0.0015533047359 0.0012230930774 -0.020708216291 
-0.017820023697 -0.011309066466 -3.6680607127e-05 -0.00065979076247 0.00064044589769 0.0003848814283 -0.0020755395838 -0.0045761817152 -0.00058451834389 
-0.0010344366389 -0.0012907057756 -0.0043209787854 -4.508852742e-05 -8.5612387933e-06 0.0002235369342 -2.5457557131e-05 2.736529926e-05 0.00016837976373 
-3.3154647621e-05 -7.7067650398e-05 0.00016129169291 1.7467829026e-05 -4.5722969227e-06 0.00017099231745 -3.202607856e-05 -1.7222397967e-05 0.00017478644055 
4.522307078e-05 -1.6277403527e-05 0.00010498560052 -2.7901908922e-05 8.9999470441e-05 8.0883197275e-05 -5.3429688303e-05 1.4277673453e-05 3.3202770181e-05 
-0.00021727864713 -9.8525036783e-05 7.4857635142e-05 -0.00019280153767 -8.3794712828e-05 0.00018144030519 -5.7961362558e-05 -2.2988167853e-05 0.00016775700403 
8.9596941115e-05 -3.9879190701e-05 0.00016673623864 -3.9957369406e-05 -3.3287420588e-05 0.00016386733868 -4.0888309925e-05 -0.00020071410907 0.0002037372757 
-0.00032287539308 -0.00027091667704 0.00016182414007 0.003131907283 -0.0026306066301 -0.0022317300154 -7.3788619401e-05 -0.019449884672 -0.021454917926 
-0.00094325260997 -0.0011874080744 -0.0016156813436 -0.0010825201919 -0.0024084672295 -0.0043259647004 -0.0017564756877 -0.006928784244 -0.0072973808984 
-0.0031274107581 -0.0076745829985 -0.006026296097 -0.0031726221352 -0.0046441265788 -0.00099031876633 -0.0004622746816 -0.00019180501285 -0.00056373565245 
2.6105896918e-05 -0.00071723246123 4.1137207347e-05 1.4781326557e-06 0.00018013587994 -0.00041579841489 0.00012186784984 -0.0012115744486 0.0005657494968 
1.6410416784e-05 -0.019261979875 -0.019239684087 -0.017693982744 -0.00031043784444 -0.00083623434076 0.00010900831737 0.0002190107749 -0.0002036037892 
8.8971300218e-05 -5.5731171246e-06 -0.00016058458019 -0.0015075946336 -0.0045158098352 -4.6832980208e-05 -0.0055286744741 -0.0067677301828 -0.00070986570663 
-0.005623355612 -0.0054849286795 -0.0021717534721 -0.00299517891 -0.0012403095152 -0.0017930561258 -0.0011827351207 -0.00010056849524 -0.0065856165352 
-0.0065944687589 -0.0022951691652 -0.0063717102814 -0.0043308765893 -0.0020949854834 -0.0025580608894 8.8250260771e-05 5.8983850798e-05 1.6340806261e-05 
-0.00017591386918 1.6569895712e-05 0.00037056026556 -0.0006264593646 3.7851551343e-05 -0.012124626377 -0.010700270182 -0.0092639634891 -0.011788327158 
-0.0065491741519 -0.0053654641135 -0.0066052784001 -0.0043418950298 -0.00048063448641 -0.00052729675816 -0.00026208070015 -0.00044405142882 6.430685523e-05 
-0.0021219104787 -0.0050116790731 7.901815492e-05 -0.0059011729045 -0.0076567295718 -0.0010759632742 -0.0067161935338 -0.0066607173462 -0.0027508774492 
-0.0041221715361 -0.0018970339701 -0.0024843755969 -0.0012335931991 -0.0017219662194 -0.0054139734315 0.00064041710183 0.0015368891728 -0.0011050111923 
-0.00034691982817 0.00021972519099 0.00055266240877 -0.0058899350712 -0.008304124513 0.00044109723726 -0.00032267383881 0.00089692185338 -0.0043717159912 
-0.017720725824 1.1703572997e-05 0.0010553762468 -0.0011752802353 -0.013096084881 -0.00021911645939 -0.0050145418008 -0.0098991980247 -0.0070580636606 
-0.0023732512546 -0.0020195804159 -0.0055208402253 -0.0065811277115 -0.0081005989389 -0.0022308617353 -0.0019511756984 -0.0023347591697 -0.0030157374003 
0.00054185521799 -0.0021888688944 -0.00033963686926 -0.00013235591731 -0.0052213340357 -0.010473607873 0.00085389947448 -0.015894596184 -0.014848582652 
-0.00061366281313 0.00042061399487 -0.00063782777925 -7.4219504291e-05 0.00042946564573 0.00054665806864 -0.0075018788357 -0.015443148311 -0.018510448813 
0.00072646480538 -5.082896145e-05 -0.00087196840857 -0.00019503988074 -0.00064561237597 -0.00050736691405 -0.0080947305963 -0.0056125496272 -0.0011007007274 
-0.0006942660038 -0.00093345465146 -8.1606911631e-05 0.0010606885191 0.0019333441361 -0.0013039615879 -0.0042479652777 -0.002075295158 -0.015597284129 
1.8183263631e-05 -1.8299256189e-05 -0.016097521634 -0.016185392847 -0.013888673387 -0.014532283446 -0.015266722097 -0.015683064656 -0.014721709562 
-0.013713090337 -0.010087030911 -0.01103541761 -0.0081867447052 -0.0091891236661 -0.008547529835 -0.0062013137135 -0.0072233424673 -0.0068053700265 
-0.0044373656694 -0.0053004510208 -0.0050406059283 -0.0029165244083 -0.0037507722823 -0.0035389456452 -0.002356699865 -0.0035765095651 -0.0024614608986 
-0.01205769441 -0.012907794848 -0.012144340459 -0.010305793598 0.00033061559108 -0.00011043235995 -0.015748862649 -0.015378236866 7.5058874356e-05 
0.00010381221644 2.2407430637e-05 0.0001754634938 7.3583434042e-05 1.8442134143e-05 -4.2450793117e-05 7.0090910433e-06 5.9111677426e-05 -2.5456718853e-05 
-4.2306558747e-06 4.146710758e-05 -9.6086259278e-05 -1.7775467681e-06 -2.7904767057e-05 2.4720698899e-05 -6.4316781972e-05 -7.6119880639e-05 7.2113874632e-05 
-0.00096359506335 -1.2880276441e-05 0.00019811991027 -0.0021975533499 -8.5640580431e-05 4.9583208977e-06 -7.636598908e-06 -7.4617314721e-05 0.00013526694189 
-9.0700461666e-06 -5.1040925985e-05 9.4528683022e-05 -1.2746733094e-05 1.7397589493e-08 4.3405484293e-05 -3.7143433247e-05 1.4583743583e-05 1.6250036946e-05 
-6.0579336489e-05 1.421720977e-05 7.7455428339e-05 -2.1503878578e-05 1.4985692294e-08 7.5682788632e-05 -1.834308442e-05 -8.9530735699e-06 3.8305388511e-05 
-0.0010235576876 -0.00045874499362 -0.00016564746722 -0.0020333147103 -0.0016059802545 -0.0017114503868 -0.0026489404555 -0.0024531602083 -0.0029071791525 
-0.00019109428086 -4.1514626005e-05 -8.7574913453e-06 0.00037240545534 2.1802593199e-05 -1.6007075606e-05 3.9041088085e-06 -0.00028048707228 -0.0008042650607 
-5.8382608788e-05 2.4084018391e-05 -1.5331636428e-05 -1.1470754231e-06 1.688478921e-05 -2.0717748287e-05 2.0565126548e-06 1.3616495383e-05 -1.649273304e-05 
2.3106559048e-05 6.3981833638e-06 -1.4342058228e-05 1.1067591375e-05 -1.4340838258e-05 -5.1668906342e-06 1.5707604825e-05 2.1979345026e-06 -3.4450791917e-05 
5.3037396062e-05 2.5144285328e-07 -3.6119648287e-05 5.1369600061e-05 -0.00021475313784 -2.6603914018e-05 5.2966638152e-05 -0.0038304503222 -0.0019271750789 
-0.001047358528 -0.0081250914957 -0.0056380576361 -0.0055134110229 -0.010354762896 -0.01130128986 -0.01025281352 -0.0064734477189 -0.0083265223011 
-0.0029204873786 -0.0046125595865 -0.0068217162641 -0.0002733289788 -0.0016189753553 -0.002790835475 2.1913764537e-06 -4.400335743e-05 3.3178225857e-06 
5.8729207271e-05 2.5744237665e-05 -6.7428530219e-05 5.1653706329e-05 7.6016265533e-06 -3.5309843523e-05 5.4973085681e-05 -2.9457695944e-05 -2.6249387684e-05 
0.00010545594498 3.5983322334e-05 -9.140569079e-05 5.8719906861e-05 9.8489571982e-05 -8.3631555431e-05 0.00018789283142 7.084868157e-05 -9.808501128e-05 
0.00027970564381 -1.7686836285e-05 -0.00020513087067 0.00027858420268 -6.9315978634e-05 -0.00024292620925 -0.00011276760515 -0.00028149878445 -3.2847435854e-06 
0.00013734267623 8.4540886073e-05 -0.00023734342425 0.0001426706128 -0.00089897440401 0.00069925130194 -4.5994241539e-05 -0.00091203677954 -0.00047965529892 
-3.617750708e-05 0.0011265168008 -0.00055488820286 -0.004297387747 -0.0020227196717 -0.00068806185202 -0.00011892713968 -3.2497097239e-05 0.00024507002929 
-1.5721268834e-05 -0.00016488851175 0.00024551923491 -1.0590175912e-05 -0.00018370296382 0.0002738857739 -6.0188714616e-05 -0.00014772922418 0.0001831428723 
-2.7689286988e-05 -5.3048502402e-05 0.00010881713092 -3.5004376501e-05 -5.6515993276e-05 7.6335094295e-05 -4.4834083445e-05 -8.5169243978e-05 8.2001236899e-05 
-0.00014816493122 -3.7785525591e-05 9.3613002042e-05 -0.00022221387928 -3.3970554723e-05 0.00017396721474 -0.00016897984556 -3.1117490653e-05 0.00030579902925 
-4.8949425905e-05 -0.00013423811368 0.00030410565344 -8.3661128946e-06 -0.0002345600252 0.00026214197232 -0.011568011372 -0.016232699943 -0.016050376088 
-0.014801222944 3.4162399178e-05 0.00017899827354 -0.00015119668789 -8.65473688e-05 -0.0068722746507 -0.0056224925155 -0.00034047003698 0.00019410445672 
-0.00012015752718 -0.00049845110196 -0.00051772446668 -0.00054181447202 0.00038349149062 -0.00032286961121 -0.00027858266238 0.00020233677198 -0.0001307107971 
-0.00010392200519 8.8887927861e-05 9.5726766596e-06 -0.00018085513638 1.393846779e-05 2.1155117699e-05 0.00011519521584 -0.00026799845683 9.1348867221e-05 
-0.00077328741688 0.00038999904923 -2.6836748473e-05 -0.008852499098 -0.012257481089 0.00024359048616 0.0007298550243 0.00017472702414 -0.00053236108032 
0.00021065065303 -7.2503006119e-05 -1.7568297624e-05 -5.6109680446e-05 9.8764781741e-05 -0.00017176882677 -2.2632290008e-05 0.00022267508053 -0.00014999779045 
-4.4103187916e-05 0.00011506278348 -6.0402276871e-05 -0.00013553731041 0.00027302786317 1.6431769619e-05 5.0700835753e-05 0.00055734227683 -0.00046908421301 
-0.0037691236538 -0.0049469384372 -0.0007183429109 -0.0006783065365 7.6593753878e-05 -7.5816631586e-05 1.942074104e-05 0.00010186860964 -6.2161949605e-05 
-0.00010059787079 -5.124282388e-05 0.00014321681236 -0.00043177091714 -5.0150993752e-05 3.587980225e-05 -0.0060624760065 -0.0062571864903 -3.7634419724e-05 
-2.5446097234e-05 8.240517564e-05 -8.4069921293e-05 -1.413024845e-05 0.00015705889902 -0.00015851728055 -2.5000327904e-05 0.00016201755716 -0.00015109201234 
-8.3198608165e-05 -8.8511362344e-05 -6.9464767995e-06 -0.0004379160036 0.0001905572059 0.00095386664984 -0.0012682175425 -9.6685542299e-05 -0.012765840276 
-0.00017629887094 -3.7127195436e-05 0.00022738167482 -0.0027718910204 -0.0058247253002 -0.0052381193949 -0.0015560741621 -0.00010901016989 -7.9381439295e-06 
2.3825677882e-05 0.00017997374658 -7.1634281747e-05 0.0011378780006 -8.2794248429e-05 0.0010537291942 -0.00047712396811 4.2005945153e-05 -0.015069641294 
1.3335081675e-05 0.00043878149575 -0.00076161027313 -0.0078279014156 -0.0066726098328 -0.0089928945049 -0.0021523095611 -0.0019103259153 -0.014014679548 
-0.014816886953 -0.014186259113 -7.0612694375e-05 -0.00014728193576 5.83544404e-05 0.00015809989224 -0.0074371822694 -0.0039693799087 -0.0043556909626 
-0.0031499329681 -0.00011450785901 -0.013330230504 -0.012479682646 -0.01272872306 -0.00033147382629 -0.011319666303 -0.012028674514 -0.00040406522983 
0.00010278737376 -0.00032653334892 -0.00016109428332 4.5923803586e-06 0.00023884349764 -0.00050473034236 -0.00022155089855 -0.011903971579 -0.010891564443 
-0.0073796687705 -0.00012193758559 -0.00023665953693 9.9379129007e-05 0.00020031022167 -0.00408543634 -0.011703955619 -4.9895408639e-05 0.00020056492303 
-2.1038945218e-05 -0.0082505302957 -9.6879895077e-06 0.00033419742647 -0.00012522736232 -0.00033053438006 -0.001428619761 -0.0014009098117 -0.0018468817856 
3.6079281004e-06 0.0010037589086 -0.00018781438877 -0.00032954331672 -0.0080441073134 0.0001202233519 0.00050389076807 -0.0096096122566 -0.0065969077341 
-0.0066367478568 0.00010256526799 -0.00091651202301 7.3213558566e-05 1.386760354e-05 -0.00036308880223 -0.011281589555 -0.010210466459 -0.0086487553712 
-0.010870033533 0.00051134673021 -0.0039633863398 -0.0047507776677 -0.0070105734377 -0.0077553284028 -0.0025489143344 -0.0031672937555 -5.0676525995e-05 
7.0495431435e-05 -0.00015708369407 0.00065862514887 -1.4766841415e-05 1.1094540231e-05 -8.3688767856e-05 -0.00064618872864 -0.0020046484093 -0.004524244167 
3.3020316669e-06 1.8478666086e-05 6.0903249799e-05 3.9670349005e-05 -0.0001427285779 -2.399186866e-05 -3.2448846336e-05 1.4366939515e-05 -7.9493618923e-05 
-5.124230226e-06 6.7989511264e-05 -0.00011068766688 1.2702733833e-05 0.00011254570476 -0.00012543534196 -1.291467983e-06 0.00013168503892 -3.2623117553e-05 
-4.4366018914e-05 0.00012607626779 -0.0011314258276 -0.00020760801048 8.2250742992e-05 -0.0028372430427 -0.002103334329 -0.0020866271887 -0.004090633605 
-0.0035368107091 -0.0039731215072 -0.0052491338677 -6.0929158468e-05 -0.00018732768983 -5.3859545415e-06 -1.7932681582e-05 -5.9518343493e-07 -2.5259250357e-05 
8.2556734556e-06 -0.00049910431116 4.6683083939e-06 3.5370963306e-06 -5.7115309121e-05 7.057873245e-07 -2.2878677585e-05 3.555803629e-05 3.0958675487e-06 
-4.5593438204e-05 6.8255473948e-05 -3.0255518474e-05 -3.3668714215e-05 1.9766073504e-05 -0.00010515340373 -1.8452593281e-05 6.2570035486e-05 -3.3379985102e-05 
-8.784068891e-05 0.00014125926103 -6.568662586e-05 -0.00015004065094 0.00029179097551 -0.0052854841346 -0.013639340265 -0.013485030174 0.00025773201973 
-0.00062399544458 4.0466993671e-05 -5.3997294756e-05 5.5072777817e-05 -2.5278273199e-05 9.5375673422e-05 4.6117371998e-05 -6.465127878e-05 1.0782228991e-05 
2.0174262997e-05 8.155015627e-06 3.0777056005e-05 3.6931513583e-05 9.6047855092e-06 1.3584136321e-06 0.00011377051918 2.5738294413e-05 -6.7351893898e-06 
0.0001710473748 -3.4512015031e-05 -7.7094739585e-05 0.00020457390931 -5.8786156943e-05 -0.00012103100783 0.00047359637866 6.2989428671e-05 -0.00013004844548 
-0.00016638939147 9.0365508304e-05 -1.9334099202e-05 -0.00031368320786 0.00033346754217 -5.4557947081e-05 -0.00025439440181 0.00024207407986 -6.2926580499e-05 
-8.7713556339e-05 0.00012492353556 -6.2233292973e-05 -6.7157825024e-05 7.0917319369e-05 -5.0088829687e-05 -6.5636208122e-05 4.8269226526e-05 -7.8315146493e-05 
-5.7192419939e-05 7.6083709495e-05 -0.00024391692813 -5.6867148253e-05 0.00013076246945 -0.00036412834958 -3.4421511708e-05 0.00029618212996 -0.00029643742057 
-4.6709372998e-05 0.00042151973524 -5.3021635098e-05 -0.0002349823736 0.00027444513591 0.00022078577031 9.2664005282e-05 0.00068844420739 -0.00020432632359 
-5.8975042856e-05 0.00022770980049 -7.8072198077e-05 -0.0001457120822 -0.01382832128 -0.013789905603 -0.01283042367 0.00025373168337 -0.0004038611935 
0.00021435870423 -6.4140928045e-05 -5.6961205366e-05 2.8163008603e-06 -2.6448405585e-05 2.7693749224e-05 2.5757456647e-05 2.9489981191e-05 0.00011066828406 
-2.6317486493e-05 9.9645419553e-05 -6.132948052e-05 -0.00013499133183 -7.33523444e-05 9.0237176664e-05 3.2672331107e-05 -0.000145462346 -2.7672194853e-05 
-0.00033816254243 2.8376605497e-06 0.000146214486 -3.0407732339e-05 -0.0007134523539 0.0006717547588 -0.0025868704234 0.00011056453748 -0.00015828961681 
0.00018239191513 6.5341316135e-05 0.00083828978635 -0.00073824536104 -4.4083034399e-05 -0.00019162971652 -4.328256725e-05 0.00025014963436 -0.0054987957584 
-0.0063271141081 -0.0055724418898 -0.0042582007575 7.8054606224e-05 6.7590129317e-06 -6.4724965426e-05 0.00011167162168 0.00016102138123 -0.00013572462832 
-0.00022292095223 -5.3473194078e-05 0.00023132494666 -0.00014006015618 0.00021717885499 0.00045128663948 0.00045693586718 -0.0001969525327 -0.0001612177633 
-0.00019314285361 -0.0034337235719 0.00020414883388 -0.00030263837713 -3.5176534625e-05 -0.006102011792 -0.013331377081 -0.01352644619 -0.012824037163 
-0.0069314197843 -0.0085792265421 -0.0093584512412 -0.0028359446194 -0.0040565932392 -0.0065971105795 -0.012972385046 -0.012644298549 -0.012386571626 
1.224360566e-05 -1.2137439271e-05 0.00010145092237 -2.9666107242e-05 0.00031743168447 5.4888477438e-06 -0.00014605323618 -6.4053164349e-06 -5.591432942e-05 
-6.9592151974e-05 5.3608917808e-05 -1.6947925463e-06 5.6930178341e-05 -0.0034458341877 -0.0016008321354 -0.010497491056 -0.011195194023 -0.0086471360905 
-0.00019629087628 -0.010478028516 -0.012158373878 -0.012625502432 -0.011815589105 -0.011240392988 -0.011232020409 -0.0073220442744 -0.004686709748 
-0.0074388047076 -0.00020259519681 8.070774773e-05 3.7000945775e-05 -0.0012857088666 -4.8306887517e-05 -2.8207326611e-05 5.0214904078e-05 8.0094296058e-06 
3.4886144398e-05 7.4081795036e-06 4.3530326469e-05 -3.7096884873e-05 -0.00023224093578 -0.00012309874132 -0.0054295733002 -0.00013693074414 4.8191501083e-05 
-0.00012080485694 -3.1201067239e-05 0.00012917481723 -4.3219138008e-05 0.00038479620889 -0.00030900955147 3.1634359692e-05 -2.6665201938e-05 -0.00023264265431 
9.8671013041e-06 3.7332264314e-05 -0.00020821229592 -7.8793154786e-05 -0.00011485212993 -0.00020202569782 3.1932028598e-05 6.0628437064e-05 -6.1093255714e-06 
0.00018559435987 2.2520910462e-05 -0.00014243255944 -0.00011308527333 -0.0068711988157 -6.9109179562e-05 -2.4810262992e-05 -3.2714540504e-05 -7.1194013547e-05 
2.7655991423e-05 -0.00055800879937 0.00013591456422 -8.7349493822e-05 -0.0011398231779 -0.002009841605 -0.0026562181629 -0.000930344819 0.00031953252645 
-0.00041724451646 7.070989266e-05 -0.01045886779 -0.0094964337328 -0.0098062363858 0.00035002756579 5.2792393711e-05 0.00035084707767 0.00013258135179 
-0.00018876340352 -6.2570368276e-05 -8.6573216876e-05 4.9132580881e-05 -0.0029703733015 -0.0049208555198 -0.00010862468424 -1.3576731482e-05 -1.1933886961e-05 
-0.011827634185 -0.011798137173 -6.8175252904e-05 -8.4707388291e-05 -9.9738035439e-05 1.9719174626e-05 0.00010929113598 6.1540413593e-05 -5.7618367237e-05 
-0.0001178305876 -0.00012223245304 4.4410274598e-06 -0.0011697916138 -8.9421770609e-05 0.00020059045418 -0.0035649010792 -0.0025554575088 -0.0024653162627 
-0.0055530586777 -0.004769779274 -0.0052218018167 -0.0070445837345 5.9330658011e-05 -0.00024120538093 -1.0280984217e-06 -0.00028450849968 -3.6636039228e-05 
-5.572824404e-05 5.6391583704e-06 -3.2642939264e-05 -0.00027640194289 1.6543647662e-05 3.375812998e-05 0.00057594568376 -0.00010740013467 -0.00040333025112 
0.00016884233067 0.00040936423344 -0.00015911900046 -1.4443314187e-05 3.9144516891e-05 -0.00016861494727 5.3080643836e-06 -6.7107763977e-05 4.3353285823e-05 
5.2679831358e-05 -2.62830602e-05 9.2834537743e-05 7.8680474007e-05 -5.7332333514e-05 4.1102518845e-05 0.00012641317158 -7.1578515651e-05 -2.3899411358e-05 
-5.9120252454e-05 0.00018397354148 0.00020077503379 -0.0079979536933 -0.009926145792 -0.0080168650739 -5.4295306531e-05 -0.00027975794386 0.00028742271756 
2.4841581027e-05 -4.3034277311e-05 -0.00017027529384 -4.0065890327e-05 -0.00013169137739 8.5980083103e-07 0.00013107259894 -0.000317690137 -0.00014788672926 
0.0003429864983 -0.00033066469244 -5.3402461292e-05 0.00013634488606 -8.4548530274e-05 9.4499823187e-05 0.0001343966689 -0.00024660474384 -2.9296018053e-05 
-4.6978425151e-05 0.00013145082373 -8.6220773635e-05 -0.00029080276807 0.00037577242148 0.00010351051974 7.1603131723e-06 -0.00024171429194 0.00031884274448 
-3.5973514795e-05 2.9488706993e-05 -0.00021224443273 -3.5662474962e-05 0.00025241843332 -0.00022915862657 -0.0080629311172 -0.00012157881213 0.00024071054048 
-0.00011820755709 0.00041501299372 -0.00036931706696 0.00014645281706 -0.00022266670005 8.8808445132e-05 -0.00012359064132 -1.4694684635e-05 -7.5046499345e-06 
-0.0060897709575 -0.0081592927607 -0.0086957047133 -0.011928801323 -0.0050949719041 -0.0056591787522 -0.011479927055 -0.01130638147 -0.01064222883 
0.00017482637441 -0.0057628275001 -0.0031684384467 -0.0026629544114 -4.7120480117e-05 -4.3116689431e-06 -0.011824094442 -0.010904040314 -0.011718330255 
0.00020477357621 -2.8405833784e-05 -7.4066086201e-05 -0.0040323077272 -0.0045997352288 -0.0033882143287 0.00020548379908 -0.00023467718736 0.00012713093514 
-0.00013225586583 7.0462919837e-05 0.00028439997116 -0.0067914262123 -0.0076335865375 -0.004672880829 -0.0089778458091 -0.0096877907473 -0.0069633048139 
8.9149665202e-05 -0.0011179808881 -6.8249178264e-05 -0.00012434319103 -0.01033860155 -0.0099083138826 -0.0098774552458 0.00012754970131 -1.0825719719e-05 
-0.00012009476803 -5.6375307387e-05 -9.9011529462e-05 8.5879606404e-05 -0.00015140867633 -7.3445783693e-05 5.4322962497e-06 -9.965811022e-05 -0.0077683631989 
-3.1792668746e-05 -3.1891029467e-05 0.00016837534459 -3.8328202603e-05 4.0795405782e-05 -6.9620041768e-05 -4.0241452666e-05 6.3347663636e-05 0.00011809951264 
7.6661668751e-05 -0.0081880382479 -0.008851548324 -0.0082538046202 7.4873477722e-05 0.00013586331046 -1.9106699851e-05 -2.8651730298e-05 4.0252235352e-05 
8.77985006e-05 0.00015388767084 -1.877492607e-05 -0.00022591822031 -0.00030768078501 -0.00021758198365 9.8849217169e-05 -0.00069277231565 -0.00023113334364 
0.00038325887874 -5.2526839357e-05 -7.0775610006e-05 2.7269885202e-05 -9.0701680934e-05 6.0880850414e-05 -3.3417921132e-05 0.00014920274334 -6.2213008293e-05 
0.000465846316 -0.00046337100029 -0.0021852744457 -0.0032023518672 -0.003847025141 -0.0015112025189 -4.8118721668e-05 1.2099990811e-05 3.0571393251e-05 
-0.00029337466713 -0.00011447829083 -4.6273097249e-05 8.1705315825e-05 -4.7219638435e-05 0.00012810227225 -0.00019074954306 -8.2458709378e-05 -0.00020617172874 
7.8917616894e-05 -1.3236981634e-05 -5.4237147847e-06 -3.3073434531e-06 7.1493369827e-05 -0.0001236392977 -6.2619708896e-05 -0.0023310640289 -0.0029529983381 
4.2138616069e-05 6.3334734818e-05 9.4982415521e-05 0.00012848509942 -0.00015426336075 -3.8444562981e-06 4.1420727322e-05 -6.3862358165e-05 -0.00011517401602 
-1.2316046048e-05 -0.0069092848681 -0.010446094323 -0.01085457156 -0.0088987311518 -0.0089952651911 -0.0089587705927 -0.0069035507515 2.9848325298e-05 
6.6669254012e-05 -0.0002119526196 -0.00029453547294 -2.7355616388e-05 -0.00019728245841 -0.0022200839985 7.7142849381e-05 -0.00027553669715 -0.00015295296452 
-2.0523490205e-05 -0.00053607252819 7.0146818499e-05 -7.7925226438e-05 0.00033115267535 6.4214494422e-05 -4.5210383538e-05 -0.00017565883873 -7.1655529402e-05 
-8.8428410644e-05 0.00023279436564 0.00015974989741 -0.0056857163164 9.6441776223e-05 -0.00017994085075 0.00011117665029 -0.010523059084 -0.0056970664628 
-0.0024387142115 -0.0029901473504 -0.0072689687674 -0.0028712568974 -0.00010503937986 -3.0481286263e-05 -0.0019737350525 -0.00040354911907 -0.0015206963131 
-0.0016602992575 -0.004646492578 -0.0032102336122 -0.006351414955 -0.0012537710652 -8.4966299725e-05 -0.0096602303128 -0.009056620431 -0.0048568410727 
-0.0067774282416 -0.00035473250165 -0.010679984764 -0.0098284171191 -7.0397300782e-05 -0.00024637785678 0.00010573473488 -4.8244392723e-05 0.00011194558182 
-0.00034341353434 -0.00012876338356 -0.0057708759086 -0.0097127237831 -0.0093652834738 -0.0073143449099 -0.00014871659559 -0.0069374465956 4.6337012405e-05 
-0.0029976703765 -0.0071384830008 -7.4274195129e-05 -0.00016786361311 0.00021858015356 -0.00032287784893 -7.4066924927e-05 -0.010265013595 -2.2099130286e-05 
0.038693008025 1.5221894407e-05 2.4577213884e-05 2.9038300464e-05 4.0410453141e-05 1.9900782476e-05 2.6975461097e-05 2.2123521983e-05 3.6973388126e-05 
1.6364091858e-05 1.4225882505e-06 -1.0486607883e-05 -9.8437682929e-06 -1.6895644849e-05 -3.6126179688e-05 -3.9162796652e-05 -7.3591479869e-05 -5.8191398727e-05 
-5.7949418906e-05 -2.619997706e-05 -7.53264823e-05 -3.3636499919e-05 -0.00011718541403 -0.00010801931864 -0.00010918676045 -5.3179043871e-05 -0.00010946434208 
-8.0197804382e-05 -6.2136144747e-05 -3.0041929114e-05 -2.3804419125e-05 1.2465660457e-05 -7.4349948318e-06 9.4141082139e-05 9.5671047448e-05 -2.5397629027e-05 
0.00023594211997 4.4424154282e-05 8.9205329515e-05 8.5561448947e-05 4.2022026587e-05 0.00015327123506 3.662632187e-05 -2.1321614922e-05 -3.4298622889e-05 
-4.1729953213e-05 -8.8287277129e-05 -7.5467498456e-05 -7.3445612355e-05 -3.5295678554e-05 -0.00017249667138 -0.00012274256895 -0.00015909248881 -0.00015550351665 
-4.1299772678e-05 -0.00011616201642 -0.00011778629485 -5.1503783633e-05 -0.00033170073861 -0.00025721619739 -0.00035144426995 -0.00045377795706 -0.00040810857584 
-0.00031691765727 -0.0013867526015 -0.0013631086041 -0.0021953705612 -0.0022572614692 -0.0036440160716 -0.0043630303829 -0.059901822632 6.01256763e-06 
-4.6056463979e-05 -0.00013956683451 -0.00010688833335 -9.325692036e-05 8.6454029964e-06 1.1620701869e-05 -6.3626204405e-05 -0.00010611988788 -0.00027954907508 
0.064197075468 -2.9345332699e-05 -0.039559614158 0.00058225293666 4.177865641e-05 -0.0039909659899 -0.0020374803045 -0.0014016901588 -0.0013812482476 
-0.00074884459519 -0.00055159359301 -0.0004500127555 -0.00036266548306 -0.00029591616846 -0.00026215757121 -0.00023891638218 -0.00031617814649 -0.00014719335314 
-5.598435531e-05 -0.00019081417478 -0.00016748084704 -0.00015748705341 -0.00020553559969 -9.2227922431e-05 -4.0594356192e-05 -0.0001309227794 -9.2635531829e-05 
-8.1488593601e-05 -4.2759182574e-05 -2.3439274005e-05 2.6447858893e-05 -8.9825012293e-07 0.00022582574627 0.00021364727249 -2.8617072545e-05 0.00033932923603 
5.3380034865e-05 9.4381991187e-05 4.3114833443e-05 1.930910953e-05 -7.530179656e-06 -4.0530343874e-05 -5.8120310048e-05 -0.00015394291098 -0.00011074958287 
-0.0001513369895 -0.00013963723405 -0.00015074992847 -0.00019049959463 -5.5275100854e-05 -0.00010816612846 -0.00017314368797 -0.00013059954487 -0.00012416353858 
-0.00010513971114 -9.0906882749e-05 -9.5670170744e-05 -2.1020838299e-05 -4.5460334356e-05 -3.8289225062e-06 2.6544341456e-06 1.2328855408e-05 3.8660147456e-06 
1.5553126855e-05 9.8586242807e-06 1.6242249466e-05 2.0219508852e-05 1.1715255761e-05 7.3748663991e-05 -6.5061431867e-06 5.2079093009e-05 3.305722269e-05 
1.1733106358e-07 -0.00023807261294 -0.00019477539443 -0.00053266825365 -0.00015402715124 -9.9911015704e-05 5.7111190663e-06 -8.0655462114e-05 -8.7824752504e-05 
-1.5901792004e-05 -2.415096969e-06 -9.883069027e-08 -2.3140548568e-05 2.5743410132e-05 5.3781324115e-05 1.2404168067e-05 -0.00033664906811 -0.0013656719284 
-0.0023474448426 -0.003778442832 -0.0052212665849 -0.0071571985744 -0.010577617273 -0.012852620145 -0.014819516106 -0.01736451739 -0.01936122102 
-0.021861114188 -0.025094707708 -0.026797110468 -0.027979311693 -0.029208304767 -0.03143670486 -0.031189805463 -0.030924303005 -0.030161305446 
-0.029390402746 -0.028176007606 -0.026912009221 -0.025297406997 -0.022343512929 -0.020150818087 -0.018206312697 -0.015948513992 -0.010498329859 
-0.0084071636411 -0.0055620884581 -0.003965956349 -0.0028718550441 -0.0016803309687 -0.00088494960495 -0.00016757334869 3.5812585922e-05 1.5227175518e-06 
-0.030031410245 -0.031196505864 -0.014324813487 -0.012196010543 -0.030914904238 -0.0088738732411 -0.023460918326 -0.02391961415 -0.006953807378 
1.4034995176e-05 0.035870374067 0.041473023944 -0.00067902021496 0.0031320223132 6.6037367589e-05 -0.0034130849008 0.0021356341127 -0.010289260004 
0.0094374677805 -0.015713648388 -0.069212364977 0.079099429723 -0.0065820344215 -0.01109301722 -0.010174575198 -0.013780402932 -0.006666980198 
-0.0051869264322 -0.0084384640135 -0.0072524587441 -0.010973076732 -0.0076622183067 -0.0089068210267 -0.0032591061198 0.0033463695998 -0.28341335605 
-0.25060686942 -0.16216410762 -0.24767862261 -0.15724546939 -0.15728081939 -0.2093580098 -0.20505058649 -0.15814258519 -0.15787035944 
-0.24705698896 -0.16965524578 -0.21122016169 -0.17407692296 -0.15823597755 -0.20649763368 -0.15912338054 -0.22077363666 -0.20744809187 
-0.087605732032 -0.0030513399217 0.08562842087 0.0040939413358 -0.0069016001528 0.0028389118573 -0.0022866297856 0.0041837498731 -0.0049356584149 
-0.0057567288542 -0.001494176502 -0.0025033685895 -0.0032604300086 -0.0099746930137 -0.0058303342072 0.011188005738 0.035935948904 -0.0010081147151 
-0.0037215153501 -0.00057861134443 0.0095306374654 0.0021316460772 0.00076957185498 0.0025372951433 0.0032871601531 0.0017475227007 -0.2414610571 
-0.28227175809 -0.22463948954 -0.20076832008 -0.15743556577 -0.207592999 -0.21627666574 -0.21225887342 -0.16864383494 -0.18830481733 
0.068155596256 -0.055798324754 0.00091358502386 -0.015871696407 -0.0019709857889 -0.0041380119681 -0.0036216218598 -0.0084314387991 -0.0013486910443 
-0.0076725666884 -0.00054462387824 -0.0067475867576 0.0012285298429 0.0073345474451 -0.0012283070415 0.021794149067 0.049388077734 -0.0041205170886 
0.0049698693058 0.0058504293694 0.002430627742 -0.0008678929709 -0.0064129286618 -0.0014863794944 -0.0018541770206 -0.0052525805514 0.0061094533536 
0.059253766111 -0.0041183635767 0.0013713710887 0.003017998694 -0.00052461223175 -0.00092331576802 -0.0048449421232 -0.0044381324551 -0.0025545508927 
0.0062990825905 0.059627686966 -0.079151302926 0.0011786881849 0.0039838903672 0.0023944276981 -0.0020446476373 -0.001904542972 -0.0041712730215 
-0.0042188048424 -0.0044637589954 -0.0089635508351 -0.0072422471154 -0.0085791017457 -0.012535588759 -0.0035355550297 -0.24466628551 -0.22504370007 
-0.19166448549 -0.160300094 -0.18265962008 -0.153780603 -0.20663982246 -0.20792086871 -0.17297168593 -0.22617011249 -0.043536261256 
-0.037731831461 -0.025959948296 -0.023635846867 -0.044773435179 -0.036953995271 -0.0043401747232 -0.010691424043 -0.0074758167439 -0.008927547091 
-0.0073236914228 -0.010984696149 -0.0017180633052 -0.013050322092 -0.012261255778 -0.0027685476174 -0.015535597164 -0.010359049608 -0.012353974944 
-0.056159640507 -0.009990305758 -0.012097754779 0.025443728503 -0.049547865105 -0.014183315203 -0.012216657036 -0.0037328782334 -0.004665074944 
-0.002737453824 -0.0046428796223 -0.0017616668081 0.00013033916596 -0.0027669030922 -0.004429034231 -0.0018930790151 -0.0026766784325 0.0015120764476 
0.00049675963463 0.0016287804092 0.0094732987398 -0.029722684054 0.019004489747 -0.05827997718 0.02201481283 -0.024098928596 0.0031029139433 
-0.0096544288749 0.0032125515561 -0.032564419143 0.0026390567526 -0.015046893263 -0.0050922211767 -0.0054028226456 -0.0038726190605 -0.0097805020891 
-0.011232701951 -0.017406086486 -0.012657056119 -0.0087857461905 -0.039505870524 0.01140915859 -0.0066482778379 -0.013714418718 -0.00088468825004 
-0.002200055959 -6.0777828046e-05 -0.0057664170408 0.00058800962083 -0.0051632193991 0.0013740494658 -0.0078615333037 -0.0053130733743 -0.0046397574937 
-0.0063196519903 -0.0049045798106 -0.0080543277937 0.039967049762 -0.013069214884 -0.0098310846767 -0.014206869851 -0.0032349517743 -0.16465482731 
-0.039586537205 -0.0026255089301 -0.009859670083 -0.0025637850516 -0.0073358769053 -0.0069866040803 -0.0052863277921 -0.0048482506952 -0.014861898681 
-0.012689352951 -0.024272007297 -0.011225134972 -0.017911402281 0.00064136941224 -0.016821415265 -0.011110442217 0.013286303372 -0.30049426169 
-0.41525847883 -0.37824802959 -0.35583318702 -0.41788159985 -0.40287350725 -0.41141500702 -0.4178643802 -0.31968681339 -0.35626800206 
-0.17193952806 -0.039255724251 -0.011482781164 -0.055990268335 -0.0018334629197 -0.0055243013698 -0.00059529208005 -0.0017573806697 -0.014896185889 
-0.1030873068 0.01780082947 0.01358253398 -0.42763012564 -0.27695104227 -0.41535553944 -0.27567927035 -0.38360798291 -0.36270069248 
-0.40689920889 -0.42808036393 -0.42632988414 -0.41903267102 -0.40752316019 -0.36261146321 -0.34737233892 -0.067402787518 -0.13423245344 
-0.015579936786 -0.0096443474528 -0.0017218488389 -0.002706622873 -0.017240112932 -0.012582740614 -0.040673990048 -0.0072132607253 0.017112766011 
0.0066392175773 0.026475441528 -0.17354640851 0.0051014875504 -0.026926631048 -0.0015509837317 0.0022370523747 -0.42101262485 0.017621489421 
-0.14506296975 -0.43779920578 -0.30177665608 -0.027027407126 0.057312898816 -0.043601303799 0.0035660019667 -0.092558618117 -0.0033743261122 
-0.0076476115994 -0.00078651034406 -0.0053265703618 0.00095626878223 -0.0019623078373 -0.0035849751524 -0.0056756892117 -0.0036373590086 0.0028001960632 
0.059322823484 0.0073231482393 0.038952912567 0.0087316516679 -0.025679701814 0.007583702092 -0.041031896262 0.015372930901 0.020937701768 
-0.016859991651 -0.05424557634 -0.0065929707781 0.048548152571 -0.021401299786 -0.020961583106 -0.007693351861 -0.0036548183438 -0.0062503235892 
-0.0021550631321 -0.010750912749 -0.0059739936157 -0.023398354688 -0.0073904286711 -0.15464347289 -0.013049786667 -0.03436607945 0.069162826331 
-0.15624495013 -0.015278736557 0.034803211797 -0.0087878807632 -0.0026724763118 -0.00041419650795 -0.0039301218852 5.6983335111e-05 -0.0032084539925 
-0.00091311986293 -0.0024758112743 -0.0016492431772 -0.0012030960338 -0.00062067931814 -0.0052679360922 -0.039446166114 -0.0047529331735 -0.019981578499 
0.010267093896 -0.04872289403 -0.0061582224364 -0.11906844427 -0.014851350796 -0.0079967971197 -0.050740053294 -0.0029233969181 -0.0064506365842 
0.0019752246798 -0.0063735405564 -0.0061922906261 -0.011194944665 -0.027580183165 -0.0057411776313 -0.01929641294 -0.0087036133678 -0.007937292997 
-0.36814034728 -0.30687146159 -0.37279426936 -0.37451172638 -0.40361490445 -0.41925553529 -0.4348598877 -0.42718349677 -0.41698519672 
-0.40733115966 -0.36162554779 -0.33238832103 -0.050358034676 0.0075892033256 -0.0024801586099 -0.0077258038766 -0.0047765149381 -0.00087198495613 
-0.0085056437529 0.00078499696076 -0.012215519119 -0.0047088606553 0.025919793033 -0.028486731092 -0.26074516092 -0.37050816274 -0.34058566178 
-0.41770101862 -0.38073224885 -0.40922912301 -0.43160256719 -0.39772785577 -0.40963605058 -0.33783363889 -0.31709483918 -0.19817453028 
-0.025733307814 -0.013493497933 -0.0093787870221 -0.0053815360125 -0.0033671648981 -0.00370079208 -0.0071487209328 -0.0088216486597 -0.035414232104 
-0.0087150267188 -0.38717204356 0.0029948332585 0.010443837186 0.043072037794 -0.45506555788 0.0084398859532 0.0086372992627 -0.026032512054 
-0.2133892372 -0.0062759686098 -0.092413950793 -0.03623113949 -0.033944206859 -0.016820501067 -0.063185410369 -0.011656251026 -0.017032492577 
-0.01259416634 -0.012550976413 -0.011265088039 -0.01096626775 -0.0093634144427 -0.0097742224811 -0.0086408808447 -0.0079997324394 -0.004823618523 
-0.0066662598512 -0.021456808623 -0.02467991598 -0.028581087396 -0.025110535368 -0.068282896259 -0.032080056815 -0.050583591918 -0.061489347679 
-0.0096040343271 -0.0088500006304 -0.0036346760336 -0.013069859648 -0.0082084075057 -0.0084774352724 -0.0085417593922 -0.01127115868 -0.0083168298533 
-0.0073372951419 -0.0061799330171 -0.0046243947549 -0.011424850912 -0.023399093992 -0.024554437746 -0.012377966002 -0.012911502796 -0.034751505374 
-0.40416505111 -0.37778240622 -0.026346297092 -0.025532714458 -0.0052891681041 -0.0046139316178 -0.029625567318 -0.025943456545 -0.0048887444027 
-1.6815205568e-05 -0.048432214115 -0.028460377307 -0.093062445457 -0.040126529192 -0.044466796476 -0.074070047053 -0.37525742912 -0.009995751895 
-0.004503164599 -0.0081603963237 -0.028327406928 -0.029366166665 -0.030270540728 -0.048114630827 -0.019456631741 -0.03292967257 -0.41187838422 
-0.047616602616 -0.019219346662 -0.02775732895 0.035379510266 -0.02291459812 -0.039355006367 -0.035536419036 -0.030468487437 -0.4665727517 
-0.46047320108 -0.027941453405 -0.024967549726 -0.34700343453 -0.18396397615 -0.45308907431 -0.0075940016912 -0.033329611127 -0.014182995356 
-0.036150718284 -0.0031973505526 0.01301090531 -0.047831966941 -0.024244837571 -0.0350739549 -0.021644407771 -0.18358831332 -0.035554554998 
-0.12130981322 -0.0052800977674 -0.43869398328 -0.4573150992 -0.027172483861 -0.046577357021 -0.16902988772 -0.42358122991 -0.006472077567 
-0.046416174612 -0.32665489281 -0.37659887603 -0.031081892972 -0.02824877607 -0.021439997972 -0.027599790067 -0.027728816749 -0.028434023148 
-0.028094380207 -0.028080827819 -0.075080280767 -0.070168918781 -0.035361863186 -0.029908603395 -0.026841580639 -0.027388390181 -0.0093083473748 
-0.0021592811935 -0.4656698614 -0.46145924071 -0.034653035041 -0.19608640742 -0.44863265235 -0.4128040977 -0.057162838426 0.02070377491 
-0.030487378188 -0.039826357714 -0.1014905504 -0.047637619676 -0.006137988024 -0.0014407519111 0.0073692052087 -0.0012273324155 -0.038260429237 
-0.02438503622 -0.014843598927 0.0075503809681 -0.0046704795457 0.0051338243822 -0.0069125866843 -0.021940927434 -0.44037688273 -0.13848637326 
-0.45630358999 -0.43938219993 -0.01079119566 0.0049306857464 -0.0037688273644 -0.40655646155 -0.048684797054 -0.01879337884 0.033294692109 
-0.078030721741 0.0072120208507 0.021532535336 -0.023486054347 -0.026815700047 -0.1003932083 0.028852518568 -0.061996459975 0.04922895382 
0.0029522285972 -0.002897555386 -0.0046268796506 -0.41702610007 -0.028332944785 -0.0017005050725 -0.45550268278 -0.030428295251 -0.060726032203 
0.016697002806 -0.046821972033 -0.029654025605 -0.028792926263 -0.026815765559 -0.033411289044 -0.037689751642 -0.041216625988 -0.03293950513 
-0.026947206229 -0.030098519438 -0.10472166783 0.088030810378 0.11538359796 -0.0079560912408 -0.0044179929799 -0.020919432257 -0.12022073027 
-0.022503959808 -0.013892472605 0.0062928140136 0.0093215959057 -0.028113978914 -0.043403744289 -0.032285232448 -0.022320937175 -0.045302775258 
0.015052407167 -0.019606809929 0.0085477354188 -0.0037543646427 0.0024013091741 -0.0048804883448 0.0013755151299 -0.012612557843 -0.0094710158533 
-0.42581387907 -0.012010277175 0.0010431548965 0.0012502887723 5.9637831006e-05 7.7941523682e-05 0.0010614009159 0.0020756115259 -0.006397658264 
0.06493878832 0.0077453883435 0.0050806567486 -0.006025519984 -0.0038708803342 -0.010210598572 -0.0066668970537 0.058830087788 -0.027138373377 
-0.0054954691798 -0.0063653757315 -0.0043376095674 -0.4455279579 0.016027648802 0.035747927277 0.00080728651496 -0.0045119977129 -0.066788088615 
-0.094367150095 -3.3140861509e-06 0.010313995799 0.0082423456481 -0.008453335729 0.01015607516 -0.001337521782 -0.0026623832182 -0.022440042421 
-0.443953478 -0.081133321999 -0.0023240409851 0.019390477161 0.015816349695 -0.00042795463603 -0.002768526567 -0.00060419283322 -0.02960863802 
0.022273103022 0.011498198186 0.0080216518026 -0.0022661967016 -0.027506509391 0.033133933828 -0.086763358924 -0.0046088547034 -0.025017493278 
0.0025869809038 -0.0049186669256 0.0015473872135 0.0027946957255 0.0018199529952 0.08800759574 -0.00022191579295 -2.7568797493e-05 4.288154939e-05 
7.2371263916e-06 5.5134764152e-06 -0.004396908696 -0.010382010201 -0.0088616660273 -0.010917024586 -0.0058422585999 -0.0086007958085 -0.0010273301742 
-0.0016085404676 -0.00088981482067 -0.0012134504664 6.8457094462e-05 -0.0022562881261 0.00015797477198 -3.4702342118e-05 -4.9227355174e-06 4.4509371366e-06 
-0.0088145902967 -0.009408327199 -0.0046108557704 -0.0055443417276 4.7755727029e-06 0.0002401580443 -0.00029423453531 5.3418532883e-05 6.6867182441e-06 
0.00012300811896 -0.0050936261861 -0.0010735858839 -0.0018212540038 0.00052059709665 -0.0067981818115 -0.003412640669 0.00023163698979 -0.0037627916991 
-0.0017081183092 -0.0014053989853 -0.0019625707783 3.3710358849e-05 2.3088547806e-05 -3.5774464891e-05 -9.4057536906e-06 -7.9738218634e-06 -1.369978579e-05 
3.2918797374e-05 -1.6020955864e-05 5.2482557457e-05 3.5439583633e-05 -3.0026205866e-06 -4.0953392288e-05 2.1129732456e-05 -5.2986966976e-06 8.5395759595e-05 
0.00099922024848 -0.0045110108344 -0.0035025978794 -0.00051875239572 -0.0015680836552 -0.00078815579868 -0.0025211256907 -0.0098152897454 0.0052716036168 
0.00052195047325 -0.016746115408 0.00055090415806 -0.003960988866 0.00013230897731 -5.1159052982e-06 -5.6697143883e-05 -0.00016584394019 -0.014425590721 
-0.012537721914 -0.017434426442 -0.014151564707 -6.0678713035e-05 -0.0014237087598 1.7042655012e-05 2.9810265145e-05 -0.014611496398 -0.0091642066492 
-0.007234206455 -1.375719847e-05 1.587418806e-06 5.7185184757e-05 -0.0076434496663 -0.0095752714141 -0.0083898755833 -7.7482848224e-05 -3.0188494276e-05 
-0.00013211159779 -3.0757662479e-05 -0.017111854359 -0.022729255552 -0.01669331894 -0.0060999483621 -0.0073804867495 -0.0068262694039 -0.0081795975813 
0.00011683884622 4.0017153551e-05 -5.7395274206e-05 -0.02785149909 -0.011534186323 -0.0103000195 -0.013816307658 -0.013043186388 -0.007499749339 
-0.0070234406891 -0.0004807092537 -0.0007741698363 -0.00089794733627 -0.013642852572 -0.012463459867 -0.013429841778 -9.3290982491e-05 -0.00017307263556 
9.7099403094e-07 -8.9001460482e-05 -0.00030279229063 -0.00014996986305 0.00020027104778 -2.5583618404e-05 -0.00010420434595 -6.3163267971e-06 -2.2328930219e-06 
1.7287821875e-05 -0.012784151433 -0.013545345704 -0.017886005047 -0.01110154822 -0.0040537499787 -0.0023374358665 -0.003087792595 -0.0021276095161 
-0.0028177780293 -0.014123812753 -0.016260408253 -0.017485715311 -0.01952196563 -0.0080283852438 -0.0084993942623 -0.0092710985142 -0.023426414733 
-0.023064540082 -0.025449187017 -0.011342833179 -0.010200107012 -0.0095275054327 -0.0010287841734 -0.0012296251778 -0.00087508308084 -0.01315593689 
-0.01253374158 -0.014037529684 -0.013312355743 1.1926314786e-05 1.7727061025e-05 1.5447120315e-05 -1.8810941145e-06 -0.017952931271 2.5318634757e-05 
1.4854512513e-05 -4.2434970195e-05 -0.00015589945277 -1.324800803e-05 -3.4325627978e-05 2.2059709692e-05 -0.003332716519 -0.0037266018796 -0.0027762497897 
-0.015967903628 -0.018298519948 -0.012651051472 -0.00010248397639 -0.00023557474573 -0.00014948273634 -0.012226238733 3.7301577659e-05 4.3867802052e-05 
0.0002555316375 -0.00065896727317 -0.0010911822039 -0.00082414674812 -3.2926351243e-05 -0.00026595648513 -0.0057210675802 -0.005007582554 -0.0052228336224 
-0.0045217727392 0.00031368972259 -9.2685257053e-05 -0.00013803284693 -0.012989472103 -0.0083199190496 -0.01019783287 -2.6024336425e-05 -4.5915743953e-05 
-3.1740735968e-05 -5.7085028033e-06 -2.0486765881e-05 1.6851163768e-06 2.7020151522e-05 -0.01687169324 -0.019446909914 0.00028159913591 -0.00026135521829 
-7.5490119014e-05 -0.00055099444426 -0.00033689626779 -0.00089758772519 -0.0028190338018 -0.0033351398109 -0.0038614262502 -0.00021707535423 -0.00025493278606 
-0.00032518305856 -0.00034730507204 5.0012869225e-06 -0.00025538901407 -0.00022386843009 -0.00049332845032 2.5758471921e-05 -2.8474273057e-05 3.701334309e-05 
2.8918891609e-05 -6.4575762748e-05 0.00025571837127 -0.0001604492805 0.00012497850073 1.0640398723e-05 1.7344147131e-05 -9.0748422874e-06 -4.3051574727e-05 
-0.00011472162858 3.6139962626e-05 -3.7671036982e-05 0.00019943626274 -0.00024302321197 5.6623031435e-05 2.5818065779e-05 1.9879558602e-05 2.996546107e-05 
-8.0646586337e-05 -8.0303406868e-06 -2.0045282961e-05 -6.6774820179e-05 -0.015713554696 -0.015896541193 -0.018978944392 -0.00045720565741 -0.00022473379531 
-0.00045748214399 0.019345196061 0.024365956344 -0.0092379309809 -0.025296767676 -0.023520780167 -0.026061152106 4.9710536075e-06 -5.5155047091e-06 
-2.9677929141e-06 4.9182706131e-06 -0.0003494067145 -0.0064902708777 -1.0704064068e-05 1.3243162017e-05 8.568975315e-06 1.9762516124e-06 7.7622909207e-05 
-0.0017110410525 -0.0066259235482 -0.0078298773093 -0.0074510802954 -0.0087204612215 -0.028635311832 -0.028626010174 3.9503657859e-05 2.8297624359e-05 
-0.014748376543 1.1873866405e-05 2.570356013e-05 1.360335694e-06 -0.0016576226431 -0.0011196086744 -0.0013716711774 -0.0045982398833 -0.0042384307165 
-0.0053023958367 -0.0047356768075 2.8704054256e-06 -0.0066349726011 -0.007761656958 -0.0075425884136 -4.575825334e-06 -1.7215429416e-05 -5.4854075595e-05 
3.9636702411e-05 -1.0877308358e-05 5.0230658071e-06 2.8186185156e-05 -2.7384812692e-05 -5.6088399013e-06 3.0535526138e-05 -4.6580140899e-05 2.9963664603e-05 
-1.9517547894e-05 2.7546525938e-05 -0.0075172536902 -0.0064522809282 -0.004405383396 -0.009798256454 -0.010561275413 -0.011547702849 -1.5326048352e-05 
1.7126000643e-05 5.127293315e-06 -0.011732184381 -0.012380432195 -0.0029921030505 -0.0012795061176 -0.00093136752114 -0.015166774724 3.4599626e-05 
2.1676076105e-05 4.5760225923e-05 4.1996581433e-06 -3.577528197e-05 -1.5578725242e-05 2.0660360023e-05 -0.0056500059636 -3.1903747038e-05 1.5259607506e-05 
2.6027354831e-05 -3.3273684453e-06 0.0002107246876 -0.00029653224514 1.3917367871e-05 0.00019551935292 4.2795545333e-05 -0.0042755382033 0.0073739532261 
-0.01716713907 -1.8227296239e-06 -3.1170731806e-05 7.1271563513e-05 -5.4434604818e-05 0.00065939578533 0.00049185542268 0.00026682014302 7.8489668792e-05 
-0.0001448043896 3.0527017591e-05 -0.015069346997 -0.015976473747 -0.014385660489 -0.001387687947 -0.0011883162509 -0.0017311091521 -0.00075094980682 
-0.00041071328732 -0.00058991005719 -0.0018628893951 8.149463554e-06 -6.2901294178e-06 2.4462012003e-05 -1.0421229373e-05 -5.1824659878e-06 -6.6839362612e-06 
2.8617270952e-06 -0.00010954466311 -0.011302291246 -0.010041504183 -0.01099135855 -0.0001971021859 -0.00041093838232 0.00086806136305 -0.00035537452581 
1.2368295699e-05 -1.7762271647e-05 -3.5512112531e-05 -0.00077202002198 -0.0054813955079 0.0035355185297 0.0015503100989 2.777026248e-05 5.0969308366e-06 
-2.8994576952e-05 3.0527076702e-06 0.0002764650136 -4.5595569823e-05 -0.0067901388716 -0.0091306468575 -0.0081342698546 0.018100072179 4.2410309297e-06 
5.8195711421e-06 -2.6550554836e-05 2.3521699367e-05 -0.027419001756 -0.017823420084 -0.016472890928 3.4706277674e-05 0.00011534001792 -0.00018528828598 
-7.534292851e-05 -0.02694219304 -0.023613435704 -2.8255210816e-05 -9.0076704108e-05 -2.1758928663e-05 0.00022105093308 -0.00035329378329 0.00013715122974 
-0.020768387698 9.6109398598e-06 -2.0921288966e-06 5.2947345549e-05 5.0145150274e-05 -3.1807544993e-05 3.2311498339e-05 -5.1006541989e-06 -4.1683945049e-05 
3.8588876079e-05 -3.9182424041e-05 -0.0030423302667 -0.0022924975602 -0.0030063143949 0.014464249987 -0.006470957839 0.0090399473128 -0.0055651457751 
1.2295978052e-05 3.526579358e-05 2.2784762351e-05 -0.0035814721115 -0.0030328120276 -0.0044005829499 -0.0035717910204 0.0061681999572 -0.002549206868 
0.0022534175015 -4.2662237301e-05 3.892369491e-05 1.5280146405e-05 2.1685035416e-05 3.038335461e-05 1.4588574966e-05 -0.0027748794181 -0.0036754166926 
-0.0031849883738 -6.8022700101e-05 -0.00012789616181 -0.0085424035592 -0.0076350780777 -0.0072222375237 -0.0020311482786 -0.0016380790024 -0.0022009572566 
-0.0016237982929 -0.012718929042 -0.012681100685 -0.0098542851629 5.9276657526e-05 -2.2538135481e-05 -0.0065159985944 -0.0059117284218 -0.00021993142647 
2.0383619083e-05 -3.4574159432e-05 -1.8229978569e-05 -0.0056083116934 -0.0063477641891 -0.023858180525 -0.017892327805 -0.010487570608 -0.0034564371201 
-0.013405747415 -1.617531262e-05 7.8085727133e-06 7.0031529306e-05 1.0929608044e-06 -2.0459718933e-05 2.8953255919e-05 -2.6076860969e-05 -0.0038017975459 
-0.0039947557437 7.3428676402e-05 3.1655585319e-05 0.00024583701078 -0.0048894332082 -0.0057795694866 -0.0057823689039 -0.0035254061002 -0.0041707096875 
-0.001146488708 -0.0023073104667 -1.9397519347e-05 2.1079814441e-05 -0.00012782311621 0.00010507351836 -0.0001791070993 0.00015984450845 2.7752655158e-05 
6.434243004e-05 -1.7290614701e-05 6.1435272818e-05 1.8594147112e-05 -2.5055573529e-05 -7.4472353952e-05 0.00012861228079 -0.0018547320183 -0.0022911170079 
-0.0022694883868 -0.00013493807954 -2.4072085474e-05 -3.1693260573e-05 8.4272625999e-05 -2.1537823211e-05 -1.2709895114e-05 -7.286967668e-06 5.5122277415e-05 
-1.5575304183e-05 -3.0048780707e-05 -5.0106987528e-05 -5.7274883393e-06 -0.0012377391016 -0.00048699191786 -0.0017403994011 1.582026986e-05 7.7679463761e-06 
7.8822416451e-06 -0.00010153121159 -0.00016275948235 3.7063382659e-05 7.8413847941e-05 -0.00075700067833 -0.0022597383564 -0.0029214495035 -0.0015859353143 
-0.006099891931 -0.0039517308221 -0.004404060643 -0.0028423309512 -0.0072283560975 -0.0050507363801 -0.00837817048 -0.00580572644 -0.00108540769 
-0.0020250719676 -0.00073690905446 -0.010472972035 -0.010616000308 -0.011850983971 0.00085609088192 0.00054559813446 -6.0215788598e-06 -5.7504887327e-05 
3.6578392655e-05 0.0043806852125 -0.01324840519 0.0009884818278 -3.8949460495e-06 -7.3413025609e-05 -1.9583004445e-05 -0.019518532898 -0.01915609753 
-0.017752368165 2.9738686885e-05 -1.7963721e-05 -8.5080191358e-06 -0.020786226954 -0.021322922883 -0.015850436758 -0.017080813924 -0.015491717682 
-3.5940761538e-06 -9.0214808781e-06 -2.1395623235e-06 -0.016537114372 -0.016379888587 -0.01807237606 -1.0360927674e-05 -5.3782927779e-06 1.4570197857e-05 
-0.00014471042834 1.9294251497e-06 6.2154527864e-06 -0.0042286140519 -0.0066324009148 -0.0066894982319 7.7760127416e-06 -4.6056739576e-05 2.3621789847e-05 
-2.3231497197e-06 -0.018829298236 -0.01761666619 -0.00062184710575 -0.00055947463518 -0.0010233521847 -0.00138533138 -0.0021094595783 -0.0013125968617 
-0.00044896106304 -0.00064855768114 0.00086533245127 0.00063439609764 -0.00065897521445 -0.00070173034798 -0.0091892192007 -1.9559532574e-05 1.6678511144e-05 
2.7605449773e-05 -1.0399112589e-05 -0.011177717642 -0.011227908134 -0.012008217013 1.3232051819e-06 1.8194217821e-05 3.0275972874e-05 -1.409580788e-05 
-0.0018259343619 -0.018085011509 6.0961675713e-06 -0.00014940809065 3.6678882692e-05 -0.0016184916467 -0.0016963537689 -0.0024043151447 0.0027334541706 
0.0015687840284 -0.017199940382 -0.017794946554 -0.016174919558 -0.016596841644 -0.007224546642 -0.0046507830604 -0.0036104942563 -1.560244342e-06 
2.8086207798e-06 1.3480255971e-06 -8.596200552e-07 2.72431951e-06 2.2673291303e-06 -4.0561475846e-05 -0.0018458062136 -0.0024361221689 -1.0104870948e-05 
-2.8215180375e-06 0.00011332205388 -0.0013972962467 -0.0012534497838 -0.00088753835862 -0.00081830495287 -0.0074347349799 -0.0055912741271 -0.021460236956 
1.7401010753e-05 -9.9679107244e-06 -1.3016940646e-05 -0.028045589548 -0.036133730254 0.010641312364 8.4958168712e-06 -4.2164523908e-06 3.8648448538e-08 
2.5666433072e-05 -1.1909961408e-05 1.2527552879e-05 -9.7755872843e-06 -1.3453044286e-05 -0.00013335103791 -9.9537981826e-05 -0.013669776905 -0.016819343589 
-0.00036477644545 4.7319804975e-06 -0.00021850108329 1.2534480523e-05 -0.00049377992683 2.2470323471e-05 2.5342458436e-05 3.8553517707e-05 1.2521488385e-05 
-1.9210684986e-05 9.9442166352e-06 5.1476398067e-05 6.7417520954e-06 8.3116854785e-06 -8.1979654898e-05 -0.00082136174584 -6.2920435858e-05 -0.00030061839358 
6.7227512757e-05 -4.6869198421e-05 0.00021590935469 -0.01768937019 -0.023181790262 -0.016399422125 -0.019844014854 -0.00032396895308 -0.00038725862281 
-0.0006435686873 0.00010917850762 -0.00033511201547 -0.0043149012174 -0.0017076510152 -0.00042119072602 -0.00058841907405 5.0954842038e-05 -0.00073685279555 
-0.00086037183104 -0.0022190578034 -0.0026264857328 -0.0025818386651 -0.0030322429497 5.5337392432e-05 1.7692800227e-05 4.5151059888e-05 -6.0155751716e-05 
2.3221442804e-07 0.00011610659964 -2.1734763329e-06 1.5629894991e-05 -3.0581262631e-06 5.7225112201e-05 4.9611844829e-05 7.1214061216e-05 -2.9013764232e-06 
-8.8901765391e-05 -0.00018164714406 0.0094301752287 -0.0075231469947 -0.014540090106 -0.014226990102 -0.014398096856 -0.0050286447018 -0.0054108014133 
-0.00093811414778 -0.003694872263 -0.0086960639385 -0.00067703991708 0.00041203999418 0.0022299753021 -9.8465433493e-06 -1.2218807132e-06 0.00019738910377 
-0.00027759012066 -0.0040152704683 -0.00393600609 -0.0039153698606 -0.00022351304124 -0.0040644620176 -2.9350521836e-05 2.0104351874e-05 3.4537059419e-05 
0.00015069459083 -5.1353291929e-07 -2.057387798e-05 6.3840845567e-05 5.2167190707e-05 4.5318113137e-05 -3.5666221726e-05 -0.0055600825012 -0.0019085259509 
-0.0083736980815 -0.0027181449702 -0.0047589317029 0.00049026598114 0.00082733686705 0.0014354998022 -0.0086441278746 -9.3799658471e-06 7.6554962611e-05 
-3.5736949747e-05 3.8194088381e-05 3.2536392167e-05 5.4126947891e-05 -6.2612805113e-05 -0.00020913061292 0.00064067942099 0.00044800575259 -0.0096757136359 
-0.013616785805 -0.0099466341046 1.6440757846e-05 -0.013399521241 -0.0068279411531 -0.0055368580739 -0.0071876564526 2.2634688875e-05 -0.0069190817153 
-0.00171361298 -0.003051437471 4.0220086093e-06 2.0938413102e-05 -1.2527164818e-05 2.9494940107e-05 -0.0029387916544 -0.013998647821 -0.013766048891 
-0.015279839687 -0.034985144618 -0.031169063757 -0.045510724617 -0.026277476172 -1.5409740625e-05 -9.7514619013e-07 -3.0825725853e-05 -7.0420865738e-06 
-0.004716943027 0.0035823075752 -0.0079184380227 7.7739444383e-05 0.000954016755 9.7966938204e-05 7.3670287299e-05 6.8242470407e-06 0.00025833547522 
0.002637598568 -8.4748675455e-05 0.00013214286419 -0.00011840754207 0.0063222025292 -0.0087504055163 0.001228692493 0.043865445525 -0.0082070429353 
0.022265972368 -4.6047344485e-05 -5.4436438689e-05 -0.0022385377089 -0.00152795685 -0.0017940079053 -0.015818465407 -0.010578506896 -0.014218639679 
-0.0040190380134 -0.0030479510796 -0.0038297106668 -0.0064556521242 -0.0043083283733 -0.0016653464369 -0.034483508594 -0.0084992724609 -0.002285637253 
-0.0024658187515 -0.0037412686649 -0.0099673094509 -0.011938027959 -0.0056476580604 -0.00051470180527 -0.00084851513313 3.4403052864e-05 -0.00042059705198 
-3.0496974976e-05 5.5433525691e-05 -0.0025030269883 -0.0021488888793 6.5945468536e-06 -0.00078414854182 -0.012991086523 -0.0076575043334 -0.0037831737243 
-5.1901939659e-06 -0.0016669791465 -0.00022944406023 0.00020921149914 -0.00016118152155 -0.00030579301399 -3.7065179658e-06 -6.124477539e-05 5.3854732452e-05 
-1.8876027788e-05 2.2449375187e-05 -3.4336802467e-05 4.1675033648e-05 -0.00010034133436 4.1619445572e-05 -0.0044907717982 -0.0045890956685 1.2923134158e-05 
-3.2457014507e-05 -7.2250948649e-06 -0.011369713926 -0.013023968004 -0.011725176632 -0.013440066915 -0.025169662668 -0.023485465774 -0.02594480408 
-3.5416838597e-05 -6.049874545e-05 2.9885733158e-05 2.4835843244e-05 0.0007580332367 7.12595697e-05 -5.2419060526e-05 2.279114893e-05 -4.532393902e-06 
-3.1167472846e-06 -0.032670952723 -0.024658603477 -0.021078326954 6.9715435441e-06 -2.9081440953e-05 1.1610083784e-05 -0.0041315511444 -0.0040985527678 
-0.00095592301984 -0.0010856012946 -7.9546518414e-05 1.6924658659e-05 4.0193052303e-06 -1.2797549352e-05 3.3297201381e-06 -4.5953324623e-05 4.3935189508e-05 
-8.7431798421e-06 -0.0047336911943 0.022750112263 0.019974929355 -0.01758995803 -0.016898682824 -0.019172044643 8.6473045286e-06 5.4530285778e-05 
2.0017241471e-07 -3.2718545119e-05 -0.015231327342 -0.01369217096 -0.015189040575 -5.8421818943e-06 2.8099138984e-05 3.118517177e-06 1.348710833e-05 
-0.019632456178 -0.01726057633 0.015028459191 -5.6492519029e-05 -2.1014304709e-05 2.1947402502e-05 -0.0014516596529 -0.00099725875464 3.6193803303e-05 
2.4038310287e-05 2.4602253603e-05 -0.00049071173383 -0.00027751405047 0.0032248929079 -0.018424082449 -0.017689524246 -0.020361526475 -0.019672617485 
-0.0010077374385 0.02084086905 0.030299877385 -0.0034159885479 0.016560057548 1.8215319937e-05 -6.6295404948e-06 0.0059965824028 -0.013728420387 
0.013128645795 -0.0052767868473 -0.0031253672128 -0.0049897875626 -0.0056035019223 -0.00014433911136 0.0005433809627 0.00060252392139 -3.3518809586e-05 
-0.002784231062 -0.0039480408919 -0.0033153016873 -0.0019006575487 1.3615419058e-05 -3.5285596775e-05 -5.6114117341e-06 3.1330988392e-05 2.2870296822e-05 
-0.0072929145257 -0.0054333531687 -1.4515746327e-05 1.0502051233e-05 -0.00016239484638 -0.00014660513953 -9.334888847e-06 -4.8067624144e-05 3.6340009827e-05 
7.9307254956e-05 -5.7355367183e-05 2.7356305864e-05 -0.00020803594363 -0.00046000098486 -2.0393781521e-05 -0.00016894168164 -9.920468351e-06 -0.00016120051768 
-0.012860885056 -0.015155231042 -0.009691570195 -0.0075613361186 -0.0090267571129 -0.022807791975 -0.0080528605717 0.014498412261 -3.0567407852e-07 
1.6044812001e-06 -0.014439985728 -0.014142133385 -0.0051687385592 -0.0016750355879 -4.6222569371e-06 0.00015814574767 -0.0001036599699 9.5733249046e-06 
1.8455695118e-05 -2.5775012026e-05 -0.0040858966575 -0.015754313724 -0.0099684305745 -0.0099759361006 -5.0246828617e-06 1.6104185524e-05 7.8143255072e-05 
1.4215843404e-05 1.9762859559e-06 -0.00030959216264 -0.00048710879982 -0.00023404099972 -5.4209587529e-05 -0.00018981311918 -0.00024435941101 -0.00011097137044 
-2.3078022215e-06 -4.2811738243e-05 -4.4938346744e-06 -8.6763420667e-08 -3.4899342037e-06 1.1989360708e-06 1.803651426e-05 0.013547272032 3.8066427149e-05 
-8.0701308975e-05 5.0051048703e-05 7.8223609354e-05 -1.9483678916e-06 -0.00010115968868 6.2862609087e-05 -5.8995315861e-06 -9.5706608969e-05 -0.00021320441111 
-0.013921963124 -0.0044831584787 3.859553182e-05 1.1903014307e-05 3.5492768994e-05 4.6987588571e-06 6.624967568e-05 4.149495828e-06 -6.4411523304e-05 
-0.00016282291545 7.58230511e-05 -0.00013472275972 9.9066882303e-06 -1.0660859836e-05 3.6609705652e-06 -0.0011795628774 -0.00060422123594 -0.0021782458694 
-0.001804079855 9.2669186848e-07 -3.4143988437e-05 3.5845183957e-06 3.0545268389e-05 -1.012234872e-06 -1.2724406855e-05 -1.4667336754e-06 2.2554309484e-06 
-0.00071565634885 -0.0012500969749 -0.0065818375135 -9.8996509689e-06 7.5079189803e-06 -1.958703414e-05 4.2774696778e-06 6.7145840528e-05 -0.00041068053165 
0.00044588903773 -0.023386458088 -5.2179014562e-06 0.00013808180693 1.8102256994e-05 -0.00014202628221 -0.00050610874597 -0.0014004707136 -0.00096759272226 
-0.001960724594 -0.0038578682566 -0.0032859207156 -0.0054618489683 0.00011809532546 0.00011714389675 -9.3570618397e-05 -2.9165249847e-05 7.4559851374e-05 
-4.0743700079e-05 4.2620367123e-05 7.7325577782e-06 6.8928906968e-06 1.8616371417e-06 -2.0816646044e-05 -0.0045718064388 -0.0028409590966 -0.0032738113853 
-0.011789874715 0.00048135858485 -4.567552591e-06 -9.1610320323e-05 1.3221736975e-05 -3.4394556655e-05 -6.6662227447e-06 -1.3042061559e-06 2.3372669021e-05 
-0.027518040013 -0.013919672937 -7.1051247061e-05 0.0076146553494 -0.0003772587757 -0.00038013545598 -7.2673934655e-05 -2.5911424411e-05 -0.010260810175 
-0.0093192575777 -0.010600865945 3.4034450509e-06 -2.2198935574e-05 4.4469022717e-05 -0.0093289739334 -0.008587096636 -0.010026242524 -0.00012798672357 
-0.00025398723492 1.6394847534e-05 -1.8981631147e-05 9.4416228866e-05 -4.2363239634e-05 -0.00016265650261 0.0003787372435 0.00097799725029 -0.0013694502796 
-0.0042715985733 -0.0048966019849 0.0011312317063 -0.0043021892187 -0.0015940030084 0.012577933506 -0.024230538448 -0.006770122022 -0.00011040568591 
0.00011750731685 -0.00015288773995 1.3178819175e-05 -1.1858670192e-05 3.963864797e-05 9.6630117907e-05 -2.356174432e-05 -0.0049265234161 -0.0038614444668 
0.00015039858871 0.00050792250478 -0.00022255832523 -0.00032281677796 0.00055981231945 -3.2165566719e-05 -0.00019551903962 4.3715722192e-05 -0.0015455224032 
0.0010456555317 -5.9496324561e-05 -5.1904140939e-05 -0.00013481509757 7.7320928182e-06 4.7049751439e-05 3.1260287491e-05 -0.0090989404372 -0.0040418812861 
0.00074481607343 -0.0095504585534 0.0018253910816 3.6112951969e-05 -0.01542669805 -0.01379662506 -0.01441082336 -0.017891495834 -0.016073565676 
-0.00018978257406 0.0001914000597 -4.5174387334e-05 -0.00015895044636 0.0002066683429 5.7194422363e-05 -0.00051467260773 -0.00041089710993 -0.0078393390158 
-0.008101430353 -0.004838350875 -0.0052101966395 0.0013949580227 -0.012003825477 -0.012762443623 -0.011356549176 -0.00083165344436 -8.9206514159e-05 
-0.00018104666838 -7.644540161e-05 -0.0080922725339 -0.0073592706918 -0.0091210661601 -0.0080403158203 -0.0097322149549 1.4421347716e-07 -1.9901541786e-06 
1.9307664049e-05 -0.0004895041897 -0.0010452667892 -0.0059044549526 0.0010931246037 -0.00067352869288 -0.00044623900848 -7.3534086923e-06 2.9109737813e-05 
-9.4445403479e-06 1.7867981204e-05 -0.011289157316 -2.8853667594e-05 -5.7061060886e-05 -0.010931932325 -0.011545300205 -0.010287496659 -0.044490432784 
-0.00042618146596 -0.00021534328737 -0.00025158964023 -0.00011824658094 -0.011922956859 -0.01358563387 -0.0009842806091 -0.0004914675038 -0.00035089415322 
4.8536454275e-06 -0.0090474153067 -0.009596077887 -0.010407473503 0.00032942975088 -0.0005677747545 -0.00040773411607 4.3582264771e-05 8.5100882344e-06 
-1.5092253113e-05 -8.0346446291e-05 1.7132002863e-05 5.2487061122e-05 -1.3115721002e-05 9.0414407524e-06 0.00027551298361 -0.00049117479089 -5.8988585619e-05 
-0.0003449523664 -0.00075697289413 -0.00074388276888 -1.750480005e-05 -0.0052684116632 0.015347277801 0.0001807910916 -0.00055343117426 0.0010080564331 
0.00081633592143 -3.0596969728e-05 0.00011785039283 -9.499167777e-05 -0.00060582355877 -0.00044003503286 0.0012820174564 -0.0038805001861 0.0018862810251 
0.023077743943 0.00021854407515 -4.5885539307e-05 0.00010376625531 -0.014488400869 -0.012219293189 -0.024842782684 -0.0089690285469 -0.00019966101251 
0.00032858788954 -0.010147007678 -0.010882514136 -0.008936983483 -0.014766534932 -0.014595123752 -0.014125092404 0.029592895659 -0.0070534095641 
0.030478198276 -0.0030152997511 -0.014533011002 1.128059719e-05 1.2635306373e-05 -0.00012335713004 0.00010459199346 -9.0051707897e-06 -0.0035769851258 
-0.0027652724059 -0.0028647575452 -0.013722331442 -0.013075799679 -0.012228879491 -0.00087441153991 -0.00069690678285 1.2842570968e-05 -7.5158848425e-05 
-0.010204586361 -0.0082470299744 -0.0077959645153 -0.0069489919366 -0.0084732016186 -0.016546675277 -0.019014215895 -0.02546081699 -0.019526624117 
-0.00026635016985 1.4876125235e-05 7.2721731791e-06 1.2459019451e-05 -2.8189730473e-06 -0.00019607603801 -0.00024026169901 4.3527332684e-05 -7.8712550326e-06 
4.6831646777e-05 -1.9831674943e-05 0.00017309094209 -6.4090037219e-05 0.00014169469913 2.6328442724e-06 1.7333607739e-05 -3.9762167228e-06 -1.9726730425e-06 
5.4032197518e-05 -1.5863345162e-05 -1.0143439723e-05 4.1819215862e-05 -1.5785303794e-05 5.0001289708e-05 -0.00011888700782 1.0465174088e-05 1.3513421582e-05 
-9.6993573969e-07 2.6893724616e-05 2.0384789754e-06 -6.5877523378e-06 3.0356398196e-05 2.2743035133e-05 -4.0130392084e-06 0.00010600741589 -0.00013006348105 
-0.009395685969 2.2525973045e-05 -0.00010495518129 -8.3953615434e-05 -0.00017234723321 -4.6602047196e-05 -0.0071141744849 -0.0063503562224 -0.024492839797 
-0.00072282134871 2.1192582491e-05 2.8943831539e-05 -2.7316232157e-05 5.5202622121e-05 6.4093156203e-06 -1.5108041002e-06 1.101913804e-05 9.0801000293e-05 
-0.0022450608316 -0.0024189192276 -0.001337932957 -0.0066507710737 -0.0040484784629 0.0039734938913 -0.0056889490823 -0.00026104609783 0.00019478465069 
2.6819575351e-05 -4.2117686385e-06 6.5242769098e-05 -7.8154717215e-05 -1.8257489063e-05 5.4348129553e-05 -4.544910117e-05 -0.0031991950073 -0.002868768266 
-0.0047904391471 -0.0033547549082 -0.0067115991999 6.360461784e-05 0.00018933456161 2.7722127277e-05 3.506539776e-05 2.1032792385e-05 3.9218910718e-06 
-2.1641047075e-05 1.9936867185e-05 1.50935247e-05 3.2963367629e-06 -0.0081862040857 -0.0097144026216 -0.0076677928642 9.5556174091e-05 2.0627977654e-05 
1.2837287026e-05 -1.6789100478e-05 9.9264602894e-07 -2.3079779638e-05 -1.6583686002e-05 0.0012369441683 -0.0003457693843 -0.00027394268676 3.3029891789e-05 
-3.4026139595e-05 2.1949301167e-05 -0.00013665099553 -0.00018206787324 -1.3937784528e-05 -2.4450484175e-05 7.7216460875e-06 -8.7454543235e-06 3.1180103785e-06 
1.6878958846e-05 -0.0012615597437 -0.0014725531287 -0.0078716897529 -0.00089158218276 -0.0047149848339 -0.00020308279888 -9.6387037692e-05 0.00013285291175 
-0.0001090454402 -0.00043953651162 -3.9254453688e-05 -0.0060371392907 -4.1986384056e-05 -0.0048951100417 -4.2234813583e-05 7.8120458421e-05 1.5346420627e-05 
7.3240783035e-06 -9.8364087854e-06 1.2490958278e-05 -1.5802797277e-05 -0.0019392742415 -0.0032684128597 0.00013026774321 -0.0020802669841 -7.6160578214e-05 
-1.0256745313e-05 3.4470242572e-05 1.0276073983e-05 5.0040222655e-05 6.3752198025e-06 -6.4800750209e-06 -0.00031895697068 -0.010619149479 -0.011296064262 
-0.0040776246103 -0.0062931197552 -0.0047024194954 6.2607442407e-06 -0.00035155585967 0.0013582877512 0.00060694074054 -0.023698560094 -0.00059951296713 
-0.00093772983894 -0.00043416505754 -0.017601756197 -0.017114096706 -0.020022011567 0.00012111429923 -8.4581064247e-06 2.7048656349e-05 7.1340846401e-06 
0.00012971864896 0.00024345901236 2.2134215375e-05 -1.0943100306e-05 1.1563448134e-05 -3.6498356928e-06 -0.012043763422 -0.012841914634 -0.011708958897 
-0.013629645928 -0.0092522254437 -0.00021654009892 -3.0679577737e-06 6.4239190905e-05 -1.5411676326e-05 6.4813716051e-05 -4.7580188384e-05 -0.02876476621 
0.027427789724 0.00010196363786 -3.5485471446e-05 5.6995639286e-05 0.012973318243 -0.0048531553905 -0.00014161034321 5.5297759958e-07 -3.047021671e-05 
0.00015729230194 0.00021643500709 -7.2557444136e-05 0.0004185988324 0.00085943263984 3.3479479593e-05 -4.8970012242e-05 1.2937642463e-05 -5.3102642716e-05 
-1.2650175213e-05 0.00023533931457 -2.9103820047e-05 0.00010082343543 -0.0012350503221 -0.0063495076707 -0.0053270779931 0.0006399689054 -0.0008416445459 
-0.00012619322926 -6.2386105362e-05 0.00015025662779 -0.0023782800659 0.00031369761081 4.501761259e-06 -0.0054838837167 -9.6362296783e-06 2.1431726088e-05 
-0.018910009929 -0.0076284132371 0.00014136492646 -3.2515567221e-05 -2.7490425404e-05 -0.012883693638 -4.9363012345e-07 -1.8286097534e-05 5.2463610719e-06 
1.7347733171e-05 4.6366851992e-05 -3.2501065877e-06 -7.175425109e-05 -0.0066012034721 1.1364781976e-05 0.003447055777 -0.0093801928057 -0.0097940585837 
-0.0071533925763 -0.0072735269359 -0.015628869463 -0.0084659053367 -0.0067045244337 -0.0089090364693 -0.0029095997766 -0.0030424846032 -0.0040417799975 
0.0036228672011 -0.0098449409911 -0.0087341577243 3.5418135854e-05 -4.025094621e-05 -0.00010229905281 -0.0099328969746 -0.0097866667806 -0.02311536177 
-0.025480407948 -0.025088095431 -7.9074854667e-05 0.00053485588075 -1.6705582864e-06 9.4518054637e-05 -7.8871180501e-05 -0.0043986386322 7.4229664642e-06 
-1.2915022796e-06 -0.0038947776009 -0.0032347039765 -0.00011759862302 -0.020674488232 -0.0019505524741 -0.0010629994937 -0.00062132603214 -0.00031884340797 
-0.014006663079 -0.014002335624 -0.015269836855 -0.015182110436 -3.8087431582e-05 1.8587255483e-05 -3.013817285e-05 -0.00063985234977 0.014721871265 
0.00039098904832 -0.0024414420734 -0.0028936310833 -0.014678257845 -9.2270804448e-05 3.4111688052e-05 3.2240194972e-05 3.8066165361e-06 -0.005811675765 
-0.00011328854215 -0.00022219153822 0.00034792533427 -0.011368568003 -0.0042044838798 0.00024882572866 -0.0091394201043 -0.001305295783 -3.7096185681e-05 
2.6190488218e-05 2.197267096e-05 2.4174745983e-05 -1.3179498232e-05 -1.0506879072e-05 1.2498802123e-06 -6.8261508685e-05 -1.5433144502e-06 -3.0129542311e-05 
-0.00041791739338 1.3544072728e-05 5.4515839398e-05 4.030747303e-05 -2.1032678635e-05 -0.011441340277 -0.010748070135 0.010348171997 9.9096276938e-06 
2.8468994402e-05 -0.0096439915213 -0.011352416284 -0.0086130815454 -0.010218789854 -0.0064938236 -0.017939030999 -0.016961444524 -0.018872306656 
-0.020074867603 -0.021259102292 7.6352341505e-05 0.037256562139 -0.00073247060546 3.9722078202e-05 -0.0056814591656 -0.0049795545512 -0.0036561089512 
-1.3116525969e-05 1.0867104821e-05 5.1842252434e-06 -4.0257719965e-06 -0.00013714876919 -0.0024505120552 -4.3967737654e-05 -0.0053906270569 -0.00061263374057 
-0.00082834937692 -0.01267013922 -0.012382076869 -0.00095921287231 -0.0013688173569 -3.1164964132e-05 1.1582140654e-05 7.9632954196e-05 -0.001608642605 
-0.0018649394156 -0.0055593999917 -0.00096666014667 -0.00059691526056 -0.00093655284723 -0.00065329449572 2.5740981753e-05 3.2875758203e-05 7.010758013e-06 
0.00011742769575 0.00053073182428 -0.0087398664874 -0.0073646793662 3.9844327821e-05 -8.6441667679e-05 0.011579028197 0.012458066978 -0.0051017740601 
-0.0056016824035 -0.0014244526107 -0.0032148728678 -5.3606364488e-05 0.00010047098619 -4.2504964192e-05 4.36322338e-05 -1.4388291635e-05 -0.044698217877 
0.042171905859 -9.4374102511e-06 8.1950870111e-06 -0.0048068972071 -0.004626683495 -2.3468214577e-05 -2.8608427163e-06 4.999120132e-05 -3.464777614e-05 
8.1946043332e-06 -5.1068409441e-05 4.8528708329e-05 -0.00011911970283 9.5064426756e-05 -0.0011700024675 -0.0012741106531 -0.0029867146753 -3.9514479723e-05 
-9.0898873933e-05 8.7551073567e-05 -5.8762298082e-06 4.0680537627e-05 1.7870170484e-05 -5.1357644524e-07 -0.011432196453 -0.020585338675 -0.018023754039 
-0.0085442802171 -0.0036609479064 0.0017507584418 9.6480106076e-06 2.6927500079e-07 -0.00010200479908 4.8677246477e-05 -2.8419579902e-05 -6.1711257673e-05 
-0.0009014734433 -0.0001041429215 -5.0690599327e-06 -3.5053396161e-05 1.7780814932e-05 -0.009729714634 -1.4213410122e-05 -2.2800027238e-05 -1.4783480477e-05 
-0.023275687272 1.7862599133e-05 1.5797203631e-05 -2.4667453915e-05 1.9209782427e-05 -0.00030913798268 -0.00018575270287 -0.00027044136717 -0.0036763575906 
-0.00041723796985 -0.00073911932073 -2.0075436471e-05 2.4732635689e-06 -0.00013656683194 1.6400135157e-05 1.8570721249e-05 -0.010492205963 -0.0015793976961 
-0.0012540692976 -0.0018590582881 -0.00037674215877 -0.0039844327505 -0.0038660738297 -0.0017157833014 -0.010628809673 -0.00021209555365 -0.000117743679 
-0.0043264882437 -0.0093211758424 -0.0012389794307 -0.0072687893655 -0.00039011678382 -2.317022774e-06 -0.00013204424105 -0.0056970021923 0.00013328037024 
1.8826183366e-06 -0.00011440302424 -0.00010888214533 -0.0036767482272 -3.4344791523e-05 8.0646967637e-06 -2.875667487e-05 -0.0028856444369 -0.0015843415989 
-4.0655131945e-05 -3.3518893607e-05 3.5962722661e-06 -0.007970145642 -0.0068170604938 0.00022713377307 -0.0038815526524 -0.0064914915379 2.1050079024e-05 
2.7251874089e-05 1.5388799021e-05 -2.4045174228e-05 3.2066827635e-05 2.5601617152e-05 -2.2932049647e-06 -0.0018918796777 0.00028798958243 -0.0024304907348 
-0.0026120515193 -3.5379698117e-06 -1.0534678818e-05 1.7098861048e-06 4.3234958427e-05 2.2769868218e-05 -4.2393975201e-05 0.0001543863803 0.00012422807404 
2.37557749e-05 -0.005303997397 -0.0085164835132 -0.0082171898035 0.00028600552802 -8.0034964217e-05 -0.0004170004095 0.00021055079853 -0.01286860441 
-0.01202564929 -0.013018322402 -0.013767902959 -0.013958879914 -0.0045363721527 -0.0042086933952 1.9998323051e-05 4.4310795235e-05 2.5925764943e-05 
-0.00012023384854 -0.0021690587008 -0.0018562591717 -0.0026830163533 -0.011472663849 -0.0076462498449 0.020500543538 -0.0122159477 -0.015042872141 
-0.012097815153 2.0255156217e-05 2.4648610167e-05 9.122151829e-06 -0.0014177511634 -0.0016772649148 -0.00018516239733 -5.7659133816e-05 -0.01931098538 
-0.019218773828 5.1010940601e-05 -0.00012873421114 -2.8920297404e-05 -0.0028565557098 -0.0024812344911 -0.0082612660029 -0.010015831172 -0.00011984542608 
-6.3648247296e-05 -0.0069936864677 -0.0061991712631 -0.0077074320631 -0.0065333602377 3.9003456403e-05 -1.2699660632e-05 3.0673108803e-06 -1.9230385185e-05 
-0.027458909839 -0.028418454244 -0.00023108941448 -0.00017821865298 1.1659160532e-05 -0.00033959088328 0.00024085066545 -0.010842426952 0.0002206076605 
2.3132520358e-05 -4.8031289254e-05 6.6749856245e-05 -3.2146804968e-05 -1.3952286637e-05 -0.00051733001496 -0.00018046946221 -0.0054968392076 -0.0071889509842 
-0.0067479721114 -0.0032969553519 -0.0044700563659 -0.0037134546085 -7.9340821679e-05 -4.8163366443e-05 1.4964534611e-06 -0.00018451873546 0.00025078676528 
-0.00080727867709 -0.0011152550241 -0.014785272388 -0.0081361456958 -0.016201838311 -0.00074995966157 -0.00041117357407 0.00021309638521 -7.6284647648e-06 
-3.8904541063e-05 -5.2971870797e-05 -0.0057941108035 -0.0055091471696 5.8567586627e-06 4.357140638e-06 5.4931736419e-06 1.3702439129e-05 4.4649550065e-06 
-0.0075901363973 -0.0077701750862 -0.0088335093888 -0.0056966473701 -0.0052672073934 -0.0014438633067 -0.025953899449 -0.0069963737584 -8.3952598976e-05 
5.5877759889e-05 -0.008603810659 -0.0094540787039 -0.0039675063934 0.00053214734848 -0.00034198028082 0.00042295658762 -3.2826830177e-05 -4.1360500227e-06 
-3.6743646943e-05 -0.00011412283677 1.991780805e-05 -4.9693511105e-05 -7.7686028143e-05 -0.00048074463576 -0.00014453712222 1.3610876736e-05 -0.004934505158 
-0.0026179075863 -0.0017179579416 -0.0029467162508 -0.006545101342 -0.0050741071331 -0.003670315628 1.8908009431e-05 2.6430814791e-05 -1.9298628529e-05 
3.2786740194e-05 0.00019281945415 -8.8772214143e-07 -6.1577038913e-05 -7.4365700845e-05 -4.9076571906e-05 -0.00012027557411 0.00015417052241 0.00031799374141 
-0.00014539148498 0.017722157317 7.8645573948e-05 0.0087318953056 2.5414931878e-05 0.00019877080159 -4.1558240273e-05 4.4916171197e-05 -6.4851856391e-06 
-0.0079754853905 -0.0090938443853 -0.013272801892 -0.0015432179751 -0.0016620279625 -0.0027745693565 2.0066856059e-06 -0.0001099597685 -0.00028420209165 
3.1681203516e-05 -4.5829952467e-06 4.4585143882e-06 -0.007977989338 -0.0065827616105 -0.0013586699117 -0.0010287047199 -2.3595948332e-05 -2.1650757365e-05 
-0.0003273894399 -0.00015204122081 3.7273939035e-06 5.9584515168e-05 4.3122093586e-06 4.574870933e-05 -8.030617394e-05 2.1332307802e-05 3.7122262696e-05 
-5.264865043e-05 -0.014527771008 -0.013976620658 5.0084981458e-05 0.00013286253894 0.00081824365864 0.00095114650428 -0.015258586811 7.148012456e-05 
5.1574936083e-05 -2.24218017e-05 -3.6130780983e-05 4.7819761274e-05 -0.0023843306041 -8.3084564403e-05 -0.0024910829282 -2.2501325103e-05 -2.7222730021e-05 
-0.022472451968 -0.023747151883 -0.021451088123 -0.0059057874643 0.00075148648598 0.00014177923842 1.0645418553e-05 -0.0056164461691 -0.0050592275962 
7.2078088679e-06 -0.0029199175999 -0.014806298219 -0.010261857997 -1.0806088065e-05 2.9302249861e-05 2.0936888185e-06 -6.7382779393e-05 4.3840212942e-05 
4.4058090791e-05 0.00018038835458 -3.8614848165e-05 0.010397521212 2.4984905909e-05 -7.1792004292e-05 0.00025080550761 -0.0021664034336 -2.0634014056e-05 
-2.6043383439e-05 -5.8820104443e-06 0.00021215645616 -0.013482364276 -0.012646290896 0.00014383462935 3.4229413257e-05 -0.022721978255 -8.3652491117e-06 
6.9064874335e-05 -2.7173944062e-05 -4.3044512357e-05 -6.4618854246e-05 7.0754704478e-06 -0.0025719715222 -0.0047000422137 -0.0040524651814 5.774875411e-06 
-5.7206946433e-05 -0.0151357402 -0.01167111125 -0.00025065515943 -0.0026270346208 -0.002820516949 -0.016248875473 0.020784094032 -0.0092282473354 
0.018154725142 -0.001948609587 -0.0010016149067 -4.0973938711e-05 -0.0004249219267 -3.1681783779e-05 -0.00015778905351 8.7667612969e-05 -0.017966976508 
-0.01655376232 2.1539844982e-05 -4.4568282908e-05 -7.5288179452e-05 -4.6260233728e-05 -3.6277362099e-05 -1.8546303815e-06 1.6327283526e-05 2.5377990393e-05 
-1.2817266794e-06 -0.00093775580982 -2.4426340611e-06 5.0711164614e-05 -3.0193280352e-05 -1.1974754633e-05 2.4165432619e-05 -0.0050118406128 -0.01037817548 
9.6080365006e-05 -0.0065397056205 -0.0098342221766 -0.00082859083462 -0.00035481705514 -0.00066929626353 -1.8962109502e-05 -0.007748763122 -0.0065723432938 
-0.0061705547769 -7.335067612e-05 -0.0092132192221 -0.0099704836558 9.9045900788e-05 -3.37842434e-05 -1.452266639e-05 -2.8133054296e-05 -0.00014651347074 
0.00069520806599 -0.00015593268954 0.00071887549781 -1.6644747309e-05 -1.8824791535e-05 -1.6617552779e-05 -2.461812077e-05 -0.012781510294 -0.014437958131 
-0.0091622342764 -8.8905966682e-05 1.7804109843e-05 -4.372961462e-05 -0.0069929376562 -0.00042900066281 -0.0080371840177 -0.0054999051469 -0.0047795441435 
-0.0035885411616 1.1657006382e-05 -4.4126905623e-05 -0.00018221542901 -0.0034955739441 -0.006274430654 2.2341890475e-05 6.5024825969e-05 -1.4925425229e-05 
1.1449609096e-05 1.7399225843e-05 3.7569984654e-06 -0.0052340581639 -0.00015435511422 -7.6123900554e-06 6.1805961509e-05 -2.3935270971e-05 3.4895474076e-05 
0.0013070418176 -0.0047234123069 -0.0018660494025 -0.0018043683269 -0.0039576324604 2.4964673751e-07 -9.9291591977e-05 4.1508417731e-05 -2.1385800797e-05 
-0.00010402992111 0.00033993733384 -0.00052144879414 4.3883054907e-05 -0.010681832576 -0.0094623351368 -1.3867774707e-05 -2.7958422971e-05 1.2454707805e-05 
-2.2060172298e-06 -5.0478035788e-07 -0.00018056312319 -0.0001697077112 -0.0015214220381 -0.0029625834033 -0.0010948865304 7.1179254144e-05 1.0586359811e-05 
5.0328069779e-05 -0.0052890744184 1.018614074e-05 -1.1694759171e-05 1.5591226457e-05 -9.0983851223e-05 3.3766013791e-05 -0.006615244591 -0.022400009488 
-0.025059587253 -0.024295234611 -6.181929267e-05 -0.020357596526 -0.02188563784 8.7857919137e-06 -0.018354554234 -0.02010645423 -1.8537410779e-05 
7.0680428616e-05 7.5917557982e-05 -0.00012340951933 -0.0020262653989 -0.0016212116819 8.0844225196e-07 2.270269364e-05 -0.011379325349 -0.012368353746 
-1.9751928286e-05 -4.9920377226e-06 -1.9587134838e-05 -0.0012789584584 -0.00038818837399 0.0067424725711 -0.002650752857 0.00038395041171 7.4728795101e-05 
-8.001806438e-06 0.00044480814537 -0.0041495647952 -0.0022837916608 -0.00049266549777 0.00040748305917 -6.0143831172e-05 -0.00011340790965 -0.002365692579 
-0.0019413819414 0.00035873779863 0.00011026513191 0.00038267970687 -7.622288095e-05 -5.6997718108e-05 0.0013291452637 -0.0058560668075 -0.0089966610316 
-0.007531670857 -0.011497780016 -0.00012158388769 -0.00067379794185 -0.010572313229 -0.0089709389017 7.3195747239e-06 6.5184559757e-07 -5.7753824552e-06 
-5.8488926658e-05 -0.00011868112432 -9.0323381777e-05 5.3659512308e-05 -0.00033087182084 -0.00022203261796 -2.4810974139e-05 1.5052747014e-05 -0.014071450962 
-0.014403522139 -6.8606063474e-05 0.00014309522756 -3.538234378e-06 -7.0992655179e-05 1.8732401473e-05 -0.012247397043 -0.014002331142 -0.013071728014 
7.1573293478e-05 8.6747219672e-05 -0.0032797782871 -0.0049770363734 -0.00044142889379 -7.2297585794e-05 3.9628723464e-05 6.3718222118e-05 -4.8401297172e-05 
-0.00078514667273 -0.0015725043527 -5.0540667024e-05 -0.0071850302201 1.9936461033e-06 -1.9759759587e-06 -1.203878371e-05 -0.00028799848146 -0.00037663303244 
0.0085523608213 0.0014193925432 1.0847242731e-05 2.2186352913e-09 2.3755005337e-06 0.00072829660108 -0.017874210629 -0.021139813772 -0.0032801092752 
-0.00062472574669 -2.2565427954e-05 -0.0023453909298 5.8372658846e-05 -3.2650949025e-05 -0.007430739586 -0.00082180872089 -0.0062715904072 -7.4859571775e-05 
1.8531404009e-07 0.00011452070352 -0.019535240931 5.7858474944e-05 -0.00011491229169 8.0461842416e-05 0.0095732657361 -0.0064066961513 -0.020760060462 
0.00038400563811 2.1545346114e-05 -1.6406976919e-05 1.6152409882e-06 -7.5084829584e-06 1.6990044525e-05 -4.7138684867e-05 -0.00010108261583 -2.4868673667e-05 
3.2353851292e-05 -0.0038052427446 -9.8638050119e-06 -0.022658978029 -0.02707722797 -0.014712499883 -4.2791738355e-05 8.0973216812e-05 0.0040684656241 
-0.019684549222 3.3609716829e-05 -5.8750846746e-05 6.2217242932e-05 0.020983120285 0.0077201807894 -0.00047599830727 -0.0045743595134 -0.021644343128 
-0.019718039339 -0.0214653819 -0.021059313867 0.052632113513 0.02402000101 0.0011185841373 -0.00034468999432 -1.8647742134e-05 -1.0084417756e-05 
-0.005086358811 -0.0057934443304 -0.010283143066 -4.0185997666e-05 4.1496466079e-05 2.4831859694e-05 4.2266956336e-06 -3.0493249454e-05 -0.018817862586 
-2.047678072e-05 8.7523003552e-06 -0.029920224002 -1.2989454788e-05 -2.1923308575e-05 4.523434185e-05 -1.0864804097e-05 -0.00076301817605 -0.00052397341319 
0.016161086313 0.025954200333 -0.0033586827783 0.018409175528 -2.3043274053e-06 2.1068837154e-05 -1.5688511201e-05 -3.5026669484e-06 1.2665048707e-05 
-1.0821742948e-05 -8.7311695043e-05 -0.0012097579777 -0.00058674837841 -0.0018652812295 -0.00097691214125 -0.00034667977942 -0.00017677727218 -0.0002039100526 
-0.0011358959418 -0.0066023848297 -2.0996060183e-06 1.9285768895e-05 -8.9550262061e-06 1.3822905505e-05 -0.017825867442 -0.016981780459 -0.019269508285 
1.2663414667e-05 1.6101842832e-06 7.4225829095e-06 -2.3384611886e-05 -0.0016085207665 -0.024447798505 -0.014472120143 -0.025926265237 -0.0061274485745 
-0.023248691075 -0.016408004803 0.00021692668937 -0.0052020390839 -0.0036478598058 -0.0092951746101 -0.0028337989253 0.0028311274027 5.1611779778e-06 
7.3458938119e-05 4.9260516654e-05 -2.0232987471e-05 8.6140558335e-06 -3.6807124631e-05 1.6954917969e-05 -9.9758955546e-07 -3.4718371331e-05 -2.9185539654e-07 
-0.00081967546191 -4.9978674718e-06 -9.8069113392e-05 1.7173309745e-05 1.8266930029e-05 -0.00041977459686 -0.00038217721894 -0.00028282368564 -0.00080418344539 
0.0029054291553 4.6084571696e-06 -1.6862166687e-05 1.0808336504e-05 3.8440214238e-05 -4.7372055955e-06 -1.1050806128e-05 -2.3536368269e-05 3.4473741396e-05 
-0.0034355604378 -0.0036325431734 -4.1727461009e-06 -1.9872157715e-05 -0.0057623634549 -0.0049636404689 -0.0057311116032 -0.0049364553731 -0.0086018649911 
-8.3995154717e-05 -0.0069450560815 -0.0042053689272 -0.0069171662391 -0.0041254577583 -0.00014058458595 7.3410384453e-06 -7.077331112e-06 0.0043156069221 
-4.4515201119e-05 6.8185030097e-07 -0.014933721131 -0.0025400956599 -0.0016125387639 -3.2099361963e-05 2.4728153105e-05 9.1505463778e-06 2.7171461705e-05 
-0.0018571969174 -0.0030218909618 -0.0017834952075 -0.00070198599737 -1.4135876293e-06 -4.3488394565e-05 2.8147597352e-05 -0.0039805626794 -0.0031988764322 
-0.016463880839 4.88643818e-05 -3.39558043e-06 -2.2512399514e-06 -2.427200637e-05 6.1371776305e-05 -2.9663119083e-06 8.2719122885e-06 0.00090911146565 
1.6164932922e-06 0.0015443152194 0.00056636512109 -0.010368921525 -0.0090560254623 -0.011693635752 -0.012815387744 -0.0080731807036 -0.0090984076741 
-0.0071430906373 -4.0365742017e-06 -3.36680024e-05 0.0045273372413 -0.0016415570718 -0.0060060200167 -0.0077694280408 -3.120593028e-05 -0.0038713656052 
9.0508242692e-05 -1.1671352155e-05 3.1888428289e-06 -4.8291988951e-05 0.00013971621546 1.319259928e-06 -6.7558913142e-06 -0.0097898969417 -7.6757135026e-05 
9.6942295046e-06 -1.4715980205e-05 1.6327392411e-05 1.8844614067e-06 9.1836086613e-07 -0.014223332999 -0.011038845827 -8.2772319309e-05 -0.0070885959612 
-0.0041108928553 -0.0044957793359 -0.0058768480741 -0.008264390483 1.7867061537e-05 2.6969183811e-05 -3.746010127e-05 -1.35278263e-05 -1.7241242898e-05 
8.6160395201e-06 -0.014991380028 -0.015456016159 1.3849818676e-05 -0.013529040447 -3.8996883607e-05 5.3593989984e-06 -0.0014212808978 -5.3036943216e-05 
-0.0015438689517 0.00017651438324 5.7151889991e-06 -0.011006326833 -0.0012775045014 -0.0039887869897 0.00068075721449 -0.00070215380516 -0.0025432149569 
-0.0042899829948 -0.0056356467932 9.5590062633e-06 -1.9555874208e-06 8.8863843056e-06 -0.013864886605 0.00069979963328 -0.021082608788 -0.017694329082 
-0.00096797498733 -0.011292308206 -3.6038307874e-05 -0.013770737809 -0.012910636976 0.00015062051563 5.9053100244e-06 -9.2032722665e-06 -0.00013018197895 
-0.00011882679145 7.5375696861e-06 4.1072958523e-06 0.009559734246 -0.015048480196 -3.4681368432e-05 -0.0074952573659 1.6253564753e-05 -1.9662820761e-05 
-7.0889307914e-05 -6.7427238934e-05 -9.9697223216e-05 0.00011979904837 -0.000265903069 3.1128292437e-05 -0.0018507203296 -0.0032307642449 -0.0086188325637 
-0.0061423521999 -6.6147011746e-06 -1.4268599404e-05 -0.0006165778947 -0.00035379058953 -3.3686351983e-05 -0.0055675538093 -3.1222949046e-05 -0.0033252726729 
-0.001673639147 -0.0013040582692 -0.0084204841856 -0.0061450354704 -0.0063208268988 -0.021337909899 -0.020817146282 -0.01971323346 -0.01938236991 
-7.2157014256e-05 4.7564325371e-06 4.2110908307e-06 4.1118465807e-05 -3.7746925986e-05 6.0863808313e-05 1.3341016805e-05 -1.918301556e-05 -6.241964928e-06 
-1.9591946428e-05 -0.0099284100603 2.156497822e-05 -0.00033710974594 2.1014274606e-06 -1.1999777093e-07 -1.0853590762e-05 -3.0084080706e-05 -9.6765139359e-05 
0.0019178671604 2.1653535833e-05 -6.0040735839e-06 4.9950888989e-05 -0.00010725900044 1.8009844907e-06 1.1240380919e-05 -0.00013285354743 -4.5457758667e-06 
-0.00015138119608 -0.0030934701266 -0.008968322312 -0.0072211381551 -0.010081741716 -0.0081024852658 -0.013611792492 -8.0097577076e-06 0.00013324602776 
-1.4456489351e-05 -0.013285901115 -1.5324141937e-05 -1.5507065581e-05 0.00019115281368 -0.0053115484603 -0.006308061556 1.9763847233e-05 -1.4505530149e-05 
6.4183396773e-06 -0.025853900865 -0.02590883424 -0.0087824442259 -0.00094347563841 -3.039525245e-06 -0.0048624610277 -1.1474436846e-05 4.6940394609e-06 
-0.00013442802921 -8.0932102246e-05 -0.00033240019693 -0.012776788469 -0.012748631526 3.0296506829e-06 -3.6194662808e-05 -0.00019155892506 -0.00027475206117 
-0.012127548107 -0.0013572770839 0.00041761004837 -0.00080479863886 -4.4092424623e-06 5.4533735687e-06 1.6658935261e-06 -0.0086316368649 3.3302017992e-05 
-8.5108482881e-06 2.2237847541e-05 -0.0031394412467 -0.0033417543442 -0.00041369364259 -0.0098969016328 -2.9899257109e-05 4.1317207749e-05 0.00011202474601 
-6.4441400172e-05 -0.0059066122894 -0.0019298934219 -9.3988324068e-06 -0.021677548087 -0.0034691671804 -0.0013247091363 2.1887993342e-06 -6.445112255e-05 
1.5423963526e-05 -0.00010137974991 8.8998044915e-05 -4.2999880247e-05 -0.00010975839562 -5.2810626577e-05 -3.6237444611e-05 2.7909162758e-05 -6.6700525103e-06 
0.00016887894396 -8.6014211067e-05 -0.00011223519187 -0.0030187862569 -0.0026865327247 6.5229172486e-05 -6.6751712069e-05 2.1031701495e-05 1.6867351823e-05 
6.9534907731e-05 -0.00059932582792 3.8269180646e-05 -0.0097745706252 -4.9408392206e-05 -9.2062392605e-05 -0.017014329163 -0.0004894192066 0.00048913190818 
0.0016478041933 -0.014090845345 -0.00017977115351 -0.012213334282 -0.0034564689485 -5.7880929928e-06 0.0020148252155 5.3738653518e-05 3.9882581535e-05 
1.4930574401e-05 -9.7138748643e-05 -9.0273189185e-06 4.1359373444e-06 -4.5911993119e-06 -0.0017154849015 -0.0013046130344 -0.0018466195318 0.00089193573887 
2.5500434617e-05 4.1878043624e-06 1.4784664828e-05 -4.6608184303e-05 5.0231108038e-05 1.2588123642e-06 -0.00010821030462 2.6295674795e-05 -0.00010723221582 
-4.6640395277e-05 -9.7245718143e-06 -7.2543804236e-05 -2.2340131108e-05 -0.00077917463642 -0.00041716642552 6.0290125185e-05 2.04034454e-05 -7.8459922876e-07 
-0.0048847736769 -0.0043088277023 -0.0037007206828 -0.0030257243855 6.4964818747e-05 -0.005498865259 -0.0053092760871 -0.00010528787306 0.00011991849248 
-3.3580123075e-05 -2.6491362588e-05 -9.7791965173e-05 -2.314758607e-07 0.0084360954567 -3.7507808373e-05 2.2953253427e-06 4.3651580936e-05 -0.00016391008954 
-1.1868364902e-05 -0.007487967124 -0.0073150433783 -0.03301225476 -0.046584009309 -0.067957348522 -0.055570994169 -0.0033833208541 -1.3042819632e-05 
-0.00093949307511 -3.4841634753e-05 -0.020143759415 -0.012244741121 1.2500659063e-05 -0.013594820207 -1.9318261701e-06 -2.2792077646e-05 1.1439011016e-05 
-0.00013984883839 -2.0001930901e-05 -0.012010664325 7.9732416898e-05 -0.0082636446141 -0.0067013025135 -0.00021243848195 -1.8354105801e-05 -0.00066491242682 
-0.023682249843 -4.5031617874e-05 -0.0043606874688 -0.0024004003362 -0.0019888422346 -1.6919227672e-05 -9.7209619725e-05 2.2038953781e-05 -0.00032424914474 
-3.1871315406e-05 -8.647993486e-05 -2.3454486142e-06 2.679622252e-05 -2.3533891866e-05 7.7080382684e-05 -8.8522055925e-05 8.3302253237e-05 -1.4991630085e-05 
0.00012957388022 -8.5409531151e-05 1.1580626655e-05 5.9403891867e-06 -0.011360048914 -0.01271984862 3.2135315259e-05 1.9015247639e-05 4.9653189144e-05 
-0.013058225794 -3.1087017886e-05 -1.6955089924e-05 0.0062565465384 -0.0070891145841 -1.5368782905e-05 -1.6011569888e-06 2.7707521986e-06 -0.0073716728484 
-0.00022219901457 -0.013173589796 -0.001329552513 -1.1301922993e-05 -3.9487331574e-05 -2.942149825e-06 2.3184042623e-05 -0.016681673551 8.2090771986e-06 
-6.4620290058e-05 -0.0041518523069 -0.0020644333905 -0.0043037449132 6.5436107116e-05 -4.7387724176e-05 -0.0015205589551 2.0145534193e-05 0.011954619463 
-0.016023891305 -9.5318432905e-06 -2.1206385254e-05 -0.013723448308 -7.8851542328e-05 -3.5210409059e-05 0.00012153986805 0.0080494603339 0.00011776259208 
-4.6305652485e-05 7.64650534e-05 0.00016131370506 0.0082492496064 0.0087343664237 1.5085211733e-06 -0.00050534094813 0.0014309928515 -0.0012128742936 
-1.3725395887e-05 -1.4830064968e-05 3.2543583294e-05 -4.4315430432e-05 0.00026859577108 -0.015985050312 -0.015307420657 -0.017778990399 -0.017157958053 
-0.0015415871561 -0.0010971605722 0.00025330843728 5.5887735286e-07 -3.2371343384e-05 -0.00010632469569 -0.00010323254327 -0.00013086903576 -1.3197906576e-05 
-3.2871182046e-05 0.00019288254572 -4.0279942679e-05 -3.2541830036e-05 7.2411815225e-05 0.00047997893358 -0.021450089973 -0.02033360314 4.0892811479e-05 
-0.0067006029699 0.0086248650982 -0.0023195203861 -6.5952218007e-05 -6.9658145631e-05 0.00035746235736 3.5642067845e-05 8.1854725115e-05 2.3144715508e-05 
-1.2466162775e-05 -2.7511060605e-05 -5.1452012011e-05 6.6032707774e-07 -0.02402192943 -0.02629106216 -0.0083536856561 -0.009904432915 -0.0085056489976 
0.00011377609301 -0.0033596958074 -0.0012031553486 -0.014721795238 -0.018908884295 -2.6948343634e-05 -0.00020269863561 -0.0017542582163 -0.0019910848287 
-4.3439518099e-06 8.1970126288e-06 -4.284734078e-09 -0.010615069654 -0.020134648461 -0.0032520464742 -1.4747016011e-05 1.1743066048e-05 1.2316771533e-05 
4.2062208723e-05 -0.00060484772074 -0.00045596218042 -0.02138143011 -0.0053948817188 -0.0033770314251 -0.0036171606205 0.010616012059 0.0083734203081 
-0.00053455840716 -0.001690179592 -2.3767450765e-05 -2.1764005638e-06 -0.0013931676025 0.036031044004 -0.047125596736 4.3160934568e-05 9.7225443664e-06 
-0.00011743476503 -0.0019544542176 3.9239719284e-05 -0.00011130689783 0.00012611262693 -0.0013813805902 -0.0065326349439 -4.1392310873e-06 -7.5012302256e-08 
0.00012034342639 -0.00054849044176 -0.028417025889 -0.0046277643101 -0.011200537747 3.3890037891e-05 -5.091788908e-05 2.481773126e-05 -0.001422335495 
-1.7100975505e-05 1.670717974e-05 -2.1635797715e-05 9.4394966259e-06 -3.8621509168e-05 -0.0048544777121 -0.00028808524915 2.4031844043e-05 8.3015856375e-06 
-0.024765352945 9.7875742776e-05 0.00010952223624 -1.0650507253e-05 -3.3828914817e-05 -0.00033332051847 -0.0001308412482 0.00011080308091 1.5294898165e-05 
6.7964293286e-06 -7.5417962426e-07 6.3548301124e-06 -0.025236118024 -0.0094617583512 -0.013186768036 0.00026337601924 -2.4466066036e-05 -2.1758995508e-06 
5.9450576916e-05 -1.0294237022e-05 -0.007104068184 -0.005684499557 -0.022837473021 -1.7136922802e-05 -0.00010288555064 -0.00014457578506 -0.00028125016929 
-0.006357679449 -0.010716432276 -0.041388288012 0.00020764098201 -0.012453551246 8.4751670821e-05 -0.004713666711 -0.0042497025351 -9.8604835876e-06 
-0.00010011354775 -0.00013456949426 1.0983865318e-05 3.1373263209e-05 -1.3241271335e-05 4.6991093371e-05 1.9375134971e-05 -4.672643025e-05 0.00025028300611 
-0.018491799806 -0.0065550575652 -0.019704899363 -8.8865869375e-07 3.4787568985e-06 6.6914520744e-06 5.5169376537e-05 -5.363615245e-05 -0.00046774541009 
0.00095943624377 0.00023310935525 0.00071401050267 -0.0085722469451 -0.00530853891 0.0246746754 -0.00016242937726 -0.00023179720138 -0.0017133525975 
6.6469929298e-05 2.5122180496e-05 0.021577900115 0.00026582535004 9.5569932195e-05 0.00010505388221 -1.3604837031e-05 -5.3720646649e-06 -0.02590147267 
-0.0044831355905 -0.014324660223 0.00061944554302 -0.0057094056348 -0.00019681158375 -0.020696418734 -0.015887079217 -0.010956409379 -1.4230823596e-05 
4.2822946512e-05 -8.3763619083e-06 -0.024339951037 -0.0041937028376 -0.017883090473 -0.015011459254 -0.012057226215 0.00014581147277 -6.7261472818e-05 
-0.021274712702 -5.0436441693e-05 1.5578703732e-05 9.1109849329e-06 -0.00012747708719 3.0048537465e-05 7.5059247635e-05 -0.00014994991284 -0.025529472036 
-0.00011806634992 9.3009559453e-05 -8.373820602e-06 -0.0080597502273 -0.0068634250018 0.00016482746816 -6.3652935929e-07 -0.00020827606362 -4.0934043115e-05 
0.00014589698061 2.1424334111e-05 -4.7239382673e-05 3.5853881954e-05 -1.5463344245e-05 -0.0046200442557 3.6062432998e-05 1.3177608793e-05 -9.9520728553e-05 
-0.00040998662267 -0.00049569255724 -0.00019106818218 -0.00062120310333 0.00010064499391 7.8291413911e-05 -0.00088192093447 -0.00011356169882 -0.0001362710376 
-0.0013697127874 -0.00035066096897 6.8935584265e-06 -0.00033253511285 0.0002866588139 -0.013249500632 -0.0023850024337 -0.00027044055231 -0.00076867713397 
-0.00011227919211 -1.3850469943e-05 2.9635972852e-06 4.0247995867e-06 -0.027257321355 0.00057802268829 -0.00019161569862 0.0026358113363 -0.0045248909648 
-0.00042931476448 -0.0065559706909 2.9795717264e-05 0.00013889967337 -8.2659871267e-05 3.082777444e-05 -0.027134650688 -0.0075738706661 0.00036399366966 
-0.01385515452 -0.0095340444228 -0.010782604435 -0.011522339435 1.0545203751e-05 4.0219519835e-05 -5.4565078199e-05 -8.4280421811e-05 2.9424243514e-06 
2.5024378347e-05 3.8607840258e-05 -0.0016195527663 -0.0011256952991 -0.0062301614543 9.1510375269e-06 -0.015250758171 -0.01662741303 -9.0899277498e-06 
-0.0013893624881 -9.2874516131e-05 -0.0096986489257 -3.5769763346e-05 -1.1672754713e-05 1.3864175313e-05 0.0001768640536 -4.1329414725e-05 9.2051228435e-06 
-1.1305768242e-05 -0.0053524248368 8.7185340982e-05 2.2833653415e-05 0.010075502433 -0.0076612003143 0.010469206675 0.0076277789112 0.00010655517957 
8.7926921439e-06 1.1491132659e-05 8.5618509442e-07 -0.01228022888 -0.0011938484612 -0.003868914678 -0.0098102838824 2.1718874005e-06 8.7111841771e-06 
1.3153795591e-05 -0.0017228665867 -1.6083491037e-05 -6.2331747071e-05 -0.00020159703675 4.5998031369e-05 2.4243029585e-05 -2.5236901892e-05 -9.2623455539e-05 
-1.148676133e-05 -0.0016551981577 0.0015401398734 -0.0045903840064 3.4317299209e-06 -1.4429032846e-05 2.8930160774e-05 1.7405485238e-05 -0.0025666579298 
-2.1437291735e-05 -0.018943532782 -0.0069595064362 -0.0090375896715 -0.021220759343 -0.00010060565225 -0.010843704989 -0.014564380051 -0.00014356350721 
-0.0083281948028 3.6243304881e-06 -0.015302054784 -0.017397559622 -0.019425956449 -0.01873113605 -0.023742626049 -0.0020454800538 -0.0039977802785 
-2.7828842493e-05 -0.016726419827 0.0071405051924 4.9829275909e-06 -0.0087177166497 -0.00047660525639 1.7281102495e-05 -0.0014891861029 -0.0036940849759 
-0.00042764465242 1.4533802596e-05 -0.00051435885961 8.2014932419e-05 -0.00010069522317 5.6283927489e-05 1.2614417367e-05 1.6173365286e-05 -0.00027779091096 
-0.0065656875961 -4.6168234574e-06 -2.0129759232e-05 -1.5782479457e-05 0.00019707090611 0.00020844374602 -0.00014212656451 -0.00017119290115 1.1463307514e-05 
1.5887361891e-05 0.0011641994492 -2.029871907e-05 1.8657063485e-05 1.8697411119e-05 6.2728841353e-05 4.0253638878e-06 -0.00018734531457 -0.00023361402403 
-0.01230073093 0.00015837947183 5.0096705161e-05 -5.566731074e-05 -3.0886128572e-05 -0.0023795502225 -2.3354114895e-05 0.00019534951254 -1.1316652242e-05 
-2.2811651644e-06 -0.0067599237914 -0.00041550839418 5.86895572e-05 -0.0033255693078 9.3518387223e-06 -0.0077648276227 -0.00083379955223 -0.013413104592 
-0.023475320034 -0.011255195876 -0.00038223439744 -7.4252824429e-05 -0.014729694124 -0.0026508727531 0.00021786805548 -0.0094794882614 -0.0092439410159 
0.00037348323567 -0.010024900692 7.0384358516e-05 -4.6359567999e-05 3.2402077965e-07 0.00069568976061 -0.014969093902 3.904610286e-05 -0.010573648668 
-0.0094658178411 -0.0016333649222 -0.011012465338 -0.0080592246672 -7.3493221636e-06 -0.0049438441817 -0.011919687627 -4.6046245605e-05 0.00013930318321 
-0.010420468206 -0.015842270077 -0.0017116418554 -0.0033860659806 -0.018259621183 -0.0033426603408 -0.0026161060736 -0.010095993817 -6.5040334432e-05 
-0.00011277062623 0.00029110004664 -0.0025210501459 -3.4231517985e-05 0.00012015772318 0.00095278964353 0.00052380967003 -0.00073892654877 0.0083431948467 
8.0438819583e-05 4.1582907106e-05 -2.5311603576e-05 9.5851931984e-06 -7.3170368153e-05 -1.0107492301e-05 -0.00064782256969 2.719221285e-05 -0.010329791482 
-0.001927591685 6.6065830266e-06 9.3092682586e-05 1.147289874e-05 -0.0053557355339 1.779200765e-05 -0.0039377283405 1.4508822959e-05 8.3480705657e-05 
0.00030630465351 0.00010054735286 -0.00025047143946 0.00034078227775 0.00083517596488 0.00022919392954 -0.0040751069195 3.6078153173e-05 -0.012566653052 
-0.0061828991087 0.00048764962642 -0.0052939193698 1.5383935282e-05 -0.0018110640361 -0.0033544323284 -0.0027254068867 -0.015161224859 -9.6545534843e-06 
4.0593675007e-05 -3.6364687855e-05 -2.015538644e-06 2.4928371377e-05 8.582257874e-06 0.0032767106084 -4.0308845419e-06 -0.0026292945934 -0.0029639675842 
0.0012803061574 -0.00080639679078 5.7183668528e-05 0.017750644525 -2.2590355929e-06 -0.0099188246173 -1.3740235505e-05 2.6122191944e-05 3.7599514652e-05 
0.0067194411357 0.0020608268046 -6.0984509428e-05 -1.1712714846e-05 -6.7324375775e-06 1.00883254e-05 -0.0053662072948 -0.0061899166373 -0.00023575750487 
-0.0048871057344 0.00015492861346 -8.7511954181e-05 1.667512585e-05 5.1460845031e-05 -0.010830011827 7.3960737463e-05 -0.00029868370629 2.1398006923e-05 
-0.0010381473363 1.0142947177e-06 -1.8577048294e-05 3.4155985999e-05 0.00012048701331 0.0003941956526 0.0002547569556 -7.3526939818e-06 0.00026314867719 
9.2492184159e-05 -0.00415541862 -0.0089647285583 -0.0011150366329 -0.023466812214 -0.00010093747172 -7.1972670064e-05 5.9535245202e-05 -5.2827751026e-05 
1.6476042234e-05 -0.00010338163846 0.00011643784107 -0.011971397568 6.1750193694e-05 -0.00408340793 -3.0106044239e-05 -2.8635538899e-05 -0.016452686528 
-3.5916979472e-06 -2.0857251336e-05 4.1340094268e-05 -1.1274823373e-05 -0.0002634858758 -4.6301309675e-05 -5.3186366262e-05 -0.00018382327425 -5.3876822029e-05 
2.5984279062e-05 -3.1936179934e-07 1.7980970483e-05 5.5593619472e-05 8.2436647313e-05 0.000100958246 -3.0687849778e-05 0.00010257306169 0.00126514752 
0.0027747039515 -0.014536790498 8.8090863834e-06 -0.0023023497023 -0.0051382941257 -0.0015452026551 -0.0060838677363 4.2055414494e-05 7.4682311971e-05 
-5.3329416116e-06 -3.8082786056e-06 -7.9653736933e-06 -3.0050315572e-05 6.1400470777e-06 2.2553065091e-05 4.0914850415e-05 -5.2144928725e-05 3.5393561873e-05 
-1.3241781851e-05 -0.0071158686088 -0.00014369539818 7.1114938697e-05 2.5530679287e-05 4.1927075258e-05 -0.022381443413 -0.02366675152 -4.3323443733e-05 
-0.00011441214998 -0.00014816424804 3.1858792659e-05 -0.022402685951 2.4121293885e-05 -4.46674333e-05 -0.015466889156 -6.3412849737e-06 -2.4845634534e-05 
-0.0038729606939 8.2502196306e-06 3.0209475342e-05 -2.9408848421e-06 -1.3788035785e-05 2.4661331161e-05 -0.0001091684579 -1.4448397511e-05 -0.0013523559269 
8.0798315376e-05 -0.0063987140195 -0.0043007003069 -0.0034137867555 -0.00029579430373 7.2081303713e-05 -0.014428200471 -0.00031173475679 9.5252540754e-06 
0.00025474861256 0.00049355499134 0.00058713673356 -0.00053811398372 -3.2830322529e-05 -1.4548940492e-05 0.0092504140182 -0.00099282087867 9.9986894988e-06 
-0.0023966135744 -0.0005176285806 -0.00057259714613 0.0079153711915 -7.3595603213e-06 -1.5310460952e-05 2.4236786379e-05 -0.010399631113 0.00070330077077 
-0.00024744480697 0.00081829704985 -0.0023001380585 -0.0098723927087 1.0163491174e-05 0.0084435221248 -0.0037981559368 -0.0034756400323 0.00055174215599 
-0.00014639109315 4.6731942202e-05 0.0014715958865 -0.015207988604 -0.015908687716 -0.034677414213 7.0868601025e-05 -0.00057980752977 -0.0040838901681 
-0.0087128918633 1.9671892756e-05 -4.6518261777e-06 -0.00050758883345 -0.00011552964139 5.3395615038e-06 2.7033005054e-05 0.0001498023656 -0.0045949818518 
0.0065357398365 -0.00011745753752 -2.305662819e-05 -5.8383815065e-05 -0.018242836209 -0.00020894841833 -0.0025067570363 -0.0019323266341 -0.00014546515918 
-2.8018886651e-05 0.0057982345318 -9.7004639372e-06 1.0831914608e-05 -0.0068891843477 -6.8281287324e-06 2.6967742783e-05 0.023431429254 -0.0010663876596 
0.013342835834 0.00029150804432 -0.0089082695336 1.9012732819e-05 -9.441385484e-05 -0.0037287345847 -0.00011390298774 -0.0025638136819 0.0041173064021 
-1.866304378e-05 -5.9813622869e-05 4.5003295362e-05 -0.0084348314453 -0.021239084781 0.00032098258826 -0.0014506432903 0.00035337453636 0.0021065847204 
0.0047344116737 -0.001824360265 -0.0083722033059 0.0060749812932 -0.0016035925978 -0.011656380345 0.004312496484 2.1440562934e-05 2.7524934253e-05 
3.2558895483e-05 -0.0031844683795 7.7599201068e-07 -0.00028092901027 -1.4923939796e-05 -0.016885220578 -0.0055938625576 0.087869235605 4.5930634573e-05 
6.4412378733e-05 6.089251359e-05 5.6787089633e-05 -2.3560812606e-05 -8.511265559e-06 0.00050732811835 -0.00037734313717 0.0076072258337 -0.00050637348421 
-1.0012348957e-06 -0.001899252772 -0.0029574990222 -0.022427472977 -0.00080869390471 -0.0061934241455 8.9444223241e-06 0.0079453282429 -0.008064311592 
0.01070826108 -1.0477118401e-05 0.014974030639 0.016506974471 -0.0030716566348 9.5740358197e-05 -0.0073719844794 1.4844589235e-05 0.00028313373799 
0.002516948736 0.002178723413 -1.143282506e-05 -0.0021267620532 0.0016893716128 0.00010892488686 -0.005133743744 -0.0006378007449 0.0095638913951 
0.023993609942 0.0073197619553 -0.0084807478761 -0.021922601908 -0.010772708855 -3.3225663774e-05 -0.00010463596266 -0.0012191702771 0.011406881002 
0.010446539758 -0.00071820312613 -0.0057419676542 -0.028780532798 -0.00033698723149 0.0070087190924 -0.0036839936796 0.013167673554 -0.0036209322593 
-0.0021739638348 -0.00041802817007 0.00048475929599 -0.0047105262929 0.008199910308 -0.015326716557 4.6232289448e-05 0.0076026923269 -2.5450699174e-05 
-0.00053480253195 -5.5573832932e-06 -0.00011461217364 0.0096031287719 -0.011637676044 -0.0048517785002 -0.0019497441458 4.4771731425e-06 0.0042547400214 
0.00013946010697 -0.0015574619423 -6.8560017547e-05 0.014860719318 0.0073327512269 -0.011100692635 0.0059151667069 -0.00012911945735 -0.010010725282 
-8.8208659997e-05 -8.5088622548e-06 -0.00012604037109 0.033801510431 0.005521298998 -0.0011403024998 -0.0018714057658 0.00046682315801 0.00086955130871 
0.0051037223013 0.032060496526 0.019270523725 0.0099860491894 -0.0067032584334 -0.0058243573491 -0.0029428345529 0.0088663938331 0.0080275768464 
-0.0051403553828 0.0072555334908 0.011712595138 -0.0021717051673 -0.013607163594 -0.010424925733 -0.0092518525416 -0.001317511362 -0.00069110081563 
-0.0012132692266 -0.0047722897729 -0.0085712503344 -0.0055978732973 0.0023853552909 -0.0037424348392 0.0026173389034 0.0043908704609 0.0085204854092 
0.005523351017 0.013012576693 0.02542667988 0.034344220191 0.0035124255435 0.0026953979979 0.0014837855362 0.015155371069 -0.015268873465 
-0.0097567167782 -0.014383458396 9.677293911e-05 -0.0076448370329 0.00060737697601 0.0084721221907 0.018769233908 0.0016180438882 0.020048057778 
0.018337726191 0.0042736740851 0.0027929664637 -0.0022730922067 -0.0028389370436 0.0083277809904 0.0035341341257 -0.0030121171872 -0.0014437601159 
0.010591088253 0.0001756290621 -0.0058416533957 0.024912088986 0.013992925371 0.016171787894 0.039774962377 0.00029651300893 -0.0036834932384 
0.002492092992 -0.0012232816375 0.0031629476381 -0.0061656850638 0.0048999017249 -0.005005043156 -0.0052774611138 0.023463505364 -0.010961605481 
0.0071948067408 0.00039663953359 0.00057995992421 0.00021356920339 0.0092752488434 0.0089980849461 0.011640439838 -0.0048572943517 -0.014426756842 
-0.012566521233 0.0045390271048 0.0015995713025 -0.0042721055728 -0.0029003894202 0.0095312379097 0.015193348393 -0.0076409932523 0.0012339421617 
-0.0039604509048 -0.0045661069142 0.0033556851872 0.026239382952 -0.00085078981565 0.0051797363926 0.0046220907496 -0.0042379357965 0.010512620585 
0.0012305904746 0.01293473711 -0.013133170361 -0.0019496750285 -0.0046330506034 -0.0023760046619 0.00046060584099 0.013227447492 -0.083600732787 
-0.010070675648 -0.050740449178 
von%20Mises%20Stress 1 13529 double
0.47331324218 0.5534338045 0.5179949531 0.51968351516 0.3077095078 0.30771847796 0.30770089897 0.3077104915 0.72002134798 
0.79021504175 0.89459284 0.69662087536 0.5763418396 1.0284823431 0.83915789011 0.59740922621 0.98303199649 0.63851110176 
0.84563741109 0.99508797706 0.68238089158 0.70939737133 0.90032471142 0.73370560571 0.70420927652 1.0212036808 0.83597981971 
0.6532573647 1.1482415554 0.64149844309 0.92905831996 1.0020261222 0.21440258097 0.19673608454 0.60648134523 0.66117777428 
0.67972151671 0.73014744756 0.21529834977 0.21599554216 0.7020149665 0.53471500048 0.59532483899 0.48863995837 0.69702271694 
0.22691235691 0.23386338545 0.24091116888 0.28293984747 0.31881926474 0.36142425914 0.46477284556 0.37309544777 0.3684930323 
0.31387082958 0.35824019021 0.38377027 0.77062120706 0.79896313383 0.76427353479 0.84626797245 0.19544113795 0.20074720869 
0.23762058738 0.27129252585 0.30922315571 0.35105690474 0.49338493551 0.27489804704 0.38455032846 0.37828408128 0.41297681892 
0.34672335202 0.3745450551 0.4366311563 0.45698521207 0.20768943834 0.21315402543 0.23666109842 0.28117087348 0.3584461737 
0.41470171473 0.47344989564 0.8130438864 0.75567683855 0.70841140222 0.76784511919 0.79164944041 0.31065503464 0.34417619317 
0.33764599359 0.34976884759 0.18990902784 0.20187626722 0.25213277632 0.27447576273 0.29177483283 0.33088548901 0.51490207842 
0.59596746608 0.72418423889 0.70621601069 0.58944274276 0.57741589598 0.26634081557 0.33587753171 0.39796081534 0.3997544013 
0.34288113739 0.56285265716 0.44102170542 0.33801577993 0.32075996378 0.27473310104 0.22582431958 0.17121270344 0.74736118828 
0.73029786296 0.66290845251 0.6458812975 0.51744721564 0.3533980265 0.32176378351 0.38755759534 0.34603645885 0.53561805868 
0.34873952647 0.32392514596 0.27099961972 0.23468306335 0.19698560747 0.22006375114 0.92926215174 0.73118237822 0.84313453485 
0.86750490142 0.83785985643 0.65555746116 0.80849485037 0.80141851727 0.7178562311 0.68137454282 0.58953095233 0.34963743136 
0.33497011076 0.27912012884 0.25394632298 0.21090584521 0.1963191317 0.27209799583 0.34232004637 0.3498577192 0.39330103281 
0.93700299166 0.58828957505 0.71900562834 0.79701622748 0.62708961199 0.52382995321 0.3973985143 0.32427507669 0.3078691542 
0.24360553678 0.21187403224 0.19299089001 0.25253147154 0.36787511436 0.36923201055 0.42211680799 0.33015771195 0.3038252305 
0.21760442249 0.1952961285 0.18246507589 0.17425938652 0.17057895371 0.16571931099 0.16098364669 0.15673151423 0.15535881612 
0.15402448678 0.15348612598 0.15392596859 0.16748302618 0.16739204893 0.17408607142 0.16219072326 0.1651629127 0.17354932394 
0.19084335614 0.18550131065 0.19542377526 0.21705106524 0.29084568843 0.2532513209 0.22489356034 0.19516256229 0.18958388846 
0.18589701525 0.18260265577 0.17544784673 0.16185314988 0.16249625099 0.16484714832 0.16453905026 0.16355623139 0.15605262821 
0.1583285652 0.15865118642 0.15731562975 0.15497087964 0.15783987407 0.15701464533 0.16607800447 0.16424737176 0.16424559353 
0.17416105173 0.1786138246 0.19063868577 0.19600715032 0.20308477829 0.22621546297 0.26920766534 0.307484978 0.30757885136 
0.30823114596 0.30918829466 0.31059484557 0.31226865377 0.31407523784 0.31612973074 0.31823786531 0.32003626921 0.3217095358 
0.32297393243 0.32386449948 0.32434910116 0.32445113238 0.323901828 0.32306044786 0.32170339283 0.3202927878 0.31850396744 
0.31642880859 0.31472722874 0.31291894558 0.31135933256 0.31003330597 0.30893453512 0.3081222938 0.30764896746 0.30752220986 
0.56559264799 0.30535466249 0.27885330072 0.26272628268 0.25170704776 0.24415496804 0.24029099052 0.23793450365 0.23697545353 
0.23717155393 0.23828902001 0.24111377162 0.24486255004 0.25023092207 0.25596357223 0.26218419672 0.2701596924 0.27874449624 
0.28719759616 0.29539711735 0.30162025738 0.30567648699 0.30564735416 0.30287431224 0.29797206103 0.29257822273 0.28773599356 
0.28353235262 0.28019295533 0.27784190932 0.27651116243 0.27637158713 0.27718376758 0.27878818439 0.28125108343 0.28468783667 
0.2880851523 0.29158656371 0.29546924164 0.29888513302 0.30185303179 0.30469828739 0.3067334508 0.30783228715 0.30801675508 
0.30786077442 0.30787891279 0.30703214157 0.30553413832 0.3035192653 0.30079005694 0.29804048108 0.29495574306 0.29247125207 
0.29010413973 0.28803896025 0.28639072554 0.28565973347 0.28576155979 0.28655611 0.28856051468 0.29086092647 0.29414647309 
0.2979066501 0.30204613548 0.30579342905 0.30877928856 0.31034961899 0.30945083369 0.3063859677 0.30148250302 0.29558074323 
0.28797383426 0.28059162445 0.27281305645 0.26626058947 0.26037162918 0.25515746486 0.25092004817 0.24713461642 0.24507245785 
0.24378263851 0.24389604365 0.2451965657 0.24865117065 0.25438761334 0.26485834319 0.28081738367 0.30971369284 0.57135556311 
0.25839127346 0.35844936206 0.40094244595 0.41007245187 0.39581895987 0.38135941608 0.34997369059 0.34431018155 0.33486991559 
0.44541210193 0.44306686955 0.33637121465 0.35664522964 0.36732327488 0.3803382612 0.39344196602 0.4070114982 0.40135937576 
0.35288486351 0.24725545806 0.26406773115 0.3803553249 0.39922801227 0.39333787619 0.37564004507 0.3757437917 0.35401939525 
0.34277471754 0.28233797877 0.48750283513 0.46658559885 0.31592587306 0.33904529176 0.348066448 0.34995422212 0.38198819045 
0.36155645844 0.36875169705 0.37916460663 0.29111231863 0.30756686518 0.30777601363 0.30873816201 0.31019864665 0.31223837938 
0.31459893107 0.31730243771 0.31999171047 0.32195427693 0.32335827032 0.32430104239 0.32426412785 0.32348260575 0.32210358675 
0.32025650165 0.31790632773 0.31549301918 0.31325799952 0.31114957538 0.30949603843 0.30832151491 0.30766432223 0.30755585235 
0.41376155407 0.30557623393 0.26966698409 0.25404478167 0.24380107911 0.23925895878 0.23719926309 0.2373291495 0.23897876641 
0.242945564 0.24833623426 0.2557834734 0.26410199593 0.27265151357 0.28210407341 0.29250584466 0.30111950974 0.30541458094 
0.30484320331 0.30042855435 0.29434691653 0.28817863012 0.28228419132 0.27874169861 0.27688829005 0.27647258047 0.27768245316 
0.28018311529 0.28404651169 0.28809895892 0.29197206176 0.29651043659 0.30054642614 0.30365681045 0.30629673649 0.30776498688 
0.3079295397 0.30798604356 0.30771290821 0.30632690959 0.3041533704 0.30091204693 0.29764240783 0.29395816531 0.29100299581 
0.28814386963 0.28640732281 0.28572512426 0.28626837341 0.28825388623 0.29151782225 0.29563946 0.30005070614 0.30478502938 
0.30869836932 0.31017998238 0.3085229841 0.30298285051 0.29478399893 0.28554754213 0.27599840795 0.26668973571 0.25911716242 
0.25279675896 0.2480858211 0.24518391416 0.24411194017 0.24500981165 0.24868681692 0.25709314415 0.27213671699 0.30338561746 
0.38922120027 0.24329333121 0.3841274195 0.43413622328 0.41670016446 0.40289184675 0.38990669285 0.39920462013 0.39061984446 
0.2946287529 0.41803262752 0.45877431935 0.29795626758 0.36817390978 0.37624595788 0.38783452914 0.40220970236 0.41318221838 
0.46841106564 0.38559096221 0.24961634518 0.24434861107 0.36261835766 0.40565412066 0.39390845756 0.37308187448 0.36190549075 
0.34628914542 0.32762673005 0.40924368298 0.55774737533 0.27880212077 0.35831685315 0.36669457218 0.3934230292 0.38583514327 
0.44407275478 0.44442850811 0.35224155531 0.30143648956 0.19479576039 0.17522086944 0.19881795484 0.22807290348 0.25074106797 
0.20686708299 0.25866911201 0.20055062757 0.22063392165 0.19945391594 0.18402019609 0.18175554964 0.21366103258 0.24511396135 
0.21151451999 0.21085385465 0.25690610714 0.21929182664 0.25523290181 0.19387844139 0.20283229124 0.18788164042 0.20058552887 
0.27436697414 0.22809317321 0.17651428252 0.20023737827 0.21545979301 0.23580599371 0.18284915488 0.19821667562 0.21470659524 
0.22524742986 0.18042820151 0.17400883133 0.21497680007 0.17041180872 0.19416964201 0.20198079558 0.21782909198 0.25465584667 
0.22900486301 0.21750120967 0.20296400489 0.17996023104 0.26532998092 0.18639384501 0.180042895 0.20136273596 0.21845585358 
0.24991269404 0.2028313297 0.18469577053 0.20573437235 0.2503314011 0.19047274644 0.22007248698 0.17730006497 0.18866976294 
0.1772483943 0.1944229652 0.26769055832 0.2426539467 0.22697317861 0.22043532372 0.2039881672 0.17952497715 0.17966115733 
0.19574809309 0.24811179717 0.25147914688 0.22948540885 0.21531656331 0.20698824249 0.22287422938 0.19498953505 0.1996300884 
0.30763552363 0.30807448658 0.30888453042 0.30995231534 0.31134160865 0.31278859508 0.31447482548 0.31614964841 0.3177153696 
0.31908686258 0.32033720192 0.32117234509 0.32175978504 0.32188299773 0.32175923396 0.32118721198 0.32031950034 0.31918917346 
0.31785802548 0.31629382255 0.31482659258 0.31330736081 0.31191664778 0.31069379607 0.30962833271 0.30872223226 0.30810793294 
0.30771980045 0.30767990532 0.36159882343 0.32340060235 0.2976381448 0.28071812933 0.26973986153 0.26186752071 0.25682620121 
0.25309408094 0.25173496393 0.2516367624 0.25150881173 0.25295216884 0.25554206139 0.2593688144 0.26373313474 0.268275721 
0.27370499394 0.27949723453 0.28517159518 0.28997144192 0.29288446746 0.29481905103 0.29445311228 0.29241600937 0.28948605584 
0.28657968768 0.28403995135 0.28192195981 0.2804578632 0.27964858798 0.27962627468 0.28017802729 0.28156999604 0.2835307538 
0.28619626062 0.28894748983 0.29179882368 0.29473282198 0.29779099249 0.30053799822 0.30285298805 0.30490688623 0.30630091198 
0.30727963791 0.30732367134 0.30658978743 0.30533544013 0.30368062659 0.3017129318 0.29938101543 0.29697010163 0.29478969085 
0.29263359851 0.29064614831 0.28909869826 0.28813286624 0.28758041729 0.28771199961 0.28846241923 0.28985051226 0.29176005778 
0.2939118858 0.29654194661 0.29912398112 0.30119190226 0.30197343045 0.30203440179 0.30011021795 0.29705968071 0.29300423186 
0.287640923 0.28233845521 0.27700334474 0.2718312462 0.26723916929 0.26332525803 0.2603589863 0.25808942624 0.25657731416 
0.25670526449 0.25752507081 0.26004365457 0.26407287259 0.27109190411 0.28243422691 0.30003749053 0.32799583626 0.41893290592 
0.39309724301 0.34160727747 0.3186392395 0.30139127522 0.29442023024 0.29228467599 0.30036325538 0.29150513382 0.29013669257 
0.28833078654 0.29146373753 0.30004532244 0.29508141607 0.29126605848 0.2916208739 0.29966713739 0.3254723769 0.32051788514 
0.29857749537 0.29110027365 0.29161760331 0.29880679382 0.32209598839 0.30102051688 0.3014306909 0.31377876159 0.34710535929 
0.41773486852 0.22185237869 0.25678117765 0.29889445809 0.30625185492 0.31112156185 0.31044604178 0.31020902136 0.3045407075 
0.30424239907 0.35118451247 0.41919176509 0.39038341283 0.33205456132 0.31563869694 0.30922228256 0.30680566506 0.30563675984 
0.30497548928 0.29625754005 0.27780195634 0.23605986824 0.2296159752 0.226980668 0.24899035409 0.29355447185 0.30650058747 
0.3057790381 0.30239620348 0.3007212886 0.30136534197 0.30712998757 0.32264479295 0.39849839666 0.38809820581 0.32201207345 
0.29943335531 0.29710379886 0.29883237187 0.30671074235 0.30319827494 0.30324222627 0.28986953198 0.26218665412 0.22297428684 
0.27578954578 0.48176031657 0.4406469528 0.26961094529 0.48145395755 0.26401139517 0.30770042272 0.30881315426 0.31001591914 
0.31143332568 0.31294376848 0.31457568483 0.3160397165 0.31742253919 0.31862914085 0.31957228354 0.3202113268 0.32052539485 
0.32054130729 0.32016822312 0.3195017927 0.31855089016 0.31736507743 0.31600682991 0.31465624413 0.3132885207 0.31193399864 
0.31066186922 0.30957789399 0.30860539017 0.3079304087 0.30747294416 0.28418336551 0.31621615892 0.30100719947 0.28988144987 
0.28001742717 0.27354801321 0.26863138121 0.2651888669 0.26321982813 0.26201264456 0.26145898282 0.26202661454 0.26359556002 
0.26577809769 0.26810516342 0.27087805378 0.27428230931 0.27818467165 0.28220249496 0.28486620509 0.28649172464 0.28709276906 
0.28593519055 0.28406729022 0.28270558994 0.28193124322 0.28121468078 0.28066322619 0.28053858924 0.28091523534 0.28189735519 
0.28328646561 0.28505853111 0.2875321808 0.2900124054 0.29244885277 0.29502224908 0.2976557707 0.30012343932 0.30230184205 
0.3043433312 0.30597988666 0.30718227676 0.34107559481 0.33433376908 0.30673502687 0.30574892642 0.30432048273 0.30269720819 
0.30072753658 0.29868463974 0.29664804151 0.29461157395 0.29265297096 0.29096525008 0.28960839672 0.28868655223 0.28814285669 
0.28809600054 0.28847257654 0.28922174176 0.29031499997 0.29177179066 0.29351469701 0.29525358031 0.2962480522 0.2963483365 
0.29546112207 0.29357226432 0.29067285794 0.28689477468 0.28300190791 0.2793978297 0.2756267382 0.27236482844 0.26959820905 
0.26779224617 0.26650806593 0.26618670782 0.26673131813 0.26818253791 0.27102082928 0.27501290623 0.28151868007 0.29086580925 
0.3037744851 0.31967521842 0.2690699619 0.31129068579 0.29648832089 0.2850604844 0.27869979617 0.27475579428 0.27268751693 
0.27220833342 0.27289172082 0.27290177241 0.2738470681 0.27355985208 0.2753823989 0.27621430996 0.27729777348 0.27697649528 
0.27513205752 0.27615058553 0.27659556068 0.27564481582 0.27578376889 0.27718263955 0.2804073011 0.28638910463 0.29707047139 
0.31317321208 0.26201153076 0.39572927914 0.24726564592 0.29629951092 0.29936302328 0.29954293197 0.29866447331 0.30005936741 
0.31337144418 0.35425965541 0.26313575351 0.3081156216 0.3415904922 0.2946072643 0.29449548597 0.2931885777 0.28785317748 
0.27390381126 0.25361790237 0.2471770942 0.26701039548 0.38405802022 0.25977102527 0.24876611672 0.28831318585 0.29133767889 
0.29106488586 0.28997774062 0.29093872856 0.30323785482 0.34534511653 0.39892493088 0.30161482336 0.33349263336 0.29204015905 
0.29372560535 0.29499875578 0.29189924326 0.28145418541 0.26099226415 0.25011913396 0.29656985116 0.27792557545 0.29202508688 
0.28062891995 0.41856954511 0.27543678098 0.39213682096 0.30844856699 0.30962859402 0.31123272024 0.31296935474 0.31472553099 
0.31627449267 0.31765721941 0.31882094592 0.31969451031 0.32025105648 0.32035524078 0.32011913158 0.31950641526 0.31857240373 
0.31733816424 0.31596580119 0.31451108729 0.31309654149 0.31167866214 0.31032603396 0.30903056307 0.30788991434 0.30713644547 
0.30673280905 0.26250020041 0.29045407577 0.27721818357 0.30592300313 0.37703913438 0.29855327274 0.29262115562 0.28645322416 
0.2816249581 0.2775883456 0.27450010036 0.27192765502 0.26991556227 0.26859118457 0.26823765764 0.26864605962 0.26921150284 
0.2698646032 0.270942304 0.27274386328 0.27494080045 0.27874290259 0.27952014637 0.28139392702 0.27962152143 0.27789739746 
0.27722573316 0.27762532057 0.27845170375 0.27904509334 0.27979605475 0.28070592301 0.28213296784 0.28388818605 0.28593999349 
0.28835309167 0.29106867734 0.29345109929 0.29587455775 0.29821851053 0.30045051001 0.30241898714 0.30450606832 0.30662124337 
0.27882895171 0.30556254298 0.30391745908 0.30222388044 0.30040309303 0.29847556506 0.29659263717 0.29448864649 0.29245792407 
0.29077670245 0.28936778454 0.2882096593 0.28740709044 0.28688528839 0.28674170875 0.28683899789 0.28726261088 0.28846897769 
0.29020837843 0.29154072389 0.29205628633 0.29184056251 0.2909031411 0.28875114575 0.28574839795 0.28271083224 0.28007830426 
0.27780180351 0.275759488 0.27410894582 0.27322870678 0.273048209 0.27331214709 0.2742183723 0.27611890266 0.27902465323 
0.28270872652 0.28790048105 0.29429078932 0.3010677755 0.30737609323 0.39398926095 0.28368978915 0.29572036883 0.28763490165 
0.28344169009 0.28087024671 0.28040578008 0.28061251159 0.28137254831 0.2822353081 0.28383190985 0.28507943103 0.28645245439 
0.28672423366 0.28588193238 0.2851693466 0.28499530536 0.28476249608 0.28455274936 0.28437814978 0.28417391673 0.28576779544 
0.28969342925 0.29544095152 0.27210549129 0.28756652192 0.29320190745 0.29366439757 0.29522049805 0.30329141637 0.32720363708 
0.28565441189 0.26823870696 0.28338165856 0.28902105861 0.27445728854 0.26419907056 0.25866386172 0.3598659319 0.36948064729 
0.35334561934 0.28613853708 0.28303976224 0.28726109579 0.29503365275 0.31792342248 0.37062535957 0.2668477429 0.28456297258 
0.28777630244 0.27844361935 0.26969776984 0.28744748921 0.26858957281 0.28443789542 0.3819042559 0.29865160728 0.2854866315 
0.27473417378 0.27650879937 0.35060122681 0.26749771521 0.36175695917 0.26170807977 0.33961833605 0.29104820014 0.29437065103 
0.26802860612 0.28868394413 0.26325618784 0.31717226497 0.30995522953 0.30695785096 0.2823089614 0.30888769732 0.31088893317 
0.31309835294 0.31521817455 0.31719685677 0.31855519992 0.31990605312 0.32096020886 0.32148394234 0.32112950027 0.32032429076 
0.31964595446 0.31822225575 0.31639834005 0.31464328134 0.31291511081 0.31130771412 0.30970041964 0.30816360489 0.30691218006 
0.30573296694 0.28891532525 0.28360311737 0.29747748547 0.29628865979 0.29419071356 0.29130838077 0.28813714765 0.28477359258 
0.2814849949 0.27857535208 0.27579814839 0.27363767255 0.27242609521 0.27152605732 0.27054062513 0.26925101405 0.27054784198 
0.27069375457 0.27476796277 0.27635410379 0.27799020622 0.27954546337 0.28133008944 0.28363038339 0.28617155654 0.28907321506 
0.29210600437 0.2947859314 0.29720083288 0.29951268657 0.3016533898 0.30329747084 0.30472913611 0.30381595291 0.30235272617 
0.30063712978 0.2986977703 0.29654665284 0.29420418525 0.29196187783 0.28999524008 0.28824681861 0.28680514638 0.2855930256 
0.28442999598 0.28351387824 0.28308279276 0.28340210996 0.2849512905 0.28733235914 0.28755104805 0.28822410215 0.28424678597 
0.28139286304 0.2795267702 0.27813692391 0.2773632719 0.27672873611 0.27672929502 0.27717562211 0.27826243213 0.279858964 
0.28204886464 0.28476943702 0.28766077495 0.29084413986 0.29467258544 0.29896297648 0.35892626781 0.27595691664 0.27005736841 
0.29384832852 0.29064814236 0.28851827663 0.28790266685 0.28825302685 0.28934093714 0.29101575249 0.29328035759 0.29537426255 
0.29711049859 0.29802461177 0.29770766579 0.2968066994 0.29609903911 0.29510705992 0.29374974065 0.29264017011 0.29166927956 
0.29163728283 0.29324637067 0.32661598545 0.29138023413 0.28667604211 0.34723468133 0.29752783702 0.31190495937 0.2848223554 
0.28023658737 0.34173378674 0.28390217213 0.35270255239 0.29022001232 0.28272102537 0.28048650828 0.30343949969 0.27511109221 
0.27860358972 0.2818902075 0.36804097721 0.28243325917 0.28430934821 0.2674562989 0.2736187945 0.27140297704 0.27720652593 
0.28633185159 0.26895540321 0.34715421687 0.3609615825 0.35829593081 0.28853698861 0.28735254192 0.34257883375 0.29237885737 
0.27077936503 0.30401056031 0.27671335242 0.33631386169 0.27286188419 0.33157302601 0.28676706652 0.26558659081 0.29100690795 
0.27814447817 0.27231125786 0.30057372252 0.30833085184 0.31078629867 0.31364863835 0.31684665941 0.32003480006 0.32185706254 
0.32361500001 0.32381664169 0.3219070572 0.32101253094 0.31805296117 0.31505979754 0.31298522883 0.31074220202 0.30927532554 
0.30736670082 0.30584128524 0.30475457452 0.31668559051 0.295444144 0.29604313367 0.29548466973 0.29337617223 0.29050137267 
0.28713443307 0.28370021819 0.2801681946 0.27709756448 0.2753500039 0.27401664981 0.27831934703 0.28031987567 0.28293394967 
0.28597439173 0.28953173423 0.29313628578 0.29662178383 0.29951337998 0.30193079358 0.30373007123 0.30511842939 0.30630592626 
0.34374622276 0.30321701284 0.30143791696 0.29921202035 0.29653489502 0.29374964864 0.29114459733 0.28871469524 0.28647211687 
0.2850902137 0.28317985768 0.28123756592 0.27954704756 0.27834146481 0.2789375474 0.2771367716 0.27712367141 0.27734078714 
0.277820012 0.2785616963 0.27985611791 0.28113765292 0.28322211332 0.28597824805 0.2886678971 0.29091175082 0.29277365046 
0.29419538402 0.29483665712 0.3258969365 0.2930247673 0.29397264957 0.29588757567 0.2986155053 0.30161988343 0.30503848784 
0.30824042993 0.31050060471 0.31095375052 0.30980927988 0.30794976883 0.3061157823 0.30380658316 0.30058026095 0.29782767526 
0.29584445586 0.30176968836 0.28764155449 0.28451263051 0.29284257779 0.29357504308 0.27600000942 0.32457744828 0.2830325211 
0.28686098958 0.30933363181 0.28213661401 0.33933378621 0.28279518287 0.32742379795 0.3375427967 0.34825816376 0.28480255815 
0.33861101064 0.27883331154 0.33799691982 0.34842312288 0.28227948673 0.29493623944 0.32933288438 0.29319090162 0.27845716749 
0.31769257367 0.33155131933 0.28889118676 0.28292399622 0.28129213372 0.28047053872 0.28657713981 0.29727219291 0.27436190589 
0.32181452518 0.31085650502 0.31466354155 0.31822297702 0.32356195281 0.32502589721 0.3287047577 0.32621773125 0.32177898894 
0.31633370661 0.31133071518 0.30723013934 0.30451852881 0.28006704198 0.28401557775 0.30021314115 0.2990392253 0.29611168075 
0.2922507522 0.28249017828 0.28584961529 0.2904286014 0.29478149597 0.29938814098 0.30318931981 0.30567768328 0.30686845717 
0.30006936716 0.2962180246 0.2933517319 0.29079419052 0.28714078549 0.30900819743 0.31009932882 0.27640096976 0.27808466193 
0.27926884932 0.28119098026 0.2832724486 0.28497392606 0.29167426167 0.29376011677 0.29480520996 0.29457805729 0.28436029715 
0.29628561216 0.298947224 0.30330283628 0.30804647116 0.31143815611 0.31974067678 0.32089226669 0.32799602656 0.32304304905 
0.32211206868 0.31682888596 0.31634428215 0.30855464809 0.30311011294 0.29896075086 0.33574120929 0.2751286896 0.30761515489 
0.28212903552 0.28822829227 0.32808709947 0.30292937375 0.33467379991 0.31566819495 0.28848068394 0.30426494309 0.28877099955 
0.29448485083 0.323667498 0.29881226396 0.28087912711 0.3120358108 0.32581237942 0.29862093941 0.3294004521 0.31934723786 
0.3038552162 0.28577713007 0.3304673589 0.30856432089 0.31349350553 0.31174355638 0.3067932066 0.3057695663 0.29467928727 
0.29783945246 0.29211374012 0.30224816611 0.30680314658 0.31763910967 0.29782299528 0.28808905199 0.30743435561 0.29735513033 
0.31603789029 0.3026231 0.31007373739 0.31821631117 0.31143679516 0.30433677906 0.30746559899 0.30838874308 0.30957608221 
0.3111555758 0.31293208149 0.31511137824 0.31712991296 0.31902993261 0.32036104771 0.32124561831 0.32162390087 0.32125124295 
0.32037926575 0.31909916169 0.31735730197 0.3155115738 0.31367014392 0.3118350034 0.31027300063 0.30902399307 0.30811118204 
0.30762349393 0.35741547722 0.31681184018 0.28704922116 0.27104384095 0.26234855339 0.25753949283 0.25498459511 0.25379059386 
0.25417848751 0.25610733413 0.2597581575 0.26414065266 0.26953142324 0.27532822186 0.28156453335 0.28707132494 0.2917225899 
0.29336491315 0.29215314847 0.28930958935 0.28626528072 0.28340233776 0.28127806707 0.28018933744 0.2800941181 0.28102995123 
0.28296507314 0.28568020695 0.28879426345 0.29204157497 0.29547225587 0.29867274216 0.30160155105 0.30409520319 0.3061018337 
0.30718354366 0.30618185487 0.3045627914 0.30225342921 0.29970184497 0.29680609656 0.29425639197 0.2917254268 0.289654725 
0.28837691735 0.2878832704 0.28827272994 0.28958598097 0.29153503747 0.29410003746 0.29644590238 0.2989160895 0.30070005534 
0.30022108073 0.29783243611 0.29311363103 0.28676452049 0.28064359592 0.27447812106 0.26901884259 0.26446323013 0.26159925414 
0.25977464461 0.25973703719 0.26235577877 0.26698598958 0.27571213252 0.29093155885 0.31380003615 0.35472630659 0.34365773192 
0.33572445051 0.31538682937 0.30609937056 0.29430870042 0.2903834209 0.29178562361 0.29439325703 0.29373171194 0.29351046923 
0.29563951777 0.29888800671 0.29615343037 0.26857375019 0.26526748855 0.29494037706 0.29607099906 0.29495304018 0.27137506449 
0.30022177706 0.31428128571 0.33506664904 0.22125676672 0.25531303996 0.29705555367 0.3142238583 0.30922560556 0.30738049583 
0.30759735014 0.31719772176 0.32160319208 0.33553224207 0.40556149952 0.44764561468 0.36041523041 0.31452838803 0.30487784688 
0.30320903291 0.30284020835 0.303773638 0.30842886427 0.29597432205 0.25314147619 0.22158578387 0.22264824234 0.26951092761 
0.30073721175 0.30596332674 0.30292855796 0.30124345842 0.30063315122 0.30369298785 0.3336258716 0.39654896555 0.4107149791 
0.3487820402 0.31715636677 0.3092875423 0.30837453986 0.30406786219 0.31299550116 0.31717571051 0.30513759603 0.24651304224 
0.22630167166 0.52191543933 0.27209392224 0.26750975855 0.46336582126 0.43845268885 0.3084976406 0.30719993735 0.31116130408 
0.31319627624 0.31531411446 0.31716402843 0.31873982727 0.31976214794 0.32037657087 0.32031068533 0.31967325694 0.31857455524 
0.31712123255 0.31540226094 0.31367347581 0.31187901426 0.31025852486 0.30895141417 0.30778631218 0.24781700332 0.2916460279 
0.30543440503 0.31979014973 0.28160511396 0.2747253939 0.2701575385 0.26748516983 0.26518023303 0.2644056763 0.26472494995 
0.26642110416 0.26863985795 0.27146052834 0.2746820162 0.2784877513 0.28249628956 0.28524295168 0.28568364417 0.28357297453 
0.28150946223 0.2803717344 0.28020420176 0.28036902209 0.28105742043 0.28227839611 0.28432623024 0.2868749488 0.28978284886 
0.29274244057 0.29570508765 0.2985150146 0.30096468707 0.30335366805 0.30543800331 0.30373766603 0.30589992738 0.30713117867 
0.30160768874 0.29920558553 0.29661438542 0.29429459102 0.29206935731 0.29018377972 0.28883250356 0.28804366197 0.28792265734 
0.28837136754 0.28909517427 0.29042531879 0.29204028522 0.2934143926 0.29443430949 0.29368747459 0.29099466719 0.28666440802 
0.28221957163 0.27831350224 0.27481079579 0.27220449724 0.27072429648 0.27008456271 0.27097635182 0.27313082894 0.27804010875 
0.28491257352 0.29546681071 0.30903716799 0.32861312428 0.26177640221 0.40615766408 0.29285968413 0.30652561536 0.28228833473 
0.2764235035 0.27448191763 0.27478908422 0.27544095174 0.27604422558 0.27799234901 0.27847139963 0.27873610244 0.2784951117 
0.27779296185 0.27748724897 0.27726072535 0.27758678546 0.27957564462 0.28125959992 0.28979967878 0.30269533903 0.26600063353 
0.26456034751 0.42162852792 0.26456228239 0.28549961424 0.29659408641 0.29948220751 0.30004201239 0.29970968765 0.30050777229 
0.31037440949 0.34714172703 0.31411005263 0.29868695517 0.2955488553 0.2953429926 0.2937552878 0.28909846081 0.27809355655 
0.25709625885 0.24361517826 0.38102613149 0.26551740312 0.28542171025 0.29152277185 0.29237242177 0.2907535764 0.29023597741 
0.29830217789 0.32861386178 0.26788911254 0.30525352588 0.29419657812 0.29347943513 0.2951390907 0.29586747967 0.29402911544 
0.28399211168 0.26384079583 0.24675309143 0.3095145586 0.35907678139 0.2462066632 0.33650902278 0.27779625548 0.4159202436 
0.28112633246 0.408098898 0.36635303198 0.26582193775 0.2742010111 0.31115063303 0.26426066872 0.31582201339 0.32025593031 
0.31936479356 0.32002398747 0.31895250516 0.31739148378 0.31555276708 0.31360964723 0.31170342724 0.30987170369 0.30841019333 
0.30713616598 0.26605683203 0.29919263423 0.30736452091 0.29358667009 0.30504700444 0.28286669977 0.27897050216 0.27567985243 
0.27291062366 0.2712123275 0.27021726529 0.26999232913 0.26996073419 0.26999714258 0.27085456846 0.27720682496 0.27481196595 
0.27536521385 0.27677309955 0.27853628949 0.28013180143 0.28201624692 0.28451238074 0.28740784103 0.29073859884 0.29383713492 
0.29682721824 0.29954332957 0.30177310566 0.30335228888 0.2848662681 0.30056966527 0.31784531708 0.30149883435 0.29890144887 
0.28732234873 0.30524075777 0.26051562456 0.29650406058 0.29408074138 0.29170372941 0.28973259289 0.28792320534 0.286704563 
0.28587395616 0.2853830188 0.28522498468 0.28573276616 0.28752973877 0.28911367242 0.29087199244 0.28896677784 0.28590644479 
0.28216779366 0.27931939845 0.27743033186 0.27631351708 0.27603503658 0.27670271242 0.27816245407 0.28079483367 0.28442584379 
0.28865116491 0.29449985559 0.37909725914 0.27885154164 0.2911959599 0.27114010209 0.2630672814 0.28256214086 0.28227215416 
0.28338857427 0.28523430612 0.28695012814 0.28830389011 0.28900026531 0.28939595098 0.28912721182 0.28810676461 0.28720665925 
0.28662963005 0.28697053561 0.28840710217 0.29028350466 0.38960957653 0.32676434717 0.28198612645 0.3036198924 0.2721597675 
0.28388253019 0.29048109525 0.29350698196 0.29443151346 0.29532583469 0.30152348218 0.30216917307 0.32052811885 0.36853069084 
0.29274090859 0.29017333648 0.28823946014 0.28338875855 0.27593260655 0.26476215621 0.32170694739 0.27985933701 0.28427402701 
0.28587269446 0.28644372616 0.29115199965 0.31355382708 0.3086349578 0.28986248751 0.28904045014 0.28919749559 0.28683462557 
0.28097737639 0.27055820547 0.26246706257 0.36659662028 0.29778388227 0.38437108123 0.32055883317 0.26234506217 0.28056187824 
0.3055113463 0.38165900343 0.37591001874 0.27310750955 0.29727096813 0.28702510333 0.35355212583 0.33921547213 0.25647314008 
0.30691077417 0.29877555434 0.32159658001 0.31849117943 0.32036936455 0.31378794329 0.31157676122 0.30940350917 0.30748089383 
0.30605876237 0.31624750873 0.27129123776 0.3209934384 0.28204623078 0.28910707601 0.2786483122 0.27575578887 0.2733294939 
0.27157134862 0.26919281534 0.26463990547 0.27624542185 0.27871832798 0.28105639891 0.28386465418 0.28739244292 0.29157465977 
0.29533811162 0.29857671848 0.30145694745 0.30365614542 0.30551519299 0.28965531592 0.29549470617 0.296345078 0.30153211514 
0.29362915596 0.29087204684 0.2884192242 0.28607160275 0.28427301049 0.28264404181 0.28115627288 0.27958703205 0.27915112938 
0.28352918384 0.28383850987 0.28101167742 0.2776741618 0.27747139228 0.27783761331 0.27897089286 0.2806435894 0.2827838327 
0.28562167758 0.28836314746 0.29106675867 0.29369458609 0.29531207334 0.27193274726 0.34170709089 0.26775773021 0.3577028504 
0.27144165496 0.29146630897 0.29414941218 0.29693087162 0.29911215944 0.30095431443 0.3017952385 0.30137802135 0.30048887185 
0.2986704474 0.29663832597 0.29468679869 0.29383947844 0.32181663847 0.28552929216 0.30888183298 0.29503922859 0.27707183678 
0.28313675725 0.28658756732 0.28894226141 0.29116154822 0.2961512041 0.31027711485 0.27627116853 0.33956497737 0.35747209283 
0.2880943961 0.28486770625 0.28081533209 0.27414820327 0.26863493968 0.29632084053 0.35477460788 0.27632168709 0.27993110371 
0.28319390049 0.28700453335 0.35909970932 0.28735481846 0.28534918647 0.28328422215 0.27907785222 0.27482567618 0.36517935035 
0.28959117222 0.27043503346 0.27273249537 0.33478039129 0.31575489973 0.30678334179 0.31129669612 0.31938273957 0.29226271469 
0.31708710376 0.35728069111 0.27005593152 0.2763556408 0.29107406308 0.29419094272 0.30441266065 0.34608239018 0.3542249481 
0.30773157281 0.29267665946 0.31430318994 0.30670527285 0.31155793144 0.2783629639 0.31633928758 0.28313030182 0.33356860117 
0.28704606293 0.28091697111 0.28337289013 0.28746259185 0.29251356182 0.29724754675 0.30137050006 0.30455242772 0.30668521848 
0.30786139459 0.30020999609 0.28590934512 0.29925827648 0.30129824635 0.28998475525 0.29636914246 0.2866694337 0.2841051955 
0.28175355247 0.27938532316 0.27661723874 0.32405746789 0.34476338342 0.27764485204 0.27993981082 0.28242713006 0.28549820471 
0.28879658177 0.29167689815 0.29356142578 0.29435468077 0.33413394157 0.28923101328 0.30586663399 0.31011946799 0.31266142031 
0.31477358264 0.31468843145 0.31400752456 0.31155959942 0.30723690653 0.30317978516 0.29906277466 0.2756503269 0.32687961355 
0.31942605526 0.32447892482 0.30030374496 0.29303753515 0.28150240188 0.28514009051 0.2874228154 0.29168414706 0.275667524 
0.3179062832 0.33669351093 0.34355352619 0.29609020352 0.30899273458 0.28300891249 0.28069124611 0.29391478122 0.33881254635 
0.30239268178 0.29964379263 0.32330045352 0.31454923955 0.34096364971 0.32213218462 0.29453679688 0.29673341729 0.29087595104 
0.31792250792 0.32088947466 0.31924850376 0.34449020418 0.34144271052 0.27521171458 0.29621275215 0.29359378857 0.29213928464 
0.28431229269 0.28036978039 0.2788073859 0.28372681072 0.30041860902 0.30393192165 0.29087497075 0.31589870906 0.33428260862 
0.2851354129 0.32765718087 0.29481793534 0.32984643705 0.29253428821 0.2874011968 0.30612635915 0.30944257448 0.31122632915 
0.3118837464 0.31972793491 0.30336841069 0.28757102595 0.3235379046 0.32087014799 0.31168045899 0.29140496683 0.29510121439 
0.29679981989 0.29662519446 0.3183787745 0.34023976474 0.30848927592 0.32730328931 0.32735327617 0.32802991961 0.31792858692 
0.31162946267 0.30293798236 0.30055593074 0.30711065054 0.29613211291 0.30088175023 0.32478534196 0.28254971614 0.33031294946 
0.31148390643 0.32612203596 0.33228033192 0.29949209044 0.32753604626 0.29718638486 0.30811073022 0.30141259163 0.31652670129 
0.32079782236 0.32253439771 0.32267938341 0.28940836538 0.28361365097 0.29352039192 0.32933589655 0.31689200553 0.29668596286 
0.2901996732 0.31619681058 0.3048750057 0.30643859543 0.3062052712 0.31460125174 0.29477012568 0.30259446306 0.31229720509 
0.30941365812 0.32541273171 0.3331204694 0.31614873829 0.30611847642 0.30150654666 0.30007177903 0.32361849918 0.31972388976 
0.30690342336 0.83544966786 0.52745319047 0.73536322734 0.54362243531 0.62920425627 1.002710438 0.6499514704 1.2553479759 
1.237040221 0.30984065546 0.74407456078 0.73622687098 0.71704266376 0.69175180616 0.497276134 0.60968145664 0.27161361673 
0.23258304999 0.24445573442 0.2412138098 0.30968003619 0.35106389073 0.41474808316 0.56811846911 0.40396350548 0.39792678908 
0.39528443923 0.41545202191 0.42207877661 0.40377423748 0.93993652755 0.92228369073 0.89048555977 0.83363868531 0.78911901064 
0.24214434482 0.20018679552 0.21684742395 0.27630333366 0.2616390565 0.34027257936 0.40840399296 0.58251359993 0.4124047076 
0.37896815898 0.43449526364 0.45496433026 0.53942366559 0.45772207307 0.4131387716 0.43002637338 0.45312573982 0.52515418006 
0.219989118 0.21264552003 0.24308299786 0.24198104609 0.31264653711 0.38925434927 0.46521873905 0.45951970859 0.76986045059 
0.92680223122 0.71800348205 0.69586485546 0.82928443528 0.79800432096 0.34720843126 0.38844662079 0.41424499783 0.33524302302 
0.48905861076 0.28518073223 0.21606807004 0.23320041065 0.26271548507 0.26453282354 0.30961494433 0.35462730316 0.62080542261 
0.76678804621 0.72413457034 0.71811800593 0.69281548744 0.48474793501 0.77274516683 0.39966608499 0.3539111059 0.39130692378 
0.43942065275 0.45269411466 0.46421138939 0.59325143331 0.50145501853 0.3732978327 0.32400887788 0.2865765867 0.24936659513 
0.22407911672 0.25366567386 0.77332798075 0.92909060794 0.72603463589 0.70436806398 0.49095179064 0.63626427497 0.38801414145 
0.41499043501 0.39607809968 0.41750620989 0.54473500267 0.60309782278 0.36521319728 0.35238705988 0.27134177501 0.24319264789 
0.21633494639 0.21807399583 0.23808922763 1.0034626392 0.73890677927 0.91515091479 0.89018470823 0.83894169155 0.78151987025 
0.77918102008 0.54366606662 0.92053423075 0.70581527093 0.66811187274 0.65135639214 0.61704034937 0.43726326956 0.31865943808 
0.32682020614 0.25132528584 0.25530346158 0.20092612932 0.25283819711 0.43634485896 0.38447290833 0.41171044908 0.41243356696 
0.50312972271 0.96726950142 0.73984345594 0.53556376901 0.8917935581 0.66046737736 0.65962402468 0.73693601584 0.36950427933 
0.35173437719 0.31413322443 0.27222296592 0.23742566606 0.20926746399 0.23465199686 0.35597191468 0.39769350914 0.42419066145 
0.44044424325 0.36941638789 0.52288100433 0.46696987181 0.48396630966 0.42329040067 0.25096944617 0.22040706343 0.20134186731 
0.19072559218 0.18370033497 0.18226892005 0.17884877858 0.17383553976 0.16933688803 0.16893886967 0.16943972954 0.17024748429 
0.17014992594 0.17216493322 0.17542510186 0.1755265634 0.17910527317 0.18195319178 0.186752565 0.19526973636 0.20469680852 
0.21827070228 0.24648780427 0.41719576386 0.36009763162 0.23914741902 0.20983921618 0.20014101966 0.19665081024 0.19408421491 
0.18610135779 0.1733918649 0.17289068729 0.17487300746 0.17700837529 0.17003649814 0.16533383512 0.16940058071 0.17033258774 
0.16966648809 0.16435945754 0.15467787111 0.15541019476 0.17121406084 0.1747773829 0.17362467194 0.17365109985 0.17491790044 
0.19422164906 0.20380830657 0.20806157933 0.21718703624 0.24864492915 0.38100562703 0.30754658128 0.30751630698 0.30785426611 
0.30865699562 0.30983873904 0.31138909482 0.31316697737 0.31509585306 0.31719391772 0.31915071196 0.32092823085 0.32240944957 
0.32350143881 0.32417685854 0.32446176755 0.32421934821 0.32355638055 0.32245466137 0.32103947168 0.31941436543 0.31747874457 
0.31557228138 0.31382996248 0.31212786711 0.31065594716 0.30943514632 0.30846972888 0.30783488776 0.30755675991 0.30763408724 
0.54222673942 0.32689478693 0.29161578365 0.26881863205 0.25640154747 0.24740623496 0.24182124466 0.23871100323 0.23710736234 
0.2368719334 0.23756759276 0.23961661088 0.24275272899 0.24729221216 0.25293024523 0.25894206352 0.26617559233 0.27442586692 
0.28301080857 0.29147721458 0.2987491726 0.30401379372 0.30597405062 0.30469066046 0.30065537654 0.29533438313 0.29013966506 
0.28548935508 0.28165058538 0.27882018414 0.27711400409 0.2763189584 0.2766294704 0.2778263319 0.27987411357 0.2828846076 
0.28635251967 0.28981221771 0.2935650438 0.29723117957 0.30043235008 0.30337924413 0.30576920267 0.30738070843 0.30801993851 
0.30787573795 0.30780081944 0.30795310449 0.30755764663 0.30638537497 0.30461492754 0.3022099172 0.29943482387 0.29647695223 
0.29368068817 0.29124348175 0.2890209573 0.28713187253 0.28597345801 0.28562806179 0.28599516294 0.28734588312 0.28962328519 
0.29247405371 0.29595193859 0.29994851881 0.30396039873 0.30738150168 0.30974850756 0.31010072805 0.30831268645 0.30423741561 
0.29870884405 0.29185018181 0.28430885736 0.27669382808 0.26951353181 0.2632687826 0.25765402023 0.25290649149 0.24900297633 
0.24598734937 0.2443293734 0.24366605969 0.24426985411 0.24667579535 0.25115558805 0.25891352631 0.27107527502 0.29234107748 
0.32941132758 0.52194170699 0.25555090596 0.29726010052 0.40810134151 0.41460311355 0.40928401628 0.39452439051 0.37859072371 
0.33547213397 0.33394171866 0.3586747208 0.61475866449 0.53614328018 0.36886008115 0.37156249298 0.37197590293 0.38062434622 
0.39288168284 0.40609728 0.36292285933 0.39374303047 0.27276133273 0.24166937069 0.24202491761 0.29038582388 0.42234358793 
0.40807554426 0.39401720394 0.37923835255 0.38861377021 0.36382303386 0.33309028238 0.35236501552 0.63078869018 0.56768880709 
0.35084598932 0.32777454514 0.35145368406 0.32938198487 0.37957701228 0.35073398206 0.36934810768 0.37539626096 0.30085640343 
0.28040629226 0.30754820231 0.30761316179 0.30816201278 0.30940650158 0.31117813751 0.31339109577 0.31593945765 0.31868034779 
0.3210181442 0.3227095672 0.32392825803 0.32439110219 0.32396919198 0.32285664651 0.32122182749 0.31911941312 0.31670497012 
0.31435365223 0.31216952806 0.31027516625 0.30886000459 0.30794054075 0.30758088727 0.3075872891 0.49394386073 0.34166945593 
0.28102333514 0.26011348036 0.24780990101 0.24104733796 0.23786285097 0.23695316271 0.23789931902 0.24058690937 0.24541597307 
0.25180869073 0.25980870841 0.26822715866 0.27728215545 0.28742136407 0.29720104877 0.30387935771 0.30588996663 0.30301226705 
0.29750218003 0.29122806068 0.28500823222 0.28028758183 0.27753876314 0.27648292852 0.27683909465 0.27876255897 0.28195405551 
0.28601632956 0.29002001915 0.29425741854 0.29860095831 0.30220525701 0.30515755587 0.30719902596 0.30791924822 0.30788150897 
0.30786580432 0.3079580199 0.30713980328 0.30532997849 0.30261930378 0.29929541699 0.29578614461 0.29243020677 0.2894771797 
0.28716894253 0.28590935079 0.28578407132 0.28711711922 0.28973022719 0.29343759204 0.29779726615 0.30248728981 0.30691283128 
0.30983227354 0.30981166128 0.30616045103 0.29912776778 0.29025821394 0.28075058686 0.27123136406 0.26273438537 0.25570410675 
0.25022180912 0.24648190845 0.24437245831 0.24409775166 0.24636760679 0.25205470206 0.26288215334 0.28460914003 0.33272200577 
0.48432402685 0.24141442826 0.32155298976 0.4301158463 0.42709606513 0.41888053722 0.40623760506 0.39345043934 0.37999394564 
0.35390154759 0.34732768588 0.57199859415 0.65037578084 0.34890973848 0.35964459045 0.38663265454 0.39203353617 0.4042248306 
0.41724266996 0.42247847421 0.43506826717 0.27842641856 0.22411860489 0.24500298252 0.28977362295 0.41201582552 0.41524196184 
0.39823163307 0.38317475319 0.37281628847 0.36238864919 0.35658786729 0.66183510994 0.69229301933 0.34953375684 0.34341231223 
0.34969184401 0.37407820378 0.38840900609 0.40148544323 0.44871530154 0.38718128063 0.28278373928 0.28141409012 0.30770703076 
0.30769561271 0.85692545289 0.67904432196 0.76181134397 1.0277235291 0.73298865283 0.61525668219 1.0226998933 0.84779703915 
0.63268047269 0.97844199409 0.63129222436 0.89665531466 0.20351186483 0.63647988452 0.74486394331 0.2114814147 0.16096015018 
0.16426212255 0.19093541445 0.16010843805 0.16138628458 0.17558392638 0.18632994539 0.16638863324 0.17794637907 0.15664561578 
0.19284370117 0.18228735607 0.22212869888 0.2152405733 0.23666713358 0.22880355221 0.22559083444 0.23801199588 0.17628574874 
0.18079865636 0.20463855832 0.21191026897 0.17459143327 0.23012492017 0.2491083086 0.16656710623 0.199763859 0.1927684297 
0.18810853427 0.20115171394 0.24063355344 0.21276349357 0.19199264052 0.22502058552 0.21098892499 0.1897644422 0.21210384629 
0.20643188115 0.17721581501 0.20515746401 0.20975319049 0.19898708746 0.19336248355 0.24462258764 0.18787251373 0.19089960335 
0.20465554717 0.16651069607 0.16740743235 0.16599285052 0.16502173762 0.16464218114 0.18231748084 0.16852773976 0.18270677196 
0.1846376794 0.21499824733 0.21375595903 0.22474685422 0.23627547175 0.22291427191 0.23064126193 0.18610746349 0.18717552444 
0.20733119788 0.19882717746 0.16904830515 0.1708563051 0.19398401897 0.19763953872 0.20673814699 0.19148993104 0.26190607479 
0.21626149259 0.23944557382 0.23991397171 0.21694627557 0.20673570542 0.20762082627 0.17250642324 0.18921429619 0.19729949052 
0.20422772794 0.16389053681 0.18759359998 0.18320061384 0.21076679091 0.20165244139 0.22423246156 0.23624147748 0.16313063427 
0.18567486362 0.19244025853 0.20047178541 0.20155730541 0.19375753539 0.22772095392 0.23780772869 0.16820854279 0.17698388211 
0.17677356315 0.16083416501 0.19178786533 0.16963239761 0.16515522885 0.16654151128 0.17812922603 0.27636239921 0.21706093305 
0.20843712557 0.24305377778 0.22245752175 0.23621743209 0.21115458581 0.21544373968 0.16048802883 0.17809702029 0.18957683755 
0.16141106409 0.20360563666 0.1802012173 0.21425139443 0.18506733542 0.26645514853 0.18913129195 0.20035051959 0.21117881958 
0.19491150291 0.20186287784 0.17625668682 0.19086972913 0.19037608986 0.19873662792 0.2095958779 0.21986751916 0.23072482505 
0.1592444035 0.17503708588 0.17145010059 0.1765880477 0.19469018766 0.18801320831 0.18358415194 0.21119861918 0.20363386079 
0.20936642702 0.23419296451 0.23974021258 0.21681452654 0.24630202771 0.20938450453 0.16339430425 0.16474368407 0.15971114266 
0.15907489253 0.17754752939 0.1665304511 0.17841981626 0.19267957785 0.21713663573 0.22231832418 0.22662664224 0.21893565958 
0.20712560184 0.2105584335 0.17108767819 0.15849209316 0.15714116869 0.1817544388 0.17173742976 0.19631539162 0.20493568602 
0.19944172249 0.18793158847 0.22548612098 0.19093296548 0.18111981054 0.18342747707 0.17373127819 0.18036420942 0.18518715901 
0.18908695281 0.18596324009 0.19785153789 0.24125585449 0.22988546529 0.23880395207 0.21766410549 0.22411907427 0.22760776561 
0.2023377486 0.20898147561 0.22289595248 0.1868952694 0.19364325177 0.20951743296 0.15655707096 0.16685840454 0.16303008093 
0.16290077732 0.16899528441 0.19612125752 0.25314623657 0.23304636745 0.2136527555 0.24128623231 0.21424369231 0.20671941407 
0.22883530244 0.17799514043 0.169242224 0.16337607427 0.18445002272 0.19114092253 0.1638412717 0.17651714293 0.16752460325 
0.17785219474 0.17660721682 0.1823110938 0.20542728418 0.19179096058 0.19035451644 0.21202626632 0.25605406778 0.20159702047 
0.21042192861 0.19007192123 0.18743600142 0.17597999437 0.1858821804 0.1924781651 0.23258847909 0.24270449238 0.22804532134 
0.2084089763 0.20105089849 0.19143292291 0.18579630747 0.19214153132 0.16470391005 0.16404449246 0.16650350018 0.16484379393 
0.17650796949 0.20587760804 0.215508976 0.26124133105 0.20178876687 0.20947366755 0.20903632134 0.24023843812 0.17875422634 
0.17052615422 0.21784143301 0.21686769934 0.18321673354 0.19871232371 0.21397006288 0.17755970823 0.16160429355 0.16057103358 
0.18864840223 0.16358787772 0.20950809124 0.17664401325 0.2288534927 0.23975688775 0.1811259923 0.19681990815 0.18855877388 
0.16573253999 0.16756463894 0.17791833733 0.16271814711 0.16203944048 0.18090421558 0.17353485909 0.17111751432 0.18081612366 
0.16551707095 0.23841934655 0.2769024077 0.23915581811 0.22284241511 0.23626051567 0.23223757456 0.23690275597 0.2245945635 
0.219891424 0.22385441482 0.19214897516 0.18694605718 0.18766199787 0.19152271794 0.2152701884 0.17780170473 0.16873998976 
0.16816652509 0.19979886782 0.20542832617 0.19600417844 0.19072925797 0.20785272616 0.22512729083 0.20111760624 0.21442573015 
0.2116453592 0.21485664349 0.19503615455 0.20199837373 0.16693819794 0.16596283412 0.16342057095 0.16378340102 0.16372749405 
0.17753864515 0.16649296915 0.16868189295 0.17960288544 0.16751182565 0.23832306618 0.24881042154 0.25077388402 0.22421642792 
0.23173605248 0.24249046142 0.24775179926 0.2203642541 0.2236431781 0.23219336666 0.20162261165 0.20824139681 0.22435884212 
0.18865905371 0.19338499435 0.17978080117 0.18259554788 0.19237575283 0.19029044742 0.20707963937 0.20897900667 0.17269283087 
0.17585762946 0.20620220201 0.23020235645 0.16718782645 0.19892262447 0.17485362807 0.20478136726 0.177540729 0.18831019238 
0.21196416566 0.19333285521 0.19816688392 0.18945686895 0.20149726749 0.20945260262 0.18822947685 0.19483019654 0.20615830582 
0.3464127136 0.34040808633 0.23806555856 0.24050746354 0.18935991492 0.18258986191 0.16816594481 0.16817815601 0.16039780132 
0.1569659487 0.15472172426 0.14759101333 0.15384628414 0.14291583782 0.12974283943 0.13521873333 0.12922704409 0.1299623813 
0.12948070603 0.12345424362 0.13411631321 0.12907459228 0.11622219206 0.12388416715 0.11881903627 0.12065638321 0.12188514957 
0.11773242272 0.12777875593 0.1078285098 0.10405035455 0.10714897141 0.1170287696 0.13670360608 0.13030236334 0.13160882258 
0.13495885455 0.13196725449 0.14171953541 0.13184320495 0.14423108643 0.16468752896 0.16820469552 0.17292323399 0.1838853615 
0.17991039017 0.20655023342 0.16239672734 0.15713774205 0.17689706612 0.13477995386 0.11484549076 0.10954757822 0.12967268306 
0.3076844213 0.30761255784 0.30764085052 0.30789124984 0.30818880192 0.30781689251 0.30859714618 0.30905360871 0.30847923917 
0.30959800664 0.31027914244 0.30941579135 0.31097422791 0.31180549789 0.31062134733 0.31253013355 0.31342532514 0.31205996764 
0.31428258639 0.31527486123 0.3136400282 0.31614406736 0.31715257158 0.31531511394 0.31795368605 0.31884167073 0.31692264918 
0.31953736229 0.32036467731 0.3184136861 0.32099288768 0.32160649984 0.31974137788 0.32204976306 0.3224694749 0.32076875165 
0.32276081642 0.32299952566 0.3214759161 0.32307287653 0.32310227946 0.32187532805 0.32303280253 0.32277927309 0.32186221337 
0.3225001007 0.32209562642 0.3214864421 0.32164530611 0.32098627917 0.32077233672 0.32041516249 0.3197192793 0.31977497921 
0.31904547631 0.31815758819 0.3185386203 0.31736251189 0.31636160763 0.31706783992 0.31560274405 0.31478540053 0.31555901651 
0.31400097712 0.31312206581 0.31406956111 0.312424937 0.31164629365 0.31261449758 0.31104078459 0.31039022087 0.31127257566 
0.30983376152 0.30930138071 0.31015262469 0.30884482859 0.30845084022 0.30917455723 0.3081296923 0.30790045182 0.30840030826 
0.30771471804 0.30766183015 0.3078883845 0.30761250708 0.30768493041 0.30773377992 0.30770637687 0.41666528373 0.37039685051 
0.33115672246 0.31683929177 0.30132783894 0.34018593551 0.28899851248 0.28058416971 0.30781838134 0.27239817188 0.26643578481 
0.28814591352 0.26098093546 0.25705881346 0.27465685751 0.2533886342 0.25135943572 0.26516594535 0.24875174285 0.24747433631 
0.25905141688 0.24570755594 0.24514781976 0.25466797209 0.2445215373 0.24452259249 0.25225445739 0.24458958098 0.24503360014 
0.25151771612 0.24508878791 0.24642126132 0.25140746377 0.24716380973 0.24900611888 0.25207138024 0.25030805234 0.2529241208 
0.25413979344 0.25489350448 0.25766905045 0.25736590366 0.25999860777 0.26294312568 0.26145916916 0.26535658702 0.26919848516 
0.26591302335 0.27198415069 0.27617150885 0.27093224885 0.27910642139 0.28321399357 0.27659131109 0.28609319784 0.29005531973 
0.28239232759 0.29251663862 0.29556422674 0.28772148817 0.29704222191 0.29905815597 0.29162566909 0.29987386325 0.29994873786 
0.29409492744 0.29979396352 0.29851456283 0.29486222351 0.29749464 0.29515116879 0.29364768084 0.29365515052 0.29107413118 
0.29102136956 0.28956879977 0.28722735751 0.28803373231 0.28589235223 0.28386066234 0.28529961693 0.28277079098 0.28116012329 
0.28290416427 0.28039786498 0.27925913377 0.2811089392 0.27883525043 0.27822089364 0.27995568996 0.27811546412 0.2781147233 
0.27953798818 0.27832868814 0.27877071535 0.27981355719 0.27946471833 0.28026454131 0.2807906971 0.28121514366 0.28243578754 
0.28247123611 0.28377597015 0.28547763599 0.2847876585 0.28684297371 0.28850744939 0.28754744696 0.28996949039 0.29167896284 
0.29034118057 0.2931698399 0.29507640322 0.2932594572 0.29661988965 0.29829625807 0.29628274285 0.29968537526 0.3011326812 
0.29919970439 0.3023130518 0.30369824562 0.30174052548 0.30474255523 0.30572531733 0.30393030278 0.3064738103 0.30700225543 
0.3056666121 0.30749892983 0.30764432206 0.30684227449 0.30760234625 0.30756502199 0.3075586214 0.3071995487 0.30675986663 
0.30698033577 0.30614439323 0.30538696282 0.30600476009 0.30456420504 0.30355889139 0.30454541062 0.30258400229 0.30123567128 
0.30273369707 0.30004903885 0.29870125654 0.30056803332 0.29747440851 0.29596075742 0.29818319877 0.29486702589 0.29364873809 
0.2958702817 0.29256087027 0.2914087133 0.29369059454 0.29039695089 0.28937812967 0.29161075869 0.28862155961 0.2877901514 
0.28984483992 0.28735396126 0.28694752989 0.28854088164 0.28670115135 0.2867603691 0.28777437372 0.28680292264 0.28722810821 
0.28756845125 0.28757660015 0.2885500606 0.28801836839 0.28928763383 0.29037896183 0.28910578548 0.29143657045 0.29296876261 
0.29074096764 0.29409543046 0.29592978194 0.29274681341 0.2972580558 0.29926226619 0.29519930055 0.30057287598 0.30236707635 
0.2978460132 0.30344831847 0.30489504879 0.30020707485 0.30529902954 0.30604607372 0.30169950224 0.30600367611 0.3055502523 
0.30214145887 0.30460835629 0.30304483778 0.30124390409 0.30156112094 0.29913579546 0.29874180753 0.29710378734 0.29421114562 
0.29515934082 0.2914912093 0.28776583761 0.29040216791 0.28503003888 0.28141678901 0.28507533198 0.27873059838 0.27493324697 
0.27969167732 0.27230017691 0.26905570019 0.27441893243 0.26670706274 0.26383470237 0.26948485607 0.26184516467 0.25932044648 
0.2652075578 0.2577755069 0.25573551671 0.26177019542 0.25451329524 0.25272341508 0.25914573001 0.25191879585 0.25096131149 
0.25728742876 0.25092357618 0.25034707704 0.2565038101 0.2507281934 0.25090486468 0.25694784753 0.25203215386 0.25286600313 
0.2585909187 0.254750689 0.25650743359 0.26190787122 0.25998280326 0.26293300083 0.26721440112 0.26859793217 0.2742178582 
0.27613227361 0.28257878822 0.29166164399 0.29016583712 0.30479637855 0.32129417349 0.31196443832 0.34610494801 0.4473692826 
0.34773424237 0.39783181896 0.31440583068 0.30141105102 0.29339512415 0.27651925621 0.36879065181 0.26877012008 0.25865484205 
0.31294230467 0.25774958964 0.24954310353 0.29496721915 0.25064590363 0.24379578466 0.2852854377 0.24309353021 0.23927591328 
0.27826187132 0.24877754317 0.23847384603 0.30716634815 0.23958152187 0.23560938611 0.27866114747 0.23861314897 0.23648591488 
0.27873589085 0.23758839705 0.23561108874 0.2756083628 0.23678831387 0.23795595951 0.27468183661 0.24191960901 0.23640322789 
0.30762947688 0.23647947362 0.23545272622 0.27838748514 0.23655842556 0.23612389589 0.27735306746 0.23607251425 0.23670183278 
0.27794969081 0.23609396715 0.23723172969 0.2784624811 0.24649789393 0.24766385515 0.31573409242 0.24419837481 0.24339294069 
0.31919606875 0.23537563441 0.23769765958 0.31659246844 0.23689825631 0.23962355823 0.27653803907 0.23606312136 0.24098539734 
0.27870244097 0.23992685411 0.24666851263 0.27873042987 0.25217147694 0.25366648894 0.3134564815 0.24238791812 0.24795412808 
0.31468733629 0.24953026883 0.25823267975 0.28466182096 0.25898618638 0.27016956817 0.29522632003 0.27948143975 0.29242483703 
0.31299136674 0.30659489195 0.33329613633 0.38487231112 0.21665724243 0.20801604053 0.26836645949 0.24309937634 0.23264622047 
0.30420585228 0.29401539067 0.27566933347 0.29880936254 0.30757701103 0.30058323241 0.29828276719 0.30317515659 0.30734089077 
0.29684097988 0.30122782012 0.30811971088 0.30158987974 0.30115883833 0.30760064527 0.30291209731 0.3027163639 0.30531459101 
0.30131438132 0.3067552631 0.30312421703 0.35101385083 0.32235695516 0.3214169542 0.46897498543 0.39513504081 0.3876270167 
0.39713440998 0.45826490217 0.32706961889 0.36043976555 0.35898251316 0.30658771781 0.31339838457 0.3188698202 0.29999741793 
0.29691790806 0.30945763066 0.29699849156 0.29310914866 0.3052583231 0.29645973109 0.29220427996 0.3031287501 0.29719640268 
0.29257027755 0.30264695105 0.29881283619 0.29076546755 0.30005158152 0.2815269008 0.29381572472 0.28837159867 0.23112549265 
0.2613645413 0.25791102673 0.2112242341 0.22092215634 0.22507834013 0.23332222282 0.21417277214 0.26805629988 0.24780545722 
0.23305925929 0.29602062062 0.29049351707 0.27162317854 0.29474508514 0.30350005818 0.29829019474 0.29002104279 0.29788544932 
0.3030479635 0.28691330433 0.29388688527 0.30135039528 0.28713181226 0.29100726244 0.29817004102 0.29097523493 0.29256497555 
0.29770052156 0.30225742187 0.29824890548 0.29906207972 0.34620587822 0.32187784085 0.30804130334 0.46877603556 0.38636089715 
0.34721000378 0.38762316599 0.44894677959 0.3172628847 0.35056524881 0.34368721028 0.29971270508 0.30353742826 0.30905940233 
0.29580795895 0.29727133596 0.29785412849 0.2966733665 0.29425434843 0.29731323288 0.2974220802 0.29782519598 0.30009412053 
0.30168356351 0.2922497566 0.30443970394 0.30767970778 0.30146390217 0.30320593175 0.29977102964 0.30333355435 0.29835854356 
0.24706299827 0.28233750921 0.27263091864 0.20826242194 0.22931073808 0.24160013953 0.46038318385 0.2510473045 0.25930636023 
0.25189384499 0.36193416745 0.43238804926 0.55262722802 0.52574289334 0.42512586306 0.45445246976 0.24782570362 0.2492317322 
0.25392604695 0.44240861807 0.54266414685 0.44192986225 0.41014529906 0.30772112066 0.24448023531 0.26906144393 0.30788603475 
0.30831763336 0.30886105752 0.30941461844 0.30826163666 0.30998823006 0.3107032537 0.30938433365 0.3113703085 0.31212562232 
0.31069544194 0.31284700607 0.31370864156 0.31220460717 0.31451715263 0.31534924645 0.31377085187 0.3160742488 0.3168648141 
0.31530413666 0.31753442225 0.31824173595 0.31672034577 0.31881879029 0.31944163397 0.31807353643 0.31989558887 0.32032302099 
0.31912918724 0.32065038728 0.32093154285 0.3199084346 0.3210986822 0.32118027348 0.32039338579 0.32117850121 0.32108873348 
0.32058365697 0.320919616 0.32063534912 0.3203711589 0.32029944958 0.31985417013 0.31985447444 0.31939887004 0.3188278838 
0.31904838302 0.31826153012 0.31757819522 0.31800320254 0.31692225543 0.31612843936 0.31668117147 0.3154606647 0.31472901343 
0.31533201647 0.31404763863 0.31328560477 0.31397305544 0.31263342294 0.31191502411 0.31262518735 0.31130659996 0.31068431233 
0.31127104616 0.31016041288 0.30962049683 0.31009625892 0.30913535562 0.30868298565 0.30908951146 0.30835692343 0.30804028915 
0.30826639187 0.30780910375 0.30761577323 0.30768214795 0.30750401657 0.29682668313 0.2848373191 0.37615635395 0.30742411126 
0.32068495988 0.30796497027 0.29998837758 0.29145799657 0.30766178955 0.28551924797 0.28013510134 0.29462317037 0.27518471927 
0.27115206814 0.28432577186 0.26798722249 0.26544434155 0.27651386983 0.26295748876 0.26107347192 0.27076849047 0.25925495258 
0.25867004926 0.26678863561 0.25760466485 0.25751069884 0.26402354384 0.2569545346 0.25681084653 0.26244905012 0.25669889782 
0.25724703901 0.26161233607 0.257633837 0.25887823127 0.26163196272 0.259651184 0.26156251847 0.26274035292 0.2626414478 
0.2647619645 0.26456425885 0.2659801766 0.26818394252 0.26685177024 0.26966148652 0.27226887928 0.26944616852 0.27402405955 
0.27684437846 0.27261206 0.27880792375 0.28161551988 0.27623077132 0.283639356 0.28592835038 0.28021936373 0.28733605764 
0.2887654026 0.28365702504 0.28960886943 0.29053393376 0.2857882219 0.29080289813 0.29058783789 0.28687902021 0.29015075483 
0.2890231205 0.28664449078 0.28820446337 0.28670183754 0.28503851955 0.28606937225 0.28466568201 0.28340159593 0.28425147063 
0.28304667311 0.2823387323 0.28263156842 0.2815879681 0.2815304855 0.28133108366 0.28062966941 0.28088461087 0.28050331263 
0.2802151411 0.28054691433 0.28031731071 0.28033310929 0.2807090095 0.28079335308 0.28107637334 0.28134128296 0.28180469929 
0.28246152968 0.28252137905 0.28335219614 0.28434658649 0.28413416514 0.28555597916 0.28690392565 0.28624032922 0.28811284969 
0.28950267703 0.28875448367 0.29068713894 0.29211673437 0.29120972666 0.29340355077 0.29486207984 0.29372884841 0.29618173338 
0.29770390528 0.29635272081 0.29893094117 0.30030625038 0.29891824326 0.30137876944 0.30255344639 0.30124663943 0.30355553436 
0.30456859441 0.30335752581 0.30541701157 0.30611466771 0.30518186766 0.30671157969 0.30721330278 0.307462096 0.30660307222 
0.36487780068 0.33890883688 0.33407381547 0.34852890962 0.32960608266 0.32476216396 0.3070154177 0.30666102766 0.30613479455 
0.30553303602 0.30625781854 0.30480170064 0.30397168903 0.30506288628 0.30317842509 0.30217378509 0.30352760229 0.30120480062 
0.30004242717 0.30173153951 0.29902384213 0.29782310312 0.29971819203 0.29680852106 0.29571245355 0.29766477788 0.29471346453 
0.29362452917 0.29561667358 0.29266603509 0.29168058073 0.29361141667 0.29083037154 0.29007450376 0.29178730146 0.289370947 
0.28889359495 0.29025290712 0.28844856802 0.2881528587 0.28909772538 0.28796157476 0.28794960818 0.28836832327 0.28798191927 
0.28834380542 0.28807502388 0.28851327193 0.2892511562 0.28823956955 0.28959033981 0.29050831907 0.28878036476 0.29108970497 
0.29211235631 0.28972226508 0.29288454955 0.2941604255 0.29101924434 0.2950182333 0.29629919232 0.29265363474 0.29714720619 
0.29813761605 0.29440521273 0.29865175321 0.29904531846 0.29579274233 0.29907012948 0.29913466795 0.29637708342 0.29855819152 
0.29774227371 0.29601406143 0.29673155978 0.29519866738 0.29459827451 0.29377550002 0.2917167385 0.29221943509 0.28989497703 
0.28724228177 0.28884337833 0.28525685542 0.28266105789 0.28498496601 0.28082187077 0.27819747736 0.28117882077 0.27629049608 
0.2737743123 0.27748679321 0.27208807781 0.2698575965 0.27398954134 0.26842611905 0.26648287547 0.27095575084 0.26561875106 
0.26410115856 0.26862462521 0.26347473289 0.26240583131 0.26704423435 0.26218269309 0.26154462139 0.26626311108 0.26171056235 
0.2618375672 0.2664032149 0.26253832329 0.26292912787 0.26732251329 0.2644689015 0.26560468358 0.26939179592 0.26768839425 
0.26984820124 0.27275678783 0.27287365952 0.27659368315 0.27797502291 0.28133695344 0.28686896548 0.28583501781 0.29402345945 
0.30208356153 0.2965903812 0.3106399411 0.32420060827 0.32800130852 0.31132803197 0.32023611261 0.2731754945 0.24842079727 
0.30527316832 0.30186276549 0.28956782694 0.28971235176 0.30419986644 0.27893137045 0.28057512536 0.29104294102 0.27304182422 
0.27520541328 0.281940787 0.26905072067 0.26511958653 0.27739839392 0.26563943405 0.27027948419 0.27297400324 0.26772322415 
0.26988226061 0.27279019411 0.26753878879 0.26914979021 0.27274322174 0.2673058098 0.26848693994 0.27328223726 0.2659107381 
0.26389509156 0.27382429862 0.2674319173 0.26864165962 0.27342887124 0.26973094094 0.27092577356 0.27461180069 0.27096458896 
0.27098467847 0.2762217783 0.27221751087 0.27236808875 0.27737833587 0.27077892932 0.26838540862 0.27669258714 0.26753054676 
0.27258434685 0.27602614066 0.2706824714 0.27054400217 0.27560492736 0.27445116562 0.27008274141 0.27671445942 0.27292423657 
0.26925108183 0.27646685912 0.27302016215 0.26885771627 0.27630120197 0.26977985466 0.26884072497 0.27575569324 0.27130458957 
0.2773035145 0.27873980056 0.28389852044 0.2802912775 0.28383289725 0.29062502636 0.29111396331 0.29157201788 0.30460379486 
0.31060027916 0.30569793576 0.27840327272 0.25398860706 0.27378053367 0.3956859144 0.43918517315 0.24574439797 0.23575168352 
0.25223604573 0.30061374519 0.29938543165 0.29128535599 0.30183712714 0.30058814578 0.29800652494 0.30130119582 0.30025816018 
0.29966399137 0.30100208953 0.29968476421 0.29912713837 0.30234702352 0.3006865842 0.29899724095 0.32312588138 0.31055238683 
0.30661864809 0.37155492005 0.34705394532 0.33215403784 0.24721274885 0.26565568367 0.30514938017 0.31832968066 0.3367617942 
0.36476164274 0.36682219225 0.32401638337 0.29554809147 0.2994985777 0.29572604754 0.29817733433 0.2946689429 0.29446255295 
0.29709829434 0.29399357382 0.29057471709 0.2935085634 0.29080520491 0.2739334382 0.28495847767 0.28143054712 0.24483310857 
0.26369288088 0.26404152892 0.23853058754 0.23714033603 0.24819529304 0.27063583405 0.24926238785 0.39132972891 0.42373087994 
0.27175178401 0.25336340566 0.24509149216 0.2393835082 0.25425509009 0.25306082226 0.29551536724 0.2918623571 0.29619575979 
0.29318886174 0.29022817618 0.29549417211 0.29174263702 0.29156595275 0.29528172872 0.29088825629 0.29058764446 0.29873769458 
0.2915454327 0.29009837266 0.31535759977 0.3004744614 0.29566334845 0.37271029784 0.33338343094 0.32184597993 0.43295455248 
0.40609784322 0.29956394796 0.30872815034 0.32641339026 0.36098835376 0.3563494385 0.31627337051 0.29498305551 0.2937777074 
0.29562984342 0.29631698724 0.29294571781 0.29842529871 0.29764374634 0.2944265183 0.29644784787 0.29740590172 0.29375772814 
0.2848890201 0.29274866929 0.28731175005 0.25582614713 0.27555460619 0.27183316514 0.23890942094 0.25087823775 0.25415495988 
0.25635282921 0.30763577724 0.29704893049 0.30298371411 0.30151550623 0.29551664163 0.29037973065 0.27879834416 0.26918328935 
0.28373018219 0.29399798191 0.29448850285 0.29605110887 0.29183487756 0.34764609115 0.27384133748 0.27489138952 0.30736028853 
0.32485212484 0.40793784296 0.4458393667 0.27612509288 0.30742664506 0.32365405281 0.32061640955 0.43152259206 0.25328016065 
0.27019856805 0.27023275253 0.27253575906 0.39724266255 0.25523135182 0.38997843562 0.41737997514 0.37194034574 0.39766922194 
0.3070930923 0.31586834141 0.3086302984 0.30926547549 0.30981021192 0.31056170443 0.30902564964 0.31130525619 0.3121069128 
0.31041763606 0.31291411127 0.31377274055 0.31213197017 0.31463379802 0.31540181875 0.31385688314 0.31611791567 0.31685257601 
0.31548458028 0.31750316794 0.31812871301 0.31696677987 0.31867157793 0.31916825461 0.31828451981 0.31956718846 0.3199067777 
0.31928376841 0.32017547838 0.32034513574 0.31998022074 0.32040248628 0.32040692786 0.32034052359 0.32030029045 0.32009746968 
0.32026204902 0.3198050613 0.31945222842 0.31983056563 0.31901897548 0.31850913098 0.31906166797 0.3179335676 0.31731797428 
0.31798718015 0.31667095614 0.31594735967 0.3166672476 0.31526493058 0.31455851209 0.31522668731 0.31388445434 0.31317351081 
0.31378985412 0.31249908861 0.31178660914 0.31240884212 0.31114518921 0.31048477554 0.31100453631 0.30987339569 0.3093000175 
0.30965434519 0.30873866276 0.30824180234 0.30845305185 0.30787559573 0.3075395521 0.30751328604 0.30733340913 0.30711876954 
0.30672500543 0.30692861092 0.26172354342 0.25619648835 0.29499600108 0.2929539761 0.27099370151 0.27904802402 0.31100525506 
0.30385536573 0.3870451447 0.39758152647 0.2998276601 0.29442818411 0.30202075431 0.2913896694 0.28627657374 0.29531276854 
0.28353835312 0.28014188528 0.28912548187 0.27788268338 0.27522589453 0.28379737824 0.27337917388 0.27155138962 0.27943118423 
0.2699318671 0.26903535695 0.2758621292 0.26764809965 0.26706708995 0.27307445851 0.26610768746 0.26573508289 0.27081078776 
0.26518379435 0.26534308681 0.26915813589 0.2652493399 0.26597980337 0.26834088737 0.26614884544 0.26725383847 0.26837518304 
0.26751103357 0.26866306304 0.26885823436 0.26905737965 0.2703939964 0.26949051944 0.2709790416 0.27268040722 0.27033847717 
0.2735392938 0.27548196312 0.2718376673 0.27656318885 0.27858551001 0.27381118114 0.28040866367 0.28180297381 0.27678949344 
0.28200862242 0.28294097923 0.27916694436 0.28393917289 0.28413005873 0.28048571857 0.28345755753 0.28267891523 0.28052273853 
0.28201826725 0.28090624955 0.27874749508 0.28062778479 0.27996801108 0.27750744185 0.28021534462 0.27981408634 0.27746338984 
0.28015524909 0.27983849029 0.27807782286 0.28011297359 0.27987322534 0.27873177039 0.28025430038 0.280207844 0.2793961932 
0.2806488406 0.28087553877 0.28023297164 0.28153256952 0.28205917115 0.28140885751 0.28290790335 0.28360403059 0.28298370063 
0.28463156697 0.28552411947 0.28488027811 0.28671687766 0.28795675387 0.28712305055 0.289308202 0.29055639669 0.28969289974 
0.29171814265 0.29295593714 0.29225526521 0.29414520026 0.29544186706 0.29466274661 0.29660462317 0.29793298508 0.29705657956 
0.29903461245 0.30028214437 0.29934817962 0.30124488119 0.30235010809 0.30145213843 0.30337596092 0.3044049795 0.30349607744 
0.30543491669 0.30627058561 0.30557536484 0.30682844863 0.30621728243 0.28028479987 0.27399647637 0.30563375061 0.30493075309 
0.30615259334 0.30409228496 0.3032882057 0.30245301334 0.30145594821 0.30309054772 0.30056358439 0.29953240951 0.30131935647 
0.29858001523 0.29755331221 0.29944229596 0.29663052837 0.29559662872 0.29753334371 0.29457357995 0.29357259416 0.29553686517 
0.29259085524 0.29173230133 0.29345695854 0.29089296319 0.29022711114 0.2915962808 0.28951184622 0.28905504436 0.2900432325 
0.28849968086 0.2881982048 0.28875780499 0.28784461949 0.2877736588 0.28778202678 0.28754735021 0.28770491014 0.28712751902 
0.28761922292 0.28800665236 0.28678259859 0.28804288739 0.28859613444 0.28674768558 0.28881436223 0.2895388089 0.28702117606 
0.29012365029 0.29102860999 0.28782174075 0.29183781211 0.2927011327 0.2893359115 0.29337004109 0.29386455705 0.29087969723 
0.29407140937 0.2941526225 0.29181550289 0.29401356354 0.29360414931 0.29202083587 0.29310158389 0.29219324462 0.2914371739 
0.2911066035 0.28964620755 0.28986204916 0.28818068469 0.28629194843 0.28726787927 0.28481845697 0.28285060728 0.28426766903 
0.28152906893 0.27971459681 0.28138225502 0.27858721138 0.27672455364 0.27890558167 0.27571005482 0.27411222726 0.27673644463 
0.27326631875 0.27192901114 0.27491493987 0.2714790844 0.27054376749 0.27362380611 0.27048610823 0.26982449535 0.27306314086 
0.26999185317 0.269869181 0.27305648383 0.27026262257 0.2706434824 0.27366788482 0.27145863047 0.27233177594 0.27503399653 
0.27375533 0.27511481948 0.27744669136 0.27715182356 0.27897307354 0.28069590704 0.28171494657 0.28506378464 0.28498172532 
0.28795950582 0.29280334597 0.29082309237 0.29621929585 0.30225584251 0.29743876377 0.309891086 0.30244771858 0.3148423885 
0.41024015574 0.41428895955 0.29004413094 0.28401251619 0.28733781236 0.29605199361 0.2901739591 0.30122010932 0.28624872243 
0.28290027048 0.29136094358 0.28101532994 0.27924480142 0.28548654461 0.27777449168 0.27726989918 0.28194697635 0.27697313806 
0.27647246169 0.28068828562 0.27660471976 0.27662530626 0.28042880386 0.27706085728 0.27717288108 0.28103517827 0.27767539828 
0.27832180381 0.28179592487 0.27911236933 0.27951028493 0.28284978614 0.28020391536 0.28044660151 0.28442886863 0.2810491786 
0.28136655182 0.28578244975 0.28155578239 0.28203792008 0.28656150764 0.28164566198 0.28127315132 0.28631609582 0.28102165079 
0.28001943078 0.28539196906 0.28001541894 0.28048350033 0.28503473923 0.28061168261 0.28063695159 0.28474361407 0.28038251951 
0.28029122891 0.28468769704 0.28009985688 0.280484871 0.2843953943 0.28005354551 0.28049128807 0.28432826539 0.28159655637 
0.28267289403 0.28487520742 0.28501374651 0.28796827307 0.28751450888 0.29064449383 0.29619516604 0.29251504269 0.30157606819 
0.30879835211 0.27820971827 0.26798548245 0.26660667897 0.27795249685 0.29027377642 0.29106355491 0.29629811772 0.29618503139 
0.29206232411 0.29600402811 0.29653631424 0.2935320142 0.29774158601 0.29686658164 0.29430220139 0.30869326857 0.30182102573 
0.2986695053 0.33941589837 0.32080184936 0.31394305107 0.28841034336 0.28866519231 0.26709753939 0.25843694366 0.28528110468 
0.28836959324 0.28555555289 0.29177380832 0.29182565356 0.28831872606 0.27396085409 0.2811311799 0.27913293112 0.2594633752 
0.2683773251 0.26934570017 0.25347395971 0.25475591691 0.26078542285 0.3697415361 0.37745373252 0.40126567508 0.36387255806 
0.34739470618 0.38090447202 0.37519625107 0.35175806711 0.28805599702 0.28877533358 0.28596468655 0.28749864137 0.28535410507 
0.28449660179 0.28911142848 0.28858653771 0.28645584013 0.29950347302 0.29283024313 0.29041691333 0.33167563905 0.31172026953 
0.30538268874 0.38246703371 0.38452525741 0.2568131371 0.26502096579 0.27191344822 0.26337851777 0.3071735786 0.30774911147 
0.28769178691 0.28977465765 0.29067797981 0.28979619733 0.27922553905 0.2849042837 0.28166885094 0.26563479707 0.27492084089 
0.2741657159 0.29092626827 0.29056177243 0.28618016021 0.3075183099 0.27350700399 0.26833469754 0.28131783304 0.28209057778 
0.38131385924 0.39869398785 0.29750568772 0.30282285612 0.28311599664 0.28282460498 0.28481071794 0.30475177433 0.31373887711 
0.25877325253 0.38880210346 0.3003820394 0.33508226785 0.26950496094 0.27519224106 0.36274303953 0.27992868563 0.28242830637 
0.2767633827 0.37263257512 0.36394977911 0.34732791954 0.26240385422 0.27207961595 0.26378914485 0.27192684114 0.36178375027 
0.37562782281 0.26437714955 0.25978731737 0.25605050487 0.36021890486 0.35080931963 0.33760470075 0.28992590596 0.29291835838 
0.29354350601 0.29318182978 0.29771509142 0.25869853759 0.26568543281 0.26376526271 0.36697969509 0.28816602197 0.29019437291 
0.29012446061 0.26104579528 0.26608588857 0.25738785725 0.27794861191 0.27404163865 0.28767215632 0.31331550365 0.32866428249 
0.3073187077 0.30643364912 0.32100517455 0.3238514923 0.30138897506 0.27098402666 0.30771062477 0.30831850695 0.2804953837 
0.27611884718 0.309242184 0.31009298069 0.30791964219 0.31102263189 0.31196083949 0.3099108221 0.31298799897 0.31393668446 
0.31201877264 0.3149374752 0.31578728566 0.31415976706 0.31668530711 0.31743446865 0.31618675595 0.31806977351 0.31867780708 
0.31787612802 0.3192870229 0.31978467576 0.31927338477 0.32027595297 0.32058297637 0.32044561992 0.32081392567 0.32087295491 
0.32123644326 0.32072170222 0.32056868853 0.32133388892 0.32021239449 0.31987752831 0.32075776039 0.31954358561 0.31903183388 
0.31999760585 0.31838053146 0.31771957789 0.31893568415 0.31687355704 0.31613918407 0.31733593107 0.31533039149 0.31454096672 
0.31552609269 0.31373351168 0.31297058629 0.31376050663 0.31222228005 0.31146328611 0.31212777216 0.31070719432 0.3099934235 
0.31051781538 0.30927043077 0.3085897244 0.30890998008 0.30799666573 0.3073982152 0.30752165913 0.30681904656 0.30644047578 
0.30630894631 0.30633323531 0.29127799822 0.29102849754 0.28043252751 0.28414545395 0.29646109508 0.30143311066 0.29781964182 
0.29735512164 0.29452406686 0.29674696001 0.29349272883 0.29030469412 0.29506821895 0.28908197819 0.2865533111 0.29251626688 
0.28507090162 0.28308851874 0.28953899356 0.28126467307 0.27979374968 0.28635465511 0.27806449655 0.27683354119 0.2830244925 
0.27531140061 0.27433143374 0.27992544883 0.27296993125 0.27224432901 0.27710420587 0.27121161875 0.27099661279 0.27463792038 
0.27036773556 0.27053866378 0.2729908037 0.27010358684 0.27036522919 0.27196792883 0.26989468006 0.27017171713 0.27101778606 
0.26961500791 0.27009196751 0.26985126011 0.27162384651 0.27387798464 0.27828741405 0.27856372743 0.27716764753 0.27419525158 
0.27389602997 0.2738865249 0.27425967564 0.27040626401 0.27606378637 0.27650551811 0.27298925716 0.27733703074 0.27767970182 
0.2755869652 0.27846716309 0.27888737518 0.27718577892 0.27966909261 0.28014353312 0.27876706291 0.28101916531 0.28175302362 
0.28047334924 0.28288220956 0.28377697495 0.2824898423 0.28500773111 0.28606855955 0.28488816737 0.28747402586 0.28872238088 
0.28762036783 0.29020432735 0.2915916414 0.29060163418 0.29291074591 0.29411274766 0.29346641546 0.29530429545 0.29652750497 
0.29601060544 0.29767435563 0.29884886326 0.29837967269 0.29991762169 0.30104378101 0.3005972487 0.3018535471 0.30284025128 
0.30248417341 0.30354842502 0.30460127257 0.30401413478 0.30385764091 0.30299760578 0.30390966559 0.30561448137 0.30228622086 
0.30136187009 0.30307456475 0.30052003389 0.29954189212 0.30149902785 0.29858775074 0.29762918026 0.29967417385 0.29657676849 
0.29550596907 0.2976303773 0.29436412101 0.29332244302 0.29538478351 0.29223483463 0.29136940559 0.29308197147 0.29040543578 
0.28968782572 0.29096827859 0.28882512884 0.28822928076 0.2891002905 0.28753037399 0.28711311114 0.28750953104 0.2865308794 
0.28624564675 0.28619526968 0.28568164059 0.28557589701 0.28503743254 0.28513763781 0.28516320672 0.28396970431 0.28496913077 
0.2851733935 0.28326237571 0.28535515472 0.28596340853 0.2832084041 0.28669577823 0.28760158471 0.28403049068 0.2887604899 
0.28947170299 0.28606297674 0.28947498171 0.28989689202 0.28742019457 0.29000583951 0.28944796012 0.28650504696 0.28499771859 
0.28360897848 0.28208269009 0.28280627736 0.28111411679 0.27982319541 0.2804274306 0.27912195827 0.27797024915 0.27881700305 
0.27756446725 0.27658628232 0.27772752891 0.27624840343 0.27548834517 0.2770119152 0.27543001554 0.27504629326 0.27667597326 
0.27528386997 0.27517278846 0.27688821752 0.27573336157 0.27582888866 0.27765007705 0.27667491046 0.27717389252 0.27893656982 
0.27818620349 0.27923521788 0.28080864566 0.28062697614 0.2819854582 0.28331126123 0.28358619326 0.28528494133 0.28608454461 
0.2870937681 0.28944726285 0.28915422305 0.29153204563 0.29477343555 0.29254737302 0.29682422344 0.30013885513 0.29631432619 
0.26484886747 0.36802724989 0.37048016335 0.27514781194 0.27954882107 0.26764143572 0.27177435544 0.27288785831 0.29484799766 
0.29102387923 0.28905744033 0.2871066725 0.29216537773 0.28593266786 0.28482078673 0.28949939961 0.28442936527 0.28419668458 
0.28820005025 0.28427967202 0.28446795583 0.28804116025 0.28491281438 0.28539026708 0.28876445734 0.28612370001 0.28676346079 
0.29012756091 0.28777525899 0.28865042138 0.29207825462 0.28961465523 0.2902685727 0.29426545578 0.29107576508 0.29170613199 
0.29619960273 0.2921574629 0.29233891728 0.29753384635 0.29213617686 0.29181718819 0.29784964978 0.29135209528 0.29106297059 
0.29718967522 0.29078167802 0.29052409201 0.29638978646 0.29017211906 0.28989892946 0.29553807224 0.28937204954 0.28908224307 
0.29438200219 0.28866806719 0.28840604399 0.29315456044 0.28798276372 0.28795026009 0.29210860613 0.28796307347 0.28870193677 
0.29164134335 0.28964647786 0.2914505363 0.29236285569 0.29365318884 0.33953830514 0.32295833804 0.29339983694 0.29245216427 
0.29007115464 0.28989075931 0.28847127624 0.28785630678 0.35909857363 0.35078211489 0.30051086449 0.29631916325 0.29406526198 
0.31958386402 0.30791814143 0.3040644417 0.28612932273 0.28534496194 0.28170024193 0.28390284527 0.2782248732 0.34960304987 
0.35179050424 0.2856328356 0.28649741254 0.28214055113 0.3580970558 0.36090710684 0.29129911106 0.2928588585 0.28865086066 
0.28712463333 0.28442670742 0.28411976827 0.28366894677 0.30563860491 0.28296035464 0.28167358038 0.28163872841 0.31019323718 
0.2996678435 0.29612345173 0.30676491915 0.29433778816 0.272461077 0.27647052535 0.27808458777 0.28095854221 0.27692411293 
0.28296882473 0.28452547126 0.28019707413 0.27402949334 0.37586250535 0.37914201564 0.28637671763 0.28296909571 0.28461692659 
0.28574942967 0.28600351404 0.2831642374 0.27142170988 0.26779668891 0.26297220558 0.27030010793 0.30216578005 0.27764251462 
0.27122650501 0.26827940248 0.26650454984 0.26927370646 0.27896304794 0.27996391961 0.27673039381 0.30480475359 0.28533680751 
0.28698733737 0.28746782847 0.28601396861 0.28631255093 0.28698401817 0.28372258894 0.2700247222 0.27090729395 0.29791454647 
0.27418906567 0.27310186019 0.30478886058 0.30570528281 0.36195341692 0.35371339368 0.34947919321 0.33707006029 0.37713728969 
0.36538789548 0.36512525328 0.35963114934 0.36904824018 0.29018876388 0.28841353806 0.28691957118 0.29018170016 0.28915896142 
0.28802012836 0.29527411956 0.34262182707 0.351068703 0.29165763617 0.29525847065 0.2963215625 0.26722664045 0.27051732353 
0.27098509399 0.26894625964 0.28809207228 0.28569454072 0.29785264269 0.30166681602 0.31019623101 0.34792617822 0.279888132 
0.27454616134 0.27345907846 0.27969707032 0.35044322348 0.33290998933 0.32332712009 0.3519556357 0.33287770946 0.27420809858 
0.27034472019 0.2748348529 0.34539350762 0.33709680603 0.33507196266 0.28522819853 0.2877934983 0.28882876989 0.26280074722 
0.26448088329 0.28986148469 0.29261968416 0.28851372672 0.26761782313 0.31460879532 0.27270517132 0.27778138385 0.28068963884 
0.2745409414 0.2706750813 0.27368030894 0.26816770573 0.36378126026 0.29785301712 0.30512422311 0.29532745398 0.30855624811 
0.30963700323 0.31078409023 0.31198565586 0.30960417146 0.3133034912 0.31446333218 0.31219291976 0.31596683562 0.31708173357 
0.31524492621 0.31853854054 0.31924185085 0.3184809381 0.32002427228 0.31349309677 0.30810324415 0.32083786028 0.32145403381 
0.32097761608 0.32221872857 0.32252458576 0.32280693898 0.32261424244 0.32240313479 0.32368980662 0.32156323821 0.32107589652 
0.32293474617 0.32079637649 0.36905724108 0.36012349469 0.3203096943 0.31953810471 0.32147111372 0.31817067364 0.31716547426 
0.31956641435 0.31577053899 0.31479114542 0.31657758946 0.31385023439 0.31291818063 0.31401586021 0.31185391323 0.31098291884 
0.31180711903 0.31030440561 0.3094603299 0.31004365128 0.30856643207 0.30775526025 0.30829125362 0.30702737055 0.30636486674 
0.30658664143 0.30584416224 0.3052287351 0.3042905966 0.30529207175 0.28784513564 0.29475891043 0.31383008562 0.32780207872 
0.32431643834 0.29589428641 0.29484091877 0.2941834501 0.2951704582 0.29368333743 0.29575095755 0.29344899757 0.29180605696 
0.29563441821 0.29086908794 0.28914192323 0.29434949308 0.28764889258 0.28603864985 0.29190873517 0.28432132366 0.28286292471 
0.28878318801 0.28120720071 0.27974504664 0.28539596482 0.27805052051 0.2768701754 0.28187491656 0.27540449269 0.2747162399 
0.27857902706 0.27382894821 0.27333403215 0.2762190462 0.27269750707 0.27216268124 0.27476416323 0.30587240917 0.27355931221 
0.2745652946 0.27814070024 0.27885882817 0.27990044692 0.28076770457 0.27938809518 0.28211970612 0.28325992915 0.2816376308 
0.28477573618 0.28604944227 0.28444690728 0.2877829065 0.28929982144 0.28776139696 0.29103668664 0.29261736468 0.29137509892 
0.29432960651 0.29567938184 0.29494810712 0.2971155782 0.29831713305 0.29811298638 0.29952418713 0.30069344232 0.30074762165 
0.30159386948 0.30267388631 0.30285648601 0.3033754279 0.30419241973 0.30441539918 0.30479908188 0.30550986205 0.30660790019 
0.30569435424 0.30355451636 0.35119471458 0.35107406627 0.28560996253 0.30278502257 0.30190681755 0.30102484404 0.30004702586 
0.30232932986 0.29893995116 0.29785126398 0.30034360944 0.29652773206 0.29534862016 0.29789631266 0.29397066664 0.29283524305 
0.29517416436 0.29155856634 0.29053593226 0.29247961688 0.28936372423 0.28844862564 0.28992721081 0.28736600645 0.28660805702 
0.28759603847 0.28592399626 0.2853100902 0.28575269985 0.28436804755 0.28377217685 0.28418089798 0.28282996606 0.28231589057 
0.28232558041 0.2815140746 0.28125819159 0.28039104913 0.28074476042 0.28088808524 0.27892263958 0.28120827495 0.2820481697 
0.27844887082 0.28929725118 0.27926571202 0.27833387729 0.27835385895 0.2776517306 0.27715004534 0.27779305169 0.27738876996 
0.27723785194 0.27755356972 0.27729921432 0.27758881787 0.27769668271 0.27765786761 0.27817975114 0.27836895185 0.27856745947 
0.27913069447 0.27924147213 0.2797635133 0.28045221368 0.28077493716 0.28165341558 0.28207982992 0.28293122575 0.28414392418 
0.28451572404 0.28540293627 0.28686107238 0.28724218855 0.28796528879 0.28933274956 0.28975103641 0.29040398521 0.29184320595 
0.29179276264 0.29267097595 0.29449864528 0.29339509439 0.29467956137 0.2968216251 0.29420324761 0.29434677177 0.29274575693 
0.33319997889 0.33409676996 0.26616174706 0.26935076047 0.2667591634 0.29064559333 0.29048630688 0.2908615767 0.29118448875 
0.2934597213 0.29201856674 0.29268109267 0.29492948477 0.29390112716 0.29490519127 0.29717183434 0.29626045744 0.29751835943 
0.30006000971 0.29908731654 0.30022094589 0.30323759514 0.30168299558 0.30267061172 0.30661732113 0.30369045701 0.30422096701 
0.30928136741 0.30441789662 0.30427180032 0.31071927109 0.30370971118 0.30321218487 0.31033875641 0.3023832166 0.30193434201 
0.30881544873 0.30115811702 0.30050265597 0.3069637563 0.29956798494 0.29870901046 0.30491732035 0.29727162355 0.29651739177 
0.30213849692 0.29526970686 0.29467451958 0.29912075465 0.29378978581 0.29366024823 0.29679861681 0.29352311844 0.30658509274 
0.29990446265 0.28956209072 0.28821214817 0.26767572607 0.26735626932 0.28665562221 0.28546844141 0.28602587202 0.29530698329 
0.29206227663 0.29002561945 0.29697506849 0.29815420881 0.29205064578 0.27467647074 0.27612477635 0.27700277304 0.27651393826 
0.26873670217 0.26584522415 0.26832915653 0.32149848867 0.33719326695 0.33565888381 0.31364234479 0.2839756247 0.28277979483 
0.28870910511 0.28574392974 0.28473759294 0.29007458659 0.27489552655 0.27690777704 0.31749123383 0.30666544998 0.30102298745 
0.28435349304 0.28228134753 0.28332097536 0.34629302619 0.34284757894 0.2822220374 0.28339740012 0.33741717847 0.3272054457 
0.3182378756 0.33345767995 0.34056081074 0.3443090316 0.35351243998 0.35727339084 0.27155921267 0.3076131031 0.26945428139 
0.2702743619 0.28447918006 0.28558098377 0.28380090109 0.34173614648 0.34772873568 0.34369728923 0.2725077842 0.30800732739 
0.28133169125 0.27982099427 0.2763737537 0.27953591777 0.28134925629 0.27701364249 0.34271852554 0.34839884451 0.34145130809 
0.30397412401 0.35830272242 0.35433978257 0.34877944606 0.28558937948 0.28390110405 0.28357954013 0.28485461355 0.29385356632 
0.29923946623 0.32818969541 0.33540988847 0.2721970777 0.29092592736 0.29302419128 0.29182485681 0.29558720672 0.28013510853 
0.2776852108 0.280254397 0.31540528174 0.30934722549 0.32665040201 0.34802661138 0.33887938228 0.33478609179 0.33522433879 
0.28756907303 0.28987523075 0.28669376669 0.27719353122 0.30731104008 0.28335163846 0.28494516045 0.2808838125 0.28134815951 
0.28200867345 0.28009533337 0.28152235894 0.28042086388 0.27418844418 0.27753108334 0.286604141 0.2893576394 0.29056474439 
0.33347212516 0.29263950268 0.29427170369 0.29879225312 0.28030679572 0.29392958268 0.27310704901 0.27560987837 0.27565418444 
0.27224077395 0.28170023769 0.3262486959 0.33140617645 0.32420097023 0.31077175074 0.31234370625 0.31409159435 0.31574408505 
0.3127442035 0.31742585239 0.31917065246 0.31638351467 0.38414149709 0.37018658228 0.32082146213 0.32175286235 0.32250027504 
0.3233639681 0.32447430433 0.32446297933 0.37868100976 0.3845770682 0.32595429283 0.32615366432 0.32702745501 0.3250957211 
0.32395728795 0.3274433545 0.39380808008 0.39882928864 0.40820735319 0.41259796037 0.3235975191 0.41851185656 0.41266996822 
0.32142894795 0.31972776115 0.32400123304 0.31728392331 0.31561660728 0.31920522431 0.31329235976 0.31225116477 0.3136869503 
0.31098856273 0.37616747357 0.36445131466 0.30901171971 0.30827212635 0.30927625245 0.30726684907 0.42246840205 0.54009630764 
0.3059715516 0.30516530879 0.30584237403 0.30453217555 0.27767240914 0.27942774673 0.28144755488 0.27852633082 0.28271951163 
0.28329980047 0.29601012169 0.2977988502 0.29676026814 0.29619583456 0.29472474566 0.29965979252 0.29325607628 0.29155727825 
0.29759499741 0.28966325944 0.28789162127 0.29423103031 0.28138967211 0.27977587749 0.2812521442 0.27938227062 0.28026231861 
0.28434017643 0.28581371911 0.28805886951 0.28997547918 0.28812270839 0.29199824241 0.29393059315 0.29272968088 0.29612872445 
0.29794056731 0.29726131354 0.29985092757 0.30129953152 0.30140556902 0.30253233496 0.30373986982 0.30447312436 0.30437569495 
0.30527964754 0.30630008463 0.30673776598 0.28491072007 0.28223154068 0.27813119445 0.28496249119 0.29371667458 0.29959735102 
0.29824531135 0.29634042788 0.29494981829 0.29817352611 0.29352373875 0.29220504574 0.29481153703 0.29096100534 0.28968441049 
0.29209635218 0.28792046688 0.28677224429 0.28897583159 0.28523515983 0.28450221225 0.28353100222 0.30145614398 0.30679236642 
0.3165979849 0.27663701738 0.27551616359 0.3132070419 0.32038133884 0.31615121633 0.30577523489 0.2767538363 0.27681202206 
0.27554188854 0.27768816836 0.27794519128 0.27725129831 0.27851318477 0.27891227468 0.27872808787 0.27988553469 0.28050411762 
0.28015911989 0.28158548505 0.28223753429 0.28214195974 0.2830620644 0.2841374673 0.28411618053 0.288820275 0.29021213668 
0.2912507469 0.29234283844 0.29273742236 0.29292478555 0.29377539076 0.29429866487 0.2937545714 0.29433882465 0.29384648038 
0.28593699491 0.28433306273 0.29459288648 0.29519300806 0.2964152901 0.29753709945 0.29755775842 0.29952706396 0.30118919519 
0.30111316254 0.30331850795 0.30503794612 0.30563186648 0.30652957989 0.30834665274 0.30962861424 0.31224196113 0.3140540114 
0.31548355663 0.3144700195 0.31576815213 0.3202526463 0.31907923404 0.31938671056 0.32451036494 0.31702794723 0.31637768943 
0.325633293 0.31595406665 0.31488760919 0.32249757031 0.31249543903 0.31142942455 0.3194120937 0.31142985608 0.30994992465 
0.3166431214 0.30641669284 0.30458872255 0.31231986823 0.30193235174 0.30036643143 0.30586269189 0.29835959647 0.29734993412 
0.29741025662 0.3009723203 0.34761229293 0.33669651931 0.3262498608 0.29388848891 0.27977086763 0.28115404746 0.27918322846 
0.27770981009 0.27580699852 0.27326205626 0.27454571315 0.27679009044 0.30793828774 0.30924318332 0.30926655538 0.3063708961 
0.30385060277 0.28128002257 0.28119730268 0.28246597302 0.28257636782 0.30296075231 0.34219947138 0.29725618484 0.29956132068 
0.28595773687 0.28416300041 0.33303042536 0.33578622969 0.30372642475 0.30215954298 0.30101927861 0.30720318043 0.30568263683 
0.32799652146 0.33163890007 0.34156187136 0.34134968985 0.29033157091 0.32044481599 0.32242938631 0.30153640959 0.2856059355 
0.28212644243 0.27556523813 0.30346363092 0.27649412787 0.31904790484 0.32531510171 0.33279490538 0.29469287194 0.29533353133 
0.28729075643 0.29004389776 0.2858378851 0.3107262661 0.30318745962 0.2908848053 0.28819506744 0.28648730917 0.29802424433 
0.29370946425 0.29149551153 0.3279252162 0.33154373937 0.28452193027 0.32527297817 0.27899163049 0.28630396921 0.28443047657 
0.28749500954 0.29144655695 0.27721403819 0.30376353975 0.29644797241 0.28269502563 0.28135994239 0.27979140399 0.28249823325 
0.31081760595 0.30522862373 0.31968966716 0.33348385568 0.33760809943 0.32553376538 0.33627727495 0.33220161491 0.31721159993 
0.29917412156 0.29311077831 0.29693022345 0.30364412882 0.29531939215 0.33628860806 0.33391614412 0.28388181657 0.30509564 
0.28520940366 0.3283520308 0.32396699643 0.32254429828 0.29983366998 0.29782348938 0.3014854044 0.32903664141 0.28479827659 
0.28428798162 0.33154733557 0.30889579296 0.332660633 0.33925106602 0.33326431769 0.285245745 0.29428535369 0.29668124017 
0.30385563234 0.30572247849 0.30828609605 0.30942788945 0.31113078904 0.30870033582 0.30931295261 0.31250980842 0.31626853818 
0.31198251256 0.30424893191 0.30286295362 0.29209965907 0.24770404154 0.3016412756 0.29923816691 0.29461669097 0.2954444899 
0.2940939954 0.29144376385 0.28939738086 0.29502857851 0.3007170311 0.29832139003 0.30069877675 0.30693380084 0.30493996326 
0.3033922184 0.30285571066 0.30246747669 0.30799071122 0.31120886967 0.3133283468 0.29190512888 0.27940703241 0.28000295295 
0.28103395118 0.28279801856 0.28378259395 0.31799654853 0.31106443123 0.32640893245 0.2956100236 0.29623801719 0.29704744873 
0.29579980573 0.29150201406 0.29317961586 0.32602309294 0.32293516496 0.28735354406 0.32758080357 0.32377206605 0.28327836442 
0.31853738235 0.31830522466 0.28934189091 0.29054193798 0.29442168894 0.31810685687 0.30598621146 0.31058639242 0.2990346301 
0.28891152109 0.2862115405 0.28558728034 0.28649814553 0.28843273102 0.3301042904 0.28456186964 0.28643801821 0.31601586175 
0.31313860458 0.30648375385 0.30308409359 0.30160183784 0.30573224896 0.30722478042 0.3087184217 0.32760878734 0.27816841136 
0.29444329488 0.29551437844 0.29771393106 0.28665244908 0.27731763257 0.32215511214 0.32277557188 0.29613929721 0.28833740839 
0.32198445996 0.31641568044 0.31224602702 0.31789016754 0.32379789654 0.29844674531 0.29128088586 0.30079262599 0.3031285259 
0.30012119808 0.30659368333 0.3094339061 0.3063165857 0.31290233918 0.31485415969 0.32704981492 0.3305598959 0.3113178971 
0.30775178786 0.3046110303 0.31036678337 0.31853506077 0.30747002929 0.32538946374 0.31415325297 0.29119973255 0.27563911497 
0.32793923771 0.330389322 0.3138341402 0.31572135612 0.30567544894 0.30196561223 0.30442389662 0.29930163115 0.30196067095 
0.31075198308 0.31018405511 0.29697707553 0.31588610022 0.31324878731 0.31178692439 0.31888515235 0.31501521502 0.31152581292 
0.32409663407 0.31846199857 0.31358191522 0.29897632237 0.30002882116 0.30738770775 0.3035438385 0.30070229208 0.3162267431 
0.30770337075 0.30771126278 0.30762654379 0.30858697344 0.30811447754 0.30790981155 0.30990035787 0.30918324917 0.30895056537 
0.3117055436 0.31069664634 0.3103429784 0.31374366862 0.31258991243 0.31205105408 0.31617290334 0.31486027784 0.31401875768 
0.31851207247 0.31720957177 0.31611895707 0.32043512852 0.31947781421 0.31809132582 0.32179833482 0.32112996917 0.31973210457 
0.32270608716 0.32227130257 0.32083254177 0.32286565035 0.32287012088 0.32146200202 0.3223283891 0.32270716903 0.32147882606 
0.32120911386 0.32187671445 0.32083901445 0.31964555715 0.32054537411 0.31977283428 0.31762199035 0.31876323079 0.31823777166 
0.31550281403 0.31667219245 0.3164410345 0.31347385154 0.31455775787 0.31459008543 0.31150999897 0.31254840801 0.31275248296 
0.30990490528 0.31070704558 0.31103251082 0.30869984005 0.30927451513 0.30963643442 0.30793659571 0.30825137121 0.3085502046 
0.30763001324 0.30767459434 0.30786934742 0.30769708874 0.36531927193 0.33499989706 0.38802543382 0.29370517455 0.31353754601 
0.33478116484 0.27100292395 0.27905949639 0.29903789657 0.25766572085 0.26287794712 0.27787579448 0.25088787349 0.25333897126 
0.26623064072 0.24747557296 0.24863225386 0.25943971827 0.24626688085 0.24634989407 0.25597175204 0.24650816085 0.24577544984 
0.25416884209 0.24864716223 0.24680488008 0.25378313969 0.25230160101 0.24969404537 0.25491753337 0.25771807274 0.25421380084 
0.25776779297 0.26408463975 0.26006116414 0.26182275493 0.2710078025 0.26695736424 0.26678420281 0.27857992132 0.27405128793 
0.27243962114 0.28678830387 0.28183345171 0.27849424061 0.29355851606 0.28962820662 0.28449982323 0.29816592798 0.29608540877 
0.28956373772 0.29881794481 0.29907173167 0.29278357649 0.29614594671 0.29819768371 0.29306530608 0.29182455794 0.29469642542 
0.29091197279 0.28736310133 0.29021934907 0.28783623736 0.28303744413 0.28579798724 0.28475958164 0.28017675214 0.28187791368 
0.28224838048 0.27872052267 0.27959386928 0.2806025037 0.27843484591 0.27861948625 0.2800350343 0.27947690568 0.27887643967 
0.28043857954 0.28165334291 0.28042309448 0.28187500821 0.28487852779 0.28301279253 0.28421014049 0.28842631026 0.28645933844 
0.28718705928 0.29198024694 0.29009221053 0.29040057923 0.29592930976 0.29373113484 0.2937608207 0.2995354055 0.29755933695 
0.29710841798 0.30254471313 0.30102616822 0.30020111357 0.30509246639 0.30379594554 0.30292759386 0.30681324841 0.30608033561 
0.30517445546 0.34209921493 0.30738027454 0.30759202489 0.30617536857 0.30686641453 0.3067381942 0.30430036241 0.3053520162 
0.30542504042 0.30156368315 0.30312989098 0.30347009874 0.29866769843 0.3002642708 0.3010029968 0.29540656318 0.29719318717 
0.29825739852 0.29267594061 0.29411598364 0.29550607825 0.29001914406 0.29139589432 0.29294653995 0.28814043587 0.28895791878 
0.29062216041 0.28713128387 0.2874787414 0.28896914203 0.28716701118 0.28691968906 0.28803380779 0.2883510745 0.2873911753 
0.28796050525 0.29059306067 0.28901079688 0.28881613801 0.2935829479 0.2915757763 0.29047186407 0.29703053538 0.29493162284 
0.29279506658 0.30049290708 0.2982802933 0.29531654892 0.30353650444 0.30178663389 0.2977525901 0.30521842516 0.30453367228 
0.29994128451 0.30412727689 0.30494656983 0.300632254 0.30023613221 0.3029269122 0.2992819082 0.2938753255 0.29783037623 
0.29567896208 0.2861340013 0.29059665594 0.29002960598 0.27837275749 0.28296847694 0.2836916408 0.27076040716 0.2751926053 
0.2775179769 0.26419086892 0.26789652312 0.27162648396 0.25879448274 0.26177238866 0.26661757718 0.25508198325 0.25727290271 
0.2628813843 0.25279186827 0.25402620135 0.26053407086 0.25211352653 0.2525807112 0.25962564066 0.25400768039 0.25330832828 
0.26076071018 0.25842723126 0.2561958192 0.26431400318 0.26696923916 0.26252384242 0.2708404626 0.28262745042 0.27434520181 
0.28222986263 0.31042909217 0.2937698935 0.30067344455 0.36726438346 0.32908583777 0.33011160804 0.37194536793 0.2967012332 
0.34186494488 0.27236141905 0.2898246454 0.33221087272 0.25602592382 0.26707715695 0.31346452474 0.24812320173 0.25643060578 
0.29958824331 0.24589917476 0.24729708539 0.28922866686 0.23755178787 0.24125327445 0.28028799318 0.23629499354 0.23976304859 
0.27976347556 0.23694464094 0.24089389759 0.279540977 0.24140934577 0.24020084868 0.28194329657 0.23701640484 0.2375086848 
0.2809252177 0.23853481429 0.23942451147 0.28240909004 0.23958953494 0.23974132897 0.28498579924 0.24657624178 0.24005514238 
0.28525742999 0.24324225841 0.23760330638 0.27387821436 0.23893827161 0.24274078247 0.2654443529 0.24469736992 0.25010182703 
0.27271346079 0.24341933309 0.23960126531 0.28398066213 0.24859834821 0.24110880534 0.28397135303 0.24736210982 0.24053005636 
0.27553320599 0.25554788064 0.25702101343 0.27831812095 0.2663332054 0.25599124467 0.29642935801 0.28994065912 0.27273538903 
0.31403221689 0.20885369882 0.21723717428 0.24362839379 0.27023278347 0.23080471203 0.29234937493 0.29781478656 0.27316381302 
0.30692928306 0.30216630867 0.30944246874 0.30298623271 0.29610696079 0.30575256642 0.30041052351 0.29479939993 0.30516808345 
0.29876044338 0.29368570338 0.30355462661 0.3018735626 0.3022607436 0.31379640405 0.30870098802 0.31439934252 0.31974456014 
0.33172968347 0.35662305244 0.32010898302 0.39710914137 0.46570869084 0.36196795173 0.49436058636 0.41228395112 0.36250748513 
0.3292278885 0.40076956618 0.30307028343 0.30187460438 0.33925479051 0.29502199131 0.29878529983 0.30356748462 0.29221448573 
0.29677774646 0.3004501505 0.29057169157 0.29639893125 0.300136651 0.2915310383 0.2982892276 0.30007969764 0.29671321633 
0.30019411257 0.30012030304 0.29335498341 0.28511499803 0.30406131265 0.26469156447 0.23377293742 0.27586268917 0.21303362136 
0.19963130601 0.2312665534 0.20779898895 0.22705614374 0.25101368196 0.28216079666 0.24506000868 0.30056629274 0.29673872848 
0.28030275117 0.3030538527 0.29272341277 0.30064587053 0.29691475957 0.28882851499 0.30118135609 0.29362901425 0.2880521012 
0.29873985904 0.29331742678 0.2895676714 0.29762057238 0.29647453788 0.29460216001 0.29849296029 0.3102788905 0.33490145641 
0.30940038244 0.37921614316 0.45072228279 0.36646793058 0.48107180606 0.38845347909 0.35072419232 0.32122362877 0.37663517993 
0.30292344738 0.29965714023 0.33168372256 0.29390585454 0.29319571934 0.31327621276 0.29315359884 0.29291005785 0.30890063558 
0.28749276698 0.29467342662 0.30786734655 0.29739681777 0.30110855592 0.30139042903 0.30179045059 0.30633551629 0.31584482654 
0.30268572791 0.29289809815 0.31306853554 0.2692318769 0.24908281984 0.2740953705 0.23278458216 0.21472480883 0.23117648094 
0.30759242335 0.30772342527 0.30741526364 0.35616460511 0.34997029527 0.47167879084 0.57039976483 0.25713181485 0.25038714569 
0.29990190817 0.24976243517 0.24980733886 0.49184792338 0.25290013713 0.24930860141 0.42585240261 0.53974756792 0.52488281369 
0.4200417817 0.44388060405 0.30684500712 0.33755406411 0.30905234504 0.30842609947 0.30781291089 0.30731468697 0.30660951891 
0.3078198902 0.31207673931 0.31115923636 0.31415129064 0.31304218147 0.31218167665 0.31621624486 0.3151874401 0.31805567536 
0.31709500768 0.3162443793 0.31951318046 0.3188191503 0.32046009911 0.32001318448 0.31928860005 0.32092063876 0.32075658202 
0.32009990861 0.32072465703 0.32089991875 0.32036081656 0.31997681193 0.32042034232 0.3200304609 0.31877051867 0.31944548551 
0.31916169688 0.3171919296 0.31807445465 0.31786761559 0.31543429803 0.31636880142 0.31627136691 0.31366041474 0.31459262771 
0.31453465903 0.31186058458 0.31278954321 0.31277923682 0.31026940089 0.31108358489 0.31105816129 0.30898915949 0.3096253567 
0.30959863524 0.30797000481 0.30843461802 0.30835673432 0.23650380242 0.24722938636 0.28161456022 0.28978760207 0.29688160323 
0.31065680822 0.29780786403 0.31715256498 0.3349996749 0.31258438149 0.27212001641 0.27697576166 0.28610049716 0.26638840093 
0.26885476109 0.27762412816 0.2627752218 0.26396084733 0.27209333347 0.26084978117 0.2613652348 0.26863465568 0.25975889638 
0.25967699083 0.26617746836 0.26028956023 0.25951400586 0.26464687082 0.26232025117 0.26054260478 0.26440370079 0.26533737412 
0.26314458296 0.26549462544 0.26907780255 0.2664715953 0.26747660207 0.27335758453 0.27057975182 0.27004996143 0.27804097206 
0.27502037359 0.27306194673 0.28264908619 0.27996833053 0.27661093479 0.28691186744 0.28467631334 0.2805321558 0.28915464036 
0.28824618291 0.28388545727 0.28872913506 0.28946190482 0.28564718895 0.28637258521 0.2879183198 0.28471245147 0.28394219101 
0.28543578264 0.28251756435 0.28193318987 0.28332177567 0.28088321019 0.28083459518 0.28182300218 0.28026964122 0.28041551554 
0.28083701243 0.28021827221 0.28073068841 0.28065086042 0.28067052727 0.28171554468 0.28125205532 0.28163541625 0.28369201244 
0.28273844336 0.28324670008 0.28633026887 0.28495806584 0.28552631422 0.28932176698 0.28772996547 0.28828260897 0.29239649761 
0.29077448105 0.29125566822 0.29557171597 0.29386697765 0.29422960984 0.29856004139 0.29697306771 0.29711878475 0.30123729727 
0.29977561278 0.29975408055 0.30367321448 0.30242003977 0.30220161872 0.3056860257 0.30472618367 0.3044449209 0.30633683953 
0.31389774364 0.30295183647 0.30412110606 0.30741103421 0.30519732333 0.30601532353 0.30487325076 0.30661821306 0.30713815483 
0.30744360425 0.30654194279 0.30062395482 0.30191231062 0.30268081874 0.29799925228 0.29943482689 0.30041343714 0.29543722447 
0.29670975833 0.29791620845 0.29302794179 0.29429920991 0.29544485859 0.29091866008 0.2919308567 0.29315110763 0.28936132713 
0.28997311961 0.29108414998 0.28837722728 0.28867773041 0.28946735521 0.28817600273 0.28804973449 0.28838555431 0.28877914997 
0.28815678372 0.28791661236 0.28997476179 0.28900128107 0.28810962705 0.2915896104 0.29035512619 0.28871464818 0.29340925275 
0.29228114315 0.28974576267 0.2954219166 0.29417542203 0.29122687586 0.29687380401 0.29607858092 0.29280857507 0.29722805605 
0.29739036104 0.29397722616 0.29567575733 0.29676243729 0.29416552016 0.29195250805 0.29426990501 0.29247135482 0.28669673708 
0.28983292696 0.28888151251 0.28143364771 0.2844517624 0.28442897562 0.27647072819 0.2794498927 0.28022640864 0.27205825634 
0.27463589352 0.27649139027 0.26844720816 0.27066432301 0.27341192336 0.26630798497 0.26769683911 0.27135342538 0.26519586093 
0.26592366078 0.2702715464 0.26567682835 0.26547735631 0.27037792009 0.26794395578 0.2666174934 0.27186572178 0.2728238741 
0.2705263436 0.2753502242 0.28119821783 0.27624305498 0.28108413322 0.29352440809 0.28594880084 0.28955794263 0.31171166831 
0.30109385629 0.30165557825 0.3420424162 0.32291980276 0.31703423055 0.26527320773 0.24400937481 0.41052638751 0.45045920304 
0.28795942281 0.28979786626 0.29914359228 0.3049366923 0.29894711061 0.32851730667 0.31838795807 0.2778916808 0.27849762011 
0.28668939177 0.27065676601 0.26999725226 0.27925132573 0.27188417454 0.26989873457 0.27517324619 0.27168255183 0.26848678656 
0.27441610894 0.27204425423 0.26947570703 0.27466093016 0.27067028581 0.26834543922 0.27563100039 0.27177858188 0.27162097928 
0.27714569301 0.27430551897 0.27361868002 0.27780835651 0.27409855451 0.27424106724 0.27831234448 0.27089752882 0.27110053951 
0.27800963631 0.27072171718 0.26975995131 0.27810183426 0.26883107112 0.27226752954 0.27802203334 0.27090671951 0.27438332905 
0.27692797589 0.2725796329 0.2750005209 0.27728180303 0.27233797219 0.27331421165 0.27791352987 0.27426691399 0.27447039717 
0.28064929378 0.28660442802 0.28475256235 0.28505423917 0.30500418245 0.29738697272 0.29501089402 0.31025501504 0.26911003974 
0.24780854198 0.25450677129 0.24942558481 0.2662471545 0.46084072297 0.42676243718 0.2561071215 0.2802096819 0.25427617342 
0.28760908754 0.29591212276 0.27557047356 0.29948955757 0.30330328143 0.29174480916 0.30220599577 0.30432810347 0.29815840849 
0.30193271058 0.30458743879 0.29999536487 0.30342476792 0.30229986701 0.30034561052 0.30302875745 0.30432116172 0.30006150912 
0.30813311662 0.3211721046 0.30376440172 0.33977643107 0.37320848248 0.37592453857 0.32595760287 0.32563678909 0.31313066661 
0.30621911375 0.29864117253 0.30623956183 0.30123347866 0.29634662276 0.29668650861 0.30006189267 0.29682936382 0.29554846245 
0.29885431442 0.29610159982 0.29473401392 0.29671465538 0.29239141106 0.29155594617 0.28817780443 0.28046209439 0.28374894047 
0.26935460658 0.25035240355 0.26783028272 0.2398964773 0.23531519029 0.25308443057 0.24842518504 0.38086917888 0.42026731129 
0.26014877799 0.28258636736 0.28808575605 0.29632366051 0.27595012178 0.29486756813 0.2975109609 0.28902329818 0.29340748704 
0.29671734963 0.2927156192 0.29136948235 0.29481976648 0.29181597497 0.29022374462 0.29532882893 0.2903004384 0.29477228639 
0.31081977959 0.29339494228 0.3246618463 0.35415974924 0.35188385979 0.31115073772 0.25006629299 0.27134062513 0.31384484363 
0.30560751552 0.29775148315 0.29746244198 0.29931094992 0.29512833489 0.2969199944 0.29379740585 0.29684614069 0.29898848711 
0.29456237487 0.30024185873 0.29854200354 0.29563955922 0.29835499097 0.30000531169 0.29485277489 0.29537007771 0.28754015967 
0.28991541275 0.27959007454 0.25537164324 0.27438441557 0.2443392295 0.23599686148 0.25392092372 0.31038309791 0.30955342602 
0.3089871479 0.39263172481 0.35250321961 0.33503421091 0.23588666124 0.24834286599 0.25359378055 0.36353281938 0.33298635055 
0.31938157033 0.31426086529 0.31797579175 0.30764707885 0.30745018297 0.27223096389 0.27092549133 0.25158530577 0.31684161437 
0.27215635905 0.41297632176 0.44474498719 0.27539969513 0.27508939878 0.42326176849 0.25545336619 0.31034251514 0.38676683481 
0.42957908142 0.42595045036 0.3947870233 0.27608085452 0.40401511614 0.37854568373 0.3503292206 0.26550836314 0.25674091685 
0.26940419745 0.27581460817 0.31222184226 0.31112265325 0.26271688962 0.25484438212 0.31651525354 0.31551748413 0.32027637613 
0.31997605873 0.31954889782 0.31897646825 0.31982370803 0.31980750732 0.32014638334 0.3186864294 0.31930500869 0.31951082344 
0.31719925551 0.3179711892 0.31818704582 0.31544526842 0.31635414484 0.31647596013 0.31360509783 0.31453587 0.31458247693 
0.31175665826 0.31270216405 0.31266694201 0.31004574504 0.31089902438 0.31079290735 0.30866613428 0.30935364738 0.3091331729 
0.30746174058 0.30805042101 0.30776360642 0.256681782 0.26671505731 0.29595011116 0.30213677557 0.30793612783 0.30724597433 
0.30636967765 0.28772388227 0.29288880923 0.29632244627 0.30526301692 0.31164014258 0.30343447294 0.30169320279 0.27657712379 
0.27902178992 0.27338968124 0.27471639459 0.2806717407 0.27056943676 0.27168113149 0.27717372593 0.26871581956 0.26916071157 
0.27415958595 0.26798289026 0.26796976266 0.27196042258 0.26833450271 0.2675779332 0.27061635223 0.26930896724 0.26825435425 
0.27003838529 0.27068111734 0.26934791129 0.26997058132 0.27234332158 0.27082250536 0.27004584851 0.27474097279 0.27282791196 
0.2703473459 0.27855384903 0.27624254278 0.28107462792 0.27979991545 0.28031412085 0.28163714568 0.27822473751 0.27934668718 
0.27587293704 0.2778768113 0.27845073739 0.27502877633 0.27849598266 0.27854440188 0.2760852517 0.27946705088 0.27931896028 
0.27768791815 0.28065042935 0.28025037364 0.27932255604 0.28221834022 0.28154307868 0.28106983031 0.284466662 0.28339401397 
0.28324374198 0.28715634059 0.28588155936 0.28595003733 0.29028849837 0.28879786285 0.28904895723 0.29329308738 0.29179805774 
0.29229843166 0.29625411718 0.29476813877 0.29535563432 0.29901066099 0.29760239432 0.29820954179 0.301341626 0.30011634485 
0.30065984803 0.30332744034 0.30212228175 0.30255773824 0.28065438145 0.28310471138 0.29644834973 0.30263822036 0.31827297877 
0.31743657087 0.31683010083 0.31863283951 0.3003341425 0.30154394829 0.29774440524 0.29905009381 0.30021561121 0.28103754863 
0.28478533837 0.29007903332 0.28481793919 0.3044683819 0.30556113401 0.30685906347 0.25412393581 0.26101464512 0.26109035728 
0.29539407414 0.29656833646 0.29771269768 0.2930716319 0.29421238646 0.2952953327 0.29095716564 0.29191855337 0.2928776287 
0.2893067842 0.2899864112 0.29069418871 0.28799190587 0.28842184604 0.28879284569 0.28731304404 0.28742672824 0.28728891539 
0.28712496743 0.28693844469 0.28625967177 0.28723861258 0.28689386925 0.28561859583 0.28782797798 0.28716642919 0.28530033628 
0.28889529514 0.28807635094 0.28544603379 0.29047711903 0.28971631336 0.28656113668 0.29172000879 0.29115420233 0.28828513389 
0.2922125509 0.29261837123 0.29013760628 0.28994209961 0.2912681831 0.28992162761 0.28624743501 0.28845250736 0.28746599484 
0.28221924995 0.28441502231 0.28395418477 0.27886597137 0.28079232677 0.28061347205 0.2761993489 0.2779273681 0.27835375517 
0.2743798884 0.2756015154 0.27677762099 0.27346507113 0.27414926138 0.27607546344 0.27350316765 0.27381907667 0.27625736249 
0.27481026881 0.27422182774 0.27729558242 0.27711871781 0.27602969419 0.27933933601 0.28135352518 0.27906943553 0.2824190744 
0.28688684395 0.28365558576 0.28633628942 0.29541060968 0.28987254249 0.29128028508 0.39134635008 0.3990726466 0.28005107983 
0.27290587976 0.27248403204 0.28647158766 0.29150091326 0.29550015325 0.28787936072 0.26802026857 0.27856032053 0.26507094887 
0.25661144671 0.26265370815 0.26345704303 0.27826541598 0.27935799096 0.28364557796 0.27821627299 0.27810448419 0.28234347332 
0.27906572845 0.27873050014 0.28278322972 0.28063037125 0.27993708968 0.2842659195 0.28216640662 0.28150260827 0.28603888215 
0.28300585183 0.2827501456 0.28755535068 0.28350403343 0.28329010622 0.28859458144 0.2837446299 0.28364293936 0.28911661156 
0.28336274962 0.28372703792 0.28919034811 0.28269871969 0.28298644258 0.28861310476 0.28175982124 0.28211885969 0.28755291602 
0.28173431658 0.28162045061 0.28682133321 0.28297508043 0.28186733338 0.28676014204 0.2848680137 0.2838562262 0.28764190376 
0.2893879902 0.28568437409 0.28925922082 0.40357532422 0.40548696296 0.34198372584 0.32135087838 0.27562571459 0.28175807428 
0.30258693077 0.30366409478 0.3044305996 0.30256342302 0.26857002205 0.27816240546 0.26670718538 0.2841275432 0.29024885797 
0.27827644583 0.29321308307 0.29517705521 0.28754393819 0.29664251906 0.29684408593 0.29218243962 0.29753294021 0.29705603235 
0.29405178735 0.2975140651 0.29779932299 0.29468706297 0.300901219 0.30574538339 0.29780530929 0.30773811105 0.3008546962 
0.31354358191 0.32037000852 0.32039596657 0.32040594793 0.37531976113 0.38775896284 0.29534670981 0.29410987727 0.29721855356 
0.2926330215 0.29288502687 0.29137061124 0.29199365566 0.29104556143 0.28934132092 0.28881435547 0.2858777662 0.28606739247 
0.28234693714 0.27622458908 0.27983149369 0.27088836426 0.2607809758 0.27032681755 0.32695937708 0.31362984081 0.28208103943 
0.28614269049 0.27582028873 0.2879702663 0.28837255954 0.28242426116 0.28910100301 0.28837723841 0.28531483281 0.28864968458 
0.28834607463 0.28609143398 0.29080941998 0.29475043895 0.28819042977 0.31445327965 0.31333579922 0.31237068284 0.31469550024 
0.30994652986 0.30906589884 0.30985800312 0.3084414052 0.29167397431 0.29168956416 0.2912142051 0.29214627374 0.28951763723 
0.29230313627 0.29253595255 0.28923388542 0.29141590023 0.28995073401 0.28827812276 0.2876258127 0.28197491351 0.28417527456 
0.27700245295 0.26719825015 0.27580208552 0.2620236608 0.25598339911 0.26304027745 0.39221638395 0.36290399818 0.30077432605 
0.29580201812 0.29340798141 0.3087163221 0.39931474452 0.40688474434 0.37897588786 0.30826005096 0.30528442134 0.30798634952 
0.32029657491 0.30976246405 0.31614367739 0.33325975238 0.27465697074 0.3449826539 0.25319623543 0.26251488305 0.26879722063 
0.30619309308 0.30648115355 0.27228567691 0.28306694834 0.2830425624 0.30545772037 0.30439904136 0.30447886626 0.30645306676 
0.3816363323 0.39648214169 0.29872344779 0.29744515547 0.37334636052 0.39023812838 0.34317043386 0.27598665073 0.26811254545 
0.37909977489 0.38698979038 0.29870792934 0.29316744283 0.293654359 0.3016733397 0.26852526095 0.28485972727 0.28370278291 
0.35171245065 0.37743934391 0.36726199049 0.33571154325 0.35886084769 0.35365565766 0.27515040424 0.27120014591 0.255206691 
0.25117499722 0.26006787644 0.29801947847 0.30321281588 0.33467491963 0.31716033013 0.38109569551 0.26597262653 0.28344576341 
0.29761976833 0.29883402623 0.32074551911 0.32101805704 0.31786953508 0.31873381794 0.31958662726 0.32019418953 0.32099156404 
0.3194420381 0.3136554698 0.31472101205 0.31159251831 0.31263329158 0.31267631729 0.3096145067 0.31057965663 0.31049772931 
0.30792619193 0.30871113534 0.30842250531 0.30658781309 0.30725035422 0.30676873832 0.30563920725 0.26681780491 0.26978669559 
0.31584274828 0.31683620586 0.31739490891 0.31503762474 0.26772199632 0.27118841593 0.32062575443 0.32011762706 0.2774813907 
0.27894711435 0.28415004412 0.28603121374 0.27495025156 0.27593421892 0.28027781041 0.27297291805 0.27353865086 0.27711102385 
0.27161121346 0.27179302173 0.27449005753 0.27065582203 0.27077542609 0.27248182368 0.26937277963 0.26947911896 0.27046873354 
0.26769763681 0.26747001913 0.26733077232 0.26307782466 0.27727317863 0.27632406242 0.2793622708 0.27853996649 0.27749898622 
0.28150497655 0.28053688741 0.27996552664 0.28417891599 0.28289501886 0.28247113638 0.28739687292 0.28590432251 0.2856563885 
0.29114806797 0.28941986974 0.28949478602 0.29454997353 0.29297827341 0.2934861184 0.29766733374 0.29616302414 0.29700398474 
0.30048065163 0.29910608498 0.30006944126 0.30271008593 0.30158338211 0.30258911815 0.304400821 0.30365307835 0.304582598 
0.28598716391 0.28598288677 0.29505853959 0.29728306678 0.29519587246 0.29642964977 0.29757655665 0.30018809319 0.30150412776 
0.30017749262 0.29263904118 0.29386638481 0.29501153038 0.29027593761 0.29130579109 0.29225453105 0.28813812324 0.28908520904 
0.28963506586 0.28635779368 0.2870068824 0.28723225182 0.2850356951 0.28549006186 0.28517524092 0.28394362318 0.28426375937 
0.28347226335 0.28313604324 0.28325121441 0.28192475975 0.28267804405 0.28241380837 0.28042848313 0.28351729518 0.2824484951 
0.279249098 0.28650515297 0.28552146746 0.28109590253 0.28879055864 0.2880866407 0.28797727386 0.28481578037 0.28650352137 
0.28169377133 0.28357292409 0.28238284576 0.27860519705 0.28003386574 0.27912599758 0.27750233678 0.27844476756 0.27748020177 
0.27714828354 0.27766791339 0.27761038915 0.27756589851 0.27769128435 0.27832062817 0.27873961127 0.27842116164 0.27967818687 
0.28055649178 0.27984456677 0.28163008411 0.283368992 0.28195247651 0.28406844854 0.28646394566 0.28462994994 0.28684892084 
0.28988272096 0.28789106804 0.2896104386 0.29401279556 0.29129147945 0.29229701863 0.29748177712 0.29471391227 0.29432381555 
0.29350275096 0.27053156261 0.26753313703 0.32167312126 0.35206161071 0.33263459985 0.27126960012 0.2659597251 0.26375340527 
0.27165842581 0.37347813812 0.36291429892 0.26907237994 0.2671633958 0.27087050048 0.28755385387 0.28676927441 0.29049169901 
0.28975286974 0.28872248849 0.29276044761 0.2919808617 0.29097774966 0.29548458749 0.29369525834 0.29291383812 0.29797439221 
0.29493084094 0.29448783677 0.29996447232 0.29551306808 0.29529244865 0.30129585296 0.29515170934 0.29534788628 0.30150451871 
0.29417738672 0.29485033067 0.3008942718 0.29283082921 0.29339819791 0.29951627065 0.29150800716 0.29200294865 0.29757113243 
0.2906853935 0.29079617891 0.29562566878 0.29101710911 0.2904841021 0.29424989142 0.28554858199 0.32112886309 0.3209829035 
0.32142403983 0.28069172076 0.28231842366 0.28720361782 0.28373540902 0.3100757638 0.30872980683 0.29832336779 0.2940301835 
0.27482666357 0.28033218917 0.27382649601 0.28341177477 0.28678163185 0.28014874559 0.28843128306 0.29002456509 0.28500699174 
0.29108424427 0.29153699491 0.28785253961 0.29261883052 0.29317559225 0.28997155009 0.29565406657 0.29881493055 0.29331424601 
0.31816851064 0.30658412825 0.30215091667 0.27163333071 0.27882856408 0.33967997866 0.35377031484 0.36284472523 0.36684645847 
0.36977557038 0.29028923149 0.28907618274 0.29141181456 0.2874584958 0.28653131768 0.28646144828 0.28450149869 0.28207176193 
0.2828918263 0.2784822848 0.27479918125 0.27746788063 0.2722541398 0.26672958151 0.27158362861 0.29383898012 0.301154179 
0.36146987992 0.36582937987 0.34747598762 0.27773388185 0.28020672469 0.28181040564 0.28281666499 0.27841170889 0.28446482731 
0.28487817441 0.28163051984 0.28667022773 0.28902975972 0.2911611985 0.28484516389 0.36875965698 0.36993667169 0.28848634458 
0.28809109355 0.28711742785 0.28714429398 0.2863553268 0.28617837468 0.28493438103 0.28440801018 0.28266479861 0.27969064164 
0.28126445002 0.27781041531 0.27275884228 0.27293346709 0.27708697979 0.37408075654 0.37661963937 0.36228257054 0.27917662303 
0.28608568256 0.28706894198 0.28958518845 0.26633865207 0.26850099207 0.27319055376 0.27094566811 0.27467953361 0.27395387615 
0.27046190158 0.27456862624 0.34996180617 0.33111070934 0.32160239117 0.31173788777 0.32707493693 0.30531965713 0.32171831276 
0.30094325946 0.30432334971 0.31345467439 0.3111495483 0.3101275572 0.31248823261 0.30482660567 0.25913549807 0.32019715224 
0.31938449668 0.31853284864 0.29852696489 0.29044790479 0.28760173405 0.28991505836 0.27880375571 0.30706011653 0.30712727155 
0.30548063225 0.29573717239 0.31752828419 0.31641827497 0.31823394305 0.3271337062 0.27715747966 0.28544839304 0.36792104496 
0.3619250095 0.34629820762 0.35785936509 0.26842183804 0.26593968389 0.27009175733 0.27092377153 0.2814102553 0.27728960482 
0.27158591586 0.28817310926 0.29093337503 0.29314097623 0.29034010643 0.27368009961 0.28264036641 0.29208299244 0.29443002931 
0.29314711287 0.28001075878 0.29077780637 0.29395323213 0.29511301065 0.29310767132 0.30300609924 0.30293329616 0.30400870832 
0.35047689061 0.3620352992 0.35245857775 0.27464208726 0.28025117666 0.35136612841 0.27346023227 0.3640249884 0.35735488415 
0.35476023345 0.3233891438 0.31420893485 0.29130797538 0.29004648378 0.29511207412 0.31510484859 0.31384652975 0.31279180307 
0.31572730623 0.30345171126 0.30707537609 0.30809191349 0.31152890432 0.3127398836 0.30523330163 0.3059775593 0.27579549883 
0.27705555911 0.32528151364 0.31345397113 0.279386774 0.28092067851 0.28060230372 0.33633107351 0.34396054411 0.30719041312 
0.28276251125 0.28454998557 0.28509710158 0.28082345892 0.27971963553 0.28354086022 0.28213518421 0.28215855861 0.28737977633 
0.28557650793 0.28542410292 0.29202822828 0.28983780127 0.29002916243 0.29625579442 0.29429248572 0.29503170501 0.2998760435 
0.29826097092 0.29942852106 0.30293956265 0.30150762942 0.30304190556 0.30513700383 0.30403444088 0.30567239031 0.30666902382 
0.3057550209 0.30725870736 0.30833391833 0.29736924704 0.29583597277 0.28650225603 0.28552158696 0.2977770385 0.29900271879 
0.30000419544 0.30139631889 0.30029026935 0.28910901605 0.29042057418 0.29496457817 0.29633584891 0.29784970783 0.28629418373 
0.28752578478 0.28832805854 0.28413680687 0.28505186724 0.28538945447 0.28211881348 0.28294027179 0.2829613104 0.27998416837 
0.28095971175 0.28073051394 0.27784114974 0.27873772434 0.27806868281 0.27781068411 0.32292480614 0.32246556542 0.35141391561 
0.35420138605 0.2777081316 0.27750304266 0.2794402204 0.27886370537 0.2788038957 0.28153438537 0.28072180175 0.28116817733 
0.28419698724 0.28305414601 0.28388332093 0.28726741403 0.28577290313 0.28711339228 0.29000907491 0.28863513868 0.29020101384 
0.29231464164 0.29102096604 0.29258756479 0.29399094764 0.29278137341 0.29396779529 0.34566164341 0.33501877549 0.32521755387 
0.29197640945 0.28876006439 0.30161332256 0.29996038304 0.30298355423 0.30475208923 0.30341348918 0.30796300188 0.30681965605 
0.30573350224 0.31134363461 0.3082431809 0.30776081666 0.31365777206 0.30794575965 0.30819762148 0.31464579684 0.30710120626 
0.3077283435 0.31429862399 0.30500442341 0.30617338486 0.31284589156 0.30188350044 0.3031899671 0.30927159472 0.29883450872 
0.30014172371 0.30508645957 0.29631599224 0.29713987289 0.30112461518 0.27373557274 0.27606745194 0.32424886349 0.33988443671 
0.31609226719 0.31777349339 0.32925215018 0.32645049667 0.32300295329 0.32310941049 0.32422599515 0.26077474533 0.30514020448 
0.29785100872 0.29440634772 0.30772476644 0.29189321547 0.29331089449 0.29475556477 0.29153575019 0.28215002991 0.28377610388 
0.28584774174 0.28699792918 0.28329954536 0.28809718548 0.28930812161 0.28616423036 0.29141834219 0.29389874801 0.28943193459 
0.26609436052 0.26395713527 0.27804127456 0.27513906069 0.32862611809 0.31329622196 0.34836213075 0.33957522972 0.3267736251 
0.28042115532 0.28201998521 0.3542292195 0.35057123699 0.34477394087 0.29386442016 0.29280307704 0.29810226061 0.30916280072 
0.31032934698 0.31029068118 0.30782777188 0.28408420371 0.28304245752 0.28440812052 0.28187918063 0.2799751768 0.28186253018 
0.29184173508 0.29172174937 0.29497039879 0.34733048898 0.34805518271 0.29970095376 0.29971285213 0.30880481886 0.31073357995 
0.26852548518 0.27481892742 0.29797465838 0.30307708374 0.29530514608 0.30963224721 0.32174726364 0.32244300225 0.32391126609 
0.31308459028 0.3141095904 0.31546837433 0.3055386936 0.33755613769 0.34736752368 0.32159185632 0.32067933756 0.32313118327 
0.27894267153 0.29002060451 0.29181541993 0.29292748892 0.29452091961 0.29557027657 0.27344990148 0.2744778478 0.27132458714 
0.27268177796 0.2889837799 0.2864299017 0.28821201791 0.27720497674 0.27473266787 0.31698410261 0.31822644395 0.3162158675 
0.27792482272 0.31939114353 0.31962214191 0.32066897928 0.31935524004 0.31805018991 0.32068733343 0.35109361291 0.34104975036 
0.34984148596 0.34880061688 0.34345409232 0.34052577888 0.27513406783 0.27562310623 0.27638724699 0.27361758377 0.27318933186 
0.27629505917 0.27641895323 0.27454563514 0.29541513801 0.29534220648 0.27520279065 0.27875878221 0.33934708521 0.29438530973 
0.29357304933 0.29396225587 0.29231479961 0.27706882839 0.29758156815 0.33659859072 0.28965178497 0.28884138539 0.29221736312 
0.28254427593 0.28369901428 0.28566846737 0.28383668462 0.2805791366 0.2780454139 0.27931373033 0.28264864722 0.27806409202 
0.28088832645 0.28025754028 0.27715003881 0.27413616247 0.34807367716 0.28586247019 0.28424958935 0.28197510031 0.28635001752 
0.30863992669 0.30381374519 0.29369619286 0.29420089574 0.30269801129 0.3041599739 0.30534709047 0.30264044408 0.28894092448 
0.29357919951 0.29621081336 0.3165444788 0.3150484386 0.31766594745 0.29650506041 0.29921018915 0.29515450164 0.34566572205 
0.33685245104 0.34002154159 0.28539852301 0.28405870775 0.33022950913 0.33437621161 0.29351473398 0.29087998965 0.29270052258 
0.32707229767 0.32680546784 0.28758763953 0.28968810782 0.28739604417 0.28525293605 0.28581885507 0.29091500771 0.28102348923 
0.29442760594 0.30363879718 0.30144340991 0.30685662124 0.3053108771 0.3080056086 0.30889978381 0.30782093124 0.31038969432 
0.30985523551 0.30928189484 0.31156357473 0.31151385314 0.31530029622 0.31263211766 0.30127514134 0.30230068688 0.28453134645 
0.28584552567 0.28651510099 0.28493380284 0.27993179176 0.28100534672 0.32544361367 0.33467985925 0.32938621017 0.3285619172 
0.32002583334 0.3094431778 0.31917139872 0.31773960027 0.30521670025 0.29636387127 0.29004743432 0.28837794132 0.2895304889 
0.29331374448 0.29185799676 0.29331853732 0.29514648176 0.29420194703 0.29603123676 0.29542818109 0.29512909391 0.29685257207 
0.29536696438 0.32612221549 0.31755935182 0.34070313332 0.34637168931 0.34274368741 0.30752583793 0.30439078007 0.31403994907 
0.32102847555 0.31980435948 0.32064535134 0.32108959046 0.31948372455 0.32119916818 0.32783320946 0.31246845889 0.31512837141 
0.32300303074 0.3072439929 0.30983123419 0.31452052128 0.30089069142 0.30329243453 0.30717883244 0.27596636074 0.29844728542 
0.29985628867 0.30196354183 0.29794684411 0.3122239545 0.30418879717 0.31361066853 0.29505265242 0.29807631557 0.29329034412 
0.30156739259 0.27882176704 0.30070033864 0.29850157273 0.3045706225 0.29644762884 0.31323295717 0.32655948005 0.32893983591 
0.29161332308 0.33402069802 0.32940897824 0.32209740746 0.27766747992 0.28165400658 0.28210230512 0.28322651533 0.28275125056 
0.32930662097 0.3349758691 0.3354302687 0.3220795659 0.31147080849 0.31312007273 0.32512291462 0.32396220581 0.32819835358 
0.28344393733 0.33856126076 0.3345424578 0.32649547109 0.2950645882 0.2969361992 0.32605061918 0.32891445413 0.32530500723 
0.29494113372 0.29190904234 0.2939788934 0.30852754548 0.30986280316 0.30984648248 0.29867003186 0.296311017 0.29096042548 
0.29911565088 0.29671024455 0.30395766207 0.31540934705 0.31733534621 0.31403112761 0.31927292333 0.32092645526 0.31854689886 
0.29976910881 0.30362089636 0.31773068737 0.31625490798 0.32248211646 0.32085962525 0.32433341226 0.28730473045 0.28790842822 
0.28966270788 0.33337924545 0.33436754993 0.28293804893 0.28172891872 0.27528136409 0.28056239596 0.27948796434 0.31390830729 
0.29165919156 0.29320362188 0.29153348977 0.32194208294 0.32814480283 0.33544148964 0.32192481964 0.32829687109 0.29849498545 
0.32485540775 0.3198995726 0.31814323655 0.31635940983 0.28544429984 0.28260807351 0.2947952465 0.29645290396 0.29873624144 
0.29512540968 0.28810025306 0.2874630758 0.28971951627 0.29102913135 0.31749370982 0.32464458952 0.32194604135 0.31044646301 
0.30269090668 0.29832442062 0.31126200065 0.28430769946 0.28553720911 0.28748590876 0.28949717486 0.30453825913 0.31278951059 
0.33631087692 0.33573406167 0.30503679491 0.30641964254 0.30761154433 0.3048441866 0.3370525426 0.32414673517 0.31761758114 
0.31161275281 0.31861517363 0.3269581711 0.31145120318 0.29096375505 0.29332465153 0.29710829906 0.29301217672 0.29885829761 
0.29844584747 0.29874541254 0.28731443494 0.30190971795 0.29957779413 0.29868658899 0.28608087647 0.31175233273 0.3146283107 
0.28379790127 0.30138140384 0.32123925334 0.2929875712 0.29845566727 0.29251236602 0.30424835403 0.3058693303 0.31094393747 
0.30325722235 0.31432765606 0.32298548836 0.32437998416 0.32324215618 0.337086205 0.33795096576 0.33293856232 0.27682042596 
0.27796038863 0.3302972502 0.33556831831 0.32163822894 0.31628267865 0.32177293652 0.30320890499 0.30467035768 0.29482084927 
0.31785029634 0.31636260348 0.31016477121 0.30413693908 0.29902548005 0.29729013527 0.30681306957 0.30558906519 0.2974791076 
0.29552639416 0.29764084328 0.30146666747 0.31411616117 0.31688622972 0.30092358977 0.30815716736 0.32639914921 0.32776277548 
0.32263815762 0.31774010028 0.32852284981 0.30711881526 0.31080750318 0.30841485473 0.30883814375 0.30902828296 0.30713062402 
0.30565897312 0.31528209083 0.31454446079 0.31813264324 0.31261611249 0.3108859286 0.32819380894 0.3261672241 0.32342869444 
0.32508187215 0.31369360331 0.33462296173 0.3317444483 0.30035610951 0.2892144646 0.30756321688 0.30046196632 0.30361387581 
0.3091014612 0.30307243884 0.3198093422 0.3303156272 0.32918688209 0.32476818064 0.30700074371 0.32214002671 0.30400653109 
0.31827107016 0.32139997495 0.29893198912 0.30104681409 0.31494601707 0.30373092323 0.31120710865 0.33039028215 0.30784343775 
0.55872729789 0.30791133857 0.30799276437 0.307845059 0.30743148338 0.30673785482 0.30597450588 0.3048944321 0.30227344726 
0.30387132305 0.29949764023 0.29784471906 0.29628986247 0.29444336141 0.29319624621 0.29170983705 0.28907951647 0.29052220846 
0.28714436151 0.28638988537 0.28590019972 0.28566960341 0.28635673939 0.28728978143 0.28946681526 0.29120005587 0.29273786746 
0.29484309827 0.29674302145 0.29895713543 0.30105754747 0.30345774251 0.3053486389 0.30730386049 0.30983907143 0.31031670137 
0.31006313015 0.30917730299 0.30765439943 0.30486230882 0.30233341606 0.29832747065 0.29143445494 0.28679193448 0.28308429864 
0.27828298901 0.27436214368 0.26974317468 0.26337553861 0.25972929738 0.25698520945 0.25388280959 0.25177854952 0.24941913867 
0.24756579996 0.24603422876 0.24424960028 0.24390595736 0.24380183843 0.24423264228 0.24494224394 0.24669289231 0.25084561125 
0.25556653388 0.26016144592 0.26759038163 0.27540079031 0.28997071228 0.30564356864 0.34285602991 0.4263330339 0.30085812902 
0.28807350032 0.28565210651 0.28591367297 0.28836582645 0.30878744423 0.29519125713 0.26644086643 0.24506974776 0.24854132078 
0.55752394197 0.30788044713 0.4349682642 0.34684227743 0.30550146562 0.28698318158 0.2729569395 0.26519984834 0.25761840628 
0.24822411529 0.24371299061 0.24176058473 0.23955783049 0.23841284556 0.23736416668 0.23695755542 0.23694557212 0.23756426111 
0.23859606139 0.24380960812 0.24645383722 0.24919596706 0.25281678549 0.25885516452 0.2631213981 0.26710959493 0.27134568905 
0.2756678877 0.28040240233 0.28467992034 0.28993954753 0.29409356156 0.29842644721 0.30397168684 0.30558543744 0.30598774903 
0.30548020147 0.30407775767 0.30179078182 0.29928601162 0.29619714745 0.29345156168 0.29039485365 0.28569981968 0.2828266591 
0.28112916039 0.27936440826 0.2781805405 0.27723455255 0.27667536224 0.27630866455 0.27667991036 0.27735233502 0.27814615244 
0.27940844157 0.28065393804 0.28255334873 0.28436761019 0.28633427863 0.28983257822 0.29177693581 0.29374306246 0.29600490517 
0.29772876838 0.29975352288 0.30123586296 0.30281310485 0.30423647267 0.30559697824 0.30652861082 0.30741125004 0.30800097771 
0.30798191231 0.23986548371 0.24189303151 0.25267525043 0.23719994374 0.25584802166 0.3014667452 0.28790777458 0.27638361936 
0.28809316431 0.30784376119 0.30758195679 0.30762477656 0.3075232381 0.30751430752 0.30766610884 0.30793315389 0.30845906853 
0.30894054819 0.30965671364 0.31038601727 0.31138437798 0.31313373297 0.31433434331 0.31535483396 0.31672058798 0.31777681438 
0.31914927165 0.32089478445 0.32184817149 0.32250623046 0.32318943888 0.32450241349 0.32438372963 0.32415162393 0.32372704029 
0.32329913528 0.32262388367 0.32192403325 0.32101047444 0.31941680404 0.31821127853 0.31717458361 0.31595876056 0.31307619832 
0.31198924391 0.31055959632 0.30974418664 0.30919608604 0.3085948963 0.30820298135 0.30785289991 0.30753019862 0.30753443806 
0.32365229206 0.32435057763 0.3151076156 0.31398009621 0.32414658653 0.31224383896 0.32002961024 0.32028737194 0.31124769969 
0.30763970907 0.72014793653 0.62138376012 0.74160697718 0.62047552808 0.6101517823 0.7136863611 0.58944567716 0.68598676805 
0.55658878763 0.8028581709 0.26093896661 0.59022049132 0.47779424757 0.20618829275 0.20456982523 0.20972092622 0.22430150972 
0.23948486179 0.2600509353 0.27841861732 0.31930253439 0.31344382533 0.33479798445 0.35846474251 0.40611805633 0.42108538818 
0.47499944646 0.31495654848 0.38922875131 0.29523346831 0.33831203868 0.38290192955 0.40055465707 0.32198394678 0.33021411793 
0.40962088913 0.41444144325 0.39878533499 0.33101668792 0.31148750675 0.36574017874 0.32734233649 0.38615260532 0.37729663033 
0.26298882631 0.18862640853 0.67106193357 0.49065031194 0.20962540295 0.18682365704 0.24111375139 0.21039588294 0.27316583623 
0.31696725382 0.27882477928 0.36349033579 0.3371280766 0.40942564454 0.31754084276 0.79879071545 0.52863378631 0.63744715918 
0.71906886086 0.72674470454 0.61628383221 0.71952139119 0.70863967634 0.69568159589 0.65970418345 0.67968656848 0.42422453881 
0.50781736577 0.33310083451 0.3481349181 0.31731989694 0.35337218413 0.37630346253 0.38171754607 0.33744784834 0.35426500319 
0.6162210419 0.24880101233 0.18980435661 0.53994145288 0.42027240591 0.35427639611 0.33031465417 0.33764118936 0.29060427653 
0.29129644262 0.24922302899 0.23999292048 0.20551206937 0.17953956105 0.38026009325 0.77272010936 0.52702226597 0.64641118061 
0.62213766879 0.86761500868 0.61108084121 0.73222149604 0.68892202961 0.70450480336 0.67081791532 0.79697138441 0.77640911723 
0.66141334481 0.63060616574 0.74974482363 0.86168605464 0.73675684049 0.73027622321 0.72064443288 0.70703414111 0.76573539979 
0.66909341826 0.6031578365 0.26337131149 0.18759664606 0.48011106578 0.55114723026 0.33005579227 0.38413272991 0.28911082965 
0.31064025807 0.24761290411 0.28893104073 0.2072493949 0.22912236385 0.19514897953 0.3847618149 0.39166570421 0.47658528963 
0.35501214277 0.30440756896 0.27399875737 0.31953179313 0.36197248499 0.3804810542 0.34579335581 0.38837563367 0.2366530283 
0.55068479155 0.4410327458 0.25146898791 0.2963668239 0.3635277671 0.36853512855 0.40255577574 0.4004306155 0.39461143125 
0.38422812693 0.3767985941 0.36426420347 0.36230099777 0.35566253198 0.32979537864 0.34744218623 0.32370739141 0.30248237858 
0.30714468748 0.3864307006 0.56538784322 0.65854839354 0.61506567717 0.68315432101 0.60299006067 0.6012706726 0.5556516872 
0.5346577329 0.50581569821 0.48296593022 0.44758538518 0.41752410202 0.38425006481 0.36211704689 0.32202527898 0.31084439508 
0.36860724133 0.56648115543 0.68172935792 0.85866303055 0.68126488603 0.84139721454 0.67453076002 0.57686481442 0.34576306111 
0.30493319559 0.32060742479 0.35009653994 0.35562873689 0.40135459166 0.4191881514 0.45225758039 0.47483130014 0.51114848315 
0.53199080746 0.5677988286 0.57121310499 0.63364668336 0.59121958963 0.68725553466 0.54814821682 0.31083130011 0.3184235564 
0.36691768955 0.39145523701 0.43116847567 0.45349391896 0.48818392598 0.50591091642 0.54023872201 0.55919827352 0.60218129672 
0.60439870458 0.66941280087 0.57848587644 0.66317920041 0.55426804143 0.41601709874 0.39303581929 0.42867605912 0.70529737258 
0.57408415706 0.63299853936 0.5586906079 0.5533214436 0.52522366669 0.49671274404 0.47556095143 0.45116691134 0.42247938784 
0.38936344132 0.36508288002 0.33734446147 0.31503582901 0.27834091107 0.34584472065 0.65591449083 0.39147854634 0.63742135516 
1.0998827588 0.57906783279 0.52873677141 0.61672946579 0.58601505535 0.61888637775 0.62493803802 0.90727430283 0.67376542021 
1.2739241641 1.2929388019 1.3128798022 1.3131735993 1.300172003 1.2873597957 1.2600564382 1.221643467 1.1834656108 
1.1292141406 0.99633332222 0.85861782693 1.3630757283 1.356711093 1.1489524898 0.53615344275 0.51073757342 0.58166534472 
0.56971874758 0.58369272429 0.62262275195 0.61121423704 0.62957454065 0.57274419972 0.62398494317 1.3350060436 1.2956792566 
1.2910655578 1.2937415956 1.2722653451 1.2847885257 1.2261242535 1.2440440182 1.1226701047 1.168658916 0.89143036151 
0.97948582261 0.66207829781 0.64191524716 0.75266257996 0.79367584647 1.3182482125 0.55722078248 0.59743114685 0.54202269234 
0.73383415424 0.61493473695 0.96132204283 0.37694753547 0.64698553124 0.58804701866 0.65832225094 0.64652451219 0.57997017859 
0.5802801116 0.5314094742 0.54949688787 0.47528520144 0.50271118878 0.4207423083 0.44338754784 0.36049841508 0.3774349029 
0.26808970729 0.32776491903 0.57717598503 0.3506124003 0.95524113001 0.58256501657 0.7570602039 0.59718847948 0.55543345455 
0.39473078532 0.65225089671 0.29437763355 0.25539504351 0.36768303269 0.32953358813 0.41498897112 0.39521263188 0.47175349112 
0.44346473922 0.51689820453 0.49526519655 0.56227396488 0.554486724 0.60507883026 0.65148923239 0.57494835087 0.63091166024 
0.69662666437 0.77629523562 0.86219147228 0.35802609808 0.30686853806 0.38175570886 0.36164675878 0.447534326 0.42309293766 
0.5057942009 0.4812923053 0.5517674625 0.53427366982 0.57860086908 0.58144421125 0.64246877079 0.66187785665 0.54091828156 
0.66438336333 0.3675211966 0.41478720343 0.75917362336 0.42465565235 0.61911670013 0.62355985773 0.53838870936 0.55879860193 
0.48603830591 0.51753776017 0.4350460587 0.46095561822 0.36387372097 0.37775502885 0.30668326732 0.32469733783 0.36070144331 
1.1252542903 0.57285760011 0.51178689466 0.56848467668 0.57926605959 0.60905172868 0.6163208389 0.61769245743 0.62559236036 
0.60195035445 0.59864989368 0.9581212622 1.3045741311 1.2620563276 1.3164070082 1.3220172354 1.2897518815 1.3048646531 
1.2260284079 1.2514450865 1.1135305691 1.1752712193 0.88680294839 0.99383340293 1.3494910748 0.51819711111 0.67076968596 
0.58999241953 0.57451055436 0.63639152397 0.61468511361 0.60560810985 0.62843354162 0.63638827321 0.8997417989 1.2917650065 
1.2361369691 1.2879227775 1.2961452757 1.2951856929 1.2776284289 1.2490570959 1.2191391394 1.1684779184 1.1080846999 
1.0238256737 1.1133252446 0.3904953873 0.67226559931 0.78663415423 1.4392217919 0.59643387198 0.506169858 0.41668680138 
0.66813710972 0.573006332 0.58644358568 0.44488861066 0.2139080629 0.24677291352 0.33494703966 0.31504672183 0.34216574088 
0.36316400408 0.36637829975 0.37057117077 0.37818993666 0.3831573066 0.39249179051 0.39714354906 0.40575938601 0.40899651599 
0.44560369629 0.43088981034 0.38310385484 0.35573991052 0.28274679614 0.63596131497 0.49892829601 0.2667929242 0.33180701722 
0.29420096237 0.34254840221 0.34663695555 0.35405102001 0.35324100401 0.37998970774 0.36844842792 0.37610384919 0.38359920718 
0.42131006587 0.39696774504 0.40518105307 0.41535975172 0.36280953122 0.28543205029 0.29425836883 0.41070072149 0.23109070105 
0.48494306932 0.5630883045 0.41837093389 0.38597731327 1.1744346474 1.1194424077 0.47356209494 0.49826977597 1.3235332491 
1.3253667533 0.64549441104 0.50902499669 0.62393016726 0.72739958869 0.5336091642 0.5589823067 0.52264858858 0.51503166362 
1.2951392242 1.3081586896 0.63315563366 0.5587754741 0.33803493784 0.65720520922 0.56646380969 0.75945708962 0.4454653072 
0.34256242251 0.26866505272 0.49490989833 0.82124892352 1.0017604454 0.32783429222 0.34835758205 0.54819875737 0.59238212876 
0.58210214771 0.55590438624 0.34783180676 0.90070686946 0.63150941178 0.57623007755 1.2256969703 0.46322926575 0.56192473129 
0.37029473569 1.3059996671 0.25384708275 0.33261601653 0.33637429024 0.55862140889 0.53555325188 0.73779859172 0.39851947016 
0.53151142087 1.2816190354 0.57449177237 0.60286730265 0.48187908325 0.42041945015 0.70149917967 0.61959443684 0.69370167417 
0.61038494295 0.87027328899 0.58233643844 0.35258879987 0.58982614307 0.58616525273 0.29387966742 0.28979015332 0.44840264137 
0.45294709434 0.50293158792 0.7784880813 0.75892869145 0.51577759872 0.52389721962 0.53337761553 0.63343532467 0.27709708162 
0.25051704776 0.58494479964 0.5814300852 0.29481010615 1.3361525934 1.3877816814 1.0596395879 0.64352634222 0.17424524855 
0.44811952526 0.62077199798 0.80213927884 1.3111918419 1.2860859249 0.19995605798 0.19387528905 0.19178724287 0.55848030463 
0.73692849264 0.64742617866 0.22494833623 0.22327994544 0.23482858784 0.23936811117 0.31217156692 1.0964236074 1.2315456986 
0.59932177788 0.56376292103 1.2459452882 1.2433008428 1.2768868682 0.56689197303 1.2757935145 1.3061605952 1.2671242769 
0.35157190025 0.5541173415 0.60839095623 1.293458111 1.3107929779 0.61024423908 0.65545424381 0.60405746874 0.83280365018 
0.24322988498 0.25462406956 0.26928134723 0.53105674811 0.43939646494 0.25214008212 0.56879724117 0.38704927469 1.090768294 
0.95187896739 1.062745709 0.38217755148 0.4135803438 0.60038590335 0.41393412495 0.33328104658 0.59300982083 0.38511162756 
0.53456424188 0.34811871646 0.76936792179 0.81030443608 0.86694157106 1.2253996404 1.2545157021 0.58386108022 1.341141786 
0.54979106364 0.20411652923 0.19958064051 0.19199984297 0.42101797583 0.53471545237 0.31984014487 1.1162803793 0.3260058559 
0.20812524721 0.25511717732 0.18842070291 0.18535480667 0.16833428142 0.218461756 0.21154651012 0.22996748182 0.22992298436 
0.53838548219 1.1882492954 0.30948962257 0.32252959095 0.31215379086 0.31248788437 0.32403988751 0.23511032001 0.24468885789 
1.2475136977 0.21776438212 0.22121633927 0.31052800042 1.2891695181 0.32256942738 0.33930720861 0.99025658654 1.0844501707 
0.25353947216 0.23690647025 0.22753877719 0.55255446075 0.17164457436 0.16238004595 0.16660053203 0.20518038753 0.42517214221 
0.54000462648 0.2295798413 0.18839384701 0.18585245222 0.21775288279 0.20584087027 0.20697436548 0.20065612252 0.33355194685 
0.5576885377 0.54264545476 0.78179610138 0.21668659006 0.65760029551 0.19092231367 0.18304360414 0.17907843069 0.47810222836 
0.17329520982 0.18571131657 0.17538304743 0.16968396746 0.66787684619 0.2412985999 1.0822083006 1.2410720688 0.56512487336 
0.16497434403 1.3199633375 0.30813598859 0.20650822302 0.16103106564 1.0005470365 0.17856887346 0.28465275696 0.28402912493 
0.28380817164 0.2831137389 0.30011064772 0.30133842102 0.30278825149 0.2873239137 0.27650817379 0.28343037602 0.29025836393 
0.29111623437 0.29275139906 0.28365847732 0.27959993972 0.28168659871 0.27476930137 0.27275424686 0.27626451074 0.27462406987 
0.29159782757 0.29012813503 0.28795743153 0.28605046041 0.28602341728 0.28092249112 0.28076113865 0.28630560883 0.28666012059 
0.28124372951 0.29979770243 0.29335028515 0.29253365648 0.29017542036 0.21283239941 0.22425500082 0.23494875724 0.24156183674 
0.26185611884 0.26295792764 0.26699325255 0.2885609276 0.29126178516 0.29226393035 0.29307067592 0.2990383051 0.29347401474 
0.2994279911 0.29287275952 0.29859283152 0.29257584207 0.29826360281 0.2986030641 0.29449218756 0.29515162788 0.28188889297 
0.2837194836 0.28008322847 0.28239538898 0.30105958738 0.2984300855 0.30134894058 0.27347208447 0.27673085995 0.27180903619 
0.26919936492 0.29237817993 0.27494023725 0.27133229756 0.29136055613 0.29410153761 0.29104916327 0.29385349154 0.29550814175 
0.29948351715 0.29247050466 0.30061924873 0.2885894974 0.29145158953 0.28844438609 0.29137758369 0.29852144811 0.29571835312 
0.29510043522 0.26616352197 0.26836327541 0.26872109608 0.31153503207 0.3125743713 0.31186262247 0.29510280501 0.29337240041 
0.29523613191 0.29352618691 0.31116589792 0.29554413278 0.30940348644 0.30954576882 0.31072853038 0.31036386243 0.31148865506 
0.29237778429 0.29434267313 0.29784047119 0.30221102944 0.29676982795 0.29158449894 0.29987950471 0.29640237682 0.29296008695 
0.29020729017 0.30756996249 0.30734747438 0.30775699605 0.29373753763 0.28328244776 0.29770428847 0.27592977345 0.27247615979 
0.27501895429 0.28728141479 0.28719789485 0.29108593611 0.28412639091 0.28054412545 0.28194336743 0.31879966556 0.32509044298 
0.32614089128 0.27908069588 0.27841584051 0.27652771306 0.29719757424 0.29460537599 0.3040388349 0.30510816704 0.30331815399 
0.30440859219 0.26842383379 0.27422120318 0.26211047863 0.2697916747 0.326851246 0.32312050572 0.32495934017 0.32089315126 
0.32072141911 0.32152001347 0.31349379835 0.31285326385 0.31251600721 0.30730802347 0.30693593082 0.30692122723 0.31496974378 
0.31502737984 0.31565968939 0.31577511621 0.28604362755 0.28613195776 0.28416347496 0.28425140095 0.31708349724 0.29128467382 
0.29406885664 0.29346372106 0.29668730664 0.29640970592 0.29617473472 0.29503771979 0.30621789377 0.30624521633 0.3051311642 
0.31025847745 0.30492003716 0.31419295898 0.30710952261 0.30640504176 0.30652829149 0.27381122907 0.31140486349 0.30253194181 
0.3056210106 0.30191056507 0.30291292632 0.30298938767 0.30190627554 0.29976888805 0.3093152202 0.30841091318 0.30913498965 
0.30815476686 0.29201174068 0.29064001783 0.29522562908 0.27282725214 0.27127187926 0.27689319726 0.26989690956 0.27340602587 
0.27068544725 0.2743700439 0.2745514799 0.27068141551 0.27609331941 0.30096508048 0.29948628774 0.3450096022 0.34109425318 
0.33152000296 0.28340815561 0.28055002677 0.2798267763 0.3056273467 0.30626477163 0.30704102956 0.28426574889 0.28866697374 
0.37425121448 0.35739897529 0.36158264899 0.30226335463 0.30479254205 0.30008273004 0.27454914853 0.2763430346 0.28035192432 
0.26468625124 0.26392087868 0.2667322115 0.28930489005 0.28335661573 0.28636339598 0.28307163561 0.28410712393 0.28273258587 
0.26670617403 0.26764761605 0.2652181821 0.28407556648 0.27708668664 0.28043413015 0.27402542038 0.25954709482 0.25509325804 
0.25755432309 0.26813396228 0.27068726312 0.27033306293 0.31590098014 0.31595457199 0.27312428024 0.30444165506 0.30496281813 
0.30518109457 0.25494682341 0.25969109392 0.27818774834 0.32118044458 0.32036585859 0.32167502399 0.29530162412 0.29652549372 
0.29428899074 0.29548723715 0.26025514117 0.31093412501 0.28976708887 0.29048233662 0.28990325455 0.33063909564 0.32176267781 
0.32739387068 0.31009057056 0.31112073123 0.31077053372 0.31175849289 0.32305280366 0.32307375472 0.28779759243 0.28863313466 
0.31571547143 0.2869162424 0.28727656977 0.28824460893 0.3053979227 0.30467789288 0.30573480029 0.30926341133 0.30930660209 
0.30992897326 0.30993768076 0.2668513448 0.30992638253 0.31099111539 0.31106321107 0.29495195019 0.29745287853 0.27698833203 
0.27733936579 0.27649585627 0.27571951417 0.27701348949 0.27882332723 0.28001398993 0.26932566413 0.27311670125 0.27505334188 
0.27694205755 0.27887105071 0.27169405826 0.2773004238 0.27357510411 0.31568186572 0.3170856271 0.31632820106 0.28817866407 
0.28798216769 0.28970553799 0.31511561813 0.31592809714 0.29015914228 0.29416562994 0.29408762531 0.31655632112 0.26674797274 
0.2665164762 0.26419819246 0.28696509639 0.28994050184 0.28676920604 0.28976638073 0.3099076048 0.31200940711 0.30946660633 
0.30410250793 0.27337208984 0.2787512504 0.2694391114 0.29607669755 0.29885623942 0.30088123078 0.28992681176 0.24193489125 
0.29551394064 0.27850576207 0.27900256132 0.277367499 0.33830195108 0.32906642627 0.34903641053 0.33432237816 0.28318007043 
0.28229024513 0.28022289113 0.31737177065 0.31720017408 0.31669350746 0.30289541895 0.30168560832 0.30287627906 0.30053434328 
0.29938901861 0.29934144222 0.30853786158 0.28770309042 0.29757493306 0.29207555382 0.29382989938 0.28705290691 0.28614912343 
0.28678156161 0.32304913742 0.31347183734 0.3126894219 0.31337925745 0.35833685486 0.37301918655 0.36711203365 0.38310929688 
0.28204874067 0.28070845815 0.28154336591 0.37174063577 0.39218149106 0.38059451577 0.36138384078 0.27942690622 0.28114869186 
0.27900357496 0.29538355671 0.29706473815 0.29445147017 0.44950986959 0.47361906027 0.49728626851 0.40163254665 0.28323084993 
0.28276175563 0.28199008084 0.28159457138 0.29880707558 0.30624960574 0.30363357865 0.32058634587 0.32567490023 0.32967504032 
0.33500097801 0.26726885674 0.26913150209 0.28785915712 0.2858975866 0.286640698 0.2578523857 0.26599739915 0.25312674435 
0.30703947287 0.28361161445 0.28368960096 0.2860505618 0.2959638997 0.2936376895 0.29272179149 0.29506123144 0.28912183305 
0.29385175411 0.28810237197 0.30758002763 0.30690208434 0.30698779169 0.32133573796 0.32903273138 0.3057242621 0.31595719144 
0.2831999848 0.28234532193 0.28708291772 0.2898674605 0.2883869194 0.28736162525 0.28579004954 0.36255261105 0.33199401653 
0.38315946751 0.27022577856 0.27981232951 0.27896067335 0.28215721326 0.28140418164 0.28462672871 0.30808711243 0.30865567795 
0.30869869457 0.30764026974 0.30768940649 0.31195436626 0.31127236264 0.31123415306 0.30745330549 0.30766352281 0.30803417641 
0.30823246506 0.28533635566 0.2811032852 0.28371568302 0.29609090644 0.29010725741 0.31060281525 0.31052714665 0.30538323466 
0.29308059154 0.29220544974 0.29413189667 0.30903842149 0.30975957482 0.29497178683 0.30001514741 0.29480091471 0.29395641895 
0.30091970203 0.2918687395 0.29084608997 0.29493861349 0.29617626571 0.29333378614 0.27850931304 0.27980817975 0.30877170663 
0.30841076133 0.27117076399 0.28079659176 0.2681387715 0.30872269313 0.30943106517 0.30965053565 0.27369680141 0.27746340502 
0.27265027811 0.27643328793 0.27319318554 0.25330605791 0.25387679287 0.26012444072 0.28415224774 0.27818999794 0.28223038486 
0.25908758519 0.26766048583 0.26134449555 0.29562335425 0.2947308221 0.30050388218 0.29971047195 0.28868878218 0.28619333031 
0.29084922671 0.27275454629 0.27050058391 0.27118540519 0.25147415334 0.26198684311 0.255201274 0.27227718935 0.27394785134 
0.28340632371 0.28511941327 0.28600583749 0.28786755019 0.29185023811 0.29517873301 0.29385012229 0.29031996015 0.28937219629 
0.2896322492 0.31265459942 0.32049223146 0.31217694126 0.26213061866 0.25773844405 0.26931835641 0.27293094516 0.27176486596 
0.28058513388 0.28237671606 0.27857003435 0.28035377166 0.28386924675 0.28506367317 0.28559749099 0.28660293727 0.28856521573 
0.28463599596 0.28626466678 0.31306312017 0.31305848997 0.31388119804 0.28501521581 0.288865389 0.30840783859 0.31357407056 
0.30693528127 0.34294653219 0.35367242349 0.37505859654 0.29575188448 0.29524026618 0.29730754421 0.32029589675 0.3200087776 
0.32027822854 0.29793282937 0.29942721416 0.30171428411 0.31999771647 0.32032578913 0.32013020269 0.31955903515 0.3196131749 
0.29579208612 0.2968884688 0.29588837354 0.32097877255 0.32084347533 0.3204215995 0.29643381586 0.29644749877 0.29527383937 
0.29536106604 0.2940779476 0.29224902597 0.2806338147 0.28280382627 0.27940253795 0.28054631896 0.28153219805 0.28098359745 
0.28209023023 0.31972298143 0.3199967291 0.30319848929 0.30193654587 0.30282389779 0.3057038761 0.3060117202 0.30490462437 
0.28976100365 0.29394707571 0.28949198194 0.28412743047 0.30539886072 0.29134616831 0.31219907874 0.29339796149 0.29506102754 
0.29466316342 0.29628505321 0.32930660224 0.32817832062 0.32644433072 0.28127764488 0.28073897372 0.28098070519 0.28041786921 
0.30498334463 0.32046457969 0.28988067776 0.29072740204 0.28717181704 0.30330872849 0.31058057901 0.31183655589 0.42418412555 
0.426788327 0.31926679717 0.31978058906 0.31963187977 0.32017257816 0.35359921628 0.36266146995 0.35082290149 0.28372461847 
0.28365524369 0.28469555449 0.28459490525 0.32165137228 0.32399879361 0.31670321508 0.30422984351 0.30489818716 0.35241286573 
0.34460385321 0.34675376607 0.30155781296 0.3005872631 0.30047557821 0.2995372948 0.27648095549 0.27433855476 0.32047480881 
0.29184303168 0.29342566078 0.29215905003 0.2647807866 0.26841108265 0.24865238581 0.28291621491 0.28194860828 0.28245523638 
0.28156884604 0.283534383 0.28436281271 0.29293474414 0.29530735367 0.2940793527 0.29651624362 0.3014063747 0.3014061956 
0.28115861844 0.27918631651 0.28080289057 0.31426276776 0.32005622357 0.27857629556 0.27807888932 0.27765186109 0.27831131604 
0.27729115034 0.27873587497 0.27785750558 0.27485758062 0.275854471 0.27363727385 0.26578400486 0.26697617806 0.27844174374 
0.2863099399 0.28322952472 0.29020914355 0.28037133361 0.28018688425 0.28364838437 0.28284336464 0.30247674631 0.30365587823 
0.30320151448 0.29465814187 0.28797646123 0.36965353005 0.35710263952 0.29906885193 0.29985839846 0.28230896348 0.30507456739 
0.3060233434 0.30457007508 0.30512901115 0.30540535875 0.30594343683 0.26123442317 0.26386161496 0.25990124258 0.28513252058 
0.28870523354 0.28864290338 0.32838897262 0.33099199527 0.25820161364 0.26395005332 0.26329454054 0.28143906567 0.28175272105 
0.27729200026 0.27740996299 0.24136788698 0.29690943608 0.29473854574 0.28463165844 0.29383321742 0.25966263363 0.27643556797 
0.24794003952 0.25672890244 0.25331638025 0.27048117184 0.27433590413 0.2735662059 0.27536435919 0.27599316034 0.27355669566 
0.27385966678 0.30846657328 0.30789599294 0.26687693422 0.25597670818 0.26609943778 0.30217684521 0.30922274555 0.30210016626 
0.3096397893 0.29986211786 0.29927985821 0.29769994639 0.29717043735 0.29392455528 0.29493553105 0.26397024556 0.26307213087 
0.25809389761 0.25723206197 0.28498246217 0.27726228667 0.27251597397 0.27714824001 0.27999093263 0.29684602453 0.29763058029 
0.30225870037 0.30327908835 0.2853996983 0.2891540072 0.28960750928 0.27778050832 0.28141260761 0.28148452688 0.28289993007 
0.28188187224 0.27929412658 0.28729647966 0.27705770415 0.38710227425 0.40253701113 0.40048472486 0.28050570064 0.25734336836 
0.25682143709 0.24787877555 0.28349634341 0.2801651463 0.28504698469 0.28189135233 0.25398799053 0.3196868956 0.31897663408 
0.31900678465 0.27060906865 0.2737670583 0.27217894712 0.30302443026 0.27034089728 0.26726402243 0.27143002037 0.26893382931 
0.37079192375 0.37694870676 0.41250299271 0.27877928892 0.31847736362 0.30535472632 0.31185367563 0.31787825702 0.35098917611 
0.34751806478 0.29962766364 0.29792170671 0.30327373859 0.43299959677 0.40498689667 0.37988891555 0.49262948997 0.46264111355 
0.58230606528 0.27682986204 0.27871706757 0.3078437716 0.30750914215 0.30801917078 0.26803479634 0.26729620523 0.25676845697 
0.28741943488 0.28619210725 0.27662545608 0.27479161619 0.2719948397 0.2297143739 0.20758231033 0.22290933189 0.27946088671 
0.28180439995 0.28118891901 0.27842244298 0.28268402307 0.25670896487 0.29522413413 0.25335435035 0.27288805122 0.27443740488 
0.2857081832 0.28343431155 0.26723607557 0.27155528928 0.26763590348 0.2705198595 0.26573743176 0.26642776044 0.35017162004 
0.34227321487 0.33926861928 0.29980289833 0.29700242996 0.28083362489 0.28085334875 0.29517702674 0.29291809268 0.29613575871 
0.29368738918 0.28096786821 0.28319243713 0.28190861189 0.29982336406 0.29952095683 0.2629337397 0.26903897579 0.28659554228 
0.28959723277 0.28791625563 0.31415439509 0.31502103354 0.31405198189 0.31495148787 0.32111727894 0.32036561438 0.32162089836 
0.2961427533 0.29378387333 0.29207798614 0.30003063259 0.31229551716 0.30409799354 0.31578804479 0.27557600944 0.27432420013 
0.27687419616 0.26734569579 0.27392258275 0.26461390151 0.29017005736 0.29266945289 0.29165911082 0.3081466275 0.30766652569 
0.30323122356 0.30511630125 0.30203792697 0.28711396836 0.28961716247 0.28898959445 0.29157251479 0.25979699613 0.264068582 
0.26093142429 0.30826693568 0.36753559905 0.41404843989 0.31725747995 0.31730571918 0.31823123466 0.29597993729 0.29746083588 
0.29896239739 0.30041336276 0.31560763649 0.31479837482 0.31562663241 0.27934893187 0.27963007216 0.27761692887 0.27795780198 
0.30602784868 0.31671137794 0.23275239418 0.30629214561 0.30470389733 0.30227936472 0.30456358116 0.30382917716 0.27749238717 
0.27658849059 0.27880763127 0.42021707772 0.40739561085 0.45040525227 0.31915338008 0.31855282116 0.31959381293 0.31907471494 
0.300707076 0.29379068402 0.31618765044 0.27912735951 0.25001056657 0.28530680381 0.28407955375 0.28094119831 0.32554691486 
0.25979723172 0.33209599392 0.28992214134 0.28621178587 0.28584214106 0.30840290925 0.31605909605 0.31018814571 0.31751881159 
0.30438303804 0.30648869332 0.30530245549 0.30725380045 0.26969882223 0.26917724936 0.27921739428 0.28016892678 0.28194171488 
0.28815877994 0.28882516151 0.28558135257 0.28627937233 0.29964033442 0.29824033601 0.29717967521 0.29104855374 0.26280755436 
0.26499574685 0.26167246864 0.26612625774 0.30108937565 0.30084510078 0.28786891707 0.28941915193 0.28448785367 0.28595978809 
0.30803951687 0.30040926584 0.28580053942 0.28832149659 0.28882435396 0.33206783988 0.31128433441 0.26201815942 0.29325008938 
0.29439212118 0.30797078713 0.31011967512 0.26619703013 0.26249490809 0.3367256311 0.33432593887 0.28148496081 0.28577649264 
0.287410062 0.28878363398 0.31159089188 0.29471709048 0.28883816724 0.29150231326 0.30124688519 0.30550589117 0.30745964484 
0.29061618099 0.29259946136 0.29814959697 0.29807827249 0.29655711863 0.30433220066 0.29806395976 0.30610147909 0.29879453988 
0.28037163851 0.27924990389 0.27904731055 0.27786956411 0.30880443527 0.27690537477 0.277413576 0.32939319774 0.30485192349 
0.30507370458 0.30916723699 0.30978353865 0.29230044967 0.29027304776 0.28957953455 0.29367957496 0.30578240168 0.30579460729 
0.30347934082 1.2746867879 0.27948943763 0.27749010915 0.28055968497 0.31371697132 0.28843164977 0.28834911442 0.28894445685 
0.30072520225 0.29313768651 0.29724330818 0.29152118612 0.29141591657 0.29226692471 0.28794559517 0.29240558648 0.28478923599 
0.28899994687 0.28876272641 0.28918829962 0.28854028893 0.28901471238 0.28773096003 0.2880287078 0.28808677653 0.2880891617 
0.30757785138 0.30778853807 1.2727621949 0.28042888243 0.2799580218 0.28049109702 0.28008498505 0.2563598631 0.29448367954 
0.27851946835 0.29659456969 0.29333674171 0.28994282434 0.27694507145 0.2748050995 0.28010104194 0.29367346403 0.29706714133 
0.29435047145 0.28953391979 0.29249141078 0.29020962036 0.3619263717 0.35084183354 0.30186383585 0.30318961125 0.30575132305 
0.29343506263 0.29168628339 0.29318518859 0.28625720345 0.28817519003 0.2881265442 0.29322815958 0.29537414325 0.29536936787 
0.22406451678 0.25533842537 0.26111479051 0.25997677113 0.28756089106 0.28307509694 0.28412047164 0.28121270303 0.28223205914 
0.32252234502 0.27765940499 0.25847336349 0.24199042632 0.29496788013 0.29199311429 0.28567338365 0.28604229651 0.33105471122 
0.33543379619 0.33334922537 0.29191502821 0.29047240348 0.25317121183 0.31332915824 0.31339914038 0.31423276865 0.30199183033 
0.30149915689 0.34645458189 0.35253637666 0.3412817718 0.33213720998 0.30032327933 0.30137305913 0.29479289441 0.38048105813 
0.33026558916 0.31224493786 0.30895213727 0.29482810324 0.30594569252 0.23229052167 0.30050436083 0.28982042226 0.32822728237 
0.33550493598 0.33547885527 0.34361652777 0.2874401888 0.29019900035 0.28800972864 0.29088016006 0.27620821386 0.27475776019 
0.27885167142 0.27779640867 0.28204049995 0.28259639948 0.27869810409 0.29300879158 0.29577791541 0.30836677955 0.39713566781 
0.27250408623 0.26929701078 0.27574792154 0.27143401086 0.33668973398 0.28794587375 0.28781479585 0.27729563163 0.29309286745 
0.30053203467 0.31112607528 0.29780724274 0.33815025696 0.31927355467 0.31908735883 0.32002591917 0.31793110312 0.31737954351 
0.3621146915 0.35819899027 0.3614570685 0.35096895921 0.35376319825 0.34435832428 0.30216475392 0.30116306578 0.34335278197 
0.35239390587 0.34341784829 0.31265772686 0.30815473785 0.32213868398 0.32069960213 0.32094077042 0.30166925115 0.30071692419 
0.30019873574 0.29954658477 0.3117823031 0.31857058371 0.31935228439 0.31718263185 0.31798045714 0.28594565397 0.28638932738 
0.28513582561 0.30516414009 0.30446606127 0.30962466451 0.30270534736 0.28681165319 0.2848613535 0.28098581197 0.28047214091 
0.28076217126 0.28036639542 0.27776770147 0.28935573913 0.28866721734 0.32681518123 0.32469667587 0.32580186285 0.21434055623 
0.30455910137 0.30089240812 0.29996971857 0.32895138234 0.31382920185 0.31483020968 0.28999734915 0.29308291252 0.28992799842 
0.2711196744 0.31398767909 0.31365081707 0.31477403474 0.36292586086 0.3523552238 0.34030160139 0.29287680609 0.29163892833 
0.29165565021 0.28634250995 0.28487309921 0.28659241676 0.29635246627 0.30210491128 0.29504853908 0.29785699976 0.29347612525 
0.30410452133 0.29903593084 0.30034096329 0.30937300952 0.19843592324 0.23672884364 0.29109950286 0.29296568055 0.29490827791 
0.29604268182 0.31483266145 0.32203664023 0.31898882109 0.29754687425 0.30187044339 0.30333792911 0.30299284215 0.29666555266 
0.25481173237 0.29056713633 0.2930586355 0.29107691633 0.30219533786 0.30031908261 0.29207129188 0.26340754125 0.3401991954 
0.3280635625 0.31806568973 0.31965781094 0.31873698403 0.32100821499 0.32045383653 0.30298695167 0.5297974273 0.43275204545 
0.44460760797 0.38839082103 0.31816753471 0.25268787213 0.25794355936 0.25245530537 0.25270588854 0.29255452677 0.30931383468 
0.30885901777 0.30900684635 0.31754276016 0.3182860132 0.31717045509 0.28245648617 0.28090742022 0.27970256138 0.30404040137 
0.32129966332 0.32046920856 0.31223524665 0.31115250228 0.31226736803 0.31875743976 0.3195879671 0.28056634381 0.28214625357 
0.3277320249 0.28808826747 0.28718094304 0.28833922008 0.29868806584 0.29976522656 0.29965591073 0.28514922601 0.28664225024 
0.28553744799 0.28720911979 0.34075560143 0.3531626067 0.34371555781 0.34329894626 0.28370392249 0.29103306274 0.28057443878 
0.28366330563 0.28392360854 0.2694162169 0.26957939192 0.27727302675 0.27858260619 0.29461445904 0.29690737726 0.29362939228 
0.27899827233 0.28134619592 0.28266610713 0.27987545799 0.27858970658 0.27381738404 0.27708546438 0.30449009058 0.29824025297 
0.31224009613 0.32030724779 0.31689662106 0.3264915401 0.32280428731 0.28507773482 0.31103538839 0.3098552748 0.29412851685 
0.29917327449 0.31152545332 0.31714885982 0.30792514834 0.31293973324 0.27825352797 0.2771116146 0.35315778513 0.31395234646 
0.26762019574 0.28076571628 0.28382171644 0.28372064004 0.28643660394 0.39695833159 0.36356967484 0.36233655359 0.29395462891 
0.29466025008 0.29169881941 0.29545922945 0.29566932085 0.29439718845 0.29449677202 0.28385962884 0.30788250433 0.30818332909 
0.26938910642 0.26499771005 0.26553538037 0.30313424895 0.31178080524 0.30591821358 0.31436210685 0.29275722656 0.29141649365 
0.29505446916 0.29370895665 0.28847471485 0.29061046172 0.34202676537 0.34577080037 0.34897342142 0.25971447413 0.28933120413 
0.28981926706 0.29058408361 0.29100826907 0.29108385499 0.29040800988 0.38107372607 0.35815374981 0.28943912336 0.29927998187 
0.29969902329 0.29725783328 0.31932291927 0.33557729791 0.28119446414 0.28031260116 0.28073557924 0.27983479172 0.27631204471 
0.27520405903 0.30299269256 0.30371152313 0.27692950455 0.26311284322 0.27231963692 0.30605477062 0.27981228226 0.27105183299 
0.30746761172 0.30734996771 0.30763464642 0.26394699546 0.27830807547 0.31008856108 0.26919727294 0.26957624711 0.26993199797 
0.28693511478 0.2861898296 0.28538684255 0.28457167125 0.28026667932 0.28653459643 0.29305379359 0.30549561155 0.29051016091 
0.28963461414 0.29488729808 0.28814154271 0.28704718735 0.28591977135 0.28482135153 0.2990713974 0.31950659246 0.31832552307 
0.29100257856 0.28991864084 0.29227752166 0.28394235034 0.28077719421 0.27706756221 0.27748940495 0.32106082017 0.36033257076 
0.3663836723 0.34608815061 0.30675994835 0.30269338925 0.30513954019 0.28212711604 0.28165029589 0.28436862223 0.28391567319 
0.28282013063 0.27842793013 0.28096393747 0.28201344738 0.28179734404 0.28270070948 0.32623247321 0.32386943303 0.32458226952 
0.3087045746 0.30056443199 0.30227250284 0.30006493168 0.29604266174 0.29182161461 0.29804551205 0.29262006317 0.42424784164 
0.38762633668 0.28576668198 0.29046822031 0.28741543466 0.24383081404 0.28500503019 0.26973439391 0.26885597659 0.27343117403 
0.28181879041 0.28196328599 0.29427893676 0.29083651999 0.29451621237 0.28086465043 0.28081252408 0.28157613707 0.29107188371 
0.29002892299 0.30126214976 0.29815981772 0.29587920798 0.28579719327 0.28893149525 0.29090240282 0.38268046299 0.3895376358 
0.26335128024 0.26103365676 0.29013784796 0.37127722377 0.35126250813 0.29291127324 0.4264583674 0.31038509717 0.31625702124 
0.29576009445 0.28938522211 0.29741601989 0.29731640907 0.29301933923 0.32300263069 0.28673576595 0.28737104252 0.28644376903 
0.27821432208 0.27836128669 0.27985008218 0.27978355459 0.32155427524 0.27972230197 0.2731119828 0.28009661549 0.27689648546 
0.37303619698 0.38336259635 0.29638317306 0.33577318081 0.3299329828 0.33091605136 0.30672639911 0.30765563068 0.30812149683 
0.27332963945 0.33084962381 0.33588661318 0.30658885947 0.30047507857 0.30164322433 0.2932771561 0.29479681624 0.32070024904 
0.32152711555 0.3212465936 0.31347794235 0.31677079897 0.32472893686 0.32846386326 0.33264008841 0.29183633961 0.29542968105 
0.29655054242 0.30718169135 0.30649665247 0.29919135485 0.37174448477 0.41238762857 0.3026893231 0.30148045622 0.30136894751 
0.32266730749 0.32278661319 0.32157520335 0.32167140464 0.28890888729 0.28811643057 0.2875487234 0.25303306286 0.23642836266 
0.29652312894 0.28214543595 0.23789214051 0.24567386962 0.32401064197 0.2899934162 0.29241689382 0.29131047999 0.33030563629 
0.33730590239 0.3289967142 0.31808830248 0.26594844144 0.2978786869 0.29519912016 0.30609001076 0.29862837187 0.31058619268 
0.31429887049 0.26372659335 0.26623280512 0.26703537854 0.26290572354 0.26651198333 0.31479664696 0.31983242472 0.32115969309 
0.30665271085 0.255795384 0.25910845249 0.25993283242 0.30816434648 0.3140785735 0.31408528647 0.31619847237 0.27182718537 
0.27134220395 0.31255689986 0.31348262362 0.31187018198 0.31280308159 0.31088530119 0.31786753699 0.31797860874 0.31856738807 
0.31879942743 0.31907794886 0.24536951069 0.35452773436 0.30403544288 0.27970422208 0.30938094777 0.30808394521 0.30591268698 
0.28681021192 0.28823598532 0.28677423955 0.28827043147 0.29382929906 0.30746049012 0.27494841277 0.28751298586 0.29837290334 
0.29947533315 0.31424048976 0.31417442366 0.30632520555 0.30631681358 0.28790917052 0.28489180106 0.28959528287 0.30337524792 
0.30381796307 0.30990299288 0.30194836253 0.30107683986 0.30191670359 0.30108522673 0.28308979446 0.28473780865 0.28515966158 
0.28796716021 0.28358047849 0.31475050321 0.31282527603 0.28692821207 0.29874082699 0.34661758174 0.38837482277 0.32444701471 
0.35328479531 0.27746576932 0.27895359631 0.26885365517 0.26669705231 0.32865984214 0.27586825811 0.27617439907 0.47668848526 
0.47404126955 0.26469005378 0.26391249246 0.30758113513 0.30749601428 0.27738906982 0.29328772637 0.31887446501 0.27634535934 
0.27790573043 0.27645804983 0.29665747879 0.2926031908 0.29441464539 0.23814065061 0.24819635029 0.2458747954 0.28946413269 
0.29286478165 0.29407220769 0.29507198666 0.29036750087 0.2897784748 0.28158661165 0.25359095606 0.25057968848 0.26551741705 
0.29105324629 0.27373106297 0.27805854421 0.28377300458 0.327607554 0.31562270382 0.30850818831 0.29173303627 0.29134054416 
0.30513340898 0.29431362882 0.29328821578 0.29524359801 0.29451269183 0.29673284371 0.27298810511 0.27114220618 0.27019654191 
0.2456660384 0.28560969311 0.28557478973 0.28922201601 0.28553456638 0.30452706744 0.30430908215 0.30350608052 0.30716290576 
0.3061984949 0.30664958123 0.2983726148 0.29305918946 0.30553589606 0.27599022292 0.27522087466 0.27670257174 0.26141530636 
0.26610976191 0.26649404944 0.27030843229 0.33683432173 0.32891349417 0.33104930273 0.26320377257 0.29780053487 0.30189503173 
0.29050367136 0.29373478515 0.29131253027 0.29437584227 0.30993261995 0.30539180395 0.30542485729 0.23717034267 0.28057992495 
0.28279076184 0.28062357727 0.28264859262 0.30667880641 0.2785959572 0.28527043768 0.28455970417 0.27817298974 0.2721925371 
0.29245829687 0.2897217287 0.28799496289 0.31128451655 0.31056589807 0.25668538097 0.29272073183 0.29053261955 0.29208467292 
0.28767773759 0.28826109757 0.29075272792 0.27076743905 0.26962935068 0.27030787219 0.28338419051 0.27949207249 0.27996410934 
0.30588844653 0.28133855705 0.28167045869 0.27274360754 0.27093101105 0.27109494516 0.28688071437 0.30396211371 0.28536997256 
0.28263917476 0.2845494775 0.28229144303 0.28084683398 0.38697892833 0.36903469406 0.38704399881 0.37210156102 0.32360487631 
0.32563978691 0.32414179643 0.32225222726 0.3226868238 0.30782286724 0.30740178318 0.26966188394 0.26858591736 0.26535958005 
0.26406162613 0.3062066996 0.30649970442 0.30713518986 0.21917431933 0.3685869471 0.36042216826 0.2875321673 0.2861407254 
0.28768446449 0.28911015657 0.27623904514 0.2757145122 0.28675004508 0.2847049024 0.27740663386 0.28074324923 0.30038351412 
0.29147625592 0.27102048683 0.26615003565 0.37399083602 0.2634910369 0.25756824935 0.27704553303 0.27892451773 0.30894089167 
0.30654297222 0.31228885105 0.36043718029 0.36886546154 0.37178914153 0.28168210618 0.2856237344 0.28355767537 0.28768430438 
0.32249557255 0.32297125647 0.35223957877 0.34735510113 0.28457767502 0.29984564404 0.29801017648 0.31105950812 0.29376758669 
0.29410113105 0.29070220233 0.29961158199 0.30167727882 0.29549649339 0.35558481429 0.33811349648 0.31302511348 0.31576813847 
0.31325820632 0.30561813347 0.30772370034 0.30713766669 0.27996864456 0.27742175381 0.28140663075 0.32339920148 0.32313349436 
0.3764779747 0.30237930898 0.22420909071 0.28325663326 0.32059613631 0.29887539312 0.29772411082 0.32140120945 0.31371050527 
0.3139590169 0.30698517509 0.30886639777 0.30858753813 0.27659255006 0.2752865831 0.292979177 0.29214677706 0.29016743686 
0.31126461298 0.31124936175 0.31189656769 0.28641728456 0.28089711688 0.27980459935 0.47048405423 0.43139626382 0.28009244451 
0.28556646339 0.31683033888 0.31640460873 0.28276364213 0.40513518067 0.39701972979 0.38201763854 0.27817846074 0.27783932941 
0.2785211531 0.29065482324 0.28939525179 0.29306394508 0.2935132239 0.27778095339 0.2747704203 0.29310542294 0.2836460192 
0.29230446268 0.29565417474 0.29370201415 0.24027210602 0.24903614397 0.24952541271 0.28445184021 0.28632355775 0.28605886141 
0.32203882368 0.32617431092 0.28536383745 0.38582046584 0.27726171619 0.27608467235 0.27692927399 0.33475039327 0.34269713236 
0.2934513283 0.24922554661 0.24777409682 0.23562289218 0.28387580436 0.32204775032 0.32227968221 0.33391667343 0.34155634584 
0.31115912181 0.31204806386 0.31452824563 0.2853443339 0.28798578852 0.28881306288 0.25278798812 0.29884682126 0.29979308111 
0.28434334144 0.28580202784 0.28547956948 0.31241052489 0.31126504575 0.30110297022 0.29999764263 0.2828760237 0.2811075028 
0.34089849659 0.32949860328 0.27962149339 0.25797971109 0.26359397282 0.25785159606 0.26318522438 0.31082139825 0.30342925766 
0.29989565975 0.31568935298 0.31576654313 0.24806207883 0.26989133988 0.27420893964 0.27421946133 0.2778173401 0.30433571419 
0.3074166644 0.27357299442 0.27439476891 0.31428743736 0.26908820848 0.25445214219 0.30882947931 0.28151643823 0.28043400135 
0.31973070049 0.32036026811 0.31915987851 0.31136771081 0.31397845499 0.24798271804 0.27244470456 0.3097660988 0.3097862042 
0.27142085234 0.25396788967 0.24505230741 0.23531693287 0.2669954928 0.26927204934 0.27093103869 0.27193317203 0.26514227419 
0.28215163584 0.25631254305 0.26545916052 0.23193849964 0.3020995689 0.3035821588 0.3675875758 0.27901389227 0.30375169867 
0.31681177011 0.31604222509 0.32238055866 0.3160699407 0.3152598599 0.28932313214 0.28688895717 0.31971113093 0.30189928523 
0.30031052125 0.28442212402 0.28271212054 0.29542800411 0.29157998451 0.31060277295 0.31557322863 0.31151645225 0.28293394179 
0.28249409204 0.30131619259 0.28752459844 0.25454059083 0.23435861479 0.31236156324 0.31780687086 0.39683944135 0.35746865676 
0.35213843598 0.27832202402 0.27646006948 0.30766993035 0.30764879493 0.30762424335 0.30764543292 0.30357224817 0.32009728871 
0.32055883826 0.28395766062 0.29699465477 0.29953254769 0.30266857495 0.27936011287 0.28007954845 0.27875899058 0.28117967053 
0.28180373407 0.3018615898 0.28177187944 0.30963194498 0.27312897213 0.29644724416 0.29822607034 0.33918329218 0.28610280752 
0.30090578797 0.26935110651 0.27262384685 0.30118174604 0.30596815096 0.3015164269 0.30751538368 0.31142338604 0.31045928219 
0.31046056088 0.26329894821 0.31248623688 0.31325474266 0.32677753783 0.32499239438 0.27834775624 0.26312202689 0.28148291512 
0.27757716183 0.28116595707 0.27680543986 0.2798132533 0.27877029475 0.27900574598 0.25860460289 0.29405157549 0.29414871348 
0.28711510067 0.33000578349 0.27672273782 0.27810772033 0.3104186211 0.29729152347 0.27992584785 0.28267107071 0.33340868518 
0.32563158536 0.30555782407 0.29942563931 0.30550517831 0.30514729802 0.2784347758 0.2979649497 0.30455430297 0.28282980573 
0.27408592963 0.27554577353 0.27644562219 0.38825257014 0.38407537292 0.29345430785 0.29671319712 0.29773098562 0.26943981729 
0.27501230711 0.31100412027 0.31140684592 0.31474470444 0.31668117721 0.2896161256 0.28993852883 0.29175563085 0.28705013303 
0.27123221639 0.28529640004 0.28936439559 0.28992327914 0.30012900077 0.29378798272 0.28528733663 0.26963209755 0.29552101086 
0.29364760698 0.29430574723 0.32111134301 0.33290357019 0.292329155 0.28822699789 0.29104191297 0.2784119685 0.28058164748 
0.27922187806 0.30974084096 0.29970542072 0.30550733638 0.30574557971 0.30804671909 0.30703525389 0.31026609324 0.32039165575 
0.321239309 0.3207861703 0.26649174998 0.31967211559 0.31994896122 0.28538966361 0.31743189976 0.31840733527 0.26755106 
0.25089212093 0.25100053704 0.25797659627 0.30265814956 0.30172013555 0.28591426013 0.28661520117 0.3234987698 0.32200344679 
0.28045164455 0.28088349659 0.28718220568 0.28243579136 0.27927715842 0.34236659288 0.32558763381 0.32781139196 0.34123087996 
0.29040440415 0.27597834269 0.27394905638 0.27657069622 0.28739647112 0.24636599789 0.32635616604 0.32989327582 0.3034741767 
0.3025337828 0.31558641162 0.30671346993 0.30105762849 0.26936569787 0.27844127298 0.29879536572 0.29919497492 0.2999600503 
0.29593814879 0.29506327967 0.26889463352 0.32536398442 0.32311167576 0.32354867081 0.28144291873 0.27724567496 0.27938145292 
0.28121547428 0.33608322468 0.29872462016 0.29697476335 0.29091308217 0.29632081224 0.29054544473 0.28745323387 0.31507639341 
0.31517338693 0.28489666253 0.28605857008 0.28415817722 0.28776748943 0.27489352061 0.31726145852 0.31776736942 0.31835824256 
0.41806034281 0.25858428776 0.29504864533 0.29311949176 0.28509718873 0.2870297612 0.26927851327 0.26612713327 0.27272428378 
0.33251588604 0.30209844255 0.27219774133 0.31123764997 0.29183367277 0.29292609954 0.29208054955 0.27853183677 0.27825187548 
0.23807148167 0.31660356666 0.29544230251 0.29672403665 0.29663534684 0.31625083107 0.30652030869 0.3028570594 0.3075150345 
0.296204185 0.27286528947 0.30535168869 0.28623043276 0.28928009941 0.28557287568 0.3018626702 0.29153072824 0.28792279223 
0.28968527871 0.29083517999 0.29698113721 0.29170999023 0.29111428525 0.28808652019 0.23675235413 0.28690087499 0.29473883513 
0.34053687729 0.28128466766 0.30375272901 0.2717045936 0.26814396383 0.26827448821 0.27149310342 0.29571613557 0.26856094465 
0.27189802179 0.30114514275 0.30770888568 0.28999996123 0.29747447786 0.30323862622 0.30412352581 0.30980792185 0.2782471379 
0.32036011414 0.28629837854 0.28832315295 0.28685253791 0.29320171577 0.2759638504 0.29943070494 0.30945913774 0.32051467835 
0.3203230625 0.32045034575 0.31881765226 0.33630156983 0.30555909694 0.2778467475 0.28227646279 0.29562083255 0.29500504894 
0.31016472899 0.31047691287 0.29421825964 0.28789562601 0.28671342432 0.290703127 0.28973033744 0.29064612188 0.29754994676 
0.30575667083 0.30210570191 0.24911019822 0.29841769078 0.29643148153 0.27024464163 0.30029766511 0.28710212371 0.28452947195 
0.24457083047 0.25530317998 0.27606141994 0.24392030742 0.28668851549 0.28496693432 0.28671771877 0.28989885033 0.28941238046 
0.29135799553 0.27936567541 0.28036258236 0.28282820787 0.30418689352 0.29664986746 0.30736480971 0.30473288394 0.30414783883 
0.30753390396 0.33562441393 0.2908580602 0.29124514682 0.26324459199 0.28326600513 0.3173379406 0.31725365601 0.31823602498 
0.25225495004 0.25814207558 0.27258658031 0.2912379567 0.25224920058 0.29062583628 0.30288350127 0.29683501342 0.30670860801 
0.29079579119 0.30564345564 0.26201151815 0.25524294905 0.26541481728 0.28591872963 0.26016365227 0.2749302451 0.28703010104 
0.28860814115 0.28591802328 0.28639345903 0.28939720296 0.26927972863 0.27060290248 0.26991909755 0.28740263714 0.28575187218 
0.32398453476 0.31251265281 0.33700764753 0.27157549482 0.27242448782 0.32827326615 0.33275746926 0.27136388769 0.27371396394 
0.20513762682 0.29236242801 0.29187388043 0.29031802317 0.29429363858 0.28207905822 0.28221946147 0.28327373318 0.28914517503 
0.30920750066 0.30940120771 0.2795564372 0.28207912582 0.30954889667 0.30898873971 0.3091242079 0.30852362386 0.27023045859 
0.30630600573 0.31920530833 0.31618082866 0.32264706993 0.31950791723 0.30299074133 0.30010562338 0.28883710965 0.32981163631 
0.29267134667 0.29093993054 0.2856194498 0.28393548712 0.28240777096 0.28797560672 0.28821417117 0.28741901304 0.29025875286 
0.25394711573 0.26692811983 0.27120362539 0.26809473496 0.2722565433 0.28020235478 0.27803439134 0.28160473254 0.2858435255 
0.28187023687 0.27748832382 0.2773992062 0.27777601421 0.27328681913 0.28116104912 0.27943610436 0.28033593387 0.29603833185 
0.28545724694 0.3607600208 0.38670148723 0.31324493133 0.31209487516 0.31368751734 0.31645344822 0.3148085024 0.31647797587 
0.31533043995 0.29853130296 0.3001174872 0.34797711392 0.30356817989 0.31301629163 0.31376302934 0.30129471847 0.30956785529 
0.26168757134 0.2837414609 0.28511396536 0.29066726498 0.29240467743 0.29190530379 0.29373553568 0.28097353628 0.26609946656 
0.28667980152 0.28523605033 0.28535050344 0.28420504292 0.29034101864 0.29357423984 0.29240673817 0.29697394252 0.31036488441 
0.30919919045 0.30975924321 0.2978227694 0.36171634306 0.28839530074 0.28819990609 0.30449051374 0.30137233951 0.29399486431 
0.28056884991 0.30525017034 0.30570468458 0.27760725084 0.29496511246 0.26372893425 0.26300540186 0.27415691151 0.27330839019 
0.27820988117 0.30268642706 0.29891671632 0.31544392711 0.27503998321 0.27362365419 0.27688445396 0.29214603754 0.29043974749 
0.29628403386 0.29482003663 0.2976610868 0.29873599369 0.29759056309 0.29858250878 0.40287202532 0.27930134857 0.2715969882 
0.26988317839 0.27162598087 0.28077460215 0.32111231182 0.32259522011 0.31733470001 0.29774456787 0.29880240937 0.30167214441 
0.30319015186 0.29753582717 0.29481736912 0.20980527816 0.32036832107 0.26970033172 0.30200325704 0.28283184232 0.28406960709 
0.27495625934 0.30387129914 0.30283103581 0.30121568765 0.30190193212 0.29065926275 0.27483864046 0.27675084236 0.27574219492 
0.27278849135 0.27917184562 0.281521325 0.28667959122 0.29695338009 0.27039720614 0.30873547422 0.28682814782 0.30698815365 
0.30453138164 0.30377578606 0.31223426864 0.33729001043 0.33082268806 0.3202761775 0.31993247737 0.32021219754 0.31990261412 
0.27809010212 0.28913567138 0.2749774165 0.27489945217 0.27685557035 0.27897652049 0.27659483148 0.26998882605 0.29340510152 
0.29119232491 0.3133180511 0.27649566054 0.29712550882 0.29043061523 0.28864080801 0.28906693106 0.29440791343 0.27776852817 
0.27149330495 0.28760582241 0.30265474211 0.30546054036 0.30629676054 0.30922928517 0.33106954372 0.34079732683 0.33464755196 
0.35182981444 0.27257140928 0.31226035285 0.29993492667 0.30211220293 0.30561300858 0.29644860693 0.28223226301 0.2777762001 
0.28030920933 0.31692037197 0.28934258412 0.29793065147 0.27146192182 0.28175086336 0.28517481495 0.29278510067 0.29142471029 
0.29230271094 0.32179055231 0.32175044981 0.28967811117 0.29383645266 0.27469585178 0.30899846923 0.28852590812 0.28807423403 
0.29606742494 0.29587791426 0.30745994582 0.29659130381 0.28526723453 0.29606083042 0.28368415161 0.295086615 0.2949058918 
0.29470250155 0.30102877726 0.27543816773 0.27864322251 0.2808111529 0.29160211285 0.29309626249 0.2849939159 0.2894516827 
0.29117119503 0.29095530569 0.28749410703 0.28385547725 0.28331252393 0.31258578145 0.28843322873 0.28131724994 0.28425281959 
0.28504475006 0.2748411734 0.26898612821 0.29392247204 0.25002977604 0.27478698817 0.26587110168 0.26909735635 0.27635803953 
0.27902787571 0.29954539386 0.30095585936 0.29898024427 0.27446713419 0.29542856385 0.26845626949 0.26318622076 0.29619578056 
0.29522041316 0.29847827827 0.29734907377 0.30677107178 0.30520574966 0.2938080967 0.2941984274 0.28176487577 0.27065508268 
0.3200887828 0.30095046547 0.29711239578 0.32102938159 0.28513258174 0.30049662523 0.3166512528 0.28473784786 0.28122245066 
0.28384573058 0.32176964835 0.30844566626 0.31967822766 0.30677854019 0.30083920596 0.29350195587 0.24456850555 0.24523297383 
0.28850984452 0.28555503572 0.29965822573 0.30108133055 0.29923819086 0.30531563005 0.3080966008 0.30839923046 0.34403590454 
0.28756842474 0.28761007212 0.28881436641 0.27791035929 0.27614045031 0.2857562771 0.28512704736 0.2504829722 0.27964162682 
0.28056737547 0.28073587809 0.27393010792 0.3033599524 0.29340158155 0.28258467844 0.27806046925 0.31272676138 0.31220401745 
0.28906819976 0.27401542117 0.27358385249 0.28890479712 0.28458071728 0.27952184747 0.28272571078 0.29421596862 0.29335381095 
0.2920589103 0.29333765481 0.29137302758 0.30169828308 0.24303361043 0.28171405608 0.28629547097 0.29411819419 0.32104993296 
0.31402435324 0.2822267133 0.21991780155 0.2478118251 0.20823803417 0.2535483552 0.24753767803 0.35919167259 0.29391349116 
0.30169481302 0.30027309951 0.31879519342 0.26800459972 0.29438186369 0.32143141811 0.27770722102 0.27811617351 0.28034626402 
0.29894649295 0.29774261301 0.21355939907 0.29358851266 0.33985884071 0.34012163032 0.30770703262 0.29728685402 0.30357046914 
0.32105996739 0.29153798522 0.30705191618 0.30500530423 0.30395244523 0.29829518575 0.29921603568 0.29401393783 0.29796435285 
0.29676431377 0.30097545033 0.29741251795 0.30155560469 0.29527816939 0.31546614924 0.31416094325 0.29162063783 0.28255984028 
0.29738705649 0.296105616 0.29443087432 0.2931522103 0.31346639215 0.31424172545 0.30803933755 0.28834181809 0.2840236378 
0.32404225128 0.26234165037 0.27484626496 0.26377727811 0.29694346147 0.28492902778 0.28291145739 0.28860526317 0.31753894822 
0.37291410155 0.32056656346 0.28196537222 0.28896397856 0.30395876189 0.28281966297 0.28752159741 0.3190957405 0.28657880504 
0.29228510756 0.29510288953 0.31989224656 0.32173467805 0.30935190004 0.30248262087 0.30659064661 0.28653622485 0.23243016599 
0.31657374403 0.28522386018 0.28437185244 0.31502647548 0.27449770091 0.2715580851 0.26321408583 0.23473943937 0.27418909659 
0.28024736479 0.31292165956 0.29844989848 0.24264878115 0.30857544701 0.3100802061 0.31954744814 0.42325212351 0.30815417233 
0.28763493462 0.29025306663 0.27465280198 0.27496812723 0.29760339224 0.31836648087 0.31776172674 0.31875982644 0.3182227683 
0.3046050096 0.30342710955 0.28665272948 0.2829798084 0.29407486896 0.2938171734 0.29624300586 0.2978809278 0.29604665915 
0.30570244889 0.31321832643 0.318909199 0.31222887189 0.27582594553 0.28052158947 0.31902683848 0.31851230537 0.27215217943 
0.33995056025 0.24288951261 0.28459597338 0.27231952198 0.25341629503 0.30485722357 0.25985060749 0.2575831445 0.28801383056 
0.28812725786 0.28773097952 0.28795154009 0.27570662021 0.26840147553 0.27574970816 0.33105572554 0.329643318 0.32738536573 
0.2446390439 0.28899043302 0.29347772666 0.3186172716 0.31869230527 0.28007624396 0.25928146394 0.29673047202 0.29782393804 
0.29635288069 0.29514262354 0.29701528254 0.25349124438 0.2466730566 0.28045398847 0.28899041778 0.28986893001 0.28955755455 
0.27971303339 0.30729724892 0.3069745009 0.27373795971 0.27715472865 0.2882601359 0.27391257692 0.2364877853 0.24324017037 
0.31944214113 0.27536382305 0.2920011481 0.29155869696 0.18950081208 0.4578561313 0.44999236376 0.28600818477 0.28858381582 
0.2885374433 0.29105888486 0.24790012386 0.25699475702 0.24816602611 0.39837389616 0.37090719414 0.28433383671 0.29215584573 
0.29312202292 0.2909867041 0.32296676473 0.28665009268 0.29151359434 0.28465283341 0.28430864941 0.28297618791 0.2808288672 
0.28266245724 0.2840499374 0.28764686701 0.29300623953 0.2934639534 0.27736659283 0.29668605513 0.28728705324 0.28668483396 
0.30210093006 0.26512135499 0.26445275069 0.32862373748 0.32124562143 0.30674216766 0.27872651121 0.27677114242 0.28353034733 
0.28592944932 0.28599840922 0.28887494411 0.29758035021 0.30338990087 0.29549113581 0.29454765306 0.29636023008 0.29452811067 
0.25665356462 0.28746763413 0.28210139045 0.28417972078 0.28913524734 0.31089743455 0.30504544658 0.28386836471 0.29988183351 
0.29087187874 0.29827730114 0.21322482968 0.28170756338 0.29905229207 0.26607643853 0.24819561246 0.23645531014 0.29090545143 
0.27718204916 0.3094838832 0.28853837593 0.28900112771 0.28635303457 0.28583318456 0.2813866363 0.28519742911 0.33034233176 
0.31931811175 0.31045736679 0.31919492449 0.28797410703 0.2874826864 0.26784504963 0.26893837947 0.2671533574 0.34346520724 
0.27772539706 0.27977136504 0.27706144151 0.31167444499 0.28828802113 0.25419974955 0.28460163694 0.30882974617 0.31403786908 
0.30989637871 0.27269896812 0.2529959886 0.26986595729 0.26412571703 0.29386377124 0.29926946793 0.30458109797 0.32174531417 
0.41619156472 0.29761700224 0.34641448236 0.31439024452 0.28955013947 0.29018004164 0.29132101409 0.31328086268 0.28316523172 
0.28400956988 0.28469663666 0.3208018722 0.27472261219 0.30902755457 0.30134366033 0.29384497733 0.30991664648 0.31258321326 
0.29373482207 0.27787559397 0.29790617728 0.28068445869 0.29661455319 0.29075791795 0.24615671425 0.35905799669 0.29883325178 
0.2933170313 0.28894966192 0.29041224331 0.31118472692 0.3100454942 0.31213056191 0.30946925986 0.3190970307 0.29835377082 
0.28973528196 0.28897798562 0.28837058173 0.29038678731 0.28914416907 0.30780458738 0.28902879296 0.28940439143 0.30034674844 
0.31649776157 0.28260559853 0.28185439982 0.29243341891 0.29615272246 0.2925891414 0.28452751939 0.29489630887 0.32241026074 
0.26979712213 0.26006220182 0.32870333193 0.3062462598 0.3175201366 0.28975711441 0.26954713621 0.30772485876 0.30796271587 
0.32438097007 0.28896683639 0.2908609737 0.29904076148 0.32230835613 0.2769665538 0.32829439626 0.32333565032 0.27810408529 
0.35678192063 0.284154842 0.2995460274 0.29705950179 0.28875883593 0.2878580013 0.32224026609 0.29205170322 0.25787097128 
0.30481289443 0.28451598993 0.31697793986 0.31616501377 0.29983467261 0.29942709491 0.27645812233 0.29200604621 0.29169962955 
0.28924082271 0.25061511819 0.30392189846 0.30388455866 0.41175815605 0.2966791895 0.32137947872 0.32081854082 0.29788289089 
0.30717711025 0.30703680926 0.33889810866 0.2900971763 0.28846282735 0.28958477887 0.29647545832 0.29374025887 0.28997324541 
0.29183547347 0.29178549914 0.27465278344 0.29043107553 0.23892053783 0.28717810615 0.23176914534 0.24242377191 0.2508992871 
0.29338747532 0.27602797347 0.29451258287 0.29232522045 0.29763417488 0.27338350371 0.29976370508 0.27745518203 0.27795632684 
0.27759214868 0.29849798511 0.27961254472 0.25882015173 0.27940984615 0.27704403564 0.29080335008 0.29718891318 0.29825925533 
0.27913073815 0.27551256729 0.3154296749 0.30212497052 0.27741606901 0.30630696439 0.30609540075 0.30465212534 0.29481640563 
0.3122452453 0.3176528531 0.28318190616 0.28868711226 0.31948818046 0.29664386267 0.31435499503 0.31706260364 0.30011751661 
0.32125050688 0.29248945656 0.31582426499 0.31684411092 0.31790287713 0.3176143973 0.29017302314 0.27442577566 0.27679559324 
0.27189936272 0.31668209315 0.23797789554 0.28088408036 0.30677711866 0.29701444721 0.30518851423 0.30699817833 0.30975189566 
0.39953392532 0.28904743245 0.35056647591 0.28592420141 0.26488981139 0.26755110592 0.26928803653 0.30025761419 0.30209303482 
0.326502399 0.27504147583 0.27574619408 0.27716362732 0.27902105121 0.2796866656 0.29356338591 0.28070103131 0.29244232901 
0.28954194731 0.27524982547 0.28746027979 0.28514273188 0.2878238224 0.2999749974 0.289925298 0.30691803883 0.30725696613 
0.31972354767 0.28156392581 0.28254532216 0.29712601702 0.29384929953 0.3086192702 0.29263940455 0.27939953873 0.2923525169 
0.29344999501 0.29134248833 0.303164019 0.30175615217 0.29456895988 0.28237932327 0.29961080068 0.28571030572 0.30528338436 
0.29686656366 0.4551604425 0.27309835143 0.2720169887 0.2979968965 0.20090555428 0.29617939469 0.29665958464 0.29829189485 
0.36293795789 0.32861732622 0.34026562978 0.33454561462 0.29445798247 0.2724015397 0.31570864482 0.27091211898 0.31333460568 
0.3124156605 0.30835073464 0.32761724115 0.31527056957 0.28581021418 0.27874607944 0.31407480897 0.29864081772 0.29748464273 
0.312922768 0.31800759891 0.30872481849 0.31341768329 0.32035170428 0.30881101923 0.30847950358 0.31551661021 0.28003843979 
0.29246237159 0.29505045994 0.28604224335 0.28263226556 0.31295491898 0.31900904975 0.28662149379 0.30420293899 0.2490533136 
0.29271763376 0.29473637609 0.30564742907 0.29325256316 0.27251269776 0.27308473069 0.27602764669 0.27633324777 0.28625579974 
0.2830668381 0.28156823394 0.3000652838 0.2960138612 0.30876299775 0.29219402093 0.28361788441 0.27378985717 0.27185640721 
0.30776878216 0.2972486986 0.27729114665 0.27663342149 0.27201426304 0.27813652016 0.30295148447 0.27371999667 0.29170672273 
0.29330368321 0.29043679416 0.27325740116 0.27745879163 0.26261893571 0.2757452243 0.30607167097 0.32140303375 0.2989752896 
0.30044309163 0.27882723034 0.28031702773 0.28616375106 0.2853819001 0.33176833089 0.29413955654 0.30643137675 0.27017896267 
0.27451645775 0.29741619908 0.31183706103 0.17703553025 0.28196223529 0.32389173054 0.30597622606 0.27961866368 0.31408274413 
0.42411015204 0.41124041633 0.3031056822 0.28188527542 0.29899267369 0.29777554638 0.3114383278 0.31113338116 0.27591893948 
0.29278660303 0.29406587963 0.29481320802 0.29773295405 0.27913089761 0.32553132871 0.28888911261 0.27754741401 0.29221378527 
0.32332949576 0.28770419749 0.30071728556 0.29618040694 0.28046273307 0.28805180838 0.30351060952 0.28333636519 0.32355552506 
0.31768616114 0.31136185561 0.31435395681 0.34042876014 0.32088753072 0.33045078861 0.32205630787 0.29923626555 0.30233188169 
0.30713042049 0.31713617185 0.32053723617 0.31554685441 0.29950698276 0.33634551703 0.29191067472 0.26928135759 0.31658407383 
0.28030239929 0.26612558636 0.27364707444 0.28236295162 0.37568728482 0.28425238383 0.28187145121 0.27988745358 0.28682321526 
0.28390043089 0.2859683877 0.27454246326 0.29486523383 0.29675259286 0.28706014896 0.28009226767 0.29743683784 0.28562055539 
0.30938789272 0.27254487046 0.2760799271 0.30368906206 0.31385188856 0.31823523971 0.31643045129 0.27772582953 0.27797761137 
0.28339906018 0.28314095199 0.28141456357 0.28670013927 0.28512395594 0.28822475276 0.29164439836 0.28703317074 0.28908125367 
0.28685875809 0.34705174566 0.31400374961 0.31149881025 0.29361216596 0.28706681372 0.31952621715 0.32032584125 0.26928430304 
0.29579201045 0.30062457118 0.29664174957 0.31971115746 0.29086787547 0.27800949103 0.32096957991 0.28274128744 0.31491719671 
0.32489912166 0.29509077318 0.31281188474 0.29132336032 0.31258201646 0.31840025864 0.25260750726 0.27255248431 0.27472964411 
0.24529365682 0.31892496217 0.30878005673 0.30900138226 0.29934064826 0.31293222913 0.31515203374 0.29559458364 0.3028524327 
0.2941851956 0.30128016742 0.30217636651 0.31997511827 0.27697418033 0.26886449319 0.30941401265 0.30581253753 0.28156534623 
0.28986435377 0.30646593543 0.29819776767 0.26449277927 0.29335584024 0.28760501868 0.28736044583 0.28917444314 0.29822773919 
0.30604803839 0.27472049615 0.29182395267 0.30686811176 0.25984091824 0.25563451787 0.27512245102 0.27565891726 0.27747895561 
0.28051396509 0.2858475878 0.3024980162 0.31673328061 0.31660640708 0.2498989832 0.25201788456 0.30790270363 0.30180849038 
0.28855391555 0.30314575341 0.30374739993 0.30598897798 0.29229096211 0.29429711701 0.27809069386 0.33676582257 0.30913522306 
0.25685350138 0.28342502613 0.2860361805 0.28244413902 0.31243273292 0.30452943674 0.30846037445 0.30574121153 0.30497671796 
0.29465935886 0.15715126381 0.28922628665 0.28857541666 0.55887726382 0.28773311469 0.28860142506 0.16858430592 0.18258976007 
0.16942335985 0.3310617573 0.28944324614 0.3178890111 0.28842567776 0.18279623327 0.2865527433 0.21915357094 0.16479406162 
0.28788479524 0.27598269661 0.29248833904 0.35338368705 0.31946080615 0.2950306254 0.20394573977 0.19740382417 0.20778348264 
0.15888275528 0.29835430315 0.18873369067 0.18519201622 0.30259700684 0.31847298878 0.15910314023 0.28844891531 0.28692391554 
0.30905435113 0.20209681903 0.29018618291 0.29817056865 0.29172708374 0.21098946072 0.2156281027 0.93998325529 0.26980873081 
0.27914630871 0.28218594114 0.29957342458 0.28636321768 0.28570170894 0.27572629954 0.27506205739 0.21987765995 0.30101598888 
0.29660620567 0.27648889352 0.32171371234 0.32036006984 0.30787888515 0.32552190386 0.26960854789 0.19634375227 0.30537836593 
0.24873510522 0.28864249578 0.23324335865 0.21780069384 0.27183069553 0.2533219146 0.35845813549 0.28353945566 0.26769934588 
0.24481497708 0.23594009586 0.28371466739 0.1865262349 0.19057755604 0.30917318044 0.34404946668 0.17508463177 0.18971295868 
0.24433652369 0.26404300327 0.33741146865 0.31992033446 0.22073529701 0.29793044857 0.3074791105 0.18437360058 0.20201905272 
0.20629321761 0.17229061881 0.17864250809 0.30462626231 0.30554937283 0.18511583246 0.21408243222 0.17255564653 0.29607133767 
0.30493078723 0.19308143294 0.18638114391 0.17351632781 0.15768393187 0.23065369154 0.28194346186 0.24927353485 0.28506348532 
0.30459814886 0.29560049332 0.29221883982 0.1897481179 0.32110092779 0.20759428714 0.30434660004 0.27807820876 0.16405747053 
0.17797995088 0.17482134874 0.30638950652 0.33314010081 0.21910645149 0.24572858758 0.24578481344 0.28229380132 1.2736703741 
0.30765329161 0.30769752738 0.30769347357 0.16427652838 0.22154986565 0.2136192658 0.22586753701 0.16769878987 0.18260906245 
0.16331372559 0.247486371 0.2332859928 0.26768223012 0.21216306422 0.22171528635 0.20389614939 0.21144137723 0.20439104702 
0.2072906022 0.18981889916 0.1800927581 0.2173704874 0.23789041655 0.23426443636 0.24538205597 0.19161457768 0.18824301537 
0.17828665898 0.18068423941 0.19716590173 0.19480069164 0.16310584875 0.17734401555 0.19331099299 0.22213771996 0.19001847285 
0.19139732462 0.2126185229 0.20446845603 0.16641629746 0.24594379151 0.23536075736 0.16809257515 0.20423602624 0.25446134141 
0.20397947638 0.24955984635 0.21349627361 0.17460204366 0.17270212925 0.25044970955 0.21622753296 0.20170181818 0.17269020472 
0.17760445008 0.19002694464 0.16210664585 0.18501969854 0.19204523272 0.16403485755 0.16804926951 0.1836534237 0.18139132512 
0.21925309641 0.27621561325 0.25545850649 0.20742115351 0.17954672072 0.16872566043 0.24581741405 0.18119558427 0.18107786542 
0.16331584497 0.17791562334 0.16276652269 0.18843823626 0.1651824611 0.17654491977 0.18316346553 0.1853431668 0.20660105375 
0.22353179256 0.19081081416 0.20088461188 0.18921977726 0.20434410569 0.20954011535 0.20328625693 0.24771275238 0.2333069117 
0.25301675637 0.21445190521 0.16209530609 0.20583276291 0.19847531143 0.21949793241 0.18908576471 0.21881130555 0.19377821394 
0.20208931315 0.21831031469 0.20987256553 0.170046207 0.22089039691 0.23856581496 0.24493427055 0.20873726419 0.19568401027 
0.18473387137 0.17188364881 0.23294745354 0.17797348388 0.21435427439 0.19339172906 0.23325734988 0.18864860895 0.62006996161 
1.2474815097 1.3070169306 
